# vtk DataFile Version 5.1
vtk output
ASCII
DATASET POLYDATA
POINTS 1116 double
52.981952374 75.224627905 44.021810855 52.762770133 74.803224387 45.426238787 54.126585875 75.145531872 45.319304651 
54.216215249 75.496217783 43.827675833 52.514343937 74.241474147 46.81085609 53.99477933 74.695014409 46.761737461 
52.512567501 73.51821966 48.147282066 53.996705747 74.028912678 48.104230022 52.671361103 72.774195605 49.452631681 
54.142807179 73.289148899 49.389660363 52.986175385 72.009990437 50.727785407 54.449245839 72.524419569 50.633412891 
53.508182778 71.128340809 51.848985592 54.910739397 71.682108914 51.778672212 54.083627732 70.240726585 52.938359959 
55.449327254 70.808122609 52.873502176 54.712482438 69.350104612 53.996881974 56.032585118 69.859072147 53.898189741 
55.359551364 68.111388171 54.591362428 56.627921992 68.643100916 54.463234237 55.833333608 66.746358937 54.979930661 
57.126353821 67.293019123 54.807381318 56.173416613 65.283387911 55.207598694 57.551685824 65.874871899 55.026262947 
56.6374309 63.866423386 55.500919119 58.020691707 64.478670546 55.322351474 57.150717018 62.449004321 55.620221885 
58.551143396 63.103050087 55.544892759 57.718450106 61.043354858 55.633725571 59.183891206 61.760161777 55.725424257 
58.584484292 59.811266214 55.836400085 59.961269776 60.479221349 55.791482413 59.446778566 58.574560434 55.929540707 
60.772018224 59.213963712 55.807792249 60.300536009 57.327315448 55.772656131 61.57312748 57.945945205 55.645767805 
61.033635859 56.07595518 55.400822289 62.301068128 56.66937285 55.270517079 61.632662288 54.820022055 54.79013913 
62.883290089 55.43304687 54.598953034 62.007686075 53.626637547 53.951167576 63.324971926 54.216202335 53.747005441 
62.292182872 52.458303694 53.022727279 63.683857234 53.01635215 52.815391988 62.399306677 51.331754946 52.008554214 
63.909450981 51.829085142 51.68891711 62.421762814 50.258970814 50.946482895 63.816941767 50.631280487 50.539377826 
62.240189569 49.315746899 49.768987927 63.609556416 49.638853897 49.339720118 62.020413574 48.565402224 48.479553307 
63.35729763 48.910393805 48.061688648 61.771071691 47.954186561 47.112293482 63.061155526 48.309107094 46.708764725 
61.283540141 47.817048025 45.679589532 62.634422706 48.177663867 45.301183616 60.793849724 47.874824951 44.256652183 
62.159084029 48.263698398 43.894755885 60.301821519 48.143671229 42.844290855 61.658448769 48.52932662 42.508583803 
59.773116973 48.456820498 41.454531674 61.125583322 48.897127249 41.155462034 59.197815358 48.809774327 40.094657079 
60.578264275 49.299048773 39.817121255 58.583519461 49.212659591 38.766607249 60.040973924 49.748756823 38.496918891 
58.141963396 49.983221528 37.533563398 59.533816877 50.428996396 37.259552066 57.589090183 50.862914529 36.44353117 
59.004059631 51.236438977 36.108754698 56.93433884 51.844563224 35.486271412 58.468097473 52.21030512 35.104351883 
56.506731893 53.001265701 34.598394014 58.010792414 53.315309764 34.181497663 56.120336964 54.207670214 33.764382244 
57.601184764 54.485164704 33.30836356 55.785505384 55.47626055 32.997765673 57.229319688 55.729765395 32.524820399 
55.467232998 56.818326306 32.362597263 56.875162776 57.053651638 31.845804364 55.1720488 58.206683296 31.837853672 
56.52901112 58.42332331 31.261320376 54.915957978 59.662644458 31.486102081 56.181077153 59.855209724 30.818944162 
54.51618653 61.112928841 31.286389922 55.801813554 61.33925417 30.510327698 54.128147418 62.573406367 31.133993538 
55.432423082 62.845933938 30.276930275 53.781157666 64.048076664 31.015333428 55.070665565 64.47402344 30.178635688 
53.489726109 65.509035586 31.310653616 54.630228402 66.051211914 30.554649407 53.244571362 66.889218617 31.854071249 
54.313548635 67.447821176 31.189976609 53.028695308 68.167629068 32.630377683 54.080364163 68.736592425 32.041406016 
52.793839347 69.230167362 33.691032974 53.974627534 69.826107556 33.135925902 52.628981507 70.215593292 34.831712796 
53.897947529 70.824755635 34.303299021 52.50365448 71.157470703 36.017585754 53.850038702 71.77045205 35.528959802 
52.476456651 72.046785514 37.249459953 53.834679999 72.657055641 36.794077815 52.481348467 72.885247774 38.513693664 
53.84073048 73.509258828 38.08502092 52.539952801 73.638591652 39.832091605 53.89741577 74.282048199 39.427356976 
52.632335566 74.366539546 41.162631786 54.012726829 74.913053501 40.838066999 52.769112914 74.942384948 42.543916111 
54.144877878 75.340895073 42.328652645 84.390699466 55.635742141 42.826813071 84.662955148 56.050373095 44.271560537 
83.435777221 55.499145261 44.495189969 83.334886019 55.09038866 43.023845258 84.868621153 56.621290199 45.676183056 
83.532803284 56.097018593 45.910565296 84.909569379 57.359364797 47.030391546 83.600515434 56.809059511 47.274324384 
84.959909948 58.340440904 48.210910729 83.579827776 57.796052054 48.481610382 84.996879342 59.385693332 49.343093132 
83.513799194 58.8563019 49.618263358 84.805285386 60.508216654 50.384027641 83.326642004 60.015268719 50.629737375 
84.595512377 61.655137928 51.390522163 83.102447413 61.198521793 51.613378421 84.318190159 62.892716428 52.269045554 
82.805449712 62.474415391 52.433690498 83.981537438 64.166405941 53.042319158 82.47593572 63.772421682 53.220020011 
83.470495541 65.546235967 53.506233788 82.066990175 65.187728245 53.68463401 83.015481097 66.959090449 53.892074198 
81.683184271 66.62714138 54.083955779 82.713718692 68.462276814 54.064357995 81.350444069 68.110317779 54.359204784 
82.401092161 69.965544665 54.211690973 81.025971745 69.607205066 54.587125061 82.072990247 71.468928589 54.323482808 
80.674763085 71.114191695 54.74911182 81.663064163 72.952886447 54.324716012 80.267164754 72.619037211 54.778256241 
81.210140613 74.426636177 54.267852188 79.824739403 74.121663502 54.736737588 80.660787589 75.749826462 53.707399717 
79.263166397 75.530630041 54.281545548 80.145024548 77.000435112 53.004329388 78.750346472 76.89048154 53.571389164 
79.737077797 78.066288231 51.966134761 78.264031248 77.918475627 52.452826279 79.361106224 78.965978612 50.784722259 
77.868059792 78.842531551 51.207749291 79.007112521 79.751458431 49.504870152 77.503129347 79.676774279 49.91270093 
78.552418624 80.265157166 48.124462709 77.100682094 80.116582678 48.439508674 78.181440485 80.723918322 46.705573806 
76.761786533 80.517652805 46.958960366 77.965745382 81.107041725 45.226721689 76.479109596 80.878929292 45.469338059 
77.734878593 81.08323319 43.711779904 76.236443063 80.964458535 43.928938836 77.522270531 81.02564436 42.186186484 
76.000307904 80.871230925 42.390301634 77.349988167 81.049564131 40.653196551 75.797207944 80.793273152 40.843167851 
77.152244147 80.875711743 39.134151151 75.609197538 80.686058999 39.3027537 77.007456631 80.644529032 37.617583589 
75.448814397 80.439358966 37.774542558 76.932943374 80.36230075 36.102622707 75.352518658 80.047311483 36.270779296 
76.999785394 79.623541677 34.756366962 75.370490582 79.314466735 34.911289187 77.090673427 78.720228779 33.523576434 
75.451898688 78.438592778 33.632473822 77.199927065 77.646156926 32.421421817 75.572775726 77.426990058 32.44993195 
77.289506354 76.630085488 31.263961581 75.690658267 76.496575006 31.214518262 77.361954112 75.760289773 30.002225299 
75.807103061 75.646937651 29.920897873 77.420532227 75.011230469 28.654712677 75.928038021 74.878104084 28.591636578 
77.453910838 74.11694741 27.397948903 76.044646753 73.909732489 27.414988706 77.586937015 73.06217537 26.330841282 
76.210010863 72.785116987 26.416834691 77.874815069 71.758004161 25.558458484 76.459871163 71.476491995 25.739649553 
78.286393704 70.304763007 25.287217039 76.809688948 70.00288725 25.497919405 78.727015997 68.837692378 25.113183631 
77.19656104 68.51864839 25.364281724 79.186193588 67.369161069 25.003145869 77.585061383 67.033574537 25.299955212 
79.554040535 65.871551243 25.049674751 77.95955387 65.543512684 25.349107507 79.922097257 64.415559882 25.329236936 
78.364346535 64.083853321 25.647380529 80.294469376 63.006097901 25.823457681 78.789912554 62.715919724 26.181226942 
80.746662793 61.823859456 26.705582886 79.257856019 61.488528477 27.003201031 81.166299825 60.783062194 27.744839513 
79.730120299 60.362476993 27.964027203 81.556833376 59.86870498 28.924562333 80.189099528 59.404352744 29.086888339 
82.122525142 58.996316478 30.063322502 80.699914275 58.50412387 30.243509047 82.673410577 58.203376381 31.256471407 
81.216017179 57.651254167 31.441225422 83.156243841 57.599696545 32.591669594 81.679660234 56.994314283 32.77245174 
83.536928908 57.070268679 33.984844937 82.093547425 56.395685766 34.150793535 83.842710174 56.595288713 35.420534093 
82.396956315 55.922618603 35.594815221 83.961913674 56.133062732 36.885632355 82.670795653 55.431699345 37.035067579 
84.102300859 55.737977446 38.354829457 82.989182872 55.007318462 38.472348988 84.587597824 55.773487743 39.818911892 
83.266727843 54.926017813 39.981607892 84.661025218 55.735349207 41.311123815 83.365598595 54.951911066 41.505711434 
55.367730718 75.218356885 46.775716134 55.493581175 75.617121501 45.288481681 55.325697081 74.650420654 48.153914273 
55.458592359 73.931127489 49.440061883 55.766551086 73.160836868 50.666198578 56.217044857 72.339332759 51.812675581 
56.768841902 71.447947623 52.875412448 57.369928739 70.453295723 53.839137228 57.96548922 69.228426486 54.385701518 
58.467845236 67.902234275 54.80484511 58.89823789 66.525907001 55.187411642 59.366315698 65.141275089 55.514913364 
59.89644595 63.763814948 55.750554923 60.525943869 62.426108067 55.9588775 61.283642339 61.123501372 55.994839256 
62.084683437 59.827416275 55.997308931 62.891792124 58.577208246 55.669973756 63.634655188 57.287066936 55.260550885 
64.208444239 56.059643643 54.524314387 64.682546564 54.831766035 53.71506809 65.182741662 53.571723755 52.795689401 
65.849959663 52.11124004 51.573985623 65.342756879 50.732369468 50.203658786 65.026314628 49.704099429 48.994881456 
64.744237734 48.970595132 47.691754763 64.431624655 48.436499579 46.325287427 64.018250543 48.371023862 44.921743976 
63.538285997 48.558238567 43.532511296 63.022310768 48.897401745 42.176412597 62.492238352 49.295966963 40.840439044 
61.961566736 49.717957894 39.512507301 61.449820088 50.168077593 38.187243004 60.945879229 50.808839182 36.932241063 
60.443333558 51.552975355 35.727573041 59.941052095 52.496217353 34.67634742 59.484256238 53.58447341 33.728828513 
59.06503436 54.745713861 32.845802196 58.661053189 55.957235799 31.994874655 58.260155366 57.229232694 31.222967726 
57.86593836 58.572140837 30.569264303 57.466321852 59.984992754 30.055287608 57.041938374 61.419315171 29.615388021 
56.658821728 62.980000667 29.201454258 56.428516591 64.973045772 28.826481501 55.619463385 66.760445366 29.539798693 
55.186502655 68.228709474 30.318680562 54.944422865 69.531306042 31.241527904 54.900304328 70.657897734 32.361566209 
54.897132992 71.682646525 33.574750237 54.908552976 72.641018508 34.839805542 55.001519191 73.487847102 36.190971087 
55.095655116 74.283595551 37.581348361 55.281166455 74.900489062 39.042338249 55.487290616 75.389406375 40.56191743 
55.604342213 75.702399885 42.162728104 55.625272234 75.768837353 43.743420213 82.224130926 55.508666279 46.17459132 
82.194997787 54.866355403 44.746509241 82.262611763 56.259733473 47.542587751 82.209137834 57.237145427 48.770173188 
82.075373183 58.336800676 49.877728434 81.864515283 59.514486012 50.885584579 81.617239717 60.735059215 51.835596433 
81.308201177 62.051768309 52.613481457 80.986663142 63.400918541 53.333019256 80.64332652 64.820328564 53.868065338 
80.321294784 66.251931795 54.388474629 80.022105338 67.727438825 54.80226441 79.739814022 69.216319309 55.207468553 
79.397111513 70.747317592 55.445352432 79.023486197 72.302314402 55.608285682 78.579404127 73.875804973 55.591875994 
77.969185079 75.377469572 55.137485801 77.286120673 76.866585935 54.336513261 76.77188689 77.945467613 53.025185813 
76.362994064 78.876018901 51.695409013 75.985168956 79.705224165 50.291590511 75.612490695 80.122958803 48.774493035 
75.278455628 80.482700485 47.248141812 74.985157691 80.735801855 45.709079355 74.719984893 80.870105277 44.149929835 
74.467670663 80.923464475 42.579752522 74.240817553 80.862827923 41.013153718 74.025557531 80.691385106 39.450000589 
73.843053868 80.354809116 37.903368436 73.719510659 79.862674505 36.391879736 73.696755962 79.160531087 34.970323071 
73.79032028 78.269634109 33.650847134 73.944527088 77.310357065 32.39125856 74.111563327 76.445843955 31.087557451 
74.274710173 75.676941701 29.726334174 74.444054865 74.921837375 28.380359421 74.604659104 73.855512175 27.251613341 
74.792860195 72.614238614 26.329879532 75.014416647 71.211456484 25.815736386 75.312613635 69.716820519 25.613570805 
75.652030432 68.216424464 25.54623609 76.001472335 66.710518569 25.525959682 76.381205427 65.216994763 25.626933878 
76.811962141 63.747576322 25.913254796 77.276187368 62.398514258 26.485911529 77.772054465 61.157826556 27.291498334 
78.26971995 60.004452265 28.225133083 78.759112088 58.994619109 29.304850701 79.252813747 58.065987347 30.467105611 
79.7459275 57.175525116 31.670871141 80.203565902 56.437352474 32.983681579 80.642914853 55.763374267 34.337097974 
81.049534027 55.145927753 35.726240947 81.452188729 54.557267369 37.128365738 81.885441327 54.023555718 38.529075636 
82.148759251 53.923971471 40.119176256 82.226578186 54.041141478 41.723741783 82.186340431 54.379263257 43.256316764 
56.610220719 75.171552422 48.236071972 56.740849135 75.576650033 46.81903504 56.712520372 74.502216946 49.495131023 
57.007517237 73.795574699 50.724284577 57.481527583 73.005355914 51.847113961 58.07519985 72.116712804 52.877438831 
58.713548695 71.121353051 53.819447302 59.28719374 69.897258381 54.479464575 59.76862923 68.597874589 55.122275224 
60.138582175 67.215324847 55.670123702 60.593324008 65.800754225 56.001193687 61.124137215 64.407471516 56.22751239 
61.784208912 63.065480214 56.331277964 62.562466374 61.765887701 56.347303447 63.392272467 60.482881422 56.222647143 
64.245389523 59.224460057 55.827128743 64.99077591 57.925152531 55.331765896 65.59397033 56.636946583 54.690919964 
66.052985936 55.340274844 53.986198113 66.584364554 54.128907046 53.253750025 67.401554624 52.973847842 52.503285999 
66.414076607 49.510898477 48.640802019 66.78142806 50.34986001 49.799913514 66.153730048 48.895685034 47.357072335 
65.854758382 48.463335984 45.953444789 65.437928835 48.414381201 44.538491508 64.942302893 48.655161077 43.138981311 
64.415119734 49.012876911 41.776988434 63.878965378 49.48176578 40.457041907 63.35253414 49.964524752 39.143673651 
62.849951923 50.493684394 37.843446056 62.363971465 51.149124442 36.589452688 61.879242106 51.868870965 35.357018972 
61.398435025 52.761634689 34.244452697 60.935743377 53.798218406 33.22937733 60.502174554 54.926880227 32.280028152 
60.089152551 56.141797369 31.413308402 59.674072815 57.411286329 30.613692594 59.244738428 58.719210704 29.891416246 
58.795046997 60.07201321 29.303402615 58.322058109 61.43832145 28.802885475 57.997819727 62.804291082 28.273454324 
58.032912132 64.316343301 27.747117995 56.098476502 69.089881609 29.485593611 56.505728017 67.765243512 28.645632325 
55.866600889 70.409393856 30.430444748 55.864414151 71.538377201 31.575589538 55.918399621 72.579310985 32.824752405 
56.016499575 73.515637706 34.154400117 56.157186964 74.375044568 35.563677767 56.298193651 75.174692351 37.033853351 
56.63257685 75.629880508 38.613211065 56.941819724 75.965073309 40.253945922 57.210197144 76.114887076 42.006491189 
57.124578926 76.005249441 43.760806301 56.902019627 75.935165581 45.37611034 67.469704451 51.158975127 50.94255003 
68.536158922 52.042674285 51.808646667 57.255167594 66.538223786 27.876070424 58.437396461 65.721040125 27.107796714 
80.952288186 55.612933187 47.885966982 80.905923404 54.863816361 46.487618889 80.8564713 56.641790628 49.10750565 
80.68989137 57.760262575 50.220554357 80.421775125 58.995126345 51.181092995 80.149350038 60.249312135 52.10151855 
79.8201388 61.610303243 52.835559568 79.525003858 62.979901643 53.572020613 79.256594854 64.372496032 54.27113507 
78.971998314 65.824635999 54.83252404 78.751008728 67.276851544 55.427497933 78.51452444 68.771826728 55.947382737 
78.255855768 70.308213588 56.378858435 77.895029248 71.92970093 56.614777525 77.43190889 73.510201118 56.604228345 
76.683042285 75.151690223 56.200286614 75.377327215 76.831504703 55.275951937 75.138456421 78.049778363 53.518023029 
74.799169257 78.949665139 52.04684899 74.443980675 79.703706575 50.604328314 74.090228635 80.095989639 49.063088049 
73.768878718 80.395059668 47.505948304 73.478664798 80.57234306 45.935150837 73.195297672 80.734335012 44.366350172 
72.919279754 80.836725016 42.786598855 72.651047786 80.862592941 41.19198089 72.417111713 80.727481053 39.599611158 
72.206450894 80.333493695 38.017722319 72.034020974 79.77891522 36.462565783 72.006060894 79.049984779 34.978477644 
72.104410965 78.136822238 33.609029228 72.31020626 77.214192723 32.270247494 72.533098472 76.495252196 30.853729927 
72.743842695 75.713030288 29.485358811 72.947231604 74.921245196 28.155285488 73.123348409 73.756860909 27.087552856 
73.319031034 72.429525828 26.23507572 73.525966051 70.963984398 25.863302195 73.782163631 69.45207665 25.648138041 
74.077668525 67.924192843 25.541407759 74.40579408 66.391890299 25.563361542 74.782811973 64.870231172 25.724116217 
75.24301844 63.396831237 26.08270379 75.75278438 62.052119474 26.718271512 76.280610066 60.809355021 27.537440137 
76.806358021 59.636757329 28.452964547 77.309986134 58.583579834 29.511800202 77.795822124 57.61559719 30.674919892 
78.266345291 56.683805064 31.891380644 78.730065873 55.846347301 33.179594084 79.231446099 55.036655572 34.482010631 
79.725675382 54.303551074 35.828974758 80.212071088 53.656984016 37.229668731 80.701551308 53.071691338 38.625942497 
80.921883783 53.024314146 40.309097583 80.988035164 53.231008927 41.961121473 80.95227611 53.631327765 43.524641321 
80.907367441 54.203133938 45.034475141 57.965149861 67.663823971 27.29827207 58.948814476 67.051640678 26.631930181 
57.314980531 68.698930557 27.793806531 56.999093825 69.984686683 28.633183154 56.836110084 71.306152033 29.604087035 
56.949811867 72.394437998 30.811344347 57.105591523 73.367223471 32.130413584 57.228658943 74.321313817 33.495084095 
57.394208222 75.196029921 34.931865628 57.578163615 75.992942981 36.43275285 57.931250855 76.46445863 38.078035872 
58.407349459 76.756160331 39.833897295 59.14561001 76.788161952 41.93256863 58.71433595 76.34117631 44.004619172 
58.35468157 76.100409506 45.613335049 58.034675024 75.958805884 47.053877821 57.847622635 75.580216523 48.409559704 
57.869090797 75.034252367 49.584044097 58.191061643 74.380528931 50.735214106 58.704268628 73.662347609 51.818137148 
59.311182964 72.872831141 52.837314239 60.001286801 71.926537996 53.867525948 60.64841023 70.76308874 54.842005405 
61.038634773 69.315824864 55.631316946 61.388552512 67.833079467 56.219901682 61.783084514 66.419453998 56.578523832 
62.307014759 65.002654947 56.749380705 62.960651177 63.669236981 56.811491838 63.804464058 62.431861307 56.683730859 
64.683329782 61.17017099 56.425524542 65.564686379 59.927090716 55.998123551 66.483857751 58.569992741 55.507889775 
67.035151472 57.109240621 54.901355309 67.39666617 55.746438451 54.300355515 67.796054925 54.672217181 53.675555787 
68.597111798 53.729469261 53.180941865 69.637747995 52.913403836 52.500289275 69.681619857 51.218946046 51.071400493 
70.743690783 52.115880996 51.719864076 68.700431618 50.525580204 50.29266789 67.997371722 49.888547429 49.419016463 
67.728970226 49.232581603 48.366871686 67.582480856 48.716618853 47.072595008 67.303132354 48.44343016 45.633207041 
66.897277519 48.427807697 44.161144753 66.364544328 48.725648239 42.74038587 65.806164902 49.097637766 41.363394108 
65.259279774 49.595282708 40.045199064 64.736308135 50.138460407 38.748864935 64.246127863 50.764977764 37.486296479 
63.783353653 51.421674116 36.220241751 63.329245872 52.143123529 34.964817087 62.860063677 53.031532933 33.827662205 
62.393448405 54.014248991 32.732721862 61.94699844 55.082124543 31.702535786 61.523938229 56.313753897 30.80092652 
61.096813117 57.593625747 29.972329511 60.661180852 58.918661488 29.234330924 60.131905461 60.223427569 28.572333868 
59.611688576 61.476580358 28.048132791 59.276557212 62.67210361 27.641533236 59.357009591 63.859440372 27.037251923 
59.767162062 65.160428987 26.514420639 60.245731103 66.529726998 26.045693472 59.393277954 68.274931583 26.458161206 
60.672321222 68.011376506 25.888948242 58.533506722 68.451183607 26.951548477 79.557170042 55.977475798 49.548783748 
79.623418815 54.954486869 48.274675562 79.384540727 57.097585408 50.701959699 79.07840483 58.35235519 51.683620599 
78.77961674 59.638369013 52.618120896 78.427571453 61.025098899 53.358873503 78.117213502 62.448605974 54.051114508 
77.871404754 63.886597528 54.733585773 77.660280271 65.329335857 55.399182877 77.473969425 66.781069985 56.056974277 
77.286694866 68.261866169 56.695910083 77.011384689 69.793959392 57.164082809 76.652149054 71.419396476 57.531511495 
76.107751047 72.963223412 57.445608776 75.296521409 74.445439658 57.153083408 74.230610242 75.673586554 56.629629859 
73.220118038 78.973089209 52.278042653 73.412998717 78.224372426 53.636510126 72.867460791 79.64661223 50.83768575 
72.543236951 80.036625389 49.3109411 72.241408729 80.302829367 47.744304436 71.959070187 80.482524527 46.170912648 
71.668468879 80.633771334 44.592151106 71.368894246 80.715962818 43.000052763 71.074571503 80.689555928 41.398359973 
70.80300631 80.665059544 39.789249545 70.551137715 80.283936086 38.152393136 70.330912116 79.684653791 36.566483695 
70.183415523 78.917734829 34.966802024 70.400373106 77.991224549 33.46856598 70.673859534 77.148588606 32.059993879 
70.962302692 76.469427107 30.602998221 71.220572686 75.710507582 29.21559682 71.45378136 74.909635824 27.88807227 
71.632540799 73.687186313 26.851039672 71.816941275 72.26139307 26.122382031 72.005021854 70.741269194 25.840819623 
72.230656883 69.200837469 25.645498598 72.497763735 67.643791289 25.502128872 72.788958309 66.074152179 25.513770827 
73.164849408 64.525943502 25.779472296 73.645965301 63.010778791 26.164938745 74.213363919 61.649913694 26.8389193 
74.791621605 60.382052311 27.654131161 75.353679785 59.198115403 28.580406016 75.862549527 58.151732701 29.681007481 
76.332223086 57.149297607 30.857427566 76.766799284 56.197299667 32.109566559 77.221728505 55.271355168 33.397183776 
77.771712194 54.392497262 34.696238467 78.329974401 53.597643664 36.042071805 78.881722382 52.859816198 37.419317783 
79.396561571 52.222290529 38.820829966 79.657785619 52.160449788 40.555066036 79.752840264 52.385937775 42.25892405 
79.64585707 52.919473409 43.825583002 79.560741766 53.540001461 45.350079825 79.553702617 54.21541037 46.840943666 
73.359377822 77.294988724 54.955847299 72.732597536 76.298092459 55.998547351 58.272681074 69.384191786 27.123983549 
58.14251023 70.665794806 27.869520035 58.040485915 72.075576725 28.814415535 58.239672441 73.079226423 30.106066934 
58.412640022 74.065502576 31.463314239 58.58527449 74.98926419 32.876603386 58.784956889 75.866267588 34.336530959 
58.9951603 76.694636317 35.835113528 59.28763685 77.230906919 37.47549339 59.758995188 77.621871986 39.128362487 
60.544069521 77.852477289 40.774437845 59.703691716 76.420327496 46.130833864 60.215763834 76.618414629 44.687441792 
59.265050941 76.275162738 47.443514156 59.024503826 75.797084468 48.589733898 58.93496547 75.384009361 49.636253787 
59.270091197 74.918416494 50.587488229 59.830000018 74.359036654 51.605236899 60.529100382 73.690166916 52.665339587 
61.296535827 72.941514391 53.817341145 62.364503922 71.845559608 55.188029454 62.472029319 69.952721755 56.180732542 
62.682565292 68.370281882 56.817104471 63.014323137 66.87854888 57.176385033 63.482668227 65.457344768 57.314836289 
64.056792389 64.228004297 57.292826944 64.97729152 63.144139686 57.143182872 65.861485599 61.939651718 56.736545041 
66.833430839 60.725277333 56.274435448 68.292255269 59.329192015 55.710792019 68.641991043 57.40699984 55.038475969 
68.709886317 55.990660369 54.440922168 68.68079301 55.071938209 53.941233096 69.535008944 54.583028012 53.651979705 
70.622944975 53.828955853 53.16292787 71.741354649 53.116487215 52.329408733 71.802994279 51.401326978 50.726947459 
72.754769833 52.45155086 51.299172435 70.696570448 50.588467195 50.145057619 69.65684049 49.969503121 49.556774126 
68.874844652 49.583903598 49.122992424 68.959102446 49.144918554 48.246491624 69.02409663 48.709123079 46.942912902 
68.886693747 48.47780631 45.345523407 68.357369126 48.453373545 43.748482067 67.759052824 48.800652552 42.286686883 
67.184310792 49.185008559 40.93156567 66.625051879 49.693885616 39.617085233 66.100991069 50.257382723 38.331148286 
65.628250927 50.939138872 37.096013529 65.202492982 51.681757291 35.865844403 64.792777744 52.448392548 34.6191558 
64.321278169 53.339077118 33.457338742 63.852896213 54.300974588 32.321538047 63.409661842 55.350090905 31.230722533 
62.972618368 56.532633759 30.231455966 62.529132223 57.808706194 29.320719684 62.051693912 59.145950191 28.534932005 
61.508634482 60.513716497 27.817166627 60.770070274 61.723189445 27.393267413 60.219640529 62.57347583 27.212093092 
60.588040572 63.357794545 26.643011084 61.115442136 64.558793427 26.024070448 61.699670089 65.986930631 25.656092496 
62.114084805 67.572505808 25.393955269 60.885761613 69.558926147 26.138845627 62.388693995 69.291733292 25.571362571 
59.473150565 69.586334214 26.617136191 60.841380926 77.147235845 43.225999478 61.739447851 77.951088239 42.047949627 
71.928418267 77.479523706 54.684424457 71.409428299 76.645719364 55.462925689 71.911068229 78.169260549 53.606813052 
71.660338758 78.822997584 52.37842957 71.317513235 79.380150929 50.990099806 70.995628393 79.843154951 49.52406363 
70.717585981 80.124656934 47.96868237 70.455018726 80.298708062 46.395851688 70.15892146 80.444243915 44.821577659 
69.827464985 80.493664123 43.236050785 69.489292925 80.537055247 41.638025316 69.22268556 80.477554374 40.023445341 
68.926747937 80.124974108 38.423068974 68.556645891 79.531457726 36.789739162 67.960784946 78.663154751 34.920552541 
68.639879145 77.769584693 33.226571385 69.066061351 77.067333223 31.712481145 69.423402108 76.453352412 30.251198621 
69.717844491 75.663277859 28.896102345 69.964421426 74.858044614 27.603610649 70.149249696 73.499192654 26.742549934 
70.306207596 72.059947161 26.064695103 70.468068889 70.532803271 25.755257275 70.663769608 68.970378997 25.528207512 
70.901768705 67.389429732 25.350743538 71.167340835 65.812204203 25.353156321 71.43589599 64.138570447 25.630387848 
72.050889913 62.544647682 26.139992176 72.674198038 61.185042968 26.88781114 73.311124046 59.908391188 27.728803382 
73.915426822 58.719749266 28.647331215 74.434204977 57.660498016 29.763276994 74.875222698 56.657953905 30.972679964 
75.242245052 55.730470322 32.264456727 75.65216888 54.743269068 33.651968314 76.275431421 53.84835225 35.015033327 
76.892707473 53.028516836 36.378913981 77.461490961 52.246978968 37.753995175 77.977054904 51.501910572 39.112021653 
78.295381853 51.411848464 40.859620881 78.429843108 51.632578474 42.581462632 78.284479152 52.237668782 44.141379093 
78.203002352 52.807844111 45.728167704 78.230326793 53.483189003 47.279834889 78.308543999 54.278073209 48.718173744 
78.245099619 55.340057209 49.995262687 78.069692949 56.454453561 51.182179608 77.754052556 57.682459893 52.241442679 
77.465216617 58.952875234 53.277466521 77.134597859 60.363781392 54.075358548 76.87806045 61.817619574 54.815584023 
76.615304069 63.305213425 55.44416483 76.371209567 64.794899412 56.017323105 76.181754608 66.256604208 56.648964072 
75.956994616 67.738915113 57.238463052 75.669646476 69.247186764 57.676189729 75.312321923 70.813411073 58.082072016 
74.736006766 72.269637844 57.967956686 74.027003991 73.655984668 57.774818347 73.062871379 74.625399443 57.21681354 
71.914093641 75.293499429 56.70463264 70.709482375 75.672944894 56.020220828 70.351783221 76.951352633 54.897877494 
69.557178537 76.092188122 55.375279473 70.971289665 77.52356272 54.451028717 59.501857366 71.038135739 27.248466173 
59.511722104 72.462477409 28.118262338 59.63642114 73.643385216 29.406407015 59.787259162 74.722401385 30.788147537 
60.001021404 75.595727578 32.2785288 60.259250504 76.438581013 33.782273001 60.55177828 77.207835796 35.308937598 
60.735894929 77.778304176 36.919592694 61.091120788 78.238572175 38.425033678 61.760717292 78.566553942 39.846227786 
62.730105896 78.752105859 41.129631467 62.921882321 78.161162637 43.182815202 63.723836735 78.993529684 42.253426905 
62.165877528 77.407535283 44.246774946 61.500405128 77.020300913 45.549823854 60.918593038 76.809916441 46.818334726 
60.427115374 76.430503596 48.016677207 60.013009305 76.014615469 48.994260345 59.69509167 75.665507952 49.678946328 
60.151084216 75.501365537 50.361629773 60.786386129 75.152436194 51.267494248 61.547091543 74.698904217 52.3359871 
62.397976087 74.15585665 53.437314097 63.454977044 73.608213274 54.58378057 64.02727898 68.686270301 57.466821236 
63.931921537 70.271917919 56.954154979 64.267860136 67.178662251 57.784886116 64.640802031 65.797616588 57.735352942 
64.92679337 64.70525007 57.603591219 66.105867848 64.103134273 57.69422298 66.972932534 62.687217924 57.125895504 
67.793229607 61.626995147 56.696286572 69.048805751 60.922048257 56.416197562 70.060515761 55.698796743 54.24752444 
70.420097649 57.192390905 54.962449922 64.155865539 71.815390514 56.219710419 64.777549739 73.307575829 55.568985177 
70.433325016 58.961036977 55.625762838 70.64061234 60.587224619 56.297534052 72.690849828 54.154809772 52.856194973 
71.481808057 55.047081228 53.775885156 73.560272246 53.531491333 51.777921028 73.761467133 51.997563108 50.079041997 
74.435134804 53.113521134 50.796190656 72.733501859 50.835394655 49.539493688 71.515138401 49.902828612 49.056728128 
70.2178546 49.294525223 48.524633338 70.579457114 48.872606351 47.095097429 70.850625671 48.466455522 45.099632447 
69.843236618 48.40516656 43.147660027 69.137064681 48.854833519 41.740992226 68.515562484 49.302540076 40.4226567 
67.953604744 49.804571311 39.163948077 67.436164235 50.395540645 37.923655143 66.989453873 51.097447871 36.722305106 
66.632932631 51.873195544 35.534519613 66.305645083 52.79279106 34.331488901 65.777305636 53.706024587 33.153035861 
65.298639866 54.669541983 31.999690215 64.871390472 55.68054873 30.851473202 64.462287943 56.839630169 29.793859576 
64.000993426 58.064605931 28.807157112 63.541506261 59.419529034 27.877683488 63.111908103 61.161864004 26.86983864 
61.717319702 62.490583102 26.614922611 62.508928496 63.779880157 25.910831151 63.208660935 65.304549357 25.399728884 
63.800902063 67.032530767 25.173623055 63.973525855 68.917393815 25.139734081 62.537648002 71.023209699 25.948294759 
64.144457887 70.588169134 25.563450716 60.955457275 71.175628074 26.571770213 70.664951928 77.942932037 53.647286803 
70.224405476 78.51367403 52.546191937 69.795144513 79.049206273 51.185445216 69.458938221 79.53137302 49.737057347 
69.212466425 79.832862669 48.183964691 68.983295483 80.036418134 46.626077148 68.70023791 80.149195515 45.066965999 
68.316251589 80.221683248 43.536081896 67.899345807 80.280951782 41.918697774 67.688959574 80.233037367 40.315552689 
67.400232384 79.936496841 38.781772616 66.911716005 79.46834996 37.314687995 66.162930598 78.826336784 35.931649917 
67.531700924 76.884729653 31.229042128 66.990059631 77.41903781 32.55464548 67.933552648 76.312599254 29.838579299 
68.241116775 75.503451654 28.574780177 68.484974054 74.599049574 27.320423863 68.673641131 73.292122594 26.587388161 
68.803528877 71.870906464 25.97898972 68.919053202 70.350786155 25.624800287 69.073043599 68.778149892 25.367418836 
69.319327496 67.222864572 25.184526308 69.542748295 65.666253231 25.186100126 69.337896699 63.721525771 25.396470817 
70.404504495 61.954532393 26.154358883 71.172995525 60.5937544 26.979148653 71.855646341 59.372387137 27.823264054 
72.500488291 58.238802546 28.737301586 73.009142615 57.254288599 29.875784045 73.391626288 56.292665245 31.042292313 
73.670887014 55.365598541 32.367139047 73.7310411 54.151887025 33.948037733 74.80886507 53.213418704 35.416869463 
75.495140023 52.428045163 36.794500945 76.058281777 51.689751906 38.174737966 76.556606579 50.942186774 39.53046154 
76.944697368 50.791111388 41.212300884 77.138563996 50.875689015 42.910990651 76.974458526 51.434753465 44.498396548 
76.898975813 51.934087293 46.139343414 76.88321268 52.60840444 47.846622057 76.957385627 53.666977844 49.26424127 
76.976399031 54.744811981 50.499515676 76.809089893 55.771534729 51.658459679 76.46749757 56.935140415 52.802765946 
76.126842253 58.213694195 53.922546638 75.741582597 59.697613715 54.750562593 75.499261729 61.226284053 55.479729122 
75.250077128 62.786059054 56.002456109 75.016417358 64.305115121 56.529132756 74.776887115 65.804266043 57.011000275 
74.549341016 67.254644944 57.54766313 74.241746814 68.741819997 57.851880307 73.897568748 70.162395804 58.20278892 
73.409022811 71.58066099 58.094585352 72.823403529 72.811360891 57.946430212 72.152448187 73.739903413 57.466913638 
71.151580599 74.245715578 57.005963244 69.949955738 74.694245146 56.573420291 68.745563902 75.080629058 55.927675294 
68.430835912 76.617491874 54.534098261 67.536553339 75.538265445 55.209759411 69.564193047 77.39361931 54.000248849 
66.227264306 77.944732773 33.84118136 65.056473294 78.255210489 34.809848213 72.107026745 49.425163288 47.614741135 
72.674049171 48.965205339 46.056142227 70.42478038 49.039201407 41.075347255 71.190520127 48.715179952 42.31734823 
69.798847249 49.451538091 39.887996631 69.245469843 49.943581144 38.697157314 68.743678867 50.563641575 37.541608117 
68.339884468 51.265852186 36.434135238 68.062588295 52.119418557 35.34659645 68.043438429 53.228963822 34.087203825 
67.243484881 54.156342356 32.83307028 66.704975957 55.046722896 31.678677614 66.331220346 55.983426898 30.520883682 
65.985343101 57.115612853 29.397946845 65.506137023 58.299501543 28.365165502 65.089657895 59.555355198 27.485461855 
64.936428067 60.864659526 26.721587792 63.979823216 62.858104215 25.883623441 65.5259333 62.102790832 26.008194841 
61.069612963 72.745835947 27.449424402 61.118172889 74.14154045 28.725486507 61.284947129 75.271076748 30.162691273 
61.484799441 76.134425288 31.756519206 61.777038551 76.860672937 33.267531249 62.462052962 77.689904621 34.912750979 
62.157142811 78.118255337 36.543002652 62.474349565 78.564912023 37.85630723 63.026769245 78.946578077 39.126195754 
63.746083486 79.332433241 40.318672618 64.61938904 79.540537861 41.350022974 64.837479064 79.174206846 43.319817847 
66.066121842 79.894116185 42.209275071 64.009270936 78.360132558 44.19790892 63.303201868 77.778528305 45.280026686 
62.648459177 77.434702073 46.486893856 62.050519535 77.091974641 47.706308589 61.487210883 76.546447674 48.791586759 
60.834341275 76.043741587 49.717061334 61.669289774 75.868694807 50.628148773 62.486057622 75.670048998 51.741404241 
63.355021293 75.310168239 52.885142764 64.35015159 74.953589619 53.98644417 65.519619975 74.669945142 54.970703304 
66.118847197 73.074033621 56.432818389 66.768984289 74.335257419 55.821218675 65.607729505 71.720855784 56.927340084 
65.368620722 70.398316362 57.619085947 65.433507828 68.844358097 57.932706776 65.652675248 67.286638735 58.18741282 
65.943698581 65.795129346 57.996574599 73.730468712 55.286804074 53.214680106 72.554593446 56.681123679 54.474603397 
74.453325751 54.424688269 52.10832274 75.146387355 51.705412514 48.554472884 75.617132925 53.15640205 49.936482075 
73.605856206 50.291139697 48.077364195 68.807516719 77.981241048 52.853037067 68.297983124 78.594567076 51.433633523 
67.925625677 79.112452829 49.949510297 67.743401879 79.429247961 48.373498745 67.596248707 79.636927668 46.842300942 
67.344914007 79.743072656 45.374323608 66.864741927 79.802006899 43.900049165 66.251927227 80.062852254 40.545802404 
65.96587674 79.823701574 39.182343973 65.463567423 79.405620879 37.899345734 64.794893906 78.891553727 36.689219297 
66.074420966 76.666412029 30.685509537 65.601416617 77.120425342 31.920539348 66.501254138 76.103611373 29.448422494 
66.808769607 75.330038233 28.278380799 67.039185545 74.324691371 27.208937199 67.235939094 73.088996744 26.50492736 
67.307332159 71.770457033 25.905799313 67.362307479 70.266864322 25.511017879 67.485368385 68.645204504 25.202742954 
67.753241237 67.044956408 25.051449359 68.230574634 65.812107831 25.091856654 67.411988415 64.75430288 25.135951738 
69.71576774 59.974654512 27.248177851 68.916076304 61.161231906 26.471091807 70.43260351 58.832374201 28.082878572 
71.113889743 57.819653009 28.943768578 71.61122843 56.916931532 29.99036736 71.971184842 56.055513197 31.101799389 
72.083442507 55.205213163 32.235938206 71.95161921 54.307191914 33.342215826 74.193086075 51.746585915 37.233366716 
73.469229191 52.416374661 36.01323798 74.701772478 51.071267344 38.575980153 75.154996628 50.404771158 40.007020054 
75.549196863 50.251285097 41.617086474 75.814690398 50.248796619 43.190617942 75.771752156 50.500710871 44.765667022 
75.576079785 50.871012949 46.504491191 67.859383279 62.40626701 25.852664456 66.410747757 63.439595668 25.441010949 
72.167801465 48.599162329 43.639386473 73.262049517 49.017758249 44.561647618 72.548451267 53.002543866 34.895767017 
71.354636934 53.421606426 34.193618947 75.805029927 54.237699183 50.948382685 75.575253128 55.108274019 52.005881106 
75.086274496 56.187909915 53.101601796 74.508390438 57.519941746 54.268103239 74.160576014 59.173769369 55.130974412 
73.963509359 60.797791518 55.882569099 73.786025717 62.356383376 56.410658905 73.600088734 63.893895883 56.926634343 
73.36441049 65.402138609 57.347753066 73.112928827 66.87354465 57.736886186 72.811930031 68.330338258 57.963284113 
72.483340733 69.730039073 58.144722883 72.115100093 71.070865799 58.016777031 71.732749598 72.249429596 57.869408655 
71.48509735 73.0886211 57.577829164 70.613396269 73.245880933 57.336340851 69.357953976 73.522639725 57.002788449 
68.042775798 73.991563761 56.546129648 66.330847265 75.92151557 54.27354139 68.11645127 63.203064997 57.36907725 
67.678829108 64.460762596 57.833582464 68.446773416 62.323337681 57.009338222 69.431051678 62.147505214 56.944727446 
70.767194722 62.057775517 56.867246197 72.312117863 60.529749201 56.161153608 72.264505928 62.120756537 56.72387107 
72.368619122 58.836507095 55.435206529 65.421708921 75.008633639 28.11073442 65.169858329 75.763601049 29.152911871 
65.68988091 74.047219312 27.160822122 65.915121487 72.980683574 26.48001834 65.823807095 71.790603053 25.874995331 
65.749172192 70.309918125 25.426829448 65.76411876 68.576276834 25.056176859 65.900300788 66.342998141 25.036848124 
64.879690169 64.451398617 25.380099367 72.143102991 63.607205306 57.209234933 71.926687826 65.10811392 57.559593869 
71.674849043 66.577147568 57.880581966 71.383093819 68.029040665 58.004563776 71.073714149 69.447653523 58.108399309 
70.767297269 70.802096281 57.911113415 70.504890582 72.098272886 57.735149086 68.928341923 72.115350443 57.557718526 
67.500569175 72.704679832 57.015615872 66.926566114 71.575008045 57.469797083 66.810746986 70.315376343 57.892711869 
66.889208698 68.903695058 58.150382792 67.104752481 67.417875837 58.272215151 67.367364769 65.959137832 58.109742067 
67.241349514 77.100385556 53.246955166 66.803473138 77.921641689 51.629944417 66.370289119 78.494231848 50.053733759 
66.333268742 78.882540747 48.372567262 66.328761432 79.126454617 46.923604387 66.193100281 79.273744937 45.693093616 
65.668581906 79.236797067 44.506108654 62.448546683 76.645646694 49.797572854 63.462750872 76.593901725 50.963331819 
64.296489958 76.385710342 52.26256267 65.201407723 76.025274399 53.338457216 64.826914914 78.634605041 45.192395645 
64.281535293 78.181068459 46.156811948 63.768036779 77.787258166 47.358933167 63.21364715 77.307502181 48.697670794 
67.968982336 71.380104005 57.741710676 68.093510479 70.327179851 57.946893176 68.293854047 69.019201936 58.184971179 
68.540045134 67.585803678 58.213002438 68.804454097 66.146135215 58.09061376 69.086264065 64.710241931 57.786216322 
69.338592582 63.380257875 57.361772875 70.697213884 63.450957962 57.363787619 65.192315823 79.820497998 40.511306647 
64.762890345 79.59781551 39.602735682 64.236059033 79.205932982 38.487166532 63.688727629 78.787929019 37.402258601 
64.976991927 77.480721276 33.013218826 63.923813063 77.644272522 33.882558342 62.964219388 72.870424468 26.820500876 
62.696820205 74.49238139 28.234922483 63.085888951 75.703663792 29.767875394 63.005780796 76.454226856 31.441398795 
63.186047613 77.042185925 32.769218471 64.668955706 76.374610059 30.231226567 63.251125623 78.42265203 36.528766764 
66.781848772 61.416613447 26.354536789 67.621981059 60.402158519 26.902921503 68.348252173 59.289914787 27.627092773 
69.081195487 58.241769788 28.445532148 69.854774212 57.411781253 29.199954092 70.277469084 56.636731316 30.132721991 
70.572655089 55.881806768 31.160359516 70.730843225 55.118811423 32.142905067 70.674771146 54.373072749 33.015070294 
70.194970847 53.662571718 33.734009145 70.717027519 52.682550635 34.840695629 69.612839795 52.91006623 34.486905474 
71.576676251 52.230453037 35.524510829 72.310013091 51.738569853 36.515767545 72.923245772 51.125949455 37.644525744 
73.353777725 50.543439249 38.902868688 73.572642376 49.817435707 40.458857918 74.252988104 49.581604696 42.023519014 
74.647068313 49.590716151 43.412015536 74.523058588 49.623463304 44.796081886 74.138241554 49.841356249 46.422133971 
73.709378917 49.146466699 43.53857907 73.132274272 49.023622916 42.628113273 72.37420503 49.186320201 41.452558508 
71.570824241 49.357274503 40.428334585 71.008580119 49.768378511 39.391735651 70.506239103 50.201354636 38.280959654 
70.012127995 50.806019406 37.213970351 69.597584153 51.434814985 36.210739911 68.50228652 54.616549264 32.408042572 
69.140848078 53.986027045 33.261308767 68.065008769 55.396620293 31.410696324 67.772310805 56.283361731 30.312014411 
67.722076697 57.466646617 29.111348291 67.0020164 58.665759157 28.026704601 66.438663671 59.807917551 27.264309779 
66.052692852 60.684717746 26.737759976 64.414983428 72.069818573 26.022113421 68.876774446 57.049611411 29.483212993 
69.062839303 56.379889877 30.28461597 69.327328086 55.667680257 31.245675872 69.587423183 54.975585739 32.13813357 
69.800807233 54.435769149 32.800205753 71.697021411 50.629835094 37.945973075 71.208120066 51.196944397 36.905915619 
72.129479432 50.157912189 39.032774883 72.435332535 49.752838144 39.946200316 65.403057459 78.865536803 45.896973674 
65.221652011 78.621659852 46.793894954 65.400450297 77.246246371 51.692966761 64.641992484 77.676574612 49.953649195 
65.9154387 76.859441142 52.804067853 70.495739959 64.889165606 57.729944934 70.2418492 66.345712569 58.016032238 
69.961207159 67.793927193 58.09504732 69.670596217 69.231109895 58.099047715 69.363574479 70.621870909 57.914923696 
69.357959568 52.121149684 35.309433584 70.253358492 52.143997328 35.351532544 70.673454206 51.716842953 35.987264271 
64.174118852 77.126643521 32.423599025 64.369806231 76.801258567 31.470889421 64.100616972 75.383405784 28.969330516 
64.150104825 74.722736281 28.032738274 64.415304824 73.715300565 27.097939996 64.901839247 72.919901236 26.527901702 
64.984077108 78.26058367 48.086062443 74.88160156 53.927653155 51.300577561 63.931287555 78.35531188 35.690245855 

POLYGONS 1060 4236
OFFSETS vtktypeint64
0 4 8 12 16 20 24 28 32 
36 40 44 48 52 56 60 64 68 
72 76 80 84 88 92 96 100 104 
108 112 116 120 124 128 132 136 140 
144 148 152 156 160 164 168 172 176 
180 184 188 192 196 200 204 208 212 
216 220 224 228 232 236 240 244 248 
252 256 260 264 268 272 276 280 284 
288 292 296 300 304 308 312 316 320 
324 328 332 336 340 344 348 352 356 
360 364 368 372 376 380 384 388 392 
396 400 404 408 412 416 420 424 428 
432 436 440 444 448 452 456 460 464 
468 472 476 480 484 488 492 496 500 
504 508 512 516 520 524 528 532 536 
540 544 548 552 556 560 564 568 572 
576 580 584 588 592 596 600 604 608 
612 616 620 624 628 632 636 640 644 
648 652 656 660 664 668 672 676 680 
684 688 692 696 700 704 708 712 716 
720 724 728 732 736 740 744 748 752 
756 760 764 768 772 776 780 784 788 
792 796 800 804 808 812 816 820 824 
828 832 836 840 844 848 852 856 860 
864 868 872 876 880 884 888 892 896 
900 904 908 912 916 920 924 928 932 
936 940 944 948 952 956 960 964 968 
972 976 980 984 988 992 996 1000 1004 
1008 1012 1016 1020 1024 1028 1032 1036 1040 
1044 1048 1052 1056 1060 1064 1068 1072 1076 
1080 1084 1088 1092 1096 1100 1104 1108 1112 
1116 1120 1124 1128 1132 1136 1140 1144 1148 
1152 1156 1160 1164 1168 1172 1176 1180 1184 
1188 1192 1196 1200 1204 1208 1212 1216 1220 
1224 1228 1232 1236 1240 1244 1248 1252 1256 
1260 1264 1268 1272 1276 1280 1284 1288 1292 
1296 1300 1304 1308 1312 1316 1320 1324 1328 
1332 1336 1340 1344 1348 1352 1356 1360 1364 
1368 1372 1376 1380 1384 1388 1392 1396 1400 
1404 1408 1412 1416 1420 1424 1428 1432 1436 
1440 1444 1448 1452 1456 1460 1464 1468 1472 
1476 1480 1484 1488 1492 1496 1500 1504 1508 
1512 1516 1520 1524 1528 1532 1536 1540 1544 
1548 1552 1556 1560 1564 1568 1572 1576 1580 
1584 1588 1592 1596 1600 1604 1608 1612 1616 
1620 1624 1628 1632 1636 1640 1644 1648 1652 
1656 1660 1664 1668 1672 1676 1680 1684 1688 
1692 1696 1700 1704 1708 1712 1716 1720 1724 
1728 1732 1736 1740 1744 1748 1752 1756 1760 
1764 1768 1772 1776 1780 1784 1788 1792 1796 
1800 1804 1808 1812 1816 1820 1824 1828 1832 
1836 1840 1844 1848 1852 1856 1860 1864 1868 
1872 1876 1880 1884 1888 1892 1896 1900 1904 
1908 1912 1916 1920 1924 1928 1932 1936 1940 
1944 1948 1952 1956 1960 1964 1968 1972 1976 
1980 1984 1988 1992 1996 2000 2004 2008 2012 
2016 2020 2024 2028 2032 2036 2040 2044 2048 
2052 2056 2060 2064 2068 2072 2076 2080 2084 
2088 2092 2096 2100 2104 2108 2112 2116 2120 
2124 2128 2132 2136 2140 2144 2148 2152 2156 
2160 2164 2168 2172 2176 2180 2184 2188 2192 
2196 2200 2204 2208 2212 2216 2220 2224 2228 
2232 2236 2240 2244 2248 2252 2256 2260 2264 
2268 2272 2276 2280 2284 2288 2292 2296 2300 
2304 2308 2312 2316 2320 2324 2328 2332 2336 
2340 2344 2348 2352 2356 2360 2364 2368 2372 
2376 2380 2384 2388 2392 2396 2400 2404 2408 
2412 2416 2420 2424 2428 2432 2436 2440 2444 
2448 2452 2456 2460 2464 2468 2472 2476 2480 
2484 2488 2492 2496 2500 2504 2508 2512 2516 
2520 2524 2528 2532 2536 2540 2544 2548 2552 
2556 2560 2564 2568 2572 2576 2580 2584 2588 
2592 2596 2600 2604 2608 2612 2616 2620 2624 
2628 2632 2636 2640 2644 2648 2652 2656 2660 
2664 2668 2672 2676 2680 2684 2688 2692 2696 
2700 2704 2708 2712 2716 2720 2724 2728 2732 
2736 2740 2744 2748 2752 2756 2760 2764 2768 
2772 2776 2780 2784 2788 2792 2796 2800 2804 
2808 2812 2816 2820 2824 2828 2832 2836 2840 
2844 2848 2852 2856 2860 2864 2868 2872 2876 
2880 2884 2888 2892 2896 2900 2904 2908 2912 
2916 2920 2924 2928 2932 2936 2940 2944 2948 
2952 2956 2960 2964 2968 2972 2976 2980 2984 
2988 2992 2996 3000 3004 3008 3012 3016 3020 
3024 3028 3032 3036 3040 3044 3048 3052 3056 
3060 3064 3068 3072 3076 3080 3084 3088 3092 
3096 3100 3104 3108 3112 3116 3120 3124 3128 
3132 3136 3140 3144 3148 3152 3156 3160 3164 
3168 3172 3176 3180 3184 3188 3192 3196 3200 
3204 3208 3212 3216 3220 3224 3228 3232 3236 
3240 3244 3248 3252 3256 3260 3264 3268 3272 
3276 3280 3284 3288 3292 3296 3300 3304 3308 
3312 3316 3320 3324 3328 3332 3336 3340 3344 
3348 3352 3356 3360 3364 3368 3372 3376 3380 
3384 3388 3392 3396 3400 3404 3408 3412 3416 
3420 3424 3428 3432 3436 3440 3444 3448 3452 
3456 3460 3464 3468 3472 3476 3480 3484 3488 
3492 3496 3500 3504 3508 3512 3516 3520 3524 
3528 3532 3536 3540 3544 3548 3552 3556 3560 
3564 3568 3572 3576 3580 3584 3588 3592 3596 
3600 3604 3608 3612 3616 3620 3624 3628 3632 
3636 3640 3644 3648 3652 3656 3660 3664 3668 
3672 3676 3680 3684 3688 3692 3696 3700 3704 
3708 3712 3716 3720 3724 3728 3732 3736 3740 
3744 3748 3752 3756 3760 3764 3768 3772 3776 
3780 3784 3788 3792 3796 3800 3804 3808 3812 
3816 3820 3824 3828 3832 3836 3840 3844 3848 
3852 3856 3860 3864 3868 3872 3876 3880 3884 
3888 3892 3896 3900 3904 3908 3912 3916 3920 
3924 3928 3932 3936 3940 3944 3948 3952 3956 
3960 3964 3968 3972 3976 3980 3984 3988 3992 
3996 4000 4004 4008 4012 4016 4020 4024 4028 
4032 4036 4040 4044 4048 4052 4056 4060 4064 
4068 4072 4076 4080 4084 4088 4092 4096 4100 
4104 4108 4112 4116 4120 4124 4128 4132 4136 
4140 4144 4148 4152 4156 4160 4164 4168 4172 
4176 4180 4184 4188 4192 4196 4200 4204 4208 
4212 4216 4220 4224 4228 4232 4236 
CONNECTIVITY vtktypeint64
0 1 2 3 1 4 5 2 4 
6 7 5 6 8 9 7 8 10 
11 9 10 12 13 11 12 14 15 
13 14 16 17 15 16 18 19 17 
18 20 21 19 20 22 23 21 22 
24 25 23 24 26 27 25 26 28 
29 27 28 30 31 29 30 32 33 
31 32 34 35 33 34 36 37 35 
36 38 39 37 38 40 41 39 40 
42 43 41 42 44 45 43 44 46 
47 45 46 48 49 47 48 50 51 
49 50 52 53 51 52 54 55 53 
54 56 57 55 56 58 59 57 58 
60 61 59 60 62 63 61 62 64 
65 63 64 66 67 65 66 68 69 
67 68 70 71 69 70 72 73 71 
72 74 75 73 74 76 77 75 76 
78 79 77 78 80 81 79 80 82 
83 81 82 84 85 83 84 86 87 
85 86 88 89 87 88 90 91 89 
90 92 93 91 92 94 95 93 94 
96 97 95 96 98 99 97 98 100 
101 99 100 102 103 101 102 104 105 
103 104 106 107 105 106 108 109 107 
108 110 111 109 110 0 3 111 112 
113 114 115 113 116 117 114 116 118 
119 117 118 120 121 119 120 122 123 
121 122 124 125 123 124 126 127 125 
126 128 129 127 128 130 131 129 130 
132 133 131 132 134 135 133 134 136 
137 135 136 138 139 137 138 140 141 
139 140 142 143 141 142 144 145 143 
144 146 147 145 146 148 149 147 148 
150 151 149 150 152 153 151 152 154 
155 153 154 156 157 155 156 158 159 
157 158 160 161 159 160 162 163 161 
162 164 165 163 164 166 167 165 166 
168 169 167 168 170 171 169 170 172 
173 171 172 174 175 173 174 176 177 
175 176 178 179 177 178 180 181 179 
180 182 183 181 182 184 185 183 184 
186 187 185 186 188 189 187 188 190 
191 189 190 192 193 191 192 194 195 
193 194 196 197 195 196 198 199 197 
198 200 201 199 200 202 203 201 202 
204 205 203 204 206 207 205 206 208 
209 207 208 210 211 209 210 212 213 
211 212 214 215 213 214 216 217 215 
216 218 219 217 218 220 221 219 220 
222 223 221 222 224 225 223 224 226 
227 225 226 112 115 227 2 5 228 
229 5 7 230 228 7 9 231 230 
9 11 232 231 11 13 233 232 13 
15 234 233 15 17 235 234 17 19 
236 235 19 21 237 236 21 23 238 
237 23 25 239 238 25 27 240 239 
27 29 241 240 29 31 242 241 31 
33 243 242 33 35 244 243 35 37 
245 244 37 39 246 245 39 41 247 
246 41 43 248 247 43 45 249 248 
45 47 250 249 47 49 251 250 49 
51 252 251 51 53 253 252 53 55 
254 253 55 57 255 254 57 59 256 
255 59 61 257 256 61 63 258 257 
63 65 259 258 65 67 260 259 67 
69 261 260 69 71 262 261 71 73 
263 262 73 75 264 263 75 77 265 
264 77 79 266 265 79 81 267 266 
81 83 268 267 83 85 269 268 85 
87 270 269 87 89 271 270 89 91 
272 271 91 93 273 272 93 95 274 
273 95 97 275 274 97 99 276 275 
99 101 277 276 101 103 278 277 103 
105 279 278 105 107 280 279 107 109 
281 280 109 111 282 281 111 3 283 
282 3 2 229 283 114 117 284 285 
117 119 286 284 119 121 287 286 121 
123 288 287 123 125 289 288 125 127 
290 289 127 129 291 290 129 131 292 
291 131 133 293 292 133 135 294 293 
135 137 295 294 137 139 296 295 139 
141 297 296 141 143 298 297 143 145 
299 298 145 147 300 299 147 149 301 
300 149 151 302 301 151 153 303 302 
153 155 304 303 155 157 305 304 157 
159 306 305 159 161 307 306 161 163 
308 307 163 165 309 308 165 167 310 
309 167 169 311 310 169 171 312 311 
171 173 313 312 173 175 314 313 175 
177 315 314 177 179 316 315 179 181 
317 316 181 183 318 317 183 185 319 
318 185 187 320 319 187 189 321 320 
189 191 322 321 191 193 323 322 193 
195 324 323 195 197 325 324 197 199 
326 325 199 201 327 326 201 203 328 
327 203 205 329 328 205 207 330 329 
207 209 331 330 209 211 332 331 211 
213 333 332 213 215 334 333 215 217 
335 334 217 219 336 335 219 221 337 
336 221 223 338 337 223 225 339 338 
225 227 340 339 227 115 341 340 115 
114 285 341 228 230 342 343 230 231 
344 342 231 232 345 344 232 233 346 
345 233 234 347 346 234 235 348 347 
235 236 349 348 236 237 350 349 237 
238 351 350 238 239 352 351 239 240 
353 352 240 241 354 353 241 242 355 
354 242 243 356 355 243 244 357 356 
244 245 358 357 245 246 359 358 246 
247 360 359 247 248 361 360 248 249 
362 361 250 251 363 364 251 252 365 
363 252 253 366 365 253 254 367 366 
254 255 368 367 255 256 369 368 256 
257 370 369 257 258 371 370 258 259 
372 371 259 260 373 372 260 261 374 
373 261 262 375 374 262 263 376 375 
263 264 377 376 264 265 378 377 265 
266 379 378 266 267 380 379 267 268 
381 380 268 269 382 381 269 270 383 
382 270 271 384 383 272 273 385 386 
273 274 387 385 274 275 388 387 275 
276 389 388 276 277 390 389 277 278 
391 390 278 279 392 391 279 280 393 
392 280 281 394 393 281 282 395 394 
282 283 396 395 283 229 397 396 229 
228 343 397 249 250 364 398 362 249 
398 399 271 272 386 400 384 271 400 
401 284 286 402 403 286 287 404 402 
287 288 405 404 288 289 406 405 289 
290 407 406 290 291 408 407 291 292 
409 408 292 293 410 409 293 294 411 
410 294 295 412 411 295 296 413 412 
296 297 414 413 297 298 415 414 298 
299 416 415 299 300 417 416 300 301 
418 417 301 302 419 418 302 303 420 
419 303 304 421 420 304 305 422 421 
305 306 423 422 306 307 424 423 307 
308 425 424 308 309 426 425 309 310 
427 426 310 311 428 427 311 312 429 
428 312 313 430 429 313 314 431 430 
314 315 432 431 315 316 433 432 316 
317 434 433 317 318 435 434 318 319 
436 435 319 320 437 436 320 321 438 
437 321 322 439 438 322 323 440 439 
323 324 441 440 324 325 442 441 325 
326 443 442 326 327 444 443 327 328 
445 444 328 329 446 445 329 330 447 
446 330 331 448 447 331 332 449 448 
332 333 450 449 333 334 451 450 334 
335 452 451 335 336 453 452 336 337 
454 453 337 338 455 454 338 339 456 
455 339 340 457 456 340 341 458 457 
341 285 459 458 285 284 403 459 401 
400 460 461 400 386 462 460 386 385 
463 462 385 387 464 463 387 388 465 
464 388 389 466 465 389 390 467 466 
390 391 468 467 391 392 469 468 392 
393 470 469 393 394 471 470 394 395 
472 471 395 396 473 472 396 397 474 
473 397 343 475 474 343 342 476 475 
342 344 477 476 344 345 478 477 345 
346 479 478 346 347 480 479 347 348 
481 480 348 349 482 481 349 350 483 
482 350 351 484 483 351 352 485 484 
352 353 486 485 353 354 487 486 354 
355 488 487 355 356 489 488 356 357 
490 489 357 358 491 490 358 359 492 
491 359 360 493 492 360 361 494 493 
361 362 495 494 362 399 496 495 399 
497 498 496 399 398 499 497 398 364 
500 499 364 363 501 500 363 365 502 
501 365 366 503 502 366 367 504 503 
367 368 505 504 368 369 506 505 369 
370 507 506 370 371 508 507 371 372 
509 508 372 373 510 509 373 374 511 
510 374 375 512 511 375 376 513 512 
376 377 514 513 377 378 515 514 378 
379 516 515 379 380 517 516 380 381 
518 517 381 382 519 518 382 383 520 
519 383 384 521 520 384 401 522 521 
401 461 523 522 461 524 525 523 461 
460 526 524 402 404 527 528 404 405 
529 527 405 406 530 529 406 407 531 
530 407 408 532 531 408 409 533 532 
409 410 534 533 410 411 535 534 411 
412 536 535 412 413 537 536 413 414 
538 537 414 415 539 538 415 416 540 
539 416 417 541 540 417 418 542 541 
419 420 543 544 420 421 545 543 421 
422 546 545 422 423 547 546 423 424 
548 547 424 425 549 548 425 426 550 
549 426 427 551 550 427 428 552 551 
428 429 553 552 429 430 554 553 430 
431 555 554 431 432 556 555 432 433 
557 556 433 434 558 557 434 435 559 
558 435 436 560 559 436 437 561 560 
437 438 562 561 438 439 563 562 439 
440 564 563 440 441 565 564 441 442 
566 565 442 443 567 566 443 444 568 
567 444 445 569 568 445 446 570 569 
446 447 571 570 447 448 572 571 448 
449 573 572 449 450 574 573 450 451 
575 574 451 452 576 575 452 453 577 
576 453 454 578 577 454 455 579 578 
455 456 580 579 456 457 581 580 457 
458 582 581 458 459 583 582 459 403 
584 583 403 402 528 584 418 419 544 
585 542 418 585 586 460 462 587 526 
462 463 588 587 463 464 589 588 464 
465 590 589 465 466 591 590 466 467 
592 591 467 468 593 592 468 469 594 
593 469 470 595 594 470 471 596 595 
471 472 597 596 473 474 598 599 474 
475 600 598 475 476 601 600 476 477 
602 601 477 478 603 602 478 479 604 
603 479 480 605 604 480 481 606 605 
481 482 607 606 482 483 608 607 483 
484 609 608 484 485 610 609 485 486 
611 610 486 487 612 611 487 488 613 
612 488 489 614 613 489 490 615 614 
490 491 616 615 491 492 617 616 492 
493 618 617 493 494 619 618 494 495 
620 619 495 496 621 620 496 498 622 
621 498 623 624 622 498 497 625 623 
497 499 626 625 499 500 627 626 500 
501 628 627 501 502 629 628 502 503 
630 629 503 504 631 630 504 505 632 
631 505 506 633 632 506 507 634 633 
507 508 635 634 508 509 636 635 509 
510 637 636 510 511 638 637 511 512 
639 638 512 513 640 639 513 514 641 
640 514 515 642 641 515 516 643 642 
516 517 644 643 517 518 645 644 518 
519 646 645 519 520 647 646 520 521 
648 647 521 522 649 648 522 523 650 
649 523 525 651 650 525 652 653 651 
525 524 654 652 524 526 587 654 472 
473 599 655 597 472 655 656 586 585 
657 658 585 544 659 657 544 543 660 
659 543 545 661 660 545 546 662 661 
546 547 663 662 547 548 664 663 548 
549 665 664 549 550 666 665 550 551 
667 666 551 552 668 667 552 553 669 
668 553 554 670 669 554 555 671 670 
555 556 672 671 556 557 673 672 557 
558 674 673 558 559 675 674 559 560 
676 675 560 561 677 676 561 562 678 
677 562 563 679 678 563 564 680 679 
564 565 681 680 565 566 682 681 566 
567 683 682 567 568 684 683 568 569 
685 684 569 570 686 685 570 571 687 
686 571 572 688 687 572 573 689 688 
573 574 690 689 574 575 691 690 575 
576 692 691 576 577 693 692 577 578 
694 693 578 579 695 694 579 580 696 
695 580 581 697 696 581 582 698 697 
582 583 699 698 583 584 700 699 584 
528 701 700 528 527 702 701 527 529 
703 702 529 530 704 703 530 531 705 
704 531 532 706 705 532 533 707 706 
533 534 708 707 534 535 709 708 535 
536 710 709 536 537 711 710 537 538 
712 711 538 539 713 712 539 540 714 
713 540 541 715 714 541 542 716 715 
542 586 717 716 586 658 718 717 658 
719 720 718 658 657 721 719 587 588 
722 654 588 589 723 722 589 590 724 
723 590 591 725 724 591 592 726 725 
592 593 727 726 593 594 728 727 594 
595 729 728 595 596 730 729 596 597 
731 730 597 656 732 731 656 733 734 
732 656 655 735 733 655 599 736 735 
599 598 737 736 598 600 738 737 600 
601 739 738 601 602 740 739 602 603 
741 740 603 604 742 741 604 605 743 
742 605 606 744 743 606 607 745 744 
608 609 746 747 609 610 748 746 610 
611 749 748 611 612 750 749 612 613 
751 750 613 614 752 751 614 615 753 
752 615 616 754 753 617 618 755 756 
618 619 620 755 607 608 747 757 745 
607 757 758 616 617 756 759 754 616 
759 760 621 622 761 762 622 624 763 
761 624 764 765 763 624 623 766 764 
623 625 767 766 625 626 768 767 626 
627 628 768 628 629 769 768 629 630 
770 769 630 631 771 770 631 632 772 
771 632 633 773 772 633 634 774 773 
634 635 775 774 635 636 776 775 636 
637 777 776 637 638 778 777 638 639 
779 778 639 640 780 779 640 641 781 
780 641 642 782 781 642 643 783 782 
643 644 784 783 644 645 785 784 645 
646 786 785 646 647 648 786 648 649 
787 786 649 650 788 787 650 651 789 
788 651 653 790 789 653 791 792 790 
653 652 793 791 652 654 722 793 657 
659 794 721 659 660 795 794 660 661 
796 795 661 662 797 796 662 663 798 
797 663 664 799 798 664 665 800 799 
665 666 801 800 666 667 802 801 667 
668 803 802 668 669 804 803 669 670 
805 804 670 671 806 805 672 673 807 
808 673 674 809 807 674 675 810 809 
675 676 811 810 676 677 812 811 677 
678 813 812 678 679 814 813 679 680 
815 814 680 681 816 815 681 682 817 
816 682 683 818 817 683 684 819 818 
684 685 820 819 685 686 821 820 686 
687 822 821 687 688 823 822 688 689 
824 823 689 690 825 824 690 691 826 
825 691 692 827 826 692 693 828 827 
693 694 829 828 694 695 830 829 695 
696 831 830 696 697 832 831 697 698 
833 832 698 699 834 833 699 700 835 
834 700 701 836 835 701 702 837 836 
702 703 838 837 703 704 839 838 704 
705 840 839 705 706 841 840 706 707 
842 841 707 708 843 842 708 709 844 
843 709 710 845 844 710 711 846 845 
711 712 847 846 712 713 848 847 713 
714 849 848 714 715 850 849 715 716 
851 850 716 717 852 851 717 718 853 
852 718 720 854 853 720 855 856 854 
720 719 857 855 719 721 794 857 671 
672 808 858 806 671 858 859 768 769 
860 767 769 770 861 860 771 772 862 
863 772 773 864 862 773 774 865 864 
774 775 866 865 775 776 867 866 776 
777 868 867 777 778 869 868 778 779 
870 869 779 780 871 870 780 781 872 
871 781 782 873 872 782 783 874 873 
783 784 875 874 784 785 876 875 785 
786 787 877 876 785 877 878 722 723 
879 793 723 724 880 879 724 725 881 
880 725 726 882 881 726 727 883 882 
727 728 884 883 728 729 885 884 729 
730 886 885 730 731 887 886 731 732 
888 887 732 734 889 888 734 890 891 
889 734 733 892 890 733 735 893 892 
735 736 894 893 736 737 895 894 737 
738 896 895 738 739 897 896 739 740 
741 897 741 742 898 897 742 743 899 
898 743 744 900 899 744 745 901 900 
745 758 902 901 758 903 904 902 758 
757 905 903 757 747 906 905 747 746 
907 906 746 748 908 907 748 749 909 
908 621 762 755 620 762 761 910 911 
761 763 912 910 765 764 913 914 764 
766 915 913 766 767 860 915 794 795 
916 857 795 796 917 916 796 797 918 
917 797 798 919 918 798 799 920 919 
799 800 921 920 800 801 922 921 801 
802 891 922 802 803 923 891 803 804 
924 923 804 805 925 924 805 806 926 
925 808 807 927 928 807 809 929 927 
809 810 930 929 810 811 931 930 811 
812 932 931 812 813 933 932 813 814 
934 933 814 815 935 934 815 816 936 
935 816 817 937 936 817 818 938 937 
819 820 939 940 820 821 941 939 821 
822 942 941 822 823 943 942 823 824 
944 943 824 825 945 944 825 826 946 
945 827 828 947 948 828 829 949 947 
829 830 950 949 830 831 951 950 831 
832 952 951 832 833 953 952 833 834 
954 953 834 835 913 954 835 836 914 
913 818 819 940 955 938 818 955 956 
770 771 863 957 861 770 957 958 826 
827 948 959 946 826 959 960 836 837 
961 914 837 838 962 961 838 839 963 
962 839 840 964 963 840 841 965 964 
841 842 966 965 842 843 967 966 843 
844 968 967 844 845 969 968 845 846 
970 969 846 847 971 970 847 848 972 
971 848 849 973 972 849 850 974 973 
850 851 975 974 851 852 976 975 852 
853 977 976 853 854 978 977 854 856 
904 978 856 979 902 904 751 752 980 
981 752 753 982 980 753 754 983 982 
754 760 984 983 760 985 986 984 760 
759 987 985 759 756 911 987 756 755 
762 911 962 963 910 912 963 964 911 
910 964 965 987 911 965 966 985 987 
966 967 986 985 929 930 988 989 930 
931 990 988 931 932 991 990 932 933 
992 991 933 934 993 992 934 935 994 
993 935 936 995 994 956 878 877 996 
967 968 997 986 968 969 998 997 969 
970 999 998 970 971 1000 999 971 972 
1001 1000 972 973 1002 1001 973 974 1003 
1002 975 976 1003 974 976 977 1004 1003 
977 978 1005 1004 978 904 903 1005 903 
905 1006 1005 905 906 1007 1006 906 907 
1008 1007 907 908 1009 1008 908 909 1010 
1009 909 751 981 1010 749 750 751 909 
857 916 1011 855 916 917 1012 1011 917 
918 1013 1012 918 919 1014 1013 919 920 
1015 1014 920 921 1016 1015 921 922 1017 
1016 922 891 890 1017 897 898 1018 896 
898 899 1019 1018 899 900 1020 1019 900 
901 1021 1020 901 902 979 1021 890 892 
1022 1017 892 893 1023 1022 893 894 1024 
1023 894 895 1025 1024 895 896 1018 1025 
1005 1006 1026 1004 1006 1007 1027 1026 1007 
1008 1028 1027 1008 1009 1029 1028 1009 1010 
1030 1029 1010 981 1031 1030 981 980 1032 
1031 982 983 1032 980 983 984 1033 1032 
984 986 997 1033 891 923 1034 889 923 
924 1035 1034 924 925 1036 1035 925 926 
1037 1036 859 858 1038 1039 793 879 1040 
791 879 880 1041 1040 880 881 1042 1041 
881 882 1043 1042 882 883 1044 1043 883 
884 1039 1044 927 929 989 1045 885 886 
1037 1046 956 955 1047 878 955 940 1048 
1047 940 939 1049 1048 939 941 1050 1049 
941 942 1051 1050 942 943 1052 1051 943 
944 1053 1052 944 945 1054 1053 945 946 
1055 1054 946 960 1056 1055 960 1057 1058 
1056 960 959 1059 1057 959 948 1060 1059 
948 947 1061 1060 947 949 1062 1061 949 
950 1063 1062 950 951 1064 1063 951 952 
1065 1064 952 953 1066 1065 953 954 1067 
1066 954 913 915 1067 886 887 1036 1037 
887 888 1035 1036 888 889 1034 1035 860 
861 1067 915 861 958 1066 1067 787 788 
996 877 1066 958 1068 1065 958 957 1069 
1068 957 863 1070 1069 863 862 1071 1070 
862 864 1072 1071 864 865 1073 1072 865 
866 1074 1073 866 867 1075 1074 869 870 
1076 1077 870 871 1078 1076 871 872 1079 
1078 872 873 1080 1079 873 874 1081 1080 
874 875 1082 1081 875 876 1083 1082 876 
878 1047 1083 788 789 995 996 789 790 
994 995 790 792 993 994 792 1084 992 
993 1047 1048 1082 1083 1048 1049 1081 1082 
1049 1050 1080 1081 1050 1051 1085 1080 1051 
1052 1086 1085 1052 1053 1087 1086 1053 1054 
1088 1087 1054 1055 1089 1088 1055 1056 1077 
1089 1056 1058 869 1077 1065 1068 1069 1064 
1060 1061 1090 1091 1061 1062 1092 1090 1062 
1063 1093 1092 1063 1064 1069 1070 792 791 
1040 1084 856 855 1011 979 1070 1071 1093 
1063 1017 1022 1094 1016 1022 1023 1095 1094 
1019 1020 1096 1097 1020 1021 1098 1096 1021 
979 1011 1098 1071 1072 1092 1093 1072 1073 
1090 1092 1073 1074 1091 1090 997 998 1099 
1033 998 999 1100 1099 999 1000 1101 1100 
1000 1001 1102 1101 1001 1002 1103 1102 1002 
1003 1004 1103 867 868 1104 1075 868 869 
1058 1104 1032 1033 1099 1031 1058 1057 1105 
1104 1074 1075 1106 1091 1075 1104 1105 1106 
1038 1107 1044 1039 1077 1076 1088 1089 1107 
1108 1043 1044 1076 1078 1087 1088 1043 1108 
1045 1042 1078 1079 1086 1087 1045 989 1109 
1042 989 988 1110 1109 988 990 1111 1110 
990 991 1112 1111 991 992 1084 1112 1080 
1085 1086 1079 1042 1109 1110 1041 1011 1012 
1096 1098 1012 1013 1097 1096 1004 1026 1027 
1103 1013 1014 1113 1097 1027 1028 1102 1103 
1016 1094 1095 1015 1028 1029 1101 1102 1100 
1101 1029 1030 1030 1031 1099 1100 858 808 
928 1038 1045 1108 928 927 1108 1107 1038 
928 912 763 765 1114 1114 765 914 961 
962 912 1114 961 995 936 937 938 938 
956 996 995 1113 1014 1015 1095 1023 1024 
1113 1095 1025 1018 1019 1097 1113 1024 1025 
1097 1037 926 1115 1046 926 806 859 1115 
1115 859 1039 884 1046 1115 884 885 1110 
1111 1040 1041 1111 1112 1084 1040 1059 1060 
1091 1106 1059 1106 1105 1057 
CELL_DATA 1059
FIELD FieldData 6
Stress_X 1 1059 double
-6.0173304519e-05 -3.0899322155e-05 -1.619968134e-05 -2.7569533358e-06 4.8475735639e-06 1.0908293007e-05 1.8864528101e-05 2.7597858207e-05 2.5307117539e-05 
1.9325898393e-05 1.6639200112e-05 1.5974830603e-05 1.455077745e-05 2.2233149139e-05 2.3486567443e-05 1.3467677491e-05 4.0538343455e-06 -4.1006883293e-06 
-9.407147445e-06 -7.8891125668e-06 -2.4985520213e-06 2.0375284748e-06 8.3990171333e-06 1.6678823158e-05 1.9523859009e-05 2.1804209609e-05 2.0352730644e-05 
1.1335228919e-05 4.4286834964e-06 -4.0242102841e-06 -1.3280137864e-05 -1.762339889e-05 -2.0564106308e-05 -2.2919393814e-05 -1.6846181097e-05 -8.5294732344e-06 
-4.9229929573e-06 -3.5349140148e-07 8.9518352979e-06 2.2055903173e-05 4.6018849389e-05 6.4546526119e-05 6.765753642e-05 6.3287472585e-05 6.7999048042e-05 
6.8322384323e-05 5.8093683037e-05 4.1140181565e-05 2.651657087e-05 2.2038027964e-05 2.3297503503e-05 2.2633565095e-05 1.2082493413e-05 -1.1411252672e-05 
-3.426123294e-05 -6.3525425503e-05 4.5611162932e-05 2.1616930098e-05 8.1384869191e-06 -4.2475858208e-06 -1.6626729121e-05 -2.7121424864e-05 -3.5667177144e-05 
-3.719804954e-05 -3.5579218093e-05 -2.9101986001e-05 -1.9802750103e-05 -1.1884636478e-05 -2.1823029783e-06 6.0830338953e-06 1.5564006389e-05 2.7973335818e-05 
4.0685663407e-05 5.5787368183e-05 5.4204945627e-05 3.8782607589e-05 3.4037384467e-05 2.5028452001e-05 1.3069965462e-05 1.5498468429e-06 -7.3170178894e-07 
9.8698028523e-06 1.431365763e-05 1.4742011444e-05 1.2645085917e-05 1.9201788746e-06 3.9247420318e-06 2.5467784326e-06 1.7714319256e-05 2.580632281e-05 
3.5681001464e-05 3.7346730096e-05 4.0013510443e-05 3.5551584006e-05 3.7663590774e-05 3.4133157897e-05 3.0084225727e-05 2.5716946766e-05 2.2573362003e-05 
1.9637163859e-05 1.23693153e-05 5.3122639656e-06 -2.9124039429e-06 -1.4522239326e-05 -2.086726272e-05 -2.6235516998e-05 -1.7388794731e-05 3.5952823509e-06 
2.9004104363e-05 5.2744391724e-05 8.7336091383e-05 8.572304796e-05 6.3547340687e-05 5.6505970861e-05 -2.4216338716e-05 -8.7121470642e-06 1.9695294213e-06 
9.7858628578e-06 1.379348123e-05 1.5766325305e-05 2.7839227187e-05 3.3561656892e-05 2.688130553e-05 2.2625581551e-05 2.117056647e-05 2.4639532057e-05 
3.1273753848e-05 3.507947622e-05 3.1437881262e-05 2.2138243366e-05 1.0012247003e-05 3.617573725e-07 -5.4450451898e-06 -4.2071728785e-06 1.7175230482e-07 
3.43685997e-06 1.1555664059e-05 1.4316243323e-05 1.5284504116e-05 8.9084915089e-06 -1.2760765458e-06 -8.4509756562e-06 -1.3483329894e-05 -1.5753757907e-05 
-1.5953797629e-05 -1.5940755475e-05 -1.0663184185e-05 -4.3674302219e-07 6.8773601924e-06 1.2486470951e-05 2.1234774977e-05 3.6100605939e-05 5.2292300097e-05 
7.0798123488e-05 7.8090612078e-05 6.9217188866e-05 5.9961159423e-05 4.9625108659e-05 4.1094226617e-05 3.5169774492e-05 3.3432970667e-05 3.0292005249e-05 
3.1692441553e-05 3.4720917029e-05 3.7110479752e-05 2.9427677873e-05 6.2288795561e-06 -1.5295283447e-05 -3.3258020267e-05 -3.514220225e-05 2.6826512112e-05 
2.0224400942e-05 1.3340355508e-05 -1.450048785e-06 -1.4550458218e-05 -2.2574064133e-05 -2.6439069188e-05 -2.1421226847e-05 -1.5391113266e-05 -4.3266809371e-06 
3.2838581774e-06 7.0189471444e-06 1.1467263903e-05 1.5736559362e-05 2.2653908673e-05 2.9367356547e-05 3.9703478251e-05 4.8632675316e-05 4.5463188144e-05 
4.2311392463e-05 3.7147186958e-05 2.526391836e-05 9.6871635833e-06 4.8612278079e-06 1.1512011042e-05 1.9400513338e-05 2.2723015718e-05 1.5395420633e-05 
1.0048865079e-05 4.9639279496e-06 6.1575719883e-06 1.3035376469e-05 2.4505252441e-05 2.710964327e-05 3.4945365769e-05 3.7646434066e-05 3.683414252e-05 
3.4554544982e-05 2.917508391e-05 1.8633254513e-05 1.6079138732e-05 1.7524253053e-05 1.7098087483e-05 1.5137014088e-05 6.2673393586e-06 -2.6077304938e-06 
-5.4549223023e-06 -8.670135685e-06 -7.8877592387e-06 5.6065205172e-06 2.6291731047e-05 5.5992608395e-05 8.2032274804e-05 9.9262062577e-05 6.7715620389e-05 
4.8591871746e-05 5.2079623856e-05 4.4217300456e-05 -3.7020349737e-06 6.3527718339e-06 1.261797388e-05 1.4600153918e-05 1.6492218492e-05 2.3371478164e-05 
2.9787723179e-05 2.7642810892e-05 2.4890601708e-05 2.5663277484e-05 2.8037393349e-05 3.7143399823e-05 4.103023457e-05 4.078686834e-05 3.2833882869e-05 
2.2814738259e-05 1.3618388039e-05 6.7260898504e-06 4.041606644e-06 7.0899372986e-06 8.0578211055e-06 1.0241671589e-05 8.3079739852e-06 1.9432375211e-06 
-3.971874321e-06 -1.0060981367e-05 -1.3002412743e-05 -1.229607642e-05 -8.4054918261e-06 -4.1602174861e-06 2.804282758e-06 1.2915090338e-05 2.1149564418e-05 
2.776535257e-05 3.8151581975e-05 5.0749618822e-05 6.4915839175e-05 7.3429189797e-05 7.3719624197e-05 6.4396204834e-05 5.3934072639e-05 3.0001750929e-05 
2.53144608e-05 2.5713296054e-05 2.6557017918e-05 3.0918214179e-05 3.2145537261e-05 3.6238292523e-05 3.5291122913e-05 1.9213466658e-05 2.474232133e-06 
-1.3040071281e-05 -1.8460181309e-05 -1.4155645658e-05 5.9441895246e-06 8.7328917289e-06 3.8636102545e-05 4.1317278374e-05 2.3684031476e-05 1.9635015633e-05 
7.9222782006e-06 -4.129332865e-06 -1.3557049897e-05 -1.67190301e-05 -1.3525405848e-05 -6.8916557439e-07 7.7048916864e-06 1.1747771168e-05 1.2063942449e-05 
1.5902955056e-05 1.5393141439e-05 1.8105150957e-05 2.078691432e-05 2.7088795832e-05 3.427739648e-05 4.0524293581e-05 4.2533840315e-05 4.1124902054e-05 
3.3321950468e-05 1.6878129827e-05 9.6134026535e-06 1.8592956621e-05 2.6844665626e-05 2.9387558243e-05 2.4441585992e-05 1.701443216e-05 1.3709159248e-05 
1.0898542314e-05 1.6774692995e-05 2.4251834475e-05 2.9450115107e-05 3.5424720409e-05 3.6282930523e-05 3.3550983062e-05 2.9149841794e-05 2.3396336474e-05 
1.5252471712e-05 1.3335319636e-05 1.5566605725e-05 1.8440678105e-05 1.7039576051e-05 9.7596039268e-06 5.228903774e-06 5.2409000091e-06 1.3600285911e-06 
6.4723831201e-06 2.0249992303e-05 4.0788781916e-05 6.3048464654e-05 6.8850909884e-05 5.8877558331e-05 4.3845222535e-05 3.8522310206e-05 4.0115039155e-05 
3.518592348e-05 2.6466306736e-05 2.9893380997e-05 2.3759968826e-05 1.7682286853e-05 1.5331703253e-05 2.1931056835e-05 2.9231605367e-05 3.4986980609e-05 
3.7130936107e-05 3.8197104004e-05 3.8098169171e-05 3.529989408e-05 2.0275636416e-05 1.5819434793e-06 -1.2542928744e-05 -5.9985814005e-06 2.2955937311e-06 
1.1347940017e-05 1.5106997125e-05 1.6717845938e-05 1.6757137928e-05 1.97943682e-05 2.2870350222e-05 2.213355765e-05 2.2196183636e-05 2.3961712941e-05 
2.8022635888e-05 3.6695484596e-05 4.6884215408e-05 4.69899569e-05 4.1937371861e-05 3.2992269553e-05 2.621062049e-05 2.1354520868e-05 1.7253601982e-05 
1.7191790903e-05 1.7116495656e-05 1.5870726202e-05 1.1726015146e-05 7.3994256127e-06 4.5308192966e-06 1.5408520539e-06 1.2774684137e-06 -1.9659175905e-06 
-3.6861817989e-06 -7.5968591773e-06 -7.587123946e-06 -3.583897751e-06 2.6937686926e-06 8.7039888967e-06 1.7278405721e-05 2.61908026e-05 3.4399803553e-05 
4.484384408e-05 5.3872066928e-05 6.2724997406e-05 7.1237722295e-05 7.6083364547e-05 7.2746748629e-05 6.2708611949e-05 5.2814128139e-05 4.2133760871e-05 
3.2281437598e-05 1.9936047465e-05 1.9380862796e-05 2.2244885258e-05 1.6145833797e-05 7.1039171416e-06 2.1303570463e-07 -2.286556537e-06 -9.6196038157e-07 
8.061169865e-06 2.1660422135e-05 2.0131072233e-05 1.8856300812e-05 1.8265089238e-05 1.7652966562e-05 1.3445306649e-05 1.3758335626e-05 1.5111421817e-05 
3.4746222809e-05 3.9646391087e-05 4.2232710257e-05 3.7007866922e-05 2.2633585104e-05 1.6865482394e-05 2.5169880246e-05 3.0836596125e-05 3.4966975363e-05 
3.1116156606e-05 2.5543449738e-05 2.0845229301e-05 1.9333807359e-05 2.2932523279e-05 2.8511498385e-05 3.088169251e-05 3.4372169466e-05 3.0878891266e-05 
2.6549081667e-05 2.4016513635e-05 1.914499444e-05 1.4167673726e-05 1.3366468011e-05 1.6250553017e-05 1.9339868231e-05 1.9226441509e-05 1.5134951354e-05 
1.5332028852e-05 1.4721372281e-05 1.3435389519e-05 1.8490600269e-05 3.2832449506e-05 5.104592492e-05 5.9512258304e-05 5.269974281e-05 3.5543795093e-05 
2.4926604965e-05 2.7886395401e-05 3.0666480598e-05 2.8337153708e-05 2.3385098757e-05 2.353824857e-05 2.6310375688e-05 1.9034067009e-05 1.4195119547e-05 
8.6272630142e-06 9.5827026598e-06 1.9521847207e-05 2.9957775041e-05 3.9510781789e-05 4.1370996769e-05 3.9968203055e-05 3.9803813706e-05 4.0805847675e-05 
4.0771210479e-05 -6.0752340687e-06 1.5018687236e-06 7.8976863733e-06 1.3042666069e-05 1.9071849238e-05 1.8773642296e-05 1.7756889065e-05 1.7847629351e-05 
1.6627878722e-05 1.7319905965e-05 1.7577252947e-05 2.0275158022e-05 2.5538492991e-05 3.3783726394e-05 4.4779251766e-05 5.1127510233e-05 4.8245699872e-05 
4.24539503e-05 3.5217639379e-05 3.1392948586e-05 2.6259351216e-05 2.373919051e-05 2.4525006665e-05 2.1548625227e-05 1.8905302568e-05 1.4171960174e-05 
9.9094095276e-06 5.0103367357e-06 -2.000248287e-06 -1.8688203909e-06 -9.7829081369e-07 -1.3874471279e-06 -4.1534071897e-06 -4.4329021875e-06 -7.6772073498e-07 
5.599420092e-06 1.4410073163e-05 2.3247988793e-05 3.1464758649e-05 3.7625832192e-05 4.437242751e-05 5.6375840359e-05 6.5084233938e-05 6.9669637014e-05 
7.3629540566e-05 7.3600363976e-05 6.9355875894e-05 6.1290607846e-05 5.1304672525e-05 4.3845440814e-05 3.1285708246e-05 2.0547196982e-05 1.0782173376e-05 
9.3222915893e-06 7.6393353083e-06 3.1250508528e-06 2.5524270313e-05 1.6756428522e-05 2.416897587e-05 2.9606095268e-05 3.5735138226e-05 3.8787871745e-05 
3.7867655919e-05 2.7457088436e-05 2.4973467589e-05 3.0746290577e-05 3.5843935621e-05 3.8469497667e-05 3.6402077967e-05 3.2587184251e-05 2.975015741e-05 
2.8186517739e-05 3.0959505239e-05 3.2871659641e-05 3.2014129829e-05 2.953283547e-05 2.2284157239e-05 2.1741865567e-05 1.9543731469e-05 1.6087880795e-05 
1.4220065168e-05 1.433441048e-05 1.7347723769e-05 2.1314403057e-05 2.1822948838e-05 2.2337764676e-05 2.5275852749e-05 2.7085219699e-05 2.6737814551e-05 
3.0836192309e-05 4.1925708501e-05 5.5495944252e-05 5.5231663282e-05 4.4435942982e-05 2.8121839932e-05 1.5903589883e-05 2.0218882128e-05 2.3308783057e-05 
2.1078465579e-05 1.8898921553e-05 2.1605090296e-05 2.2443309717e-05 2.0313624191e-05 1.7386471882e-05 1.5331175746e-05 1.5409386833e-05 1.5407857063e-05 
1.9813402105e-05 2.6545803848e-05 2.7793796107e-05 2.289537224e-05 2.1271405785e-05 1.7194348402e-05 1.1820003238e-05 1.0221410776e-05 9.3975077107e-06 
9.5888262877e-06 1.2918839275e-05 1.5469988284e-05 1.3765265976e-05 4.996043117e-06 7.6114474723e-06 1.6086241885e-05 2.8922058846e-05 3.9208691305e-05 
4.3014810217e-05 4.2875341023e-05 4.0930364776e-05 4.2030907935e-05 4.7954374168e-05 4.7343088227e-05 3.7726975279e-05 1.8367045413e-05 5.1345145948e-06 
3.1636143376e-06 9.449809113e-06 1.0863959687e-05 1.7004342226e-05 2.0667606805e-05 2.0317698727e-05 1.9735478418e-05 1.6737265469e-05 1.6017358575e-05 
1.4297527741e-05 1.5590705516e-05 2.3014499675e-05 3.0969586078e-05 3.8822381612e-05 4.9781981943e-05 5.2172723372e-05 4.8948451877e-05 3.4623342799e-05 
2.9267270293e-05 1.4860126612e-05 1.5392415662e-05 4.1065723053e-05 4.663216896e-05 2.8138179914e-05 2.3267490178e-05 1.9337430786e-05 1.4684244888e-05 
8.6355539679e-06 3.8846969801e-06 -2.258043196e-06 -3.156873845e-06 -4.7293599437e-07 -4.5024798965e-06 -3.5221955841e-06 3.0709887255e-07 6.2674012042e-06 
1.4875489796e-05 2.5329301934e-05 3.6044253648e-05 4.4326825446e-05 4.5390686864e-05 4.7884259402e-05 6.0377275076e-05 6.8840905442e-05 7.0919675636e-05 
7.0185837103e-05 6.5452913987e-05 5.882115147e-05 5.47732634e-05 4.3161293434e-05 3.3319556678e-05 2.0516412405e-05 1.2940121451e-05 5.0948679018e-06 
4.6576860768e-06 4.3861368795e-06 2.1882664441e-05 2.7295660402e-05 3.1150706491e-05 3.5858436604e-05 3.7032485125e-05 3.0984312616e-05 3.1178115023e-05 
3.6725108657e-05 3.9290796849e-05 4.1889517888e-05 4.003840877e-05 3.7927355152e-05 3.7328311009e-05 3.6436329538e-05 3.5121560359e-05 3.0135941415e-05 
2.2925678422e-05 1.6902162315e-05 1.8864677259e-05 1.563664955e-05 1.4349410776e-05 1.4580287825e-05 1.5401254132e-05 1.8268659915e-05 2.3131116905e-05 
2.7325690098e-05 3.1231960747e-05 3.7096229789e-05 4.0030387026e-05 4.070506111e-05 4.2250823753e-05 4.8452333431e-05 5.6794735428e-05 5.4765532695e-05 
4.2447973101e-05 2.6211133445e-05 1.2195230738e-05 1.2031653569e-05 1.617162161e-05 1.486155179e-05 1.4250798813e-05 2.0048812075e-05 2.1748774088e-05 
2.3232876629e-05 2.3706677894e-05 2.7127021895e-05 2.983853301e-05 3.0872539355e-05 3.1267099985e-05 3.1931860576e-05 3.0081813748e-05 2.5579234716e-05 
2.1915724574e-05 1.7885187845e-05 1.3564373148e-05 9.6429694167e-06 7.7808053902e-06 9.7890551842e-06 8.8241258709e-06 1.3368025975e-05 1.6114698155e-05 
1.6152003809e-05 1.8202010324e-05 3.7132402213e-05 3.9975438995e-05 -1.8308445533e-06 -3.6632417277e-07 3.8816591541e-07 6.7505479819e-06 1.3595195924e-05 
2.2789936338e-05 3.3657914173e-05 4.6147932153e-05 5.0395505241e-05 4.8207355576e-05 5.0498765631e-05 6.0537237005e-05 6.8649504101e-05 6.8278677645e-05 
6.5299973357e-05 5.7152577938e-05 4.6715391363e-05 4.5820717787e-05 4.2093915908e-06 1.3323949133e-05 2.5536553949e-05 3.7090423575e-05 4.4475000323e-05 
4.5091663196e-05 4.3643794925e-05 4.3871466914e-05 4.5155677071e-05 4.9046968343e-05 4.4630975026e-05 4.2817333451e-05 3.7072677515e-05 2.2665210054e-05 
1.1501956578e-05 1.2705218978e-05 1.4234426089e-05 1.7482863768e-05 2.1900923457e-05 2.1556093998e-05 2.15168875e-05 1.8534019546e-05 1.6222727936e-05 
1.5781373804e-05 1.5334266209e-05 1.6480471459e-05 1.3024562577e-05 1.2482572856e-05 1.3075862626e-05 2.0068946469e-05 2.9217990232e-05 3.2472169551e-05 
2.7247946491e-05 1.6622601834e-05 9.440111171e-06 4.5650303946e-06 2.3460435841e-05 2.7552036045e-05 3.2647469197e-05 3.5433589801e-05 3.2719493902e-05 
3.552443377e-05 4.0745664592e-05 4.1539162339e-05 4.2230309191e-05 4.1976985813e-05 4.1143590352e-05 4.2618958105e-05 3.9141003072e-05 3.4225802665e-05 
2.6367084502e-05 1.7628000933e-05 1.4163755623e-05 1.4683345398e-05 1.283185793e-05 1.2849252016e-05 1.452194283e-05 1.5850951968e-05 1.9295443053e-05 
3.6138953874e-05 4.2387400754e-05 4.8871668696e-05 5.1438091759e-05 5.1293678553e-05 5.0653492508e-05 5.1839426305e-05 5.2923613111e-05 4.0134807932e-05 
2.2061436539e-05 1.0761814337e-05 6.5587987592e-06 8.4580560724e-06 7.3587225415e-06 9.6161911642e-06 1.7170472347e-05 2.9957451261e-05 2.5055875085e-05 
-3.7989113935e-06 -6.3806778599e-06 5.9127320128e-05 5.8785823057e-05 2.2174688638e-05 2.5065070076e-05 2.7418782338e-05 3.2699026633e-05 3.6114430259e-05 
3.7986199459e-05 3.705425479e-05 3.5658846173e-05 3.2698397263e-05 2.7119431252e-05 2.311551907e-05 1.885828533e-05 1.4847975763e-05 1.1990555322e-05 
7.2168277256e-06 1.0650588592e-05 1.1108481885e-05 1.105980482e-05 1.4341478163e-05 1.6270234482e-05 4.5102249715e-05 5.1408111176e-05 5.2039089496e-05 
5.1822673413e-05 4.8616668209e-05 4.7074550821e-05 3.9735848986e-05 3.5049655708e-05 2.9388713301e-05 3.2909407309e-05 3.9025871956e-05 4.2608749936e-05 
4.3965603254e-05 2.2275409719e-05 1.5917883502e-05 1.310512198e-05 1.0612441656e-05 1.0051578101e-05 1.0380350432e-05 1.4830185137e-05 3.4430449887e-05 
4.104675827e-05 3.5791923438e-05 2.9296237699e-05 2.4202367058e-05 1.8716205886e-05 1.5568477465e-05 1.2464132851e-05 7.7384229371e-06 1.0041401765e-05 
1.3280327948e-05 1.4623071365e-05 1.5118491319e-05 1.1504344002e-05 1.1521065971e-05 1.5389476175e-05 2.0117538952e-05 3.4237353248e-05 3.2866446418e-05 
2.0386120013e-05 2.4606915758e-05 2.9038879802e-05 3.2034819014e-05 3.2120595279e-05 3.6452693166e-05 4.3858140998e-05 4.3201020162e-05 2.3796063033e-05 
2.2560616344e-05 2.1213481887e-05 1.844527651e-05 1.720178625e-05 3.961909897e-05 2.6556466764e-05 1.9333452656e-05 1.9149067157e-05 2.1105344786e-05 
1.023065488e-05 1.0624643437e-05 1.471172709e-05 1.6072863218e-05 2.1960115191e-05 3.2569925679e-05 4.1982773837e-05 4.9764577852e-05 4.7968675062e-05 
4.6122822823e-05 4.208696555e-05 4.0214734327e-05 4.4112053729e-05 4.479411291e-05 4.5115368266e-05 3.2314430882e-06 1.1615974472e-05 2.2697120585e-05 
3.5388220567e-05 4.3955209549e-05 4.6919150918e-05 3.1207084248e-05 4.538081339e-05 3.5825858504e-05 4.0572049329e-05 4.6335924708e-05 5.3162737458e-05 
5.767129187e-05 6.0544800363e-05 5.8845067542e-05 5.6623335695e-05 5.597729978e-05 5.7065448345e-05 6.0797046899e-05 6.3956729718e-05 5.8802481362e-05 
4.7838537284e-05 3.4423850593e-05 1.8339245798e-05 8.1408452388e-06 6.4973710323e-06 -1.5523777108e-07 8.8102126483e-07 5.4451606957e-06 4.6111556003e-05 
4.4136384531e-05 4.3810876377e-05 -1.5130636939e-06 -8.2269508539e-07 3.2579249819e-05 -3.4689051063e-06 -2.269501465e-06 8.9120675284e-07 6.4249493335e-06 
1.1370705579e-05 2.0016299459e-05 2.9308921512e-05 4.0653398173e-05 5.3424868383e-05 5.4988955526e-05 6.1113256379e-05 6.6114829679e-05 6.6190346843e-05 
6.0717342421e-05 5.2956038417e-05 4.5216118451e-05 2.3773593057e-05 1.3645519175e-05 8.617084859e-06 7.0999021773e-06 4.8238118325e-05 5.552014045e-05 
6.1110215029e-05 6.4313426265e-05 6.4970125095e-05 6.1557933805e-05 5.8521163737e-05 5.8237048506e-05 5.8569865359e-05 5.457701991e-05 -1.0144002545e-06 
4.1906747356e-05 2.9581829949e-05 1.8075792468e-05 6.5827566686e-06 5.4844276747e-06 1.8202559659e-05 8.3068225649e-06 4.0566952521e-05 3.1489384128e-05 
2.2957183319e-05 2.0800940547e-05 1.9299059204e-05 1.6304004021e-05 2.5185971026e-05 3.5545290302e-05 3.8684545871e-05 3.0520241125e-05 2.4069795472e-05 
1.8982233087e-05 1.483968208e-05 1.2205111489e-05 5.157868145e-05 5.5641288782e-05 4.0606239054e-05 6.2130224251e-05 4.5845728891e-05 5.5410080677e-05 
4.5887671149e-05 5.89663141e-05 4.3543383072e-05 5.8092857216e-05 3.5851822759e-05 6.1477127019e-05 2.7167541703e-05 2.0368164769e-05 1.4665496565e-05 
1.2869370039e-05 6.3412758209e-06 6.4081323217e-05 2.0632485757e-05 2.1489307983e-05 2.6809793781e-05 1.1818719031e-05 2.8953312722e-05 1.5310375602e-05 
3.6320765503e-05 1.8252218069e-05 2.3370595954e-05 3.1303436117e-05 4.2255047447e-05 3.9085149183e-05 4.3794883823e-05 2.3309907192e-05 2.1735737391e-05 
2.5681831175e-05 1.7836791812e-05 2.3710173991e-05 2.8365961043e-05 2.5155535695e-05 2.6952055123e-05 2.4926395781e-05 4.6562454372e-05 4.4888300181e-05 
4.6765890147e-05 4.5741380745e-05 1.3110550753e-05 6.4310088419e-06 5.2050287195e-05 6.1138336605e-05 
Stress_Y 1 1059 double
-4.1501869418e-05 -2.267293894e-05 -1.0903172551e-05 -3.3819273995e-06 2.2926626571e-06 1.1046329746e-05 1.7139465854e-05 2.7968420909e-05 4.5779212087e-05 
5.0445312809e-05 4.2426294385e-05 3.0050961868e-05 2.2033365894e-05 1.6823867554e-05 7.5641628428e-06 2.1701880542e-06 3.3561314012e-06 8.7208527475e-06 
1.2114695892e-05 1.8339424059e-05 2.5199689844e-05 3.1793108064e-05 3.5143832065e-05 3.9396309148e-05 4.0934912249e-05 4.541033195e-05 4.2666350055e-05 
2.3225120458e-05 5.4049028222e-06 -7.9606707004e-06 -1.7720023607e-05 -1.9688386601e-05 -2.401994243e-05 -3.4633103496e-05 -3.4332784708e-05 -2.6837498808e-05 
-2.8153011954e-05 -2.6471312594e-05 -2.1279332941e-05 -8.7476673798e-06 1.2089817574e-05 3.3181990148e-05 5.7455941715e-05 8.3347717009e-05 0.00010525815742 
0.00011284463108 0.00010260374984 7.6412907219e-05 4.9585087254e-05 3.3620843169e-05 2.0472982214e-05 1.1217375686e-05 4.0888839976e-06 -4.6022460083e-06 
-1.7643476895e-05 -4.2686333472e-05 3.3024134609e-05 2.1709196517e-05 1.77897291e-05 1.0200637007e-05 2.4339728952e-06 7.8543786231e-07 -4.4798671297e-06 
-6.2645067374e-06 -6.5776293923e-06 2.7486433396e-07 7.9804958659e-06 1.9264145521e-05 2.9987120797e-05 4.1777791921e-05 5.3984040278e-05 6.7200031481e-05 
8.2786187704e-05 8.5798208602e-05 6.4422209107e-05 2.8708902391e-05 9.240644431e-06 -7.0243022492e-06 -2.4457423933e-05 -3.3277789043e-05 -3.2648134948e-05 
-2.364824104e-05 -1.7740778276e-05 -1.6626883735e-05 -2.4856826712e-05 -4.1941679228e-05 -4.6582441428e-05 -3.7662561226e-05 -3.7517190776e-07 -9.8312757473e-06 
1.2701855667e-05 3.8472258893e-05 6.1882914451e-05 6.9684974733e-05 6.5091560828e-05 5.395345579e-05 5.3174462664e-05 5.0980339438e-05 4.4820666517e-05 
3.6393797927e-05 2.5192599423e-05 1.3796247913e-05 4.2638434934e-06 -6.019402008e-06 -5.7708489294e-06 -7.031365385e-06 -5.2535519899e-06 1.5369179209e-06 
7.7455351857e-06 1.0406459296e-05 2.8829559596e-05 2.9978507882e-05 2.2978503694e-05 3.0940322176e-05 2.197952017e-05 2.170751759e-05 2.0775849407e-05 
2.399710138e-05 2.9197319236e-05 3.647849735e-05 5.7154793467e-05 7.2909489973e-05 7.7262302511e-05 7.3600618634e-05 6.4480140281e-05 5.5665375839e-05 
4.7134544729e-05 4.4169308239e-05 4.6396849939e-05 5.2461455198e-05 5.3092582675e-05 5.4391504818e-05 5.4164989706e-05 5.6852484704e-05 5.6817076256e-05 
4.6928067604e-05 3.7257628719e-05 2.7093514291e-05 2.6788809919e-05 2.7749401852e-05 2.2280129997e-05 1.8269935026e-05 1.7985859813e-05 1.9909384719e-05 
2.164387115e-05 2.2701693524e-05 2.5679721148e-05 2.6494308258e-05 2.5759736673e-05 3.1080380722e-05 3.9998893044e-05 5.156151019e-05 6.1248101701e-05 
7.2380986239e-05 8.3488339442e-05 8.914351929e-05 9.308411245e-05 9.5692827017e-05 0.00010116869089 0.00010407206719 0.00010163445404 8.5987987404e-05 
6.7971821409e-05 5.1538485422e-05 3.7808378693e-05 2.9132248528e-05 2.3157104806e-05 2.3052643883e-05 2.5630546588e-05 2.6201050787e-05 2.4126897188e-05 
3.199715502e-05 3.6629397073e-05 3.591879431e-05 3.3548280044e-05 3.3984473703e-05 3.4991695429e-05 4.2744286475e-05 5.4299875046e-05 7.1553586167e-05 
8.3474325947e-05 8.5913779913e-05 8.7286411144e-05 9.0386623924e-05 9.1351234005e-05 8.4403160145e-05 6.8585781264e-05 5.1121256547e-05 3.5797402234e-05 
2.8253953133e-05 2.481539741e-05 2.1651369025e-05 1.7455013221e-05 1.591808541e-05 1.8109181838e-05 2.0460407541e-05 2.537727778e-05 2.706601299e-05 
2.8369930078e-05 2.4085718906e-05 2.1757081413e-05 1.9826504285e-05 3.5497268982e-05 4.1732066165e-05 5.5306281865e-05 6.5957523475e-05 7.3561684985e-05 
7.8590936027e-05 8.1301521277e-05 7.8969547758e-05 7.9909324995e-05 8.2670383563e-05 8.1048550783e-05 7.4739684351e-05 6.2302831793e-05 5.1042512496e-05 
4.8026344302e-05 4.3398329581e-05 3.7899597373e-05 3.3273001463e-05 2.5974508389e-05 2.0145034796e-05 8.1804164438e-06 7.4254303399e-06 2.9629234177e-06 
-1.0246563988e-06 1.4478659978e-05 2.2260563128e-05 2.350171053e-05 2.5454861316e-05 3.0370294553e-05 3.6907251342e-05 4.7913807066e-05 6.4454376115e-05 
7.8722696344e-05 8.4649669589e-05 8.4489598521e-05 8.127054025e-05 7.5779214967e-05 7.5790092524e-05 7.5762873166e-05 7.7331147622e-05 7.3052069638e-05 
6.9220666774e-05 6.5335203544e-05 6.3861676608e-05 6.3116000092e-05 5.9302234149e-05 3.8350826799e-05 3.3974334656e-05 3.0015771699e-05 2.336302714e-05 
1.7922398911e-05 1.514547148e-05 1.5707917555e-05 1.833225906e-05 2.2115285901e-05 2.4971754101e-05 2.8773783924e-05 3.670813021e-05 4.3862131861e-05 
4.7787987569e-05 5.4097687098e-05 6.3417573983e-05 7.4668460002e-05 8.3155864559e-05 8.9381617727e-05 9.0366826043e-05 8.8251770649e-05 0.00010352351819 
0.0001061596995 0.00010209760512 8.8380780653e-05 7.1675167419e-05 5.1572686061e-05 3.7241188693e-05 2.7133914045e-05 1.960296504e-05 1.8185415684e-05 
1.6561241864e-05 1.7723674318e-05 2.0639023205e-05 4.4460575737e-05 4.8430287279e-05 9.5506184152e-05 8.1135309301e-05 2.9983766581e-05 3.3980559238e-05 
3.3119144064e-05 3.2323969208e-05 3.1754090742e-05 3.647054109e-05 4.9621245125e-05 7.1408830991e-05 9.1417001386e-05 0.00010272386135 0.00010304161697 
0.0001025195379 9.702071111e-05 8.8648579549e-05 7.5511889008e-05 6.2027473177e-05 4.9839847634e-05 3.7516339944e-05 2.8900894904e-05 2.3201482691e-05 
1.8462971639e-05 1.2211720787e-05 9.0221610662e-06 1.2313832485e-05 1.4447654394e-05 1.8329244995e-05 2.1991398171e-05 2.3732676709e-05 2.6055531634e-05 
2.7555488487e-05 3.6488927435e-05 4.552912651e-05 5.5559517932e-05 6.5804240876e-05 7.2161259595e-05 7.7527263784e-05 8.564923337e-05 9.4122056908e-05 
0.00010122404638 0.00010467791435 0.00010798431322 0.0001108262004 0.00010540486255 9.0310102678e-05 7.3715513281e-05 5.9719299315e-05 4.4781321776e-05 
3.4986951505e-05 2.8254782592e-05 2.1647794711e-05 1.5109108972e-05 5.318339845e-06 1.000661814e-05 2.1144309358e-05 1.2038550267e-05 1.5742760297e-05 
1.9638680897e-05 2.260051042e-05 7.5013413152e-05 7.9614335846e-05 8.9769906481e-05 9.2426795163e-05 8.9711473265e-05 8.0732177594e-05 6.8031135015e-05 
5.2320126997e-05 3.828599074e-05 2.6298328521e-05 1.8956896383e-05 1.9549241188e-05 1.8236303731e-05 1.634657383e-05 2.3435626645e-05 2.7168465749e-05 
3.1461117032e-05 3.45380613e-05 4.1403571231e-05 5.1310507843e-05 6.7664332164e-05 8.0658915977e-05 8.5365383711e-05 8.6622472736e-05 8.6353487859e-05 
8.8190507086e-05 9.2367103207e-05 9.6576572105e-05 9.1924433946e-05 8.4521205281e-05 7.7689845057e-05 7.6524920587e-05 7.4067909736e-05 6.9952395279e-05 
6.22466614e-05 5.5060489103e-05 4.6235199989e-05 4.0586503019e-05 3.5077206121e-05 3.252040915e-05 2.7538824725e-05 2.49952991e-05 1.8560345779e-05 
1.5098645235e-05 1.3437715097e-05 1.6078556655e-05 2.1194427973e-05 2.6986646844e-05 3.1850806408e-05 3.9055845264e-05 4.8823432735e-05 6.014731116e-05 
6.8942405051e-05 7.3483119195e-05 7.7753895312e-05 8.3538281615e-05 9.0829329565e-05 9.2912559921e-05 8.7917833298e-05 8.0981801148e-05 7.5893265603e-05 
7.548440044e-05 7.6956130215e-05 7.5162410212e-05 2.9708824513e-05 3.0448973121e-05 3.1278774259e-05 3.4788190533e-05 4.3295345677e-05 5.8187979448e-05 
7.9578938312e-05 0.00010727439803 0.00011462968541 0.00010736441618 9.8521653854e-05 9.0839930635e-05 7.8867386037e-05 6.7771718022e-05 5.7078232203e-05 
3.4920143662e-05 2.8149179343e-05 2.3888784199e-05 1.9461218471e-05 1.3025030057e-05 1.0766931155e-05 1.3350236259e-05 1.4464237211e-05 1.9994027753e-05 
2.2612308385e-05 2.4137412765e-05 2.7055979444e-05 3.1387768104e-05 4.0999828343e-05 4.9866557674e-05 5.6939970818e-05 6.7147346272e-05 7.2480121162e-05 
7.9800731328e-05 8.9051478426e-05 9.7859410744e-05 0.00010626808944 0.00011399360665 0.00012066568161 0.00012468610657 0.00012043923925 0.00010563695105 
9.0201829153e-05 7.2288377851e-05 5.503729335e-05 4.1252988012e-05 3.2909476431e-05 2.4991792088e-05 1.3895853954e-05 5.2415807659e-06 9.0053281383e-06 
2.1229861886e-05 1.5892705051e-05 1.2805225197e-05 1.5564395653e-05 2.0299166863e-05 2.6826357498e-05 4.1327708459e-05 4.8808742577e-05 7.4687304732e-05 
7.419972826e-05 7.1235721407e-05 6.6593805968e-05 5.9376008721e-05 5.4895866924e-05 4.4591175538e-05 3.4265311115e-05 2.6343981517e-05 1.8351873223e-05 
1.6142255845e-05 1.7010668671e-05 2.3843780582e-05 2.8641074096e-05 3.184394518e-05 3.7384776078e-05 4.3391708459e-05 5.3263695008e-05 6.6790926212e-05 
7.525516412e-05 8.0006284406e-05 8.2495243987e-05 8.533635264e-05 8.9588938863e-05 9.5982388302e-05 9.8745607829e-05 9.5554445579e-05 8.8442517153e-05 
8.5278261395e-05 8.3272141637e-05 7.9586454376e-05 7.3031500506e-05 6.6814209276e-05 6.0816681071e-05 5.2088820667e-05 4.3957490561e-05 3.7942529161e-05 
3.4431570384e-05 2.8497257517e-05 2.3912871256e-05 2.3320262699e-05 2.2449215976e-05 1.9796363631e-05 1.4912474398e-05 1.389118006e-05 1.7280372049e-05 
2.2482996428e-05 2.990214125e-05 3.7785546738e-05 4.5738415793e-05 5.4094816733e-05 6.530018436e-05 7.7279139077e-05 8.3482838818e-05 8.5198000306e-05 
8.7643325969e-05 8.9455425041e-05 9.0702502348e-05 8.6834959802e-05 7.9951765656e-05 7.8323217167e-05 7.7618889918e-05 8.2048871263e-05 8.2032049249e-05 
7.9543358879e-05 7.4428477092e-05 1.5625160813e-05 1.2638669432e-05 4.499867282e-05 4.1839000914e-05 3.4513948776e-05 2.9358412576e-05 2.4711331207e-05 
2.1046991606e-05 1.5284273104e-05 1.3515275896e-05 1.3948377273e-05 1.4392342564e-05 1.8299006115e-05 2.1310994271e-05 2.2994088795e-05 2.5877918233e-05 
3.069894592e-05 4.124951738e-05 4.7276203986e-05 5.3882820794e-05 6.4143525378e-05 7.2380316851e-05 8.0060497567e-05 8.7838896434e-05 9.5911083918e-05 
0.00010553918401 0.00011396519403 0.00012105039059 0.00012660196808 0.00012364353461 0.00011096690287 9.7839838418e-05 8.2172329712e-05 6.4430103521e-05 
4.9058082368e-05 3.4955290175e-05 2.6894829716e-05 1.3544213289e-05 4.7752123464e-06 9.4294873634e-06 1.7513069906e-05 1.7259033484e-05 1.3679193216e-05 
1.4124356312e-05 1.8824743165e-05 2.4726719857e-05 2.7889082048e-05 2.978079101e-05 3.5068187572e-05 4.3137362809e-05 5.5074182455e-05 7.0947200584e-05 
9.1187292128e-05 0.00011239138985 0.00011976325914 0.00010809924424 9.6896575997e-05 8.5349129222e-05 7.6014715887e-05 6.9226902269e-05 5.8378685935e-05 
5.3147130529e-05 5.1339586207e-05 4.9684353144e-05 4.0291390178e-05 7.2595539677e-05 6.6133157816e-05 5.5635267927e-05 4.6243199904e-05 4.2150841182e-05 
3.7183006498e-05 3.1048584788e-05 2.5412000468e-05 2.0590994609e-05 1.7574218873e-05 1.3389441847e-05 8.6242389443e-06 1.0800712516e-05 1.7162419681e-05 
1.9423465346e-05 2.5005678253e-05 2.7619029424e-05 3.2223120797e-05 3.7550926208e-05 4.2753399612e-05 5.1815386541e-05 6.1317477957e-05 6.9014648034e-05 
7.3374008934e-05 7.8751349065e-05 8.5013467469e-05 8.993488882e-05 9.3944829132e-05 9.2783011496e-05 9.0369438112e-05 8.9687506261e-05 7.9491008364e-05 
7.1549111453e-05 7.0427580795e-05 6.4381805714e-05 8.7866996182e-05 9.4715949672e-05 5.9710710048e-05 4.937389167e-05 4.015095692e-05 3.58712241e-05 
2.9432158044e-05 2.6500480089e-05 2.3520013201e-05 2.1345869754e-05 2.1519985239e-05 1.6796493583e-05 1.2736330973e-05 1.4409495634e-05 1.880216405e-05 
2.5127783374e-05 3.2774692954e-05 4.1279421566e-05 5.2622781368e-05 5.8185207308e-05 6.40546059e-05 7.5816686149e-05 8.2867067249e-05 8.6340878624e-05 
8.9331559138e-05 9.0559668024e-05 8.7155232904e-05 8.35016981e-05 8.2481805293e-05 8.6791849753e-05 8.4657353e-05 8.3514227299e-05 7.6557967986e-05 
7.8209552157e-05 7.8403420048e-05 3.9242542698e-05 3.6562785681e-05 3.1864670746e-05 2.8418418879e-05 2.4192542696e-05 1.7406837287e-05 1.539726145e-05 
1.5018209524e-05 1.38710393e-05 1.8431675926e-05 2.1136858777e-05 2.1783052944e-05 2.2802591047e-05 3.6656809243e-05 4.3003732571e-05 5.0925405958e-05 
6.266595301e-05 7.116683264e-05 7.9186167568e-05 8.4532388428e-05 9.1093446827e-05 0.00010040109191 0.0001084153846 0.00011183883908 0.00011603451276 
0.00011626347987 0.00010844432109 9.997390589e-05 8.7174244982e-05 7.3231269198e-05 5.8440975408e-05 4.2118390411e-05 2.9468472349e-05 1.7475258574e-05 
1.0247436876e-05 1.5290106603e-05 1.7382559236e-05 1.6114056052e-05 1.4920371541e-05 1.4821525838e-05 1.8223134248e-05 2.5273244319e-05 2.8140108043e-05 
3.4483608033e-05 4.2989770009e-05 5.65276423e-05 7.2591625212e-05 8.9412489615e-05 0.00010564255354 0.00011972818902 0.00012194583542 0.00011115087545 
9.8820775747e-05 8.7356653239e-05 7.742489106e-05 6.8093555456e-05 6.310189201e-05 6.1151913542e-05 5.9990306909e-05 5.5933443946e-05 4.8155481636e-05 
4.6105382353e-05 4.3132895371e-05 3.0906070606e-05 2.6054813134e-05 2.1809548343e-05 2.3605884053e-05 1.0277051842e-05 1.4396789084e-05 1.9476889065e-05 
2.6254723707e-05 3.5030861909e-05 4.4520136726e-05 5.1117738622e-05 5.8701421949e-05 6.3087340095e-05 7.1889386163e-05 8.1098558439e-05 8.5011633928e-05 
8.9311310148e-05 9.0709705546e-05 9.1329835413e-05 9.1044530564e-05 7.1998860221e-05 5.9413196141e-05 4.5887773013e-05 3.8357029553e-05 3.5456119804e-05 
2.9068280128e-05 2.5217070288e-05 2.1238940462e-05 1.9104878447e-05 2.0279199816e-05 1.3253871657e-05 1.1555476704e-05 1.1265175999e-05 1.8357624867e-05 
1.9353061361e-05 2.2308315238e-05 2.6135212465e-05 2.9206537874e-05 3.7239642552e-05 4.0614551835e-05 4.9501461035e-05 5.7262037444e-05 6.005490286e-05 
5.6922821386e-05 5.2188217524e-05 5.6783399486e-05 5.8628749684e-05 6.2677470851e-05 6.9072804763e-05 7.8502540418e-05 6.6701169999e-05 6.6472734034e-05 
5.173081081e-05 3.3187909139e-05 2.8464668503e-05 2.6099391107e-05 3.9750033466e-05 3.5007571569e-05 3.1831659726e-05 2.7174499337e-05 2.0684099582e-05 
1.7755715817e-05 1.6951205907e-05 1.3709646737e-05 1.6302719814e-05 2.0258006771e-05 1.9368442736e-05 2.1950359951e-05 3.554471914e-05 4.1316387069e-05 
5.0238839322e-05 6.2575287302e-05 6.9801564678e-05 7.48760649e-05 8.0470075773e-05 8.7044485554e-05 9.5562834758e-05 0.0001025166639 0.0001041297437 
0.00010611933249 0.00010211578046 9.5678304206e-05 8.5258245235e-05 7.4151001172e-05 6.3168758061e-05 5.2425581089e-05 2.1005445888e-05 1.5512261598e-05 
1.7772001229e-05 2.094226511e-05 1.9601064196e-05 1.6668804165e-05 1.3707312974e-05 1.9546314434e-05 2.6849274946e-05 0.00010479504272 0.00010119817307 
1.456499831e-05 1.0837253285e-05 3.1699153624e-05 4.5333003072e-05 3.3853226341e-05 4.1298921133e-05 5.1329712733e-05 6.5765976615e-05 8.0257130321e-05 
9.5954143035e-05 0.00010787781503 0.00011890026508 0.00012179968326 0.00011297791934 0.00010295021639 9.2790876806e-05 8.2825958089e-05 7.5662763265e-05 
6.9767978857e-05 6.9844943937e-05 6.5727428591e-05 5.8427664044e-05 4.9708287406e-05 4.7685338359e-05 9.2526119261e-05 9.3564740382e-05 9.5576127933e-05 
0.00010328324424 0.00011155261745 0.00010229573672 8.776532195e-05 7.5425865361e-05 5.3463387303e-05 6.675147597e-05 8.3387145423e-05 9.9426339148e-05 
0.000111827816 5.0569207815e-05 6.1770959292e-05 6.8543093221e-05 7.2449802246e-05 7.6952026575e-05 8.2555634435e-05 9.2912086984e-05 9.5020128356e-05 
0.0001192575437 0.00011942433775 0.00011403486133 0.000105966712 9.6992313047e-05 8.8991502707e-05 8.0592297309e-05 7.3982868344e-05 7.0937130658e-05 
5.9897858591e-05 5.2847728512e-05 5.5705884733e-05 5.7956072851e-05 6.1461956648e-05 7.1214046329e-05 7.8729841334e-05 8.6965548689e-05 8.7481297669e-05 
4.2543917516e-05 3.9883620047e-05 3.7183275708e-05 3.1434792618e-05 2.3882616006e-05 1.9054021323e-05 1.9788569261e-05 1.4618935893e-05 3.8467525883e-05 
4.4605389121e-05 5.2726689319e-05 5.3640673286e-05 5.1073089708e-05 1.7419753931e-05 1.9977305783e-05 2.1283343813e-05 2.5289858968e-05 3.1053288694e-05 
6.0102021962e-05 6.3324419898e-05 7.100111543e-05 7.8183904407e-05 8.7655505922e-05 9.5395836979e-05 9.9303033494e-05 0.0001001799028 0.00010796623246 
0.00011635620467 1.5269641153e-05 1.5498328139e-05 1.922042793e-05 2.0455960112e-05 2.9953647754e-05 7.113115862e-05 6.0794540332e-05 4.7318197176e-05 
3.8246824261e-05 3.4516997403e-05 3.0503173548e-05 4.2521998694e-05 2.1374009521e-05 9.5276496722e-05 9.8996257293e-05 9.8630058346e-05 9.6258736448e-05 
9.0030509455e-05 8.232066466e-05 7.4243711424e-05 6.766905426e-05 6.1558639572e-05 5.7162535086e-05 5.4122916481e-05 4.4311160309e-05 3.4495831642e-05 
2.3955934012e-05 1.8122076654e-05 1.7388403649e-05 1.8718919819e-05 2.0873083486e-05 1.5218482076e-05 1.6477270037e-05 2.1091474991e-05 2.0925408535e-05 
1.9163981051e-05 1.8473459932e-05 1.7263168047e-05 1.6531528672e-05 9.0824287327e-05 1.3236703126e-05 1.5165013792e-05 1.353422158e-05 1.3258358194e-05 
1.4095971892e-05 1.9533981686e-05 2.5967463444e-05 3.4731892811e-05 5.950468767e-05 6.5431428084e-05 7.1355505497e-05 7.9242308857e-05 8.584526222e-05 
9.0156187071e-05 9.194730228e-05 9.3819682661e-05 9.444506577e-05 8.6526437372e-05 7.872225251e-05 7.1263501013e-05 9.4014336355e-05 9.4058123068e-05 
8.9657733042e-05 8.5483930889e-05 8.1922764366e-05 7.4418610893e-05 6.9471578172e-05 6.6449654696e-05 6.4205254603e-05 5.8527715737e-05 1.2189476365e-05 
2.6221832741e-05 1.980873094e-05 1.6564701582e-05 1.660617454e-05 7.2373717558e-05 4.4929962314e-05 1.3209168173e-05 2.1524872864e-05 2.2244532374e-05 
4.6739543905e-05 4.9174846936e-05 4.5688721002e-05 1.5123782759e-05 1.9903036446e-05 2.6062874895e-05 0.00011574366363 0.00011114893277 0.00010414468852 
9.5470561064e-05 8.6227031716e-05 7.7788776252e-05 4.3965912482e-05 5.1594928664e-05 0.00010810945241 5.1490133046e-05 3.4010590753e-05 4.3527856178e-05 
3.1212050089e-05 6.6906024585e-05 3.4398573916e-05 6.9391942816e-05 3.8093585317e-05 7.2504488344e-05 4.3044405174e-05 5.1346614782e-05 6.0094731452e-05 
6.7961118475e-05 6.7971152021e-05 7.6679178164e-05 5.0767976063e-05 4.3973388529e-05 4.1578881792e-05 6.9463538239e-05 3.4631411836e-05 7.8516561189e-05 
2.3479238735e-05 8.7953165348e-05 9.6868076071e-05 0.000104396182 3.1279389077e-05 3.7447800423e-05 3.3905926102e-05 4.3436481064e-05 3.9361686504e-05 
4.5217257139e-05 0.00010031379497 9.6402167401e-05 2.4616630981e-05 2.3691069146e-05 4.0511666157e-05 3.0779290682e-05 2.3671245799e-05 2.4799765015e-05 
2.8036429285e-05 2.4560989914e-05 5.8911638916e-05 6.3704326749e-05 3.4269323805e-05 4.5101009164e-05 
Stress_Z 1 1059 double
3.3481196624e-06 3.8057901293e-06 1.7313136595e-06 3.0904850519e-06 5.9906651586e-06 1.0411356925e-05 1.8058894057e-05 2.8664751881e-05 3.6919172999e-05 
2.6570374757e-05 1.4522536731e-05 6.9319530667e-06 1.9894273464e-06 6.695182492e-06 9.3935852874e-07 -1.2297346984e-05 -2.0121062335e-05 -2.4351294996e-05 
-2.4936887712e-05 -1.6264248188e-05 7.7423158018e-07 2.1839628971e-05 5.0622129493e-05 8.2065409515e-05 9.9029872217e-05 9.7322757938e-05 7.0777517976e-05 
4.4160042307e-05 2.4607084924e-05 8.5286037574e-06 -6.3051452344e-06 -1.6081370632e-05 -3.036149792e-05 -3.1583080272e-05 -2.1079649741e-05 -1.8146232833e-05 
-1.5494864783e-05 -1.0754764844e-05 -4.0275949686e-06 3.8692105591e-06 1.3578086509e-05 1.9415248971e-05 2.1537887733e-05 2.4246806788e-05 3.4201082599e-05 
4.3572628783e-05 5.2277213399e-05 4.9979498726e-05 4.2787440179e-05 3.8460053474e-05 3.5639011912e-05 3.1612897146e-05 2.5395784178e-05 1.726762639e-05 
1.1763076145e-05 4.6379600462e-06 8.9009801741e-05 4.8001620598e-05 2.3671344024e-05 8.9564109658e-06 -1.5335427861e-06 -1.3053804651e-05 -2.0756368031e-05 
-2.5639221349e-05 -2.7948091883e-05 -2.6437952329e-05 -1.9654924472e-05 -8.1904590843e-06 1.8267022597e-06 7.954468856e-06 1.2738364603e-05 2.1442960133e-05 
3.4494121792e-05 5.2620016504e-05 6.1753991758e-05 5.439296001e-05 4.8359426728e-05 3.8907008275e-05 2.3812668587e-05 1.1073403584e-05 6.0095298977e-06 
3.8155008042e-06 5.1446718317e-06 8.9722407211e-06 1.3179659618e-05 1.4267343431e-05 1.7725549696e-05 2.2762735171e-05 3.2519703382e-05 3.7734804209e-05 
5.094333028e-05 5.6890567066e-05 6.0169637436e-05 5.9016656451e-05 6.249875878e-05 5.1317572797e-05 3.7536228774e-05 3.0969265936e-05 2.8203934562e-05 
2.4955301342e-05 1.6521204088e-05 5.6258918448e-06 -6.9225558263e-07 -1.126845018e-05 -2.7345224225e-05 -3.344975994e-05 -2.841364585e-05 -1.3597781617e-05 
7.7110144048e-06 4.3174732127e-05 9.4561284641e-05 0.00011010983872 9.5584611699e-05 9.9295866676e-05 5.9117577621e-05 5.1621784223e-05 4.5842247346e-05 
4.3484811613e-05 4.3693667976e-05 4.2864438001e-05 4.8860245442e-05 4.8983980378e-05 3.381530405e-05 2.3317406885e-05 1.9016644728e-05 1.7350612325e-05 
1.4669256416e-05 1.5654039089e-05 2.0807410692e-05 2.540073001e-05 2.6383018849e-05 2.659612619e-05 2.6016830816e-05 3.1248328014e-05 4.286530384e-05 
5.3233947256e-05 7.2513241321e-05 9.2519840109e-05 0.00010313621897 9.6585710708e-05 8.1809819676e-05 7.1633621701e-05 6.5945016104e-05 6.0335245507e-05 
5.2786828746e-05 4.9256097554e-05 4.8155594413e-05 4.3788684707e-05 3.6676014133e-05 3.1593135645e-05 2.8827655115e-05 2.6781781344e-05 1.9702898499e-05 
1.4548228137e-05 1.1603028724e-05 8.2388796727e-06 1.2640089153e-05 2.1884468879e-05 2.5779245334e-05 2.8088014005e-05 3.2810356061e-05 3.8221751311e-05 
4.7139983508e-05 5.7246608776e-05 6.4593798015e-05 6.525767094e-05 6.2530300056e-05 6.3146013417e-05 7.1444359492e-05 7.1056347224e-05 7.6565906056e-05 
6.3240688178e-05 5.0834525609e-05 3.8449772546e-05 3.1678424421e-05 2.9648266718e-05 2.9630495192e-05 3.1896772271e-05 3.0900642741e-05 3.0797495128e-05 
2.6466084819e-05 1.9495129891e-05 1.4304503566e-05 1.2070628145e-05 1.593905472e-05 2.1385987566e-05 2.935642442e-05 3.6887358874e-05 4.37054332e-05 
5.1455215726e-05 5.7400480728e-05 6.0821730585e-05 5.8550725953e-05 5.6445125665e-05 5.97730359e-05 6.7802327976e-05 7.4943083746e-05 7.2289352829e-05 
6.8699438998e-05 6.4001789724e-05 6.2806699134e-05 5.8671052102e-05 5.3975203627e-05 4.3762243877e-05 4.0654060285e-05 3.9874947106e-05 4.1610608605e-05 
4.1845571104e-05 3.4647993743e-05 2.0074532586e-05 1.6848624e-05 2.075885277e-05 2.6278079531e-05 3.1502884667e-05 2.9135564546e-05 2.7146097636e-05 
3.157691026e-05 3.5101271351e-05 3.5516946809e-05 3.7963916839e-05 4.4937427447e-05 6.3824074459e-05 8.6497813754e-05 0.00011155105312 0.00011160512076 
0.00010047820251 9.3316935818e-05 8.7147840532e-05 7.171100151e-05 6.6571366915e-05 6.4211635618e-05 5.9781192249e-05 5.5456337577e-05 5.2446470363e-05 
4.7612429626e-05 3.3796000935e-05 2.1554438717e-05 1.3705993297e-05 8.6433037723e-06 1.09549228e-05 1.2206614883e-05 1.6834521375e-05 1.9573240934e-05 
2.1941041268e-05 2.5233744964e-05 2.9127322705e-05 3.5364126234e-05 4.7130608436e-05 8.2362254034e-05 0.00010010019469 0.00010712938092 0.00010333934915 
9.6562296676e-05 9.3181035481e-05 9.2757873063e-05 9.1428591986e-05 8.6426669441e-05 7.8791556007e-05 7.0036643592e-05 6.1641570937e-05 4.9870843213e-05 
3.5975735955e-05 2.718383621e-05 2.0857747586e-05 1.6968419004e-05 1.2594119653e-05 1.2737197721e-05 1.3968320673e-05 1.6349700672e-05 2.9736194847e-05 
3.3819098462e-05 3.7128545955e-05 4.4547574362e-05 5.8763791458e-05 7.1148839197e-05 8.342039655e-05 8.5134059191e-05 8.2206235675e-05 8.742728096e-05 
9.4710827398e-05 9.2770096671e-05 8.0365702161e-05 6.5868654929e-05 5.5654938478e-05 2.4663751901e-05 1.7954125724e-05 7.5970448961e-05 6.4120940806e-05 
4.9439397117e-05 3.8787424273e-05 3.2170388295e-05 3.1079605833e-05 3.1279032555e-05 3.0925366445e-05 2.3783444703e-05 1.8366774384e-05 1.2522066754e-05 
1.0373620171e-05 8.0679210441e-06 1.3623760424e-05 2.2297108444e-05 3.4178945498e-05 4.135884592e-05 5.1693798014e-05 6.1437538534e-05 6.8326233304e-05 
7.2946713772e-05 7.103713142e-05 7.2316499427e-05 8.5378283984e-05 0.0001006591192 0.00010511266009 9.9294411484e-05 8.8991262601e-05 8.2347738498e-05 
7.6079035352e-05 7.3738694482e-05 6.2997773057e-05 5.1046437875e-05 4.1305949708e-05 3.6929541238e-05 3.704811752e-05 3.571695197e-05 2.8882570405e-05 
1.9162553144e-05 1.5989844542e-05 1.851721936e-05 2.5549994461e-05 3.0307721318e-05 3.1479652534e-05 3.3798300137e-05 3.666183693e-05 3.8858823245e-05 
4.3266587454e-05 4.912838267e-05 5.675560169e-05 6.6907014116e-05 7.8416138422e-05 0.00010074982856 0.00011437576177 0.0001030815547 9.441783186e-05 
8.9980319899e-05 8.4131032054e-05 1.604283716e-05 1.9164563128e-05 2.4322891477e-05 3.0803934351e-05 3.9775430196e-05 5.1678929594e-05 6.5235850343e-05 
7.9681543866e-05 9.0823297796e-05 9.6032374131e-05 9.9896591564e-05 0.00010543441749 0.00010644383292 9.9275719549e-05 8.9217770437e-05 8.1231199147e-05 
7.8357181337e-05 7.4674695497e-05 6.9976777013e-05 6.316274812e-05 5.7342906075e-05 4.9315771321e-05 3.5071683669e-05 2.3170672648e-05 1.503627027e-05 
9.8350801636e-06 9.7256952358e-06 1.4412929886e-05 1.6936710381e-05 1.8973902115e-05 2.2685731892e-05 2.8119595299e-05 3.534962525e-05 4.2075887905e-05 
4.8933954531e-05 5.3293093515e-05 5.6970722653e-05 5.9840891481e-05 6.9425426773e-05 8.2749647845e-05 9.2394089734e-05 0.00010181246034 0.00010323508468 
0.00010295776156 0.00010366615606 0.00010776599083 0.0001127181531 0.00011230303789 0.00010539901996 9.4680006441e-05 8.3424129116e-05 6.963602209e-05 
5.4323008953e-05 3.8525802665e-05 2.7361746106e-05 2.0593670342e-05 1.8196844394e-05 1.5822759451e-05 1.4512771486e-05 1.4986908354e-05 1.4377369553e-05 
1.3769520592e-05 1.2834075278e-05 1.4821885998e-05 7.6187483501e-05 6.3277875597e-05 5.0107722927e-05 4.1213963414e-05 3.730248136e-05 3.4900465835e-05 
3.2446994737e-05 3.0511731893e-05 2.0132676582e-05 1.23151558e-05 8.4839521151e-06 9.8258942671e-06 1.2331259313e-05 2.1427289539e-05 2.6569032343e-05 
5.6173212215e-05 6.7070192017e-05 7.6339711086e-05 8.1061851233e-05 8.1344143837e-05 8.8420849352e-05 0.00010498588381 0.00012029054051 0.0001265105966 
0.00011889342568 0.00010740707512 9.5844399766e-05 9.0120556706e-05 8.1250385847e-05 6.8468762038e-05 5.3744704928e-05 4.5461216359e-05 3.9662863855e-05 
3.6070632632e-05 3.1791125366e-05 2.2777156119e-05 1.5627707398e-05 1.4055770407e-05 1.694189632e-05 2.3437845812e-05 2.8518068575e-05 3.1989759009e-05 
3.8850172132e-05 4.1889637941e-05 4.4742610044e-05 5.1242877817e-05 6.2026665546e-05 7.3413306382e-05 8.4094033809e-05 9.4001559773e-05 0.00010665965965 
0.00011076473311 0.0001080497168 0.00010280442075 9.8955824797e-05 9.3883194495e-05 8.6689724412e-05 4.3687890866e-05 3.4823853639e-05 1.7169671992e-05 
2.237444096e-05 3.4388605854e-05 4.6527362429e-05 5.7821325754e-05 7.1885318903e-05 8.3868842921e-05 9.3609072792e-05 0.0001037374459 0.00011227288633 
0.000117282063 9.8398129921e-05 8.9735825895e-05 8.1321952166e-05 7.9934448877e-05 8.0912192061e-05 7.7597978816e-05 7.0789683377e-05 6.2196071667e-05 
4.9205442338e-05 3.7759615225e-05 2.6073330446e-05 1.7694848793e-05 1.2395799786e-05 1.0747160559e-05 1.2919052097e-05 1.5098163203e-05 1.6177495127e-05 
2.2370601073e-05 2.9417800761e-05 3.7444893678e-05 4.3060106691e-05 4.7365763749e-05 5.2915522247e-05 5.6353004766e-05 6.05445166e-05 6.1500395532e-05 
6.4623774961e-05 6.8416644353e-05 7.5114279753e-05 8.5600862803e-05 9.4609320513e-05 0.00010383727931 0.00010672578355 0.00010809296509 0.00011287038069 
0.00011964983423 0.00012407876784 0.00012136360601 0.00011023382103 9.5504423371e-05 8.1176767708e-05 6.7137661972e-05 5.2379920817e-05 3.747104347e-05 
2.7430169212e-05 2.1923540771e-05 1.9818458895e-05 1.6878057068e-05 1.4316869965e-05 1.4309149265e-05 1.1518694919e-05 1.3321699043e-05 1.6773998141e-05 
1.7658157958e-05 1.5749525119e-05 0.0001050101564 0.00011429418373 4.0450948291e-05 5.1249313401e-05 6.0439899244e-05 7.2255796113e-05 8.1991216575e-05 
8.8919274276e-05 9.2329326435e-05 0.00010138331709 0.00011888069275 0.00013513876183 0.00013870562543 0.00013031333219 0.00011829925643 0.00010612956248 
9.5403847808e-05 8.5036706878e-05 6.9641057053e-05 5.5299569794e-05 4.5914948714e-05 4.0572405851e-05 3.5822286009e-05 2.7176718504e-05 1.8659931811e-05 
1.4716973965e-05 1.3836287508e-05 1.6403222617e-05 2.32502789e-05 2.6894884286e-05 3.2738251321e-05 4.1650331696e-05 4.8485275329e-05 5.3517560445e-05 
6.1256621848e-05 7.4175179179e-05 8.8871165644e-05 0.00010138916696 0.00010783247126 0.00011031749455 0.0001071958759 0.00010909869889 0.00011244542839 
0.00010852473497 0.00010032573482 9.1504021839e-05 8.1491925812e-05 7.0424117439e-05 5.9969377617e-05 5.0650705816e-05 4.3966130761e-05 3.6904955778e-05 
3.1003408367e-05 2.66596453e-05 2.0747007511e-05 1.1755031665e-05 8.8763763415e-06 9.165197298e-06 1.1865351553e-05 1.8319598894e-05 2.135527393e-05 
2.7298920031e-05 3.3961994632e-05 4.3132829887e-05 4.2765503167e-05 2.5214660127e-05 3.901180753e-05 5.178507854e-05 6.2216233346e-05 7.2721639299e-05 
8.4438252088e-05 9.7229065432e-05 0.00010662693967 0.0001186770387 0.00012944769696 0.00013026576198 0.00013054361625 0.00011242360051 0.00010536957416 
9.7239892057e-05 8.6938191089e-05 8.1705031334e-05 8.1546968431e-05 8.2145066699e-05 8.0663601693e-05 7.5974981883e-05 6.6339896875e-05 5.6484863308e-05 
2.7183028578e-05 1.9014114514e-05 1.4500091311e-05 1.1908273336e-05 1.0734445823e-05 1.1663470104e-05 1.4731226656e-05 2.3529839382e-05 4.0587525291e-05 
4.5279488404e-05 3.6353016185e-05 4.5112396037e-05 3.5214932723e-05 2.945342203e-05 5.5904005421e-05 5.9651269112e-05 6.4317442593e-05 6.7144203058e-05 
6.5852960688e-05 6.803956785e-05 7.2537230153e-05 7.8966535511e-05 8.8256500021e-05 9.5250965387e-05 0.00010223456047 0.00010640473192 0.00011233385885 
0.00012064313341 0.00012762520055 0.0001275085815 0.00011832253222 0.00010144140106 8.1823476648e-05 7.0981128374e-05 5.9126083215e-05 4.6119635954e-05 
3.4087803215e-05 2.5078890758e-05 1.9982400772e-05 1.6630829123e-05 1.4202510101e-05 1.3775129446e-05 1.1705858014e-05 1.5296225683e-05 1.852366222e-05 
2.3547770979e-05 2.7099129511e-05 5.1170954976e-05 6.324917922e-05 7.5429255958e-05 8.7768370577e-05 9.6593044873e-05 0.0001002723584 0.00011027658911 
0.00012844106823 0.0001434271544 0.00014812403242 0.00013967095583 0.00012777160737 0.00011464049749 8.2174556155e-05 6.8450259278e-05 5.6267137552e-05 
4.7008841648e-05 4.058700506e-05 3.4330343624e-05 2.3612816221e-05 1.6775631593e-05 1.4167570043e-05 1.3388365915e-05 1.5707046259e-05 2.0870256776e-05 
2.6499263186e-05 3.5715369449e-05 4.754474503e-05 5.6845488871e-05 6.5028514655e-05 7.2796588938e-05 8.6258311057e-05 0.00010023242066 0.00011322079081 
0.00011572554649 0.00011041655671 9.9327604403e-05 0.00010003277566 0.00010821389151 0.00010837592708 9.8398479167e-05 8.9147652034e-05 7.952152373e-05 
7.1396658313e-05 6.3269493694e-05 5.7140608988e-05 5.1068971516e-05 4.4037638872e-05 3.4509368561e-05 2.665536158e-05 1.9023167624e-05 1.2818612049e-05 
9.552458323e-06 9.9286062323e-06 1.2535595488e-05 1.5323812477e-05 1.9406212232e-05 2.7286003387e-05 3.192510485e-05 3.8779333408e-05 4.4844357035e-05 
4.8782647355e-05 5.222551772e-05 9.5183735539e-05 0.00010496259347 7.3666837125e-05 8.0953257566e-05 9.372059867e-05 0.00010110342555 0.00010870653205 
0.00011721154442 0.00012615442392 0.00012943480397 0.00011748835095 9.6027470136e-05 7.7618722571e-05 6.7500201112e-05 5.9228801547e-05 4.834504216e-05 
3.8120539102e-05 2.8651813409e-05 1.8877468392e-05 2.1887177354e-05 3.9040365664e-05 5.3126117564e-05 6.1525897763e-05 7.1587463026e-05 8.5546969785e-05 
9.8791249911e-05 0.00011079032993 0.00012067759963 0.00012954478734 0.00014223519247 0.0001413400023 0.00014571515203 0.00013713313092 0.00012336608779 
0.00010642399138 9.5631476142e-05 8.7740649178e-05 8.3659877419e-05 8.3168801211e-05 8.1398779002e-05 7.8470453445e-05 7.0683941885e-05 5.9325164329e-05 
5.06497272e-05 4.3172167352e-05 3.9462411223e-05 3.0131699532e-05 2.4427445169e-05 1.7751401174e-05 1.3622840925e-05 5.0343987823e-05 5.4220443417e-05 
5.7174926042e-05 7.291854854e-05 7.5408905104e-05 7.3953960964e-05 6.2058832555e-05 7.5191295764e-05 9.019926074e-05 0.00010173133342 0.00010752449452 
0.00011866254499 0.00013633161143 0.00014820245269 0.00015029810311 0.00014520616969 0.00013363087783 0.00012345511641 7.7874668932e-05 6.6464934207e-05 
5.6331813539e-05 4.8338901252e-05 4.0415950934e-05 3.1140978535e-05 2.2485210138e-05 1.6825079001e-05 1.4434837794e-05 1.303562658e-05 1.5032205738e-05 
3.0044637242e-05 4.0539209294e-05 5.2347437304e-05 6.164383376e-05 6.9726404035e-05 7.9098819697e-05 9.114578279e-05 0.00011689679377 0.00011638826982 
0.00010553441825 9.8506570794e-05 9.673320892e-05 0.00010233664943 9.925874474e-05 8.8061235147e-05 7.9989622463e-05 2.4006449166e-05 1.8575487047e-05 
8.9815468527e-05 7.9765450209e-05 0.00010833075066 0.00010248170292 7.491758879e-05 6.824873708e-05 6.196272443e-05 5.6863627833e-05 5.2036826673e-05 
4.4419364713e-05 3.4036354918e-05 2.5378501959e-05 1.8379801986e-05 1.2620090274e-05 1.1255298887e-05 1.2656214494e-05 1.5807427189e-05 2.0104787836e-05 
2.1176478185e-05 2.7641142879e-05 3.1423525797e-05 3.4236800275e-05 3.9035887312e-05 4.7123467084e-05 1.1760890629e-05 1.5344110579e-05 2.0480931198e-05 
2.5880126486e-05 3.2002597436e-05 3.9905567974e-05 4.3675321649e-05 4.8336136388e-05 5.7939214457e-05 5.3528900025e-05 4.8809844884e-05 4.2513478547e-05 
3.45651315e-05 5.6033735746e-05 4.845445801e-05 3.9645841753e-05 3.1101528293e-05 2.349946044e-05 1.6562249584e-05 1.5296769561e-05 1.9294777303e-05 
2.5676972655e-05 1.7665635824e-05 1.3127777493e-05 1.2668971067e-05 1.4371982616e-05 1.8669765268e-05 2.2658892703e-05 2.3924632842e-05 2.6866307962e-05 
3.1282859709e-05 3.6956214899e-05 3.3765460103e-05 2.7643995054e-05 2.2388565412e-05 1.8203878426e-05 1.2109544514e-05 1.1813937817e-05 1.3743037925e-05 
5.8105848439e-05 7.2266404459e-05 8.9377739641e-05 0.00010420619219 0.00011310209084 0.00012373903883 0.00014434156765 0.00015164696379 8.5824736743e-05 
8.1278012658e-05 7.4180352385e-05 6.3220919401e-05 5.4590731452e-05 0.00014512844791 0.00012595429143 0.00010776601994 9.6397816378e-05 9.032242815e-05 
2.5108422051e-05 2.5000206733e-05 2.2795586119e-05 1.5934043404e-05 1.2800763216e-05 1.2526893443e-05 1.3534324353e-05 1.7472473701e-05 1.9824143237e-05 
2.4287021006e-05 0.00014574169472 0.00014132009528 0.00013720305287 0.00012948867516 0.00010055270104 3.4821398003e-05 4.8394507758e-05 5.773061639e-05 
7.0389367465e-05 8.440608508e-05 9.9548378785e-05 6.5562511736e-05 0.00012242366211 2.2366642952e-05 2.8079302865e-05 3.4776458051e-05 4.4695705583e-05 
5.4259180615e-05 6.3582592702e-05 7.2935370554e-05 8.1787467934e-05 9.069461521e-05 9.7219039162e-05 0.00010646806913 0.00011227448704 0.00011699721654 
0.00011821722728 0.00011433294276 0.00010351339006 9.674661851e-05 9.7906689916e-05 9.5670504379e-05 9.4271919806e-05 8.8367836725e-05 0.00013226912415 
0.00013705006859 0.00014550413471 7.6559532317e-05 8.8889115432e-05 1.4479262063e-05 8.9836255938e-05 8.9888992079e-05 8.7482469098e-05 9.3268412456e-05 
9.8408017948e-05 0.00010564084369 0.00011342882499 0.00012141257321 9.2584952654e-05 7.6131145761e-05 6.4602892962e-05 5.5407330365e-05 4.8777299526e-05 
3.9538474084e-05 3.1547006074e-05 2.605122063e-05 1.4498983546e-05 1.346123554e-05 1.7022157408e-05 2.3446193154e-05 3.0916220567e-05 3.9128455683e-05 
4.6397977712e-05 5.5411783251e-05 6.4386680606e-05 7.1663256676e-05 8.0003170297e-05 8.7246255134e-05 9.6184267022e-05 0.00010238971299 8.9291657787e-05 
0.0001161026812 0.00010986402049 0.0001014550071 9.4646275102e-05 2.9579017792e-05 5.1905000873e-05 9.398250404e-05 0.00014317360183 0.000125317325 
7.88558973e-05 6.8253837526e-05 5.9474899899e-05 9.8868105852e-05 0.00010563799151 0.00011264475324 1.724160029e-05 1.3005103938e-05 1.2878846974e-05 
1.5169429389e-05 1.8637718313e-05 2.3799335395e-05 0.00012362744019 0.00011349552369 1.5469182472e-05 0.00011619598808 0.00011824123067 0.00012072439858 
9.4789218565e-05 9.0606037702e-05 8.4943152615e-05 7.8202785517e-05 7.2377210017e-05 6.7249726271e-05 6.3229490479e-05 5.575085379e-05 4.8486002925e-05 
4.0168368287e-05 2.998443415e-05 5.7899571402e-05 5.6556571508e-05 6.9201494625e-05 8.5999519797e-05 2.3800781491e-05 0.00010291008221 1.9824617993e-05 
0.00012851740757 1.5209667254e-05 1.2513954061e-05 1.2672554476e-05 9.0214096417e-05 7.6843462011e-05 8.706098015e-05 6.1462487793e-05 6.8632492912e-05 
6.4103311161e-05 1.4157056285e-05 1.6666263036e-05 0.0001145564238 0.00011040711252 9.0328867373e-05 9.8544325738e-05 0.00012311401952 0.00011674555572 
0.00010851545085 0.00011416622146 4.6385954192e-05 3.3903048461e-05 0.00011774826999 0.00011961974087 
Stress_XY 1 1059 double
3.8896159822e-05 2.5262614145e-05 1.6203908672e-05 1.1840151274e-05 8.8453425633e-06 7.7578515629e-06 3.7544698444e-06 7.841185834e-07 8.1473308455e-06 
1.1911310139e-05 1.1074642316e-05 5.9188014347e-06 3.9825204112e-06 4.4577868721e-06 1.0185860901e-06 -3.2704333535e-06 -5.6735952967e-06 -9.8432938103e-06 
-1.3888447029e-05 -1.3302778825e-05 -1.0399497114e-05 -5.9917178987e-06 -2.1502139589e-06 3.2024065604e-06 7.8395878518e-06 8.2385595306e-06 5.5404334489e-06 
-2.6365266876e-06 -1.0717071746e-05 -1.4941895643e-05 -1.5370635083e-05 -1.4841939446e-05 -1.7811100406e-05 -1.7470385501e-05 -1.3504837625e-05 -1.3921136997e-05 
-1.7559819753e-05 -2.2691205231e-05 -2.9388638723e-05 -3.680912414e-05 -4.8388577852e-05 -5.6507138652e-05 -5.3819152527e-05 -4.9352518545e-05 -4.4936932682e-05 
-3.2444193494e-05 -1.6339921785e-05 -2.2918902687e-06 1.0300260328e-05 1.9280660126e-05 2.3374317607e-05 2.3315582439e-05 2.0625409888e-05 2.260088695e-05 
2.9579281545e-05 3.9768972783e-05 -2.1159239623e-06 -3.7972363316e-06 3.4628897083e-07 6.4854330049e-06 8.7165290097e-06 9.7805123005e-06 8.8330471044e-06 
6.3328616307e-06 3.2201833164e-06 5.9553331084e-06 1.118788623e-05 1.8743205146e-05 1.7591219148e-05 1.1252132026e-05 2.7719245281e-06 -6.5852914304e-06 
-9.7487782114e-06 -1.3584472981e-05 -1.1719667782e-05 -9.0168914539e-06 -7.6476944741e-06 -7.2445459409e-06 -1.2574618268e-05 -1.7692265828e-05 -1.7345002561e-05 
-1.3320485778e-05 -8.2964634203e-06 -7.576437838e-06 -1.1633012946e-05 -1.7452866814e-05 -2.1884985472e-05 -1.4729068425e-05 -1.6135592887e-05 -1.2138082639e-05 
-4.2744190978e-06 3.3286282815e-06 5.050632808e-06 2.1263808776e-06 -3.7290294586e-06 -1.108035849e-05 -8.1464313553e-06 -1.6339794229e-06 1.3267504073e-06 
1.0688437442e-06 -9.0068908776e-07 -3.3490816804e-06 1.1879639032e-06 7.6349488154e-06 1.0940239008e-05 1.0557432688e-05 8.6772533905e-06 4.6788863983e-06 
-1.3440596831e-06 -3.8830389713e-06 -2.2626471718e-07 -6.2746371441e-06 -9.0901976364e-06 -3.5450532323e-06 7.3855212577e-06 3.4607894577e-06 1.2380445469e-06 
5.57268379e-07 -3.7030329025e-08 -2.5136107524e-06 -2.0503671294e-06 -8.0163306393e-07 -5.1334436648e-06 -1.145908027e-05 -1.6449317627e-05 -1.9097917175e-05 
-2.0125762603e-05 -2.3268838049e-05 -2.6467099815e-05 -2.8307156754e-05 -2.9789242035e-05 -2.6735162464e-05 -2.0391600628e-05 -1.1563995031e-05 -9.350682717e-07 
4.8451602197e-06 9.7392785392e-06 1.2170734408e-05 1.3065615349e-05 1.179953324e-05 5.9408284869e-06 -1.5980519947e-06 -7.0938249337e-06 -1.0387010661e-05 
-1.2586480807e-05 -1.4453918993e-05 -1.6132042219e-05 -1.7676229618e-05 -2.1080672013e-05 -2.6845364118e-05 -3.3901280403e-05 -4.2035033402e-05 -5.1995055401e-05 
-6.0553189542e-05 -6.2694496592e-05 -5.8409292251e-05 -4.9873575335e-05 -3.6810048186e-05 -1.8807451852e-05 -8.021739859e-07 1.1846576854e-05 1.7826565454e-05 
2.0860803488e-05 2.1693676899e-05 1.8713581085e-05 1.1527301467e-05 7.409801583e-06 8.4114026322e-06 9.2267255241e-06 9.2319887699e-06 -1.2435255485e-05 
-1.4633112187e-05 -1.4219944205e-05 -1.2320745554e-05 -1.1010534763e-05 -1.0650237527e-05 -1.1433119653e-05 -1.1542185348e-05 -7.0107653301e-06 1.8717291823e-06 
8.9265486167e-06 9.1156207418e-06 6.3055181272e-06 1.0941943174e-06 -4.1113817133e-06 -1.0939672393e-05 -2.003512418e-05 -2.5629680749e-05 -2.2686508601e-05 
-1.6650195903e-05 -1.3254905753e-05 -1.2171259186e-05 -1.3826429495e-05 -1.3647691958e-05 -7.4465096986e-06 -7.6708670349e-07 6.5153619744e-07 -4.0144154809e-06 
-1.2269515537e-05 -1.7753072825e-05 -2.0726844014e-05 -1.8112983525e-05 -1.4876879504e-05 -1.2439275451e-05 -8.6898453446e-06 -6.1455448304e-06 -5.4378774621e-06 
-7.0453643275e-06 -8.2083843154e-06 -8.1310236055e-06 -4.5176930143e-06 -1.7030715753e-06 -1.518052386e-06 -4.405355412e-06 -7.6248388723e-06 -8.1563739514e-06 
-9.9440730992e-06 -1.2812808563e-05 -1.3730568753e-05 -1.603923738e-05 -1.9094468371e-05 -1.9938534024e-05 -1.4241944882e-05 5.2050372688e-06 1.3965922335e-05 
6.8798140092e-06 1.922383035e-06 -5.0891039791e-06 6.0002349755e-07 -1.0772815813e-06 -1.0370088148e-06 -1.4634239278e-06 -2.7604937713e-06 -2.8848066904e-06 
-5.8454916143e-06 -1.4815759641e-05 -2.2876107323e-05 -2.8217697036e-05 -3.2263022149e-05 -3.4441942262e-05 -3.5596633097e-05 -3.5297012801e-05 -3.6092264054e-05 
-3.5128941818e-05 -2.9637001717e-05 -2.0485849745e-05 -9.6191824923e-06 -2.9236309729e-07 7.7639651863e-06 6.9759980761e-06 7.4413824223e-06 1.0783548532e-05 
9.9879353002e-06 4.7498333515e-06 -3.361412837e-07 -3.3577694012e-06 -5.6299336393e-06 -9.1586607596e-06 -1.3272103388e-05 -1.7942076738e-05 -2.4103284886e-05 
-3.202046355e-05 -4.1063547542e-05 -4.9631718866e-05 -5.624370533e-05 -6.1289145378e-05 -6.2348459323e-05 -5.7481476688e-05 -4.9658952776e-05 -2.1259627829e-05 
-3.4033289467e-06 1.3220896108e-05 2.2798845748e-05 2.6230007279e-05 2.5770437787e-05 2.1527066565e-05 1.3850660253e-05 7.6922578955e-06 5.39678922e-06 
5.8513232943e-06 6.1170685512e-06 3.3872170206e-06 7.7105032688e-06 3.9660094444e-06 -3.5033936001e-05 -4.0278475353e-05 -1.4407622984e-05 -1.6561238226e-05 
-1.7240601665e-05 -1.611580592e-05 -1.4730326257e-05 -1.2476552001e-05 -9.7644297057e-06 -5.3092599046e-06 3.0854421311e-06 7.31877617e-06 6.4207506512e-06 
3.594333748e-06 -4.6629813255e-07 -7.0851374403e-06 -1.5354109564e-05 -2.2316149625e-05 -2.4431083148e-05 -2.1565601855e-05 -1.6119192878e-05 -1.1778985026e-05 
-8.3378399722e-06 -7.0970781962e-06 -6.5022636591e-06 -1.9100975805e-06 3.2378061405e-06 4.3050149543e-06 7.1908868904e-07 -4.9115096772e-06 -1.0032532373e-05 
-1.3409031453e-05 -1.6557120034e-05 -1.8393333448e-05 -1.7070366084e-05 -1.3864351786e-05 -1.0304940588e-05 -8.4601724666e-06 -7.8998136814e-06 -6.9637644629e-06 
-6.3042048168e-06 -6.2396907197e-06 -5.454121947e-06 -4.9813861551e-06 -5.6588219195e-06 -8.4733492258e-06 -1.1706229998e-05 -1.4935425497e-05 -1.7509635654e-05 
-1.8994325728e-05 -2.0195973775e-05 -2.1375555662e-05 -1.9430637622e-05 -1.185156998e-05 -1.3234523522e-06 3.2087355066e-06 3.2731807096e-06 -8.5435743813e-07 
-5.3117673815e-06 -1.0656523955e-05 -2.9818083931e-05 -2.7387342925e-05 -1.5856758182e-05 5.0669751772e-07 1.5856065147e-05 2.5349692805e-05 2.8327913242e-05 
2.6710100428e-05 2.2277941753e-05 1.544135921e-05 8.5590199888e-06 5.1119982345e-06 3.4831371067e-06 3.7817114844e-06 2.3453383164e-06 2.26543867e-10 
-1.909658522e-06 -2.0601455617e-06 -2.2111971703e-06 -3.2573482258e-06 -5.1224078561e-06 -9.1681067715e-06 -1.6708288967e-05 -2.4480230422e-05 -3.0955448892e-05 
-3.6368015571e-05 -4.0946026274e-05 -4.2898114771e-05 -4.2084117013e-05 -4.1193095967e-05 -3.7647929275e-05 -3.0651866837e-05 -2.0223482352e-05 -9.7174442999e-06 
-2.8523868423e-06 -1.324435317e-07 1.0845134284e-06 4.6367454161e-06 6.230881354e-06 5.4664656091e-06 2.4415728603e-06 2.1155308332e-06 6.3839765971e-06 
9.3612752607e-06 7.2040102168e-06 2.5778133477e-06 -8.9655225111e-07 -3.9834426389e-06 -8.7900743893e-06 -1.5642493963e-05 -2.2765998438e-05 -2.9231670851e-05 
-3.5690183722e-05 -4.3452091631e-05 -5.0864196965e-05 -5.6299264543e-05 -5.9067042457e-05 -5.8117620938e-05 -5.2651237638e-05 -4.3774543883e-05 -3.5419034248e-05 
-2.6917416108e-05 -1.9545759642e-05 -2.163850877e-05 -1.7168427803e-05 -1.9157427232e-05 -1.976142994e-05 -1.7765984012e-05 -1.3090705579e-05 -7.1319668677e-06 
-5.4706691799e-07 3.9020060285e-06 5.5411637732e-06 3.7285217331e-06 9.5654331744e-07 -3.8169200707e-06 -1.0078570995e-05 -1.4643415852e-05 -1.8479859136e-05 
-1.8117991203e-05 -1.3573862816e-05 -8.8848637461e-06 -4.8404149311e-06 -3.108587407e-06 -2.3653753942e-06 1.0998485322e-06 4.4404559958e-06 4.7178687055e-06 
2.9500727123e-06 -1.5517786096e-06 -5.9040853557e-06 -1.0124068467e-05 -1.5914398318e-05 -1.9583876565e-05 -1.8881230062e-05 -1.4906870092e-05 -1.1061260921e-05 
-9.5938157756e-06 -8.8864253485e-06 -7.1758408922e-06 -6.1964342422e-06 -6.2613298724e-06 -6.1413556978e-06 -6.122553259e-06 -6.3113029682e-06 -8.1085890997e-06 
-1.1262514818e-05 -1.5168158825e-05 -1.8920665752e-05 -2.1581296096e-05 -2.2885253202e-05 -2.1733452741e-05 -1.7444977857e-05 -9.38422545e-06 -2.158426696e-06 
2.0547404347e-06 2.9489626741e-06 2.8742249469e-07 -3.8714870243e-06 -9.2661666713e-06 -1.3654202121e-05 -2.0067636797e-05 -1.9902734493e-05 -2.0584384401e-05 
-1.1099160474e-05 1.7022445036e-06 1.4045420357e-05 2.2379626898e-05 2.5681432817e-05 2.4848539397e-05 2.1480338546e-05 1.6302463337e-05 1.0828169252e-05 
6.3229040279e-06 3.9138567445e-06 3.194031251e-06 6.0306024352e-07 -1.5623230638e-06 -2.3617155875e-06 -2.7479989058e-06 -4.1144903662e-06 -5.8584009821e-06 
-9.2406298791e-06 -1.5389608961e-05 -2.351578587e-05 -3.1147952541e-05 -3.7431735109e-05 -4.2783205572e-05 -4.5432279876e-05 -4.4863856601e-05 -4.282813461e-05 
-3.6850084143e-05 -2.7101583328e-05 -1.7281676264e-05 -1.0532688066e-05 -6.1617456595e-06 -3.1570602914e-06 -2.3011375561e-06 -2.5769372769e-06 6.7118094194e-07 
2.0720087832e-06 3.3982082641e-06 2.5255692435e-06 -1.9995356126e-07 -9.9357475847e-07 2.8964000194e-06 7.3930036706e-06 6.371944437e-06 2.7973751457e-06 
-6.0697016124e-07 -4.5315109674e-06 -1.039662402e-05 -1.8470944269e-05 -2.7203916034e-05 -3.370412378e-05 -3.7617603084e-05 -4.1774921556e-05 -4.6563494834e-05 
-5.0766921049e-05 -5.2769610193e-05 -5.1109880587e-05 -4.6046709031e-05 -3.8964350097e-05 -3.114737774e-05 -2.3860746296e-05 -1.8320210074e-05 -1.4898977497e-05 
-1.4948798707e-05 -1.527043969e-05 3.9716701394e-06 5.153960501e-06 -1.7563368601e-05 -1.7730009858e-05 -1.4584680684e-05 -1.0232737623e-05 -5.3988205764e-06 
-1.5929049368e-06 -3.3111382436e-07 -1.0282764862e-07 2.613360266e-06 5.173066711e-06 5.7137804106e-06 4.1809707909e-06 1.4819387388e-06 -2.4200066946e-06 
-7.7897439041e-06 -1.4112943063e-05 -1.8494374672e-05 -1.7697497242e-05 -1.3621683138e-05 -1.0535221918e-05 -1.1168322089e-05 -1.0162942999e-05 -7.9500559877e-06 
-7.1004692472e-06 -7.3948663157e-06 -6.6837810664e-06 -5.5370132941e-06 -6.1606115196e-06 -7.8201646829e-06 -1.0878486137e-05 -1.4422037566e-05 -1.767789945e-05 
-2.051904994e-05 -2.3577524189e-05 -2.0991050405e-05 -1.4400458895e-05 -6.4407563514e-06 -2.4780115382e-07 1.2586269804e-06 6.7964998607e-07 -6.4070724193e-07 
-3.602850029e-06 -9.032928574e-06 -1.3275442143e-05 -1.6421750843e-05 -1.9162480385e-05 -2.0208419301e-05 -1.8030084902e-05 -1.3141943782e-05 -7.3590949796e-06 
-6.0050092543e-07 2.4095311346e-06 6.5195803245e-07 -2.0073503038e-06 -5.1581937441e-06 -8.7252865342e-06 -1.2642943148e-05 -1.4772200302e-05 -1.7998774638e-05 
-1.7304781068e-05 -1.8545029889e-05 -1.8783095584e-05 -1.5978745068e-05 -1.1294812793e-05 -3.6911126244e-06 4.7148273552e-06 1.2070501725e-05 1.7044027118e-05 
1.8854236259e-05 1.7984970327e-05 1.5876657926e-05 1.2040445654e-05 8.1378711911e-06 6.5784329308e-06 5.0725075198e-06 3.3785436244e-06 2.9215420909e-06 
4.5422134463e-06 2.7826852147e-06 5.5527164022e-07 -1.4707343325e-06 -1.6807891825e-06 -2.519580903e-06 -3.4332306313e-06 -5.5298219195e-06 -7.9339370131e-06 
-2.404215229e-05 -3.1589366699e-05 -3.9107108023e-05 -4.2783787649e-05 -4.4413962314e-05 -4.3899548473e-05 -4.1439685447e-05 -3.4413820686e-05 -1.3073824448e-05 
-8.8789038273e-06 -1.6723932276e-05 -1.2060410882e-05 -2.0202856831e-05 -2.6171941499e-05 -5.3289104471e-06 -5.8135397012e-06 -6.5745307438e-06 -3.8481957745e-06 
-1.4626770053e-06 -5.1817664826e-07 6.9987885354e-07 -6.6101614493e-07 -1.2588111531e-06 8.5752748191e-07 4.6964878493e-06 3.8863222471e-06 1.3858309558e-06 
-1.9020914124e-06 -5.7607257986e-06 -1.2539797353e-05 -2.1633826691e-05 -2.8528756957e-05 -3.3629377867e-05 -3.5067743738e-05 -3.7299410906e-05 -3.9633530832e-05 
-4.1584240535e-05 -4.1535266064e-05 -3.9196802391e-05 -3.7690166209e-05 -2.9859966162e-05 -2.237168701e-05 -1.6358986613e-05 -1.3790026969e-05 -1.0154004485e-05 
-1.1820927284e-05 -1.3099035641e-05 -1.5146451005e-05 -1.2290164705e-05 -7.919109521e-06 -3.1015442801e-06 9.866205346e-07 1.6922233499e-06 1.4418905039e-06 
3.2329485293e-06 6.0057882365e-06 6.641359505e-06 5.6785020206e-06 4.1073008106e-06 1.6525896172e-06 -1.1574182281e-05 -1.4193780771e-05 -1.387217435e-05 
-1.3217929336e-05 -1.2978556697e-05 -1.2542824152e-05 -1.0934343663e-05 -8.6386726252e-06 -7.5038155956e-06 -6.8891545197e-06 -6.0032652982e-06 -3.6870849272e-06 
-5.3621129155e-06 -8.2328579083e-06 -1.1320037629e-05 -1.4530711269e-05 -1.6656873413e-05 -1.9404398699e-05 -2.2546108084e-05 -1.9021854314e-05 -1.3861621483e-05 
-6.2544449975e-06 4.1013896634e-07 1.4231140995e-06 -9.6393705462e-07 -2.4444341307e-06 -4.4443895604e-06 -9.6275434771e-06 -1.297900144e-05 -1.5713960238e-05 
-1.7517233573e-05 -1.849374712e-05 -1.6950903955e-05 -1.4419179024e-05 -1.0918859516e-05 -7.3257483564e-06 -5.8532709772e-06 -6.3332836362e-06 -8.7723856268e-06 
-1.1471431208e-05 -1.4271676264e-05 -1.6182746549e-05 -1.7419684809e-05 -1.9527189579e-05 -2.0112236598e-05 -2.2897524104e-05 -2.2168525902e-05 -1.8526401618e-05 
-1.6586111087e-05 -1.4259333511e-05 -5.2241530284e-06 4.2248808541e-07 -1.9988724489e-06 -1.2564266854e-06 1.3966339338e-06 2.1118680706e-06 -4.7404722636e-07 
-3.7467825678e-06 -7.4622380453e-06 -1.3064057384e-05 -2.1793919586e-05 -2.6518338927e-05 -3.0622381018e-05 -3.1477055018e-05 -3.1756382668e-05 -3.3150910895e-05 
-3.423524322e-05 -3.2350508263e-05 -2.944188418e-05 -2.6829735361e-05 -7.5267462307e-06 -2.5787769573e-06 3.3049398098e-06 8.7676771727e-06 1.2601502931e-05 
1.3743271666e-05 1.4249841115e-05 1.2269928447e-05 9.9133985714e-06 8.0062818597e-06 6.5049994191e-06 5.1226511459e-06 3.8915677578e-06 2.9338991681e-06 
4.5730876082e-06 4.3462073336e-06 2.089791451e-06 -3.9941991758e-07 -1.2654650163e-06 -1.9901222004e-06 -2.733674819e-06 -4.1102939576e-06 -6.0183783717e-06 
-9.6379371826e-06 -1.6075069652e-05 -1.9128094209e-05 -2.2150687073e-05 -2.8270671464e-05 -3.32842028e-05 -3.8757501898e-05 -6.4626351559e-06 -8.3586637629e-06 
-8.3431832536e-06 -7.7969889389e-06 -4.9318477977e-06 -1.9666306343e-06 -1.084098767e-05 -5.6985822994e-06 -3.8760953203e-07 3.1627196222e-06 3.4782999592e-06 
2.0972524908e-06 3.8213943299e-06 6.0236834543e-06 6.1470150285e-06 7.6051787801e-06 6.8109829954e-06 5.9997746575e-06 -6.9092297963e-06 -9.771335499e-06 
-1.1026560969e-05 -1.2354164937e-05 -1.4703968191e-05 -1.3173598745e-05 -1.1027078472e-05 -8.5842730186e-06 -6.968937214e-06 -6.1703567553e-06 -6.6226675699e-06 
-8.0173385868e-06 -1.086229895e-05 -1.3211791156e-05 -1.4808055312e-05 -1.6882562704e-05 -1.7786214812e-05 -1.7223648683e-05 -1.3406313883e-05 -6.3623660935e-06 
-3.6696258121e-07 2.6519140306e-07 -2.0098400455e-06 -4.113444902e-06 -5.3546768868e-06 -7.2753318818e-06 -1.0671888958e-05 -6.5592626015e-06 -8.6460568127e-06 
1.7499262128e-07 -2.8626445783e-06 -1.8107677533e-05 -2.0875748305e-05 -1.3660941477e-05 -1.5271221855e-05 -1.5261910448e-05 -1.4743577594e-05 -1.3834094716e-05 
-1.3346252672e-05 -1.2440886167e-05 -1.2173400137e-05 -1.3590154595e-05 -1.6101210349e-05 -1.9190638341e-05 -2.1779664166e-05 -2.2689340767e-05 -2.3250451704e-05 
-2.4401893825e-05 -2.4305503757e-05 -2.6306523068e-05 -2.5964498491e-05 -2.073147698e-05 -1.3641453734e-05 -4.0670322051e-05 -3.813982039e-05 -3.3795597119e-05 
-2.8382753953e-05 -2.2315001843e-05 -1.9155182599e-05 -1.3850749383e-05 -1.0291060789e-05 -1.1666505088e-05 -1.0608048797e-05 -1.2912363673e-05 -1.5271029042e-05 
-1.6866104488e-05 -9.2190603027e-06 -1.2357761079e-05 -1.4368423763e-05 -1.3027511159e-05 -1.0399981875e-05 -8.4122593762e-06 -7.0491737461e-06 -1.8936570996e-05 
-1.8038635972e-05 -2.0647084966e-05 -2.4245322493e-05 -2.7226726161e-05 -2.8777893021e-05 -2.8933269277e-05 -2.8153837775e-05 -2.7191848858e-05 -3.0015909942e-05 
-2.945414235e-05 -2.4116945497e-05 -2.6826433896e-05 -3.0917257391e-05 -3.2499559893e-05 -3.6274130252e-05 -3.8102189137e-05 -4.0637649363e-05 -4.2893989303e-05 
-1.0863259376e-05 -4.7738640205e-06 1.0292270645e-06 5.2191335271e-06 5.3655635384e-06 2.6238412829e-06 2.7711257644e-06 4.020444976e-06 -5.4606385902e-07 
-1.4170353779e-06 -2.3244351723e-06 -4.6426175686e-06 -8.1885445979e-06 3.5559730804e-06 5.3526823649e-06 5.6170556491e-06 3.7517866076e-06 1.1993354292e-06 
-3.2869622373e-05 -3.49981201e-05 -3.5514312913e-05 -3.6858287785e-05 -3.7176658225e-05 -3.7557914766e-05 -3.6474390072e-05 -3.493656186e-05 -3.0009652619e-05 
-2.4507105991e-05 7.8130779002e-06 8.9099276011e-06 8.2060241766e-06 8.3783415903e-06 2.662259476e-06 -9.2946174846e-06 -6.2659846662e-06 -1.5551356682e-06 
3.035165264e-06 7.6995393101e-06 1.0141113307e-05 -6.4315045165e-06 1.1053690287e-05 -1.573931695e-05 -1.3861959815e-05 -1.4774407646e-05 -1.6107440388e-05 
-1.6496876924e-05 -1.7228949218e-05 -1.8865315724e-05 -1.9661662009e-05 -1.8348071535e-05 -2.037277045e-05 -2.1914673198e-05 -1.9076096578e-05 -1.6867659724e-05 
-1.1664068552e-05 -5.6033459259e-06 -7.0154032983e-07 -4.8224256943e-07 -3.0915045954e-06 -4.4711491682e-06 -4.1193447942e-06 -5.2458294704e-06 1.0031129023e-05 
9.160126865e-06 8.1073094407e-06 -2.2441477086e-06 -2.4470841709e-06 -2.0429348297e-05 -2.2457338673e-06 -1.0166099855e-06 2.8377334615e-07 1.3541941826e-06 
7.2329856948e-07 -1.7834662458e-06 -5.2798091019e-06 -9.1258807515e-06 -2.7494192182e-05 -2.8711452615e-05 -2.820732152e-05 -2.7049933124e-05 -2.7395533834e-05 
-2.709185901e-05 -2.609709918e-05 -2.2291096684e-05 -1.4458842998e-05 -9.2961618066e-06 -9.0138864834e-06 -1.0022029528e-05 -2.0880952434e-05 -2.1388001187e-05 
-2.1762156393e-05 -2.1393534553e-05 -2.1158259187e-05 -2.1738220312e-05 -2.2345835532e-05 -2.180039337e-05 -2.4188651878e-05 -2.3508255254e-05 -1.5628958181e-06 
-8.7827183961e-06 -4.2305418901e-06 -1.79323456e-06 3.4945264815e-07 -1.0775737792e-05 -1.205636454e-05 1.8875283558e-06 2.9573916436e-06 5.9864278228e-06 
-4.2340752771e-07 -2.8797776395e-06 -6.2183062255e-06 -7.4526406024e-07 -3.1781119105e-06 -6.6204684117e-06 -2.7105745176e-05 -3.0068182241e-05 -3.2230847864e-05 
-3.304184429e-05 -3.2442090742e-05 -3.2100640965e-05 -1.2562763914e-05 -1.9563722162e-05 -3.2318199374e-05 -1.7929085516e-05 -1.0584054507e-05 -1.3097585907e-05 
4.7670323511e-06 -2.6661953598e-05 3.6187536807e-06 -2.6401739888e-05 1.0734989786e-07 -2.5083532819e-05 -4.298240583e-06 -8.2365504568e-06 -1.2014413187e-05 
-1.3399552699e-05 -1.1397906746e-05 -2.3736793082e-05 -6.0075753936e-06 -2.4187243071e-06 7.9196507841e-07 -3.3308460843e-05 5.337222774e-06 -3.4929165849e-05 
3.3882931803e-06 -3.5950764868e-05 -3.5371285776e-05 -3.4295557271e-05 -2.5983329124e-06 -3.3450244246e-06 1.6959428706e-07 -9.2458558356e-06 -1.0917446161e-05 
-1.2454779608e-05 -7.4003833106e-06 -1.1881122191e-05 5.504065939e-06 5.9936169237e-06 1.015517114e-06 4.2779674914e-06 8.9053983174e-06 5.8717491811e-06 
8.561719369e-06 1.147095827e-05 -9.224769201e-06 -9.0043586169e-06 -1.3384170416e-05 -1.6765226974e-05 
Stress_YZ 1 1059 double
2.155946504e-06 4.9104273785e-06 3.6579428979e-06 2.0749218947e-06 -8.0205029462e-07 -5.6707312979e-06 -1.0542384189e-05 -1.5074920157e-05 -2.5077864848e-05 
-3.1125407986e-05 -2.5999263016e-05 -1.545694613e-05 -7.7210788731e-06 -1.1745244137e-06 7.1314902925e-06 1.1115359484e-05 1.4121271306e-05 1.7794791347e-05 
2.2987900593e-05 2.5831619496e-05 2.7220063203e-05 2.7761172532e-05 2.4560025849e-05 1.2322127986e-05 -5.4855081544e-06 -2.1394746e-05 -2.3696553399e-05 
-2.2662274205e-05 -2.6024457839e-05 -2.8284506698e-05 -2.5920577173e-05 -1.979647277e-05 -1.7806965843e-05 -1.2638120097e-05 -2.3512911866e-06 3.1307122299e-06 
1.3890966102e-06 -1.9013106112e-06 -5.766625236e-06 -1.0211653716e-05 -1.3767893506e-05 -1.557881842e-05 -7.8042639871e-06 3.6145293052e-06 1.8181410269e-05 
3.2645461033e-05 4.0545022784e-05 3.7230845919e-05 2.9770124456e-05 2.2071753847e-05 1.5641318896e-05 1.0054123777e-05 4.5678202696e-06 2.1455698516e-06 
4.7829712457e-07 -1.8753721633e-06 1.9002272893e-05 1.855859955e-05 1.5191280909e-05 9.9064836832e-06 4.6108348215e-06 1.9772405722e-06 8.3299840981e-07 
-9.649702406e-07 -2.8029191981e-06 -3.3020903629e-06 3.0780536235e-06 1.0155582459e-05 9.9477547337e-06 7.8643197412e-06 2.7196044812e-06 -3.2087205e-06 
-1.3242691239e-05 -2.356094592e-05 -2.420815872e-05 -1.5201005226e-05 -2.6740624435e-06 6.8276772254e-06 9.1217843874e-06 8.1281659732e-06 1.2522998986e-05 
1.178272214e-05 6.68505254e-06 4.5542828957e-06 9.1188422857e-07 1.5949018461e-07 3.5945690797e-06 -1.628366249e-06 1.0036760614e-05 1.484058248e-05 
1.6159196093e-05 2.0074274289e-05 1.8784510758e-05 1.2831170352e-05 6.5480126068e-06 7.3636801972e-06 4.1767675611e-06 -3.1691674849e-06 -9.8177652035e-06 
-1.2695032638e-05 -1.274089027e-05 -1.249899924e-05 -1.3072626643e-05 -1.2909413272e-05 -1.0781427591e-05 -8.6976087914e-06 -6.1273676693e-06 -4.9167188081e-06 
-5.5545206123e-06 -7.4106210377e-06 -8.4476387201e-06 -7.2804587035e-06 5.1586985137e-06 1.7062286133e-05 -2.4024004688e-06 -6.763278634e-06 -1.2165107364e-05 
-1.7914182536e-05 -2.3750317268e-05 -3.0686122045e-05 -3.4937907913e-05 -3.6291872675e-05 -3.2430234569e-05 -2.3180036806e-05 -1.4686505892e-05 -9.5513087217e-06 
-4.8954675549e-06 2.0779837087e-06 7.8250523075e-06 1.400932706e-05 2.0734629288e-05 2.6074303605e-05 2.9613553124e-05 3.225672117e-05 3.5345372453e-05 
3.6743957025e-05 3.1641880923e-05 2.0936156943e-05 3.6971825921e-06 -6.9435841397e-06 -1.1444799384e-05 -1.3420955838e-05 -1.5897161575e-05 -1.7812384613e-05 
-1.7608652342e-05 -1.5264760805e-05 -1.2875911125e-05 -1.1200562767e-05 -1.0392480362e-05 -9.9832723208e-06 -9.9096760096e-06 -9.0644798547e-06 -6.2665531004e-06 
-8.5024277041e-07 7.5986827142e-06 1.7350217604e-05 2.7613785278e-05 3.4693730413e-05 4.0183844249e-05 4.4816770242e-05 5.0273236411e-05 5.297734242e-05 
4.9059850426e-05 4.3097912567e-05 3.3412354242e-05 2.1584948627e-05 1.1802397239e-05 5.1610595619e-06 1.786509074e-06 -5.728570045e-07 2.5491164706e-05 
2.471582593e-05 2.0659499569e-05 1.5857604012e-05 1.0901985661e-05 7.7328450061e-06 7.5191505857e-06 1.0007147466e-05 1.3495429812e-05 1.4151731193e-05 
8.9950099209e-06 1.6556666651e-06 -5.5649256865e-06 -1.2131269614e-05 -2.0525776563e-05 -2.7568497899e-05 -3.1130741263e-05 -3.135688894e-05 -2.8532382203e-05 
-2.0428407879e-05 -1.3214345927e-05 -6.5435169745e-06 -2.7032954222e-06 -1.347016223e-06 9.3560981895e-07 5.7738557189e-06 1.0685503185e-05 1.5680732758e-05 
1.7362730432e-05 1.6627958757e-05 1.9721357603e-05 2.1576714062e-05 2.7967131246e-05 3.3613716369e-05 3.4626493289e-05 3.1174229662e-05 2.726744242e-05 
2.4412544008e-05 2.1549638404e-05 1.2843617696e-05 2.3646668978e-06 -7.8733801274e-06 -1.6664929717e-05 -2.1439549528e-05 -2.2749503842e-05 -2.2079630071e-05 
-1.9737801267e-05 -1.6308693375e-05 -1.3248911273e-05 -1.0520773685e-05 -9.6719568319e-06 -9.5771420092e-06 -8.8546812549e-06 -2.27117539e-06 5.1879351304e-06 
1.6109232092e-05 2.1094354452e-05 2.1928268325e-05 -1.7519312678e-05 -2.3649970899e-05 -3.1144754757e-05 -3.7842146412e-05 -4.3773376092e-05 -4.5641052566e-05 
-4.3911168177e-05 -3.9803198888e-05 -3.2433894376e-05 -2.463337114e-05 -1.7986791136e-05 -1.1054645256e-05 -3.3542428355e-06 6.3439829319e-06 1.6442605556e-05 
2.4567250875e-05 3.0609873647e-05 3.412611477e-05 3.7489302485e-05 4.0436883864e-05 3.6252138671e-05 2.7973013857e-05 1.5247744159e-05 4.4044859351e-06 
-5.2078198678e-06 -1.1623859791e-05 -1.6506322936e-05 -2.2154266844e-05 -2.6683606848e-05 -3.0263952794e-05 -3.2853589801e-05 -3.4769607737e-05 -3.4455195419e-05 
-3.0739793146e-05 -2.6674950277e-05 -2.282888272e-05 -1.8100419766e-05 -1.0814033885e-05 -2.3394152322e-06 6.0474940256e-06 1.2914015315e-05 4.1167091695e-05 
4.834356514e-05 5.2713538025e-05 5.4320385971e-05 5.2089253586e-05 4.6482975449e-05 3.6413926864e-05 2.4269447749e-05 1.519523903e-05 7.3728624557e-06 
7.0482667525e-07 -7.1311201282e-06 -1.3669814507e-05 3.9864600694e-05 3.9848338929e-05 3.0422257623e-05 1.4343180737e-05 3.1793359085e-05 2.9939992601e-05 
2.7155114367e-05 2.3711005269e-05 2.1178824682e-05 2.2144222385e-05 2.6365372833e-05 2.9307542718e-05 2.5912666388e-05 1.663250805e-05 6.7938858592e-06 
-2.3066629637e-06 -1.1675814676e-05 -1.995481216e-05 -2.5252304113e-05 -2.6923560654e-05 -3.0239079933e-05 -3.048662802e-05 -2.5102955988e-05 -1.9862312911e-05 
-1.4355699022e-05 -8.3737650129e-06 -5.3541130001e-06 -1.3799660792e-06 6.8318245212e-06 1.6749476345e-05 2.3211234293e-05 2.6721716495e-05 2.8911159461e-05 
3.2346099033e-05 3.7082732888e-05 4.1121227696e-05 4.4048909331e-05 4.0228256694e-05 3.4073029383e-05 3.0416802474e-05 2.9455561162e-05 2.5618388463e-05 
1.5922862076e-05 3.871748504e-06 -8.3229924712e-06 -2.0226234483e-05 -2.9526789149e-05 -3.5907047277e-05 -3.7348694605e-05 -3.5563480196e-05 -3.2424548408e-05 
-2.7978312573e-05 -2.4104965632e-05 -2.0625840989e-05 -1.7211879822e-05 -1.4557820577e-05 -6.9183975029e-06 2.8007989386e-06 1.7670834495e-05 2.5040753826e-05 
2.737475188e-05 3.0595987482e-05 1.0741653568e-05 2.3235164917e-05 3.4305641748e-05 4.3026491767e-05 4.8114165111e-05 4.8989328207e-05 4.732252637e-05 
4.2641619075e-05 3.3798394725e-05 2.3654592951e-05 1.3304438653e-05 3.1400861644e-06 -6.0268362176e-06 -1.4218814613e-05 -1.9386568965e-05 -2.2342925149e-05 
-2.8557758924e-05 -3.5915341869e-05 -4.2922605644e-05 -4.792747859e-05 -4.9816255341e-05 -4.7014069423e-05 -4.1784063797e-05 -3.5755114368e-05 -3.0072962545e-05 
-2.3672826501e-05 -1.5422201614e-05 -4.9365326049e-06 6.6465131567e-06 1.7410331566e-05 2.698505341e-05 3.2553696656e-05 3.7357523979e-05 4.0674585762e-05 
4.1587907617e-05 4.0510876715e-05 3.8314181438e-05 3.6507339246e-05 3.5386841773e-05 3.3334443287e-05 2.7793554182e-05 1.9049208277e-05 8.651843018e-06 
-2.5302269933e-06 -1.1320051271e-05 -1.8312635802e-05 -2.5911544071e-05 -3.3680880733e-05 -4.0527844249e-05 -4.5194788981e-05 -4.8425368732e-05 -4.9192181905e-05 
-4.5067139581e-05 -3.8349397073e-05 -3.1489969842e-05 -2.5028604796e-05 -1.8015234673e-05 -9.2630180006e-06 -1.6910821614e-06 1.6960600533e-06 1.754698701e-06 
2.853270189e-06 7.9341707533e-06 1.184816665e-05 3.3669501136e-05 3.3206313674e-05 3.1991807191e-05 3.0718383641e-05 3.0756869819e-05 3.3458225516e-05 
3.5843466321e-05 3.2544012356e-05 2.2184784029e-05 1.1018790246e-05 1.7228973093e-06 -6.9406264629e-06 -1.4947941963e-05 -2.1475963877e-05 -2.4429033147e-05 
-3.047861901e-05 -2.6924748454e-05 -2.2797086785e-05 -1.8040884243e-05 -1.2196244825e-05 -7.5905236372e-06 -1.4019218497e-06 7.7770919233e-06 1.7020838641e-05 
2.3645105102e-05 2.8940505217e-05 3.351255873e-05 3.8208734622e-05 4.3671203457e-05 4.7209261538e-05 4.6866018238e-05 4.2194849811e-05 3.6752309825e-05 
3.3209355024e-05 3.0412113119e-05 2.4331568056e-05 1.4392940102e-05 2.8836414003e-06 -9.2855862022e-06 -2.2142328817e-05 -3.3916196116e-05 -4.2449781176e-05 
-4.5182208851e-05 -4.3557636673e-05 -3.9580645534e-05 -3.486827336e-05 -3.1386131013e-05 -2.7449443223e-05 -2.2181702661e-05 -1.5565303329e-05 -3.6381538848e-06 
5.2560144468e-06 1.3963578567e-05 2.2953072403e-05 2.859406959e-05 3.2831634599e-05 3.4016466088e-05 -2.9680591979e-05 -2.7816859074e-05 2.0580419005e-05 
2.9140732295e-05 3.7985519157e-05 4.2170217057e-05 4.2352803575e-05 4.1107530706e-05 3.7155550672e-05 3.0095463444e-05 2.2048814571e-05 1.2426975445e-05 
2.0738427793e-06 -2.0436984414e-05 -2.2845268177e-05 -2.7035603125e-05 -3.0871295166e-05 -3.7112611608e-05 -4.369331873e-05 -4.8955993407e-05 -5.0106180424e-05 
-4.6207231208e-05 -4.0744052967e-05 -3.6667082895e-05 -3.1645515264e-05 -2.4607952582e-05 -1.4948692296e-05 -4.2341957851e-06 7.7257609519e-06 1.7992480934e-05 
2.8144226235e-05 3.6214034481e-05 4.0249746235e-05 4.1920546209e-05 4.2392799514e-05 4.1889139538e-05 4.0495382564e-05 3.8614209188e-05 3.5728302464e-05 
3.3610791434e-05 3.1584913813e-05 3.0429207982e-05 2.5194191039e-05 1.9190061721e-05 8.18414901e-06 -2.938173111e-06 -1.3338523786e-05 -2.1905902031e-05 
-3.0790874007e-05 -4.0731782065e-05 -4.9722151743e-05 -5.5373184296e-05 -5.816052726e-05 -5.8373738284e-05 -5.4989763157e-05 -4.8762340157e-05 -4.1159237298e-05 
-3.3577154682e-05 -2.5565539545e-05 -1.6924564989e-05 -9.8874152172e-06 -6.8803619797e-06 -5.9825783865e-06 -2.49448658e-06 4.8099404921e-06 1.4430288502e-05 
1.7027372451e-05 1.8460465071e-05 -1.2768487977e-05 -6.4537366598e-06 -3.0484497984e-05 -3.1523552025e-05 -3.149719123e-05 -2.9498487493e-05 -2.6382342185e-05 
-2.1773557819e-05 -1.5907193301e-05 -1.0176415344e-05 -3.0008716294e-06 6.314096936e-06 1.580361095e-05 2.3192025765e-05 2.93911271e-05 3.4741537092e-05 
3.9774808101e-05 4.4796535803e-05 4.7078563512e-05 4.5618729928e-05 4.2026782467e-05 3.8422778744e-05 3.323722558e-05 2.8894597563e-05 2.1788164304e-05 
1.222100218e-05 1.4632956891e-06 -9.3282051239e-06 -2.2996860935e-05 -3.5461973312e-05 -4.5340493671e-05 -5.0115959311e-05 -5.0957609346e-05 -4.7513232857e-05 
-4.2457850213e-05 -3.8579142711e-05 -3.5215056414e-05 -2.7377780498e-05 -1.6684278307e-05 -1.5964126305e-06 7.3012474786e-06 1.2855299246e-05 2.0820156351e-05 
2.9232020097e-05 3.4325297747e-05 3.5392782593e-05 3.6066594475e-05 3.7360598071e-05 3.8960923121e-05 3.9463258872e-05 4.002949936e-05 4.0710649046e-05 
3.9704213123e-05 3.6144814658e-05 2.638578917e-05 1.4530499357e-05 4.5230881369e-06 -4.0214181354e-06 -1.1484626157e-05 -1.7796319298e-05 -2.2036203518e-05 
-2.6107187296e-05 -2.8674214263e-05 -3.1851741369e-05 -3.2950549212e-05 2.8456623113e-05 3.7992431317e-05 4.1384384531e-05 4.0760358388e-05 3.7498994061e-05 
3.4028249502e-05 2.9032393286e-05 2.293867874e-05 1.5563251509e-05 7.9551191448e-06 -2.0540660728e-07 -6.8276585807e-06 -1.3584627595e-05 -1.9036086087e-05 
-2.4745571864e-05 -2.8161390219e-05 -3.0800478271e-05 -3.2886488043e-05 -3.7368143239e-05 -4.2304913222e-05 -4.7117482609e-05 -4.8558969866e-05 -4.5440170652e-05 
-3.4092729038e-05 -2.9438202546e-05 -2.2272131901e-05 -1.3045098058e-05 -2.9466918932e-06 7.9479759734e-06 1.9166229322e-05 3.0348190194e-05 4.2672141717e-05 
4.2757350457e-05 -3.8039041101e-05 -3.996416126e-05 4.101792365e-05 3.7196499761e-05 4.2213323468e-05 4.1266892367e-05 3.9800605009e-05 3.6945843021e-05 
3.3057098335e-05 3.0711002182e-05 3.0817820516e-05 2.5332399673e-05 1.8455422833e-05 8.4974208221e-06 -3.9017868403e-06 -1.5227072254e-05 -2.494565706e-05 
-3.4644450352e-05 -4.5567929192e-05 -5.5385629821e-05 -6.2106781115e-05 -6.3246523496e-05 -6.1151244154e-05 -5.8422232541e-05 -5.3529893194e-05 -4.7252306103e-05 
-4.009233453e-05 -3.1584157114e-05 -2.2675383661e-05 -1.4216908312e-05 -1.269994118e-05 -7.9209412434e-06 1.19360692e-07 1.0512640074e-05 1.9850473109e-05 
2.4866189051e-05 2.8309112167e-05 -3.2057545468e-05 -3.3247459214e-05 -3.2697815186e-05 -3.0447175959e-05 -2.6044735932e-05 -1.9540555513e-05 -1.350135426e-05 
-6.4715522967e-06 2.7689452509e-06 1.3390733329e-05 2.1251196813e-05 2.738566036e-05 3.2347998058e-05 4.2299834604e-05 4.4096519559e-05 4.3232408643e-05 
4.0700484533e-05 3.6954854295e-05 3.1669183954e-05 2.6934414564e-05 1.9739647541e-05 1.0700842722e-05 1.0389975813e-07 -1.0409389688e-05 -2.3660451916e-05 
-3.6883924622e-05 -4.7548117436e-05 -5.3883715736e-05 -5.6620076066e-05 -5.4998334235e-05 -5.1214032283e-05 -4.6949724492e-05 -4.2250656406e-05 -3.2640826248e-05 
-1.9491219064e-05 -3.7910583615e-06 5.6639305512e-06 1.1586131222e-05 1.8907485355e-05 2.8871450922e-05 3.417518019e-05 3.6264103983e-05 3.8241145376e-05 
4.0312119381e-05 4.328347859e-05 4.5077296818e-05 4.6547367674e-05 4.6195997129e-05 4.2734434828e-05 3.6536122934e-05 2.6285251806e-05 1.5514491679e-05 
5.7428947002e-06 -2.6502345918e-06 -9.4242868727e-06 -1.4954900507e-05 -1.9927018002e-05 -2.386156666e-05 -2.9186958272e-05 -3.1330233469e-05 -3.3307886042e-05 
-3.4312273783e-05 -3.4165441321e-05 3.8925049012e-05 3.541348633e-05 2.803163261e-05 2.2582047677e-05 -4.9397172006e-06 -1.6140937078e-05 -2.6074847483e-05 
-3.6270630517e-05 -4.8009165766e-05 -5.8586680098e-05 -6.4741951064e-05 -6.4327250584e-05 -6.0706646764e-05 -5.7771299907e-05 -5.4696196457e-05 -4.9866463087e-05 
-4.3426582124e-05 -3.55831653e-05 -2.0193523596e-05 -2.8154221582e-05 3.6788926081e-05 4.1812498239e-05 4.1556293581e-05 3.7593108573e-05 3.3956494008e-05 
3.0136070563e-05 2.5175746487e-05 1.9394487026e-05 1.3428639249e-05 7.9509218267e-06 2.6241079922e-06 -3.6139331314e-06 -1.3964445316e-05 -2.0861054509e-05 
-2.5313282094e-05 -2.9989025279e-05 -3.3224547224e-05 -3.4857319406e-05 -3.7139601773e-05 -4.1300387238e-05 -4.5462293201e-05 -4.6912049584e-05 -4.3780964916e-05 
-3.9549569919e-05 -3.6155983253e-05 -3.5935529013e-05 -3.2958654629e-05 -3.0307133784e-05 -2.4602364647e-05 -1.7140700947e-05 4.3124047806e-05 4.3738717068e-05 
4.1747160139e-05 3.8518497604e-05 3.4036391298e-05 3.0417913877e-05 -3.51251947e-05 -3.5349639802e-05 -3.3832875488e-05 -2.9966357033e-05 -2.3834174499e-05 
-1.7705175196e-05 -1.1298197933e-05 -1.7909072767e-06 9.4021461337e-06 1.6684103684e-05 2.3414440875e-05 2.8963930163e-05 4.0657792852e-05 4.1313076508e-05 
4.1375416913e-05 3.9912181819e-05 3.5857636249e-05 3.0707880796e-05 2.560854773e-05 1.8668302801e-05 9.6864760053e-06 -6.3934527361e-07 -9.8404871096e-06 
-4.0607319534e-05 -4.9787071475e-05 -5.5914864788e-05 -5.9270776546e-05 -5.9412643168e-05 -5.7535089582e-05 -5.4327821999e-05 -3.6054902012e-05 -2.1994917915e-05 
-8.4076091298e-06 5.8493549204e-07 7.9018100223e-06 1.6414380298e-05 2.4605185899e-05 3.2105890568e-05 3.7410129153e-05 -2.955929267e-05 -2.1344638299e-05 
4.9882469284e-06 1.378008983e-05 -4.7819114116e-05 -5.6792836403e-05 4.0408674977e-05 4.193829227e-05 4.3990326958e-05 4.6235240006e-05 4.7701927542e-05 
4.6190241846e-05 4.1548715672e-05 3.4715718357e-05 2.495179433e-05 1.5149728824e-05 5.9753838286e-06 -2.5499894036e-06 -9.5634950412e-06 -1.5414609152e-05 
-2.0514054995e-05 -2.2649888706e-05 -2.6988769605e-05 -3.0890951166e-05 -3.2537267543e-05 -3.5320597817e-05 1.084860196e-05 2.0466344722e-05 2.7576854336e-05 
3.2934534829e-05 3.7665427953e-05 4.3302774429e-05 4.4930362492e-05 4.4477943447e-05 4.2585783376e-05 4.4766664359e-05 4.6961496992e-05 4.519844515e-05 
4.0462149627e-05 4.0499751776e-05 3.9026366721e-05 3.4899701859e-05 3.082981857e-05 2.4988290534e-05 1.727198287e-05 7.1396925705e-06 -2.228971789e-05 
3.2599047699e-05 2.3087923182e-05 1.3340323676e-05 3.6808055484e-06 -5.0976391321e-06 -1.2197790056e-05 -1.7721464246e-05 -2.249264071e-05 -2.4449880584e-05 
-2.7782620236e-05 -3.2818694308e-05 -3.1172268791e-05 -2.961653081e-05 -2.5486944651e-05 -1.8941716917e-05 -1.0116353224e-05 1.6639636158e-07 -8.3199583969e-06 
-3.5551507608e-05 -3.7682395487e-05 -3.8466427213e-05 -3.5253618989e-05 -2.8442935218e-05 -2.2858204829e-05 -1.7175530957e-05 -9.5147506727e-06 -4.1180879634e-05 
-4.506939149e-05 -4.5648612286e-05 -4.2281437345e-05 -3.8781556214e-05 -1.8833366994e-05 -2.4954131732e-05 -3.1859075534e-05 -3.6396435462e-05 -3.8946771383e-05 
-2.6579755286e-05 -2.5807470593e-05 -2.0664137992e-05 -1.3965672224e-05 -5.0444255066e-06 4.7490893849e-06 1.473449538e-05 2.240294998e-05 2.6040368539e-05 
2.9915807318e-05 7.4175063673e-06 1.2973452613e-05 1.9263048671e-05 2.4406868761e-05 3.6281158827e-05 3.3262844227e-05 3.9096521505e-05 4.0763625293e-05 
3.8398484321e-05 3.5481174564e-05 3.2587515307e-05 4.0075647121e-05 2.3437522032e-05 -2.8406719139e-05 -3.5686458432e-05 -4.3800835556e-05 -5.1196395361e-05 
-5.6218068494e-05 -5.9543523093e-05 -6.1748178268e-05 -6.1676619225e-05 -6.0578768171e-05 -6.2021441408e-05 -6.5184096457e-05 -5.9182479163e-05 -5.031260298e-05 
-3.7524656364e-05 -2.3353020879e-05 -1.0741609913e-05 -1.2518179346e-06 5.9545100157e-06 1.1392989109e-05 1.9998522475e-05 2.8862283216e-05 1.9039298422e-05 
1.3951853362e-05 1.0500902135e-05 2.3885575501e-05 1.8104314222e-05 -1.473165139e-05 1.2625377167e-05 1.0527729501e-05 3.125497642e-06 -7.0242176662e-06 
-1.6036061425e-05 -2.6112862543e-05 -3.6824290873e-05 -4.8605030315e-05 -6.3847430283e-05 -6.0734648287e-05 -5.7371547882e-05 -5.4696338339e-05 -5.1123242883e-05 
-4.5316352043e-05 -3.8645277527e-05 -3.338008537e-05 -5.727484222e-06 5.7369934439e-06 1.6720303393e-05 2.4914779715e-05 -3.8792619307e-05 -4.5529024646e-05 
-5.1461913245e-05 -5.5371801864e-05 -5.888661326e-05 -6.1736434873e-05 -6.3105326262e-05 -6.3433057221e-05 -6.4816580561e-05 -6.6635933763e-05 7.1504273365e-06 
-3.760522668e-05 -2.4457836844e-05 -1.3518524611e-05 7.9704443579e-07 2.8193604521e-05 -3.5248624044e-05 -8.483696547e-06 -2.2856416763e-05 -2.8109327104e-05 
-4.4672036893e-05 -4.1721406888e-05 -3.815769378e-05 -1.586144208e-05 -2.5894838473e-05 -3.7274374336e-05 2.0581555873e-05 1.0325191397e-05 4.4414275635e-07 
-8.1062780737e-06 -1.4896903849e-05 -2.0350889827e-05 -5.9423382481e-05 -6.5416068537e-05 1.7715719878e-05 -6.4318606746e-05 -4.8829697334e-05 -5.8735324274e-05 
3.5357421439e-05 -6.4263687818e-05 3.6633315176e-05 -6.225539255e-05 3.8514903281e-05 -5.9143734688e-05 3.9497754187e-05 4.0092447307e-05 3.8704700273e-05 
3.4637625504e-05 3.1688381569e-05 -5.6115586631e-05 4.0839528083e-05 -3.9686136006e-05 -4.2409192247e-05 -2.2349484425e-05 -4.0447535866e-05 -1.7345766537e-05 
-2.7153304472e-05 -1.0706308785e-05 -2.1103303425e-06 7.6902169894e-06 3.8030062569e-05 3.9087582991e-05 3.7565103412e-05 4.1358867747e-05 4.1061492084e-05 
4.197511953e-05 -3.5396492422e-06 -1.5211331629e-05 -3.3107044146e-05 -3.4900436731e-05 -4.4422125939e-05 -4.1332750698e-05 2.7681253414e-05 3.1301464333e-05 
3.2574203942e-05 2.7870333724e-05 3.8138623495e-05 3.3299773349e-05 -4.9538179155e-05 -5.9242087445e-05 
Stress_XZ 1 1059 double
3.5298726289e-06 -1.1766687891e-07 -3.0781268379e-06 -4.5254760153e-06 -5.0824405662e-06 -6.6695924943e-06 -4.0358659135e-06 -2.2479175641e-06 -4.4956609599e-06 
3.2518170201e-07 3.338804845e-06 5.3071075854e-06 6.2029107539e-06 2.4786893391e-06 6.9699456162e-07 5.1441165851e-06 9.3042190201e-06 1.2763490304e-05 
1.3942411897e-05 1.2608745237e-05 8.8929218691e-06 5.087360023e-06 -6.706988529e-07 -5.9218800743e-06 -8.2612696133e-06 -6.4020773607e-06 -1.7772477179e-07 
-1.5478597959e-07 -6.5346735028e-06 -1.5749166778e-05 -2.167819548e-05 -2.2963609808e-05 -2.131956353e-05 -2.1015204766e-05 -1.6004862118e-05 -1.1538050785e-05 
-9.7719930636e-06 -7.8952207332e-06 -4.0516770241e-06 1.005364652e-06 3.4276513361e-06 4.1554899326e-06 2.8446013403e-06 2.7118852586e-07 -2.594186526e-06 
-3.2909449601e-06 -1.8814431542e-06 1.374866315e-06 8.3197319327e-06 1.6429990865e-05 2.2272964998e-05 2.460286305e-05 2.1574029233e-05 1.7545024093e-05 
1.2824034457e-05 1.2349741155e-05 -1.7562408175e-05 -1.4116966668e-05 -1.595802496e-05 -1.4739785001e-05 -1.5167759557e-05 -1.9719267584e-05 -2.6903026082e-05 
-2.950911221e-05 -2.7281235816e-05 -2.1455951355e-05 -1.992624675e-05 -1.7079342797e-05 -1.2320714632e-05 -8.0356994658e-06 -1.3222179405e-06 7.5457110142e-06 
1.7122612917e-05 2.7790474633e-05 3.2697818824e-05 3.2582694985e-05 2.9301350878e-05 2.1544929041e-05 1.4869545339e-05 9.6217117971e-06 3.8195967136e-06 
4.5482029236e-06 6.3065940594e-06 -9.5288282864e-07 -4.2383926484e-06 -3.0786759453e-06 -9.1009515018e-06 -5.6962649069e-06 -1.6523454178e-05 -1.6658668756e-05 
-1.135769071e-05 -8.0901081674e-06 -1.1050577086e-05 -1.5422574506e-05 -1.9376224373e-05 -2.0793308067e-05 -1.7195583496e-05 -1.3065689018e-05 -1.011067252e-05 
-6.8724311859e-06 -4.6794320951e-07 9.2656227935e-06 1.7576921891e-05 2.4901821234e-05 2.6925879865e-05 2.8137468689e-05 2.7217964089e-05 2.2792693926e-05 
2.0681547539e-05 2.1897625629e-05 2.5420627935e-05 1.9637531295e-05 -1.5868178025e-06 -1.7644330001e-05 -6.6730035542e-06 -8.6007521531e-06 -1.0106011359e-05 
-1.1085428923e-05 -1.0683053006e-05 -9.3581602414e-06 -9.4472961791e-06 -6.3970919655e-06 -2.7986156965e-06 -1.3954778524e-06 -1.6448532278e-06 -2.0637428406e-06 
-3.0441133276e-06 -4.8384508773e-06 -4.3193149395e-06 -1.3255119029e-06 2.1778287191e-06 6.6735265136e-06 9.5684654298e-06 9.5028817668e-06 7.5895945884e-06 
4.8802653509e-06 -3.0419387258e-06 -8.4223438535e-06 -1.0665141417e-05 -1.0420912076e-05 -7.4106451393e-06 -8.1240059444e-06 -1.0921909961e-05 -1.1824884496e-05 
-1.0089624993e-05 -5.102598152e-06 2.9164853004e-06 9.8475220511e-06 1.4054116036e-05 1.6601821699e-05 1.8724487745e-05 2.0006440536e-05 1.9537848857e-05 
1.3888982721e-05 2.1669309263e-06 -7.9023084254e-06 -1.5651447029e-05 -2.0017645511e-05 -1.9111181246e-05 -1.0579380614e-05 8.5358476554e-07 1.1085054211e-05 
1.8767725123e-05 2.579134707e-05 3.1550447602e-05 3.1608702557e-05 2.7813655834e-05 2.2658399757e-05 1.5200470443e-05 -2.1638264514e-07 -2.5622666726e-05 
-1.9823877665e-05 -1.3954150745e-05 -9.9855078588e-06 -9.9733279058e-06 -1.1921914847e-05 -1.3914498595e-05 -1.2475915355e-05 -6.6950110522e-06 -1.0978901628e-06 
2.2713909402e-06 4.4659427658e-06 6.6650177359e-06 8.1352573034e-06 9.6087978818e-06 1.0667280549e-05 1.4684310372e-05 2.7939569918e-05 3.9709175326e-05 
4.0844362957e-05 3.8788701204e-05 3.3139393054e-05 2.43352697e-05 1.9537579647e-05 1.5424400772e-05 8.5948859123e-06 1.5159749864e-06 -4.5872698138e-06 
-9.6480107459e-06 -1.257695385e-05 -1.8834527509e-05 -2.4289378416e-05 -2.5844323318e-05 -2.3325826987e-05 -1.9778535716e-05 -1.8271415684e-05 -1.8221140635e-05 
-1.8758753868e-05 -1.8429869669e-05 -1.6555948605e-05 -1.380543199e-05 -1.1781633475e-05 -9.6272424344e-06 -5.0307198762e-06 2.6871996397e-06 1.15277644e-05 
1.986143252e-05 2.7353547921e-05 3.2125102734e-05 3.5957778891e-05 3.924487828e-05 4.4503525714e-05 5.2962448535e-05 4.2648880481e-05 8.1114740169e-06 
-9.5046971182e-06 -1.8623621145e-05 -2.6932861147e-05 -3.9841638682e-06 -7.6112514762e-06 -1.0153054063e-05 -1.0344921066e-05 -1.0050760466e-05 -8.2786027633e-06 
-1.8882701625e-06 2.6383911518e-06 1.5092797412e-06 -1.7149153564e-06 -4.1265711843e-06 -5.6290082284e-06 -6.843488336e-06 -7.6015112427e-06 -7.2727966653e-06 
-6.3534589572e-06 -5.2630875871e-06 -2.7829507872e-06 3.8915965206e-07 4.2570750338e-06 7.8744233178e-06 3.292952897e-06 -2.3846823751e-06 -6.1447503867e-06 
-6.6923716986e-06 -6.0093952925e-06 -5.8225787143e-06 -3.9445344555e-06 1.1061304122e-06 8.3753193394e-06 1.5189281839e-05 1.9801211238e-05 2.2448210075e-05 
2.3651909942e-05 2.4404285796e-05 2.331687574e-05 1.9004424757e-05 1.1585030734e-05 2.1584075967e-06 -5.3879239204e-06 -9.8094014902e-06 -1.075493492e-05 
-3.726984005e-06 4.4670364332e-06 1.1724542674e-05 1.7583564841e-05 2.2585181796e-05 2.689581197e-05 2.8919432225e-05 2.5956313038e-05 1.9145936676e-05 
1.1123477634e-05 3.8782495722e-06 -1.0338827678e-06 8.3803442976e-06 6.0505190049e-06 -1.3151165149e-05 -1.0925651623e-05 -2.1949535949e-05 -1.856194649e-05 
-1.4447582544e-05 -1.1127659491e-05 -9.5234818218e-06 -8.6260452008e-06 -6.9978154897e-06 -4.5488877731e-06 -1.2903956303e-06 2.5424725436e-07 2.4856415166e-06 
4.2545912038e-06 6.0349025262e-06 8.0368581621e-06 1.1690121937e-05 1.6501449863e-05 2.558685992e-05 3.6433753849e-05 3.9737395127e-05 3.8763195334e-05 
3.46695997e-05 2.8044414648e-05 2.2523694497e-05 1.5680499928e-05 7.8445382314e-06 1.7731998092e-09 -6.6057036747e-06 -1.1426162018e-05 -1.5430176063e-05 
-2.0669907826e-05 -2.7405390938e-05 -2.9188962799e-05 -2.7648984542e-05 -2.4958719223e-05 -2.2038944735e-05 -1.9302868168e-05 -1.5583585991e-05 -1.2968996089e-05 
-1.1425154298e-05 -9.9082008092e-06 -8.1563903223e-06 -6.7997266342e-06 -5.0230096349e-06 4.2136076672e-07 8.9168606792e-06 1.7659220248e-05 2.5644298148e-05 
3.1834017136e-05 3.6400862882e-05 4.1643670556e-05 4.6285113058e-05 4.6691209718e-05 3.8721304009e-05 2.2024847567e-05 3.1336003303e-06 -8.6265708887e-06 
-1.7373293304e-05 -2.1848329197e-05 -7.611849469e-06 -9.0869380074e-06 -5.2263862926e-06 1.9563099158e-06 9.1543452072e-06 1.3955982467e-05 1.7504835341e-05 
1.9537330445e-05 2.1259989808e-05 2.2988208002e-05 2.2233096388e-05 1.6172110918e-05 9.7167239801e-06 5.233576303e-06 2.1222531359e-06 -1.5970613276e-06 
-4.6164386731e-06 -7.10630502e-06 -7.914816706e-06 -6.8828408075e-06 -3.6157780414e-06 2.6145485208e-06 5.3146295613e-06 2.9158049983e-06 -3.6351747212e-07 
-3.2337834455e-06 -5.3042363106e-06 -6.8420413299e-06 -8.241580872e-06 -9.0379298854e-06 -1.0814994312e-05 -1.0794470654e-05 -8.5745305114e-06 -5.2177733778e-06 
-1.9818221517e-06 3.7935274122e-07 1.2902859226e-06 6.215893336e-06 1.0593261322e-05 1.0436585399e-05 7.0627988862e-06 1.2128696198e-06 -1.0985511381e-06 
-1.3238402516e-06 -1.1971960703e-06 -4.5262049753e-07 2.5872625429e-06 8.1524249254e-06 1.5648391127e-05 2.2444675778e-05 2.6550218536e-05 2.7889678677e-05 
2.7512945962e-05 2.7471631256e-05 2.5523882869e-05 2.0825555112e-05 1.2624408555e-05 3.5725154248e-06 -2.5680474209e-06 -5.2502678045e-06 -4.8748693189e-06 
-3.2359025681e-06 -1.4273700799e-06 -3.6411729525e-06 -2.0208950446e-05 -1.7875752746e-05 -1.4387062038e-05 -1.0182114238e-05 -6.4961272983e-06 -3.148885753e-06 
-1.1002910014e-06 -1.5499784922e-06 -8.4194653027e-07 6.6623260864e-07 2.4171754376e-06 4.4221083044e-06 6.9387606345e-06 9.0272023954e-06 1.310789321e-05 
3.0937462725e-05 3.506226858e-05 3.5960681998e-05 3.3653894207e-05 2.8618904253e-05 2.0883295292e-05 1.2403241271e-05 5.5221462389e-06 -6.7693446226e-07 
-5.3768717407e-06 -9.7038346212e-06 -1.4563703189e-05 -2.0620616851e-05 -2.7231671993e-05 -2.9867342164e-05 -2.8667609513e-05 -2.5862118491e-05 -2.2902811907e-05 
-1.806374712e-05 -1.1989930499e-05 -8.0211830209e-06 -6.583889899e-06 -5.8783689383e-06 -3.8912912714e-06 -1.990097644e-06 -1.8815546809e-06 1.358115469e-06 
7.2262123467e-06 1.4483647647e-05 2.3639589926e-05 3.1983989174e-05 3.75040363e-05 4.1691837396e-05 4.148644075e-05 3.8777867303e-05 3.6979447032e-05 
2.9464457839e-05 1.5385239749e-05 3.901326636e-06 -7.1492363531e-06 -1.5827083189e-05 -2.0011242668e-05 2.3013490136e-05 1.579857053e-05 -3.7154202346e-06 
-8.5370925262e-07 4.113237992e-06 9.4427969088e-06 1.2544521269e-05 1.4413032659e-05 1.4890093553e-05 1.4726660083e-05 1.5116153918e-05 1.5666573745e-05 
1.295970651e-05 5.7238553381e-06 1.8258583623e-06 -5.326213568e-07 -1.7771914145e-06 -3.8926832531e-06 -4.3596055548e-06 -2.485095365e-06 1.3702231172e-06 
5.3948538152e-06 5.9873564169e-06 3.216181085e-06 6.1907383042e-07 -1.4802607211e-06 -3.4564468478e-06 -4.5774327191e-06 -7.4953400144e-06 -1.0601179383e-05 
-1.3078728443e-05 -1.4286399164e-05 -1.1214682672e-05 -8.2964379544e-06 -6.3887082433e-06 -4.5275996854e-06 -2.8268218557e-06 -2.1756427486e-06 2.0444501843e-06 
6.2408448684e-06 1.0100565305e-05 9.6725816547e-06 9.2375630629e-06 7.8642251538e-06 6.7099467742e-06 5.0412700148e-06 4.3234936129e-06 4.8004994824e-06 
7.5380080489e-06 1.2932427126e-05 2.0445784685e-05 2.6823892767e-05 3.0067729313e-05 2.999361277e-05 2.8633603506e-05 2.7398362363e-05 2.559816312e-05 
2.1441839635e-05 1.3827759176e-05 5.6662379393e-06 1.1302259963e-06 -3.0509139037e-07 -1.8399133239e-07 4.8217845006e-07 8.4922412213e-08 -1.6340586626e-06 
-1.8075081698e-06 -2.0629140636e-06 1.1132703548e-05 1.3043416402e-05 1.6798847355e-05 2.286563722e-05 2.6482433896e-05 2.9525428545e-05 3.1345050957e-05 
3.0601258914e-05 2.5912095225e-05 1.8138371161e-05 9.6804888017e-06 3.2917077988e-06 -1.2176381006e-06 -4.1288012653e-06 -7.4282634159e-06 -1.1954183719e-05 
-1.8616576199e-05 -2.5531966457e-05 -2.8203421607e-05 -2.7581694667e-05 -2.5051502234e-05 -2.0190271243e-05 -1.4041886971e-05 -8.502493074e-06 -4.7107000682e-06 
-3.3748440273e-06 -2.9377272313e-06 -3.4150286865e-07 1.8549268361e-06 1.6931925302e-06 3.5812993247e-06 7.5377593021e-06 1.4010272025e-05 2.3868306016e-05 
3.410654972e-05 4.0112619899e-05 4.2845429562e-05 4.2361894884e-05 3.9269041736e-05 3.8341451727e-05 3.346001904e-05 2.2361413357e-05 1.0815391761e-05 
-1.6202749293e-06 -1.1799882486e-05 -1.7678610675e-05 -1.989633347e-05 -1.9791646992e-05 -1.7479967937e-05 -1.378714569e-05 -9.9355511338e-06 -6.3323332142e-06 
-3.7308702758e-06 -3.467832812e-06 -3.9017904783e-06 -7.9374177631e-07 2.0686227344e-06 4.225120847e-06 5.5351824813e-06 7.9623714555e-06 1.0457210919e-05 
1.2370946024e-05 1.3711173779e-05 1.4604392163e-05 1.6388767108e-05 -1.058689918e-06 2.0651568775e-06 4.3971490413e-06 6.9177408477e-06 8.1177959146e-06 
8.2471306087e-06 7.9809778981e-06 8.4006069301e-06 8.9521399786e-06 9.8730979516e-06 1.2821767996e-05 1.5015668396e-05 1.3420225514e-05 8.6551262939e-06 
4.1644493649e-06 1.9033304852e-06 8.6965246737e-07 -5.5852069636e-07 -1.9640112896e-06 -6.4165823233e-07 1.0575895431e-06 4.7925550462e-06 7.0702753874e-06 
4.3011418711e-06 2.0910242711e-06 9.4551512575e-07 4.3275815642e-07 -2.186550546e-06 -5.9661324485e-06 -1.099601559e-05 -1.441214863e-05 -1.3248183677e-05 
-9.7027977972e-06 6.1098717197e-06 8.3548547991e-06 -1.5681975128e-05 -1.731780867e-05 -6.6310544753e-06 -5.9460394368e-06 -6.8856597863e-06 -2.6402071853e-06 
1.5567565015e-06 6.4633109105e-06 1.1016468306e-05 1.1146310499e-05 1.3249025869e-05 1.0984642358e-05 9.6722851595e-06 9.8576956589e-06 1.0864162505e-05 
1.3044835214e-05 1.7554988517e-05 2.3726888685e-05 2.9566142985e-05 3.1242747355e-05 2.9190068744e-05 2.6831725336e-05 2.5435467251e-05 2.3773007342e-05 
2.0350522391e-05 1.3989264517e-05 7.2903621913e-06 3.0616054119e-06 3.4386521293e-06 3.2657223983e-06 1.149546847e-06 -1.523572223e-06 -3.7263851027e-06 
-3.3051351238e-06 -2.3459524527e-06 2.0121495254e-05 2.265738658e-05 2.5207780709e-05 2.6858473575e-05 2.6098685339e-05 2.2302789148e-05 1.5469498976e-05 
8.6347199613e-06 3.3957380765e-06 4.8239026995e-08 -2.5206452392e-06 -4.8612364481e-06 -7.8271332313e-06 -2.2496586098e-05 -2.4576696887e-05 -2.3933976991e-05 
-2.1796182409e-05 -1.8062035451e-05 -1.1332916984e-05 -6.3877455432e-06 -3.3121373235e-06 -1.7658435354e-06 -1.0052629023e-06 1.6315244693e-06 4.4227108447e-06 
5.4780671235e-06 6.9816728683e-06 1.0574471162e-05 1.6950245481e-05 2.5569353966e-05 3.4320131817e-05 3.9149137592e-05 4.4034739403e-05 4.4225293095e-05 
4.2363786633e-05 3.9385959099e-05 3.5504082916e-05 2.6099307433e-05 1.5267585695e-05 2.5347485462e-06 -8.7600565166e-06 -1.6058014808e-05 -1.9214588974e-05 
-1.980601337e-05 -1.8127218937e-05 -1.5291685486e-05 -1.2329759556e-05 -9.4888218882e-06 -6.4410910454e-06 -5.0717235354e-06 -4.1079997573e-06 -1.4203186538e-06 
2.2170065677e-06 4.8703768698e-06 5.9997869357e-06 7.8055254562e-06 9.971050531e-06 1.1053164599e-05 1.3100348042e-05 1.3484032024e-05 1.3685797967e-05 
1.5031502699e-05 1.6459620383e-05 -1.6395630155e-05 -9.5046425486e-06 9.852187759e-06 1.2300125491e-05 1.5063108549e-05 1.5901448933e-05 1.6899501134e-05 
1.8560893295e-05 2.1601277695e-05 2.5531484425e-05 2.7658414183e-05 2.8378832212e-05 2.7272111765e-05 2.5582185117e-05 2.3236640118e-05 2.0991994461e-05 
1.7508038582e-05 1.3444107935e-05 6.7339469751e-06 9.1174661065e-06 -1.2613905938e-06 -5.6976261931e-07 1.4286955548e-06 2.1219523205e-06 1.5629301515e-06 
1.5845657799e-06 2.2248716505e-06 4.9810596465e-06 7.4889508141e-06 9.1383908511e-06 1.1881324099e-05 1.0708187801e-05 1.3463612959e-05 1.0260096133e-05 
4.6150353228e-06 3.3215430904e-06 2.8771833058e-06 7.8633337353e-07 8.5169077124e-08 8.4655181354e-07 3.1377903724e-06 5.7246379583e-06 7.7060567492e-06 
9.2830532594e-06 1.0415838915e-05 9.3769631349e-06 7.3790306487e-06 6.5573685788e-06 5.0692697187e-06 3.4098918604e-06 -8.6928812379e-06 -1.0522611774e-05 
-9.9655999293e-06 -7.9840365288e-06 -2.250150601e-06 4.6574368753e-06 1.8188962713e-05 1.9578998035e-05 2.0316138034e-05 2.0275034331e-05 1.7701142497e-05 
1.3395074347e-05 9.3025473689e-06 5.9239264374e-06 2.4238531751e-06 6.9011184678e-07 -1.0337055301e-06 -2.7578214485e-06 -1.8762391846e-05 -2.0394329113e-05 
-1.9749277271e-05 -1.726449409e-05 -1.4042566363e-05 -1.0087373994e-05 -6.2097055888e-06 -3.3918363442e-06 -8.8949292376e-07 7.8165703599e-07 1.9973158487e-06 
9.0276589617e-06 1.1429508959e-05 1.4930109501e-05 2.0141298592e-05 2.6361376513e-05 3.2067830034e-05 3.8491078158e-05 4.4091044401e-05 4.118704237e-05 
3.6054338125e-05 3.1189796573e-05 2.6089308449e-05 2.0258697987e-05 6.8014496719e-06 -4.3485952119e-06 -1.1413583707e-05 7.3091127888e-06 6.9811571848e-06 
1.320595311e-05 1.3142321222e-05 4.1521838284e-05 3.6426026782e-05 -1.6223706552e-05 -1.7450636733e-05 -1.6361911548e-05 -1.4552894754e-05 -1.398067343e-05 
-1.2900700312e-05 -1.0750511137e-05 -7.7601471276e-06 -4.9622385632e-06 -1.3686380953e-06 2.4624901016e-06 5.4914812608e-06 7.1323747761e-06 8.4395605882e-06 
9.9710805443e-06 1.0879538422e-05 1.1904694475e-05 1.2720772247e-05 1.2291809981e-05 1.1194625586e-05 -5.702731869e-06 -1.0401081454e-05 -1.4054442545e-05 
-1.6592661268e-05 -1.6747753762e-05 -1.7087810193e-05 -1.6361982489e-05 -1.2570218132e-05 -1.3314180251e-05 -1.3714890883e-05 -1.4270982319e-05 -1.5768624507e-05 
-1.3780157133e-05 -1.4894223568e-05 -1.3123940334e-05 -1.1658103176e-05 -9.5772829809e-06 -6.5305889621e-06 -3.9633737288e-06 1.2056756304e-07 7.6270985119e-06 
-1.0591622413e-05 -5.8783271015e-06 -1.3209564713e-06 2.9050077046e-06 5.8317236835e-06 7.8821831266e-06 9.0246721811e-06 1.0179893252e-05 1.1162970623e-05 
1.2018110283e-05 1.1817015547e-05 1.0231944543e-05 9.4296765383e-06 8.1227262854e-06 6.4858527367e-06 3.8026951188e-06 -1.0513950599e-08 1.6214722791e-06 
1.4923545677e-05 1.4229035514e-05 1.3067390682e-05 1.2534958842e-05 1.2146373592e-05 1.0848875718e-05 8.7860098574e-06 9.334880815e-06 1.956602091e-06 
3.7210329538e-06 6.2110216277e-06 8.4261855591e-06 9.5929381132e-06 1.0992016541e-05 7.4244831012e-06 3.3828985124e-06 2.9489353892e-06 2.9487664506e-06 
1.1415026165e-05 1.1676356735e-05 9.5815203167e-06 7.5931279753e-06 4.0706518121e-06 -1.0249959814e-06 -6.5462290877e-06 -1.123142556e-05 -1.223135132e-05 
-1.2309471458e-05 6.3974644036e-06 3.2602722513e-06 2.2687454475e-06 2.0222115893e-07 -9.9017042885e-06 -5.0884195844e-06 -4.676197932e-06 -3.8747757571e-06 
-3.6444635043e-06 -3.6551725771e-06 -3.9937285692e-06 -1.5683637685e-05 2.0028246581e-06 9.0710991572e-06 9.848396985e-06 1.2100182175e-05 1.5409545085e-05 
1.8587257728e-05 2.2635076675e-05 2.6942503609e-05 3.0381906981e-05 3.3910022466e-05 3.4257496736e-05 2.9581733543e-05 3.4798085835e-05 3.8546615542e-05 
4.0349292249e-05 3.6826968426e-05 3.1582996598e-05 2.6850713766e-05 2.2914799047e-05 1.7241194655e-05 1.0813572771e-05 3.5232633309e-06 3.4207039334e-06 
5.3589988056e-06 7.4484123616e-06 6.8170306804e-06 1.2266799786e-05 5.5832219914e-06 1.5852796423e-05 1.8435563106e-05 1.8282868041e-05 2.0608749765e-05 
2.1298725187e-05 2.183777724e-05 2.2999865905e-05 2.482428863e-05 2.536177999e-05 2.7015279557e-05 2.5921557608e-05 2.2557080229e-05 1.9058845282e-05 
1.6066012904e-05 1.273217822e-05 1.0524787285e-05 3.4662266444e-06 -1.4547639182e-07 -3.9581846067e-06 -6.4415985435e-06 1.1830161384e-05 1.4212616406e-05 
1.8450306015e-05 2.1416641175e-05 2.3263466574e-05 2.6735573556e-05 2.8959660995e-05 3.0866081943e-05 3.0340523153e-05 2.7389407478e-05 1.8323504264e-05 
3.4351614886e-05 3.2955889765e-05 2.8840289815e-05 2.2401054594e-05 -5.874987437e-06 1.2302046343e-05 2.5285600714e-05 7.7611712186e-06 5.5675636759e-06 
6.8231652222e-06 8.6815716713e-06 1.0318604836e-05 2.5109444323e-05 2.6992831408e-05 2.7861138733e-05 -6.8437398113e-06 -1.3067788132e-06 3.4354407035e-06 
6.5628587436e-06 8.9802788352e-06 1.0485340681e-05 2.6271747629e-05 2.5586186894e-05 -7.1142080742e-06 2.8917229429e-05 2.8508755349e-05 2.922422027e-05 
-8.8684237198e-06 2.8129163184e-05 -8.6175532488e-06 2.7785816201e-05 -9.2279942692e-06 2.5130198992e-05 -1.0126732377e-05 -1.1470565369e-05 -1.0264874618e-05 
-9.6451349236e-06 -9.0801950137e-06 2.2017704396e-05 -8.1616344687e-06 1.0018195098e-05 7.8795874288e-06 1.1339792763e-05 6.27172858e-06 9.8244909168e-06 
7.19467198e-06 7.7786498878e-06 3.9381616261e-06 -1.3879091512e-06 -1.4444545741e-05 -1.4590536921e-05 -1.2394071746e-05 -1.0249123989e-05 -1.2639808119e-05 
-1.40426082e-05 1.8959490262e-06 5.0830285545e-06 6.5495451054e-06 3.4186268749e-06 3.8442053665e-06 2.989475206e-06 -1.4543683164e-06 -4.0118866309e-06 
-4.7897469813e-06 -1.1268193703e-06 -5.9377016441e-06 -8.178412827e-06 3.3784734114e-05 3.2174910302e-05 
POINT_DATA 1116
FIELD FieldData 31
Circ_Strain_Pt 1 1116 double
0.984859908 0.9854855974 0.98817120629 0.98950405915 0.98833828695 0.99013306333 0.99528813402 0.99585063898 0.99866970398 
0.99804395052 0.99858409518 0.99901409136 0.99860677422 0.99928951983 0.99664830537 0.99663679788 0.99246576805 0.99227747779 
0.9923731836 0.99092009321 0.99329327715 0.99266825948 0.99495609826 0.99511116358 0.99570141901 0.99891904527 0.99554892974 
0.99922467625 0.99485503449 0.99931085134 0.99520097165 0.99872417891 0.99520167334 0.99734454115 0.99441433066 0.99505047597 
0.99420651711 0.99422384365 0.99464267011 0.99543243135 0.9960874775 0.9971145451 0.99786562521 0.99870465517 0.99791218381 
0.99816879142 0.99783966001 0.99753983957 0.99748017535 0.99708808764 0.99623500409 0.99462229473 0.99440193908 0.99260413387 
0.99405278175 0.99437118055 0.99491311124 0.99694359081 0.99708316545 0.99854071039 0.99898381535 0.99928937034 0.99947678442 
0.99941547336 0.99857901509 0.99873671873 0.99719049316 0.99753816888 0.99703698525 0.99732233291 0.99802551037 0.99810789524 
0.99874087823 0.9989537813 0.9991972547 0.99927429433 0.99932958825 0.99892373403 0.99841982097 0.99869653396 0.9979203092 
0.9986374942 0.99847304074 0.99886171323 0.99921619914 0.99893151104 0.99886772856 0.99868031876 0.99707452297 0.99817052232 
0.99648621482 0.99725913973 0.99653790512 0.99684425595 0.99714165106 0.99705359419 0.9982426022 0.9981100104 0.99903870601 
0.99887825568 0.99966265003 0.99948412618 0.99889207405 0.99929891871 0.99854201246 0.99925282353 0.99889581926 0.99919125348 
0.99776917607 0.99714884005 0.993837215 0.99447274116 0.99750681077 0.99731514762 0.99801450876 0.99840775067 0.99741048682 
0.9967653003 0.99788236228 0.99598931394 0.99833072682 0.99719020126 0.99868592888 0.9989592434 0.9977635035 0.99850004923 
0.99682227674 0.99755288147 0.99581118837 0.99701716932 0.99557214732 0.99696327004 0.99760237238 0.9979814113 0.99915501876 
0.99878846341 0.99940134293 0.99925449141 0.9987254987 0.99888012276 0.99673607362 0.99733713705 0.99523374291 0.99461544312 
0.99398737354 0.99099682067 0.99471279194 0.99106746221 0.99573583022 0.99234197896 0.99733451355 0.9965435997 0.99803331732 
0.9973783538 0.99811359644 0.99609005332 0.99748789074 0.99697283816 0.99608561793 0.99745423233 0.9933704023 0.9963684236 
0.99574897582 0.99690888095 0.99818971337 0.99897937331 0.9989211284 0.99846989158 0.99687763308 0.99739125899 0.99471219752 
0.99682250313 0.99269972502 0.99683416986 0.99515679813 0.99680383623 0.99684207364 0.99717219466 0.99714305459 0.99842061683 
0.99602529609 0.99721132387 0.99406796085 0.99464771182 0.99144046136 0.99102879073 0.9881302795 0.98814287993 0.98812259644 
0.98781361157 0.99324698194 0.99338293792 0.99743907581 0.9968085219 0.99891581019 0.99914260946 0.99738248419 0.9986086791 
0.99530386735 0.99452122102 0.99455151425 0.99390869431 0.99494065734 0.99603778382 0.99599145743 0.99750916137 0.99655770213 
0.99799021252 0.99669078299 0.99854478404 0.99669666522 0.99836426763 0.99702633297 0.99814052213 0.99818074507 0.99860550401 
0.9988825792 0.99855837462 0.99925254444 0.99788651663 0.99883304793 0.99760439979 0.99835757646 0.99764356083 0.99837733719 
0.99555480682 0.99807604995 0.99541869648 0.9912493661 0.99167381484 0.99338101416 0.99830061887 0.99885826071 0.99704719425 
0.99434932255 0.99294968452 0.99440531857 0.99668466603 0.99902129536 0.9986023556 0.9984563525 0.99838536767 0.99749120296 
0.99580822853 0.99469213281 0.99529530655 0.99753859162 0.99917985136 0.99929234946 0.99873677121 0.99809951598 0.99637578419 
0.99212782667 0.99086182784 0.99193617815 0.99564177706 0.99810017948 0.99942991836 0.99890915231 0.99808392612 0.99763690065 
0.9975880168 0.998077676 0.99896065455 0.99905751524 0.99912996846 0.99911356017 0.99937364839 0.99906019053 0.99857561545 
0.99810703965 0.99761456691 0.99677106819 0.99655667727 0.99731984922 0.99833175692 0.99925875789 0.99943627613 0.99825117816 
0.99739820525 0.99707723848 0.99601807248 0.99623937448 0.99186557151 0.9981186833 0.99739582339 0.9961454018 0.99659253778 
0.99850431734 0.99867604419 0.99826016949 0.99802426743 0.99821734167 0.99864080974 0.99880549165 0.99871696391 0.9982255918 
0.99802941495 0.99663580573 0.99469049023 0.9912466627 0.99142761898 0.99520338546 0.99652165446 0.99549145531 0.99683927869 
0.99843102454 0.99886114775 0.99862671254 0.99885354167 0.9995206329 0.99886982443 0.99835256841 0.99778838083 0.99651779041 
0.9960796674 0.99671767827 0.99725412028 0.99647523304 0.99454239853 0.99070857487 0.98994324503 0.99380097135 0.9984938919 
0.99923356719 0.99616734196 0.99421815068 0.99411852337 0.99718308221 0.99836377309 0.99867449205 0.99904896411 0.99911432136 
0.99907428296 0.9991359923 0.99885908799 0.99615898921 0.99482512101 0.99478229813 0.99239654169 0.99409749074 0.99499162718 
0.99312836988 0.99077531283 0.99626129534 0.99829393992 0.99903913323 0.99644684045 0.99430105223 0.99486164005 0.99729225447 
0.99822724114 0.9978469704 0.99821240398 0.99766570889 0.99685815046 0.99784502553 0.99728869086 0.9975032117 0.99868731611 
0.99918926203 0.99894121005 0.99863578505 0.99432629541 0.99712238308 0.99229943618 0.99177810796 0.99544233469 0.99778666986 
0.99940542899 0.9997146238 0.99941932516 0.99899576163 0.99852610323 0.99804432576 0.99809852886 0.9986120631 0.9993188269 
0.99953181112 0.99948766214 0.99937977096 0.99903937294 0.99839818267 0.99731779585 0.99767461378 0.9959112168 0.99663699572 
0.99515487695 0.99792422794 0.99912925014 0.99840399161 0.99723927998 0.99652093126 0.99694276738 0.99676909853 0.99713511311 
0.99665443193 0.99063912296 0.99812959999 0.9975608496 0.99713190218 0.99581523606 0.99429038983 0.99690276711 0.99493445349 
0.99667630063 0.99729640335 0.99783015446 0.99828142434 0.99868817392 0.9990874795 0.99871638839 0.99860915807 0.99801403272 
0.99695809988 0.99580849661 0.99461808896 0.99106174492 0.99074187812 0.99299632219 0.99469117254 0.99574121294 0.99644592397 
0.99801353904 0.99899847994 0.99941937268 0.99975938651 0.99964917511 0.99773843262 0.99794060347 0.9977526963 0.99675112066 
0.99497574574 0.9957692276 0.99676337331 0.99553795072 0.99279628618 0.9889244993 0.98930623789 0.99410244271 0.99759669722 
0.99941940858 0.99874171483 0.99620857872 0.995536785 0.99635008406 0.99752746118 0.99863885731 0.9991812615 0.99942440482 
0.99954165062 0.9995888759 0.99957410742 0.99948352004 0.99315895817 0.987780506 0.98878540041 0.99308338465 0.99858361895 
0.99846173657 0.99366795469 0.99408451282 0.99473852162 0.99327965787 0.99292481567 0.99459744723 0.99788536654 0.99884813615 
0.9977252627 0.99701794 0.99733390002 0.99672836443 0.99555945748 0.99533959877 0.99370467762 0.9928199286 0.99274823698 
0.99442926262 0.99730246015 0.99865023191 0.99902545357 0.99725155651 0.99815218016 0.99780331567 0.99727013119 0.99724748703 
0.99695919355 0.99615480535 0.99577460988 0.99572962088 0.99811978982 0.99950870284 0.99883705519 0.99844192866 0.99819966413 
0.99813788137 0.9983767744 0.99754973736 0.99731031877 0.99564600351 0.99615532947 0.99533511492 0.99435507095 0.99478084914 
0.99542257507 0.99696360757 0.99806768024 0.99867736655 0.9993398898 0.9993698417 0.99917735597 0.99902874531 0.99905842735 
0.99901425394 0.99899059141 0.99881241607 0.9989140856 0.99926841345 0.99923676116 0.99892023306 0.99803507989 0.99643664966 
0.99680547156 0.99629395033 0.99466886097 0.99475141375 0.99212817401 0.99448296587 0.99295907572 0.99926143497 0.99898617547 
0.99861664775 0.9990821079 0.99965790685 0.99920213012 0.99884351315 0.99677081571 0.99467336674 0.99308204051 0.99176441011 
0.99225902078 0.99220056387 0.99129959602 0.99757425188 0.99603832548 0.99703789175 0.99803599844 0.99914295991 0.99957812418 
0.99964208207 0.99943126367 0.9974964511 0.99617795931 0.99736533649 0.99862714656 0.99711279257 0.99608873401 0.99591839525 
0.99497997306 0.99353035659 0.9909991922 0.98801809369 0.99113635722 0.99542154872 0.99907084161 0.99880196142 0.99774192598 
0.99712400258 0.99688142813 0.99785740546 0.99853529357 0.99891792365 0.99912118071 0.99931103179 0.99946620897 0.99968274236 
0.99949783112 0.99611150139 0.98931787208 0.98617323675 0.98858132544 0.99246982198 0.99439752175 0.9986794191 0.99596734482 
0.99338140332 0.99541294048 0.99126626279 0.98965421331 0.99080280434 0.99321223138 0.99586245891 0.99814442491 0.99907847114 
0.99818700458 0.9971358066 0.99591887565 0.99362182088 0.98997423047 0.9923469967 0.98987831431 0.9921210837 0.99449358769 
0.9965116218 0.99790385504 0.99879581943 0.99897850178 0.99726838548 0.99633433616 0.99564187817 0.99568581747 0.99530473232 
0.99565849968 0.99623549737 0.99753373155 0.99870445279 0.99917907509 0.99837284561 0.99802977491 0.99811012303 0.99805278505 
0.99814936506 0.99877094559 0.9973000724 0.99721180587 0.99413436253 0.994162048 0.99435006148 0.99369518362 0.99298708826 
0.99364760956 0.99447355966 0.99740059427 0.99880081388 0.9990015044 0.99913647234 0.99930852523 0.99928555262 0.99912324716 
0.99924372283 0.99916569187 0.99913143094 0.99907092465 0.99928279446 0.99939515816 0.99903430469 0.9976300075 0.9969582687 
0.9976089992 0.99685090834 0.99577045086 0.99502518638 0.99466238028 0.99397824841 0.99331052448 0.99370680167 0.99350921069 
0.99733369886 0.99544629785 0.99795332906 0.9981259306 0.99807947449 0.99770985873 0.99802044228 0.99897469196 0.99971311013 
0.99953137974 0.9985503728 0.9976086964 0.99793309291 0.99838288171 0.99847156034 0.99690475 0.99672302504 0.99711450551 
0.99257698169 0.98774823086 0.9882747131 0.99078928641 0.99483557139 0.99832130911 0.99824785252 0.99654916793 0.99655018179 
0.99841433489 0.99837940308 0.99840618828 0.99785244643 0.99820629459 0.99910070394 0.99951220628 0.99976440999 0.99969433365 
0.99603484516 0.99033677398 0.98428063591 0.98266494359 0.98381682997 0.99383148622 0.99729782757 0.9980320547 0.99563964381 
0.99633284777 0.99760839856 0.9984198161 0.99811067312 0.9983691862 0.99866648392 0.99903754133 0.99937182681 0.99907918525 
0.99719835609 0.99399616134 0.99223283275 0.99226091364 0.99394989662 0.99508082456 0.99558260413 0.99597628311 0.99556275726 
0.99610618672 0.99603255572 0.99229166198 0.99258768398 0.99577712706 0.99926706551 0.99899495689 0.99875436512 0.99852459297 
0.99842863184 0.99818304609 0.99489257986 0.99456177184 0.99239089532 0.99378916668 0.9894852985 0.98957795707 0.99104388659 
0.99240362175 0.99481718673 0.99657495735 0.99735736425 0.99784546467 0.998370557 0.99856267754 0.99886698873 0.99527110574 
0.99638448006 0.99484549113 0.99411347549 0.993598493 0.99447763512 0.99669495998 0.99867724294 0.99920902391 0.997428415 
0.99765705922 0.99702403782 0.99691933958 0.9987459154 0.99913691098 0.99819449 0.99852508634 0.99817217066 0.99822139432 
0.99823658293 0.99494626931 0.99285098016 0.99294174059 0.99404363301 0.99301190129 0.99294532901 0.99665693414 0.99881613344 
0.99864074421 0.99875302822 0.99909462867 0.99906667192 0.99950340741 0.9995438329 0.99933561925 0.9991216607 0.99894281574 
0.99898340996 0.99879994923 0.99749657016 0.99777906985 0.99731104062 0.99715276108 0.99516870627 0.99532133624 0.99462109816 
0.99600272398 0.99436892436 0.99637487501 0.99680666613 0.9973213459 0.99780536138 0.99818733215 0.9993916217 0.99981065948 
0.99931258625 0.99820977079 0.99782188385 0.99805553775 0.99868308055 0.99939977307 0.99621373026 0.9979999383 0.99212892566 
0.98900869474 0.98742240253 0.993177983 0.99730413579 0.99848501598 0.99908335859 0.99935311347 0.99665337517 0.99483219638 
0.99774224667 0.9986087406 0.99841677008 0.99733846297 0.99738435586 0.99811108737 0.99879663376 0.99902356707 0.99932524241 
0.99952764292 0.99235316864 0.98625851505 0.98746498036 0.9894869325 0.99112618149 0.99418944812 0.9968205406 0.99746254146 
0.99824008854 0.99889718849 0.99842016661 0.99828745759 0.99798033586 0.99824025126 0.99818643512 0.99875502761 0.9991237282 
0.99766983425 0.99591175358 0.99448927437 0.99366444395 0.99378990959 0.9946586782 0.99575948905 0.99688923171 0.99681424996 
0.99660418853 0.99706955461 0.99609309203 0.99877603097 0.99940079295 0.99343825482 0.99486321123 0.99412718669 0.9924332979 
0.99523792181 0.99853404113 0.99798267256 0.99762299315 0.99773020782 0.9975426826 0.9992385083 0.99951721346 0.99937600791 
0.99915279731 0.99903945094 0.99930562196 0.99808285545 0.99730436011 0.99635255112 0.99367793076 0.99403800928 0.99617124203 
0.99856610179 0.99944000131 0.99944506243 0.9984916996 0.99733447007 0.99697729936 0.99701828565 0.9960171118 0.99405684452 
0.99620828562 0.99046262594 0.98963199286 0.99063890545 0.99510676298 0.99656909002 0.99755340958 0.99764909613 0.99740586771 
0.9976827485 0.99813156679 0.99807031619 0.99862978941 0.9973416503 0.99481888388 0.99256528385 0.99393224212 0.99581671571 
0.99523295602 0.99745014446 0.99757244329 0.99817447249 0.99684535131 0.99874135588 0.99687532098 0.99738351342 0.99744560389 
0.99702335326 0.99772202093 0.99926997061 0.99937789548 0.99779494317 0.99657568775 0.99738907022 0.99858966157 0.99868313574 
0.99534992224 0.99558612012 0.99425569109 0.99086093258 0.99037370434 0.99127312788 0.99446360374 0.99772309431 0.99857746838 
0.99723453998 0.99570120976 0.99576229395 0.99891405808 0.99705442511 0.99815094859 0.99743158091 0.99796794731 0.99913317413 
0.99922292424 0.99913361243 0.99727218153 0.9986606745 0.99461392296 0.99238316309 0.99323809008 0.9936889055 0.99420454822 
0.99797223696 0.99513677932 0.99546719705 0.99161404096 0.99339574402 0.99827872564 0.99832951034 0.99848485563 0.99798323472 
0.99785236382 0.99772176259 0.99835119334 0.99910253831 0.99940653206 0.99931251882 0.99899871194 0.99838246757 0.99692236732 
0.99567895563 0.99524612693 0.99508293317 0.99529989683 0.99605731411 0.99631086687 0.99695601639 0.99731990102 0.99719576318 
0.99610609334 0.99814277174 0.99831898715 0.99949100743 0.99949730492 0.99938391863 0.99827074786 0.99280313864 0.99391600236 
0.9929489607 0.99478540569 0.99608154948 0.99658036835 0.99731040692 0.99780182673 0.99646042486 0.99930825054 0.9990524412 
0.99871041369 0.9981893105 0.99752956772 0.99658470645 0.99560173583 0.99484342977 0.9961137329 0.99520312036 0.99455920045 
0.99458471495 0.99485454969 0.99535381734 0.99758136496 0.99717839735 0.99587998904 0.99634724482 0.99798614023 0.99884689888 
0.99845795283 0.99760283308 0.99768631231 0.99762135765 0.99760523592 0.99382159445 0.99439895184 0.99645453756 0.99599595376 
0.99464941299 0.99536970111 0.9965679331 0.99711103838 0.99734599508 0.9977832669 0.99823631808 0.99882105248 0.99625205652 
0.99691482695 0.998118908 0.99952727343 0.9980003799 0.99919225564 0.99341892452 0.99306628212 0.9933754913 0.99629323333 
0.99763354304 0.99571596611 0.99950844289 0.99753853245 0.99904525077 0.9986799667 0.99790089433 0.99704138376 0.99701529931 
0.99742385855 0.99857620954 0.99893334896 0.99824363003 0.99810954395 0.99812736857 0.99817899341 0.99866499251 0.99918600719 
0.99809455256 0.99703864583 0.99440127417 0.99451807607 0.99447849117 0.99470185327 0.99308327896 0.99238593691 0.99307772955 
0.99683022696 0.99885802037 0.99863562145 0.99806467131 0.99745104845 0.99909831631 0.99889190815 0.99895687638 0.99820247152 
0.99801902479 0.99826723999 0.99801346112 0.99731388368 0.99524765665 0.99770543204 0.99823772377 0.99905435195 0.99922451602 
0.99885232454 0.99872778025 0.9984848051 0.99690968345 0.99567283332 0.99809163361 0.99764062221 0.99697160567 0.99590967734 
0.99730337894 0.99869054754 0.99844196769 0.99705563417 0.99568764998 0.99495416935 0.99728459831 0.99765961211 0.99805587312 
0.99832714889 0.99735568449 0.99311377935 0.99234904128 0.99288674533 0.99394883686 0.99693159925 0.99815779597 0.99946669576 

Circumferential 3 1116 double
-0.21939288528 -0.073250276029 -0.96722531644 -0.27998789031 0.11452269865 -0.93838993113 -0.27590568855 0.11633190941 -0.94663862939 
-0.22388011498 -0.02776347361 -0.97204403288 -0.33372239385 0.27998796844 -0.89929633004 -0.31400873032 0.23269624386 -0.9173490125 
-0.36559194201 0.34804504458 -0.86093133284 -0.34189822837 0.32376124133 -0.87913254006 -0.38411128606 0.41499701901 -0.82293433155 
-0.36114346167 0.39936848854 -0.84031345918 -0.38965867113 0.48087520205 -0.78529489992 -0.37491998308 0.46871691294 -0.79914729677 
-0.40594431313 0.53040627245 -0.74266986174 -0.38032686225 0.52777778057 -0.75803570555 -0.42395500465 0.59152918389 -0.68142077444 
-0.39756086734 0.60150334877 -0.68639536775 -0.44356302291 0.66615738076 -0.59945204344 -0.42638712798 0.69859647495 -0.56632776635 
-0.46272473676 0.78085594164 -0.38701662543 -0.45464499202 0.81223638399 -0.34968320477 -0.46468619278 0.85045998632 -0.23335404909 
-0.4645558723 0.85494750105 -0.2248435176 -0.45242963647 0.88171864392 -0.13349709875 -0.46141389105 0.86992539574 -0.17296295813 
-0.43708698318 0.89194138113 -0.11442473542 -0.42610976964 0.88718824734 -0.17542045528 -0.40678666376 0.90828531483 -0.088863310771 
-0.39715695603 0.90662946124 -0.12958467573 -0.37051697523 0.92674504698 -0.061398002924 -0.3645185746 0.92795012716 -0.077348903501 
-0.3953988969 0.91548026622 -0.070315021115 -0.33986375372 0.93885128508 -0.022886769387 -0.39776773088 0.91182443098 -0.03712560366 
-0.32159639775 0.94252240927 0.054834696593 -0.34874754572 0.92553699285 0.092177170431 -0.31718084442 0.93008467628 0.16053751041 
-0.30585703465 0.90866917443 0.24398591562 -0.30432235443 0.89986435302 0.28747174514 -0.26977775165 0.85782076556 0.4208030544 
-0.27953813961 0.84486329715 0.44213117052 -0.21313034818 0.8101633969 0.53644192081 -0.23343570651 0.79967994422 0.54680159444 
-0.14931875409 0.76372345049 0.627763624 -0.17785294483 0.76076496453 0.6240941306 -0.10832309015 0.71735174956 0.68450537648 
-0.1170212451 0.71613736485 0.6845338938 -0.063130056941 0.65660953308 0.74667587976 -0.054778188713 0.65078253347 0.75171534877 
-0.0078223402767 0.56123771727 0.8219284095 0.0053595769446 0.56074991832 0.82475486491 0.060190094934 0.43026149658 0.88960823014 
0.060963371259 0.42603004261 0.89244521262 0.13665963945 0.27418744726 0.95143296892 0.11664901583 0.2516099472 0.9565254061 
0.19357231213 0.072583849799 0.96644435295 0.17987526436 0.040395823029 0.97672947009 0.23777825949 -0.08317635843 0.96453156885 
0.23506327467 -0.11748050387 0.96008088881 0.26822439393 -0.18929384254 0.94429200257 0.29330954473 -0.21648790049 0.93075334359 
0.31266716847 -0.22499962685 0.92187797591 0.32130952034 -0.25062595009 0.91245674436 0.35848259403 -0.27430932257 0.89012104792 
0.35192794645 -0.29177536945 0.88813255375 0.40499206287 -0.34052588053 0.84796860814 0.38643018554 -0.34566848571 0.85472039104 
0.44401433096 -0.45222045833 0.76690489401 0.41744662787 -0.4454153717 0.78690980236 0.47098064757 -0.55454375117 0.679316733 
0.43896498978 -0.54756977217 0.70710109035 0.48662992309 -0.64798739725 0.58587662997 0.44708274199 -0.64577645634 0.61695574298 
0.47265050135 -0.702567729 0.52857568184 0.44438095165 -0.70128033927 0.55455600669 0.45834583899 -0.75388434022 0.46703742192 
0.43615049504 -0.74783871556 0.49835013675 0.44363424447 -0.80111747382 0.40019755365 0.41630154458 -0.79479636482 0.43947170469 
0.40643465225 -0.85015617028 0.32637193305 0.39675335631 -0.83877839313 0.36677480927 0.37227819522 -0.89328905921 0.24285336797 
0.37470374907 -0.87968562258 0.28844327191 0.34987601189 -0.92480553353 0.14293156995 0.34744627872 -0.91655226771 0.19534744577 
0.34408777671 -0.93392375612 0.091552305469 0.3513403034 -0.92727569265 0.11456108669 0.32821881367 -0.94213871187 0.028593122418 
0.35403657154 -0.9316477548 0.018286473072 0.29633146665 -0.95322272423 -0.058074915573 0.33493459389 -0.9341057759 -0.11861858458 
0.24101704192 -0.93328423446 -0.23663810544 0.27298806083 -0.90874055824 -0.29667249586 0.17752375459 -0.88461130493 -0.4095586239 
0.1871959744 -0.85994391118 -0.45898300743 0.11409327042 -0.81206284527 -0.5680168248 0.10497720215 -0.78970502528 -0.60006935513 
0.079487040318 -0.72299063425 -0.67961599174 0.060340789134 -0.70710750809 -0.69973080887 0.055343918978 -0.65962387623 -0.74759302517 
0.057260513148 -0.63297131502 -0.76842986246 0.037109744641 -0.61077404265 -0.7909348492 0.073793796911 -0.56183965669 -0.82334993066 
0.050618124521 -0.56934684342 -0.81950139753 0.07235597172 -0.52095641237 -0.84953886518 0.052082737882 -0.52332328512 -0.84945438176 
0.055869080815 -0.4794747742 -0.87485448985 0.033388167448 -0.46960621606 -0.88172802009 -0.0015315853735 -0.42502300699 -0.90500467111 
-0.049000650129 -0.41333681513 -0.90536684753 -0.067666199832 -0.34523413993 -0.9337060209 -0.1386263241 -0.29982274718 -0.93186845851 
-0.14193653271 -0.21253483275 -0.95754278652 0.1157127793 0.18656407387 0.97508301636 0.067494384932 0.31445556662 0.94073737659 
0.062492106477 0.34580611726 0.93323700586 0.10403601926 0.22662861378 0.96658975533 0.016956248577 0.44155877193 0.89112028217 
0.018313088904 0.46201183298 0.88156097869 -0.034940885211 0.56245608127 0.82242830297 -0.030139485775 0.57342275487 0.81465306831 
-0.070763875515 0.64125824826 0.7593392119 -0.069162305679 0.65322042228 0.74927099933 -0.10183535071 0.70823178642 0.69818774421 
-0.10314668408 0.71946113216 0.68653999892 -0.12039895788 0.75142854642 0.64550672432 -0.12314999188 0.76213584366 0.63257201871 
-0.14146498647 0.79830217021 0.57981805984 -0.13804703216 0.80569299779 0.5740547489 -0.17182944233 0.85883818126 0.4657959549 
-0.15140983644 0.85618951454 0.48492056527 -0.19584897688 0.91164158537 0.35386796255 -0.16791782192 0.90619915684 0.38621974792 
-0.20121898785 0.94171666414 0.24809516111 -0.18096222999 0.93706917289 0.28575985593 -0.20726749818 0.9648227347 0.15921716473 
-0.19205692411 0.95918683957 0.20442606649 -0.21517190955 0.96886645928 0.11655157189 -0.19372921264 0.96778816407 0.15425254364 
-0.22656582735 0.97062018895 0.068467681949 -0.19846495607 0.97399687717 0.09474705022 -0.24293036525 0.96911194018 0.012665710064 
-0.2074299016 0.97648470887 0.022581060297 -0.24763007545 0.95096755065 -0.11819088446 -0.22453989999 0.96167462329 -0.097973197911 
-0.24620008042 0.92408109981 -0.28848764252 -0.25802019707 0.93034138156 -0.25386875289 -0.29345659894 0.82218502768 -0.45654730186 
-0.30112754504 0.82787035235 -0.43656401637 -0.32397644871 0.71725462609 -0.60979886737 -0.33082538622 0.71486702061 -0.61000714155 
-0.30068948938 0.61383105902 -0.72153085793 -0.32377003915 0.6062230416 -0.71863955378 -0.28967369026 0.50415658291 -0.80690373165 
-0.30562217989 0.50173780872 -0.80285341424 -0.28709237004 0.39018559697 -0.87415888782 -0.2815004413 0.39275708908 -0.8742682675 
-0.23411521458 0.31726593782 -0.91574146241 -0.22820890275 0.29240319967 -0.9251404534 -0.17952991401 0.21829421518 -0.95355224107 
-0.17393069207 0.21655908896 -0.95888742086 -0.12602976644 0.070243798364 -0.98671522541 -0.14476051352 0.1118976602 -0.98101199647 
-0.13561078868 0.0038537251794 -0.98989780914 -0.14135764402 0.018168655618 -0.9884695055 -0.14655079204 -0.039044654629 -0.98827650324 
-0.13418879721 -0.051868481308 -0.98916808216 -0.13744813413 -0.066371909261 -0.98823749691 -0.14706245381 -0.065522321407 -0.98678451918 
-0.17031226201 -0.13863707758 -0.97363539807 -0.15610333846 -0.14323581237 -0.97558785476 -0.16834718106 -0.25190417816 -0.94553407097 
-0.15203950967 -0.26242884519 -0.94656411403 -0.11736130057 -0.41239938618 -0.9018578749 -0.13069576311 -0.40956512652 -0.90164974338 
-0.052871046158 -0.55598727922 -0.8193629517 -0.072542885217 -0.52636380797 -0.84139216275 -0.0025296565262 -0.64490676088 -0.76376182305 
-0.013874426514 -0.60689594172 -0.79437353034 0.028473475019 -0.66520375215 -0.74607882057 0.026172409449 -0.61592961099 -0.78719506775 
0.067975085492 -0.58661980608 -0.80378247596 0.063165284981 -0.55908757276 -0.8249647297 0.10960372026 -0.5463538245 -0.82972405038 
0.097216021266 -0.55115738442 -0.82760891741 0.15282709124 -0.54011351303 -0.82759970591 0.12920854239 -0.5848182171 -0.80037306063 
0.17519028652 -0.68307754047 -0.6919353562 0.14216876672 -0.71717689508 -0.66436961114 0.19360973541 -0.81548857879 -0.51865765596 
0.16529920706 -0.84412773483 -0.48985074353 0.20590061984 -0.93150031862 -0.28692897518 0.20370823485 -0.93427929838 -0.27471066053 
0.20791252212 -0.96198912521 -0.15299552831 0.23222890669 -0.9590677292 -0.14010639859 0.23097522254 -0.96979455021 -0.060696862076 
0.2528497583 -0.96543241416 -0.056320251479 0.27886160857 -0.95993690701 -0.0040170507561 0.26590136817 -0.96385379583 -0.0093394298694 
0.31933926174 -0.93186346408 0.13823816424 0.29333544265 -0.94845116445 0.094190604217 0.35625937114 -0.87302516829 0.30019416237 
0.3406555849 -0.89648065619 0.26031317294 0.38823891828 -0.78727495035 0.47665026374 0.37706620523 -0.82001196439 0.42655747764 
0.38222501195 -0.67782756205 0.6155835582 0.39079160714 -0.73158305454 0.55020174959 0.36941514788 -0.60774263821 0.70173910496 
0.38859656092 -0.63472475204 0.66679538787 0.3505300997 -0.57284542842 0.74071446827 0.37291812622 -0.58036870628 0.72319599544 
0.32804340273 -0.50966240058 0.79223445099 0.36788305608 -0.51895373488 0.76866981903 0.31388794241 -0.43403458655 0.84151974115 
0.36211140717 -0.45329990781 0.81361116871 0.32101264671 -0.33265075563 0.8830227407 0.34561208408 -0.3728230435 0.85812881023 
0.31667488048 -0.26726109929 0.90940928316 0.33721420122 -0.29916872287 0.89232892319 0.30393184977 -0.22826545252 0.92471114545 
0.32142186489 -0.24672679686 0.91352742617 0.27026520911 -0.15293007672 0.94720133632 0.29391227646 -0.16385812006 0.9379166891 
0.23190761132 -0.071106623402 0.96920124232 0.26634371634 -0.089016213874 0.9583383211 0.18543698502 0.013821436432 0.98007049106 
0.18845749329 0.058412672695 0.97434775962 0.14715690117 0.099767806063 0.98151131375 0.12766109809 0.17069392442 0.97506099208 
-0.28327465511 0.19241458722 -0.93680648155 -0.2582686326 0.085901799247 -0.95990778602 -0.30931464209 0.29434521402 -0.90267607229 
-0.33687775237 0.400381323 -0.85028060211 -0.35961502911 0.48782305296 -0.79353335471 -0.37579130801 0.55788510873 -0.73825321723 
-0.40194730843 0.65186076592 -0.6293217518 -0.43632382069 0.76112797123 -0.47528455539 -0.44756820359 0.81771400116 -0.35217825196 
-0.44174781377 0.84845846302 -0.28866148146 -0.42223889531 0.86857320697 -0.25671068647 -0.39950772631 0.89555779377 -0.18857927427 
-0.37894449584 0.91590254976 -0.11615451122 -0.35664826143 0.93262816206 -0.04484297575 -0.34864943554 0.93270675346 0.040184654289 
-0.33377644296 0.93152629958 0.13576384505 -0.3246891908 0.90350366516 0.25687136017 -0.30509712083 0.86897040676 0.38484872991 
-0.25789443115 0.83357812658 0.48197170972 -0.19670554276 0.80845720797 0.55085848009 -0.13496995717 0.79149945798 0.59434237359 
-0.053468662359 0.74841654491 0.65709238812 -0.0034657567349 0.66269952743 0.74333262927 0.037273985787 0.55934111678 0.8258290252 
0.071274161093 0.40937213742 0.90225150208 0.11457216266 0.2067890232 0.96284491276 0.15438965661 -0.017312490952 0.98066979083 
0.20111728797 -0.1730084362 0.96059864075 0.25327177307 -0.26169060209 0.93083082145 0.3049093373 -0.28642787479 0.90770672552 
0.33879395356 -0.3133983999 0.88624961947 0.37332383427 -0.37250279353 0.84870258568 0.39762154261 -0.45634771864 0.79184938795 
0.41684379825 -0.55827097279 0.71491625001 0.41736993986 -0.63938163834 0.64234180009 0.41497001785 -0.71400112527 0.56268181781 
0.40811407285 -0.75627619246 0.51090620949 0.39919470201 -0.79218186129 0.45926218219 0.38551022023 -0.83227097828 0.39716582 
0.3537060606 -0.87784893772 0.32039047349 0.35531291863 -0.9004955341 0.24622759618 0.36546564591 -0.91529676171 0.15978280382 
0.36715577169 -0.92524229377 0.052748478705 0.36122652304 -0.92255130563 -0.11310281788 0.26647384309 -0.88960571332 -0.3536982332 
0.17216973621 -0.82323734332 -0.52598321773 0.086154753142 -0.74088932253 -0.66255447008 0.049772629634 -0.65988167166 -0.74509133957 
0.031806900599 -0.58707474376 -0.80597136712 0.030234647111 -0.52110341567 -0.85186199646 0.0089797959194 -0.45660120188 -0.88691156277 
-0.0087328022837 -0.38876950292 -0.91970173319 -0.054741690774 -0.32247387945 -0.94300783458 -0.1006085272 -0.25176486318 -0.95772117513 
-0.16552198926 -0.11986157897 -0.9757731954 -0.22539536026 0.0058337320966 -0.97388286854 0.03705127289 0.44974482153 0.89020810711 
0.059417032113 0.3697885288 0.92559111119 0.00266494345 0.53687377229 0.84201154903 -0.059176930668 0.6441058559 0.75738820697 
-0.10622541978 0.72871256244 0.67548163156 -0.13370977454 0.77805276382 0.6116583255 -0.15957405398 0.82594073632 0.53882430885 
-0.16047969574 0.86244508774 0.47671884194 -0.15870776636 0.89338300999 0.41763329006 -0.16360632303 0.9189970416 0.35291292198 
-0.16165608165 0.94036790983 0.29670269174 -0.14248583126 0.95712700193 0.24445668204 -0.13012089076 0.9728501533 0.17835399535 
-0.12666583682 0.98480580289 0.084645963343 -0.15663412157 0.98058268933 -0.049917884706 -0.21201531712 0.9532454352 -0.19820039249 
-0.2826840335 0.86623600791 -0.38862230287 -0.35583276543 0.71852842107 -0.58555177489 -0.35876991761 0.59620216681 -0.71346090543 
-0.3369087393 0.49249489009 -0.79817476056 -0.29840160903 0.36455237493 -0.8799229006 -0.25604586705 0.26377770057 -0.92690526713 
-0.20899094971 0.18619841471 -0.95878168344 -0.16911029718 0.13166856092 -0.97614520366 -0.17101695956 0.049614493466 -0.9827472145 
-0.17160009102 -0.010493265662 -0.98444576256 -0.18058713334 -0.078150514263 -0.98037628131 -0.18628365966 -0.14826244794 -0.96996616883 
-0.17649730812 -0.26445184388 -0.94580205547 -0.15478235986 -0.38664159251 -0.90652311169 -0.10707081566 -0.50274040102 -0.85422117896 
-0.05277483164 -0.57225045916 -0.8161603187 0.0023502677516 -0.58067696059 -0.81244868459 0.065000787025 -0.53237217181 -0.84203819987 
0.12868914096 -0.53160374834 -0.83532212094 0.17433840388 -0.58013227008 -0.79325706333 0.16536939433 -0.71164672001 -0.6727756817 
0.16944026081 -0.84732540056 -0.4799678657 0.19842763843 -0.94030923215 -0.26383459578 0.23072052951 -0.96657254866 -0.10169191013 
0.25017523714 -0.96766298938 -0.026102845934 0.26636857179 -0.96297726882 0.035530990986 0.30118894164 -0.92961018968 0.1744249201 
0.33623724219 -0.88023707549 0.32078209337 0.36362358192 -0.81452919019 0.44537126376 0.38654200631 -0.73784443202 0.54664794092 
0.40197380022 -0.66151879916 0.63062297145 0.3984074163 -0.59840529723 0.69368991302 0.3926896556 -0.54366587593 0.74058282408 
0.38449566739 -0.48257399418 0.7861281537 0.37312681383 -0.41779327673 0.82641723129 0.3686875083 -0.35948466834 0.85610153899 
0.37065640119 -0.31272033647 0.8737410971 0.36218610275 -0.23672541081 0.8976081463 0.34836846782 -0.14409177422 0.92562214779 
0.22418505003 0.045745936788 0.96497690268 0.1268491276 0.19854589039 0.96768388507 0.081594904207 0.29094868518 0.95155549489 
-0.2848996644 0.27372836029 -0.91672810023 -0.27095902061 0.16805127134 -0.94273680854 -0.30910818754 0.3830350311 -0.86421357943 
-0.33184636884 0.48726463055 -0.8050032984 -0.3461372045 0.5669810684 -0.74566551668 -0.36032561365 0.64706432044 -0.66641025074 
-0.37116471133 0.7238175736 -0.57715643266 -0.3807321512 0.7939728949 -0.46810638116 -0.36688916391 0.83557934347 -0.40378522956 
-0.36133348933 0.87258529682 -0.32386850751 -0.35883554677 0.90425612747 -0.22098325029 -0.3601992099 0.92450225214 -0.10644582709 
-0.35785379099 0.93140470365 0.0067848963401 -0.35666475158 0.92679369931 0.10772511707 -0.34199189322 0.91612834197 0.20435204765 
-0.32653468399 0.8956842415 0.29419778198 -0.3019187077 0.8747159664 0.37535784898 -0.26008459335 0.85209170388 0.44961447226 
-0.20916534564 0.82926865767 0.51282181868 -0.15414578081 0.811369212 0.55920428637 -0.11550170478 0.79540253344 0.58881756317 
0.040626911214 0.48824636556 0.86993243601 0.0074337889358 0.60154973832 0.79313450383 0.067195320563 0.30205076131 0.93605478609 
0.10183115078 0.10150197716 0.98189865414 0.14703359455 -0.095264620336 0.97648751361 0.1865346561 -0.2137251767 0.95563878052 
0.22308704447 -0.29451974764 0.92914069589 0.27027011398 -0.31931379163 0.90675557973 0.30883360457 -0.35157788869 0.88254520298 
0.34692487179 -0.38998020912 0.85182448218 0.37215784002 -0.45611873185 0.80659548075 0.38349017585 -0.53294365535 0.75202871295 
0.39412730882 -0.62794286823 0.66630376003 0.39568932636 -0.6982936637 0.59346758236 0.3842111851 -0.75223411995 0.53506344917 
0.37712129326 -0.78650193457 0.48721767012 0.3672775398 -0.82403772379 0.42941775636 0.36776117328 -0.84857405839 0.37987983238 
0.37095719054 -0.87392452612 0.30918715888 0.37881492446 -0.89473564967 0.22269119311 0.36654640765 -0.92164706851 0.10900824221 
0.38604086035 -0.91530336556 0.026556977892 0.18830233509 -0.79203855632 -0.56931089438 0.26085889202 -0.85602232634 -0.43331365245 
0.097444212017 -0.7053764784 -0.69902508148 0.0509577768 -0.61231008821 -0.78426346237 0.02357612977 -0.53734236355 -0.8413083139 
0.0083887344575 -0.48390266595 -0.8740303256 -0.032176832595 -0.40778949819 -0.90866188711 -0.091040420149 -0.30741119988 -0.94606326105 
-0.11980026721 -0.20279550541 -0.9697902545 -0.14628062739 -0.10210931302 -0.98118538961 -0.17374589742 -0.018558284744 -0.98433326659 
-0.1977689265 0.026593327256 -0.97865031613 -0.25155728259 0.069212359064 -0.96492674828 -0.038677836223 0.71360313043 0.69808281309 
-0.10479464897 0.72922517346 0.67007781867 0.3436899637 -0.90071621604 -0.23378785896 0.38023910968 -0.91616873715 -0.085488497671 
-0.0043958564635 0.56512152465 0.82083650965 0.035722591312 0.4742055987 0.87833355398 -0.066468375616 0.66324192875 0.73884631126 
-0.11385883084 0.73929035886 0.66336791424 -0.13402120289 0.78413379684 0.60176466075 -0.15103467877 0.82654801794 0.54111331306 
-0.15170839874 0.85962545234 0.48413877597 -0.14811569835 0.89172886521 0.42694838661 -0.13023582789 0.90945853478 0.39384740087 
-0.12775909152 0.92924318811 0.34404947632 -0.092741975865 0.94642768115 0.30367406326 -0.076463416268 0.96427810832 0.24086685215 
-0.084360854184 0.98440015705 0.13000946609 -0.12383895776 0.983332883 -0.015012677522 -0.20386109244 0.95832407973 -0.17531476413 
-0.27835440914 0.86978483361 -0.36118754303 -0.36709275101 0.67316981777 -0.6320241466 -0.36436319031 0.55923721958 -0.74334981171 
-0.33521618096 0.47748697279 -0.80761840479 -0.30295264834 0.38705410354 -0.86697435773 -0.26755071935 0.25595536247 -0.92288874534 
-0.22499326969 0.16623479824 -0.95890719959 -0.18417776675 0.11564946097 -0.97567103847 -0.17145825477 0.087055989199 -0.98116720235 
-0.17115603787 0.039391454278 -0.98337496665 -0.18078026042 -0.034900434172 -0.98243579855 -0.19657687142 -0.13161451354 -0.97117926281 
-0.1874567351 -0.25638432865 -0.94406863251 -0.16419000005 -0.37333472468 -0.91005554848 -0.12604683114 -0.47718148216 -0.86867854999 
-0.063449645503 -0.53325518234 -0.84203012286 -0.0066795510599 -0.52173424373 -0.85194103686 0.064030841171 -0.48805632405 -0.86835383324 
0.11510391057 -0.5259525475 -0.83985850518 0.13851842091 -0.62593702589 -0.76447640714 0.14649174654 -0.77788345926 -0.58803707558 
0.16140766523 -0.90344299046 -0.37947614893 0.20202767188 -0.95379665831 -0.20057688768 0.22763968351 -0.96610871922 -0.10963842884 
0.25069435831 -0.96625481158 -0.039790230485 0.27626755437 -0.95890973237 0.0481302784 0.30070550529 -0.93758160939 0.16058124745 
0.33223331053 -0.8929414618 0.28721874487 0.36952799619 -0.82495821947 0.42396510256 0.39194520962 -0.75805213308 0.5140343944 
0.40938788685 -0.68869194416 0.59659275061 0.41722845515 -0.61493538287 0.6672920527 0.41200655188 -0.56274069185 0.71513342673 
0.40349861769 -0.52059922174 0.75242017941 0.40289795508 -0.4793863438 0.77864727526 0.40349770577 -0.43575637647 0.80355168631 
0.40794777582 -0.38078933665 0.82866538045 0.37609264323 -0.28888594822 0.87555087648 0.30301872268 -0.13645786496 0.93792393605 
0.17622580223 0.079991665891 0.97129838647 0.080682146564 0.24401628948 0.96296384038 0.048080883874 0.34619752849 0.93547942848 
0.042526882494 0.41274369528 0.90846736112 0.33732290642 -0.88096004859 -0.29742544817 0.35823196138 -0.9138819099 -0.16777961685 
0.32346930631 -0.84626209422 -0.41672160594 0.23222697988 -0.77392170613 -0.56730608835 0.13700586095 -0.67187673609 -0.72173332488 
0.069367218364 -0.56055208544 -0.82354137624 0.037429775991 -0.5038812745 -0.86237028252 0.0099014335312 -0.46904204658 -0.88270767467 
-0.029945121653 -0.40982322233 -0.90902402897 -0.083969982063 -0.31709840463 -0.94387181494 -0.14647033978 -0.16744717461 -0.97037410943 
-0.18319429316 -0.024093580507 -0.9804047441 -0.18879581141 0.10031930366 -0.9762546854 -0.18424765844 0.067063302008 -0.97986640128 
-0.20243860803 0.053388626739 -0.97684334052 -0.23528541029 0.099416161487 -0.96578922431 -0.2620307856 0.21506726418 -0.93347527738 
-0.28479956719 0.36421389104 -0.8833323968 -0.30552065796 0.48231447959 -0.81750288163 -0.31983135916 0.57466068272 -0.75062709422 
-0.3190475332 0.6485658694 -0.68760899732 -0.32556750451 0.72497317169 -0.60414042065 -0.31360825725 0.78067587828 -0.53719777224 
-0.31394473751 0.8371550741 -0.44279442353 -0.3262386565 0.88160611189 -0.33097103987 -0.34542447636 0.91186066261 -0.20399851965 
-0.3589678971 0.92439476886 -0.068528790384 -0.36589751185 0.92605832748 0.055122415191 -0.35724629876 0.91813168046 0.15010333137 
-0.34939454964 0.90189208524 0.25333816165 -0.32811586279 0.8951329044 0.29928120372 -0.3016699322 0.8929276457 0.33309816804 
-0.25359205306 0.88564852519 0.38583130696 -0.21636246648 0.86665707038 0.44507724377 -0.17798522042 0.83646894059 0.5114478011 
-0.15374490211 0.81235937386 0.56111441484 -0.13695574017 0.78229470505 0.60188621577 -0.10274039845 0.70065274486 0.70392570694 
-0.13320713445 0.71118898157 0.68556374435 -0.059578558808 0.62765584901 0.7708278321 -0.0095860239929 0.542918082 0.83090472861 
0.024378355742 0.44838774522 0.88702014983 0.05184304352 0.27416768726 0.95060387107 0.092123308715 0.077066439769 0.98632469441 
0.13437544262 -0.080886015081 0.98363391533 0.16979359071 -0.20078976084 0.96066669649 0.20903695939 -0.28840348887 0.93401149458 
0.25036714334 -0.33195463615 0.90755688344 0.28535343619 -0.3794488984 0.87931953924 0.30897523261 -0.42012695139 0.85252654534 
0.33701070936 -0.45985710739 0.82025140694 0.35688182018 -0.50766928629 0.78338073787 0.36486200117 -0.57966744892 0.72633754074 
0.3720422528 -0.64457829764 0.66437462401 0.37608129278 -0.70864948462 0.59649508636 0.36708043538 -0.76011517891 0.53285616097 
0.36471569278 -0.80064101286 0.47376831875 0.36942393202 -0.82716117021 0.42337334619 0.38327482573 -0.84491951027 0.37052309901 
0.39524692617 -0.86454986766 0.30115501876 0.40495166492 -0.88781894339 0.20509060853 0.39377803653 -0.9139803111 0.076734700544 
0.38809410212 -0.91421372529 0.02916351215 0.36455225596 -0.92246998141 -0.081041619145 0.33958610671 -0.90047697246 -0.23246697254 
0.31629371442 -0.91501862248 -0.23098986635 0.3152753552 -0.88324188762 -0.31802828747 -0.072215915025 0.68052121306 0.72282728212 
-0.0063856445122 0.57112872584 0.81548232015 -0.12659595205 0.76208323487 0.63409853787 -0.14660357861 0.80602351202 0.56839795683 
-0.16445976794 0.84841953699 0.5015084452 -0.16253091484 0.87708761177 0.4499040977 -0.14659807214 0.89865117829 0.41324666337 
-0.11885615616 0.9073410217 0.40215679524 -0.094232957368 0.91753544192 0.38518098775 -0.079585411219 0.93797682277 0.33212632319 
-0.077488565447 0.95739122644 0.27479924286 -0.12367792112 0.97246933529 0.1430761806 -0.17676859965 0.97974772213 -0.010221009909 
-0.25110932107 0.93564125798 -0.18823204548 -0.30711096621 0.87125267178 -0.3565621139 -0.33038790732 0.7925374328 -0.49457364603 
-0.33172888389 0.42384866062 -0.837539467 -0.35659064429 0.51173744171 -0.77854002225 -0.31144406678 0.31243528976 -0.89434341188 
-0.27944821663 0.1992699801 -0.93533272402 -0.24422577302 0.12570058082 -0.96111981407 -0.22024411912 0.099519158262 -0.97021937556 
-0.20051059002 0.060309361814 -0.97728032866 -0.18231116102 0.018281188811 -0.98283809067 -0.17131679435 -0.028384080731 -0.98444235831 
-0.17447492481 -0.14558254195 -0.97194531261 -0.16764438306 -0.28927723432 -0.93805931626 -0.14865082586 -0.40325875813 -0.9018151095 
-0.11294456204 -0.48606890351 -0.86581550997 -0.060036976834 -0.4778311858 -0.87471008544 -0.00073921686674 -0.45887747834 -0.88733961548 
0.057698376772 -0.46935753361 -0.87999095208 0.09621948412 -0.52554829323 -0.84155806835 0.11137237557 -0.66102577161 -0.73439725009 
0.12126488277 -0.81669455996 -0.5436495211 0.14668219749 -0.93062973098 -0.31722136023 0.19079822584 -0.96271013674 -0.17725589151 
0.22640838999 -0.96884628705 -0.082011933485 0.26260864846 -0.96352672031 -0.020129389714 0.28402422613 -0.9547492673 0.070545137378 
0.30894025654 -0.92562543677 0.19300756764 0.33797884133 -0.87904642708 0.3305474708 0.36556883847 -0.81309934421 0.44492995095 
0.38688498268 -0.73901767125 0.5475118735 0.40365981856 -0.66196126818 0.63112762293 0.40760636095 -0.59541322314 0.68978938157 
0.40958514127 -0.54594238143 0.73036103589 0.40128282777 -0.51822971559 0.75510262519 0.39096130308 -0.5058784513 0.76865261276 
0.38631825471 -0.47563980382 0.78987877996 0.3815787865 -0.43433441503 0.81490588153 0.35068947803 -0.31795053504 0.86879835709 
0.26670958198 -0.13312342333 0.94609796917 0.14211300955 0.10579130772 0.96603348881 0.054718089572 0.29999426624 0.95095314389 
0.046518658441 0.37048203696 0.92688564277 0.042483082607 0.41956876956 0.90622983861 0.039088830788 0.46546843631 0.88277469282 
-0.34802407861 0.62041279535 -0.68905552857 -0.3282280907 0.66050275431 -0.66784814374 0.28344035889 -0.85640769008 -0.4219566451 
0.2291471598 -0.77014627651 -0.5786269059 0.14896123497 -0.6463436155 -0.74390203147 0.080237701705 -0.55833675729 -0.82013196711 
0.038329743726 -0.49877643714 -0.86560481673 0.015709669864 -0.47634590507 -0.87864758444 -0.014268881291 -0.42981861997 -0.90137415928 
-0.043555353844 -0.36458799335 -0.92962441817 -0.087742069774 -0.21981614279 -0.9670822201 -0.13699786563 -0.050519807099 -0.9831408804 
-0.1989677485 0.14960529168 -0.96745996838 -0.15615797575 0.05803821344 -0.9849806631 -0.14073907595 0.084387034202 -0.98592035997 
-0.20923054634 0.15161363817 -0.96527679192 -0.24186734286 0.25874152369 -0.92696938271 -0.26753784126 0.35394486129 -0.8915880466 
-0.28020108728 0.44213417524 -0.84703401489 -0.27993593027 0.53538139884 -0.79263418921 -0.26773602251 0.61724303215 -0.7366737967 
-0.26187455286 0.68429553147 -0.6801791569 -0.26076645061 0.75841133281 -0.5942628401 -0.27790804465 0.83544654591 -0.46225602166 
-0.30164643893 0.89124367374 -0.32805225634 -0.34156019875 0.91674841147 -0.17236380059 -0.37041267772 0.92511601972 -0.019595418967 
-0.38152281613 0.90751947058 0.13102632367 -0.3746894595 0.89081162292 0.24890336918 -0.34641961623 0.88272206934 0.31189722647 
-0.31567615658 0.88500531631 0.34053228382 -0.27415086014 0.89534163186 0.35083564336 -0.23336085112 0.90013461216 0.36602325584 
-0.20895058466 0.88071585801 0.42006299575 -0.19603767632 0.85454081726 0.47620515164 -0.16862831505 0.84552365651 0.50355185419 
-0.1528858855 0.79398266367 0.58696419842 -0.14520711372 0.74971462351 0.63951229405 -0.12726107961 0.65065387301 0.74414457949 
-0.11817569446 0.66114820954 0.73819129446 -0.085414964451 0.59898352842 0.78784819244 -0.056640759257 0.57246006627 0.81225923508 
-0.029100436544 0.52997680992 0.8430030612 -0.0066194838074 0.44505846058 0.88422966448 0.030413739912 0.2937196984 0.94465952778 
0.061864556007 0.1119206835 0.98349874958 0.08708518742 -0.062722644347 0.99302887137 0.144402043 -0.2092751104 0.96236908603 
0.18955563566 -0.30450850981 0.93270340249 0.22267315107 -0.37235625399 0.89917452179 0.25663986113 -0.43466935348 0.86230566639 
0.28014516185 -0.47475403198 0.83346564166 0.30629493794 -0.5110776284 0.80185512697 0.33418710563 -0.54690056342 0.76749389309 
0.34209306021 -0.58694802382 0.73239182662 0.34965145165 -0.63411590727 0.68882038585 0.35232717785 -0.69263013255 0.62768562126 
0.35971701406 -0.74347610553 0.56163487708 0.36934339714 -0.78847856784 0.48978649112 0.38107174456 -0.81532409074 0.43527222649 
0.39791719617 -0.83896113217 0.36787104562 0.39779146452 -0.87083173801 0.28368148714 0.39520086207 -0.89091348176 0.19865763781 
0.39601131836 -0.89305009316 0.20463911346 0.37676950807 -0.9189537949 0.089198816872 0.35481257062 -0.93031601447 0.005363475856 
0.33950672545 -0.93619996578 -0.071917488829 0.29094955486 -0.88980386665 -0.32955908101 0.29137839483 -0.91516814528 -0.25460570504 
0.29585849781 -0.87062997909 -0.37766897911 -0.16686449334 0.17662827411 -0.96833980139 -0.20824999542 0.21609470047 -0.95356041632 
-0.33109599476 0.53418483033 -0.77352754468 -0.32013662583 0.65335351129 -0.67785674704 -0.31823781305 0.45895813824 -0.82521654535 
-0.29298669856 0.38804412271 -0.8698568144 -0.27386703297 0.30265534264 -0.91051914203 -0.26531822596 0.21761485703 -0.93696547448 
-0.24427455312 0.1470359276 -0.95722750529 -0.21976997583 0.093286364071 -0.97091762587 -0.20178275663 0.064085410416 -0.97716583438 
-0.17447365463 0.028482163528 -0.98391571667 -0.16328524309 -0.018382539246 -0.98596562966 -0.14312692003 -0.11721874178 -0.98121055289 
-0.12365143112 -0.260306567 -0.9538739336 -0.086529406459 -0.37753805895 -0.92037688946 -0.058745119676 -0.4378444922 -0.89670815694 
-0.035052746588 -0.4482675105 -0.89261114142 0.0025603172295 -0.44817145616 -0.89270839256 0.047244743718 -0.44109593225 -0.89569236632 
0.07093280114 -0.53236413692 -0.83442092878 0.085577416698 -0.65636408322 -0.74713405714 0.10120116692 -0.81524559772 -0.53899622626 
0.12804793371 -0.92330163321 -0.34594999249 0.17523913301 -0.95806249258 -0.207189264 0.21842183457 -0.96670153343 -0.11940902427 
0.26547830495 -0.96291083679 -0.031106411487 0.28859792459 -0.94393915072 0.12392018417 0.31715307576 -0.90607210857 0.26062201377 
0.33808872459 -0.85203999469 0.39860560391 0.36229526861 -0.79681831154 0.47742540294 0.38418479827 -0.73613771132 0.55461433597 
0.3907435941 -0.66638080647 0.63296553234 0.3892258648 -0.60269555117 0.69500988777 0.38706744056 -0.54716403794 0.74150461539 
0.38385016359 -0.52143818299 0.76191153335 0.37026088099 -0.50767881183 0.7776740856 0.35792957036 -0.49037428716 0.79444662585 
0.34636262504 -0.47055272625 0.81115201364 0.3328771952 -0.39775179344 0.84867182518 0.31671683547 -0.28525339543 0.90136687915 
0.20129182066 -0.0087266154838 0.95306691698 0.10465422508 0.22354057118 0.96371771921 0.031217192276 0.37900755979 0.92383751809 
0.046554227665 0.409348617 0.91088720435 0.056669984543 0.44599273806 0.89077881254 0.019962126139 0.54581253864 0.83473712417 
-0.026451317507 0.65609544469 0.7464774498 -0.068684205053 0.7484330175 0.65868610167 -0.10736558719 0.80056300621 0.58464907546 
-0.1426938329 0.85222890715 0.50276728095 -0.15862388974 0.87775957739 0.44798436361 -0.16969810136 0.90059678943 0.39968277192 
-0.14594732501 0.91061967488 0.38533587893 -0.12450272221 0.91920551281 0.37308890953 -0.11508887567 0.93007291574 0.34714761256 
-0.12561979703 0.94141143765 0.30866333498 -0.16456561507 0.96078378562 0.20816760872 -0.20742845303 0.97177136959 0.068273626311 
-0.26922864496 0.94462865293 -0.12701997396 -0.30875175183 0.8863607395 -0.33235054898 -0.3192478291 0.79543912568 -0.48951303884 
-0.32090890486 0.77994220023 -0.53251059077 -0.29990887736 0.71320434649 -0.62440216571 -0.29947043243 0.60307938089 -0.73505374548 
-0.28513445307 0.66380453912 -0.68288725283 -0.32011221722 0.5647030691 -0.75731715004 0.236780193 -0.78317565909 -0.56099894615 
0.14915483194 -0.66481401197 -0.72197676463 0.073309647956 -0.56717718583 -0.81435922919 0.01472769671 -0.48859631912 -0.87217529756 
-0.0045871916142 -0.44703301999 -0.89345990405 -0.017836017515 -0.4052430214 -0.91329841701 -0.024372489441 -0.35218593903 -0.93462044353 
-0.037631064483 -0.26706245429 -0.96081923178 -0.055823161277 -0.16309930282 -0.98137720973 -0.088585287338 -0.026303372035 -0.9907053387 
-0.13493208435 0.12850044683 -0.97711419927 -0.17347528323 0.22839728003 -0.95697318442 -0.17583471982 0.21395376535 -0.95852145813 
-0.13135804294 0.13504145544 -0.9786489874 -0.11715867011 0.074016443526 -0.98996300624 -0.13610354997 0.072637082276 -0.98747038527 
-0.16525491171 0.13015277862 -0.97154030416 -0.22043599586 0.26967300355 -0.93169631384 -0.26442833116 0.36651035814 -0.88827262164 
-0.25622424423 0.41440355629 -0.8712682065 -0.23941945964 0.48435203683 -0.83596683016 -0.22252195068 0.56255219253 -0.79239332811 
-0.21184126558 0.62523658542 -0.74763655974 -0.2098960281 0.68617926693 -0.6943173524 -0.28860998903 0.88069265145 -0.34372286463 
-0.24495094566 0.82753412711 -0.49889273186 -0.34154408504 0.92121952085 -0.16773832541 -0.36111750381 0.92154743974 -0.011848508687 
-0.37138060885 0.91503287202 0.11109228385 -0.36196161392 0.90324488677 0.22202770315 -0.33863530965 0.88048252341 0.32815591955 
-0.32264261593 0.87262118105 0.36611819196 -0.281517577 0.88406794837 0.36925840948 -0.17435716306 0.85534851332 0.48060021744 
-0.18699780943 0.89350175499 0.40663000995 -0.23370916433 0.77658232245 -0.58119596796 -0.23388851512 0.73654360996 -0.63137183566 
-0.21375589854 0.90134292252 0.37507225114 -0.2441226059 0.89870925178 0.3622910939 -0.10727706893 0.74657926897 0.65424833889 
-0.16532897688 0.83811968568 0.51510425077 -0.098879355646 0.7157805442 0.68625562051 -0.091632544746 0.62856563617 0.76921155851 
-0.069747057844 0.65909178341 0.74715557305 -0.077538173187 0.54061810559 0.83024940217 -0.069221348127 0.54268723329 0.83528524172 
-0.01570445641 0.39625820838 0.91348393573 0.017325560509 0.30935068584 0.94512717011 0.075949779097 0.15419349834 0.97334589769 
0.10203393631 -0.14282161189 0.97991080394 0.13074871875 -0.27073249177 0.94890702608 0.16713135147 -0.34607624642 0.92225559491 
0.19427434364 -0.39375471509 0.89656374114 0.22367416713 -0.44567960197 0.86489864916 0.25309243946 -0.50302186911 0.82491441378 
0.2769572651 -0.54846648791 0.78771236513 0.305607526 -0.56754448866 0.76417304954 0.31742690907 -0.59602270394 0.73723857211 
0.32698307075 -0.6220107487 0.71027608253 0.33437197652 -0.66567369677 0.66661336233 0.34612955385 -0.71825294607 0.60013551196 
0.36239683044 -0.76771460074 0.52587335505 0.38989079607 -0.8034661805 0.44897563872 0.40716284649 -0.84602619485 0.33622993491 
0.40831992976 -0.87075298198 0.26320674106 0.3807511103 -0.90405725445 0.17345279996 0.35760555575 -0.92631059501 0.094340192946 
0.31734135987 -0.93795112467 -0.057714020387 0.26099337013 -0.95026025927 -0.14592618885 0.22364593503 -0.8681042359 -0.42885031013 
0.19981281011 -0.93367784973 -0.25630820469 0.25478825905 -0.84699065629 -0.45377445556 -0.31074952777 0.50686928671 -0.79658636647 
-0.29764048741 0.42887587764 -0.84958626218 -0.27191763762 0.34122699372 -0.89608328265 -0.24700572369 0.24470879423 -0.93602098018 
-0.23041786075 0.14641699661 -0.9603123133 -0.21125789954 0.088086541764 -0.97330169936 -0.19100883343 0.066438368998 -0.97903736495 
-0.16604983444 0.051158164933 -0.98464446518 -0.14074434606 0.031559993914 -0.98876204866 -0.10792050825 -0.068101270399 -0.99096900987 
-0.075979960081 -0.19224098172 -0.97372095584 -0.043361887298 -0.29926300503 -0.95217294176 -0.017283611306 -0.36323688416 -0.93079203399 
0.0033013751119 -0.42034774356 -0.90682250558 -0.0094691751325 -0.40878918445 -0.91251974262 0.026714500238 -0.46914607258 -0.88222257145 
0.031387805797 -0.62463040349 -0.75903982861 0.042544275604 -0.78750090864 -0.60998176375 0.07463512094 -0.88322516282 -0.42986712387 
0.11387899261 -0.94993257095 -0.28226310914 0.16204210877 -0.96439939531 -0.19510423827 0.21756935911 -0.96553132655 -0.12283244781 
0.27581036863 -0.95894405506 -0.058795093572 0.31041694392 -0.94504633068 0.06475947514 0.34381298061 -0.88733716931 0.29650518128 
0.36995810509 -0.83553500701 0.40388507014 0.37978213558 -0.79124107218 0.47577518002 0.38117496241 -0.74445532471 0.54360311743 
0.37614879518 -0.68546150061 0.62177280093 0.37391307627 -0.60705877481 0.69734876309 0.37005311222 -0.54861258734 0.74962466096 
0.36063357694 -0.53388796199 0.76459637033 0.33852011243 -0.54495086325 0.76674463481 0.33478332727 -0.51523133384 0.78838339957 
0.32289998095 -0.47395729548 0.8189317128 0.29305557426 -0.41403721492 0.85774143525 0.24505232449 -0.24107188423 0.93358228452 
0.1776640452 0.0050660809344 0.96711940556 0.089576872469 0.24683986531 0.96225204726 0.037921933444 0.3547756881 0.93275694693 
0.024227401144 0.41325433909 0.90891333043 0.012909774576 0.48237200127 0.87261664451 -0.014514188875 0.59262117303 0.80133609854 
-0.026902892927 0.67089856398 0.73811145705 -0.030556430216 0.72407188233 0.68823422563 -0.068897801889 0.78312026016 0.61356784408 
-0.09689112272 0.85011495152 0.5158424267 -0.13093150976 0.88632198861 0.44029574503 -0.16582014033 0.90596664142 0.38894024333 
-0.1813632847 0.91295426371 0.36327206756 -0.17791788662 0.92268739976 0.34097879867 -0.19211044917 0.92808321452 0.31472019063 
-0.20597359871 0.93742716412 0.27953955278 -0.24132770506 0.94525012274 0.19174906711 -0.27872044157 0.9545553839 0.083993893693 
-0.29777223715 0.94025321051 -0.074922192835 -0.31980160999 0.91969528421 -0.21493121236 -0.32202914086 0.87103381726 -0.33857459018 
-0.30218232693 0.81144942326 -0.48428114506 -0.29722473497 0.79128325232 -0.53147824062 -0.29177088059 0.73588587967 -0.60121032929 
-0.28205160316 0.62351291254 -0.72474249846 -0.25837092095 0.64095301493 -0.71446238222 -0.27403913742 0.51601893164 -0.80589209531 
-0.0053946224388 -0.39235767383 -0.91964441462 0.0014937855938 -0.36228265196 -0.93173994291 -0.0015412367503 0.36895543338 0.92116218604 
0.051172784828 0.26991634037 0.95908431751 0.18164118777 -0.29458420107 0.93547694467 0.18405522535 -0.2113217163 0.95570167175 
0.18785940158 -0.3505427459 0.91553980997 0.20655203748 -0.40449083658 0.88950782416 0.22183369249 -0.47855067465 0.84647141757 
0.23945837167 -0.54446029123 0.80185746032 0.25978732863 -0.58438922724 0.76780869066 0.28283188413 -0.61413990855 0.73653350173 
0.29901900296 -0.59089858724 0.74911015573 0.31312393177 -0.59921249885 0.73629286139 0.32703379484 -0.62625893815 0.70739605262 
0.34583909069 -0.67136451277 0.65215207951 0.36710225141 -0.72454938593 0.58001375282 0.38591800692 -0.77706471906 0.49503462302 
0.40052550947 -0.81467340754 0.41414999318 0.40018962511 -0.8688579226 0.27836327244 0.39798376161 -0.86238996601 0.29898768065 
0.19172749967 -0.7704278261 -0.58964188501 0.10436904705 -0.64543902454 -0.74455875261 0.029485346597 -0.5094218187 -0.85771005463 
-0.0023775080779 -0.42587523268 -0.90416375167 -0.0067618484971 -0.37035318437 -0.92873085778 -0.0052191473848 -0.32639215139 -0.94466741916 
-0.016748262834 -0.25069572013 -0.96608155771 -0.019701806295 -0.19075631098 -0.98078368021 -0.037817574217 -0.11634934488 -0.98937662195 
-0.055247268724 -0.049081493253 -0.99416957257 -0.094588705787 0.054147007067 -0.98718971644 -0.13633155581 0.17328112807 -0.97514646027 
-0.13405813309 0.11553176109 -0.98280204111 -0.11804832091 0.16953097931 -0.97660800708 -0.096701478309 0.12866552945 -0.98538544089 
-0.089483829465 0.066044842511 -0.992924436 -0.12704000536 0.14413769803 -0.97967264332 -0.16321124782 0.23725590956 -0.95312858677 
-0.19825491447 0.29441667058 -0.93356259609 -0.1813260108 0.37767807337 -0.90170139069 -0.19046005315 0.47649984542 -0.85476721655 
-0.20857341897 0.56584419633 -0.79182826205 -0.20686362114 0.62434188785 -0.74883872308 -0.21179802845 0.65841508362 -0.71794724065 
-0.2486700434 0.76155463392 -0.59650494646 -0.27202739394 0.74216964079 -0.60283633824 -0.27126585068 0.80980879651 -0.51003703838 
-0.31850259515 0.86994741072 -0.37166393073 -0.34313583111 0.90515466765 -0.1833766693 -0.35945571783 0.93130985717 -0.018594844849 
-0.36291116188 0.9179237286 0.10869793677 -0.10330563908 0.80164935159 0.58469866843 -0.12853680015 0.85093450383 0.50515998494 
-0.062143857231 0.72431681602 0.68381582556 -0.038637807195 0.54238955388 0.83633628855 -0.052984741373 0.63819381076 0.76656366636 
-0.06304080069 0.50630479274 0.85482341312 -0.26079120922 0.43045784199 -0.85912419898 -0.24124236858 0.31984560748 -0.91119020565 
-0.22032485297 0.2123570307 -0.94881266614 -0.20097272391 0.14005554364 -0.96856354781 -0.17883259012 0.093966407621 -0.97911325153 
-0.16438092035 0.084220547368 -0.98257599946 -0.14833979393 0.096054302167 -0.98393393662 -0.079111751418 -0.082303697074 -0.98924261917 
-0.042650713752 -0.19788015875 -0.97666837279 -0.014188192652 -0.27222627653 -0.96100363674 0.0002439674755 -0.28836198101 -0.95636212151 
0.0063555140959 -0.44623404649 -0.89208998146 -0.0050392340087 -0.40673352791 -0.91098766308 0.016327138329 -0.50526053377 -0.85682144895 
0.020239978004 -0.61873329571 -0.77868819269 0.043603254966 -0.74536268959 -0.64980640354 0.073358662034 -0.85740448206 -0.49073306899 
0.11107294121 -0.92541348114 -0.34974233605 0.16360328043 -0.95644995032 -0.22285836797 0.22302828792 -0.96625492897 -0.10666554343 
0.28319902305 -0.95672841585 -0.010587312549 0.31471119219 -0.93891031745 0.084385891043 0.35178503906 -0.92217184355 0.1274030637 
0.37516445779 -0.76907789138 0.51426626837 0.39201196133 -0.8077486236 0.43876066929 0.36279392581 -0.71399765748 0.59490741347 
0.35726407211 -0.63757453713 0.67920800583 0.35344153478 -0.58927888339 0.72516690372 0.34853918249 -0.55087089989 0.7581247062 
0.3367821257 -0.56045546868 0.75642150995 0.32489526442 -0.57856430464 0.74804672445 0.29928526037 -0.45333173326 0.83917489525 
0.31508320442 -0.49387946857 0.80945179668 0.27052642964 -0.3766748566 0.88103867385 0.2363577663 -0.26877533829 0.93054102268 
0.19329447131 -0.058816765878 0.96863684994 0.14340622157 0.1186394583 0.97570174386 0.082791589663 0.27384901425 0.95287804419 
0.013176637296 0.41135799088 0.90520841202 0.39312994832 -0.85065816495 0.33359834562 0.39662572982 -0.8691110335 0.28668699725 
0.1644472349 -0.056638669972 0.97615361595 0.10983791394 0.15963939191 0.96721132892 0.32161560358 -0.55784114347 0.76475807661 
0.31134889064 -0.59314119283 0.74177866314 -0.054506606125 0.69453679145 0.71339611029 -0.05428629487 0.74087174853 0.66699136308 
-0.056267753546 0.78789475668 0.60725348766 -0.071888527066 0.8503022493 0.51997852761 -0.11847500524 0.87837675667 0.45631071451 
-0.17202545406 0.90572675967 0.38641468466 -0.21036333444 0.91767967928 0.33315860047 -0.23231364092 0.9249847231 0.30005442991 
-0.24919562675 0.93312162958 0.25263236543 -0.26792382189 0.94233907515 0.19573157491 -0.29156029949 0.94684169033 0.092480311338 
-0.3085288234 0.94936284491 -0.020510202554 -0.3106429581 0.92786263101 -0.15546584527 -0.30758379525 0.90365352899 -0.28106936467 
-0.30646318926 0.87171992034 -0.37044030656 -0.3059481617 0.86645696237 -0.38070429071 -0.30510982009 0.84081716945 -0.43877063736 
-0.28623479181 0.77413506229 -0.56360450576 -0.24932292557 0.60815983151 -0.74673367556 -0.33469413031 0.889489474 0.30750806004 
-0.34962747357 0.90611422638 0.22922949613 -0.32488810689 0.87994720597 0.34534671133 -0.30500438418 0.8886912428 0.34114312586 
-0.27563272061 0.89702005655 0.34197279894 -0.21036597891 0.90454713584 0.36931743476 -0.23628683862 0.91129628502 0.33429418667 
-0.1806410711 0.89201961343 0.40975008124 0.028017058827 -0.66852089314 -0.73133555961 0.0091534038792 -0.54737013461 -0.8286235995 
0.058063507276 -0.78831906493 -0.602913325 0.086424911839 -0.86525708427 -0.47592511694 0.12117003714 -0.91233327186 -0.37922404049 
0.16618003763 -0.93605305919 -0.28543948357 0.23054717927 -0.95781874187 -0.14120878877 0.32741197702 -0.94119581161 0.043699305971 
0.36943473175 -0.91437016548 0.13943607205 -0.25955618985 0.91665894373 0.30160368836 -0.27818604399 0.92619086585 0.24705366221 
-0.29710190773 0.93528319559 0.18694481994 -0.31033766807 0.94092285758 0.098584829007 -0.32254785506 0.94567297524 0.0045720892585 
-0.32280107875 0.93244106708 -0.10965552484 -0.32170700321 0.91688735835 -0.23184579761 -0.30569400068 0.86941592221 -0.37481141348 
-0.3035554972 0.83944783147 -0.43007940644 -0.30753622894 0.85319163196 -0.4088604279 -0.319590967 0.87975860508 -0.3267599151 
-0.33576358582 0.90739812215 -0.20003407857 -0.3514950173 0.92988348586 -0.042687995952 -0.35325454944 0.92416703051 0.095437613566 
-0.22959190103 0.48776253178 -0.83638850573 -0.20359128992 0.38065882039 -0.89809452536 -0.17646951252 0.28028884103 -0.94134992025 
-0.15374920716 0.18922481724 -0.96637826795 -0.129377171 0.11100780532 -0.98498064156 -0.13699698578 0.10857324985 -0.9843611381 
-0.12912214827 0.12041136468 -0.98416918078 -0.15300540226 0.3240478646 -0.93244793579 -0.14233054255 0.36929071313 -0.91383794545 
-0.14468701724 0.44559913749 -0.88323560292 -0.20272732982 0.53308154284 -0.81471853065 -0.12600041236 0.17269418119 -0.97564370558 
-0.079591792808 0.12131996345 -0.98929814095 -0.07688643001 0.13231231742 -0.98703007929 -0.10073117274 0.17666892306 -0.97516539054 
-0.32988082433 0.89815367289 -0.28476395021 -0.33456466847 0.91709257057 -0.17968463594 -0.33305498145 0.93501433247 -0.055417526872 
-0.3325622933 0.93680989347 0.057832697371 -0.33082291201 0.92564368779 0.15875429924 -0.32425391156 0.91166268948 0.24642942102 
-0.31601474792 0.89804199534 0.3005888906 -0.29393868824 0.91293727114 0.28062633242 -0.082705920757 0.00055459289976 -0.99411937092 
-0.04874871134 -0.091940634665 -0.99044158098 -0.012912528402 -0.19900430405 -0.97755179396 0.0014300158262 -0.25968169349 -0.96492233176 
-0.0043571359032 -0.37373972952 -0.92751778186 -0.00089138413016 -0.35901350269 -0.93311411192 0.14383447175 -0.79862017408 -0.57018235383 
0.062368204448 -0.64624885208 -0.75300606267 0.004346988147 -0.53379646871 -0.84278182314 -0.008154681128 -0.43594030481 -0.89696374077 
-0.014692708412 -0.37719434897 -0.92574744163 -0.0051502610054 -0.43834992957 -0.89835012496 -0.00036144015547 -0.29000610535 -0.95588190732 
0.39793864309 -0.81468542171 0.41489062346 0.39347451436 -0.78144316977 0.48300647047 0.37928590649 -0.74942838214 0.53986989639 
0.36414525572 -0.70831081288 0.60092448478 0.35083523617 -0.67013448872 0.65170535466 0.33815729008 -0.62313809846 0.7024346934 
0.32532145254 -0.57617604045 0.74840584456 0.31908645297 -0.57392229605 0.75407685155 0.31166277989 -0.5968756029 0.73893171033 
0.29812699097 -0.61798729697 0.72736970972 0.29315952195 -0.57564686762 0.76180037545 0.28572318153 -0.60983240534 0.73915522451 
0.29975757197 -0.54714070878 0.78091644979 0.29828782271 -0.50782229494 0.8060895926 0.29194976724 -0.46011373855 0.83831228794 
0.2684111164 -0.39979681938 0.87365527456 0.24147912938 -0.3090729373 0.9155472128 0.22760428605 -0.13418978925 0.95991425865 
0.17095671258 0.052053307237 0.97484850097 0.11883304073 0.18662201449 0.96921851338 0.052496426241 0.33329373816 0.93385766853 
0.17569096201 0.021607852249 0.97622476621 0.18829925437 -0.060558823765 0.97369240563 0.20387556076 -0.2021523187 0.94862154382 
0.21856818267 -0.32525869846 0.91964528693 0.23454589624 -0.39304690403 0.88658208628 0.24870013848 -0.44977725642 0.856299478 
0.25751508596 -0.50566890494 0.82112609711 0.26512447063 -0.56309606897 0.78005886286 0.29296157612 -0.59405836463 0.74904752133 
0.29051079488 -0.60530369127 0.7409203532 0.30255116916 -0.60271254099 0.73726469455 0.3196465649 -0.63999963382 0.69780491935 
0.343235601 -0.68534566242 0.63881258844 0.35576848739 -0.75013910158 0.55541581579 0.38101691962 -0.78604780105 0.48268819751 
0.39399593716 -0.81328706205 0.42437539844 0.14329620415 -0.89245917379 -0.42186516922 0.33688346608 -0.62388774597 0.70282620796 
0.32478053022 -0.5994602368 0.73121711483 0.31432301971 -0.5858740998 0.74668582323 0.30659953932 -0.58787296628 0.74831828767 
0.30247894516 -0.6015542217 0.73892461005 0.26138499367 -0.42531913094 0.86604441237 0.27302926563 -0.48351052241 0.82937121069 
0.24601499544 -0.37072455252 0.89268633552 0.23305969799 -0.32813034312 0.91390021747 -0.10511390147 0.11412973699 -0.98759454597 
-0.089975721448 0.11240137737 -0.9894013454 -0.19623647964 0.40290856708 -0.8891512674 -0.14704421608 0.2906608367 -0.94431281989 
-0.22444652663 0.47642845145 -0.84735095304 -0.30864578944 0.92685818318 0.20074293578 -0.32122776736 0.9385970964 0.11174229872 
-0.32693290263 0.93996159959 0.012454402792 -0.33172514681 0.93645090186 -0.095113551934 -0.31906414503 0.91054740921 -0.22947514022 
0.27810613115 -0.6037603702 0.74678672679 0.28538905838 -0.58906598776 0.75508546588 0.2814825318 -0.54357215264 0.78882419728 
-0.0060633635092 -0.38320870235 -0.92326754067 -0.0052268048213 -0.40735842325 -0.91236896875 0.011625134169 -0.58029039424 -0.80587092345 
0.041803003234 -0.67355816093 -0.72985898849 0.081095655413 -0.76918474676 -0.61919253981 0.10003510506 -0.8192229394 -0.54513179967 
-0.087190974486 0.15578121634 -0.98235795696 -0.051681594131 0.68185722699 0.72633823218 0.0059332967305 -0.32256204835 -0.94602136936 

Curv_Gaussian 1 1116 double
5.2769808382 5.4241749965 -0.0091084704208 -0.0037723472497 5.7656035194 -0.0071247132685 5.8562153915 -0.0047904368218 5.9182666067 
-0.0052638210802 5.9525663606 -0.0052514440885 6.0436294811 -0.0038916840461 5.9440733318 -0.0038690728456 5.6290735653 -0.0055375728808 
5.268088276 -0.0046866692679 5.0165432465 -0.0029165296395 4.8594797995 0.00038666170914 4.7813958004 -0.0051302760624 4.811679228 
-0.0070105331915 4.9124938074 -0.0047775705365 4.9622550193 -0.0077351690272 5.0097518471 -0.009519699003 5.052079927 -0.0096584998455 
4.9300883048 -0.0080965390092 4.625506393 -0.0038266325536 4.4820531878 -0.0022997726653 4.404835202 -0.0022888545812 4.4932722443 
-0.0081183606746 4.6552659272 -0.011677318924 4.9945140017 -0.015396374957 5.4227294966 -0.022656526078 5.9133989339 -0.02665235524 
6.4991717388 -0.013427542687 6.7493424125 -0.0084641866207 6.6360974598 -0.0023397561792 6.1171099353 -0.0018179035871 5.8088561359 
-0.0024135488429 5.7191513807 -0.0040841329164 5.6235935427 -0.0042535334803 5.8364821652 -0.0032094758274 6.3296064371 -0.0016311198774 
5.7997864739 -0.0011470041347 5.5018236758 -0.0010605674065 5.4939542058 -0.0028787937014 5.7680572193 -0.0046108481519 5.8057075747 
-0.0059534261476 5.3221591462 -0.0042753340684 5.3185005912 -0.0057821569786 5.3432280279 -0.0075643869408 5.3181555399 -0.010129590282 
5.1069505146 -0.014960552935 4.9196977878 -0.019648939979 4.7201262255 -0.019631238565 4.3616773059 -0.013270308412 4.2683984639 
-0.0071186402032 4.3248720493 -0.0052254392209 4.4831361851 -0.006025933714 4.9600117533 -0.0062087594986 5.9701877979 -0.0046459393147 
6.6288405656 -0.0012017694141 6.5865701156 -0.00028781716539 4.5738632977 5.2929217011 -0.0040270812727 -0.008209810325 5.6012298063 
-0.0050033480967 5.1282201196 -0.003198349344 5.335300212 -0.00189263943 5.6849961276 -0.00091906888472 5.7105565642 -0.00030912787955 
5.6341244914 -5.4089190517e-05 5.1787115161 -0.00037607476293 4.7588042582 -0.00020842671596 4.4432583753 -0.0046308419508 4.2961600184 
-0.0071234562288 4.6098166108 -0.0065318403166 4.7485323581 -0.0070609637455 4.6380539857 -0.0093769051881 4.6287137755 -0.015706275999 
4.6725202671 -0.026741141749 4.5447387338 -0.019019673678 4.6184643496 -0.011322120997 5.28432358 -0.0059836017318 5.9508362235 
-0.0048283557086 6.617797985 -0.0078385804197 6.5478051855 -0.0075327801865 6.8028796182 -0.0057150920332 7.6878087484 -0.0060256647264 
7.7860994222 -0.003606497779 7.4547270081 -0.00059269410643 6.5848532266 -0.0017679883257 6.039046261 -0.0044180055959 5.9383444672 
-0.0076922869618 6.3685303236 -0.011154505359 6.5230182356 -0.0093096120657 6.383243222 -0.0077676152262 5.8903944878 0.00042876023261 
5.7923350129 0.0032755262142 5.9478086432 -0.0016835865327 6.3063637441 -0.013370342799 6.8016263459 -0.021117231421 7.4458718864 
-0.022581464495 8.3216362555 -0.0071794799017 9.0527091614 -0.0022914057151 9.2707168917 -0.0015607598834 8.9171685471 -0.0010575506186 
8.4757339411 0.00044209747073 7.8878133026 -0.0031381377632 7.1797849232 -0.0057319770088 6.5137866491 -0.0025406141506 5.7918659582 
0.00029005444158 5.0199539357 0.00013913517561 5.4125654262 -0.00016146953361 5.7553283507 -0.00028725661681 5.7660009616 -0.0017553800441 
5.4544835286 -0.0038879048303 4.906708779 -0.0047593890952 4.2437194776 -0.0076121043286 3.8189201877 -0.011978696995 5.0977058923 
-0.012164860822 5.2894260309 -0.012382682248 0.0009211173112 0.0049292234962 -0.004981497059 -0.0010514610527 -0.00152396027 -0.00083463405729 
-0.0020799995562 -0.0047942779025 -0.0124917845 -0.010342146638 -0.0040397246208 -0.0061644165944 -0.0058600466611 -0.0033792215459 -0.0020802276237 
-0.0030176577776 -0.0042342919661 -0.0050317825472 -0.0075015351578 -0.0081451536955 -0.0075765365288 -0.0075257947796 -0.011167562328 -0.010932026595 
-0.0091842923114 -0.0077017843631 -0.0094368824687 -0.0061088951073 -0.0025260385217 -0.0022119792505 -0.0024587148397 -0.0024532435369 -0.0025059874847 
-0.0007343977833 -0.0019294654236 -0.0020816771744 -0.0021610967584 -0.0020717626719 -0.0011951196682 -0.0021722886702 -0.0024888901101 -0.0010691945308 
0.0003417255907 -8.8924794501e-05 0.0010981611552 0.0047913583087 0.0014532496909 0.00015565491069 -0.00021091929675 -0.00066768832826 -0.001261232497 
-0.007743627807 -0.0088171045477 -0.0061277944151 2.1022328718e-05 -0.0046469360932 -0.0036059904487 -0.0018502477952 -0.0065166595965 -0.0040804382292 
-0.002816867401 -0.0023888001041 -0.0023672458548 -0.003159244742 -0.0037877609891 -0.0036149107999 -0.0035741817641 -0.0049291717359 -0.0073733279195 
-0.010358042439 -0.0088662001546 -0.0090957861565 -0.011793663856 -0.0018133506364 2.2884119777e-05 0.0019730169427 0.00096128725657 -0.00014152535018 
-0.0016414705154 -0.0020065412619 0.00031568094319 0.0024540072355 0.0011594807922 -0.001530919931 -0.0031047671184 -0.0031434146849 -0.0013515032472 
-0.0010651975748 -0.0010360833669 -0.0014740046843 9.058210476e-06 0.0013396142145 -0.0092795780939 -0.010874872023 -0.0085705459065 -0.0015855182733 
-0.0025281595576 -0.003852369201 -0.0059540133994 -0.0059544974297 -0.0017695623435 -0.00052257677155 -0.00076440199224 -0.00026879496732 -0.00097669994694 
-0.0010469401381 -0.0021856368214 -0.0041805806242 -0.0031236678554 -0.0017694636308 -0.0008977893132 0.009123338702 0.0041639778345 -0.0019685283226 
0.0032010312501 -0.0033094411329 0.0028755029564 0.0028691875807 0.0012970870792 -0.0016628947806 -0.0059275661704 -0.0093870891099 -0.0066535094236 
-0.0047852530082 -0.0030857954945 -0.003522204118 -0.0073163058292 -0.0063352770303 0.00098496801243 -0.0020032011517 -0.0057529895246 -0.0038181081291 
-0.0018445449669 -0.0006795703017 0.0025298134131 -0.0091043726771 -0.0038907494734 -0.0078756737687 -0.0056927387582 -0.001516212576 -6.2812851898e-05 
0.00016436155219 -0.0014125028063 -0.0030556825218 -0.0024637275351 -0.0030415655135 -0.0011778846352 0.00019639407834 0.00010480494279 -0.00024502096908 
-0.00030478639837 0.00018587533286 -0.00094418709601 -0.00048181834608 0.0017662706185 0.0043987868475 0.0048492127504 -0.0024732185711 -0.0034003151053 
-0.0042751956696 0.0014944750034 0.0042284483093 0.001408295876 0.0014714113981 0.0043859319145 -0.0079752723027 -0.010636161602 -0.0064168880965 
0.0018269066752 -0.0033819288754 0.0019055619845 0.0051451342777 0.0074350072565 0.0053025127445 -0.0019399854888 -0.00023345688965 -0.0035563153945 
-0.0038195415596 -0.005988001899 -0.0071091969127 -0.0032104317426 -0.0023034216394 -0.0037516275755 -0.0031642263371 -0.0029002640792 -0.0028396288423 
0.0018302528987 0.0084683951181 0.019935601902 0.021262073799 0.012397550108 0.00058962451686 -0.00023488555145 0.00063805172011 0.0010056992223 
0.00027082245194 -0.00085829471533 -0.0013607154484 -0.00031221943428 0.0023160063616 0.0012031588699 0.0011538085776 0.0012321722471 -0.00040797811735 
0.00049778167104 -0.00024729414704 -0.00090125712795 -0.00045572791994 -0.0011945426489 0.00056139978211 0.0009444675834 -0.0013390438452 -0.00024446434106 
0.00021889665619 -0.002915539959 -0.0045070739976 -0.0048805335311 -0.0056736489034 -0.004923182222 -0.0038398247544 -0.0011545401778 -0.00070908707405 
-0.00036616985092 -0.00094680078421 -0.00072245269708 0.00010059464123 0.0037303566613 0.012152523883 0.0079800778855 -0.00055877695146 0.0010005668104 
0.00059762403578 0.0090729097165 0.0066993481551 0.011886628935 0.01215245937 0.011215893117 0.0077733207065 -0.00040991140609 0.0027572074066 
0.0035174747484 0.0043819650546 0.0022136927976 -0.0049065730891 -0.0027422380197 -0.0021918357842 -9.1821192285e-05 0.0056453859242 0.0066389010221 
0.0032706853718 0.0029753147633 0.00012207264969 -0.0024570242284 -0.0088959478363 -0.0026536894248 -0.0012412817508 -0.0012269640699 -0.00050101980604 
-5.303554049e-05 -0.00023172433766 -0.0032101436691 -0.008207341287 -0.0039409355581 -0.0003131726421 7.4452323502e-05 0.0010087448432 0.0021746079862 
0.0028052972268 0.0033572278833 0.004070554915 0.0060981295427 0.0090412590045 0.0042797529505 0.0026202262546 0.0023012708842 0.0028170271821 
0.00090550314177 -0.00029170891909 -0.00033054021966 -0.0003497707099 -0.0012576816923 -0.0024315692203 -0.00098082353588 0.00058163218044 0.0013175327877 
0.0016139906918 0.0019136843761 0.00048063481998 -0.00022579424614 -0.00023924608986 0.0014435088019 0.0021303567273 0.00091303535776 0.0038313994978 
0.0070510529652 0.0077930262262 0.010320466305 0.0053267054992 0.014612558994 0.0010005861873 0.00021095519264 0.0016085847069 -0.0012394816848 
-0.0037648775209 -0.0022026557829 -0.0002963450377 -0.00043060726254 -0.00090249069748 0.001621237434 0.0047180791288 0.013515729774 0.020977674432 
0.01846405162 0.017174003996 0.018105179572 0.0048088714983 0.0035768743356 0.0091125910641 0.0045783015304 0.00031123817811 0.00035564884878 
0.0013539784407 0.0012848123299 -0.0012413045037 0.007030151145 0.0060683524064 0.00078280611815 -0.00027739015824 -0.00092878283716 -0.0010606427503 
-0.00061829011385 -0.00069000665577 0.00079908239725 0.002573544947 0.0017749985409 -0.0011202337217 -0.0017396257686 -0.0025487800934 -0.0038949221054 
-0.0052064614879 -0.0047842497642 -0.0024348435964 -0.0017619841071 -0.002463037973 -0.0017641791701 -0.0013610937569 -0.00056497970044 3.0888478394e-05 
0.0012815546332 0.001791490828 0.0070138845949 0.011295239498 0.0073764974395 0.0021381919979 -0.0012028658748 -0.00078626293357 -0.0011385583162 
0.0083554615777 0.0072201093979 0.024757073571 0.023400872205 0.017937345936 0.010486749808 -5.5942695767e-05 -0.00031027811017 0.0011632638013 
0.004675205126 0.0062240378677 0.0068407687946 0.0026906974817 0.0011701975772 0.0012321096075 -0.005282490387 -0.0029488714064 -0.00042564188395 
-0.00054501069967 -0.0019401938689 -0.0029685589381 -0.0021547868698 -0.00052609150686 -0.00042740176393 0.00088075364469 0.0013620859353 0.0022072499196 
0.0018279759512 0.0010324499571 -0.00024940561993 -0.00052515875841 0.00011283594686 7.5008943929e-05 0.0006731911623 0.0012648604998 0.0015880656771 
0.0052231535045 0.0062189194277 0.0077366163018 0.0035388886904 0.0080420234045 0.010105222553 0.0099370585731 0.0081919616692 0.0033131426192 
-0.0043974027169 -0.011297070176 -0.0028710513162 -0.00074292605077 -0.00041020797846 0.0012143103457 -0.00069651588912 -0.00093135470393 0.00020251316787 
0.001078881837 0.00059858919364 0.0016248374682 0.0018550279471 0.0014302501901 0.00022120503595 0.0016128164251 0.0010414745267 0.0021175194449 
0.0070669754669 0.0084526984572 0.0074500415593 0.006041013728 0.0039279762695 0.0066825086533 0.0089799246003 0.0010321206772 -0.00097825315623 
0.0068216080239 0.0089140376264 0.0048618265331 0.0027238154491 0.0019261474287 0.0033107081638 0.0023784330345 0.00044683424414 0.001323879646 
4.0864334532e-05 0.0012522802174 0.0015364487656 0.0031407773441 0.00031594370447 -0.00084989295034 -0.0013707061208 -0.00041907304531 0.0019907218123 
0.0041659289784 0.0060631967513 3.3619341567e-05 -0.0018016914912 -0.00067213590213 -0.001219977352 -0.00070315754177 2.7956077397e-05 0.00032130608184 
-0.00063688640094 -0.00075138908687 -0.0010425354182 -7.1139651231e-05 0.00088034256803 0.0011284268951 8.1460893389e-05 -0.00031062001271 -0.00026627925601 
1.6676972634e-05 0.007317985905 0.018302377365 0.01068208608 0.0056133803803 0.0012583555199 -0.0016896540431 -0.0033716493278 -0.0023917011337 
-0.0023563479235 -0.0019761441118 -0.0015075099932 -0.0019889204097 -0.0006397918233 0.00031863866234 -0.00059404353024 -0.0017364565264 0.001314248772 
0.003413886692 0.0094037983009 0.019956855635 0.020571078251 0.021833939056 0.015025705142 0.0072467846061 0.00079432218004 0.0052797851775 
-0.00073943902505 0.0086013026367 0.0045862601942 0.00099754833458 -0.00023314309916 0.0013663976377 0.00089825548484 0.00086727474497 0.0025281536544 
0.004348670168 0.0062566214549 0.010663957393 -0.0023491575254 0.0015826435687 0.0025172675099 0.0056573260024 0.0015764540391 -0.0020131834265 
-0.0033978951112 -0.0034701636212 -0.0018513701533 -0.0018619896648 -0.002783992656 -0.003235803481 -0.0017290697936 8.118438543e-05 0.01091144596 
0.0068069897547 0.014006409924 0.0095188652688 0.0054128969241 0.0063252008747 0.0019730485976 -0.00014812195198 -0.00017379792377 0.0020532683432 
0.00085105830302 0.0020343657351 0.0012485175904 0.00019128749713 -8.3094010297e-05 0.0040132260523 0.0042652694724 0.0012023549881 0.00010734115994 
-0.00030069465881 0.0080005914396 0.010868997676 0.013230396276 0.0059675250184 0.014284187056 0.01141479837 0.001418457176 -0.00054487249602 
-0.00052656140211 -2.2133081415e-05 -6.4564872574e-05 -0.0013735842361 -0.00056616225743 0.00054502636377 -0.00043345914236 -0.00018022767665 0.00048079181882 
0.00094969338408 0.0012706999034 0.003288847116 0.0058226131742 0.0047712834574 0.0032139956526 0.0055171377926 0.007783647797 0.0091831122851 
0.0082166218337 0.0034664028003 0.0060515424422 0.0026072846813 0.0014972511338 0.0021051673801 0.0025108614978 0.001360867938 0.00077538217295 
-0.00039753900972 -0.0019835638041 -0.0074923084557 -0.0034491262263 -0.00076734419578 -0.0002554498225 0.0019253459323 -0.0019584998904 -0.00039303916162 
0.0030478413423 0.0044863976397 0.00076310478218 -0.0013205591453 -0.00074349316581 -0.00023979104201 0.00012587938833 0.00097429289924 0.0068342561337 
0.0024921494535 0.0020499499017 0.0029190970281 0.0054923850902 0.0022992288394 0.00095096316036 9.4092494019e-05 -0.00069465429861 -0.0010041251786 
-0.00074676911807 -0.0026052029933 -0.00032270654908 -0.00065647140946 -0.0046827124245 0.0032597839477 0.0021494015858 0.0013163655235 -0.0018502724592 
-0.00058358430282 0.00051803695312 0.0060835576809 0.008653787787 0.006590994053 0.0054033999549 0.0023621262494 -0.0011540191048 -0.00075096770712 
0.00066397479456 0.001283458586 0.007218861813 0.0098392509962 0.0087149348449 0.0054462489516 -0.00053144463533 -0.0023852211072 0.0016765410173 
0.001367643827 0.0053074137538 0.0017168820287 -0.0012778476257 0.00073457322285 0.010525792567 0.012390492806 0.0029104269298 0.0062579581759 
0.0027044373025 0.0046695019512 0.0031418037511 0.00068711340906 -0.00055226516116 -0.00023359996786 -0.00014584368723 0.00011749804346 0.00092411884605 
0.0017841542263 0.0028463490162 0.0044076561638 0.0041100337716 0.0051752396913 0.004289385174 0.0080984455127 0.0086017194054 0.0066559029865 
0.0045597347437 0.00062149602966 0.00041094254284 0.00028423453127 -0.00081749994987 -0.0016689722865 -0.0019340645925 0.0096682601903 0.0018923839952 
-0.0013587439818 0.0025623014047 0.0063078233537 -0.00011634100562 -0.0028721086192 -0.003587462513 -0.0027448404371 -0.0038513280175 -0.00210000585 
0.000951819134 0.00092771859468 0.0016537269492 0.0026389114744 0.0040929137044 0.0046879025183 0.013591172884 0.012780492402 0.010541350027 
0.0082509206564 0.003292945651 0.0062306233046 0.0014917337667 0.0014092301063 0.00074017298719 0.0042817157442 0.0043357011478 0.0061208766184 
0.005903450186 0.0043301625409 0.0013667587434 -0.00026357965064 -0.0028814282373 0.01196487307 0.0098755040678 0.0016232416719 0.0021933716495 
0.003343866575 0.0014121870365 0.0061858744998 0.011097523063 0.0066773841859 0.00060856701945 0.00079293599915 0.00033867131458 -0.0010288805739 
0.0010941757829 0.0032742086928 0.0061188596755 0.001514195651 0.0013763048548 0.001783455322 0.00081245336589 0.00026106949691 -0.00024067275256 
-0.00048451331222 -0.00062478159555 0.00020930561207 -0.00028307970919 -0.0016638167584 -0.0031289488019 -0.0028181052825 -0.0057597602148 -0.0061478241014 
0.00547476397 0.0027387229195 0.0012108663846 0.010770238165 0.012596141752 0.00061796191971 -0.00017085650396 0.0018179357884 0.0027609123127 
0.0016116999702 -0.00030300235372 0.00035492308493 0.0019039814559 0.0022891791535 -3.0529346808e-05 -0.00057710305007 -0.0015116692915 -0.0017162424453 
-0.0024892432199 -0.0012366968491 -0.00052393640453 -9.8589055719e-05 -0.0022368064371 7.8404102984e-05 0.0040776085429 0.0070422734526 0.0020299664958 
0.0041168534998 -5.9712696178e-05 -0.00031525031038 0.0012973120505 0.0016875784992 0.0024579528153 0.0012503262197 0.0022660282027 0.0065784892348 
-0.00079724064008 0.00036850738797 0.0023600097082 0.0045155355834 0.0058767524032 0.0021956628872 0.0028479577646 0.0025403143838 0.00097945582172 
-0.00055585187431 -0.0021150098499 -0.003813601045 -0.0069228437191 -0.0089593361097 0.0030064876273 0.0012558463624 0.005030001019 0.0068715327419 
0.0075596117157 0.0068587736837 0.0056061095526 0.0026047709476 0.0030642914679 0.0068758760919 0.0049113902375 0.00025468060274 -0.0016043333396 
-0.0041178159449 -0.0047694028328 -0.0027870292675 -0.0015516302364 0.0030121691161 -0.0075393150126 0.00088159739148 -0.0031696867519 -0.0021040941064 
0.00053630536051 0.00074809976216 0.0029390795519 0.0031727380159 0.0021284520537 0.00069435120303 0.00022363443014 0.0025223501254 0.0099011069323 
0.0069318304712 0.00059474227171 -0.00022588273436 -0.00074341513173 -0.00047518498559 0.010458132275 0.0085360999726 0.0015725914571 0.0016276664243 
0.00011576616873 0.008697552312 -0.00017850916943 0.00071556661057 -5.7251892586e-05 0.00032433288913 0.0010428524524 0.0017786722715 0.0012960058321 
0.00025229748221 -0.00030347068108 -0.00073864727502 -0.0004681231164 0.0018656817544 0.0018650977226 0.0021902155486 0.0010170181552 2.3259896849e-05 
0.0007330547921 0.0013753467076 0.0021360726402 0.0020629949654 0.0081710588662 0.010330271601 0.0098836219401 0.0098236273416 0.005643380613 
0.0031103392413 0.0040457934676 0.0052046968833 0.0042885876253 0.0040886988603 -0.00040688328196 -0.00039963543677 -0.00066915513054 -0.0017690609217 
-0.00032169421825 0.002725685316 0.0020502512414 0.0019915534253 0.0063356322401 0.0024115813067 0.001827901435 0.00051804918613 -0.00024463949623 
-0.00054208599183 0.0011694432864 0.0027051318167 0.0012676904238 0.0014879086332 -0.0022113915378 -0.0010402598942 0.0034909962815 0.00094437171382 
0.0053036529657 0.0020488285899 0.0015637378478 -0.0011107647587 -0.0035793245927 -8.917196006e-06 0.0039074855118 0.0039900111008 0.00400638495 
0.00054659491029 0.0040544239744 0.0021772015261 0.0043481759987 0.0056449010803 0.003181588277 -0.002456432583 0.00071601870102 0.0011092496284 

Curv_Mean 1 1116 double
-0.16835226517 0.061635300899 -0.025903601986 -0.064625900881 0.23108208708 -0.017644923455 0.089202635473 0.0042797494583 -0.011006177848 
0.015941191373 -0.070724987662 0.024435388706 0.10169543608 0.021778118014 0.074772307061 -0.017063634365 -0.18286575104 -0.071039786653 
-0.13611826921 -0.053846286712 -0.046131364173 0.03628440742 0.06203339667 0.10522200494 -0.072479106664 0.078839008001 0.016987682663 
0.052028056756 0.21987659778 -0.0034197977927 -0.1476085471 0.03282301739 -0.30672829705 0.041440941124 0.0097727745172 0.00052752572657 
0.071586260731 -0.023386523132 -0.14960636492 -0.024356675883 -0.098895852865 -0.015676621525 0.049256074364 0.00077810326735 -0.011113329484 
0.034968267443 -0.052415871361 0.029941403109 -0.047771711633 0.032418991887 -0.098070784369 0.027785641061 -0.18396613911 0.010356835568 
-0.11507870751 -0.0076221139663 0.031115577473 -0.00852363759 0.26102362923 -0.0011510968067 -0.060993939446 0.0098841652156 -0.23203522061 
0.009356209178 -0.23402366024 -0.005501442856 -0.092214331968 -0.027339681356 -0.0092312454141 -0.035266824672 0.019357825271 -0.019655590796 
0.061599194025 -0.017748114613 0.055574839249 -0.015695554705 -0.010838265462 -0.014678159445 -0.014673652167 -0.00051071491827 -0.01104028419 
0.013451979899 -0.010072390878 -0.014143710306 0.023023448229 0.0048914014486 -0.03149011642 0.0077916626257 -0.20498705964 0.012123179186 
-0.14689722989 0.0097916358827 -0.13264008474 0.029258037633 -0.15426154048 0.045989493176 -0.18333275369 0.051478515109 -0.16008274326 
0.065174161477 -0.10728479019 0.070538085805 0.031953425159 0.054070736958 0.12542325434 0.022874797724 0.14228471459 -0.014602540888 
-0.24485316737 -0.052860387256 -0.45581224053 -0.074967440053 -0.061281868514 -0.1483645304 -0.015842548498 0.012557494456 -0.11443377428 
0.0034142613856 0.10188119127 -0.034558400137 0.18668857105 -0.032290781571 0.22349657483 -0.017057423988 0.024671413398 -0.030104079824 
-0.1351818975 -0.043370298827 -0.15022470059 -0.042195543034 -0.15608437263 -0.042590824564 -0.13495221757 0.001267732154 -0.11043688791 
0.025167965308 -0.076667552103 0.053051387315 -0.052082664122 0.06999765999 -0.040580543571 0.075266342397 -0.13527672124 0.070165502985 
-0.28577863212 0.057679238036 -0.055132041124 -0.00066891347707 0.074432620227 -0.033200931125 -0.13267242384 -0.0063596338658 -0.12387236579 
-0.0076833857458 0.033328250679 -0.019080319237 0.044181410399 0.020322828536 -0.04207199839 0.040813757707 -0.28798954708 -0.01806526261 
0.1376901557 -0.013467116511 0.30027747846 0.078409736379 -0.28076296473 0.080315441614 -0.052918636763 0.018323254672 0.042640709384 
-0.015265079696 -0.1201384594 -0.0032379093289 -0.30183973603 0.0019476082171 -0.32988732423 0.03064056052 -0.15919773818 0.062318873251 
0.10544991472 0.07283106392 0.19101119085 0.062981877342 0.12528636233 0.03712488259 0.2206502157 -0.0025927636453 0.1322387071 
-0.03944596551 -0.24175890215 -0.065141648504 0.030731987311 -0.031648152162 0.13318763781 0.0010656378065 -0.019286157962 -0.00056253327932 
-0.020928251782 -0.057781827472 -0.019318760022 -0.051938848742 -0.025379476306 -0.019296282562 -0.23164840825 -0.038860223854 -0.24239102425 
-0.050023314011 -0.078344683649 -0.020232946545 -0.069686669617 -0.026052216601 -0.037842089965 -0.037695942921 0.079269168277 -0.026514413682 
0.038645478764 -0.0066169263642 -0.11764297506 0.02356317704 -0.087043202409 0.027921635681 -0.028972183125 0.027259670478 0.0060258865051 
0.020084482442 -0.0074143047973 0.014073842235 -0.063558828626 -0.073907444347 -0.029846834673 -0.034411236173 -0.019028583161 -0.020676150143 
-0.043628938999 -0.064101495808 0.025531570459 0.067739719253 0.057973117313 0.049232061175 0.035342201106 0.0096158094115 -0.022710011321 
-0.03239337377 -0.026115203473 -0.0209464698 0.040388217524 0.066262052997 0.073801841131 0.033686817101 0.040562116158 0.022669620164 
-0.031900450795 -0.066019348375 -0.032683330257 0.002116156742 0.055528368615 0.039087955262 0.020195341829 -0.011046126134 -0.023087214144 
-0.045845585537 -0.033296219885 -0.00072432210942 0.017073944614 -0.0068042143814 -0.030349031874 -0.028281898582 -0.013383067059 -0.02008981717 
-0.046643816393 -0.049950250132 -0.052664459094 -0.078095926727 -0.058585911089 -0.035465605618 -0.029232426041 -0.029085605114 -0.02938862624 
-0.007888326558 -0.0051451105613 -0.040649576675 -0.054563456828 -0.013351114268 -0.012409654975 -0.020593110885 -0.012723356528 -0.027034952115 
0.0030983675171 -0.0015984911068 -0.012645031367 -0.007339451992 -0.0015383704969 0.007104294305 0.013098034881 0.0061533831087 0.0072840907544 
0.024527030915 -0.0023972483178 -0.022381352126 -0.024835323046 -0.058065942101 -0.02763478475 -0.054685260058 -0.056662509171 -0.033265138572 
-0.015454955819 -0.015825765238 -0.052765225502 -0.052049665328 -0.034132872321 -0.031297572681 -0.022127329025 -0.021887224095 -0.033877020759 
-0.014438039106 0.024275989542 0.044158564094 -0.0057913554809 -0.063704507054 -0.051330098808 -0.058819803998 -0.042762919734 -0.011969962397 
0.036863596078 0.017139109065 -0.016397269128 -0.03859735921 -0.03672019141 -0.040217762743 -0.036256822244 -0.027011845759 -0.012553768473 
-0.026548419696 -0.021547348355 -0.0059331679808 0.0047965104396 -0.032997677983 -0.093323163945 -0.1173249874 -0.073234975485 -0.023903068418 
-0.07279643745 -0.061086824879 -0.064204838344 -0.058727390588 -0.044002375429 -0.043118211439 -0.021265673807 0.050697544518 0.010210530232 
-0.019255119725 -0.010873301337 -0.0056967269499 0.013469165816 -0.017228760172 -0.047294610815 -0.025283731438 0.0066787038863 0.0041267155846 
-0.0061866351659 -0.017011981217 -0.059586949024 -0.0016451256527 -0.017110303617 -0.037685144332 -0.060175876094 -0.055982556639 -0.042496563125 
-0.022933841993 0.0008657604255 0.014487882256 -0.003524223332 -0.0058271661406 -0.031525167028 -0.051765000262 -0.038456219626 -0.011316545825 
-0.018937114332 -0.029300623811 -0.032906193561 -0.036869369473 -0.050403215336 -0.070297298448 -0.072675619873 -0.039263235104 -0.029050442384 
-0.03945180135 -0.06684198934 -0.073526778894 -0.042254066358 -0.050179231162 -0.085673432171 0.0077724937184 0.010436619403 0.0040849779557 
0.0023447392446 -0.059819008492 -0.048770669222 -0.0715840018 -0.09511480128 -0.077462117257 -0.047662972359 -0.018897879036 -0.024839293242 
0.018207496774 0.025549084029 0.0331454365 0.0520711568 0.053444727134 0.016084380345 0.035695291456 0.01047874444 -0.013178743535 
-0.052755342425 -0.09110065462 -0.13530477824 -0.14634742142 -0.10107739694 -0.020773240721 -0.036386233617 -0.053128493585 -0.046124795863 
-0.018223871331 0.018224768453 0.014548145167 -0.013904390503 -0.067909097156 -0.063420910701 -0.051160075137 -0.044737091057 -0.031030424014 
0.011494448507 0.04325411573 0.0017207370174 -0.038886938807 -0.05775354498 -0.086400605918 -0.089235947575 -0.035044557746 -0.032771422761 
-0.030852210203 -0.0050203851407 -0.028210828008 -0.033078753248 -0.0038461903629 0.0013261230773 0.001304300973 -0.020033601964 -0.012896662239 
-0.0084327552011 -0.016309413367 -0.034102786803 -0.061015589315 -0.069798533567 -0.11780822722 -0.10116711106 -0.038721241643 -0.047439231097 
-0.028138630748 -0.10076061918 -0.085207951377 -0.11904561141 -0.11303901117 -0.10471019569 -0.085212701906 -0.037038593287 -0.059479197957 
-0.073563050041 -0.072215627666 -0.055773019483 -0.01581804949 0.029920672882 0.040598758119 0.0077162058194 -0.074189515992 -0.095600287975 
-0.074676783107 -0.061839166145 -0.038839117301 -0.027214474872 -0.0058227527239 -0.028546595536 -0.029304649701 -0.03467869834 -0.043725127882 
-0.048280087109 -0.046341357301 -0.022872847031 0.013350819252 0.0072737055509 -0.0074839621294 -0.028595069793 -0.046774889347 -0.052162849512 
-0.053653069863 -0.058718785988 -0.063830414454 -0.08333240554 -0.096360489324 -0.077300602898 -0.077744686883 -0.086180284314 -0.076458571385 
-0.057213126218 -0.032894579832 -0.014788035138 -0.014254436398 -0.0048295082409 0.0059101029909 -0.014750918034 -0.037954767494 -0.041287777588 
-0.050993842279 -0.065015161248 -0.040018502047 -0.014762939782 0.011969553061 -0.032453207052 -0.055562967634 -0.042216113709 -0.065071879931 
-0.083326743702 -0.089010510245 -0.10093847759 -0.07828881736 -0.11763399936 -0.051988562011 -0.043707257356 -0.047574522021 -0.017722454933 
0.011966856213 0.036026879687 0.067139383047 0.040923020486 0.01164483229 -0.030066463269 -0.073259562247 -0.11385505619 -0.14825374749 
-0.13717623045 -0.13080745289 -0.13321389076 -0.075339533975 -0.07096398206 -0.097513473826 -0.061520258009 -0.026078461232 -0.030297992251 
-0.043597388055 -0.040386788152 0.0018194510615 -0.078356948136 -0.076192058976 -0.034679371526 -0.032065189963 -0.0024843139405 0.01761271873 
-0.0059618542431 -0.035413741474 -0.077589510598 -0.10153003225 -0.07618271385 -0.0099770866088 0.0060906471355 -0.0026519086449 -0.015476792178 
-0.011916498113 -0.018318878448 -0.025715714916 -0.023315288083 -0.0079427783839 -0.0093362449417 -0.0044821905879 -0.0027379516684 -0.016122511335 
-0.042370669517 -0.056295347575 -0.095422464681 -0.12109768207 -0.096934692926 -0.056186321075 -0.010883966346 0.0039731166759 0.01175638111 
-0.090793205742 -0.093208251775 -0.15712574567 -0.15223835928 -0.13436914896 -0.081953022634 -0.022407318166 -0.014143385405 -0.033728280568 
-0.071420698531 -0.086293765725 -0.095775812843 -0.060789362585 0.029203242711 0.055696283935 -0.042040064721 -0.055987404433 -0.066663188652 
-0.057626889265 -0.029053527844 -0.011207092587 -0.01722746175 -0.03307588165 -0.040713835871 -0.052621108755 -0.061115873686 -0.067546389078 
-0.066281824036 -0.048316417426 -0.0077367994485 0.018183792527 0.030122125174 -0.011972881532 -0.034342677108 -0.040406019919 -0.043336116641 
-0.076415101639 -0.090695996151 -0.097873334441 -0.066285200026 -0.087744918533 -0.10040071988 -0.1056835376 -0.098305160299 -0.075073956925 
-0.033424156611 0.010775793168 -0.025206440966 -0.019434594231 -0.022325233084 -0.043143202631 -0.012253266874 -0.011791528016 -0.028333112002 
-0.036489039538 -0.035737681585 -0.050517219368 -0.056669765587 -0.049022593736 -0.026968916619 -0.037780341907 -0.032744419534 -0.045593624486 
-0.080052817272 -0.093122769724 -0.088425744387 -0.079346175646 -0.070368811198 -0.082996723555 -0.096493150847 0.058397300979 0.0045700772961 
-0.085027310438 -0.099973903791 -0.070146353128 -0.053357303767 -0.048605111851 -0.06197119198 -0.044048667805 -0.021472821179 -0.04246127173 
-0.024808374977 -0.039923129885 -0.053945621327 -0.062565595037 -0.036460538598 -0.030942572842 0.0015613356587 -0.012702774619 -0.048479409183 
-0.073390563157 -0.10345288712 -0.075381878451 -0.05186778199 -0.022050321414 -0.0068191313194 -0.019711048802 -0.044880583827 -0.050574207637 
-0.034474150239 -0.027203393037 -0.020346471854 -0.035491180949 -0.040142918022 -0.032529532561 -0.017893737542 -0.010910591988 -0.0016895601255 
-0.010892370014 -0.061070673454 -0.1373729265 -0.12362125743 -0.068119920617 0.029568941238 0.02409711006 0.0059362339925 -0.046821222862 
-0.029462639937 -0.012063357684 -0.01759735181 -0.010365480432 -0.030668491258 -0.043162205926 -0.043349457805 -0.026935123775 -0.058878279525 
-0.076046991274 -0.099026675803 -0.14197747149 -0.14356607673 -0.14858989948 -0.12340789112 -0.086378428521 -0.051539474344 -0.079892087655 
-0.044155546512 -0.095913998032 -0.07832323589 -0.067017494225 -0.05054890176 -0.04527534183 -0.048139986826 -0.049886344058 -0.056743225449 
-0.067846291298 -0.082447178156 -0.12185415454 -0.069736029932 0.026841698101 -0.067771768079 0.083229899407 0.038952887307 -0.019348056241 
-0.033783202624 -0.042394435431 -0.068363923085 -0.070035679267 -0.048114668761 -0.025994288218 -0.025254436726 -0.032109621372 -0.10546087635 
-0.08103100991 -0.11909040651 -0.10043001426 -0.081980885617 -0.079481480319 -0.031765245465 -0.0015645949011 -0.0042308022249 -0.046831233386 
-0.027663243732 -0.043645468068 -0.041402321843 -0.0082105056494 -0.033855494065 -0.074486816428 -0.07395957306 -0.039239864575 -0.026614791764 
-0.015826727379 -0.090492134786 -0.10627090415 -0.11396085422 -0.079594185502 -0.10895988496 -0.1103763534 -0.04104376713 -0.01096077903 
-0.020001180006 -0.028790638693 -0.029668269277 -0.031236862965 -0.021700278238 -0.022503205615 -0.023768435453 -0.027083431378 -0.038010689676 
-0.041425605655 -0.039364353292 -0.060927313863 -0.077950499932 -0.072403776988 -0.05937865176 -0.072080845608 -0.092461068217 -0.095185931954 
-0.093712734385 -0.06829497119 -0.07843133223 -0.054799032868 -0.046068195054 -0.049689401827 -0.051693446352 -0.046314895674 -0.039535735326 
-0.027617690778 -0.022248648963 -0.0026488251372 -0.022289413868 -0.025105369315 -0.015176858031 -0.003005886662 -0.013694058754 -0.029278327698 
-0.068179059834 -0.099702790412 -0.067020436131 -0.040321608505 -0.020864296493 -0.018452512867 -0.025205170506 -0.050226507609 -0.088197211139 
-0.056041844784 -0.048742116196 -0.053985058749 -0.073766738643 -0.050426608509 -0.032975673399 0.00045432500068 0.0043908723952 -0.0056648964836 
0.0064308375738 -0.015619596682 -0.078813505238 -0.093266147917 -0.10290408071 0.05751674821 0.018051541604 -0.062302974711 -0.033260246974 
-0.031468774357 -0.0319762881 -0.080862005051 -0.10169322267 -0.093028871502 -0.087425310154 -0.060762447086 -0.034910762615 -0.043602477918 
-0.053659076322 -0.068010220112 -0.096943751707 -0.10329111489 -0.09631779783 -0.080658343963 -0.047356485075 -0.036693958825 -0.056948767793 
-0.054240275235 -0.076949989324 -0.05921176532 -0.022440647195 -0.038945624874 -0.10325243472 -0.11276681905 -0.062430641175 -0.083952821726 
-0.059870833699 -0.065900098301 -0.05982062738 -0.042208020746 -0.01012682624 0.033515701922 0.013630035245 -0.0095520647715 -0.040272883475 
-0.047868794291 -0.056915047558 -0.071437392914 -0.063892500548 -0.073261196624 -0.069331822952 -0.092352513293 -0.093972084874 -0.08344880567 
-0.0756114768 -0.041301306393 -0.028224122026 -0.030924196235 -0.028528912129 -0.043593916494 -0.060033642421 -0.11452803419 -0.059807399445 
-0.051866025955 0.056269869989 0.069331822409 0.001327339203 -0.041344874299 -0.021685064299 -0.024800533423 -0.02784984552 -0.047114712655 
-0.051690653907 -0.047418719332 -0.052162756778 -0.054975777802 -0.072553908373 -0.071599786606 -0.12217238332 -0.11571908841 -0.10347399655 
-0.092390060726 -0.063376729998 -0.093376924556 -0.042192035675 -0.04413350171 -0.031404481015 -0.069016702916 -0.070526300198 -0.078784656113 
-0.076946002298 -0.066246409206 -0.050633376844 -0.04070759952 -0.0291669656 -0.11231657753 -0.096886282416 -0.047136054596 -0.05978430107 
-0.056829106484 -0.035230608914 -0.081755599239 -0.11498972634 -0.095822074651 -0.059260724852 -0.051605066595 -0.037465317281 -0.021946758346 
-0.045779723795 -0.06137693202 -0.085625390567 -0.041376773915 -0.041909892177 -0.048317029403 -0.044989826457 -0.03440473466 -0.019646016074 
-0.0012013877129 0.0098404108903 -0.02064680123 -0.016350103591 -0.036215548231 -0.052332014049 -0.058337869865 -0.063542428481 -0.081489873196 
-0.083181662689 -0.056991642598 -0.054510308764 -0.10780581876 -0.11345148713 -0.028277570007 -0.02635388769 -0.044301516252 -0.057707956903 
-0.047518586683 -0.029560828585 -0.034755201048 -0.04934091244 -0.055849269888 -0.038896696137 -0.037163265265 -0.031028990615 -0.034142111239 
-0.029282730045 -0.041275551334 -0.053254302149 -0.056080154417 -0.043839665298 -0.054653485843 -0.069799256944 -0.085929549259 -0.044268505394 
-0.063471151157 -0.01887668467 -0.02370154501 -0.043311665391 -0.052783359951 -0.057394368747 -0.066354916383 -0.073710578054 -0.089164736977 
-0.060271947804 -0.059083614401 -0.062753198243 -0.073485809637 -0.083031616006 -0.051556598879 -0.054690222629 -0.054921277002 -0.038737379662 
-0.025755169068 -0.025215568903 -0.023104341426 -0.011249543998 -0.0048119819041 -0.07190783664 -0.06240915651 -0.085662005591 -0.095090586061 
-0.093335354593 -0.08422531054 -0.074356995591 -0.054985702459 -0.053894857364 -0.080588337822 -0.057531989614 -0.027374683516 -0.050746759315 
-0.053606915827 -0.0028329922991 -0.022317932587 -0.030566392826 -0.061850699469 0.017378404684 0.032794033278 0.017192357377 -0.032821543223 
-0.060570811172 -0.056470953448 -0.063555400501 -0.061420796438 -0.054771734296 -0.042199902368 -0.033392063094 -0.060487126215 -0.10257775847 
-0.087479028264 -0.048751632528 -0.024421905529 -0.026568421085 -0.029199115615 -0.10269710322 -0.091213027957 -0.049299252215 -0.038936978107 
-0.017000192665 -0.091396940603 -0.020325905361 -0.036717901514 -0.021265644009 -0.030633287908 -0.042601274906 -0.052683239017 -0.031239364862 
0.0057396354707 0.014490695396 -0.0015713553263 -0.023192391643 -0.047751545072 -0.027126943901 -0.049587949581 -0.033073231885 -0.017643293701 
-0.034764593984 -0.053593493436 -0.073428549767 -0.079732380408 -0.10269285655 -0.1024042786 -0.10549983424 -0.1000594296 -0.073220796264 
-0.063707979469 -0.069813050597 -0.075975636527 -0.067229573541 -0.065315772505 -0.0076160491023 0.0074158419095 -0.015313856706 -0.0063547840451 
-0.024960428167 -0.052753647584 -0.044861030909 -0.047172687602 -0.081453660391 -0.057391156239 -0.037049387915 -0.00087206551309 0.011737551441 
0.00046095734698 -0.038705161804 -0.052603509689 -0.042519416277 -0.047174508242 -0.035077114673 -0.020201665493 -0.061970120437 -0.047310134255 
-0.074884744353 -0.054952397549 -0.048532073688 -0.027802680936 -0.011080415831 -0.04560898701 -0.048293443258 -0.06463883164 -0.064499708892 
-0.039664882069 -0.063668537985 -0.060754508411 -0.075874472311 -0.082021069877 -0.06800044261 -0.012524871114 -0.027929948254 -0.040952650116 

Displacement_Root 3 1116 double
0 0 0 0 0 0 0 0 0 
0 0 0 0 0 0 0 0 0 
0 0 0 0 0 0 0 0 0 
0 0 0 0 0 0 0 0 0 
0 0 0 0 0 0 0 0 0 
0 0 0 0 0 0 0 0 0 
0 0 0 0 0 0 0 0 0 
0 0 0 0 0 0 0 0 0 
0 0 0 0 0 0 0 0 0 
0 0 0 0 0 0 0 0 0 
0 0 0 0 0 0 0 0 0 
0 0 0 0 0 0 0 0 0 
0 0 0 0 0 0 0 0 0 
0 0 0 0 0 0 0 0 0 
0 0 0 0 0 0 0 0 0 
0 0 0 0 0 0 0 0 0 
0 0 0 0 0 0 0 0 0 
0 0 0 0 0 0 0 0 0 
0 0 0 0 0 0 0 0 0 
0 0 0 0 0 0 0 0 0 
0 0 0 0 0 0 0 0 0 
0 0 0 0 0 0 0 0 0 
0 0 0 0 0 0 0 0 0 
0 0 0 0 0 0 0 0 0 
0 0 0 0 0 0 0 0 0 
0 0 0 0 0 0 0 0 0 
0 0 0 0 0 0 0 0 0 
0 0 0 0 0 0 0 0 0 
0 0 0 0 0 0 0 0 0 
0 0 0 0 0 0 0 0 0 
0 0 0 0 0 0 0 0 0 
0 0 0 0 0 0 0 0 0 
0 0 0 0 0 0 0 0 0 
0 0 0 0 0 0 0 0 0 
0 0 0 0 0 0 0 0 0 
0 0 0 0 0 0 0 0 0 
0 0 0 0 0 0 0 0 0 
0 0 0 0 0 0 0 0 0 
0 0 0 0 0 0 0 0 0 
0 0 0 0 0 0 0 0 0 
0 0 0 0 0 0 0 0 0 
0 0 0 0 0 0 0 0 0 
0 0 0 0 0 0 0 0 0 
0 0 0 0 0 0 0 0 0 
0 0 0 0 0 0 0 0 0 
0 0 0 0 0 0 0 0 0 
0 0 0 0 0 0 0 0 0 
0 0 0 0 0 0 0 0 0 
0 0 0 0 0 0 0 0 0 
0 0 0 0 0 0 0 0 0 
0 0 0 0 0 0 0 0 0 
0 0 0 0 0 0 0 0 0 
0 0 0 0 0 0 0 0 0 
0 0 0 0 0 0 0 0 0 
0 0 0 0 0 0 0 0 0 
0 0 0 0 0 0 0 0 0 
0 0 0 0 0 0 0 0 0 
0 0 0 0 0 0 0 0 0 
0 0 0 0 0 0 0 0 0 
0 0 0 0 0 0 0 0 0 
0 0 0 0 0 0 0 0 0 
0 0 0 0 0 0 0 0 0 
0 0 0 0 0 0 0 0 0 
0 0 0 0 0 0 0 0 0 
0 0 0 0 0 0 0 0 0 
0 0 0 0 0 0 0 0 0 
0 0 0 0 0 0 0 0 0 
0 0 0 0 0 0 0 0 0 
0 0 0 0 0 0 0 0 0 
0 0 0 0 0 0 0 0 0 
0 0 0 0 0 0 0 0 0 
0 0 0 0 0 0 0 0 0 
0 0 0 0 0 0 0 0 0 
0 0 0 0 0 0 0 0 0 
0 0 0 0 0 0 0 0 0 
0 0 0 0 0 0 0 0 0 
0 0 0 0 0 0 0 0 0 
0 0 0 0 0 0 0 0 0 
0 0 0 0 0 0 0 0 0 
0 0 0 0 0 0 0 0 0 
0 0 0 0 0 0 0 0 0 
0 0 0 0 0 0 0 0 0 
0 0 0 0 0 0 0 0 0 
0 0 0 0 0 0 0 0 0 
0 0 0 0 0 0 0 0 0 
0 0 0 0 0 0 0 0 0 
0 0 0 0 0 0 0 0 0 
0 0 0 0 0 0 0 0 0 
0 0 0 0 0 0 0 0 0 
0 0 0 0 0 0 0 0 0 
0 0 0 0 0 0 0 0 0 
0 0 0 0 0 0 0 0 0 
0 0 0 0 0 0 0 0 0 
0 0 0 0 0 0 0 0 0 
0 0 0 0 0 0 0 0 0 
0 0 0 0 0 0 0 0 0 
0 0 0 0 0 0 0 0 0 
0 0 0 0 0 0 0 0 0 
0 0 0 0 0 0 0 0 0 
0 0 0 0 0 0 0 0 0 
0 0 0 0 0 0 0 0 0 
0 0 0 0 0 0 0 0 0 
0 0 0 0 0 0 0 0 0 
0 0 0 0 0 0 0 0 0 
0 0 0 0 0 0 0 0 0 
0 0 0 0 0 0 0 0 0 
0 0 0 0 0 0 0 0 0 
0 0 0 0 0 0 0 0 0 
0 0 0 0 0 0 0 0 0 
0 0 0 0 0 0 0 0 0 
0 0 0 0 0 0 0 0 0 
0 0 0 0 0 0 0 0 0 
0 0 0 0 0 0 0 0 0 
0 0 0 0 0 0 0 0 0 
0 0 0 0 0 0 0 0 0 
0 0 0 0 0 0 0 0 0 
0 0 0 0 0 0 0 0 0 
0 0 0 0 0 0 0 0 0 
0 0 0 0 0 0 0 0 0 
0 0 0 0 0 0 0 0 0 
0 0 0 0 0 0 0 0 0 
0 0 0 0 0 0 0 0 0 
0 0 0 0 0 0 0 0 0 
0 0 0 0 0 0 0 0 0 
0 0 0 0 0 0 0 0 0 
0 0 0 0 0 0 0 0 0 
0 0 0 0 0 0 0 0 0 
0 0 0 0 0 0 0 0 0 
0 0 0 0 0 0 0 0 0 
0 0 0 0 0 0 0 0 0 
0 0 0 0 0 0 0 0 0 
0 0 0 0 0 0 0 0 0 
0 0 0 0 0 0 0 0 0 
0 0 0 0 0 0 0 0 0 
0 0 0 0 0 0 0 0 0 
0 0 0 0 0 0 0 0 0 
0 0 0 0 0 0 0 0 0 
0 0 0 0 0 0 0 0 0 
0 0 0 0 0 0 0 0 0 
0 0 0 0 0 0 0 0 0 
0 0 0 0 0 0 0 0 0 
0 0 0 0 0 0 0 0 0 
0 0 0 0 0 0 0 0 0 
0 0 0 0 0 0 0 0 0 
0 0 0 0 0 0 0 0 0 
0 0 0 0 0 0 0 0 0 
0 0 0 0 0 0 0 0 0 
0 0 0 0 0 0 0 0 0 
0 0 0 0 0 0 0 0 0 
0 0 0 0 0 0 0 0 0 
0 0 0 0 0 0 0 0 0 
0 0 0 0 0 0 0 0 0 
0 0 0 0 0 0 0 0 0 
0 0 0 0 0 0 0 0 0 
0 0 0 0 0 0 0 0 0 
0 0 0 0 0 0 0 0 0 
0 0 0 0 0 0 0 0 0 
0 0 0 0 0 0 0 0 0 
0 0 0 0 0 0 0 0 0 
0 0 0 0 0 0 0 0 0 
0 0 0 0 0 0 0 0 0 
0 0 0 0 0 0 0 0 0 
0 0 0 0 0 0 0 0 0 
0 0 0 0 0 0 0 0 0 
0 0 0 0 0 0 0 0 0 
0 0 0 0 0 0 0 0 0 
0 0 0 0 0 0 0 0 0 
0 0 0 0 0 0 0 0 0 
0 0 0 0 0 0 0 0 0 
0 0 0 0 0 0 0 0 0 
0 0 0 0 0 0 0 0 0 
0 0 0 0 0 0 0 0 0 
0 0 0 0 0 0 0 0 0 
0 0 0 0 0 0 0 0 0 
0 0 0 0 0 0 0 0 0 
0 0 0 0 0 0 0 0 0 
0 0 0 0 0 0 0 0 0 
0 0 0 0 0 0 0 0 0 
0 0 0 0 0 0 0 0 0 
0 0 0 0 0 0 0 0 0 
0 0 0 0 0 0 0 0 0 
0 0 0 0 0 0 0 0 0 
0 0 0 0 0 0 0 0 0 
0 0 0 0 0 0 0 0 0 
0 0 0 0 0 0 0 0 0 
0 0 0 0 0 0 0 0 0 
0 0 0 0 0 0 0 0 0 
0 0 0 0 0 0 0 0 0 
0 0 0 0 0 0 0 0 0 
0 0 0 0 0 0 0 0 0 
0 0 0 0 0 0 0 0 0 
0 0 0 0 0 0 0 0 0 
0 0 0 0 0 0 0 0 0 
0 0 0 0 0 0 0 0 0 
0 0 0 0 0 0 0 0 0 
0 0 0 0 0 0 0 0 0 
0 0 0 0 0 0 0 0 0 
0 0 0 0 0 0 0 0 0 
0 0 0 0 0 0 0 0 0 
0 0 0 0 0 0 0 0 0 
0 0 0 0 0 0 0 0 0 
0 0 0 0 0 0 0 0 0 
0 0 0 0 0 0 0 0 0 
0 0 0 0 0 0 0 0 0 
0 0 0 0 0 0 0 0 0 
0 0 0 0 0 0 0 0 0 
0 0 0 0 0 0 0 0 0 
0 0 0 0 0 0 0 0 0 
0 0 0 0 0 0 0 0 0 
0 0 0 0 0 0 0 0 0 
0 0 0 0 0 0 0 0 0 
0 0 0 0 0 0 0 0 0 
0 0 0 0 0 0 0 0 0 
0 0 0 0 0 0 0 0 0 
0 0 0 0 0 0 0 0 0 
0 0 0 0 0 0 0 0 0 
0 0 0 0 0 0 0 0 0 
0 0 0 0 0 0 0 0 0 
0 0 0 0 0 0 0 0 0 
0 0 0 0 0 0 0 0 0 
0 0 0 0 0 0 0 0 0 
0 0 0 0 0 0 0 0 0 
0 0 0 0 0 0 0 0 0 
0 0 0 0 0 0 0 0 0 
0 0 0 0 0 0 0 0 0 
0 0 0 0 0 0 0 0 0 
0 0 0 0 0 0 0 0 0 
0 0 0 0 0 0 0 0 0 
0 0 0 0 0 0 0 0 0 
0 0 0 0 0 0 0 0 0 
0 0 0 0 0 0 0 0 0 
0 0 0 0 0 0 0 0 0 
0 0 0 0 0 0 0 0 0 
0 0 0 0 0 0 0 0 0 
0 0 0 0 0 0 0 0 0 
0 0 0 0 0 0 0 0 0 
0 0 0 0 0 0 0 0 0 
0 0 0 0 0 0 0 0 0 
0 0 0 0 0 0 0 0 0 
0 0 0 0 0 0 0 0 0 
0 0 0 0 0 0 0 0 0 
0 0 0 0 0 0 0 0 0 
0 0 0 0 0 0 0 0 0 
0 0 0 0 0 0 0 0 0 
0 0 0 0 0 0 0 0 0 
0 0 0 0 0 0 0 0 0 
0 0 0 0 0 0 0 0 0 
0 0 0 0 0 0 0 0 0 
0 0 0 0 0 0 0 0 0 
0 0 0 0 0 0 0 0 0 
0 0 0 0 0 0 0 0 0 
0 0 0 0 0 0 0 0 0 
0 0 0 0 0 0 0 0 0 
0 0 0 0 0 0 0 0 0 
0 0 0 0 0 0 0 0 0 
0 0 0 0 0 0 0 0 0 
0 0 0 0 0 0 0 0 0 
0 0 0 0 0 0 0 0 0 
0 0 0 0 0 0 0 0 0 
0 0 0 0 0 0 0 0 0 
0 0 0 0 0 0 0 0 0 
0 0 0 0 0 0 0 0 0 
0 0 0 0 0 0 0 0 0 
0 0 0 0 0 0 0 0 0 
0 0 0 0 0 0 0 0 0 
0 0 0 0 0 0 0 0 0 
0 0 0 0 0 0 0 0 0 
0 0 0 0 0 0 0 0 0 
0 0 0 0 0 0 0 0 0 
0 0 0 0 0 0 0 0 0 
0 0 0 0 0 0 0 0 0 
0 0 0 0 0 0 0 0 0 
0 0 0 0 0 0 0 0 0 
0 0 0 0 0 0 0 0 0 
0 0 0 0 0 0 0 0 0 
0 0 0 0 0 0 0 0 0 
0 0 0 0 0 0 0 0 0 
0 0 0 0 0 0 0 0 0 
0 0 0 0 0 0 0 0 0 
0 0 0 0 0 0 0 0 0 
0 0 0 0 0 0 0 0 0 
0 0 0 0 0 0 0 0 0 
0 0 0 0 0 0 0 0 0 
0 0 0 0 0 0 0 0 0 
0 0 0 0 0 0 0 0 0 
0 0 0 0 0 0 0 0 0 
0 0 0 0 0 0 0 0 0 
0 0 0 0 0 0 0 0 0 
0 0 0 0 0 0 0 0 0 
0 0 0 0 0 0 0 0 0 
0 0 0 0 0 0 0 0 0 
0 0 0 0 0 0 0 0 0 
0 0 0 0 0 0 0 0 0 
0 0 0 0 0 0 0 0 0 
0 0 0 0 0 0 0 0 0 
0 0 0 0 0 0 0 0 0 
0 0 0 0 0 0 0 0 0 
0 0 0 0 0 0 0 0 0 
0 0 0 0 0 0 0 0 0 
0 0 0 0 0 0 0 0 0 
0 0 0 0 0 0 0 0 0 
0 0 0 0 0 0 0 0 0 
0 0 0 0 0 0 0 0 0 
0 0 0 0 0 0 0 0 0 
0 0 0 0 0 0 0 0 0 
0 0 0 0 0 0 0 0 0 
0 0 0 0 0 0 0 0 0 
0 0 0 0 0 0 0 0 0 
0 0 0 0 0 0 0 0 0 
0 0 0 0 0 0 0 0 0 
0 0 0 0 0 0 0 0 0 
0 0 0 0 0 0 0 0 0 
0 0 0 0 0 0 0 0 0 
0 0 0 0 0 0 0 0 0 
0 0 0 0 0 0 0 0 0 
0 0 0 0 0 0 0 0 0 
0 0 0 0 0 0 0 0 0 
0 0 0 0 0 0 0 0 0 
0 0 0 0 0 0 0 0 0 
0 0 0 0 0 0 0 0 0 
0 0 0 0 0 0 0 0 0 
0 0 0 0 0 0 0 0 0 
0 0 0 0 0 0 0 0 0 
0 0 0 0 0 0 0 0 0 
0 0 0 0 0 0 0 0 0 
0 0 0 0 0 0 0 0 0 
0 0 0 0 0 0 0 0 0 
0 0 0 0 0 0 0 0 0 
0 0 0 0 0 0 0 0 0 
0 0 0 0 0 0 0 0 0 
0 0 0 0 0 0 0 0 0 
0 0 0 0 0 0 0 0 0 
0 0 0 0 0 0 0 0 0 
0 0 0 0 0 0 0 0 0 
0 0 0 0 0 0 0 0 0 
0 0 0 0 0 0 0 0 0 
0 0 0 0 0 0 0 0 0 
0 0 0 0 0 0 0 0 0 
0 0 0 0 0 0 0 0 0 
0 0 0 0 0 0 0 0 0 
0 0 0 0 0 0 0 0 0 
0 0 0 0 0 0 0 0 0 
0 0 0 0 0 0 0 0 0 
0 0 0 0 0 0 0 0 0 
0 0 0 0 0 0 0 0 0 
0 0 0 0 0 0 0 0 0 
0 0 0 0 0 0 0 0 0 
0 0 0 0 0 0 0 0 0 
0 0 0 0 0 0 0 0 0 
0 0 0 0 0 0 0 0 0 
0 0 0 0 0 0 0 0 0 
0 0 0 0 0 0 0 0 0 
0 0 0 0 0 0 0 0 0 
0 0 0 0 0 0 0 0 0 
0 0 0 0 0 0 0 0 0 
0 0 0 0 0 0 0 0 0 
0 0 0 0 0 0 0 0 0 
0 0 0 0 0 0 0 0 0 
0 0 0 0 0 0 0 0 0 
0 0 0 0 0 0 0 0 0 
0 0 0 0 0 0 0 0 0 
0 0 0 0 0 0 0 0 0 
0 0 0 0 0 0 0 0 0 
0 0 0 0 0 0 0 0 0 
0 0 0 0 0 0 0 0 0 
0 0 0 0 0 0 0 0 0 
0 0 0 0 0 0 0 0 0 
0 0 0 0 0 0 0 0 0 
0 0 0 0 0 0 0 0 0 
0 0 0 0 0 0 0 0 0 
0 0 0 0 0 0 0 0 0 
0 0 0 0 0 0 0 0 0 

Displacement_Total 3 1116 double
0 0 0 0 0 0 0 0 0 
0 0 0 0 0 0 0 0 0 
0 0 0 0 0 0 0 0 0 
0 0 0 0 0 0 0 0 0 
0 0 0 0 0 0 0 0 0 
0 0 0 0 0 0 0 0 0 
0 0 0 0 0 0 0 0 0 
0 0 0 0 0 0 0 0 0 
0 0 0 0 0 0 0 0 0 
0 0 0 0 0 0 0 0 0 
0 0 0 0 0 0 0 0 0 
0 0 0 0 0 0 0 0 0 
0 0 0 0 0 0 0 0 0 
0 0 0 0 0 0 0 0 0 
0 0 0 0 0 0 0 0 0 
0 0 0 0 0 0 0 0 0 
0 0 0 0 0 0 0 0 0 
0 0 0 0 0 0 0 0 0 
0 0 0 0 0 0 0 0 0 
0 0 0 0 0 0 0 0 0 
0 0 0 0 0 0 0 0 0 
0 0 0 0 0 0 0 0 0 
0 0 0 0 0 0 0 0 0 
0 0 0 0 0 0 0 0 0 
0 0 0 0 0 0 0 0 0 
0 0 0 0 0 0 0 0 0 
0 0 0 0 0 0 0 0 0 
0 0 0 0 0 0 0 0 0 
0 0 0 0 0 0 0 0 0 
0 0 0 0 0 0 0 0 0 
0 0 0 0 0 0 0 0 0 
0 0 0 0 0 0 0 0 0 
0 0 0 0 0 0 0 0 0 
0 0 0 0 0 0 0 0 0 
0 0 0 0 0 0 0 0 0 
0 0 0 0 0 0 0 0 0 
0 0 0 0 0 0 0 0 0 
0 0 0 0 0 0 0 0 0 
0 0 0 0 0 0 0 0 0 
0 0 0 0 0 0 0 0 0 
0 0 0 0 0 0 0 0 0 
0 0 0 0 0 0 0 0 0 
0 0 0 0 0 0 0 0 0 
0 0 0 0 0 0 0 0 0 
0 0 0 0 0 0 0 0 0 
0 0 0 0 0 0 0 0 0 
0 0 0 0 0 0 0 0 0 
0 0 0 0 0 0 0 0 0 
0 0 0 0 0 0 0 0 0 
0 0 0 0 0 0 0 0 0 
0 0 0 0 0 0 0 0 0 
0 0 0 0 0 0 0 0 0 
0 0 0 0 0 0 0 0 0 
0 0 0 0 0 0 0 0 0 
0 0 0 0 0 0 0 0 0 
0 0 0 0 0 0 0 0 0 
0 0 0 0 0 0 0 0 0 
0 0 0 0 0 0 0 0 0 
0 0 0 0 0 0 0 0 0 
0 0 0 0 0 0 0 0 0 
0 0 0 0 0 0 0 0 0 
0 0 0 0 0 0 0 0 0 
0 0 0 0 0 0 0 0 0 
0 0 0 0 0 0 0 0 0 
0 0 0 0 0 0 0 0 0 
0 0 0 0 0 0 0 0 0 
0 0 0 0 0 0 0 0 0 
0 0 0 0 0 0 0 0 0 
0 0 0 0 0 0 0 0 0 
0 0 0 0 0 0 0 0 0 
0 0 0 0 0 0 0 0 0 
0 0 0 0 0 0 0 0 0 
0 0 0 0 0 0 0 0 0 
0 0 0 0 0 0 0 0 0 
0 0 0 0 0 0 0 0 0 
0 0 0 0 0 0 0 0 0 
0 0 0 0 0 0 0 0 0 
0 0 0 0 0 0 0 0 0 
0 0 0 0 0 0 0 0 0 
0 0 0 0 0 0 0 0 0 
0 0 0 0 0 0 0 0 0 
0 0 0 0 0 0 0 0 0 
0 0 0 0 0 0 0 0 0 
0 0 0 0 0 0 0 0 0 
0 0 0 0 0 0 0 0 0 
0 0 0 0 0 0 0 0 0 
0 0 0 0 0 0 0 0 0 
0 0 0 0 0 0 0 0 0 
0 0 0 0 0 0 0 0 0 
0 0 0 0 0 0 0 0 0 
0 0 0 0 0 0 0 0 0 
0 0 0 0 0 0 0 0 0 
0 0 0 0 0 0 0 0 0 
0 0 0 0 0 0 0 0 0 
0 0 0 0 0 0 0 0 0 
0 0 0 0 0 0 0 0 0 
0 0 0 0 0 0 0 0 0 
0 0 0 0 0 0 0 0 0 
0 0 0 0 0 0 0 0 0 
0 0 0 0 0 0 0 0 0 
0 0 0 0 0 0 0 0 0 
0 0 0 0 0 0 0 0 0 
0 0 0 0 0 0 0 0 0 
0 0 0 0 0 0 0 0 0 
0 0 0 0 0 0 0 0 0 
0 0 0 0 0 0 0 0 0 
0 0 0 0 0 0 0 0 0 
0 0 0 0 0 0 0 0 0 
0 0 0 0 0 0 0 0 0 
0 0 0 0 0 0 0 0 0 
0 0 0 0 0 0 0 0 0 
0 0 0 0 0 0 0 0 0 
0 0 0 0 0 0 0 0 0 
0 0 0 0 0 0 0 0 0 
0 0 0 0 0 0 0 0 0 
0 0 0 0 0 0 0 0 0 
0 0 0 0 0 0 0 0 0 
0 0 0 0 0 0 0 0 0 
0 0 0 0 0 0 0 0 0 
0 0 0 0 0 0 0 0 0 
0 0 0 0 0 0 0 0 0 
0 0 0 0 0 0 0 0 0 
0 0 0 0 0 0 0 0 0 
0 0 0 0 0 0 0 0 0 
0 0 0 0 0 0 0 0 0 
0 0 0 0 0 0 0 0 0 
0 0 0 0 0 0 0 0 0 
0 0 0 0 0 0 0 0 0 
0 0 0 0 0 0 0 0 0 
0 0 0 0 0 0 0 0 0 
0 0 0 0 0 0 0 0 0 
0 0 0 0 0 0 0 0 0 
0 0 0 0 0 0 0 0 0 
0 0 0 0 0 0 0 0 0 
0 0 0 0 0 0 0 0 0 
0 0 0 0 0 0 0 0 0 
0 0 0 0 0 0 0 0 0 
0 0 0 0 0 0 0 0 0 
0 0 0 0 0 0 0 0 0 
0 0 0 0 0 0 0 0 0 
0 0 0 0 0 0 0 0 0 
0 0 0 0 0 0 0 0 0 
0 0 0 0 0 0 0 0 0 
0 0 0 0 0 0 0 0 0 
0 0 0 0 0 0 0 0 0 
0 0 0 0 0 0 0 0 0 
0 0 0 0 0 0 0 0 0 
0 0 0 0 0 0 0 0 0 
0 0 0 0 0 0 0 0 0 
0 0 0 0 0 0 0 0 0 
0 0 0 0 0 0 0 0 0 
0 0 0 0 0 0 0 0 0 
0 0 0 0 0 0 0 0 0 
0 0 0 0 0 0 0 0 0 
0 0 0 0 0 0 0 0 0 
0 0 0 0 0 0 0 0 0 
0 0 0 0 0 0 0 0 0 
0 0 0 0 0 0 0 0 0 
0 0 0 0 0 0 0 0 0 
0 0 0 0 0 0 0 0 0 
0 0 0 0 0 0 0 0 0 
0 0 0 0 0 0 0 0 0 
0 0 0 0 0 0 0 0 0 
0 0 0 0 0 0 0 0 0 
0 0 0 0 0 0 0 0 0 
0 0 0 0 0 0 0 0 0 
0 0 0 0 0 0 0 0 0 
0 0 0 0 0 0 0 0 0 
0 0 0 0 0 0 0 0 0 
0 0 0 0 0 0 0 0 0 
0 0 0 0 0 0 0 0 0 
0 0 0 0 0 0 0 0 0 
0 0 0 0 0 0 0 0 0 
0 0 0 0 0 0 0 0 0 
0 0 0 0 0 0 0 0 0 
0 0 0 0 0 0 0 0 0 
0 0 0 0 0 0 0 0 0 
0 0 0 0 0 0 0 0 0 
0 0 0 0 0 0 0 0 0 
0 0 0 0 0 0 0 0 0 
0 0 0 0 0 0 0 0 0 
0 0 0 0 0 0 0 0 0 
0 0 0 0 0 0 0 0 0 
0 0 0 0 0 0 0 0 0 
0 0 0 0 0 0 0 0 0 
0 0 0 0 0 0 0 0 0 
0 0 0 0 0 0 0 0 0 
0 0 0 0 0 0 0 0 0 
0 0 0 0 0 0 0 0 0 
0 0 0 0 0 0 0 0 0 
0 0 0 0 0 0 0 0 0 
0 0 0 0 0 0 0 0 0 
0 0 0 0 0 0 0 0 0 
0 0 0 0 0 0 0 0 0 
0 0 0 0 0 0 0 0 0 
0 0 0 0 0 0 0 0 0 
0 0 0 0 0 0 0 0 0 
0 0 0 0 0 0 0 0 0 
0 0 0 0 0 0 0 0 0 
0 0 0 0 0 0 0 0 0 
0 0 0 0 0 0 0 0 0 
0 0 0 0 0 0 0 0 0 
0 0 0 0 0 0 0 0 0 
0 0 0 0 0 0 0 0 0 
0 0 0 0 0 0 0 0 0 
0 0 0 0 0 0 0 0 0 
0 0 0 0 0 0 0 0 0 
0 0 0 0 0 0 0 0 0 
0 0 0 0 0 0 0 0 0 
0 0 0 0 0 0 0 0 0 
0 0 0 0 0 0 0 0 0 
0 0 0 0 0 0 0 0 0 
0 0 0 0 0 0 0 0 0 
0 0 0 0 0 0 0 0 0 
0 0 0 0 0 0 0 0 0 
0 0 0 0 0 0 0 0 0 
0 0 0 0 0 0 0 0 0 
0 0 0 0 0 0 0 0 0 
0 0 0 0 0 0 0 0 0 
0 0 0 0 0 0 0 0 0 
0 0 0 0 0 0 0 0 0 
0 0 0 0 0 0 0 0 0 
0 0 0 0 0 0 0 0 0 
0 0 0 0 0 0 0 0 0 
0 0 0 0 0 0 0 0 0 
0 0 0 0 0 0 0 0 0 
0 0 0 0 0 0 0 0 0 
0 0 0 0 0 0 0 0 0 
0 0 0 0 0 0 0 0 0 
0 0 0 0 0 0 0 0 0 
0 0 0 0 0 0 0 0 0 
0 0 0 0 0 0 0 0 0 
0 0 0 0 0 0 0 0 0 
0 0 0 0 0 0 0 0 0 
0 0 0 0 0 0 0 0 0 
0 0 0 0 0 0 0 0 0 
0 0 0 0 0 0 0 0 0 
0 0 0 0 0 0 0 0 0 
0 0 0 0 0 0 0 0 0 
0 0 0 0 0 0 0 0 0 
0 0 0 0 0 0 0 0 0 
0 0 0 0 0 0 0 0 0 
0 0 0 0 0 0 0 0 0 
0 0 0 0 0 0 0 0 0 
0 0 0 0 0 0 0 0 0 
0 0 0 0 0 0 0 0 0 
0 0 0 0 0 0 0 0 0 
0 0 0 0 0 0 0 0 0 
0 0 0 0 0 0 0 0 0 
0 0 0 0 0 0 0 0 0 
0 0 0 0 0 0 0 0 0 
0 0 0 0 0 0 0 0 0 
0 0 0 0 0 0 0 0 0 
0 0 0 0 0 0 0 0 0 
0 0 0 0 0 0 0 0 0 
0 0 0 0 0 0 0 0 0 
0 0 0 0 0 0 0 0 0 
0 0 0 0 0 0 0 0 0 
0 0 0 0 0 0 0 0 0 
0 0 0 0 0 0 0 0 0 
0 0 0 0 0 0 0 0 0 
0 0 0 0 0 0 0 0 0 
0 0 0 0 0 0 0 0 0 
0 0 0 0 0 0 0 0 0 
0 0 0 0 0 0 0 0 0 
0 0 0 0 0 0 0 0 0 
0 0 0 0 0 0 0 0 0 
0 0 0 0 0 0 0 0 0 
0 0 0 0 0 0 0 0 0 
0 0 0 0 0 0 0 0 0 
0 0 0 0 0 0 0 0 0 
0 0 0 0 0 0 0 0 0 
0 0 0 0 0 0 0 0 0 
0 0 0 0 0 0 0 0 0 
0 0 0 0 0 0 0 0 0 
0 0 0 0 0 0 0 0 0 
0 0 0 0 0 0 0 0 0 
0 0 0 0 0 0 0 0 0 
0 0 0 0 0 0 0 0 0 
0 0 0 0 0 0 0 0 0 
0 0 0 0 0 0 0 0 0 
0 0 0 0 0 0 0 0 0 
0 0 0 0 0 0 0 0 0 
0 0 0 0 0 0 0 0 0 
0 0 0 0 0 0 0 0 0 
0 0 0 0 0 0 0 0 0 
0 0 0 0 0 0 0 0 0 
0 0 0 0 0 0 0 0 0 
0 0 0 0 0 0 0 0 0 
0 0 0 0 0 0 0 0 0 
0 0 0 0 0 0 0 0 0 
0 0 0 0 0 0 0 0 0 
0 0 0 0 0 0 0 0 0 
0 0 0 0 0 0 0 0 0 
0 0 0 0 0 0 0 0 0 
0 0 0 0 0 0 0 0 0 
0 0 0 0 0 0 0 0 0 
0 0 0 0 0 0 0 0 0 
0 0 0 0 0 0 0 0 0 
0 0 0 0 0 0 0 0 0 
0 0 0 0 0 0 0 0 0 
0 0 0 0 0 0 0 0 0 
0 0 0 0 0 0 0 0 0 
0 0 0 0 0 0 0 0 0 
0 0 0 0 0 0 0 0 0 
0 0 0 0 0 0 0 0 0 
0 0 0 0 0 0 0 0 0 
0 0 0 0 0 0 0 0 0 
0 0 0 0 0 0 0 0 0 
0 0 0 0 0 0 0 0 0 
0 0 0 0 0 0 0 0 0 
0 0 0 0 0 0 0 0 0 
0 0 0 0 0 0 0 0 0 
0 0 0 0 0 0 0 0 0 
0 0 0 0 0 0 0 0 0 
0 0 0 0 0 0 0 0 0 
0 0 0 0 0 0 0 0 0 
0 0 0 0 0 0 0 0 0 
0 0 0 0 0 0 0 0 0 
0 0 0 0 0 0 0 0 0 
0 0 0 0 0 0 0 0 0 
0 0 0 0 0 0 0 0 0 
0 0 0 0 0 0 0 0 0 
0 0 0 0 0 0 0 0 0 
0 0 0 0 0 0 0 0 0 
0 0 0 0 0 0 0 0 0 
0 0 0 0 0 0 0 0 0 
0 0 0 0 0 0 0 0 0 
0 0 0 0 0 0 0 0 0 
0 0 0 0 0 0 0 0 0 
0 0 0 0 0 0 0 0 0 
0 0 0 0 0 0 0 0 0 
0 0 0 0 0 0 0 0 0 
0 0 0 0 0 0 0 0 0 
0 0 0 0 0 0 0 0 0 
0 0 0 0 0 0 0 0 0 
0 0 0 0 0 0 0 0 0 
0 0 0 0 0 0 0 0 0 
0 0 0 0 0 0 0 0 0 
0 0 0 0 0 0 0 0 0 
0 0 0 0 0 0 0 0 0 
0 0 0 0 0 0 0 0 0 
0 0 0 0 0 0 0 0 0 
0 0 0 0 0 0 0 0 0 
0 0 0 0 0 0 0 0 0 
0 0 0 0 0 0 0 0 0 
0 0 0 0 0 0 0 0 0 
0 0 0 0 0 0 0 0 0 
0 0 0 0 0 0 0 0 0 
0 0 0 0 0 0 0 0 0 
0 0 0 0 0 0 0 0 0 
0 0 0 0 0 0 0 0 0 
0 0 0 0 0 0 0 0 0 
0 0 0 0 0 0 0 0 0 
0 0 0 0 0 0 0 0 0 
0 0 0 0 0 0 0 0 0 
0 0 0 0 0 0 0 0 0 
0 0 0 0 0 0 0 0 0 
0 0 0 0 0 0 0 0 0 
0 0 0 0 0 0 0 0 0 
0 0 0 0 0 0 0 0 0 
0 0 0 0 0 0 0 0 0 
0 0 0 0 0 0 0 0 0 
0 0 0 0 0 0 0 0 0 
0 0 0 0 0 0 0 0 0 
0 0 0 0 0 0 0 0 0 
0 0 0 0 0 0 0 0 0 
0 0 0 0 0 0 0 0 0 
0 0 0 0 0 0 0 0 0 
0 0 0 0 0 0 0 0 0 
0 0 0 0 0 0 0 0 0 
0 0 0 0 0 0 0 0 0 

Displacement_Wall 3 1116 double
0 0 0 0 0 0 0 0 0 
0 0 0 0 0 0 0 0 0 
0 0 0 0 0 0 0 0 0 
0 0 0 0 0 0 0 0 0 
0 0 0 0 0 0 0 0 0 
0 0 0 0 0 0 0 0 0 
0 0 0 0 0 0 0 0 0 
0 0 0 0 0 0 0 0 0 
0 0 0 0 0 0 0 0 0 
0 0 0 0 0 0 0 0 0 
0 0 0 0 0 0 0 0 0 
0 0 0 0 0 0 0 0 0 
0 0 0 0 0 0 0 0 0 
0 0 0 0 0 0 0 0 0 
0 0 0 0 0 0 0 0 0 
0 0 0 0 0 0 0 0 0 
0 0 0 0 0 0 0 0 0 
0 0 0 0 0 0 0 0 0 
0 0 0 0 0 0 0 0 0 
0 0 0 0 0 0 0 0 0 
0 0 0 0 0 0 0 0 0 
0 0 0 0 0 0 0 0 0 
0 0 0 0 0 0 0 0 0 
0 0 0 0 0 0 0 0 0 
0 0 0 0 0 0 0 0 0 
0 0 0 0 0 0 0 0 0 
0 0 0 0 0 0 0 0 0 
0 0 0 0 0 0 0 0 0 
0 0 0 0 0 0 0 0 0 
0 0 0 0 0 0 0 0 0 
0 0 0 0 0 0 0 0 0 
0 0 0 0 0 0 0 0 0 
0 0 0 0 0 0 0 0 0 
0 0 0 0 0 0 0 0 0 
0 0 0 0 0 0 0 0 0 
0 0 0 0 0 0 0 0 0 
0 0 0 0 0 0 0 0 0 
0 0 0 0 0 0 0 0 0 
0 0 0 0 0 0 0 0 0 
0 0 0 0 0 0 0 0 0 
0 0 0 0 0 0 0 0 0 
0 0 0 0 0 0 0 0 0 
0 0 0 0 0 0 0 0 0 
0 0 0 0 0 0 0 0 0 
0 0 0 0 0 0 0 0 0 
0 0 0 0 0 0 0 0 0 
0 0 0 0 0 0 0 0 0 
0 0 0 0 0 0 0 0 0 
0 0 0 0 0 0 0 0 0 
0 0 0 0 0 0 0 0 0 
0 0 0 0 0 0 0 0 0 
0 0 0 0 0 0 0 0 0 
0 0 0 0 0 0 0 0 0 
0 0 0 0 0 0 0 0 0 
0 0 0 0 0 0 0 0 0 
0 0 0 0 0 0 0 0 0 
0 0 0 0 0 0 0 0 0 
0 0 0 0 0 0 0 0 0 
0 0 0 0 0 0 0 0 0 
0 0 0 0 0 0 0 0 0 
0 0 0 0 0 0 0 0 0 
0 0 0 0 0 0 0 0 0 
0 0 0 0 0 0 0 0 0 
0 0 0 0 0 0 0 0 0 
0 0 0 0 0 0 0 0 0 
0 0 0 0 0 0 0 0 0 
0 0 0 0 0 0 0 0 0 
0 0 0 0 0 0 0 0 0 
0 0 0 0 0 0 0 0 0 
0 0 0 0 0 0 0 0 0 
0 0 0 0 0 0 0 0 0 
0 0 0 0 0 0 0 0 0 
0 0 0 0 0 0 0 0 0 
0 0 0 0 0 0 0 0 0 
0 0 0 0 0 0 0 0 0 
0 0 0 0 0 0 0 0 0 
0 0 0 0 0 0 0 0 0 
0 0 0 0 0 0 0 0 0 
0 0 0 0 0 0 0 0 0 
0 0 0 0 0 0 0 0 0 
0 0 0 0 0 0 0 0 0 
0 0 0 0 0 0 0 0 0 
0 0 0 0 0 0 0 0 0 
0 0 0 0 0 0 0 0 0 
0 0 0 0 0 0 0 0 0 
0 0 0 0 0 0 0 0 0 
0 0 0 0 0 0 0 0 0 
0 0 0 0 0 0 0 0 0 
0 0 0 0 0 0 0 0 0 
0 0 0 0 0 0 0 0 0 
0 0 0 0 0 0 0 0 0 
0 0 0 0 0 0 0 0 0 
0 0 0 0 0 0 0 0 0 
0 0 0 0 0 0 0 0 0 
0 0 0 0 0 0 0 0 0 
0 0 0 0 0 0 0 0 0 
0 0 0 0 0 0 0 0 0 
0 0 0 0 0 0 0 0 0 
0 0 0 0 0 0 0 0 0 
0 0 0 0 0 0 0 0 0 
0 0 0 0 0 0 0 0 0 
0 0 0 0 0 0 0 0 0 
0 0 0 0 0 0 0 0 0 
0 0 0 0 0 0 0 0 0 
0 0 0 0 0 0 0 0 0 
0 0 0 0 0 0 0 0 0 
0 0 0 0 0 0 0 0 0 
0 0 0 0 0 0 0 0 0 
0 0 0 0 0 0 0 0 0 
0 0 0 0 0 0 0 0 0 
0 0 0 0 0 0 0 0 0 
0 0 0 0 0 0 0 0 0 
0 0 0 0 0 0 0 0 0 
0 0 0 0 0 0 0 0 0 
0 0 0 0 0 0 0 0 0 
0 0 0 0 0 0 0 0 0 
0 0 0 0 0 0 0 0 0 
0 0 0 0 0 0 0 0 0 
0 0 0 0 0 0 0 0 0 
0 0 0 0 0 0 0 0 0 
0 0 0 0 0 0 0 0 0 
0 0 0 0 0 0 0 0 0 
0 0 0 0 0 0 0 0 0 
0 0 0 0 0 0 0 0 0 
0 0 0 0 0 0 0 0 0 
0 0 0 0 0 0 0 0 0 
0 0 0 0 0 0 0 0 0 
0 0 0 0 0 0 0 0 0 
0 0 0 0 0 0 0 0 0 
0 0 0 0 0 0 0 0 0 
0 0 0 0 0 0 0 0 0 
0 0 0 0 0 0 0 0 0 
0 0 0 0 0 0 0 0 0 
0 0 0 0 0 0 0 0 0 
0 0 0 0 0 0 0 0 0 
0 0 0 0 0 0 0 0 0 
0 0 0 0 0 0 0 0 0 
0 0 0 0 0 0 0 0 0 
0 0 0 0 0 0 0 0 0 
0 0 0 0 0 0 0 0 0 
0 0 0 0 0 0 0 0 0 
0 0 0 0 0 0 0 0 0 
0 0 0 0 0 0 0 0 0 
0 0 0 0 0 0 0 0 0 
0 0 0 0 0 0 0 0 0 
0 0 0 0 0 0 0 0 0 
0 0 0 0 0 0 0 0 0 
0 0 0 0 0 0 0 0 0 
0 0 0 0 0 0 0 0 0 
0 0 0 0 0 0 0 0 0 
0 0 0 0 0 0 0 0 0 
0 0 0 0 0 0 0 0 0 
0 0 0 0 0 0 0 0 0 
0 0 0 0 0 0 0 0 0 
0 0 0 0 0 0 0 0 0 
0 0 0 0 0 0 0 0 0 
0 0 0 0 0 0 0 0 0 
0 0 0 0 0 0 0 0 0 
0 0 0 0 0 0 0 0 0 
0 0 0 0 0 0 0 0 0 
0 0 0 0 0 0 0 0 0 
0 0 0 0 0 0 0 0 0 
0 0 0 0 0 0 0 0 0 
0 0 0 0 0 0 0 0 0 
0 0 0 0 0 0 0 0 0 
0 0 0 0 0 0 0 0 0 
0 0 0 0 0 0 0 0 0 
0 0 0 0 0 0 0 0 0 
0 0 0 0 0 0 0 0 0 
0 0 0 0 0 0 0 0 0 
0 0 0 0 0 0 0 0 0 
0 0 0 0 0 0 0 0 0 
0 0 0 0 0 0 0 0 0 
0 0 0 0 0 0 0 0 0 
0 0 0 0 0 0 0 0 0 
0 0 0 0 0 0 0 0 0 
0 0 0 0 0 0 0 0 0 
0 0 0 0 0 0 0 0 0 
0 0 0 0 0 0 0 0 0 
0 0 0 0 0 0 0 0 0 
0 0 0 0 0 0 0 0 0 
0 0 0 0 0 0 0 0 0 
0 0 0 0 0 0 0 0 0 
0 0 0 0 0 0 0 0 0 
0 0 0 0 0 0 0 0 0 
0 0 0 0 0 0 0 0 0 
0 0 0 0 0 0 0 0 0 
0 0 0 0 0 0 0 0 0 
0 0 0 0 0 0 0 0 0 
0 0 0 0 0 0 0 0 0 
0 0 0 0 0 0 0 0 0 
0 0 0 0 0 0 0 0 0 
0 0 0 0 0 0 0 0 0 
0 0 0 0 0 0 0 0 0 
0 0 0 0 0 0 0 0 0 
0 0 0 0 0 0 0 0 0 
0 0 0 0 0 0 0 0 0 
0 0 0 0 0 0 0 0 0 
0 0 0 0 0 0 0 0 0 
0 0 0 0 0 0 0 0 0 
0 0 0 0 0 0 0 0 0 
0 0 0 0 0 0 0 0 0 
0 0 0 0 0 0 0 0 0 
0 0 0 0 0 0 0 0 0 
0 0 0 0 0 0 0 0 0 
0 0 0 0 0 0 0 0 0 
0 0 0 0 0 0 0 0 0 
0 0 0 0 0 0 0 0 0 
0 0 0 0 0 0 0 0 0 
0 0 0 0 0 0 0 0 0 
0 0 0 0 0 0 0 0 0 
0 0 0 0 0 0 0 0 0 
0 0 0 0 0 0 0 0 0 
0 0 0 0 0 0 0 0 0 
0 0 0 0 0 0 0 0 0 
0 0 0 0 0 0 0 0 0 
0 0 0 0 0 0 0 0 0 
0 0 0 0 0 0 0 0 0 
0 0 0 0 0 0 0 0 0 
0 0 0 0 0 0 0 0 0 
0 0 0 0 0 0 0 0 0 
0 0 0 0 0 0 0 0 0 
0 0 0 0 0 0 0 0 0 
0 0 0 0 0 0 0 0 0 
0 0 0 0 0 0 0 0 0 
0 0 0 0 0 0 0 0 0 
0 0 0 0 0 0 0 0 0 
0 0 0 0 0 0 0 0 0 
0 0 0 0 0 0 0 0 0 
0 0 0 0 0 0 0 0 0 
0 0 0 0 0 0 0 0 0 
0 0 0 0 0 0 0 0 0 
0 0 0 0 0 0 0 0 0 
0 0 0 0 0 0 0 0 0 
0 0 0 0 0 0 0 0 0 
0 0 0 0 0 0 0 0 0 
0 0 0 0 0 0 0 0 0 
0 0 0 0 0 0 0 0 0 
0 0 0 0 0 0 0 0 0 
0 0 0 0 0 0 0 0 0 
0 0 0 0 0 0 0 0 0 
0 0 0 0 0 0 0 0 0 
0 0 0 0 0 0 0 0 0 
0 0 0 0 0 0 0 0 0 
0 0 0 0 0 0 0 0 0 
0 0 0 0 0 0 0 0 0 
0 0 0 0 0 0 0 0 0 
0 0 0 0 0 0 0 0 0 
0 0 0 0 0 0 0 0 0 
0 0 0 0 0 0 0 0 0 
0 0 0 0 0 0 0 0 0 
0 0 0 0 0 0 0 0 0 
0 0 0 0 0 0 0 0 0 
0 0 0 0 0 0 0 0 0 
0 0 0 0 0 0 0 0 0 
0 0 0 0 0 0 0 0 0 
0 0 0 0 0 0 0 0 0 
0 0 0 0 0 0 0 0 0 
0 0 0 0 0 0 0 0 0 
0 0 0 0 0 0 0 0 0 
0 0 0 0 0 0 0 0 0 
0 0 0 0 0 0 0 0 0 
0 0 0 0 0 0 0 0 0 
0 0 0 0 0 0 0 0 0 
0 0 0 0 0 0 0 0 0 
0 0 0 0 0 0 0 0 0 
0 0 0 0 0 0 0 0 0 
0 0 0 0 0 0 0 0 0 
0 0 0 0 0 0 0 0 0 
0 0 0 0 0 0 0 0 0 
0 0 0 0 0 0 0 0 0 
0 0 0 0 0 0 0 0 0 
0 0 0 0 0 0 0 0 0 
0 0 0 0 0 0 0 0 0 
0 0 0 0 0 0 0 0 0 
0 0 0 0 0 0 0 0 0 
0 0 0 0 0 0 0 0 0 
0 0 0 0 0 0 0 0 0 
0 0 0 0 0 0 0 0 0 
0 0 0 0 0 0 0 0 0 
0 0 0 0 0 0 0 0 0 
0 0 0 0 0 0 0 0 0 
0 0 0 0 0 0 0 0 0 
0 0 0 0 0 0 0 0 0 
0 0 0 0 0 0 0 0 0 
0 0 0 0 0 0 0 0 0 
0 0 0 0 0 0 0 0 0 
0 0 0 0 0 0 0 0 0 
0 0 0 0 0 0 0 0 0 
0 0 0 0 0 0 0 0 0 
0 0 0 0 0 0 0 0 0 
0 0 0 0 0 0 0 0 0 
0 0 0 0 0 0 0 0 0 
0 0 0 0 0 0 0 0 0 
0 0 0 0 0 0 0 0 0 
0 0 0 0 0 0 0 0 0 
0 0 0 0 0 0 0 0 0 
0 0 0 0 0 0 0 0 0 
0 0 0 0 0 0 0 0 0 
0 0 0 0 0 0 0 0 0 
0 0 0 0 0 0 0 0 0 
0 0 0 0 0 0 0 0 0 
0 0 0 0 0 0 0 0 0 
0 0 0 0 0 0 0 0 0 
0 0 0 0 0 0 0 0 0 
0 0 0 0 0 0 0 0 0 
0 0 0 0 0 0 0 0 0 
0 0 0 0 0 0 0 0 0 
0 0 0 0 0 0 0 0 0 
0 0 0 0 0 0 0 0 0 
0 0 0 0 0 0 0 0 0 
0 0 0 0 0 0 0 0 0 
0 0 0 0 0 0 0 0 0 
0 0 0 0 0 0 0 0 0 
0 0 0 0 0 0 0 0 0 
0 0 0 0 0 0 0 0 0 
0 0 0 0 0 0 0 0 0 
0 0 0 0 0 0 0 0 0 
0 0 0 0 0 0 0 0 0 
0 0 0 0 0 0 0 0 0 
0 0 0 0 0 0 0 0 0 
0 0 0 0 0 0 0 0 0 
0 0 0 0 0 0 0 0 0 
0 0 0 0 0 0 0 0 0 
0 0 0 0 0 0 0 0 0 
0 0 0 0 0 0 0 0 0 
0 0 0 0 0 0 0 0 0 
0 0 0 0 0 0 0 0 0 
0 0 0 0 0 0 0 0 0 
0 0 0 0 0 0 0 0 0 
0 0 0 0 0 0 0 0 0 
0 0 0 0 0 0 0 0 0 
0 0 0 0 0 0 0 0 0 
0 0 0 0 0 0 0 0 0 
0 0 0 0 0 0 0 0 0 
0 0 0 0 0 0 0 0 0 
0 0 0 0 0 0 0 0 0 
0 0 0 0 0 0 0 0 0 
0 0 0 0 0 0 0 0 0 
0 0 0 0 0 0 0 0 0 
0 0 0 0 0 0 0 0 0 
0 0 0 0 0 0 0 0 0 
0 0 0 0 0 0 0 0 0 
0 0 0 0 0 0 0 0 0 
0 0 0 0 0 0 0 0 0 
0 0 0 0 0 0 0 0 0 
0 0 0 0 0 0 0 0 0 
0 0 0 0 0 0 0 0 0 
0 0 0 0 0 0 0 0 0 
0 0 0 0 0 0 0 0 0 
0 0 0 0 0 0 0 0 0 
0 0 0 0 0 0 0 0 0 
0 0 0 0 0 0 0 0 0 
0 0 0 0 0 0 0 0 0 
0 0 0 0 0 0 0 0 0 
0 0 0 0 0 0 0 0 0 
0 0 0 0 0 0 0 0 0 
0 0 0 0 0 0 0 0 0 
0 0 0 0 0 0 0 0 0 
0 0 0 0 0 0 0 0 0 
0 0 0 0 0 0 0 0 0 
0 0 0 0 0 0 0 0 0 
0 0 0 0 0 0 0 0 0 
0 0 0 0 0 0 0 0 0 
0 0 0 0 0 0 0 0 0 
0 0 0 0 0 0 0 0 0 
0 0 0 0 0 0 0 0 0 
0 0 0 0 0 0 0 0 0 
0 0 0 0 0 0 0 0 0 
0 0 0 0 0 0 0 0 0 
0 0 0 0 0 0 0 0 0 
0 0 0 0 0 0 0 0 0 

I1_Pt 1 1116 double
2 2 2 2 2 2 2 2 2 
2 2 2 2 2 2 2 2 2 
2 2 2 2 2 2 2 2 2 
2 2 2 2 2 2 2 2 2 
2 2 2 2 2 2 2 2 2 
2 2 2 2 2 2 2 2 2 
2 2 2 2 2 2 2 2 2 
2 2 2 2 2 2 2 2 2 
2 2 2 2 2 2 2 2 2 
2 2 2 2 2 2 2 2 2 
2 2 2 2 2 2 2 2 2 
2 2 2 2 2 2 2 2 2 
2 2 2 2 2 2 2 2 2 
2 2 2 2 2 2 2 2 2 
2 2 2 2 2 2 2 2 2 
2 2 2 2 2 2 2 2 2 
2 2 2 2 2 2 2 2 2 
2 2 2 2 2 2 2 2 2 
2 2 2 2 2 2 2 2 2 
2 2 2 2 2 2 2 2 2 
2 2 2 2 2 2 2 2 2 
2 2 2 2 2 2 2 2 2 
2 2 2 2 2 2 2 2 2 
2 2 2 2 2 2 2 2 2 
2 2 2 2 2 2 2 2 2 
2 2 2 2 2 2 2 2 2 
2 2 2 2 2 2 2 2 2 
2 2 2 2 2 2 2 2 2 
2 2 2 2 2 2 2 2 2 
2 2 2 2 2 2 2 2 2 
2 2 2 2 2 2 2 2 2 
2 2 2 2 2 2 2 2 2 
2 2 2 2 2 2 2 2 2 
2 2 2 2 2 2 2 2 2 
2 2 2 2 2 2 2 2 2 
2 2 2 2 2 2 2 2 2 
2 2 2 2 2 2 2 2 2 
2 2 2 2 2 2 2 2 2 
2 2 2 2 2 2 2 2 2 
2 2 2 2 2 2 2 2 2 
2 2 2 2 2 2 2 2 2 
2 2 2 2 2 2 2 2 2 
2 2 2 2 2 2 2 2 2 
2 2 2 2 2 2 2 2 2 
2 2 2 2 2 2 2 2 2 
2 2 2 2 2 2 2 2 2 
2 2 2 2 2 2 2 2 2 
2 2 2 2 2 2 2 2 2 
2 2 2 2 2 2 2 2 2 
2 2 2 2 2 2 2 2 2 
2 2 2 2 2 2 2 2 2 
2 2 2 2 2 2 2 2 2 
2 2 2 2 2 2 2 2 2 
2 2 2 2 2 2 2 2 2 
2 2 2 2 2 2 2 2 2 
2 2 2 2 2 2 2 2 2 
2 2 2 2 2 2 2 2 2 
2 2 2 2 2 2 2 2 2 
2 2 2 2 2 2 2 2 2 
2 2 2 2 2 2 2 2 2 
2 2 2 2 2 2 2 2 2 
2 2 2 2 2 2 2 2 2 
2 2 2 2 2 2 2 2 2 
2 2 2 2 2 2 2 2 2 
2 2 2 2 2 2 2 2 2 
2 2 2 2 2 2 2 2 2 
2 2 2 2 2 2 2 2 2 
2 2 2 2 2 2 2 2 2 
2 2 2 2 2 2 2 2 2 
2 2 2 2 2 2 2 2 2 
2 2 2 2 2 2 2 2 2 
2 2 2 2 2 2 2 2 2 
2 2 2 2 2 2 2 2 2 
2 2 2 2 2 2 2 2 2 
2 2 2 2 2 2 2 2 2 
2 2 2 2 2 2 2 2 2 
2 2 2 2 2 2 2 2 2 
2 2 2 2 2 2 2 2 2 
2 2 2 2 2 2 2 2 2 
2 2 2 2 2 2 2 2 2 
2 2 2 2 2 2 2 2 2 
2 2 2 2 2 2 2 2 2 
2 2 2 2 2 2 2 2 2 
2 2 2 2 2 2 2 2 2 
2 2 2 2 2 2 2 2 2 
2 2 2 2 2 2 2 2 2 
2 2 2 2 2 2 2 2 2 
2 2 2 2 2 2 2 2 2 
2 2 2 2 2 2 2 2 2 
2 2 2 2 2 2 2 2 2 
2 2 2 2 2 2 2 2 2 
2 2 2 2 2 2 2 2 2 
2 2 2 2 2 2 2 2 2 
2 2 2 2 2 2 2 2 2 
2 2 2 2 2 2 2 2 2 
2 2 2 2 2 2 2 2 2 
2 2 2 2 2 2 2 2 2 
2 2 2 2 2 2 2 2 2 
2 2 2 2 2 2 2 2 2 
2 2 2 2 2 2 2 2 2 
2 2 2 2 2 2 2 2 2 
2 2 2 2 2 2 2 2 2 
2 2 2 2 2 2 2 2 2 
2 2 2 2 2 2 2 2 2 
2 2 2 2 2 2 2 2 2 
2 2 2 2 2 2 2 2 2 
2 2 2 2 2 2 2 2 2 
2 2 2 2 2 2 2 2 2 
2 2 2 2 2 2 2 2 2 
2 2 2 2 2 2 2 2 2 
2 2 2 2 2 2 2 2 2 
2 2 2 2 2 2 2 2 2 
2 2 2 2 2 2 2 2 2 
2 2 2 2 2 2 2 2 2 
2 2 2 2 2 2 2 2 2 
2 2 2 2 2 2 2 2 2 
2 2 2 2 2 2 2 2 2 
2 2 2 2 2 2 2 2 2 
2 2 2 2 2 2 2 2 2 
2 2 2 2 2 2 2 2 2 
2 2 2 2 2 2 2 2 2 
2 2 2 2 2 2 2 2 2 
2 2 2 2 2 2 2 2 2 
2 2 2 2 2 2 2 2 2 

IAS 1 1116 double
0 0 0 0 0 0 0 0 0 
0 0 0 0 0 0 0 0 0 
0 0 0 0 0 0 0 0 0 
0 0 0 0 0 0 0 0 0 
0 0 0 0 0 0 0 0 0 
0 0 0 0 0 0 0 0 0 
0 0 0 0 0 0 0 0 0 
0 0 0 0 0 0 0 0 0 
0 0 0 0 0 0 0 0 0 
0 0 0 0 0 0 0 0 0 
0 0 0 0 0.10905443507 0.11049866669 0.76372023372 0.74818487272 0.61009708918 
0.63742142367 0 0.042398175081 0 0 0 0 0 0 
0 0 0 0 0 0 0 0 0 
0 0 0 0 0 0 0 0 0 
0 0 0 0 0 0 0 0 0 
0 0 0 0 0 0 0 0 0 
0 0 0 0 0 0 0 0 0 
0 0 0 0 0 0 0 0 0 
0 0 0 0 0 0 0 0 0 
0 0 0 0 0 0 0 0 0.01415413061 
0.68206820775 0.68876632751 0.64710919364 0.65820396249 0 0.032142973242 0 0 0 
0 0 0 0 0 0 0 0 0 
0 0 0 0 0 0 0 0 0 
0 0 0 0 0 0 0 0 0 
0 0 0 0 0 0 0 0 0 
0 0 0 0 0 0 0 0 0 
0 0 0 0 0 0 0 0 0 
0 0 0 0 0 0 0 0 0 
0 0 0 0 0 0 0 0 0 
0 0 0 0 0 0 0 0 0 
0 0 0 0 0.12719029353 0.7418156001 0.6718618367 0.10079692666 0 
0 0 0 0 0 0 0 0 0 
0 0 0 0 0 0 0 0 0 
0 0 0 0 0 0 0 0 0 
0 0 0 0 0 0 0 0 0 
0 0.064000865661 0.71055377851 0.67355844208 0.076540596574 0 0 0 0 
0 0 0 0 0 0 0 0 0 
0 0 0 0 0 0 0 0 0 
0 0 0 0 0 0 0 0 0 
0 0 0 0 0 0 0 0 0 
0 0 0 0 0 0 0 0 0 
0 0 0 0 0 0 0 0 0 
0 0 0 0 0 0 0 0 0 
0.14285265981 0.72583347682 0.70542623779 0.15505519853 0 0 0 0 0 
0 0 0 0 0 0 0 0 0 
0 0 0 0 0 0 0 0 0 
0 0 0 0 0 0 0 0 0 
0 0 0 0 0 0 0 0 0 
0 0.12621457116 0.72462538099 0.67920884799 0.094015957868 0 0 0 0 
0 0 0 0 0 0 0 0 0 
0 0 0 0 0 0 0 0 0 
0 0 0 0 0 0.1230137066 0.68487776552 0.77135024666 0.22118401182 
0 0 0 0 0 0 0 0 0 
0 0 0 0 0 0 0 0 0 
0 0 0 0 0 0 0 0 0 
0 0 0 0 0 0 0 0 0 
0 0 0 0 0 0 0 0 0 
0 0 0 0 0 0 0 0 0 
0 0 0 0 0 0 0 0 0 
0 0 0 0 0 0 0 0 0 
0 0 0 0 0 0 0 0 0 
0 0 0 0 0 0 0 0 0.21833446113 
0.78713288581 0.63721683514 0.078787205886 0 0 0 0 0 0 
0 0 0 0 0 0 0 0 0 
0 0 0 0 0 0 0 0 0 
0 0 0 0 0.046815772464 0.58315853364 0.86173987608 0.30217284205 0 
0 0 0 0 0 0 0 0 0 
0 0 0 0 0 0 0 0 0 
0 0 0 0 0 0 0 0 0 
0 0 0 0 0 0 0 0 0 
0 0 0 0 0 0 0 0 0 
0 0 0 0 0 0 0 0 0 
0 0 0 0 0 0 0 0 0 
0 0 0 0 0 0 0 0 0 
0 0 0 0 0 0 0 0.33499210527 0.86995214018 
0.57944121166 0.039854021195 0 0 0 0 0 0 0 
0 0 0 0 0 0 0 0 0 
0 0 0 0 0 0 0 0 0 
0 0 0 0 0 0 0 0 0 
0 0 0 0 0 0 0 0 0 
0 0 0 0 0.45601220169 0.96481518911 0.38725934149 0 0 
0 0 0 0 0 0 0 0 0 
0 0 0 0 0 0 0 0 0 
0 0 0 0 0 0 0 0 0 
0 0 0 0 0 0 0 0 0 
0 0 0 0 0 0 0 0 0 
0 0 0 0 0 0 0 0 0 
0 0 0 0 0 0 0 0 0 
0 0 0 0 0 0 0 0 0 
0 0 0 0 0 0 0.50106207993 0.035665823404 0.99700579231 
0.47313752657 0 0 0 0 0 0 0 0 
0 0 0 0 0 0 0 0 0 
0 0 0 0 0 0 0 0 0 
0 0 0 0 0 0 0 0 0 
0 0 0 0 0 0 0 0 0 
0 0 0 0 0 0 0 0 0 
0 0 0 0 0 0 0 0 0 
0 0 0 0 0 0 0 0.32761327369 0.93394115064 
0.4590596707 0 0 0 0 0 0 0 0 
0 0 0 0 0 0 0 0 0 
0 0 0 0 0 0 0 0 0 
0 0 0 0 0 0 0 0 0 
0 0 0 0 0 0 0 0 0 
0.69423934829 0.26643371385 0.85153942614 0.36360253477 0 0 0 0 0 
0 0 0 0 0 0 0 0 0 
0 0 0 0 0 0 0 0 0 
0 0 0 0 0 0 0 0 0 
0 0 0 0 0 0 0 0 0 
0 0 0 0 0 0 0 0 0 
0 0 0 0 0 0 0 0.25823259342 0.70421797892 
0 0 0 0 0 0 0 0 0 
0 0 0 0 0 0 0 0 0 
0 0 0 0 0 0 0 0 0 
0 0 0 0 0 0 0 0 0 
0 0 0 0 0 0 0 0 0 
0 0 0 0 0 0 0.22694966334 0.8778201409 0.50958052069 
0.027383021715 0.87188800829 0 0 0 0 0 0 0 
0 0 0 0 0 0 0 0 0 
0 0 0 0 0 0 0 0 0 
0 0 0 0 0 0 0 0 0 
0 0 0 0 0 0 0 0 0 
0 0 0 0 0 0 0 0 0 
0 0 0 0 0 0 0 0 0 
0.1166659757 0.44457689207 0.5805123915 0.19045240424 0 0 0 0 0 

J_Pt 1 1116 double
1 1 1 1 1 1 1 1 1 
1 1 1 1 1 1 1 1 1 
1 1 1 1 1 1 1 1 1 
1 1 1 1 1 1 1 1 1 
1 1 1 1 1 1 1 1 1 
1 1 1 1 1 1 1 1 1 
1 1 1 1 1 1 1 1 1 
1 1 1 1 1 1 1 1 1 
1 1 1 1 1 1 1 1 1 
1 1 1 1 1 1 1 1 1 
1 1 1 1 1 1 1 1 1 
1 1 1 1 1 1 1 1 1 
1 1 1 1 1 1 1 1 1 
1 1 1 1 1 1 1 1 1 
1 1 1 1 1 1 1 1 1 
1 1 1 1 1 1 1 1 1 
1 1 1 1 1 1 1 1 1 
1 1 1 1 1 1 1 1 1 
1 1 1 1 1 1 1 1 1 
1 1 1 1 1 1 1 1 1 
1 1 1 1 1 1 1 1 1 
1 1 1 1 1 1 1 1 1 
1 1 1 1 1 1 1 1 1 
1 1 1 1 1 1 1 1 1 
1 1 1 1 1 1 1 1 1 
1 1 1 1 1 1 1 1 1 
1 1 1 1 1 1 1 1 1 
1 1 1 1 1 1 1 1 1 
1 1 1 1 1 1 1 1 1 
1 1 1 1 1 1 1 1 1 
1 1 1 1 1 1 1 1 1 
1 1 1 1 1 1 1 1 1 
1 1 1 1 1 1 1 1 1 
1 1 1 1 1 1 1 1 1 
1 1 1 1 1 1 1 1 1 
1 1 1 1 1 1 1 1 1 
1 1 1 1 1 1 1 1 1 
1 1 1 1 1 1 1 1 1 
1 1 1 1 1 1 1 1 1 
1 1 1 1 1 1 1 1 1 
1 1 1 1 1 1 1 1 1 
1 1 1 1 1 1 1 1 1 
1 1 1 1 1 1 1 1 1 
1 1 1 1 1 1 1 1 1 
1 1 1 1 1 1 1 1 1 
1 1 1 1 1 1 1 1 1 
1 1 1 1 1 1 1 1 1 
1 1 1 1 1 1 1 1 1 
1 1 1 1 1 1 1 1 1 
1 1 1 1 1 1 1 1 1 
1 1 1 1 1 1 1 1 1 
1 1 1 1 1 1 1 1 1 
1 1 1 1 1 1 1 1 1 
1 1 1 1 1 1 1 1 1 
1 1 1 1 1 1 1 1 1 
1 1 1 1 1 1 1 1 1 
1 1 1 1 1 1 1 1 1 
1 1 1 1 1 1 1 1 1 
1 1 1 1 1 1 1 1 1 
1 1 1 1 1 1 1 1 1 
1 1 1 1 1 1 1 1 1 
1 1 1 1 1 1 1 1 1 
1 1 1 1 1 1 1 1 1 
1 1 1 1 1 1 1 1 1 
1 1 1 1 1 1 1 1 1 
1 1 1 1 1 1 1 1 1 
1 1 1 1 1 1 1 1 1 
1 1 1 1 1 1 1 1 1 
1 1 1 1 1 1 1 1 1 
1 1 1 1 1 1 1 1 1 
1 1 1 1 1 1 1 1 1 
1 1 1 1 1 1 1 1 1 
1 1 1 1 1 1 1 1 1 
1 1 1 1 1 1 1 1 1 
1 1 1 1 1 1 1 1 1 
1 1 1 1 1 1 1 1 1 
1 1 1 1 1 1 1 1 1 
1 1 1 1 1 1 1 1 1 
1 1 1 1 1 1 1 1 1 
1 1 1 1 1 1 1 1 1 
1 1 1 1 1 1 1 1 1 
1 1 1 1 1 1 1 1 1 
1 1 1 1 1 1 1 1 1 
1 1 1 1 1 1 1 1 1 
1 1 1 1 1 1 1 1 1 
1 1 1 1 1 1 1 1 1 
1 1 1 1 1 1 1 1 1 
1 1 1 1 1 1 1 1 1 
1 1 1 1 1 1 1 1 1 
1 1 1 1 1 1 1 1 1 
1 1 1 1 1 1 1 1 1 
1 1 1 1 1 1 1 1 1 
1 1 1 1 1 1 1 1 1 
1 1 1 1 1 1 1 1 1 
1 1 1 1 1 1 1 1 1 
1 1 1 1 1 1 1 1 1 
1 1 1 1 1 1 1 1 1 
1 1 1 1 1 1 1 1 1 
1 1 1 1 1 1 1 1 1 
1 1 1 1 1 1 1 1 1 
1 1 1 1 1 1 1 1 1 
1 1 1 1 1 1 1 1 1 
1 1 1 1 1 1 1 1 1 
1 1 1 1 1 1 1 1 1 
1 1 1 1 1 1 1 1 1 
1 1 1 1 1 1 1 1 1 
1 1 1 1 1 1 1 1 1 
1 1 1 1 1 1 1 1 1 
1 1 1 1 1 1 1 1 1 
1 1 1 1 1 1 1 1 1 
1 1 1 1 1 1 1 1 1 
1 1 1 1 1 1 1 1 1 
1 1 1 1 1 1 1 1 1 
1 1 1 1 1 1 1 1 1 
1 1 1 1 1 1 1 1 1 
1 1 1 1 1 1 1 1 1 
1 1 1 1 1 1 1 1 1 
1 1 1 1 1 1 1 1 1 
1 1 1 1 1 1 1 1 1 
1 1 1 1 1 1 1 1 1 
1 1 1 1 1 1 1 1 1 
1 1 1 1 1 1 1 1 1 
1 1 1 1 1 1 1 1 1 
1 1 1 1 1 1 1 1 1 

Label 4 1116 double
1 1 1 1 1 1 1 1 1 
1 1 1 1 1 1 1 1 1 
1 1 1 1 1 1 1 1 1 
1 1 1 1 1 1 1 1 1 
1 1 1 1 1 1 1 1 1 
1 1 1 1 1 1 1 1 1 
1 1 1 1 1 1 1 1 1 
1 1 1 1 1 1 1 1 1 
1 1 1 1 1 1 1 1 1 
1 1 1 1 1 1 1 1 1 
1 1 1 1 1 1 1 1 1 
1 1 1 1 1 1 1 1 1 
1 1 1 1 1 1 1 1 1 
1 1 1 1 1 1 1 1 1 
1 1 1 1 1 1 1 1 1 
1 1 1 1 1 1 1 1 1 
1 1 1 1 1 1 1 1 1 
1 1 1 1 1 1 1 1 1 
1 1 1 1 1 1 1 1 1 
1 1 1 1 1 1 1 1 1 
1 1 1 1 1 1 1 1 1 
1 1 1 1 1 1 1 1 1 
1 1 1 1 1 1 1 1 1 
1 1 1 1 1 1 1 1 1 
1 1 1 1 1 1 1 1 1 
1 1 1 1 1 1 1 1 1 
1 1 1 1 1 1 1 1 1 
1 1 1 1 1 1 1 1 1 
1 1 1 1 1 1 1 1 1 
1 1 1 1 1 1 1 1 1 
1 1 1 1 1 1 1 1 1 
1 1 1 1 1 1 1 1 1 
1 1 1 1 1 1 1 1 1 
1 1 1 1 1 1 1 1 1 
1 1 1 1 1 1 1 1 1 
1 1 1 1 1 1 1 1 1 
1 1 1 1 1 1 1 1 1 
1 1 1 1 1 1 1 1 1 
1 1 1 1 1 1 1 1 1 
1 1 1 1 1 1 1 1 1 
1 1 1 1 1 1 1 1 1 
1 1 1 1 1 1 1 1 1 
1 1 1 1 1 1 1 1 1 
1 1 1 1 1 1 1 1 1 
1 1 1 1 1 1 1 1 1 
1 1 1 1 1 1 1 1 1 
1 1 1 1 1 1 1 1 1 
1 1 1 1 1 1 1 1 1 
1 1 1 1 1 1 1 1 1 
1 1 1 1 1 1 1 1 1 
1 1 1 1 1 1 1 1 1 
1 1 1 1 1 1 1 1 1 
1 1 1 1 1 1 1 1 1 
1 1 1 1 1 1 1 1 1 
1 1 1 1 1 1 1 1 1 
1 1 1 1 1 1 1 1 1 
1 1 1 1 1 1 1 1 1 
1 1 1 1 1 1 1 1 1 
1 1 1 1 1 1 1 1 1 
1 1 1 1 1 1 1 1 1 
1 1 1 1 1 1 1 1 1 
1 1 1 1 1 1 1 1 1 
1 1 1 1 1 1 1 1 1 
1 1 1 1 1 1 1 1 1 
1 1 1 1 1 1 1 1 1 
1 1 1 1 1 1 1 1 1 
1 1 1 1 1 1 1 1 1 
1 1 1 1 1 1 1 1 1 
1 1 1 1 1 1 1 1 1 
1 1 1 1 1 1 1 1 1 
1 1 1 1 1 1 1 1 1 
1 1 1 1 1 1 1 1 1 
1 1 1 1 1 1 1 1 1 
1 1 1 1 1 1 1 1 1 
1 1 1 1 1 1 1 1 1 
1 1 1 1 1 1 1 1 1 
1 1 1 1 1 1 1 1 1 
1 1 1 1 1 1 1 1 1 
1 1 1 1 1 1 1 1 1 
1 1 1 1 1 1 1 1 1 
1 1 1 1 1 1 1 1 1 
1 1 1 1 1 1 1 1 1 
1 1 1 1 1 1 1 1 1 
1 1 1 1 1 1 1 1 1 
1 1 1 1 1 1 1 1 1 
1 1 1 1 1 1 1 1 1 
1 1 1 1 1 1 1 1 1 
1 1 1 1 1 1 1 1 1 
1 1 1 1 1 1 1 1 1 
1 1 1 1 1 1 1 1 1 
1 1 1 1 1 1 1 1 1 
1 1 1 1 1 1 1 1 1 
1 1 1 1 1 1 1 1 1 
1 1 1 1 1 1 1 1 1 
1 1 1 1 1 1 1 1 1 
1 1 1 1 1 1 1 1 1 
1 1 1 1 1 1 1 1 1 
1 1 1 1 1 1 1 1 1 
1 1 1 1 1 1 1 1 1 
1 1 1 1 1 1 1 1 1 
1 1 1 1 1 1 1 1 1 
1 1 1 1 1 1 1 1 1 
1 1 1 1 1 1 1 1 1 
1 1 1 1 1 1 1 1 1 
1 1 1 1 1 1 1 1 1 
1 1 1 1 1 1 1 1 1 
1 1 1 1 1 1 1 1 1 
1 1 1 1 1 1 1 1 1 
1 1 1 1 1 1 1 1 1 
1 1 1 1 1 1 1 1 1 
1 1 1 1 1 1 1 1 1 
1 1 1 1 1 1 1 1 1 
1 1 1 1 1 1 1 1 1 
1 1 1 1 1 1 1 1 1 
1 1 1 1 1 1 1 1 1 
1 1 1 1 1 1 1 1 1 
1 1 1 1 1 1 1 1 1 
1 1 1 1 1 1 1 1 1 
1 1 1 1 1 1 1 1 1 
1 1 1 1 1 1 1 1 1 
1 1 1 1 1 1 1 1 1 
1 1 1 1 1 1 1 1 1 
1 1 1 1 1 1 1 1 1 
1 1 1 1 1 1 1 1 1 
1 1 1 1 1 1 1 1 1 
1 1 1 1 1 1 1 1 1 
1 1 1 1 1 1 1 1 1 
1 1 1 1 1 1 1 1 1 
1 1 1 1 1 1 1 1 1 
1 1 1 1 1 1 1 1 1 
1 1 1 1 1 1 1 1 1 
1 1 1 1 1 1 1 1 1 
1 1 1 1 1 1 1 1 1 
1 1 1 1 1 1 1 1 1 
1 1 1 1 1 1 1 1 1 
1 1 1 1 1 1 1 1 1 
1 1 1 1 1 1 1 1 1 
1 1 1 1 1 1 1 1 1 
1 1 1 1 1 1 1 1 1 
1 1 1 1 1 1 1 1 1 
1 1 1 1 1 1 1 1 1 
1 1 1 1 1 1 1 1 1 
1 1 1 1 1 1 1 1 1 
1 1 1 1 1 1 1 1 1 
1 1 1 1 1 1 1 1 1 
1 1 1 1 1 1 1 1 1 
1 1 1 1 1 1 1 1 1 
1 1 1 1 1 1 1 1 1 
1 1 1 1 1 1 1 1 1 
1 1 1 1 1 1 1 1 1 
1 1 1 1 1 1 1 1 1 
1 1 1 1 1 1 1 1 1 
1 1 1 1 1 1 1 1 1 
1 1 1 1 1 1 1 1 1 
1 1 1 1 1 1 1 1 1 
1 1 1 1 1 1 1 1 1 
1 1 1 1 1 1 1 1 1 
1 1 1 1 1 1 1 1 1 
1 1 1 1 1 1 1 1 1 
1 1 1 1 1 1 1 1 1 
1 1 1 1 1 1 1 1 1 
1 1 1 1 1 1 1 1 1 
1 1 1 1 1 1 1 1 1 
1 1 1 1 1 1 1 1 1 
1 1 1 1 1 1 1 1 1 
1 1 1 1 1 1 1 1 1 
1 1 1 1 1 1 1 1 1 
1 1 1 1 1 1 1 1 1 
1 1 1 1 1 1 1 1 1 
1 1 1 1 1 1 1 1 1 
1 1 1 1 1 1 1 1 1 
1 1 1 1 1 1 1 1 1 
1 1 1 1 1 1 1 1 1 
1 1 1 1 1 1 1 1 1 
1 1 1 1 1 1 1 1 1 
1 1 1 1 1 1 1 1 1 
1 1 1 1 1 1 1 1 1 
1 1 1 1 1 1 1 1 1 
1 1 1 1 1 1 1 1 1 
1 1 1 1 1 1 1 1 1 
1 1 1 1 1 1 1 1 1 
1 1 1 1 1 1 1 1 1 
1 1 1 1 1 1 1 1 1 
1 1 1 1 1 1 1 1 1 
1 1 1 1 1 1 1 1 1 
1 1 1 1 1 1 1 1 1 
1 1 1 1 1 1 1 1 1 
1 1 1 1 1 1 1 1 1 
1 1 1 1 1 1 1 1 1 
1 1 1 1 1 1 1 1 1 
1 1 1 1 1 1 1 1 1 
1 1 1 1 1 1 1 1 1 
1 1 1 1 1 1 1 1 1 
1 1 1 1 1 1 1 1 1 
1 1 1 1 1 1 1 1 1 
1 1 1 1 1 1 1 1 1 
1 1 1 1 1 1 1 1 1 
1 1 1 1 1 1 1 1 1 
1 1 1 1 1 1 1 1 1 
1 1 1 1 1 1 1 1 1 
1 1 1 1 1 1 1 1 1 
1 1 1 1 1 1 1 1 1 
1 1 1 1 1 1 1 1 1 
1 1 1 1 1 1 1 1 1 
1 1 1 1 1 1 1 1 1 
1 1 1 1 1 1 1 1 1 
1 1 1 1 1 1 1 1 1 
1 1 1 1 1 1 1 1 1 
1 1 1 1 1 1 1 1 1 
1 1 1 1 1 1 1 1 1 
1 1 1 1 1 1 1 1 1 
1 1 1 1 1 1 1 1 1 
1 1 1 1 1 1 1 1 1 
1 1 1 1 1 1 1 1 1 
1 1 1 1 1 1 1 1 1 
1 1 1 1 1 1 1 1 1 
1 1 1 1 1 1 1 1 1 
1 1 1 1 1 1 1 1 1 
1 1 1 1 1 1 1 1 1 
1 1 1 1 1 1 1 1 1 
1 1 1 1 1 1 1 1 1 
1 1 1 1 1 1 1 1 1 
1 1 1 1 1 1 1 1 1 
1 1 1 1 1 1 1 1 1 
1 1 1 1 1 1 1 1 1 
1 1 1 1 1 1 1 1 1 
1 1 1 1 1 1 1 1 1 
1 1 1 1 1 1 1 1 1 
1 1 1 1 1 1 1 1 1 
1 1 1 1 1 1 1 1 1 
1 1 1 1 1 1 1 1 1 
1 1 1 1 1 1 1 1 1 
1 1 1 1 1 1 1 1 1 
1 1 1 1 1 1 1 1 1 
1 1 1 1 1 1 1 1 1 
1 1 1 1 1 1 1 1 1 
1 1 1 1 1 1 1 1 1 
1 1 1 1 1 1 1 1 1 
1 1 1 1 1 1 1 1 1 
1 1 1 1 1 1 1 1 1 
1 1 1 1 1 1 1 1 1 
1 1 1 1 1 1 1 1 1 
1 1 1 1 1 1 1 1 1 
1 1 1 1 1 1 1 1 1 
1 1 1 1 1 1 1 1 1 
1 1 1 1 1 1 1 1 1 
1 1 1 1 1 1 1 1 1 
1 1 1 1 1 1 1 1 1 
1 1 1 1 1 1 1 1 1 
1 1 1 1 1 1 1 1 1 
1 1 1 1 1 1 1 1 1 
1 1 1 1 1 1 1 1 1 
1 1 1 1 1 1 1 1 1 
1 1 1 1 1 1 1 1 1 
1 1 1 1 1 1 1 1 1 
1 1 1 1 1 1 1 1 1 
1 1 1 1 1 1 1 1 1 
1 1 1 1 1 1 1 1 1 
1 1 1 1 1 1 1 1 1 
1 1 1 1 1 1 1 1 1 
1 1 1 1 1 1 1 1 1 
1 1 1 1 1 1 1 1 1 
1 1 1 1 1 1 1 1 1 
1 1 1 1 1 1 1 1 1 
1 1 1 1 1 1 1 1 1 
1 1 1 1 1 1 1 1 1 
1 1 1 1 1 1 1 1 1 
1 1 1 1 1 1 1 1 1 
1 1 1 1 1 1 1 1 1 
1 1 1 1 1 1 1 1 1 
1 1 1 1 1 1 1 1 1 
1 1 1 1 1 1 1 1 1 
1 1 1 1 1 1 1 1 1 
1 1 1 1 1 1 1 1 1 
1 1 1 1 1 1 1 1 1 
1 1 1 1 1 1 1 1 1 
1 1 1 1 1 1 1 1 1 
1 1 1 1 1 1 1 1 1 
1 1 1 1 1 1 1 1 1 
1 1 1 1 1 1 1 1 1 
1 1 1 1 1 1 1 1 1 
1 1 1 1 1 1 1 1 1 
1 1 1 1 1 1 1 1 1 
1 1 1 1 1 1 1 1 1 
1 1 1 1 1 1 1 1 1 
1 1 1 1 1 1 1 1 1 
1 1 1 1 1 1 1 1 1 
1 1 1 1 1 1 1 1 1 
1 1 1 1 1 1 1 1 1 
1 1 1 1 1 1 1 1 1 
1 1 1 1 1 1 1 1 1 
1 1 1 1 1 1 1 1 1 
1 1 1 1 1 1 1 1 1 
1 1 1 1 1 1 1 1 1 
1 1 1 1 1 1 1 1 1 
1 1 1 1 1 1 1 1 1 
1 1 1 1 1 1 1 1 1 
1 1 1 1 1 1 1 1 1 
1 1 1 1 1 1 1 1 1 
1 1 1 1 1 1 1 1 1 
1 1 1 1 1 1 1 1 1 
1 1 1 1 1 1 1 1 1 
1 1 1 1 1 1 1 1 1 
1 1 1 1 1 1 1 1 1 
1 1 1 1 1 1 1 1 1 
1 1 1 1 1 1 1 1 1 
1 1 1 1 1 1 1 1 1 
1 1 1 1 1 1 1 1 1 
1 1 1 1 1 1 1 1 1 
1 1 1 1 1 1 1 1 1 
1 1 1 1 1 1 1 1 1 
1 1 1 1 1 1 1 1 1 
1 1 1 1 1 1 1 1 1 
1 1 1 1 1 1 1 1 1 
1 1 1 1 1 1 1 1 1 
1 1 1 1 1 1 1 1 1 
1 1 1 1 1 1 1 1 1 
1 1 1 1 1 1 1 1 1 
1 1 1 1 1 1 1 1 1 
1 1 1 1 1 1 1 1 1 
1 1 1 1 1 1 1 1 1 
1 1 1 1 1 1 1 1 1 
1 1 1 1 1 1 1 1 1 
1 1 1 1 1 1 1 1 1 
1 1 1 1 1 1 1 1 1 
1 1 1 1 1 1 1 1 1 
1 1 1 1 1 1 1 1 1 
1 1 1 1 1 1 1 1 1 
1 1 1 1 1 1 1 1 1 
1 1 1 1 1 1 1 1 1 
1 1 1 1 1 1 1 1 1 
1 1 1 1 1 1 1 1 1 
1 1 1 1 1 1 1 1 1 
1 1 1 1 1 1 1 1 1 
1 1 1 1 1 1 1 1 1 
1 1 1 1 1 1 1 1 1 
1 1 1 1 1 1 1 1 1 
1 1 1 1 1 1 1 1 1 
1 1 1 1 1 1 1 1 1 
1 1 1 1 1 1 1 1 1 
1 1 1 1 1 1 1 1 1 
1 1 1 1 1 1 1 1 1 
1 1 1 1 1 1 1 1 1 
1 1 1 1 1 1 1 1 1 
1 1 1 1 1 1 1 1 1 
1 1 1 1 1 1 1 1 1 
1 1 1 1 1 1 1 1 1 
1 1 1 1 1 1 1 1 1 
1 1 1 1 1 1 1 1 1 
1 1 1 1 1 1 1 1 1 
1 1 1 1 1 1 1 1 1 
1 1 1 1 1 1 1 1 1 
1 1 1 1 1 1 1 1 1 
1 1 1 1 1 1 1 1 1 
1 1 1 1 1 1 1 1 1 
1 1 1 1 1 1 1 1 1 
1 1 1 1 1 1 1 1 1 
1 1 1 1 1 1 1 1 1 
1 1 1 1 1 1 1 1 1 
1 1 1 1 1 1 1 1 1 
1 1 1 1 1 1 1 1 1 
1 1 1 1 1 1 1 1 1 
1 1 1 1 1 1 1 1 1 
1 1 1 1 1 1 1 1 1 
1 1 1 1 1 1 1 1 1 
1 1 1 1 1 1 1 1 1 
1 1 1 1 1 1 1 1 1 
1 1 1 1 1 1 1 1 1 
1 1 1 1 1 1 1 1 1 
1 1 1 1 1 1 1 1 1 
1 1 1 1 1 1 1 1 1 
1 1 1 1 1 1 1 1 1 
1 1 1 1 1 1 1 1 1 
1 1 1 1 1 1 1 1 1 
1 1 1 1 1 1 1 1 1 
1 1 1 1 1 1 1 1 1 
1 1 1 1 1 1 1 1 1 
1 1 1 1 1 1 1 1 1 
1 1 1 1 1 1 1 1 1 
1 1 1 1 1 1 1 1 1 
1 1 1 1 1 1 1 1 1 
1 1 1 1 1 1 1 1 1 
1 1 1 1 1 1 1 1 1 
1 1 1 1 1 1 1 1 1 
1 1 1 1 1 1 1 1 1 
1 1 1 1 1 1 1 1 1 
1 1 1 1 1 1 1 1 1 
1 1 1 1 1 1 1 1 1 
1 1 1 1 1 1 1 1 1 
1 1 1 1 1 1 1 1 1 
1 1 1 1 1 1 1 1 1 
1 1 1 1 1 1 1 1 1 
1 1 1 1 1 1 1 1 1 
1 1 1 1 1 1 1 1 1 
1 1 1 1 1 1 1 1 1 
1 1 1 1 1 1 1 1 1 
1 1 1 1 1 1 1 1 1 
1 1 1 1 1 1 1 1 1 
1 1 1 1 1 1 1 1 1 
1 1 1 1 1 1 1 1 1 
1 1 1 1 1 1 1 1 1 
1 1 1 1 1 1 1 1 1 
1 1 1 1 1 1 1 1 1 
1 1 1 1 1 1 1 1 1 
1 1 1 1 1 1 1 1 1 
1 1 1 1 1 1 1 1 1 
1 1 1 1 1 1 1 1 1 
1 1 1 1 1 1 1 1 1 
1 1 1 1 1 1 1 1 1 
1 1 1 1 1 1 1 1 1 
1 1 1 1 1 1 1 1 1 
1 1 1 1 1 1 1 1 1 
1 1 1 1 1 1 1 1 1 
1 1 1 1 1 1 1 1 1 
1 1 1 1 1 1 1 1 1 
1 1 1 1 1 1 1 1 1 
1 1 1 1 1 1 1 1 1 
1 1 1 1 1 1 1 1 1 
1 1 1 1 1 1 1 1 1 
1 1 1 1 1 1 1 1 1 
1 1 1 1 1 1 1 1 1 
1 1 1 1 1 1 1 1 1 
1 1 1 1 1 1 1 1 1 
1 1 1 1 1 1 1 1 1 
1 1 1 1 1 1 1 1 1 
1 1 1 1 1 1 1 1 1 
1 1 1 1 1 1 1 1 1 
1 1 1 1 1 1 1 1 1 
1 1 1 1 1 1 1 1 1 
1 1 1 1 1 1 1 1 1 
1 1 1 1 1 1 1 1 1 
1 1 1 1 1 1 1 1 1 
1 1 1 1 1 1 1 1 1 
1 1 1 1 1 1 1 1 1 
1 1 1 1 1 1 1 1 1 
1 1 1 1 1 1 1 1 1 
1 1 1 1 1 1 1 1 1 
1 1 1 1 1 1 1 1 1 
1 1 1 1 1 1 1 1 1 
1 1 1 1 1 1 1 1 1 
1 1 1 1 1 1 1 1 1 
1 1 1 1 1 1 1 1 1 
1 1 1 1 1 1 1 1 1 
1 1 1 1 1 1 1 1 1 
1 1 1 1 1 1 1 1 1 
1 1 1 1 1 1 1 1 1 
1 1 1 1 1 1 1 1 1 
1 1 1 1 1 1 1 1 1 
1 1 1 1 1 1 1 1 1 
1 1 1 1 1 1 1 1 1 
1 1 1 1 1 1 1 1 1 
1 1 1 1 1 1 1 1 1 
1 1 1 1 1 1 1 1 1 
1 1 1 1 1 1 1 1 1 
1 1 1 1 1 1 1 1 1 
1 1 1 1 1 1 1 1 1 
1 1 1 1 1 1 1 1 1 
1 1 1 1 1 1 1 1 1 
1 1 1 1 1 1 1 1 1 
1 1 1 1 1 1 1 1 1 
1 1 1 1 1 1 1 1 1 
1 1 1 1 1 1 1 1 1 
1 1 1 1 1 1 1 1 1 
1 1 1 1 1 1 1 1 1 
1 1 1 1 1 1 1 1 1 
1 1 1 1 1 1 1 1 1 
1 1 1 1 1 1 1 1 1 
1 1 1 1 1 1 1 1 1 
1 1 1 1 1 1 1 1 1 
1 1 1 1 1 1 1 1 1 
1 1 1 1 1 1 1 1 1 
1 1 1 1 1 1 1 1 1 
1 1 1 1 1 1 1 1 1 
1 1 1 1 1 1 1 1 1 
1 1 1 1 1 1 1 1 1 
1 1 1 1 1 1 1 1 1 
1 1 1 1 1 1 1 1 1 
1 1 1 1 1 1 1 1 1 
1 1 1 1 1 1 1 1 1 
1 1 1 1 1 1 1 1 1 
1 1 1 1 1 1 1 1 1 
1 1 1 1 1 1 1 1 1 
1 1 1 1 1 1 1 1 1 
1 1 1 1 1 1 1 1 1 
1 1 1 1 1 1 1 1 1 
1 1 1 1 1 1 1 1 1 
1 1 1 1 1 1 1 1 1 
1 1 1 1 1 1 1 1 1 
1 1 1 1 1 1 1 1 1 
1 1 1 1 1 1 1 1 1 
1 1 1 1 1 1 1 1 1 
1 1 1 1 1 1 1 1 1 
1 1 1 1 1 1 1 1 1 
1 1 1 1 1 1 1 1 1 
1 1 1 1 1 1 1 1 1 
1 1 1 1 1 1 1 1 1 

Long_Strain_Pt 1 1116 double
0.99854279736 0.99879854749 0.99590288806 0.99695399876 0.99863200574 0.99596102604 0.9994995447 0.99740518521 0.99932009497 
0.99774757349 0.9981233204 0.99784361461 0.99828447314 0.99808199659 0.99871548296 0.99860512769 0.99940645072 0.99907386761 
0.99865377148 0.99611981349 0.99867395276 0.99234761918 0.99918272944 0.98848445321 0.99727711195 0.98728030569 0.99667219758 
0.9899195004 0.99629649357 0.99385305411 0.98643834598 0.99586762477 0.98186079516 0.99719355763 0.98933688586 0.99754608917 
0.99479370844 0.99749175853 0.99800674193 0.99694795445 0.99923464869 0.9955229 0.99969652603 0.99382052106 0.99982036856 
0.99242250008 0.99984921594 0.99266684742 0.99964914713 0.99268673722 0.99959372635 0.99394993575 0.99962840465 0.99535794242 
0.99899600759 0.99743460555 0.99696048723 0.99687589355 0.99340555778 0.99708014909 0.99484795614 0.99773092549 0.99657399103 
0.99827736471 0.99839802632 0.99863991996 0.99915354319 0.9989774835 0.99933945684 0.99923294689 0.99900035876 0.99953379371 
0.99911403341 0.99924519088 0.99937271941 0.99892710877 0.99981283963 0.99877127828 0.99980399226 0.9979738824 0.9995032025 
0.99701722333 0.9987721997 0.99655870245 0.99759800138 0.99729769286 0.99493859341 0.99782847355 0.99044011123 0.99744952232 
0.98647111888 0.99605106227 0.98182148607 0.99445001024 0.97625123281 0.99265206764 0.96858127839 0.99419041718 0.96394093699 
0.99467397372 0.96101154243 0.99617899187 0.97506726398 0.99625365591 0.98662233658 0.99735523268 0.99399175501 0.99779550626 
0.99411466403 0.99779876044 0.99462213615 0.99789983417 0.99994331228 0.99971768927 0.99611987059 0.99716970454 0.99932787688 
0.99600676508 0.99872801395 0.99776089222 0.99826627561 0.99868776473 0.99790651124 0.99933043994 0.99854737952 0.99914347398 
0.99912781239 0.99853491176 0.99948368108 0.99769237976 0.99974660708 0.99649285699 0.99973634813 0.993488667 0.99974498771 
0.99226792142 0.99980532045 0.99011760828 0.9998705008 0.98896152193 0.99994258629 0.98907738069 0.99954783179 0.98972629567 
0.99890775935 0.9910274058 0.99831069362 0.99442081246 0.99799822176 0.99738565722 0.99848370483 0.99839502694 0.99899480121 
0.99831294785 0.9995235027 0.99734686338 0.99969194541 0.99684043679 0.99963817105 0.99662138543 0.99922099535 0.99569051906 
0.99708077868 0.99397321937 0.99554060748 0.99279415792 0.99576511348 0.99467435966 0.99740738093 0.99690913795 0.99878403929 
0.99779864854 0.99966491623 0.99718579983 0.99821525331 0.99606835568 0.99743555879 0.99519648177 0.99772079441 0.99407222398 
0.99850295768 0.99454722792 0.99897456234 0.99413951009 0.99917679683 0.99291654268 0.99770576115 0.99441760357 0.9971915269 
0.99648315684 0.99816415785 0.99803940403 0.99884740774 0.99885190898 0.99934981457 0.99886393982 0.99967205272 0.99935944109 
0.99984950462 0.99951156538 0.99989805958 0.99888964354 0.99979967915 0.99826499936 0.99894302502 0.99858474513 0.99873723976 
0.99925573498 0.99911329273 0.99858301745 0.99957899639 0.99814026981 0.99982524414 0.997658013 0.99951187931 0.99758291687 
0.99934616302 0.99681027956 0.99928871528 0.99290759903 0.99952678334 0.99110291015 0.99978561888 0.99101305536 0.99985784874 
0.99383492974 0.99990926585 0.99658587196 0.99560270289 0.99633055924 0.99624663522 0.99851661369 0.9994550433 0.99974230123 
0.99813999746 0.99597122324 0.99305552224 0.99326299424 0.99591380668 0.99562461741 0.99604009411 0.99750427039 0.9977419842 
0.99759451315 0.9964589544 0.99508330091 0.9930549561 0.99261320902 0.99364817917 0.99723088379 0.99621739835 0.99695699495 
0.99778893927 0.99856757318 0.9981198666 0.99673934911 0.99607752589 0.9968483737 0.99806204488 0.99862351629 0.99867629489 
0.99865214557 0.99871461542 0.99890047874 0.9985946653 0.99896713105 0.99916246533 0.99897551412 0.99879212701 0.99899456575 
0.99929106644 0.99886218077 0.99963932644 0.99940667527 0.99915571698 0.99900762402 0.99885223535 0.99826177621 0.99755650353 
0.99602898273 0.99545867275 0.99639302662 0.99804141506 0.99608678854 0.99833943003 0.99777530781 0.99813445658 0.99826792389 
0.99844398651 0.99891543373 0.99929688696 0.99836269605 0.99715207756 0.99721600242 0.99660219693 0.99422605229 0.99283013378 
0.99035650163 0.99100098869 0.9916751608 0.99411307732 0.99548244001 0.99762656179 0.9984326484 0.99897928535 0.99812523693 
0.99795101681 0.99811959947 0.99673463149 0.99622524689 0.99703991372 0.99788783755 0.99912890296 0.99922262559 0.99863814247 
0.99841803605 0.99765383423 0.99655869996 0.99559234717 0.99472900474 0.99381371018 0.99358912966 0.9954406135 0.99787016794 
0.9979268864 0.99850147451 0.99898234244 0.99936145113 0.99951750567 0.99962924163 0.99974292927 0.99979936536 0.99970580623 
0.99913988236 0.99805064854 0.99678835721 0.99664383136 0.99619971507 0.99539790266 0.99672443307 0.99681530247 0.99704850048 
0.99174220989 0.99069878933 0.99554795063 0.99845542402 0.99933057153 0.99721220705 0.99441402703 0.9915322802 0.99427027222 
0.99694224743 0.99942527448 0.99872623714 0.99656838553 0.99595184008 0.99647373912 0.9966052309 0.99687586181 0.99742796121 
0.99832483841 0.99865344151 0.99863492881 0.99767074497 0.99836250243 0.9982369279 0.99891944457 0.9996484283 0.99953622239 
0.99901661246 0.99871435897 0.99850300061 0.99875680229 0.99876063505 0.99917629422 0.99894168536 0.9987688505 0.99885780606 
0.99928393148 0.99947180593 0.99853982698 0.99824187029 0.99825962202 0.99800572196 0.99875788792 0.9980942186 0.99807108043 
0.99754859347 0.99785281018 0.99835242916 0.99869594178 0.998380704 0.99736064692 0.99497477226 0.99331170835 0.99415735732 
0.99641183198 0.99133459726 0.99872996938 0.99823373712 0.99649651775 0.99656518921 0.99908827967 0.99942068461 0.9977729211 
0.99704597559 0.99584524545 0.99506701062 0.99618224637 0.99594309446 0.99567211338 0.99360256519 0.99446181632 0.99512989903 
0.99590251228 0.99623902703 0.99504750177 0.99541524544 0.99605342123 0.99822974769 0.99910190148 0.99959689777 0.99961308218 
0.9991446578 0.99857874408 0.99790014915 0.99703050765 0.99629764098 0.99797316451 0.99905953576 0.99964985021 0.99969984232 
0.9994034574 0.9987297475 0.99879832265 0.99860365659 0.99880925778 0.99801162814 0.99702925425 0.99794998018 0.99817217108 
0.99811104591 0.99793196322 0.99811519865 0.998413988 0.99862851911 0.99872070258 0.99902951853 0.99952453371 0.99954868962 
0.99949223678 0.99863195165 0.99783324065 0.99719798791 0.99753927306 0.99813350974 0.99826290259 0.99775188371 0.99844044612 
0.9990514431 0.99174482143 0.9930783544 0.99106075776 0.98760896231 0.98705542941 0.99209109114 0.99651101219 0.99778923587 
0.99777448045 0.99816626545 0.99866127416 0.997798139 0.9972945302 0.99539361673 0.99435924768 0.99350546468 0.99385648763 
0.99606558962 0.99816022067 0.99888507585 0.99844455772 0.99634092473 0.99771998897 0.99858190554 0.9993072602 0.99936167394 
0.99861022165 0.99719620903 0.99602704028 0.99479401914 0.9973082491 0.9991905906 0.99883825119 0.99887466652 0.99875984532 
0.99871410921 0.99841585751 0.99802977135 0.9958826276 0.99769724589 0.99771571999 0.99779965562 0.99834531047 0.99922381243 
0.99956127085 0.99970896179 0.99985569407 0.9996210433 0.99920073224 0.99887412038 0.99930572494 0.99981228816 0.99973849995 
0.99930821916 0.99869795603 0.99875635943 0.99899919001 0.99944289248 0.9993004804 0.99920239142 0.9990587051 0.99756082593 
0.99498674653 0.99496786521 0.99427944945 0.99739044599 0.99223259928 0.9985847629 0.99936365319 0.99749690103 0.99707963079 
0.99632799256 0.99542021914 0.99555399155 0.99715927979 0.9981460274 0.99776383758 0.99674112623 0.99400750368 0.99147340945 
0.99082902981 0.99067984351 0.99113953648 0.9958279288 0.99574303935 0.9961309041 0.9980026686 0.99901513505 0.9985551811 
0.99857094148 0.99873721003 0.99803204635 0.9984427698 0.99900525986 0.99943563416 0.99881602044 0.99897693928 0.9992578309 
0.99953338594 0.99947704166 0.99857352321 0.99799018323 0.99833697211 0.99906506979 0.99936330276 0.99920611458 0.99848541663 
0.9982293479 0.99866675441 0.99917746577 0.99912634341 0.99943574637 0.99955630197 0.99970983146 0.99963541641 0.99930005113 
0.99829686928 0.9975530923 0.99737371616 0.99868265037 0.99900207177 0.99908734413 0.99870812597 0.9991919198 0.9990925393 
0.99382153736 0.99348587049 0.99033852206 0.99207261812 0.99469183796 0.9960610715 0.99879776286 0.99883817532 0.99853666236 
0.99821413148 0.99677286183 0.99620243928 0.99743439401 0.99743448764 0.99713725669 0.99814464809 0.99792390934 0.99769959424 
0.99782158405 0.99824757372 0.99820047556 0.9987994264 0.99833788321 0.9975526398 0.99699364035 0.99720385805 0.99648043939 
0.99695578705 0.99754491696 0.99829667254 0.99886781734 0.99936353122 0.99959507185 0.99948604332 0.99923951701 0.99908171151 
0.99631836329 0.99553620319 0.99547853544 0.99706226815 0.99597708364 0.99704838297 0.99749726491 0.99751784234 0.9976591842 
0.99682993841 0.99729620257 0.99874659721 0.99933799569 0.99944470331 0.99913841445 0.99905212874 0.99905419265 0.9992201946 
0.99935586448 0.99928957014 0.99858860842 0.99850099985 0.99852523826 0.9989047744 0.99833595214 0.99772697283 0.99752481798 
0.99613950986 0.99642308456 0.99736929391 0.99752699793 0.99743260702 0.99661948169 0.99630340714 0.99839326085 0.99670873209 
0.99782495164 0.99384009704 0.99846545529 0.99800460495 0.99819949085 0.99811717289 0.99862900106 0.99904678748 0.99872885738 
0.99893516951 0.9994287214 0.99910792103 0.99908321443 0.99914395736 0.9983076694 0.99845386746 0.99866373334 0.9989496764 
0.99928783609 0.99925625771 0.99885749633 0.99894267076 0.99931002039 0.99938741256 0.99945733566 0.99902451138 0.99884436934 
0.99910598565 0.99940199135 0.99958042339 0.9989939896 0.99893280973 0.99904659423 0.99935978049 0.99943322253 0.99928255992 
0.99836457016 0.99703577648 0.99539422171 0.9960952732 0.99673977932 0.99792612708 0.99726696491 0.99675685802 0.99754182716 
0.99858647377 0.99914605425 0.99883571094 0.998214146 0.99634900383 0.99482873237 0.99550489405 0.99583602945 0.99575732589 
0.99419878471 0.99202494613 0.98997929815 0.98887025334 0.98948679125 0.99071024459 0.99261057276 0.99665325381 0.99619831092 
0.99867461907 0.99575942946 0.99875013999 0.99814912313 0.99765870501 0.99687183792 0.99639020092 0.99654721384 0.99745118192 
0.99813723433 0.99836991597 0.99767506973 0.99624242197 0.9975087878 0.99517724904 0.99690052257 0.99740329349 0.9986327098 
0.99848743413 0.99752299024 0.99724810242 0.99706266184 0.99723917075 0.99772691387 0.99890190491 0.99956759684 0.99440610211 
0.99625276952 0.99337445608 0.99447595754 0.99552072993 0.99663588538 0.99866334737 0.99924585848 0.99867507001 0.99837969635 
0.99748291495 0.99819718509 0.99810828562 0.99731546852 0.99649455378 0.99761379707 0.99504623863 0.99858346684 0.99931760487 
0.99933119639 0.99456118343 0.99546327612 0.99711801428 0.99516747493 0.9931563781 0.99223534421 0.99599389516 0.99882152622 
0.99902542273 0.99891277831 0.99850727928 0.99831700477 0.99853138705 0.99922036473 0.99938370771 0.99921034621 0.99883754645 
0.9983167883 0.99749399095 0.9970717029 0.99673879409 0.99722162134 0.99767406317 0.99730963785 0.9964189456 0.99597281043 
0.99677637374 0.99754221745 0.99651361801 0.99748186505 0.99830225269 0.99912038838 0.99856357377 0.99838677021 0.99804843781 
0.99811498675 0.99834854518 0.99815644812 0.9985670342 0.99890003159 0.99920807653 0.99890725031 0.99814234567 0.99932650913 
0.9993808603 0.99977097164 0.99968962684 0.99962751617 0.99956253914 0.99966665785 0.99986882223 0.99944133178 0.99654677733 
0.99800516808 0.99879473397 0.99926169643 0.99911289353 0.99868865077 0.99863279315 0.99900720402 0.99940740758 0.99942069428 
0.9993319925 0.99872652145 0.99700824984 0.99476172718 0.99263340598 0.99368962303 0.99522484282 0.9974895729 0.99838285023 
0.9988837532 0.99910274535 0.99723452375 0.99451560187 0.99461315811 0.99604674636 0.99623613458 0.99482549229 0.99510785917 
0.99429646949 0.99234499398 0.99081884877 0.99048808505 0.99128252271 0.9929593653 0.99697580008 0.99851047013 0.99927961174 
0.99969534071 0.99880420748 0.99797256484 0.99874159229 0.99848721224 0.99174732881 0.99312851027 0.99465463529 0.99577716158 
0.99475931718 0.99714771706 0.99772410739 0.99788239944 0.99811279089 0.99848939081 0.99933068979 0.99955846477 0.99940463826 
0.99918579696 0.99865550406 0.99761094425 0.99752899051 0.99679535143 0.99888031369 0.99669432823 0.99560768389 0.99473950997 
0.9959099436 0.99860219081 0.99933235658 0.99966247513 0.99926831812 0.99826855508 0.99711784834 0.99618648211 0.99461544657 
0.99515754348 0.99599617507 0.99706089266 0.99664303819 0.99857290891 0.9980871886 0.99723547786 0.99732302653 0.99810136218 
0.99937455954 0.99872026353 0.99759855007 0.997160531 0.9978769342 0.99717981379 0.99605351949 0.99649794687 0.99674503365 
0.99694260425 0.99789803785 0.99636737909 0.99929203465 0.99828750517 0.99882345602 0.99887285275 0.99840545227 0.99808627202 
0.9976436165 0.99740774673 0.99726513307 0.99707300558 0.99741303549 0.99653978341 0.99684022962 0.9977266678 0.99695347868 
0.99871932397 0.99868280282 0.9985747548 0.99808115637 0.99809086795 0.99853727805 0.99914264013 0.99942183062 0.99929868 
0.99838166905 0.99791075161 0.99728122943 0.99828079235 0.99775145652 0.99863046414 0.99872417314 0.99885094203 0.99900737773 
0.9992684822 0.99945903908 0.99942928677 0.9995602804 0.99904367082 0.9984760453 0.9966728902 0.99523779047 0.99384073394 
0.99792672423 0.99803447137 0.99870682725 0.99590408227 0.99627043204 0.99955580358 0.99942819887 0.99803186102 0.99758452806 
0.99795702025 0.99781977694 0.99741459753 0.99676401884 0.99693892373 0.99768815873 0.99770271931 0.99761834908 0.99728706255 
0.99808868994 0.99793158862 0.99811881285 0.99792799456 0.99886677517 0.99866361504 0.99873417193 0.99781844199 0.99866919488 
0.99870277873 0.9989765923 0.99783687321 0.99587722043 0.99568417199 0.9971573625 0.99585116489 0.99804410925 0.99774818522 
0.99822012787 0.99884453739 0.99918693877 0.99880050842 0.99786374034 0.99690632751 0.99826948722 0.99831119306 0.99868220456 
0.99888322191 0.99889065067 0.99881717255 0.99852771203 0.9983172087 0.99825775233 0.99858156146 0.99774324025 0.9975259725 
0.99774409898 0.99819086872 0.9984189644 0.99874202249 0.99811200566 0.99743935344 0.99709197034 0.99689728875 0.99478837704 
0.99303659507 0.99844385602 0.99876644979 0.99914718309 0.99800182972 0.9946332385 0.99748195083 0.99725235743 0.997729614 
0.99908351041 0.99910213897 0.99882213636 0.9984974547 0.99796681316 0.99779808985 0.99756616691 0.99701488304 0.9954851175 
0.99617943821 0.99697352056 0.99822888764 0.99847451727 0.99825460965 0.99683658153 0.9969550352 0.99739487219 0.99791739194 
0.99860673361 0.99692856829 0.99872272041 0.99933685189 0.99960023418 0.99936729126 0.99937266143 0.99954859676 0.99956894484 
0.99957036725 0.99955292714 0.99942291279 0.99913855376 0.99925150616 0.99870703759 0.99958825151 0.99973599009 0.99985825453 
0.99918103359 0.99851686238 0.99784612899 0.99734023582 0.99731760027 0.99695225915 0.99722399161 0.9972413344 0.99762088708 
0.99701315437 0.99705538993 0.99753400824 0.99774097305 0.99765930486 0.99948958709 0.99940143651 0.99940965457 0.99906006565 
0.99910190972 0.99945026145 0.99934446384 0.99916457515 0.99796404429 0.99900989997 0.99913733833 0.99946856521 0.9995496586 
0.99942537037 0.99906226734 0.99906671292 0.99875712116 0.99839900913 0.99572406491 0.99755387422 0.99835846814 0.99916196675 
0.99817568527 0.99824806843 0.99921110327 0.99881506885 0.99857343928 0.99830893806 0.9978893606 0.99844197055 0.99880843371 
0.99792512222 0.99742840026 0.99765737514 0.99797939644 0.99843529677 0.99883076528 0.99812689307 0.99943322308 0.99797572387 

Longtudinal 3 1116 double
0.94597279298 0.22719994595 -0.23110201395 0.92549763259 0.29447106128 -0.22802035827 0.92044214334 0.30583886772 -0.21708935418 
0.9549942365 0.18854368628 -0.22706139425 0.90489490096 0.36269251913 -0.22257010292 0.8920301695 0.40128879642 -0.19859921337 
0.89668309032 0.38022959656 -0.22620026369 0.86894154339 0.46334086539 -0.16201194117 0.89584466902 0.38272686544 -0.22555066074 
0.85838301991 0.49508330958 -0.13197528391 0.90217073028 0.37061044165 -0.22074255063 0.85281548198 0.51231231973 -0.099236889701 
0.88334891912 0.43256043687 -0.16996969501 0.85556153884 0.51231477648 -0.072103639367 0.87615861337 0.45798170178 -0.14940998444 
0.86424532462 0.49844744668 -0.065686576304 0.88279366539 0.44013822529 -0.1641557916 0.87601151051 0.47656241784 -0.073188701348 
0.88210835754 0.438708056 -0.17145183188 0.88447091252 0.45874684757 -0.084618886283 0.88441029619 0.4372543007 -0.16233461402 
0.87392112823 0.47173256713 0.007773769807 0.88911956342 0.43464742081 -0.14297388433 0.86702379229 0.47703751927 0.078730838006 
0.89262432955 0.41555342182 -0.17315731003 0.88177095567 0.44578346311 0.10589525503 0.90777934916 0.39204453502 -0.12769840372 
0.8973084999 0.41307203386 0.12663302726 0.9277120772 0.36766941647 -0.045631373069 0.91493786601 0.37220706729 0.15382842773 
0.90185789371 0.37421216523 -0.18056973459 0.92862839962 0.34033917243 0.14354019667 0.89187417065 0.37279892712 -0.24837095324 
0.94001550787 0.3183034465 0.10790584602 0.9181168154 0.35322512534 -0.16292300564 0.94105996776 0.32726968228 0.010271801699 
0.92396417453 0.35435505695 -0.13818940457 0.93449559686 0.34529199089 -0.071668045867 0.90714851116 0.37849075495 -0.18092093387 
0.91665310704 0.37603962695 -0.12818128762 0.91429992034 0.3591174355 -0.18410775357 0.92090521641 0.3619879922 -0.13889352811 
0.93019630774 0.32385104911 -0.17275893802 0.9372942441 0.3187564751 -0.12169937249 0.93302374758 0.31170580423 -0.1793368216 
0.96037722384 0.24839339647 -0.09299063156 0.9361684382 0.29904484193 -0.18458873592 0.96803421912 0.21169246965 -0.11475355009 
0.94007762941 0.28514112061 -0.1866453728 0.9757860431 0.17415699397 -0.12314113968 0.93557768356 0.28991698983 -0.20031364121 
0.98205459896 0.12602663809 -0.13180561125 0.9254838536 0.30727191361 -0.2214955529 0.98546508344 0.088573795943 -0.14236416074 
0.92860738013 0.30626217213 -0.20930310417 0.97361370054 0.12990945138 -0.17989743342 0.93878522747 0.26018992626 -0.21467960893 
0.95505941689 0.19763475946 -0.20452580278 0.95660203232 0.16532055805 -0.2390811187 0.93118904216 0.27733069544 -0.22967822088 
0.93252409963 0.24880657675 -0.25356840585 0.92270655695 0.29635331497 -0.24355798662 0.90550146152 0.3312015874 -0.25910366418 
0.91484367315 0.30618506724 -0.26201360016 0.87769973085 0.4044431252 -0.25696995915 0.90735746345 0.30742308877 -0.28562710111 
0.8770166464 0.38988102682 -0.2801132485 0.90187218934 0.29921777866 -0.31076666018 0.87561197011 0.37679485259 -0.30173670248 
0.89659828865 0.29345408483 -0.33096703071 0.87355850286 0.36491875757 -0.32203323022 0.89174058103 0.28082997046 -0.3539749752 
0.87520017385 0.32310499454 -0.35768614491 0.89087046709 0.28329273224 -0.3545090878 0.87573383506 0.29725785998 -0.38038068047 
0.88871605364 0.27925505927 -0.36167417959 0.87488118483 0.29138773317 -0.38686204735 0.88315521938 0.24213092292 -0.40086524813 
0.87660336437 0.26720341617 -0.39956268708 0.86950021748 0.2219244302 -0.43970864838 0.87568070865 0.2534515908 -0.41092949111 
0.84896708685 0.20426486162 -0.48597974735 0.86908317562 0.26426713496 -0.4181176206 0.81883927742 0.19802240945 -0.53469671034 
0.85247745469 0.27108147977 -0.44625132302 0.75873377112 0.21457511331 -0.61046449964 0.85164326573 0.28078188329 -0.44085771083 
0.70253524248 0.25466908079 -0.6629059169 0.87298974819 0.29493217578 -0.3883715531 0.66435443423 0.32386274384 -0.67321181513 
0.87210967514 0.3182521377 -0.37120953114 0.62960788674 0.40705816266 -0.65725275846 0.87930756614 0.3306624587 -0.34153482977 
0.61156566022 0.47108275817 -0.63163924478 0.89525369013 0.33008196579 -0.29665486916 0.60991788089 0.5257750641 -0.58920609641 
0.92436319759 0.30471579855 -0.22315649614 0.63449702871 0.56845070331 -0.52001532165 0.94347071376 0.27770827335 -0.17766173856 
0.65766327805 0.60075650792 -0.44772800688 0.9569296949 0.24977380595 -0.14798177209 0.68286176588 0.62993984172 -0.36870100847 
0.92985027728 0.32297750773 -0.16455509025 0.74876561147 0.58585130672 -0.29812767644 0.90162517403 0.3896288261 -0.1826123145 
0.80973078186 0.53040639504 -0.24191203061 0.87148239105 0.44531258699 -0.20315334113 0.86544183454 0.44742790315 -0.21146115148 
0.91636478014 0.31981429852 -0.2046548628 0.91400034702 0.34785664909 -0.19874593241 0.95304246803 0.2174137619 -0.21028744979 
0.9430290418 0.25812598221 -0.20358451229 0.89209596517 0.41236790992 -0.18451349752 0.88919414642 0.41054954409 -0.20150325299 
0.89660704128 0.38757041679 -0.19705306185 0.86810062195 0.45176153832 -0.20014725138 0.8771981789 0.42040535596 -0.22884982487 
0.93460208235 0.30621336419 -0.18076614147 0.85319445197 0.44507373753 -0.27049759507 0.93023074731 0.31505850186 -0.18800509879 
0.87658872014 0.40439619447 -0.2529127526 0.93279930622 0.31021230268 -0.18306667656 0.9109210993 0.34830880975 -0.21955430075 
0.93748941843 0.30104601725 -0.17442732413 0.93725129873 0.29843541019 -0.16545642135 0.94088140901 0.29291464463 -0.16929392564 
0.95676436898 0.26082440873 -0.12780117559 0.94387550559 0.28214389604 -0.16615174072 0.95094654209 0.26877768174 -0.15124300616 
0.95906298986 0.24606020311 -0.12307924572 0.94625155776 0.27039634875 -0.17606551134 0.97004842481 0.22006863991 -0.097388372997 
0.94485692624 0.25339581175 -0.20494621086 0.97216863988 0.21544880222 -0.090258932759 0.94208635686 0.24034940537 -0.23320656895 
0.96795041923 0.21525088814 -0.11193727572 0.9355521811 0.23811874257 -0.25977010557 0.95555743965 0.21764995122 -0.18589408114 
0.92974137887 0.23635811377 -0.28205844836 0.94498773137 0.21505732062 -0.24504978335 0.92496098453 0.23526702392 -0.29825700028 
0.93803762051 0.20446492772 -0.27840167265 0.9303249108 0.20412870187 -0.30205032867 0.93577005593 0.18608122842 -0.29884397588 
0.9410195369 0.15720097593 -0.29932488409 0.93262902678 0.17159634473 -0.31729243252 0.92466125133 0.11937365259 -0.35639271438 
0.91843643261 0.12551321172 -0.36984650635 0.9186020917 0.10042174955 -0.37756432448 0.91421479076 0.095009451608 -0.3900281258 
0.94526315054 0.13355414775 -0.28932792883 0.93359554331 0.099380100634 -0.34144815005 0.95628893855 0.11788580252 -0.26439594729 
0.94662177048 0.0826554981 -0.30776615845 0.95656795449 0.068674676193 -0.28297572305 0.95537567971 0.057362677711 -0.28419938428 
0.97038018833 0.07715561224 -0.2230556247 0.96996102377 0.099437432105 -0.20960148433 0.98157027459 0.089537455813 -0.16581624604 
0.97799287383 0.15138457637 -0.14325878064 0.98708972615 0.10430536033 -0.1194010814 0.97990133832 0.15304977765 -0.12747730904 
0.9883867732 0.047515285746 -0.13325781896 0.98126748791 0.084581641565 -0.13752914795 0.98181368317 0.058139073388 -0.14965241792 
0.98232297522 0.09785695861 -0.13806583536 0.96172111405 0.22322892099 -0.14926464751 0.97454293902 0.13527718886 -0.15428250655 
0.9705388068 0.12768762767 -0.18371794299 0.97672044459 0.11717740092 -0.17119614537 0.97470650265 0.087491829267 -0.2015265302 
0.9732657007 0.11522697904 -0.19301204436 0.96974027358 0.14673807477 -0.19426580251 0.96206526565 0.16045551175 -0.2134076601 
0.97233715225 0.1590205953 -0.1699505511 0.97235663508 0.13948109176 -0.16942496322 0.98150291607 0.12931975154 -0.11011079115 
0.97921789417 0.13967060394 -0.12340217144 0.99842611743 0.049917962256 -0.0062143913453 0.98862854182 0.12935256467 -0.068824795276 
0.99576431001 0.011877755872 0.0712909406 0.99279378948 0.10595689442 0.0017615127745 0.99203925199 0.034812182487 0.10830701495 
0.99240781666 0.10367934907 0.047337025922 0.98783941085 0.10771401776 0.11212042075 0.98788882892 0.1201689447 0.071166001611 
0.98336745463 0.1530312909 0.089411171973 0.98138282687 0.17883716599 0.0033609253727 0.97586442128 0.19764441357 0.024701633164 
0.97165603867 0.22598563952 -0.066873783305 0.96365110744 0.24116328954 -0.10527617082 0.96619214465 0.23794202416 -0.098139307344 
0.97058908791 0.22513215596 -0.07890423749 0.9583982445 0.24963576175 -0.1355912497 0.96697245748 0.23391373656 -0.086589214171 
0.9508045086 0.25854370247 -0.16997429798 0.94963567314 0.27647922378 -0.14741243205 0.94686391154 0.26300477996 -0.18504988274 
0.94166683011 0.30016790189 -0.15121340456 0.94382042378 0.27308014938 -0.18588009923 0.93198473976 0.32043403459 -0.16770593487 
0.93176814659 0.28529276246 -0.22092145226 0.92145478619 0.3361998454 -0.19452135311 0.9173211716 0.26676309645 -0.29405104392 
0.92215248602 0.32028697064 -0.21609022258 0.9164552537 0.28568779274 -0.27752301694 0.91778904691 0.34198593864 -0.19076280948 
0.91836302455 0.3177351664 -0.23429277781 0.90890124908 0.39730766848 -0.12351289477 0.9170514284 0.34705973178 -0.19528053512 
0.90039865242 0.42190300006 -0.10352539409 0.91577261655 0.34567882952 -0.20403237728 0.88973574023 0.44362023204 -0.10319439944 
0.91144442416 0.35182943786 -0.21084356103 0.87365311817 0.46371358638 -0.14308185293 0.90081164833 0.38538630594 -0.19677201937 
0.8771026366 0.44610860592 -0.17263452553 0.8786398928 0.43195660795 -0.18732610909 0.89487479221 0.40085997978 -0.19460885224 
0.87031607758 0.4548775351 -0.18316687202 0.8840638003 0.42695417278 -0.18644278744 0.83269744655 0.51411423147 -0.17915756296 
0.87126111644 0.45867974647 -0.17462399439 0.80010227205 0.56528452073 -0.17303915426 0.87662004158 0.44944581744 -0.17167594379 
0.79414128303 0.57524136562 -0.18447259991 0.88365752651 0.43364660898 -0.17533677833 0.82079534828 0.5323707652 -0.19772156207 
0.90799879968 0.35701591328 -0.19358284377 0.94336812714 0.23069735205 -0.22867890151 0.87422318648 0.46144073707 -0.14810391379 
0.85611528634 0.50430424622 -0.099252787692 0.84883630291 0.52437785163 -0.062630188515 0.8556743087 0.51501826723 -0.046250153995 
0.86609753406 0.49717750623 -0.041907189958 0.87639625201 0.47730953077 -0.033959342042 0.86883717973 0.48880380532 0.041439884416 
0.84305696045 0.49626119931 0.17493514748 0.81598914466 0.48797343445 0.30832360747 0.83482341827 0.44125027173 0.32678111814 
0.86514076982 0.39813160556 0.29679213849 0.90143461851 0.35659791487 0.23779448407 0.92497554964 0.34232912568 0.15843118414 
0.93936857754 0.32086285541 0.11743475818 0.94001554525 0.33056615345 0.053520421601 0.94399379078 0.31828451969 0.019601554173 
0.95821408583 0.26432498215 0.05217340011 0.97124827937 0.19255361774 0.062130676312 0.98658749071 0.097274600588 0.096562666887 
0.99363130201 -0.010668381914 0.094768657512 0.99791813751 -0.00051163336659 0.0076206878799 0.99652850875 0.017274150443 -0.054565312494 
0.99357254114 0.04250571006 -0.098724869607 0.99109924059 0.036242770832 -0.12550627056 0.98635887677 0.038832020846 -0.15488458117 
0.97690138318 0.053917059639 -0.19681046541 0.96383775887 0.0891086047 -0.23720247791 0.9482250364 0.16843770681 -0.26569121084 
0.93451284242 0.21987374843 -0.279483001 0.92067847465 0.2585660955 -0.29057832919 0.91297422596 0.26785170553 -0.30495378954 
0.90677363904 0.27334047999 -0.31634370008 0.9030493337 0.23487507604 -0.35623128599 0.89090549432 0.20399400249 -0.40175329062 
0.88945817562 0.20541108116 -0.40617058852 0.88446898003 0.20322200931 -0.41828227696 0.87766992627 0.20116341115 -0.43313420418 
0.86044696789 0.1725405452 -0.47820029341 0.81329733924 0.17115204096 -0.55335886233 0.76658519706 0.20111802589 -0.60744971232 
0.7144902848 0.24761994396 -0.65268129016 0.65175163883 0.33922842875 -0.67664876198 0.63186349577 0.43993263458 -0.63464421273 
0.62461435784 0.50830477928 -0.58961589935 0.60284934251 0.56809112852 -0.55807069491 0.62756293117 0.60023796968 -0.49225862991 
0.66431521659 0.61211336773 -0.4228035523 0.70296459509 0.61574539203 -0.35284665498 0.7262646865 0.61124367662 -0.31038765206 
0.77077949824 0.57901342345 -0.25610390766 0.85950612185 0.4578462758 -0.21039090941 0.9234594152 0.32552634911 -0.18979974571 
0.9547517751 0.22258283335 -0.19260555184 0.96087857945 0.16594621615 -0.22109339283 0.89673292927 0.37859936454 -0.22705336466 
0.86227933149 0.44513224589 -0.22899162474 0.91027272728 0.3465697357 -0.22286378835 0.91070453758 0.34483045689 -0.21941158018 
0.93134903187 0.31094197112 -0.18930068844 0.93911751404 0.2969630912 -0.17036034639 0.95011421921 0.27660409558 -0.14089792415 
0.96301869037 0.2416947365 -0.10863805205 0.97083118904 0.21643726487 -0.097665826086 0.96186418821 0.22484948249 -0.14811970058 
0.94553181457 0.22942513937 -0.21836579275 0.90922614234 0.21851842472 -0.34253270065 0.87887822919 0.19426179551 -0.43203276662 
0.85310276375 0.14934225538 -0.49671126928 0.82279481021 0.10340711807 -0.5552968354 0.82288039062 0.065715660123 -0.56197761655 
0.84176723104 0.043781162625 -0.53210532532 0.86164724284 0.021690583139 -0.49892422387 0.89934778652 0.03485669641 -0.42736503745 
0.92060205751 0.0052652462405 -0.38694518058 0.94828941601 0.017552312063 -0.31568692539 0.96433501206 0.023270574974 -0.26038189379 
0.97526294807 0.055181695398 -0.20371215102 0.98140351646 0.098177683932 -0.1567226357 0.98372434934 0.0024613740644 -0.1679540737 
0.98491392481 -0.014776986231 -0.1712227283 0.98221449053 -0.058964370062 -0.17616463369 0.9811262571 -0.01103004067 -0.18793242832 
0.97979092306 0.027613986327 -0.19301197831 0.98201338204 0.035868188037 -0.18116673431 0.99002160491 0.020940703402 -0.13557090089 
0.99504526363 0.025142638326 -0.080827361371 0.9987895096 0.028488438834 -0.017783062959 0.99516838182 0.0094792768968 0.070001867018 
0.98598268082 -0.0084500811665 0.15720721559 0.97757670751 0.0072486745897 0.2085300178 0.98281600923 0.096131422725 0.12366870033 
0.98111166693 0.15974124144 0.050492893672 0.97167298924 0.21544710228 -0.045867748963 0.96589674098 0.23673139249 -0.081673094665 
0.96051256276 0.25097220604 -0.11347029496 0.95785851563 0.26034636589 -0.12024133867 0.94735453111 0.27163771577 -0.16522100832 
0.9369824766 0.28362613974 -0.20291578033 0.92939809338 0.29697110068 -0.21698121162 0.92184015975 0.30832038236 -0.23327091472 
0.91370161574 0.32241737067 -0.24624224079 0.91052262155 0.34603994487 -0.22535874583 0.91070588213 0.3415566769 -0.23212544465 
0.9060540544 0.35770892785 -0.22464658315 0.89343124902 0.39823871704 -0.20444747159 0.87086705116 0.44811570188 -0.19004940072 
0.82888320218 0.53078937515 -0.16397514025 0.76513727965 0.61783827491 -0.15308299548 0.69205553848 0.70459894876 -0.15191127074 
0.71740700209 0.66761279975 -0.19409836528 0.76773316185 0.59881743783 -0.21755617019 0.81902910476 0.52495554003 -0.2301502306 
0.89492186474 0.41635266846 -0.15052262355 0.92761651839 0.26316015185 -0.20201938942 0.87712829597 0.4631764643 -0.10140998041 
0.87277503858 0.48162506469 -0.067572043304 0.8756572967 0.48055618349 -0.039962497826 0.88092654399 0.47255107847 -0.016795908303 
0.87041038018 0.47908438405 0.05220994601 0.8230509831 0.51494648624 0.21832841035 0.81453761349 0.49750918565 0.29449297322 
0.81403589963 0.46490206438 0.34664211836 0.82119914927 0.41880597741 0.38602499621 0.8466348526 0.37524995379 0.37248136818 
0.87644575634 0.3335592338 0.34457998986 0.90258331632 0.32283886941 0.25111085929 0.93845150506 0.33209703061 0.087213592329 
0.94319900809 0.32626588734 0.055691313496 0.95057552472 0.29929577267 0.060565096301 0.96388085728 0.22449441182 0.12410779495 
0.97397099478 0.14510725894 0.15839304291 0.98190652307 0.074451584092 0.15861287477 0.98965820869 0.051935060874 0.1219137934 
0.99392329291 -0.10451031586 0.014053880024 0.99349165411 -0.089430969968 0.059280808703 0.99538018686 -0.051392700773 -0.044517905048 
0.99430821783 -0.0085185875228 -0.1004745537 0.98862066909 0.0065162811683 -0.14692455022 0.9816348203 0.020836917965 -0.1865416743 
0.97413854091 0.034209819977 -0.22286436513 0.96123129691 0.074183923348 -0.26058379593 0.94880532956 0.11331754662 -0.28656553136 
0.93512420001 0.18976607009 -0.29336426343 0.92729056024 0.20796806976 -0.31024765161 0.92264508969 0.22212682704 -0.31388868234 
0.91517334512 0.21937985605 -0.33676245522 0.90359071918 0.19596753316 -0.37711038096 0.89239783584 0.15428972225 -0.4237840098 
0.88855934215 0.16013187056 -0.42958043965 0.88308255886 0.16572368145 -0.43842128897 0.87611047728 0.1805751862 -0.44592033588 
0.83674248932 0.17688035081 -0.51360992503 0.79847439351 0.20146814891 -0.5627926858 0.78073624127 0.24351641007 -0.57449251359 
0.76569078457 0.30551317502 -0.56211728764 0.58894285838 0.5548712561 -0.58391026867 0.58874710868 0.50231367878 -0.62934834462 
0.6040578809 0.60062941378 -0.52238215703 0.6849034242 0.58578916498 -0.42134389163 0.74033804787 0.57500520351 -0.34704180927 
0.74952920914 0.58147365897 -0.31501280556 0.77207921428 0.56568167943 -0.28537036303 0.80568753409 0.53613447304 -0.25138433914 
0.82229545246 0.52726745984 -0.21239356831 0.88199263375 0.4229912536 -0.18096849584 0.93568802901 0.2967448017 -0.17185771351 
0.95314238524 0.23388478374 -0.18636310682 0.95913479691 0.13427555317 -0.24091941257 0.99495351204 -0.034162135659 0.090226700653 
0.9934501383 0.093516653464 0.053544560884 0.68850990772 0.41834409257 -0.58623821882 0.77192642856 0.36732698095 -0.51598115174 
0.87041188159 0.40731666443 -0.27570698081 0.87771211022 0.40508600305 -0.25521062451 0.87639966955 0.3953838371 -0.27451158852 
0.89459721594 0.36511603957 -0.25242005849 0.91596691184 0.33015019783 -0.22067543249 0.93508989393 0.29718796587 -0.19219148729 
0.94607264686 0.26860244647 -0.17874241819 0.95220225614 0.24104369717 -0.17310637442 0.9260422735 0.24196503328 -0.25452342186 
0.91313588116 0.24276777857 -0.31346247776 0.87028672002 0.21917410355 -0.41684092342 0.83163571176 0.19326420835 -0.5123085355 
0.79059481326 0.13888636412 -0.58164289313 0.7564334173 0.085891863871 -0.64749302182 0.76461285016 0.044248704495 -0.6421470113 
0.80618236965 0.030006535174 -0.58544149082 0.8917314243 0.078086691127 -0.44075489102 0.91191505108 0.052716943326 -0.4064911436 
0.92951029484 0.039317717842 -0.36386664127 0.9473674436 0.032210258968 -0.31740759542 0.96139434391 0.033752133238 -0.27070850839 
0.97219485036 0.060698392423 -0.21946267937 0.97780760434 0.11327144097 -0.17188786916 0.97925178189 0.12199346029 -0.16045237151 
0.98072387255 0.088039015244 -0.16459292002 0.98305516532 0.012244227665 -0.18084856857 0.97998980066 -0.051848806316 -0.19147254605 
0.98190084582 -0.036071039455 -0.18540498432 0.98514012818 -0.023995101317 -0.16819567629 0.98981112242 -0.0040850129495 -0.14081025894 
0.99539768167 0.0068559902776 -0.079454884754 0.99842543742 0.013632450185 -0.017194204283 0.99251093368 -0.020285438731 0.082941813161 
0.98631213985 -0.037096283083 0.15652552138 0.98484028773 0.0076032906784 0.17125970695 0.98584450744 0.0675073752 0.14067781862 
0.98391333722 0.12653383407 0.097560126063 0.97736824086 0.19939659323 0.0058610995466 0.9727306186 0.22901225128 0.015172129081 
0.96755259044 0.24847724773 0.025992132047 0.960581411 0.27560046492 -0.026604542702 0.95210810817 0.28907805435 -0.074076256404 
0.94168339073 0.30294859057 -0.14136768693 0.92836480537 0.31373800632 -0.19427293644 0.91915501407 0.32308638286 -0.22276139959 
0.91131007158 0.33061435048 -0.24478129032 0.90254738412 0.36090490045 -0.23337782539 0.9015561163 0.36534969523 -0.23150094304 
0.90245820897 0.36179836389 -0.23368549253 0.88265012608 0.42138558779 -0.20009232809 0.85516107389 0.48569605258 -0.1687689944 
0.80800525392 0.567724005 -0.14004909014 0.79367994878 0.59021468573 -0.14545884694 0.75494608508 0.63314570825 -0.15803826729 
0.76218002414 0.6172363948 -0.17811756341 0.81442359836 0.54056971664 -0.20086812961 0.84498994498 0.48522995114 -0.22117917516 
0.86747075899 0.43559858144 -0.23702706437 0.72859385824 0.45249253507 -0.49860113907 0.81922177139 0.39135657742 -0.40848934405 
0.66284238518 0.51371405486 -0.53258330406 0.66497366061 0.55574261562 -0.48733893886 0.69947223791 0.57113316493 -0.41163363534 
0.79617245589 0.5291398522 -0.29104221552 0.79864829027 0.5330765305 -0.27706950514 0.82579794706 0.49815355575 -0.25665126837 
0.8459940647 0.47420389373 -0.2394344985 0.83683642375 0.4901907303 -0.2405139971 0.82296522696 0.52484389611 -0.21211358377 
0.83804119282 0.5174907573 -0.16977487579 0.88619462419 0.43786145638 -0.12397939768 0.93990047075 0.28586434144 -0.15491992115 
0.95577750487 0.22210422978 -0.18551414635 0.94676930334 0.2461494373 -0.20405188504 0.92588655399 0.32463957405 -0.17601005336 
0.90487602151 0.40649664405 -0.12217686127 0.89157226845 0.4448789752 -0.067447368745 0.88716349 0.45986133931 -0.025349123347 
0.87746591571 0.47147293683 0.040342372051 0.86728411481 0.48234754224 0.11116489294 0.84695322382 0.48354341754 0.21127479463 
0.82465883744 0.46932141893 0.30694092513 0.81972123096 0.43998423456 0.36446088882 0.82750536471 0.39944729248 0.39170384555 
0.84691487798 0.36142832621 0.38649953686 0.87603887614 0.32711560502 0.35179641733 0.90479028293 0.31764069433 0.26390370401 
0.93450181312 0.32148823394 0.14594568537 0.943479592 0.31177895513 0.10397892088 0.95226153355 0.29689623071 0.065357303554 
0.96657615641 0.23191091936 0.099361338334 0.97519306304 0.18557417143 0.10904211886 0.98214141285 0.14125777812 0.10594598806 
0.98791333645 0.13096483177 0.080068892639 0.98705743347 0.15197914466 0.027321501497 0.98928739778 0.13977087509 0.0063673977981 
0.96524553805 0.23894224181 -0.057684568587 0.99730944064 0.064377145926 0.026206672407 0.99702631019 -0.031310767851 0.028707008136 
0.99718107314 -0.052166234178 0.00412789398 0.99765658811 -0.0052272986147 -0.048183717861 0.99449691111 0.024176765479 -0.093878426905 
0.99034363703 0.022452303805 -0.13387168628 0.98453428756 0.023528820891 -0.16926799805 0.97707603778 0.027302002693 -0.21039148298 
0.96618838666 0.040538137643 -0.25196254717 0.95686567096 0.071498906583 -0.27817829578 0.95066581194 0.13587157026 -0.27631660187 
0.9405576292 0.19433228714 -0.27585475524 0.93293622534 0.23335613683 -0.27404819224 0.93042809842 0.22932626381 -0.28523455407 
0.9245478019 0.21745441556 -0.31034907809 0.91632248862 0.19163440587 -0.35076312104 0.90421424251 0.1662684339 -0.39046173888 
0.89062812778 0.15385675432 -0.42691758176 0.87541952988 0.15728542742 -0.45682730403 0.86283882467 0.18549924944 -0.46949220303 
0.8411770654 0.2145448762 -0.49400454725 0.80516570169 0.24497835423 -0.53791288808 0.79738363582 0.30003755219 -0.52246117016 
0.83696147509 0.33676688611 -0.42272999642 0.86903477431 0.37230260245 -0.3209681775 0.86986352355 0.39311559486 -0.28993318963 
0.89122794683 0.37027404867 -0.25938634929 0.83408660488 0.41043821325 -0.34753674827 0.8558279349 0.41555943483 -0.30662117522 
0.86034894579 0.41992473617 -0.28827496702 0.83875704888 0.42356637863 -0.3419912269 0.84855301174 0.39952500105 -0.34456707469 
0.85888916396 0.37259302074 -0.34755306038 0.85959500368 0.34665609747 -0.36758113995 0.87983644103 0.30834780048 -0.35862709558 
0.87545031258 0.28614692593 -0.38670412919 0.86480242114 0.26626071478 -0.42332101415 0.83887772519 0.24076535709 -0.48441563449 
0.82736875719 0.21675626785 -0.51669244059 0.82016986161 0.18017390437 -0.53727794703 0.81764817635 0.14787795968 -0.54710301343 
0.8583828455 0.14504716383 -0.48011076672 0.89751548529 0.15831669788 -0.40142823169 0.92560059388 0.19088097577 -0.32214042497 
0.93539202192 0.11387387773 -0.31783737188 0.92629268692 0.11498570263 -0.35056249866 0.94748650211 0.080628006195 -0.30005554453 
0.95812106744 0.069761337333 -0.2736372736 0.9683612372 0.076844952538 -0.23604162709 0.97452473541 0.059982604619 -0.2150267161 
0.97800683167 0.062742746032 -0.19684916508 0.98122492179 0.062870671616 -0.18119780256 0.97838032112 0.11037590337 -0.17373918123 
0.98099437708 0.042512166548 -0.179022365 0.98375753891 0.0071865967175 -0.17846597971 0.98530028767 0.012148551595 -0.16799387826 
0.99075253555 0.0091620158565 -0.13369003914 0.99596526639 -0.030387979602 -0.053342888511 0.9977318897 -0.042429757667 0.021161461968 
0.99419260133 -0.040453680577 0.086992056341 0.99053394394 -0.027709500197 0.12958213756 0.98748070023 -0.0063979035576 0.15623526737 
0.98871191913 0.056812816284 0.11748492748 0.98808248399 0.1349613342 0.047155222842 0.98053121011 0.19042198192 0.013811889768 
0.97358871076 0.22551679842 0.017931642176 0.96411230834 0.2621779787 0.027776527219 0.95655270034 0.28785816434 0.036888667467 
0.94923414033 0.30964542386 -0.013681005423 0.9401411165 0.32822825398 -0.086596038593 0.92784172091 0.35228841228 -0.11885077172 
0.91524237615 0.37722975875 -0.13861713151 0.90588589619 0.38511710597 -0.17495590081 0.90074147942 0.38548772671 -0.19917277277 
0.89833087892 0.38088193003 -0.21874339475 0.90121363912 0.37071136505 -0.22441532029 0.90275757107 0.37134422467 -0.21522498483 
0.89041412241 0.41178324329 -0.1882916831 0.87437224066 0.45008787807 -0.17138604367 0.84808436929 0.50507322243 -0.15835512829 
0.82717224581 0.53853670223 -0.15728146428 0.82087049465 0.54048426608 -0.18226156499 0.82536027525 0.52160148534 -0.20993818628 
0.86351463102 0.4507175951 -0.22205483195 0.88007929127 0.41342938085 -0.23234724514 0.87126324767 0.41650027841 -0.25869645868 
0.93291198217 0.16620438648 -0.31436846359 0.94121442506 0.26470536331 -0.18843505775 0.84474297567 0.43117915073 -0.30508349473 
0.84538197519 0.44909739804 -0.27791071247 0.851738929 0.4677588338 -0.23119106899 0.83609802621 0.48808931594 -0.24885533518 
0.8352339008 0.49108392161 -0.24640247712 0.85440343956 0.462294024 -0.23607560456 0.87628438628 0.42765739685 -0.21905517053 
0.89556263587 0.39562529543 -0.19797091679 0.88787055738 0.41907344045 -0.16910944665 0.88555680695 0.43211806218 -0.13963304454 
0.8650910572 0.49007664616 -0.10301068531 0.94318922571 0.30431583071 -0.13177654768 0.9378440733 0.32861834096 -0.1047980282 
0.94240577903 0.29425976421 -0.15838966969 0.93033678228 0.33317693941 -0.14254794744 0.91902773238 0.37149515714 -0.12445270972 
0.9094271469 0.40112747365 -0.085031565927 0.89318923925 0.44267751933 -0.0098316391198 0.87452060953 0.47512261003 0.082919881933 
0.86705152826 0.47623689618 0.1455069458 0.86680313102 0.45517289787 0.20181315101 0.84140797791 0.43982435847 0.30350064964 
0.82799974509 0.41671180381 0.37384784673 0.83822366262 0.38478474824 0.38517630471 0.86109665373 0.35416760231 0.36275374233 
0.88818731104 0.33306951969 0.31279872314 0.91283308823 0.31712456104 0.25000740028 0.93294280857 0.3029065029 0.18629864605 
0.94768394507 0.28361369363 0.14179204697 0.9615955288 0.254715687 0.10136110789 0.97174143002 0.21866038493 0.081421241941 
0.97757306664 0.19343950884 0.079942604893 0.97984065269 0.18051882405 0.078697293096 0.98498301215 0.16026946283 0.059787912547 
0.97453223912 0.21383339017 -0.034532547057 0.94230927932 0.30175201202 -0.13506292943 0.92050992035 0.35274119626 -0.15227915859 
0.88919429553 0.4011596645 -0.21401081987 0.97295710001 0.21706702351 -0.054782277847 0.99202527093 0.10945813679 -0.012640887862 
0.99810627586 0.037592023725 0.0086505099675 0.99809445874 0.036369208201 -0.011569396923 0.99672073171 0.047214214247 -0.048838469658 
0.99370279441 -0.015663863253 -0.070475785874 0.98846762017 -0.10849559468 -0.093174754722 0.98705109584 -0.010054603931 -0.14683194451 
0.98061945419 0.01549770303 -0.1943747195 0.97331399403 0.040119937355 -0.22329906297 0.96609078109 0.092850775376 -0.24007579642 
0.95950295731 0.11727068031 -0.25524222768 0.9503115003 0.17473779476 -0.2486249341 0.94054352005 0.24091520454 -0.23778791522 
0.93804145581 0.25164374256 -0.23620530331 0.93615950567 0.24114521595 -0.25425859875 0.93464237163 0.23046722144 -0.27048965172 
0.92434107995 0.2114697932 -0.31515558602 0.90762385683 0.19641318125 -0.36983292069 0.88569202388 0.18871835605 -0.42330751519 
0.8675419991 0.21645147759 -0.44530070842 0.84751663607 0.2297923311 -0.47544730534 0.82808922086 0.25679391326 -0.49479091562 
0.86190135247 0.28371592118 -0.41672990434 0.88846355411 0.33321342401 -0.3085618629 0.90999561558 0.34188604935 -0.23121961151 
0.91957667565 0.34885318599 -0.17845448832 0.90161220533 0.37024449664 -0.21815779891 0.9331847805 0.33446048934 -0.11635484318 
0.8879593043 0.39835422676 -0.22823863655 0.89975709643 0.42544507649 -0.073816063645 0.85362944495 0.51530122383 -0.068933164065 
0.9420127681 0.22908921333 -0.24007237216 0.94158465665 0.29486255312 -0.15239732655 0.94510795048 0.21123666415 -0.24795201259 
0.94990004194 0.21339217957 -0.22622452047 0.95493746172 0.18844167055 -0.22028534221 0.95921823846 0.14434798191 -0.23581735545 
0.9639752452 0.13572849963 -0.22535444455 0.96974122424 0.12878386965 -0.20702066215 0.97276693862 0.12844598092 -0.19238873609 
0.97594716956 0.13203933752 -0.16827037086 0.98081220786 0.10389185281 -0.16458572966 0.98017485919 0.1195163507 -0.15739559629 
0.98406905315 0.08613477843 -0.14924517272 0.98646120358 0.093816696412 -0.12929632227 0.99378094355 0.050371846019 -0.08993388833 
0.99787961478 0.0012133301222 -0.038919164932 0.9976035717 -0.031674833151 0.018895787406 0.99491531704 -0.052949015545 0.078228680686 
0.99398042793 -0.030461427581 0.10104484378 0.99302433188 -0.0018919926517 0.11585509293 0.99251219372 0.061184312512 0.068937855007 
0.99069607561 0.12361034351 0.041859265434 0.98278188946 0.16418611596 0.077414344524 0.9733418575 0.2089905988 0.083509196843 
0.95986911714 0.26149021103 0.098351100658 0.94638840739 0.30324926664 0.10684510851 0.93565424842 0.34157234316 0.064828356754 
0.93062006078 0.36512908861 -0.0076958815526 0.92282121569 0.37620805194 -0.067885092702 0.91264759456 0.39257825934 -0.1100483131 
0.90106627739 0.41613496952 -0.11931636395 0.89924584971 0.41064233392 -0.1454421961 0.90302062449 0.38675712621 -0.18539084254 
0.9067887008 0.36799107626 -0.20481275237 0.91338060845 0.35115558297 -0.20534406521 0.91765061502 0.34068703308 -0.20339841395 
0.91768072358 0.34679103663 -0.19075212162 0.90375408336 0.38195559714 -0.18169432612 0.88179260875 0.4343108732 -0.17468324407 
0.86158201963 0.46524549575 -0.18828609532 0.84498479667 0.49362127124 -0.20307331453 0.86526687538 0.45175697694 -0.21272631243 
0.84732135464 0.46412820972 -0.25203075821 0.82745720998 0.47915620343 -0.2902487712 0.85017795198 0.42984870224 -0.2978779609 
0.86567502223 0.3902523147 -0.3128691441 0.85279210312 0.38596428269 -0.35051503408 0.82731104112 0.39813019868 -0.39531267957 
0.80342997414 0.39633431366 -0.44401625262 0.78476586051 0.38589828935 -0.48275797688 0.77445187723 0.37168774316 -0.51005247159 
0.80810732227 0.33215225439 -0.48028432329 0.85439254112 0.29060309613 -0.4299360761 0.86961640725 0.26313920447 -0.41603020349 
0.89307225096 0.2435771201 -0.37134249343 0.90592114142 0.22818669707 -0.35076674771 0.91603678069 0.22372473431 -0.32152038784 
0.93035749922 0.22288182623 -0.28306519453 0.9383019131 0.24063573472 -0.23695725229 0.94301134978 0.28807995426 -0.15695578167 
0.93588052261 0.341507383 -0.063051669643 0.93012109143 0.34855090444 -0.031870265841 0.93592393736 0.32054613162 -0.11576536738 
0.92655983554 0.37336304638 -0.018634777376 0.94287439652 0.26372154909 -0.19949262704 0.88616639458 0.41550459967 -0.20379844808 
0.87457896577 0.43356665409 -0.21637650822 0.86694594298 0.4423860776 -0.22892584433 0.86972120689 0.43489505753 -0.22956647749 
0.9023432913 0.37468160897 -0.19576609954 0.92997852783 0.3212465718 -0.16298030217 0.94887528859 0.27906937932 -0.13184069421 
0.95528734787 0.27104353011 -0.11312518514 0.95348507915 0.28255241753 -0.098260785968 0.93894492767 0.33005586653 -0.088804738185 
0.90725354337 0.40212155546 -0.061388855732 0.8578527159 0.51209255501 -0.032370278622 0.88910131921 0.44782514556 -0.058411398445 
0.89652485655 0.43250769239 -0.054478184592 0.92989690617 0.35724787982 -0.083462582858 0.9352677594 0.33729424358 -0.10395789297 
0.93366849068 0.33802129198 -0.1104902804 0.9294756564 0.34507105769 -0.11675060433 0.92536979888 0.35606017181 -0.1268650793 
0.91571231156 0.38195989672 -0.085290799847 0.89598296287 0.42931695624 -0.00015002584351 0.876967451 0.47070445027 0.089547616511 
0.87203398913 0.4651468408 0.14389591183 0.87457226051 0.44967544289 0.18004065326 0.88148633382 0.39415602769 0.25272730394 
0.87812360092 0.40797444427 0.24815613578 0.89250424708 0.37652224487 0.2343567108 0.89721422204 0.35893651811 0.24002735209 
0.90212409821 0.34613185355 0.24015594015 0.92872141056 0.33979142544 0.14006875662 0.94048148297 0.31278957737 0.12583847462 
0.9461698933 0.29015762235 0.14209782261 0.95779769825 0.25038931856 0.13092144 0.98206923399 0.18280866226 0.034471901849 
0.98064881995 0.1853889537 0.044753271791 0.8843563696 0.41817227611 0.20467618206 0.89309732464 0.42004346775 0.15816761062 
0.97531256698 0.19542738413 0.088139392008 0.96679497324 0.2391164052 0.057826229537 0.926789223 0.31308245196 -0.20260797831 
0.96453639888 0.24410153767 -0.082055976424 0.90153589565 0.35684740811 -0.23907194471 0.88164961489 0.411033226 -0.22997292581 
0.88875231732 0.38098858671 -0.25310877727 0.88189096542 0.4277372346 -0.19740807362 0.94522527982 0.29705747933 -0.11871521139 
0.98455714638 0.16293880906 -0.056457209091 0.98743484725 0.14009074962 -0.066655329866 0.98237669145 0.1547254652 -0.096652683336 
0.98746271824 0.0089264943698 -0.10547775698 0.98855285645 -0.013566521397 -0.13709584992 0.98432909865 0.010769317559 -0.17418466083 
0.97912329675 0.029553005695 -0.1982641725 0.97318878274 0.066386729174 -0.21554106808 0.966894234 0.11739765431 -0.22428620519 
0.95780779589 0.1870374466 -0.20540126233 0.94598833691 0.27072543443 -0.17714716477 0.94372811091 0.27292467776 -0.18581574446 
0.94171688091 0.26265471791 -0.20587778421 0.94185396283 0.22931840979 -0.24430262184 0.93341717615 0.2152573964 -0.28418025024 
0.91996854343 0.21395244429 -0.32494054622 0.90100065474 0.23381855039 -0.36449600291 0.8906024518 0.28832419234 -0.3494911262 
0.87398014669 0.29249023069 -0.3862119405 0.90694713255 0.32810945214 -0.25232997029 0.92671619941 0.34192136883 -0.15186786904 
0.94283253281 0.32070458484 -0.073381061866 0.96165457515 0.26621664686 -0.0021213739206 0.9536794844 0.28556411695 -0.083106753532 
0.97791530695 0.2024387058 0.024159494713 0.91028218558 0.37109501808 -0.18188573338 0.94385593508 0.25941694337 -0.20141982827 
0.94522333263 0.25454445319 -0.2028328598 0.94901682246 0.24874630966 -0.19303719167 0.95355991773 0.23120269049 -0.19057925543 
0.95625854926 0.21145601549 -0.19784691393 0.96262916151 0.18310025141 -0.19208386091 0.96512921996 0.18773523443 -0.17601979481 
0.96858098845 0.19347846652 -0.15294302874 0.97667638876 0.16766795338 -0.13372996354 0.9786893851 0.16506952871 -0.11855446807 
0.98161858852 0.15678986062 -0.10653158949 0.98501572801 0.14588386457 -0.090014688506 0.99099671829 0.1137305735 -0.061873841551 
0.99893335323 -0.0010292721154 0.0045156816543 0.99957908128 -0.017940194071 -0.0023397559494 0.99928628419 -0.0097678659034 0.035141808544 
0.99920894126 0.0053871741348 0.036223183354 0.99858041484 0.016484874306 0.047125216183 0.99666150348 0.059954640285 0.041349624479 
0.99203088729 0.10414888041 0.054245227731 0.98356513325 0.1474044079 0.093689064311 0.97105624703 0.20432153513 0.11050778014 
0.9565439817 0.26827669613 0.11173842585 0.94337336604 0.31577010702 0.096792305141 0.92717298239 0.36824674921 0.039234010964 
0.92085149944 0.38632624268 -0.041343156736 0.91639558412 0.39172739448 -0.077646140153 0.91412077536 0.39185359392 -0.10244179652 
0.91306866399 0.38848141397 -0.12348722799 0.91284697523 0.36939122835 -0.16204705169 0.91678666254 0.34366084294 -0.20104070443 
0.92385629244 0.31698730092 -0.21424193149 0.92808947196 0.32546385499 -0.17902035353 0.92332812303 0.34641839316 -0.16548737135 
0.92706261035 0.3319134034 -0.17361350031 0.9374887176 0.30023175607 -0.17351129806 0.93844976383 0.29950946415 -0.17048882544 
0.9033676463 0.38384616821 -0.17949810736 0.83743740331 0.49133530618 -0.20867972811 0.8125417088 0.52843735595 -0.23595542117 
0.77885298904 0.56197281553 -0.27682938087 0.7816005958 0.53985816358 -0.30531951383 0.84206808007 0.43988919495 -0.3046037504 
0.85580054198 0.39619546728 -0.33031302688 0.84509643681 0.38594405454 -0.36920542553 0.81972049121 0.3915698069 -0.41378725262 
0.84002794488 0.34650316836 -0.40776000715 0.86036668433 0.31967380605 -0.39254905058 0.85890059154 0.32505195631 -0.38701827605 
0.86517191063 0.32342999301 -0.37108072511 0.89302009368 0.29697060123 -0.33431596823 0.91385783918 0.2851716346 -0.26577058365 
0.93770283878 0.26923712839 -0.20946152862 0.94217349302 0.27893900785 -0.12202155711 0.94922299613 0.2817703433 -0.066056505241 
0.94354844616 0.30347178045 -0.049692567806 0.9402873835 0.32828956089 -0.006931659813 0.93712803372 0.34655941891 0.011067253842 
0.92912979037 0.36461739686 0.036513544344 0.93106935908 0.36362597209 0.018840108344 0.93341806774 0.35783547016 -0.01378763705 
0.92719895647 0.37218188733 -0.039683691288 0.92946185779 0.36791681871 -0.0061435479982 0.93395899207 0.33795859486 -0.094089575354 
0.99762101591 0.030979057096 -0.018084980573 0.9940025377 0.10158297011 -0.037592784562 0.92130299839 0.33387582063 -0.14741008442 
0.92416505916 0.34378798297 -0.15068014635 0.97521895775 0.14524794585 -0.14666241727 0.96182757248 0.21760401985 -0.14337442805 
0.97963275836 0.12145352712 -0.15239828758 0.9750667014 0.13589337172 -0.16170336086 0.97348039704 0.12684240694 -0.18284874725 
0.97045810112 0.13619213561 -0.19535819782 0.9650602162 0.16978066662 -0.19598223364 0.95793845257 0.2162033947 -0.18732325705 
0.9513672151 0.24333925285 -0.18796506842 0.94711075947 0.2528997502 -0.19686562346 0.94340741102 0.2566979903 -0.2093439665 
0.93732351695 0.25433497698 -0.23692399032 0.9294213859 0.26586386508 -0.25472559446 0.92098922179 0.30097554582 -0.24612587441 
0.91369333341 0.33121138308 -0.23308009983 0.91090334179 0.34459693157 -0.22288772934 0.91595868041 0.36013565798 -0.17627558496 
0.92113722702 0.3527630563 -0.16228251398 0.9285086791 0.33220393014 -0.15667718808 0.93679126957 0.30593621349 -0.15116421755 
0.96113267986 0.24657596332 -0.11788546178 0.96972339488 0.22310028856 -0.096151221991 0.97062401658 0.225629153 -0.083125124716 
0.96595000851 0.24549491708 -0.079481676398 0.96121459517 0.26630613036 -0.070974446939 0.94962499605 0.30307591983 -0.069803630408 
0.93829475286 0.33863744615 -0.069572185948 0.95214289747 0.2929026583 -0.074694191127 0.91294762754 0.38504017587 -0.056535305313 
0.9675560785 0.22776637684 -0.10389156647 0.84747436382 0.52938832056 -0.012564522353 0.8736738119 0.47789740123 -0.020271411541 
0.92429028136 0.3754732667 -0.056799329837 0.92565512251 0.3681082063 -0.063589878426 0.91961352892 0.38439733538 -0.057858995531 
0.92190375634 0.37890734361 -0.076552797361 0.89996842156 0.4295678597 0.0047527408166 0.8890968459 0.45362534164 0.055627507092 
0.88818245546 0.44773596436 0.089799891831 0.88520494937 0.44513296018 0.12910000623 0.89410459672 0.42778615938 0.12555359236 
0.91624250776 0.38493940873 0.10716658005 0.92190688255 0.38278360535 0.054727887821 0.91760613816 0.37514890742 0.088435078976 
0.92265953765 0.37299852103 0.083333682504 0.92402028841 0.37131363819 0.088702157212 0.92740911968 0.36086627707 0.089212365466 
0.92871025643 0.35200212617 0.10612168607 0.91563368758 0.30748792921 -0.25654134666 0.94948331654 0.25266913018 -0.17659105594 
0.89380508309 0.34475076054 -0.28330040422 0.84578990303 0.46385596506 -0.25867714418 0.86936008034 0.407211366 -0.27760198026 
0.87431523318 0.44167577257 -0.19977771413 0.93928375068 0.31603827444 -0.1216202479 0.9445204355 0.29191019637 -0.14772157809 
0.94801688674 0.27569139947 -0.15826828459 0.94950966643 0.26987090805 -0.15767000833 0.94811539652 0.27870396334 -0.14673337183 
0.95037661544 0.27688517451 -0.13466932859 0.95474548993 0.26766156488 -0.11636633218 0.98719105049 0.11701839326 -0.083597232355 
0.99079851572 0.10535134259 -0.067700625754 0.98441241355 0.16303033592 -0.060982776658 0.98717109228 0.1506110586 -0.043855739663 
0.99924366014 0.0069220722441 0.0047529516374 0.99887400188 0.035638433233 -0.020032127637 0.99940334168 -0.0048242544906 0.01958909549 
0.99963235804 0.017933128564 0.01090336852 0.99699786028 0.056917308803 -0.00059476089014 0.99548572428 0.078241059398 0.019855002722 
0.99207283417 0.09717227417 0.063022260082 0.98261319407 0.14637086134 0.10088945003 0.97019086642 0.21201757627 0.10664169224 
0.95354581434 0.28090010151 0.098548312604 0.94258951251 0.31879866338 0.073948053816 0.93455484652 0.35063514225 -0.011221041752 
0.92323494345 0.35463666922 -0.13859362505 0.91778895539 0.36954371302 -0.13901451549 0.92680799969 0.34208095518 -0.15066601154 
0.92821805759 0.3232931799 -0.18233080369 0.92974368854 0.30592318509 -0.20325855733 0.93229291257 0.28558441498 -0.2208218001 
0.93494443969 0.29189661301 -0.19952460677 0.93588020126 0.30999587652 -0.16667437563 0.92289280922 0.36052774832 -0.13456888958 
0.92334913913 0.35668307119 -0.1417130697 0.9328250772 0.32774810407 -0.14286961375 0.94036723025 0.30084590893 -0.15475966614 
0.90661809042 0.38366830349 -0.16549922239 0.84728922288 0.47585950816 -0.19653547649 0.74912451361 0.6018971168 -0.24902874913 
0.78391685323 0.56041843462 -0.26105104551 0.91902588977 0.36965283864 -0.12686278557 0.91741890065 0.36793503695 -0.14979844948 
0.93911076504 0.3071972778 -0.14229410048 0.89571390063 0.40810697641 -0.17058600992 0.92645105032 0.34991898905 -0.13450823771 
0.93599765365 0.32282964638 -0.13584986624 0.86510892229 0.38859031588 -0.31426497609 0.86754563683 0.36436900555 -0.33554269572 
0.89707423624 0.30705533008 -0.30727046093 0.93630379234 0.23723332624 -0.2575833636 0.9409142201 0.24703179146 -0.22723250991 
0.93445120253 0.27199703158 -0.22301304328 0.92088279444 0.30065372507 -0.24108558677 0.92263684323 0.3071694548 -0.23095928315 
0.93763594622 0.29895300833 -0.16681489985 0.94999968656 0.29287642659 -0.10430613821 0.9500687666 0.30216787615 -0.021703837374 
0.94791704621 0.31120369416 0.058319395558 0.94152577457 0.32839905771 0.070740276252 0.93510299214 0.34446637224 0.07971837247 
0.9322848106 0.35238895358 0.066938050599 0.93395168655 0.35065058288 0.056528191371 0.94048554375 0.33825956282 -0.011526397181 
0.93502981745 0.35314807957 0.010965243187 0.91810675444 0.39461473755 0.017298390628 0.94195098397 0.31859707442 0.099738411891 
0.93590749876 0.34555272189 0.049060428597 0.94560473743 0.29988258445 0.12384914912 0.95156254057 0.28878673499 0.097946663223 
0.95279079771 0.29222371255 0.0045285942831 0.95622319524 0.26651399337 -0.10629889554 0.94548409167 0.29402124914 -0.13419545518 
0.95310399122 0.2545047398 -0.12082731001 0.99539150673 0.073542462379 -0.037223488235 0.99680699984 0.054137560627 -0.026991683626 
0.99285243276 0.10559908885 -0.03917106067 0.99343801535 0.10307792295 0.0038071020825 0.99125757395 0.11382790489 0.049044092752 
0.98231506809 0.14921004632 0.096799133772 0.96885460822 0.21477810223 0.099980206879 0.94292839894 0.3229123128 -0.025273822035 
0.92664232525 0.35219594061 -0.12605526457 0.9378884843 0.3139784128 -0.14446574195 0.94071258174 0.31609999759 -0.11740131979 
0.94448090557 0.31736618144 -0.080160014393 0.94536597739 0.31993720892 -0.023558648412 0.94600504523 0.32262427776 0.02805755473 
0.93986101559 0.3354612813 0.056871492683 0.93375016325 0.34843792793 0.081580866645 0.94638969044 0.3200471257 -0.035498229838 
0.93240582188 0.3577820318 0.027759838024 0.93761849414 0.34599490096 0.010312932051 0.94055025692 0.33925304518 -0.010114707605 
0.93847159969 0.34429435052 -0.022221527176 0.93568614682 0.35103807778 -0.015875398099 0.93399164867 0.35549063372 0.015369406602 
0.92237608678 0.38289925579 -0.03153684194 0.91871174085 0.38996210158 -0.04216873313 0.91916164318 0.38610281274 -0.05735857593 
0.91879689216 0.38427083993 -0.073405155289 0.91806956726 0.38345706814 -0.077119540245 0.92606530497 0.36348105032 -0.088539744473 
0.92048312254 0.38197727913 -0.073762202239 0.8922961022 0.45095649207 0.010612333312 0.8893925256 0.45299114027 0.046241839488 
0.88593285752 0.45572927679 0.084861815474 0.89899332875 0.42544978402 0.060440317437 0.86932496664 0.49189590634 -0.02329160653 
0.87415310695 0.48232411962 -0.01035052889 0.89025393352 0.45500489606 -0.0083250248228 0.90350095838 0.42545656258 -0.012804906392 
0.93981832635 0.34052817509 -0.016140023965 0.93897710343 0.34003722854 -0.036282398508 0.93884120535 0.33377747486 -0.077315357345 
0.93861391936 0.33475008554 -0.07469534652 0.93855400395 0.34050453084 -0.044332784587 0.94129689198 0.33081846891 0.00041365555076 
0.94637656849 0.31166332981 0.051604427198 0.94597217493 0.3187311595 -0.047342342357 0.97019547097 0.22828124707 -0.079872803244 
0.96700788324 0.23797871577 -0.067879509325 0.96434608538 0.24732789926 -0.059068961761 0.96333012978 0.2537177515 -0.064779867084 
0.99614670604 0.075950465557 -0.035354078293 0.98455114425 0.15106995452 -0.057725790665 0.97265001949 0.2140834123 -0.062070348526 
0.97083201949 0.21303759789 -0.099041935153 0.97015892369 0.2063753181 -0.12613125842 0.97511794647 0.19392047016 -0.10458766391 
0.97945626899 0.18065196154 -0.089300352918 0.9948955858 0.086866492211 -0.048550646366 0.96506051626 0.24955825294 -0.074927109994 
0.91734188147 0.35246573996 -0.18362829095 0.91909303862 0.3423078842 -0.19498030024 0.9241452981 0.33285029177 -0.18726031221 
0.92930452763 0.31827020822 -0.1866689673 0.9337909503 0.3023244872 -0.19099582135 0.93828425382 0.28023386317 -0.20080667757 
0.94321337738 0.25367966568 -0.21356606763 0.94249161534 0.27102805407 -0.1919878933 0.94230445187 0.2923346539 -0.16086523401 
0.94752007822 0.28116592314 -0.14919288196 0.94235013411 0.30659957205 -0.1321117534 0.95427800822 0.24803788653 -0.16428680023 
0.93351862851 0.33653854633 -0.12211772368 0.93108615036 0.34069592086 -0.12934421431 0.93045101156 0.33956271128 -0.13759532777 
0.93549504639 0.32468748092 -0.1372251474 0.9351767049 0.32027953882 -0.14257482693 0.89656352353 0.40646956845 -0.16150085886 
0.87216986359 0.45277821965 -0.18026979593 0.84829439323 0.48686332868 -0.20218223827 0.85188355931 0.47261467984 -0.21632816583 
0.88109221396 0.43687749536 -0.172411122 0.90747581638 0.38602994442 -0.15592953482 0.93924742 0.30708272849 -0.14288791337 
0.95799375409 0.24826182827 -0.14056536552 0.95578139281 0.25677853308 -0.13625545628 0.95312425749 0.26824478223 -0.13423849125 
0.95433228977 0.2531644181 -0.14667713238 0.9577302298 0.23374659562 -0.15751519453 0.95184201827 0.25342238056 -0.17157104763 
0.95437208777 0.23717796301 -0.18068418642 0.94895287359 0.25441203484 -0.18314588041 0.94654634137 0.2278527725 -0.22610318353 
0.93822274686 0.26586686328 -0.21398557519 0.93406820659 0.29790165228 -0.19528321336 0.92422923971 0.32688477261 -0.19553726889 
0.91901673549 0.34528781561 -0.18949515664 0.98834770551 0.14885569232 0.020527976922 0.93923996102 0.27436774893 -0.20495104173 
0.94302314974 0.26339555894 -0.20303510565 0.94570307839 0.26109180401 -0.19332830082 0.94765086437 0.26044565265 -0.183370505 
0.94807882718 0.26623063643 -0.17069694999 0.9378414383 0.32314449739 -0.12355647899 0.93990829677 0.31749982832 -0.12434354305 
0.94232957453 0.30728904562 -0.13001740797 0.94673122378 0.29133694247 -0.13570773005 0.908959936 0.41209178276 -0.049552065983 
0.90073447483 0.43242776029 -0.033000558716 0.91135062373 0.41091292226 -0.016599151328 0.90308630871 0.42933160463 -0.0086760943205 
0.91778559468 0.39613297193 -0.021401786067 0.94193570886 0.327797273 -0.069935031137 0.93953145598 0.33195209029 -0.08276950612 
0.94147286821 0.33134163053 -0.050929744168 0.9429712893 0.33240008585 -0.016960087066 0.9462552168 0.3213323389 -0.032668601508 
0.95611188008 0.24345405711 -0.15888262739 0.94862361936 0.2826720197 -0.13908352366 0.94420733979 0.30133475153 -0.12991086646 
0.99159870244 0.11162603749 -0.05261096958 0.99326859856 0.10073120978 -0.050339043993 0.98384030876 0.14313837688 -0.08284124108 
0.98820998535 0.13102185303 -0.058596527647 0.99128185133 0.12442950197 -0.02027816888 0.9918949236 0.1213952424 0.0054919400817 
0.8898862943 0.4556521273 -0.0058881839608 0.89003862387 0.36107304532 -0.27536268865 0.97958463418 0.1822830156 -0.05504455649 

Motion 1 1116 double
0 0 0 0 0 0 0 0 0 
0 0 0 0 0 0 0 0 0 
0 0 0 0 0 0 0 0 0 
0 0 0 0 0 0 0 0 0 
0 0 0 0 0 0 0 0 0 
0 0 0 0 0 0 0 0 0 
0 0 0 0 0 0 0 0 0 
0 0 0 0 0 0 0 0 0 
0 0 0 0 0 0 0 0 0 
0 0 0 0 0 0 0 0 0 
0 0 0 0 0 0 0 0 0 
0 0 0 0 0 0 0 0 0 
0 0 0 0 0 0 0 0 0 
0 0 0 0 0 0 0 0 0 
0 0 0 0 0 0 0 0 0 
0 0 0 0 0 0 0 0 0 
0 0 0 0 0 0 0 0 0 
0 0 0 0 0 0 0 0 0 
0 0 0 0 0 0 0 0 0 
0 0 0 0 0 0 0 0 0 
0 0 0 0 0 0 0 0 0 
0 0 0 0 0 0 0 0 0 
0 0 0 0 0 0 0 0 0 
0 0 0 0 0 0 0 0 0 
0 0 0 0 0 0 0 0 0 
0 0 0 0 0 0 0 0 0 
0 0 0 0 0 0 0 0 0 
0 0 0 0 0 0 0 0 0 
0 0 0 0 0 0 0 0 0 
0 0 0 0 0 0 0 0 0 
0 0 0 0 0 0 0 0 0 
0 0 0 0 0 0 0 0 0 
0 0 0 0 0 0 0 0 0 
0 0 0 0 0 0 0 0 0 
0 0 0 0 0 0 0 0 0 
0 0 0 0 0 0 0 0 0 
0 0 0 0 0 0 0 0 0 
0 0 0 0 0 0 0 0 0 
0 0 0 0 0 0 0 0 0 
0 0 0 0 0 0 0 0 0 
0 0 0 0 0 0 0 0 0 
0 0 0 0 0 0 0 0 0 
0 0 0 0 0 0 0 0 0 
0 0 0 0 0 0 0 0 0 
0 0 0 0 0 0 0 0 0 
0 0 0 0 0 0 0 0 0 
0 0 0 0 0 0 0 0 0 
0 0 0 0 0 0 0 0 0 
0 0 0 0 0 0 0 0 0 
0 0 0 0 0 0 0 0 0 
0 0 0 0 0 0 0 0 0 
0 0 0 0 0 0 0 0 0 
0 0 0 0 0 0 0 0 0 
0 0 0 0 0 0 0 0 0 
0 0 0 0 0 0 0 0 0 
0 0 0 0 0 0 0 0 0 
0 0 0 0 0 0 0 0 0 
0 0 0 0 0 0 0 0 0 
0 0 0 0 0 0 0 0 0 
0 0 0 0 0 0 0 0 0 
0 0 0 0 0 0 0 0 0 
0 0 0 0 0 0 0 0 0 
0 0 0 0 0 0 0 0 0 
0 0 0 0 0 0 0 0 0 
0 0 0 0 0 0 0 0 0 
0 0 0 0 0 0 0 0 0 
0 0 0 0 0 0 0 0 0 
0 0 0 0 0 0 0 0 0 
0 0 0 0 0 0 0 0 0 
0 0 0 0 0 0 0 0 0 
0 0 0 0 0 0 0 0 0 
0 0 0 0 0 0 0 0 0 
0 0 0 0 0 0 0 0 0 
0 0 0 0 0 0 0 0 0 
0 0 0 0 0 0 0 0 0 
0 0 0 0 0 0 0 0 0 
0 0 0 0 0 0 0 0 0 
0 0 0 0 0 0 0 0 0 
0 0 0 0 0 0 0 0 0 
0 0 0 0 0 0 0 0 0 
0 0 0 0 0 0 0 0 0 
0 0 0 0 0 0 0 0 0 
0 0 0 0 0 0 0 0 0 
0 0 0 0 0 0 0 0 0 
0 0 0 0 0 0 0 0 0 
0 0 0 0 0 0 0 0 0 
0 0 0 0 0 0 0 0 0 
0 0 0 0 0 0 0 0 0 
0 0 0 0 0 0 0 0 0 
0 0 0 0 0 0 0 0 0 
0 0 0 0 0 0 0 0 0 
0 0 0 0 0 0 0 0 0 
0 0 0 0 0 0 0 0 0 
0 0 0 0 0 0 0 0 0 
0 0 0 0 0 0 0 0 0 
0 0 0 0 0 0 0 0 0 
0 0 0 0 0 0 0 0 0 
0 0 0 0 0 0 0 0 0 
0 0 0 0 0 0 0 0 0 
0 0 0 0 0 0 0 0 0 
0 0 0 0 0 0 0 0 0 
0 0 0 0 0 0 0 0 0 
0 0 0 0 0 0 0 0 0 
0 0 0 0 0 0 0 0 0 
0 0 0 0 0 0 0 0 0 
0 0 0 0 0 0 0 0 0 
0 0 0 0 0 0 0 0 0 
0 0 0 0 0 0 0 0 0 
0 0 0 0 0 0 0 0 0 
0 0 0 0 0 0 0 0 0 
0 0 0 0 0 0 0 0 0 
0 0 0 0 0 0 0 0 0 
0 0 0 0 0 0 0 0 0 
0 0 0 0 0 0 0 0 0 
0 0 0 0 0 0 0 0 0 
0 0 0 0 0 0 0 0 0 
0 0 0 0 0 0 0 0 0 
0 0 0 0 0 0 0 0 0 
0 0 0 0 0 0 0 0 0 
0 0 0 0 0 0 0 0 0 
0 0 0 0 0 0 0 0 0 
0 0 0 0 0 0 0 0 0 
0 0 0 0 0 0 0 0 0 
0 0 0 0 0 0 0 0 0 

Normal 3 1116 float
-0.236738 0.965547 -0.0195108 -0.225269 0.941055 0.182692 -0.237366 0.945011 0.185936 
-0.226348 0.97152 0.0243656 -0.226018 0.902222 0.364897 -0.283131 0.897578 0.324402 
-0.230717 0.861712 0.446681 -0.31984 0.838879 0.433219 -0.218116 0.825316 0.518008 
-0.319552 0.792914 0.514018 -0.188705 0.792915 0.579176 -0.311764 0.747629 0.584526 
-0.208311 0.736834 0.640222 -0.299898 0.704702 0.641012 -0.201905 0.67159 0.708593 
-0.266182 0.639767 0.714723 -0.164808 0.596817 0.785177 -0.203917 0.53528 0.813755 
-0.0410419 0.418163 0.892757 -0.083638 0.351998 0.926021 0.0372721 0.282518 0.955209 
-0.0423275 0.231872 0.969348 0.0768768 0.187682 0.979188 -0.0390133 0.174531 0.982341 
0.0990012 0.174084 0.979594 -0.074597 0.159634 0.982228 0.0886876 0.137419 0.985437 
-0.0963512 0.100535 0.98741 0.0617117 0.0907008 0.993738 -0.125743 0.0333797 0.991281 
0.113951 0.126091 0.983919 -0.0967504 -0.0113009 0.994079 0.161146 0.110262 0.976261 
-0.0426417 -0.0723868 0.993161 0.196827 -0.0224781 0.973538 0.0502707 -0.152353 0.981248 
0.242852 -0.171608 0.943647 0.149544 -0.251747 0.947326 0.300371 -0.338951 0.883569 
0.255879 -0.376789 0.882308 0.331834 -0.455578 0.819989 0.306215 -0.472843 0.822048 
0.352674 -0.551955 0.755396 0.322156 -0.553332 0.766655 0.349701 -0.616592 0.701701 
0.300186 -0.630643 0.710263 0.346634 -0.686692 0.633212 0.303837 -0.704389 0.632715 
0.343337 -0.769958 0.529069 0.29529 -0.788035 0.533749 0.341504 -0.845451 0.38567 
0.258333 -0.868776 0.397281 0.340253 -0.914968 0.214808 0.215821 -0.945581 0.22222 
0.308611 -0.938869 0.00874143 0.178892 -0.976663 0.00637733 0.248553 -0.953558 -0.143314 
0.186779 -0.963358 -0.165155 0.157725 -0.958272 -0.236881 0.202739 -0.93721 -0.282233 
0.162009 -0.943857 -0.285773 0.218998 -0.917436 -0.32958 0.185858 -0.911833 -0.357285 
0.217471 -0.897413 -0.381123 0.223126 -0.862592 -0.452971 0.192187 -0.875996 -0.441408 
0.168564 -0.798775 -0.568686 0.125103 -0.829916 -0.536094 0.0988598 -0.732557 -0.666443 
0.048561 -0.771793 -0.627821 0.0151774 -0.664265 -0.747299 -0.036807 -0.702576 -0.708884 
-0.0608404 -0.624263 -0.775896 -0.0803253 -0.647926 -0.755244 -0.12911 -0.57675 -0.804339 
-0.12122 -0.597551 -0.791031 -0.187687 -0.519839 -0.832587 -0.178341 -0.545454 -0.817727 
-0.24403 -0.445808 -0.858024 -0.24245 -0.481568 -0.83911 -0.297466 -0.363369 -0.880357 
-0.312159 -0.412832 -0.85327 -0.346022 -0.269659 -0.89759 -0.406799 -0.335074 -0.848484 
-0.382974 -0.228952 -0.894274 -0.489332 -0.288933 -0.8197 -0.405523 -0.168381 -0.896133 
-0.564367 -0.230556 -0.789506 -0.411556 -0.0725945 -0.908381 -0.626229 -0.126685 -0.768736 
-0.434492 0.11262 -0.885232 -0.6732 0.0334937 -0.729652 -0.448377 0.295784 -0.832502 
-0.706797 0.197997 -0.664334 -0.446802 0.468329 -0.758544 -0.721144 0.34773 -0.585831 
-0.401736 0.600037 -0.68416 -0.723063 0.445518 -0.516492 -0.356113 0.685696 -0.631117 
-0.706047 0.514477 -0.475641 -0.310174 0.745349 -0.590125 -0.690878 0.565359 -0.448573 
-0.345074 0.759469 -0.549748 -0.634144 0.630762 -0.439723 -0.391712 0.770476 -0.499013 
-0.583702 0.693211 -0.417706 -0.457999 0.776272 -0.43094 -0.510175 0.777912 -0.364775 
-0.400721 0.835882 -0.363079 -0.420174 0.857044 -0.287041 -0.319749 0.903034 -0.243162 
-0.325689 0.921061 -0.156819 0.43815 -0.890494 0.118401 0.465399 -0.842762 0.248082 
0.436703 -0.848115 0.285649 0.492706 -0.85488 0.147615 0.484967 -0.781922 0.378144 
0.38586 -0.815995 0.419669 0.489992 -0.70693 0.504237 0.373491 -0.749005 0.54104 
0.430198 -0.664283 0.601871 0.356949 -0.684568 0.629767 0.356384 -0.629146 0.690205 
0.339876 -0.62301 0.703973 0.307209 -0.589229 0.743433 0.306374 -0.576653 0.75458 
0.268868 -0.532369 0.798476 0.270485 -0.526494 0.80433 0.270779 -0.412549 0.860258 
0.219497 -0.448587 0.860866 0.272546 -0.29598 0.912586 0.18514 -0.355813 0.914928 
0.27389 -0.188963 0.937127 0.214321 -0.245769 0.940208 0.278258 -0.0978642 0.954969 
0.24081 -0.155826 0.957076 0.290895 -0.0503048 0.954487 0.320185 -0.0864904 0.939514 
0.297036 0.00204497 0.953844 0.372727 -0.0146327 0.925827 0.293922 0.0612183 0.952971 
0.388875 0.0606127 0.916786 0.283735 0.18839 0.929981 0.387826 0.181639 0.894863 
0.269831 0.351293 0.895369 0.377535 0.339176 0.859503 0.230045 0.526427 0.800134 
0.315191 0.521694 0.771748 0.17772 0.680454 0.704851 0.240986 0.690296 0.67681 
0.0934577 0.773226 0.617577 0.169152 0.785715 0.585619 0.0502328 0.850191 0.51334 
0.117581 0.857421 0.491056 0.0352146 0.916289 0.397443 0.0795432 0.91749 0.386006 
-0.0116709 0.942109 0.328277 0.00456957 0.951075 0.297776 -0.0481467 0.966698 0.230548 
-0.0619583 0.969435 0.230228 -0.0638101 0.992249 0.0788773 -0.0827545 0.986549 0.124647 
-0.076136 0.996314 0.0143823 -0.0643807 0.995504 0.0267795 -0.10929 0.992635 -0.0231536 
-0.0352084 0.997248 -0.0486501 -0.183432 0.981874 -0.0404738 -0.0555625 0.995453 -0.0587015 
-0.148943 0.979975 -0.114958 -0.0965378 0.984978 -0.129312 -0.150671 0.954417 -0.227814 
-0.13209 0.954356 -0.243417 -0.210594 0.897746 -0.38319 -0.164571 0.905268 -0.387436 
-0.182188 0.812177 -0.538387 -0.142859 0.840457 -0.512695 -0.114288 0.757878 -0.63769 
-0.111405 0.790469 -0.601094 -0.00352965 0.746233 -0.665325 -0.0591111 0.785164 -0.616157 
0.0205989 0.806714 -0.586432 -0.0170449 0.826227 -0.560217 0.000286999 0.833775 -0.550574 
-0.00516442 0.831211 -0.554104 -0.0552556 0.831457 -0.552835 -0.0182293 0.805459 -0.590326 
-0.0943807 0.686451 -0.70188 -0.0732906 0.659496 -0.727116 -0.12774 0.502792 -0.836724 
-0.129859 0.473213 -0.85915 -0.15214 0.259066 -0.949497 -0.14429 0.248099 -0.951032 
-0.123118 0.129182 -0.979952 -0.150596 0.106538 -0.979112 -0.118075 0.0330422 -0.991176 
-0.153737 0.0172672 -0.987138 -0.144185 -0.0377553 -0.988464 -0.157196 -0.0338231 -0.986679 
-0.10497 -0.180357 -0.972708 -0.147921 -0.142633 -0.975857 -0.058185 -0.342673 -0.926563 
-0.119871 -0.317011 -0.934037 -0.00376333 -0.518675 -0.853627 -0.0880543 -0.490361 -0.864661 
0.0760423 -0.641222 -0.75331 -0.0252362 -0.606411 -0.78846 0.157023 -0.70278 -0.690765 
0.0685428 -0.701781 -0.70799 0.239056 -0.709818 -0.661987 0.127318 -0.740036 -0.659478 
0.288407 -0.744137 -0.598177 0.16283 -0.777943 -0.603164 0.326981 -0.782863 -0.525391 
0.201462 -0.81405 -0.543248 0.344715 -0.827622 -0.436648 0.275021 -0.833131 -0.473007 
0.349355 -0.858277 -0.373844 0.360261 -0.833628 -0.416328 0.344394 -0.878593 -0.330061 
0.453385 -0.805377 -0.377325 0.384562 -0.884042 -0.252428 0.523617 -0.789737 -0.303747 
0.426839 -0.887683 -0.167273 0.556617 -0.792369 -0.230354 0.433585 -0.895656 -0.0694449 
0.591009 -0.794838 -0.0665904 0.437182 -0.896183 0.0256278 0.559409 -0.821097 0.0712021 
-0.310366 0.903082 0.278939 -0.249104 0.951095 0.152148 -0.347894 0.846756 0.395696 
-0.38721 0.764312 0.512833 -0.374501 0.703418 0.602019 -0.343581 0.655943 0.670447 
-0.280597 0.565267 0.764726 -0.210383 0.427095 0.876121 -0.204183 0.289354 0.929729 
-0.252577 0.191543 0.944113 -0.321032 0.121025 0.93846 -0.291026 0.0707179 0.952653 
-0.247983 0.0198865 0.966315 -0.206115 -0.0314961 0.975793 -0.13193 -0.0919265 0.983351 
-0.0597283 -0.164899 0.982159 0.0525416 -0.253564 0.958464 0.136852 -0.3586 0.920486 
0.159308 -0.453823 0.871584 0.1399 -0.526903 0.832146 0.0809554 -0.585323 0.802186 
-0.0198575 -0.660105 0.747529 0.058952 -0.739966 0.661324 0.0912171 -0.823138 0.554157 
0.100037 -0.902064 0.401838 0.0822941 -0.967559 0.197768 0.0755787 -0.988952 -0.0296443 
0.0724947 -0.974547 -0.190701 0.0920798 -0.948308 -0.293504 0.125723 -0.931552 -0.335906 
0.147199 -0.912668 -0.378698 0.12264 -0.886663 -0.443295 0.0851186 -0.841213 -0.527448 
0.0112504 -0.783361 -0.618403 -0.0625831 -0.725667 -0.681771 -0.139744 -0.660705 -0.735902 
-0.174974 -0.613798 -0.769189 -0.229863 -0.571425 -0.785965 -0.287393 -0.51723 -0.805248 
-0.37718 -0.447673 -0.809416 -0.460908 -0.399017 -0.790424 -0.530473 -0.347482 -0.772174 
-0.592234 -0.278427 -0.752762 -0.656311 -0.167733 -0.732974 -0.733317 0.0477666 -0.672031 
-0.77256 0.214371 -0.587203 -0.789611 0.35418 -0.497835 -0.772697 0.446522 -0.445417 
-0.74994 0.519178 -0.406284 -0.720513 0.579135 -0.379177 -0.685111 0.6423 -0.337093 
-0.603101 0.732834 -0.303513 -0.502189 0.821893 -0.252385 -0.371291 0.901547 -0.198187 
-0.25122 0.961101 -0.0756893 -0.224177 0.972384 0.0578536 0.477813 -0.789682 0.379315 
0.525866 -0.797462 0.285924 0.452005 -0.751344 0.477695 0.424321 -0.669102 0.602163 
0.375928 -0.599372 0.705697 0.332281 -0.545737 0.766714 0.27718 -0.486024 0.827399 
0.249037 -0.431476 0.864678 0.241616 -0.374808 0.892924 0.241849 -0.309273 0.917159 
0.272887 -0.246583 0.926152 0.374219 -0.176752 0.90657 0.461929 -0.0999439 0.873999 
0.534281 -0.00350067 0.841936 0.560759 0.130426 0.809188 0.551354 0.2851 0.779332 
0.483587 0.481645 0.718607 0.353989 0.685991 0.62504 0.242007 0.799209 0.544762 
0.16316 0.867003 0.465771 0.0911243 0.928847 0.353804 0.0446463 0.961968 0.261171 
-0.00752019 0.980419 0.191279 -0.0551266 0.987837 0.142615 -0.0395638 0.995696 0.0570814 
-0.00963021 0.998668 -0.00912413 0.0221254 0.996165 -0.0834749 -0.00701133 0.987448 -0.149585 
-0.0508299 0.961788 -0.25989 -0.0756096 0.919611 -0.379576 -0.0780914 0.860985 -0.497134 
-0.0664771 0.81838 -0.569207 -0.0346072 0.811781 -0.579913 0.031792 0.845757 -0.53066 
0.0767319 0.846147 -0.525776 0.0979506 0.812023 -0.572132 0.067179 0.688362 -0.711771 
0.0164736 0.487689 -0.856993 -0.0460625 0.259335 -0.960751 -0.0773397 0.0853868 -0.991639 
-0.0713075 0.00811663 -0.996414 -0.0892426 -0.0613977 -0.993593 -0.0861667 -0.209758 -0.966036 
-0.070729 -0.363883 -0.923771 -0.0401776 -0.491792 -0.866341 0.00030111 -0.593164 -0.800654 
0.046798 -0.673062 -0.7359 0.096374 -0.724811 -0.68068 0.137387 -0.761596 -0.63197 
0.190822 -0.79147 -0.579331 0.266305 -0.803443 -0.526981 0.348063 -0.799457 -0.486218 
0.422207 -0.779272 -0.458531 0.502248 -0.757563 -0.404513 0.582181 -0.739978 -0.33464 
0.626877 -0.760794 -0.109734 0.611781 -0.779274 0.0796527 0.575185 -0.792542 0.193149 
-0.378625 0.84584 0.369898 -0.29746 0.911356 0.246008 -0.383815 0.7801 0.482271 
-0.372013 0.716247 0.586703 -0.353143 0.657425 0.6637 -0.308556 0.590795 0.740677 
-0.292198 0.498549 0.81125 -0.304612 0.369938 0.873798 -0.38423 0.259101 0.880851 
-0.423188 0.155969 0.890553 -0.419525 0.054263 0.90389 -0.361653 -0.0353162 0.92894 
-0.267938 -0.110657 0.954193 -0.159211 -0.175086 0.9687 -0.0214017 -0.225061 0.972246 
0.0306811 -0.300954 0.950652 0.050112 -0.378549 0.922689 -0.00765314 -0.465024 0.880496 
-0.0674191 -0.535451 0.839953 -0.0827308 -0.574384 0.812624 -0.0770163 -0.598069 0.794437 
-0.0250102 -0.869829 0.489294 -0.07613 -0.790672 0.600322 0.00105801 -0.938179 0.30199 
0.0157967 -0.98758 0.100428 -0.00836604 -0.98787 -0.0951279 -0.0204322 -0.973843 -0.214113 
-0.0255404 -0.954481 -0.296496 0.00662085 -0.940867 -0.335118 0.037645 -0.922309 -0.382 
0.0618337 -0.896479 -0.436673 0.0498036 -0.858005 -0.508647 0.00159881 -0.813936 -0.57793 
-0.0900585 -0.748618 -0.651708 -0.164919 -0.689965 -0.701881 -0.226142 -0.638261 -0.735376 
-0.258075 -0.594576 -0.760317 -0.296951 -0.541732 -0.785366 -0.338791 -0.502748 -0.7949 
-0.41276 -0.454667 -0.786901 -0.485161 -0.399776 -0.774713 -0.543887 -0.308895 -0.777802 
-0.53851 -0.249434 -0.799078 -0.767638 0.238884 -0.584418 -0.746702 0.10181 -0.651081 
-0.767717 0.392434 -0.502717 -0.732185 0.509605 -0.443012 -0.694713 0.595782 -0.399018 
-0.667524 0.647723 -0.3644 -0.632652 0.709986 -0.295521 -0.585733 0.784523 -0.198548 
-0.485686 0.86164 -0.119162 -0.358399 0.926427 -0.0423253 -0.244053 0.968289 0.0244782 
-0.194162 0.977758 0.0663133 -0.220284 0.96676 0.127073 -0.0979416 -0.697983 0.708178 
-0.0279271 -0.675393 0.73134 -0.661574 -0.060631 -0.739763 -0.532494 -0.144045 -0.828986 
0.485804 -0.715509 0.495038 0.481893 -0.777969 0.40028 0.485576 -0.624099 0.603694 
0.463913 -0.549285 0.692183 0.440728 -0.495301 0.744154 0.413267 -0.443991 0.793793 
0.367845 -0.404846 0.834046 0.34449 -0.358058 0.866361 0.365637 -0.32592 0.867932 
0.436918 -0.259603 0.859989 0.494199 -0.223661 0.837121 0.554526 -0.16005 0.813084 
0.58983 -0.057512 0.802875 0.598475 0.0878173 0.785143 0.558611 0.262447 0.780828 
0.454053 0.454691 0.741479 0.221894 0.722968 0.641545 0.189193 0.82576 0.528998 
0.14764 0.874495 0.45558 0.1005 0.9181 0.374522 0.0386874 0.960881 0.254618 
-0.0148959 0.983806 0.173474 -0.0532176 0.990112 0.127269 -0.0697431 0.992342 0.100206 
-0.0753267 0.994652 0.0528926 -0.0760276 0.996275 -0.0215308 -0.0252237 0.990756 -0.129097 
-0.0355843 0.962359 -0.254209 -0.0486559 0.924809 -0.370563 -0.0632149 0.87789 -0.472999 
-0.0401959 0.845516 -0.531253 0.00695761 0.852541 -0.521291 0.0567031 0.872036 -0.484111 
0.0928781 0.847629 -0.5181 0.0843195 0.776338 -0.620848 0.0559828 0.599602 -0.779734 
0.0145739 0.385751 -0.914596 -0.0206876 0.199894 -0.974368 -0.0121992 0.109819 -0.992411 
0.00608497 0.042555 -0.998176 0.0157661 -0.0456662 -0.997851 0.00450304 -0.167763 -0.982883 
0.00262063 -0.304369 -0.94743 0.0204173 -0.44951 -0.891278 0.0437195 -0.543328 -0.833887 
0.067286 -0.629401 -0.772757 0.105719 -0.69634 -0.708034 0.13811 -0.73723 -0.65973 
0.161216 -0.769007 -0.618536 0.21548 -0.776586 -0.589958 0.27451 -0.778872 -0.561114 
0.352249 -0.770084 -0.528309 0.441901 -0.772884 -0.444787 0.533906 -0.788504 -0.287393 
0.582125 -0.799417 -0.0394066 0.557558 -0.810416 0.159448 0.500881 -0.817771 0.277467 
0.484409 -0.803627 0.34269 -0.609803 0.0236563 -0.778311 -0.489103 -0.0318953 -0.864833 
-0.689536 0.0856937 -0.712839 -0.736247 0.229259 -0.615902 -0.744474 0.405556 -0.51403 
-0.675891 0.579086 -0.451281 -0.635123 0.652179 -0.407882 -0.597485 0.703734 -0.380705 
-0.576017 0.749087 -0.319019 -0.577024 0.787144 -0.213141 -0.555837 0.824106 -0.0584853 
-0.499019 0.860353 0.0731438 -0.381015 0.906187 0.168181 -0.260987 0.955248 0.112276 
-0.206086 0.972672 0.0956882 -0.222509 0.96133 0.153497 -0.280015 0.904981 0.285894 
-0.330132 0.826567 0.447732 -0.343505 0.743912 0.567423 -0.336262 0.671264 0.657546 
-0.352954 0.592888 0.721132 -0.377456 0.48619 0.786045 -0.434371 0.384734 0.810733 
-0.468975 0.269062 0.839803 -0.462439 0.155505 0.869505 -0.43586 0.0357327 0.896001 
-0.383086 -0.0813565 0.914327 -0.317401 -0.180869 0.927635 -0.224766 -0.242937 0.936072 
-0.0931943 -0.302805 0.948205 -0.0187881 -0.323553 0.944166 0.0305642 -0.339879 0.939642 
0.00587915 -0.396951 0.916691 -0.0204402 -0.458768 0.886157 -0.0431888 -0.524906 0.846495 
-0.019468 -0.56981 0.820147 0.0435567 -0.602026 0.792757 0.0588358 -0.701608 0.707365 
0.142648 -0.66899 0.722831 -0.0220686 -0.773011 0.626996 -0.0615357 -0.829751 0.542363 
-0.0569316 -0.885202 0.448836 -0.0166737 -0.951748 0.274986 0.00984025 -0.991247 0.0764778 
-0.00162274 -0.993103 -0.0813872 -0.0156162 -0.97606 -0.20134 -0.0297146 -0.956676 -0.288746 
-0.0425668 -0.941034 -0.332396 -0.03281 -0.920291 -0.387003 -0.00529068 -0.897216 -0.440311 
0.0151648 -0.867924 -0.493598 0.0211099 -0.834094 -0.550116 -0.00994528 -0.782832 -0.619555 
-0.0667954 -0.732759 -0.672983 -0.14254 -0.680404 -0.718316 -0.206796 -0.625502 -0.749436 
-0.258451 -0.576196 -0.774464 -0.292342 -0.535943 -0.791963 -0.330114 -0.500734 -0.7992 
-0.37394 -0.452862 -0.806617 -0.428787 -0.384741 -0.814549 -0.468919 -0.272979 -0.838246 
-0.427665 -0.207791 -0.872292 -0.37745 -0.0700311 -0.915929 -0.428052 0.068882 -0.888622 
-0.339807 0.117075 -0.927797 -0.516554 0.117741 -0.833249 0.511335 -0.595767 0.611893 
0.513144 -0.69699 0.492313 0.512244 -0.497038 0.699621 0.514028 -0.428299 0.739374 
0.51555 -0.359403 0.776314 0.522886 -0.310393 0.791878 0.512024 -0.288364 0.808741 
0.503965 -0.293833 0.811825 0.499076 -0.291347 0.814966 0.520143 -0.245542 0.816827 
0.510695 -0.198378 0.834444 0.475927 -0.0669954 0.865128 0.428967 0.0858313 0.891511 
0.334583 0.267572 0.885504 0.218825 0.429904 0.861236 0.0913393 0.548914 0.818425 
0.000493241 0.889013 0.446481 0.0246047 0.838125 0.537815 -0.0356328 0.936754 0.338423 
-0.0467916 0.970564 0.220602 -0.0580433 0.987557 0.14375 -0.0673724 0.990711 0.116891 
-0.0834068 0.992783 0.0782936 -0.0917951 0.99491 0.0354661 -0.0994227 0.994565 -0.0114234 
-0.0902254 0.984996 -0.131725 -0.090963 0.951741 -0.277554 -0.0865065 0.913949 -0.394731 
-0.0660101 0.872518 -0.481588 0.00953835 0.876858 -0.477655 0.0545118 0.886999 -0.458462 
0.0711078 0.882074 -0.465359 0.0911479 0.847075 -0.518619 0.0750703 0.742375 -0.656641 
0.0472441 0.551529 -0.818768 0.0111108 0.321644 -0.940432 0.00924944 0.182156 -0.980902 
0.024179 0.0895559 -0.994406 0.0492255 0.0344486 -0.996836 0.079477 -0.0493974 -0.993769 
0.0820617 -0.176274 -0.975569 0.0734275 -0.325196 -0.939881 0.0826667 -0.447668 -0.886575 
0.115605 -0.549925 -0.824782 0.143509 -0.635298 -0.758153 0.15808 -0.698126 -0.695735 
0.167317 -0.742058 -0.648525 0.177787 -0.764641 -0.619258 0.178064 -0.777536 -0.602525 
0.213919 -0.786057 -0.57857 0.257322 -0.795202 -0.545582 0.345823 -0.815866 -0.438331 
0.462221 -0.841168 -0.249016 0.516412 -0.835177 0.0153753 0.533756 -0.813276 0.226123 
0.520173 -0.800987 0.29421 0.493697 -0.797224 0.346277 0.508611 -0.769227 0.383185 
0.00880965 0.7378 0.659377 -0.0797681 0.684806 0.714737 -0.543935 0.214846 -0.802278 
-0.558043 0.379609 -0.717717 -0.559714 0.561348 -0.5996 -0.571178 0.645326 -0.494467 
-0.552866 0.710604 -0.434008 -0.531153 0.740301 -0.410897 -0.502946 0.781308 -0.36461 
-0.479121 0.823457 -0.30032 -0.475885 0.859421 -0.152723 -0.477391 0.870863 0.0216587 
-0.469844 0.851565 0.22858 -0.267874 0.956901 0.098876 -0.312705 0.939986 0.124378 
-0.277234 0.937384 0.207362 -0.291241 0.890015 0.324016 -0.307678 0.844254 0.427187 
-0.322063 0.78753 0.516704 -0.342659 0.715321 0.60257 -0.376739 0.636458 0.669077 
-0.405956 0.560986 0.720096 -0.465542 0.440426 0.764929 -0.476701 0.297184 0.820669 
-0.474028 0.157293 0.86255 -0.417592 0.0138156 0.901435 -0.349075 -0.120142 0.926328 
-0.234779 -0.234726 0.934847 -0.129185 -0.317566 0.936794 -0.0552609 -0.352149 0.931616 
-0.0130296 -0.363132 0.931296 -0.000106868 -0.364849 0.93105 0.00716632 -0.374898 0.926899 
0.000374553 -0.429646 0.900753 -0.000314272 -0.486176 0.871844 0.0228664 -0.507204 0.85959 
0.101476 -0.57758 0.808232 0.22001 -0.605214 0.757589 0.277374 -0.694467 0.654845 
0.38066 -0.655868 0.648908 0.153679 -0.772021 0.603385 0.0544677 -0.809197 0.575794 
-0.00279065 -0.843201 0.530143 0.0119571 -0.884276 0.445146 0.0336316 -0.945116 0.292915 
0.00404854 -0.985306 0.112209 -0.0316533 -0.996498 -0.0602997 -0.0400387 -0.973721 -0.20566 
-0.047767 -0.95167 -0.301248 -0.0390654 -0.925117 -0.373794 -0.0289729 -0.895094 -0.442874 
-0.00313773 -0.868252 -0.494095 0.0210046 -0.838219 -0.542878 0.0349522 -0.806598 -0.589962 
0.0248195 -0.77355 -0.631177 -0.0105103 -0.737927 -0.673593 -0.0791534 -0.690372 -0.716453 
-0.148512 -0.639996 -0.751509 -0.220367 -0.586568 -0.777502 -0.272617 -0.548724 -0.789314 
-0.315958 -0.502063 -0.803967 -0.364631 -0.433849 -0.822014 -0.407003 -0.366208 -0.831314 
-0.365818 -0.358028 -0.856829 -0.31527 -0.218906 -0.918383 -0.262652 -0.105164 -0.953335 
-0.22906 -0.00863091 -0.971277 -0.339873 0.224304 -0.904402 -0.238747 0.186231 -0.94528 
-0.414044 0.236999 -0.870861 -0.394192 0.886169 0.229311 -0.426309 0.857073 0.287527 
-0.101197 0.794292 0.590838 -0.175754 0.661485 0.719896 -0.0944866 0.850821 0.509858 
-0.113186 0.88929 0.434902 -0.12674 0.926596 0.345946 -0.126484 0.955109 0.25749 
-0.126126 0.973484 0.18208 -0.126858 0.983614 0.12333 -0.143167 0.98477 0.0944196 
-0.142258 0.987533 0.0538064 -0.13343 0.990537 0.00359715 -0.142508 0.983512 -0.0968512 
-0.147078 0.955436 -0.242048 -0.131758 0.919711 -0.365124 -0.0794576 0.897498 -0.432988 
-0.0347527 0.893113 -0.446658 -0.00424359 0.893445 -0.447264 0.0277819 0.897308 -0.439732 
0.0496571 0.837437 -0.53008 0.0546998 0.751803 -0.654311 0.0315471 0.543559 -0.817226 
0.0201677 0.351354 -0.930526 0.0392425 0.217297 -0.971487 0.0679238 0.13712 -0.987239 
0.0915919 0.0573157 -0.993501 0.117003 -0.0938207 -0.983725 0.127142 -0.232607 -0.959021 
0.120189 -0.381115 -0.916267 0.126199 -0.466158 -0.872497 0.144213 -0.54577 -0.824084 
0.165847 -0.625335 -0.76083 0.181229 -0.689658 -0.699501 0.172087 -0.746823 -0.641156 
0.163147 -0.773735 -0.611892 0.163814 -0.78842 -0.592663 0.176907 -0.799816 -0.573402 
0.183152 -0.814121 -0.550685 0.220641 -0.841815 -0.481655 0.280731 -0.879238 -0.377261 
0.392941 -0.885674 -0.091536 0.487777 -0.854544 0.144969 0.525114 -0.792172 0.307419 
0.55023 -0.771067 0.317376 0.576082 -0.742234 0.335515 0.547966 -0.703047 0.447627 
0.523156 -0.625797 0.568773 0.53146 -0.530993 0.65843 0.563467 -0.434653 0.698109 
0.591174 -0.333962 0.733736 0.565793 -0.289932 0.769321 0.542358 -0.253087 0.800645 
0.526561 -0.258108 0.809703 0.496654 -0.267337 0.823174 0.438421 -0.266063 0.856739 
0.365816 -0.246574 0.89155 0.313912 -0.150369 0.931839 0.232971 -0.0216069 0.961435 
0.142834 0.168789 0.960645 0.0316604 0.356613 0.924155 -0.07841 0.492337 0.85061 
-0.179179 0.501079 0.841244 -0.209698 0.589846 0.772309 -0.216208 0.707724 0.667988 
-0.232201 0.64314 0.72155 -0.178279 0.748032 0.631935 -0.423931 0.43333 -0.784946 
-0.474403 0.590205 -0.641797 -0.497129 0.685646 -0.522334 -0.501197 0.750846 -0.429013 
-0.45518 0.795169 -0.395152 -0.406282 0.836645 -0.362476 -0.360805 0.873818 -0.318977 
-0.339884 0.906773 -0.23775 -0.332426 0.927835 -0.134943 -0.353727 0.929222 0.00693971 
-0.409631 0.888223 0.1735 -0.44848 0.846508 0.283581 -0.45498 0.843287 0.272029 
-0.380308 0.902534 0.1754 -0.331243 0.93678 0.108974 -0.317379 0.940804 0.112484 
-0.296086 0.932647 0.174986 -0.300506 0.888641 0.327946 -0.329577 0.830027 0.440481 
-0.34639 0.803273 0.482455 -0.373292 0.749587 0.538291 -0.401774 0.686998 0.600062 
-0.420483 0.632586 0.646783 -0.429994 0.572818 0.695822 -0.407505 0.208083 0.87581 
-0.431107 0.36756 0.820051 -0.355894 0.0368128 0.929704 -0.283956 -0.100683 0.94219 
-0.221573 -0.206668 0.945558 -0.11005 -0.278436 0.950888 -0.0405937 -0.361805 0.930027 
-0.0237199 -0.394344 0.918501 -0.0233141 -0.391554 0.919798 0.0443143 -0.480807 0.871671 
0.0208281 -0.410534 0.911164 -0.413856 0.461193 0.781617 -0.398788 0.518992 0.753335 
-0.0124596 -0.38698 0.921668 0.0166023 -0.369229 0.927921 0.330714 -0.593221 0.731886 
0.12429 -0.500046 0.853042 0.388568 -0.605278 0.689066 0.444179 -0.665051 0.596705 
0.454976 -0.645438 0.611886 0.370459 -0.755037 0.526373 0.261519 -0.796595 0.539546 
0.0945458 -0.908488 0.396209 0.121885 -0.937892 0.30451 0.126838 -0.969318 0.144662 
-0.036273 -0.983395 -0.141738 -0.0510125 -0.95769 -0.267848 -0.0416194 -0.937304 -0.34425 
-0.0433582 -0.91679 -0.393361 -0.0414044 -0.891143 -0.448836 -0.0277199 -0.856059 -0.513526 
0.0157812 -0.816753 -0.574709 0.0655739 -0.78783 -0.610879 0.069937 -0.760796 -0.644755 
0.0382381 -0.742296 -0.667447 -0.0216412 -0.712483 -0.700584 -0.092915 -0.663305 -0.739524 
-0.16229 -0.60844 -0.775089 -0.204889 -0.55121 -0.808299 -0.221971 -0.449062 -0.862492 
-0.29906 -0.400752 -0.861371 -0.221948 -0.272431 -0.930456 -0.160938 -0.160967 -0.96969 
-0.132039 0.0150039 -0.982817 -0.110695 0.118832 -0.982395 -0.253698 0.371711 -0.885605 
-0.0935891 0.241545 -0.954524 -0.351576 0.354588 -0.859563 -0.178225 0.791038 0.571814 
-0.180007 0.848392 0.49095 -0.18785 0.89409 0.397551 -0.189771 0.934844 0.294122 
-0.203517 0.957454 0.19409 -0.20594 0.968664 0.131874 -0.214844 0.969728 0.107104 
-0.21532 0.971771 0.0869511 -0.187639 0.979592 0.05814 -0.145387 0.987242 -0.0519185 
-0.154519 0.967089 -0.178835 -0.156093 0.943365 -0.289401 -0.126422 0.924153 -0.358137 
0.00763689 0.907181 -0.420424 -0.0381115 0.911872 -0.408143 0.0176394 0.882608 -0.468827 
0.00767739 0.759356 -0.624709 0.00505235 0.610685 -0.788188 0.0214876 0.432686 -0.885222 
0.0419177 0.289046 -0.954538 0.068284 0.208818 -0.973408 0.0846249 0.144209 -0.984686 
0.0952577 0.0881459 -0.991376 0.104415 -0.0336313 -0.991013 0.0694426 -0.291447 -0.95026 
0.102073 -0.395554 -0.90982 0.111347 -0.471513 -0.872305 0.123775 -0.541475 -0.828099 
0.132533 -0.624369 -0.76828 0.140318 -0.705791 -0.689286 0.136362 -0.765993 -0.627977 
0.128402 -0.783503 -0.607696 0.162312 -0.768836 -0.618028 0.184675 -0.784546 -0.591094 
0.209562 -0.80808 -0.550126 0.206007 -0.848651 -0.480048 0.270288 -0.907412 -0.305446 
0.388321 -0.897987 -0.0678781 0.539085 -0.822226 0.160066 0.620927 -0.736853 0.254703 
0.632949 -0.708932 0.306345 0.603167 -0.69764 0.378075 0.545798 -0.665215 0.50313 
0.523627 -0.619251 0.58215 0.51795 -0.577414 0.630463 0.508603 -0.500618 0.69553 
0.44812 -0.422078 0.782899 0.421889 -0.350056 0.831634 0.420616 -0.289795 0.855367 
0.428582 -0.258087 0.863065 0.377127 -0.256081 0.889603 0.310733 -0.247013 0.914209 
0.247454 -0.226625 0.941805 0.149582 -0.161468 0.966909 0.0675795 -0.0690089 0.992429 
-0.0185611 0.0701235 0.984805 -0.101727 0.190949 0.972173 -0.157912 0.302673 0.927882 
-0.199315 0.44273 0.865259 -0.191832 0.49567 0.845263 -0.221059 0.559398 0.791564 
-0.256848 0.678482 0.68361 -0.293184 0.651692 0.690556 -0.231052 0.777953 0.575615 
-0.0727293 0.91704 -0.390941 -0.144917 0.920777 -0.358623 0.274404 -0.88246 0.354648 
0.324371 -0.908904 0.23768 0.0534826 -0.944734 -0.309203 0.124053 -0.957314 -0.236611 
0.0109228 -0.931005 -0.359308 -0.00172556 -0.90895 -0.413786 -0.011233 -0.86898 -0.489007 
-0.00227606 -0.825721 -0.560691 0.022226 -0.790914 -0.610005 0.0435554 -0.758763 -0.649551 
0.0792963 -0.766807 -0.636636 0.0681866 -0.759176 -0.646696 0.0381848 -0.739121 -0.671954 
-0.00558632 -0.696922 -0.713985 -0.053556 -0.639442 -0.764589 -0.0935475 -0.567413 -0.816623 
-0.0976805 -0.487636 -0.863982 -0.147808 -0.361403 -0.915229 -0.0654839 -0.352129 -0.928982 
-0.376856 0.494458 -0.768856 -0.398345 0.655846 -0.625149 -0.393899 0.779999 -0.476783 
-0.342711 0.848402 -0.39849 -0.28432 0.890468 -0.352787 -0.255731 0.913601 -0.31418 
-0.278522 0.928817 -0.236391 -0.294188 0.93851 -0.176664 -0.317041 0.939456 -0.0984939 
-0.335162 0.937782 -0.0276855 -0.329253 0.932384 0.0825903 -0.397989 0.889335 0.213379 
-0.280855 0.944326 0.148876 -0.472328 0.85509 0.205695 -0.435546 0.883236 0.157418 
-0.373638 0.921328 0.0947313 -0.361463 0.912916 0.180387 -0.340188 0.892176 0.279371 
-0.301657 0.887494 0.344199 -0.356666 0.827995 0.416154 -0.406999 0.753145 0.510272 
-0.431339 0.673204 0.593721 -0.42466 0.631984 0.643653 -0.397898 0.612316 0.678657 
-0.348216 0.503855 0.78825 -0.289272 0.533005 0.787281 -0.311261 0.425739 0.841482 
-0.273528 0.290426 0.9143 -0.207551 0.114677 0.956195 -0.151273 -0.0389581 0.984595 
-0.118602 -0.161643 0.971254 0.330607 -0.525833 0.779732 0.22794 -0.46931 0.848763 
0.425648 -0.600684 0.67476 0.508695 -0.708815 0.483722 0.480366 -0.656298 0.580064 
0.455054 -0.745838 0.475354 -0.25273 0.828032 0.490985 -0.270469 0.879015 0.379901 
-0.28521 0.915598 0.271065 -0.292634 0.934307 0.195476 -0.301175 0.941213 0.14445 
-0.296365 0.944995 0.130194 -0.257058 0.955741 0.132192 -0.186449 0.974803 -0.066397 
-0.17697 0.962862 -0.187837 -0.197992 0.941469 -0.264506 -0.218039 0.932614 -0.28157 
-0.0483747 0.890706 -0.44523 -0.0733484 0.908547 -0.405214 -0.0347208 0.855899 -0.50468 
-0.0465394 0.777441 -0.618702 -0.0423678 0.648424 -0.746468 -0.028265 0.490322 -0.860247 
0.0143667 0.354224 -0.930964 0.0547638 0.235206 -0.966863 0.0760754 0.125973 -0.987467 
0.0568848 0.0268871 -0.996389 0.0530616 -0.0730184 -0.989237 0.00933192 -0.133989 -0.985581 
0.0512371 -0.536649 -0.839915 0.0373767 -0.4626 -0.884947 0.0639678 -0.617742 -0.780552 
0.0770653 -0.704602 -0.701944 0.0911203 -0.7498 -0.653811 0.103116 -0.781267 -0.615272 
0.120219 -0.770996 -0.624552 0.126941 -0.756943 -0.640724 0.222868 -0.821915 -0.523519 
0.218206 -0.792269 -0.568413 0.239639 -0.859634 -0.441191 0.274442 -0.899725 -0.329725 
0.370445 -0.907301 -0.129813 0.48134 -0.864952 0.0329731 0.580205 -0.788225 0.17507 
0.572717 -0.742422 0.329322 0.0071177 -0.360604 -0.926276 -0.0443267 -0.330506 -0.939959 
0.22727 -0.958847 -0.0946429 0.377131 -0.904592 0.106194 0.178055 -0.757592 -0.627512 
0.132865 -0.745323 -0.652068 0.470496 -0.612035 0.631877 0.454014 -0.576329 0.677392 
0.417355 -0.532334 0.730986 0.359417 -0.464355 0.80857 0.318869 -0.40202 0.854224 
0.282252 -0.330614 0.899905 0.26426 -0.275602 0.922458 0.256961 -0.239319 0.934869 
0.189901 -0.208833 0.956069 0.121647 -0.168885 0.976056 0.0310924 -0.087819 0.989569 
-0.0563436 0.00298138 0.996473 -0.111877 0.126089 0.976419 -0.156856 0.242757 0.952225 
-0.182095 0.328287 0.922169 -0.165958 0.345038 0.917646 -0.15144 0.411733 0.894497 
-0.231772 0.514719 0.824639 -0.350634 0.661273 0.655283 -0.00275342 -0.327588 0.943674 
0.00467216 -0.242843 0.966797 -0.00076124 -0.365487 0.930109 0.0152824 -0.353303 0.935187 
0.0620126 -0.340378 0.936541 0.134189 -0.348464 0.926923 0.173512 -0.298209 0.936983 
0.156508 -0.386876 0.903866 -0.102484 0.725306 -0.667245 -0.116227 0.82158 -0.544245 
-0.0828444 0.598188 -0.790047 -0.0386806 0.474511 -0.869363 -0.0140564 0.380187 -0.91999 
0.00457337 0.290671 -0.949783 0.0070037 0.145301 -0.984582 -0.042505 -0.062157 -0.993132 
-0.0896596 -0.185292 -0.974232 0.196603 -0.255653 0.945576 0.175845 -0.203719 0.961138 
0.141783 -0.150276 0.97721 0.084394 -0.075913 0.988591 0.0251535 0.0037507 0.998825 
-0.0337692 0.104258 0.986515 -0.0965927 0.211778 0.971301 -0.126655 0.352563 0.921512 
-0.173175 0.394193 0.891485 -0.190479 0.364979 0.904459 -0.163061 0.287583 0.933519 
-0.113326 0.170985 0.966038 -0.0530676 0.0254724 0.99285 -0.0174913 -0.108893 0.987096 
-0.329444 0.769196 0.538617 -0.359674 0.823794 0.430285 -0.384582 0.860626 0.327942 
-0.390084 0.886222 0.235036 -0.392128 0.906317 0.152622 -0.399554 0.902521 0.154258 
-0.428998 0.887734 0.164859 -0.40287 0.841035 0.358242 -0.411402 0.817383 0.393558 
-0.421578 0.779806 0.462439 -0.405806 0.712027 0.564911 -0.467247 0.85691 0.212006 
-0.45672 0.877206 0.144416 -0.411697 0.897191 0.152299 -0.393597 0.892501 0.201896 
-0.0776469 0.274797 0.956466 -0.0295817 0.180317 0.975605 0.0199968 0.0658347 0.991626 
0.04518 -0.0455042 0.993201 0.0480532 -0.151515 0.98253 0.0446048 -0.24527 0.966258 
0.0312449 -0.306513 0.948957 0.0936776 -0.264857 0.958615 -0.288654 0.954295 0.0246261 
-0.283818 0.951412 -0.0743906 -0.275884 0.939773 -0.187782 -0.256734 0.932107 -0.251369 
-0.120956 0.91999 -0.370177 -0.192981 0.914951 -0.35211 -0.224683 0.531708 -0.805049 
-0.264855 0.714609 -0.636444 -0.241806 0.816402 -0.518944 -0.240506 0.87091 -0.421277 
-0.224666 0.903374 -0.364512 -0.156141 0.887334 -0.431993 -0.253115 0.924585 -0.280569 
-0.017325 -0.458943 -0.884818 0.00938102 -0.52203 -0.85217 0.0263557 -0.574425 -0.816065 
0.0453609 -0.630964 -0.771322 0.0654688 -0.676687 -0.731171 0.076004 -0.72585 -0.680648 
0.08343 -0.770862 -0.629802 0.0983198 -0.771243 -0.62856 0.105717 -0.751077 -0.651273 
0.0909217 -0.739884 -0.666115 0.130928 -0.764717 -0.628441 0.0621318 -0.757755 -0.64932 
0.170607 -0.77449 -0.608307 0.196831 -0.793468 -0.572875 0.22298 -0.81956 -0.527507 
0.226886 -0.854916 -0.461103 0.248592 -0.891828 -0.367131 0.335066 -0.914392 -0.207752 
0.431902 -0.890332 -0.0282579 0.470032 -0.868825 0.109801 0.466092 -0.832972 0.270453 
0.368763 -0.918954 -0.0466846 0.317691 -0.933441 -0.120063 0.240126 -0.927843 -0.249797 
0.160641 -0.916343 -0.362665 0.126728 -0.891039 -0.429169 0.106541 -0.865261 -0.485924 
0.0817577 -0.834583 -0.539926 0.0495845 -0.799274 -0.594352 0.0697386 -0.768056 -0.63643 
0.0652946 -0.759931 -0.646521 0.0609043 -0.759849 -0.646032 0.032313 -0.728762 -0.683087 
0.0204398 -0.674389 -0.735145 -0.0019424 -0.594672 -0.802633 -0.0177686 -0.528145 -0.846802 
-0.0318649 -0.473554 -0.878184 -0.092619 0.411723 -0.903337 0.050284 -0.733449 -0.675369 
0.065492 -0.757067 -0.649571 0.0866813 -0.765579 -0.63706 0.0938005 -0.763641 -0.638412 
0.0911258 -0.753304 -0.650675 0.188098 -0.857176 -0.477993 0.164459 -0.825455 -0.535629 
0.206584 -0.879651 -0.422296 0.216618 -0.898527 -0.377917 -0.446361 0.881923 0.149024 
-0.455837 0.878368 0.140907 -0.394323 0.796818 0.448139 -0.412937 0.849231 0.325725 
-0.37436 0.759878 0.526726 0.0974501 -0.178954 0.975913 0.0918362 -0.0864704 0.990306 
0.0532141 0.005342 0.993815 0.0105101 0.104505 0.992449 -0.0544311 0.224082 0.964382 
0.0478224 -0.767555 -0.638584 0.0913314 -0.766689 -0.633148 0.129038 -0.79222 -0.592462 
-0.17475 0.909236 -0.37614 -0.169026 0.899494 -0.400614 -0.179866 0.79073 -0.571753 
-0.163129 0.715466 -0.669728 -0.127723 0.607752 -0.771325 -0.0906784 0.538166 -0.824582 
-0.447868 0.874136 0.178529 0.457395 -0.629891 0.624827 -0.221865 0.921759 -0.315712 

Radius 1 1116 double
0.15 0.15 1.3837835335 1.2050487856 0.15 1.4716922249 0.15 1.4920706558 0.15 
1.516783637 0.15 1.5390522029 0.15 1.5965543033 0.15 1.5884270607 0.15 1.4912132428 
0.15 1.3898288955 0.15 1.3326461442 0.15 1.2898016053 0.15 1.3698200353 0.15 
1.4011537608 0.15 1.4497232058 0.15 1.4771134761 0.15 1.4803170086 0.15 1.3909136458 
0.15 1.3213239912 0.15 1.2723519444 0.15 1.2455979952 0.15 1.2198712447 0.15 
1.2577871264 0.15 1.2571357216 0.15 1.2708769781 0.15 1.3917645769 0.15 1.5461111587 
0.15 1.7509879135 0.15 1.8097876165 0.15 1.6899546803 0.15 1.5444426666 0.15 
1.4379375214 0.15 1.3894997568 0.15 1.3607214426 0.15 1.3198558027 0.15 1.2729693451 
0.15 1.2516963147 0.15 1.2429255021 0.15 1.2463077714 0.15 1.2568230454 0.15 
1.2477925752 0.15 1.1240957667 0.14999968179 1.1306899735 0.14999934307 1.1660866887 0.14999906194 1.2202262168 
0.14999924036 1.1771800526 0.14999974081 1.1458465728 0.15 1.1099568063 0.15 1.0339176984 0.15 
1.0188822222 0.15 1.0246920434 0.15 1.1173310866 0.15 1.2601280922 0.15 1.4862431447 
0.15 1.5269719483 0.15 1.4548178925 0.15 0.15 1.3110791708 1.1694345764 0.15 
1.4284102894 0.15 1.4545459421 0.15 1.5314804842 0.15 1.6237815694 0.15 1.6574046128 
0.15 1.6383804807 0.15 1.430761641 0.15 1.2626946964 0.15 1.1561910387 0.15 
1.0744385869 0.15 1.2075961252 0.15 1.2996968653 0.15 1.3433224417 0.15 1.3723757604 
0.15 1.4003459559 0.15 1.3082670987 0.15 1.2304864537 0.15 1.3081254611 0.15 
1.3910910607 0.15 1.4955397221 0.15 1.4548280864 0.15 1.499261799 0.15 1.6633534618 
0.15 1.5870852905 0.15 1.5108017992 0.15 1.3828164523 0.15 1.4365724137 0.15 
1.571917708 0.15 1.7675853898 0.15 1.8498716027 0.15000001557 1.7995083942 0.14999990124 1.6728394445 
0.14999996128 1.7269979743 0.15 1.8624713527 0.15 2.0646505916 0.15 2.1536209679 0.15 
2.1740000492 0.15 2.0474630387 0.15 1.9671678418 0.15 1.8584803317 0.15 1.7341000193 
0.15 1.6287705747 0.15 1.5448544805 0.15 1.4703554452 0.15 1.4564928598 0.15 
1.3782902522 0.15 1.2270431634 0.15 1.2898530725 0.15 1.3609217814 0.15 1.3653179121 
0.15 1.2729056381 0.15 1.134749743 0.15 0.99838572397 0.15 0.86033473226 0.15 
1.0741444424 0.15 1.2198049203 1.7766845 1.7110235683 1.8079727563 1.7304691228 1.7013922041 1.7285638516 
1.6502627387 1.5249342545 1.3810758208 1.3160700405 1.3148170252 1.3711686483 1.4054996411 1.4412536609 1.4863595923 
1.5273131771 1.53653957 1.5400587352 1.5304894514 1.5201050558 1.4991479505 1.5968195686 1.5473378575 1.4962386911 
1.5104739878 1.604895218 1.7919227521 1.8823552423 1.785845393 1.6259120989 1.5357741452 1.5163142908 1.4798450916 
1.4333932427 1.3643876073 1.3982090856 1.4032180223 1.3834638156 1.3555961269 1.3446607322 1.2676728451 1.2901282622 
1.3476242526 1.3674822746 1.2682280852 1.2638122471 1.2634548592 1.237906645 1.2167792347 1.1906859323 1.2174108817 
1.3346799356 1.6348269215 1.7972708549 1.7214998123 1.5418441013 1.7035336596 1.6502619093 1.7243675606 1.8190025536 
1.90156205 1.9403788666 1.935088479 1.6795913412 1.4352435955 1.3173322638 1.2360893693 1.3105726342 1.3798692684 
1.4320581958 1.4594746787 1.4814039828 1.4506708515 1.4350838047 1.3965584579 1.4625213933 1.5570865438 1.5258633438 
1.6162889293 1.8032210161 1.689536794 1.554934819 1.4386454293 1.5199022917 1.6901804937 1.825811414 1.9034125672 
1.8086044562 1.633695201 1.6972022587 1.9078224438 2.1688136782 2.2420336073 2.2180155119 2.1135365906 2.0113648658 
1.9175667308 1.7978199941 1.6806252726 1.5852731043 1.5265539662 1.5136097715 1.4705816606 1.3838165526 1.4671132517 
1.5048272456 1.4756196828 1.3719988342 1.1888200356 1.0367996671 0.8931758427 1.1702852723 1.4122150352 1.568851332 
2.0312237151 1.9557597425 1.9103646659 1.8215306201 1.7603021825 1.6251095762 1.4852089917 1.3996163998 1.4705853364 
1.5443626512 1.5516093607 1.5193300831 1.4180590373 1.4245847713 1.4720420824 1.4958485151 1.5213463667 1.5372786944 
1.5622511821 1.6296516547 1.7427327351 1.6124664473 1.6889262576 1.5871488072 1.6242407808 1.7863041568 1.8248034428 
1.809348627 1.6382563778 1.5224666553 1.4604473024 1.4113582536 1.4071375049 1.3603836955 1.380850659 1.4257737755 
1.4222830211 1.4042733244 1.3385913613 1.3002014339 1.3231752921 1.4497797528 1.4330953491 1.113390337 1.1490945268 
1.0959792318 1.1600149477 1.2102538557 1.2392049746 1.3120290926 1.3706488024 1.553779729 1.7215872407 1.7421589301 
1.7399306482 1.8728950647 1.8206697684 1.9248994045 1.2745674399 1.3778898871 1.9527079235 1.876897671 2.0298010343 
2.1039428017 2.1292824294 2.1005991547 1.7926462143 1.5086035699 1.2854616199 1.2122529817 1.3295783778 1.4057188572 
1.4558931045 1.4884750419 1.5016214899 1.5508357482 1.6444739413 1.4514523842 1.5285734701 1.6095458973 1.6037182438 
1.674455032 1.8312640045 1.720586273 1.5858035006 1.5108002323 1.5800393397 1.7041116662 1.809703847 1.8548640623 
1.7153427482 1.5911440706 1.7690090835 1.9159365657 2.1103074181 2.1288651022 2.0963145892 2.0056232556 1.9171229482 
1.8320168277 1.752365395 1.620169535 1.5205631154 1.5388211442 1.5403038678 1.5380832431 1.5841097216 1.5836867901 
1.5970380724 1.5294963985 1.4419007688 1.3350853084 1.2845210841 1.205089031 1.3715306084 1.5597432458 1.6946771562 
1.7929568185 1.1931757996 1.330104313 1.0572637161 1.0200699732 1.0239224106 1.1095903524 1.1679136305 1.2154140977 
1.3158225418 1.4579482988 1.4997585969 1.5909740382 1.6806731572 1.7822584724 1.8726336957 2.1110331013 2.121590005 
1.9526480395 1.833971527 1.7449565987 1.6627950581 1.5433655223 1.6337549056 1.6808035002 1.7214743373 1.6795270455 
1.5798850866 1.4388811555 1.417659387 1.440309861 1.463328543 1.5021786301 1.5431042879 1.6265974256 1.7036704425 
1.8296776084 1.9928650213 2.1086728887 2.1158511218 1.9328135081 1.810557375 1.7359279583 1.6728609943 1.6850321302 
1.7708278238 1.7696754144 1.7456702632 1.5923810541 1.4623737528 1.361703463 1.3388227022 1.3427768592 1.3241367225 
1.3571819861 1.4097495612 1.4100310256 1.3833149183 1.3186972258 1.3159146726 1.3512269847 1.4454588195 1.4734240132 
1.4534192731 1.4433506627 1.2831938528 1.4300940627 1.1925364615 2.1002288504 1.9866415283 2.194890392 2.1658848833 
2.1090290935 1.8762993406 1.6144786821 1.3726721314 1.1813356807 1.347610667 1.5203472502 1.6302685002 1.7209245683 
1.735498093 1.7931537992 1.8969044509 1.5632516606 1.6006345165 1.6065178157 1.6618982744 1.7664802217 1.8909140121 
1.7632549408 1.609985788 1.5253284326 1.5819384802 1.6817180625 1.753365231 1.7825822736 1.6469731399 1.6118455086 
1.7776974469 1.9261961985 1.9822561325 1.9800731355 1.9610999109 1.9110017999 1.833087706 1.7423928452 1.6695779142 
1.5634277588 1.4590753651 1.5045059649 1.5223470623 1.5417349855 1.6057118158 1.6297118713 1.6057155198 1.4771627832 
1.4048039043 1.4029981368 1.4648624143 1.5347487827 1.6792221072 1.7682135923 1.7391028982 1.7713207545 1.8563024429 
1.7602346414 1.8116601585 1.0972968363 1.0672356991 1.0694042484 1.1787533411 1.26634537 1.3551379902 1.44883436 
1.5438419883 1.5579167027 1.5367624813 1.51247593 1.9185066714 1.6959992809 2.1844077978 2.0818413067 1.9653863777 
1.8594260728 1.7510948375 1.6714360067 1.6791339281 1.9041984667 1.9072337834 1.8646183427 1.777018283 1.6431037137 
1.5121772351 1.4437683512 1.4128069251 1.4259132904 1.4778491205 1.6298907316 1.7203155465 1.7777127871 1.8761500684 
2.0024591497 2.1374718674 2.1358255971 2.1213888319 2.1136043764 1.9863638675 1.8796495875 1.8331252683 1.7554664656 
1.7261257264 1.7583923757 1.7634657163 1.7436222047 1.6268766819 1.4741940741 1.3317603545 1.2882680749 1.3078376109 
1.3844438254 1.3880189358 1.3871660668 1.4233010998 1.437309676 1.3918944283 1.3822438214 1.3768288907 1.42340329 
1.4890540649 1.5506650617 1.5796131396 1.5636154404 1.4082769142 1.5753766411 1.2191544914 1.6867925154 1.5803747131 
1.7910054452 1.8050409976 1.74053819 1.6782741679 1.6560057402 1.6589695446 1.7527153284 1.8903293901 1.7418090473 
1.5656473075 1.4383511128 1.480658365 1.5712427165 1.6263898861 1.6909831292 1.6132608649 1.6481739171 1.7513239117 
1.7847260531 1.7995797614 1.8307098969 1.8409107058 1.8343794769 1.7562933705 1.6581368957 1.5817608841 1.5002131535 
1.4118912365 1.4418636867 1.4669690021 1.4779510465 1.5321571412 1.5508640487 1.5071280949 1.3747220401 1.2806882133 
1.3460870264 1.4932531363 1.6936647678 1.7765765585 1.7386202652 1.5994167817 1.6754657555 1.7950498365 1.9436060452 
2.0345965802 2.0687139174 2.0637790383 2.0581351112 1.8792691022 1.695336793 1.4848509649 1.3121173525 1.4826497038 
1.635902477 1.791817328 1.9140164602 1.8996094888 1.8709095679 1.8510248394 1.8264983498 1.7821913666 1.7795871218 
1.7899117051 1.775862408 1.2006102959 1.1982295983 1.3209559736 1.4761441698 1.509811613 1.5491877454 1.6036563651 
1.5973690243 1.5310171818 1.4117198341 1.3961440965 1.468555057 1.4472934788 1.5507692329 1.7309608222 1.9583042482 
2.0334123937 2.0063687146 1.9592489905 1.9060510258 1.8286928577 1.7801147858 1.8706082139 1.9752413466 1.8769306825 
1.9812646899 1.7384332348 1.6320051672 1.5393588567 1.4443864687 1.4093695963 1.4292593306 1.4866178528 1.8462094356 
1.7815273136 1.9958353334 1.9880259807 1.6320466488 1.5268259263 2.1684901472 2.012986108 2.1193206357 2.0291685328 
2.0076651853 2.0692091786 2.0659635562 1.9593357055 1.8361273579 1.7982181407 1.8050635059 1.7743076799 1.7326378054 
1.6480566053 1.5319349315 1.3779747132 1.3122126073 1.2938109121 1.4116722133 1.4725893866 1.4577558781 1.4882965149 
1.4974270262 1.4896296049 1.5225342934 1.5025421072 1.5542885213 1.5369836778 1.5842288961 1.6197102675 1.5434755619 
1.5763349041 1.3766208178 1.7368211314 1.6831389886 1.6525740027 1.6457102681 1.739898432 1.8676668523 1.6959986627 
1.5399806345 1.4382481945 1.4287458461 1.5032301586 1.5766188614 1.6065633174 1.6718153656 1.6436597707 1.7547606212 
1.7167905256 1.6922488966 1.7164268908 1.7288527953 1.7245298016 1.6518907909 1.5429958442 1.4971594722 1.4556394285 
1.3918535887 1.382241922 1.3839241959 1.409815437 1.4461907354 1.4704778888 1.416923134 1.293964132 1.2448166918 
1.28617134 1.4774188317 1.7088554316 1.6929484238 1.633777681 1.4819922711 1.5525842269 1.7052740981 1.8678434574 
1.9949564876 2.0824587258 2.1053055108 2.0705647581 1.9141205794 1.7868726313 1.6380041908 1.474740498 1.5458898195 
1.6684390273 1.722835223 1.8076741265 1.8531106905 1.8585828732 1.8359607836 1.7966403392 1.7699238951 1.7751150011 
1.8006306947 1.8361161848 1.7313595375 1.6238488629 1.5840240988 1.9432994733 1.8935766344 1.7966412739 1.8517594431 
1.7197965738 1.6193750676 1.5018672342 1.3519889684 1.3045626057 1.3121756075 1.423478711 1.5052963343 1.5297508131 
1.5356952089 1.5390558288 1.5469043977 1.5575383375 1.5692768782 1.572412459 1.398262339 1.4649359422 1.6169689602 
1.6266994846 1.5880279809 1.5568913842 1.5439811236 1.4947604776 1.4412030802 1.3846498281 1.4477356569 1.4345034281 
1.5092637451 1.3625876086 1.49366325 1.7555344611 1.8841922359 1.8790442462 1.8853977623 1.8246464151 1.8247647044 
1.9110592187 2.0125100644 2.0314076123 1.891193707 1.9028749571 1.9240846686 1.9216457681 1.7957581232 1.6494235599 
1.5427159276 2.1803296315 1.9909659192 2.1326653492 1.8423308434 1.8616155038 1.9960947293 1.6562869709 1.5916414612 
1.5736607268 1.670953728 1.7848072625 1.6216165244 1.4878288912 1.4785099633 1.4839476331 1.5070351284 1.5135000455 
1.6781663725 1.6431197049 1.6876670768 1.6363743513 1.5997576842 1.6429813236 1.6641685799 1.6527047928 1.5770748727 
1.4665836846 1.4560223725 1.429616952 1.375500109 1.4145107519 1.3603348377 1.3919598923 1.4042427627 1.4029092285 
1.353835727 1.3007978293 1.2775736917 1.2456006555 1.4761604644 1.6910617691 1.6710275088 1.645388717 1.5750740518 
1.7185217391 1.452927091 1.4955976115 1.8790349885 1.9010863584 1.2395398918 1.261493881 1.9675715302 2.0951699189 
2.1002789833 2.0325332427 1.8816550838 1.7565679184 1.6467175578 1.5328936748 1.5680410466 1.5870549886 1.6432821306 
1.6986718274 1.7499008269 1.7947897706 1.8043567339 1.7844927097 1.7570558857 1.7727808381 1.9526918406 1.4241200035 
1.4197550304 1.4261358997 1.436943654 1.4823297503 1.6086163078 1.5272208843 1.7726053854 1.573793253 1.6370618931 
1.5604172041 1.6012367422 1.6276327984 1.6218121828 1.5681492008 1.4254656995 1.5161494509 1.4671973189 1.4824239389 
1.5078650557 1.5921212264 1.6723678033 1.7269512844 1.7767402144 1.7483615665 1.8079057768 1.8317668604 1.794304412 
1.6895848282 1.5782666862 1.4910926418 1.777928066 1.7116131041 1.6127797384 1.6066110233 1.6719889399 1.5377477713 
1.3856227756 1.8066403383 1.8496594058 1.9130644593 1.9832260241 1.4469007354 1.540648468 1.6839839408 1.7639656458 
1.7677840462 1.7223769967 1.6631554308 1.573162263 1.4644196459 1.4104282384 1.4196965282 1.4439155252 1.4727323491 
1.4516569155 1.4388222511 1.448956273 1.6110222491 1.5644088088 1.5123352075 1.5208039895 1.6545818764 1.6336696943 
1.5746078734 1.6650419447 1.4842402923 1.4952639436 1.455095824 1.4221020225 1.4110522168 1.4109549299 1.3831872475 
1.3398478949 1.3271269805 1.3117210085 1.2793482135 1.2144292695 1.2488356954 1.1922699751 1.245622226 1.3032694635 
1.5094356366 1.7263085703 1.7985881785 1.8158783178 1.8684120715 1.9208169354 1.8696262131 1.8356829006 1.7677670784 
1.7289657794 1.6229042459 1.5331376577 1.4115567946 1.292150952 1.3881047499 1.303736044 1.4589297281 1.5254508066 
1.4976961914 1.4794235542 1.516282255 1.5399704862 1.5877264678 1.4798134866 1.4597379348 1.407018904 1.3566551838 
1.322681755 1.3836704011 1.3131827412 1.5296674098 1.6545938205 1.5254144658 1.6223988315 1.8218945514 1.677739307 
1.880935086 1.4504583889 1.4847610077 1.5491235004 1.613967994 1.6876346148 1.2422125007 1.2114359919 1.2405491435 
1.6040050021 1.6302919646 1.6135757177 1.5454906028 1.5445546799 1.5918398087 1.636770328 2.0300186769 1.5193556902 

STJ 1 1116 double
0 0 0 0 0 0 0 0 0 
0 0 0 0 0 0 0 0 0 
0 0 0 0 0 0 0 0 0 
0 0 0 0 0 0 0 0 0 
0 0 0 0 0 0 0 0 0 
0 0 0 0 0 0 0 0 0 
0 0 0 0 0 0 0 0 0 
0 0 0 0 0 0 0 0 0 
0 0 0 0 0 0 0 0 0 
0 0 0 0 0 0 0 0 0 
0 0 0 0 0 0 0 0 0 
0 0 0 0 0 0 0 0 0 
0 0 0 0 1 1 0 0 1 
0 1 0 1 0 1 0 1 0 
1 0 1 0 1 0 1 0 1 
0 1 0 1 0 1 0 1 0 
1 0 1 0 1 0 1 0 1 
0 1 0 1 0 1 0 1 0 
1 0 1 0 1 0 1 0 1 
0 1 0 1 0 0.99999998425 0 1.0000000999 0 
1.0000000372 0 1 0 1 0 1 0 1 
0 1 0 1 0 1 0 1 0 
1 0 1 0 1 0 1 0 1 
0 1 0 1 0 1 0 1 0 
1 0 1 0 1 0 1 0 1 
0 1 0 0 0 0 0 0 0 
0 0 0 0 0 0 0 0 0 
0 0 0 0 0 0 0 0 0 
0 0 0 0 0 0 0 0 0 
0 0 0 0 0 0 0 0 0 
0 0 0 0 0 0 0 0 0 
0 0 0 0 0 0 0 0 0 
0 0 0 0 0 0 0 0 0 
0 0 0 0 0 0 0 0 0 
0 0 0 0 0 0 0 0 0 
0 0 0 0 0 0 0 0 0 
0 0 0 0 0 0 0 0 0 
0 0 0 0 0 0 0 0 0 
0 0 0 0 0 0 0 0 0 
0 0 0 0 0 0 0 0 0 
0 0 0 0 0 0 0 0 0 
0 0 0 0 0 0 0 0 0 
0 0 0 0 0 0 0 0 0 
0 0 0 0 0 0 0 0 0 
0 0 0 0 0 0 0 0 0 
0 0 0 0 0 0 0 0 0 
0 0 0 0 0 0 0 0 0 
0 0 0 0 0 0 0 0 0 
0 0 0 0 0 0 0 0 0 
0 0 0 0 0 0 0 0 0 
0 0 0 0 0 0 0 0 0 
0 0 0 0 0 0 0 0 0 
0 0 0 0 0 0 0 0 0 
0 0 0 0 0 0 0 0 0 
0 0 0 0 0 0 0 0 0 
0 0 0 0 0 0 0 0 0 
0 0 0 0 0 0 0 0 0 
0 0 0 0 0 0 0 0 0 
0 0 0 0 0 0 0 0 0 
0 0 0 0 0 0 0 0 0 
0 0 0 0 0 0 0 0 0 
0 0 0 0 0 0 0 0 0 
0 0 0 0 0 0 0 0 0 
0 0 0 0 0 0 0 0 0 
0 0 0 0 0 0 0 0 0 
0 0 0 0 0 0 0 0 0 
0 0 0 0 0 0 0 0 0 
0 0 0 0 0 0 0 0 0 
0 0 0 0 0 0 0 0 0 
0 0 0 0 0 0 0 0 0 
0 0 0 0 0 0 0 0 0 
0 0 0 0 0 0 0 0 0 
0 0 0 0 0 0 0 0 0 
0 0 0 0 0 0 0 0 0 
0 0 0 0 0 0 0 0 0 
0 0 0 0 0 0 0 0 0 
0 0 0 0 0 0 0 0 0 
0 0 0 0 0 0 0 0 0 
0 0 0 0 0 0 0 0 0 
0 0 0 0 0 0 0 0 0 
0 0 0 0 0 0 0 0 0 
0 0 0 0 0 0 0 0 0 
0 0 0 0 0 0 0 0 0 
0 0 0 0 0 0 0 0 0 
0 0 0 0 0 0 0 0 0 
0 0 0 0 0 0 0 0 0 
0 0 0 0 0 0 0 0 0 
0 0 0 0 0 0 0 0 0 
0 0 0 0 0 0 0 0 0 
0 0 0 0 0 0 0 0 0 
0 0 0 0 0 0 0 0 0 
0 0 0 0 0 0 0 0 0 
0 0 0 0 0 0 0 0 0 
0 0 0 0 0 0 0 0 0 
0 0 0 0 0 0 0 0 0 
0 0 0 0 0 0 0 0 0 
0 0 0 0 0 0 0 0 0 
0 0 0 0 0 0 0 0 0 
0 0 0 0 0 0 0 0 0 
0 0 0 0 0 0 0 0 0 
0 0 0 0 0 0 0 0 0 
0 0 0 0 0 0 0 0 0 
0 0 0 0 0 0 0 0 0 
0 0 0 0 0 0 0 0 0 
0 0 0 0 0 0 0 0 0 
0 0 0 0 0 0 0 0 0 
0 0 0 0 0 0 0 0 0 
0 0 0 0 0 0 0 0 0 
0 0 0 0 0 0 0 0 0 
0 0 0 0 0 0 0 0 0 
0 0 0 0 0 0 0 0 0 
0 0 0 0 0 0 0 0 0 
0 0 0 0 0 0 0 0 0 
0 0 0 0 0 0 0 0 0 
0 0 0 0 0 0 0 0 0 
0 0 0 0 0 0 0 0 0 
0 0 0 0 0 0 0 0 0 
0 0 0 0 0 0 0 0 0 
0 0 0 0 0 0 0 0 0 
0 0 0 0 0 0 0 0 0 
0 0 0 0 0 0 0 0 0 
0 0 0 0 0 0 0 0 0 
0 0 0 0 0 0 0 0 0 
0 0 0 0 0 0 0 0 0 

Thickness 1 1116 double
3.0670925725 3.0670925725 2.767567067 2.4100975711 3.0670925725 2.9433842124 3.0670925725 2.98414115 3.0670925725 
3.033567274 3.0670925725 3.0781044059 3.0670925725 3.1931086065 3.0670925725 3.1768537203 3.0670925725 2.9824256829 
3.0670925725 2.7796577579 3.0670925725 2.6652920329 3.0670925725 2.5796032105 3.0670925725 2.7396400706 3.0670925725 
2.8023070154 3.0670925725 2.8994454155 3.0670925725 2.9542265673 3.0670925725 2.9606338972 3.0670925725 2.7818266259 
3.0670925725 2.6426472334 3.0670925725 2.5447037124 3.0670925725 2.4911963603 3.0670925725 2.4397432863 3.0670925725 
2.5155741932 3.0670925725 2.5142713078 3.0670925725 2.5417538591 3.0670925725 2.7835287128 3.0670925725 3.0922217471 
3.0670925725 3.5019760417 3.0670925725 3.6195749864 3.0670925725 3.3799093422 3.0670925725 3.0888853333 3.0670925725 
2.8758747951 3.0670925725 2.7789987066 3.0670925725 2.7214426189 3.0670925725 2.6397113543 3.0670925725 2.5459378964 
3.0670925725 2.503392318 3.0670925725 2.4858509151 3.0670925725 2.4926154663 3.0670925725 2.5136460208 3.0670925725 
2.4955851504 3.0670925725 2.2481915333 3.0670931903 2.2613798825 3.0670939246 2.3321736073 3.0670945033 2.4404533883 
3.067093824 2.3543608619 3.0670929879 2.2916937323 3.0670925725 2.2199136125 3.0670925725 2.0678353969 3.0670925725 
2.0377643431 3.0670925725 2.0493840583 3.0670925725 2.234662216 3.0670925725 2.5202563889 3.0670925725 2.9724869928 
3.0670925725 3.0539435752 3.0670925725 2.9096352017 3.0670925725 3.0670925725 2.6221583415 2.3388691527 3.0670925725 
2.8568205788 3.0670925725 2.9090919006 3.0670925725 3.0629609683 3.0670925725 3.2475631387 3.0670925725 3.3148092255 
3.0670925725 3.2767608632 3.0670925725 2.8615226765 3.0670925725 2.5253885106 3.0670925725 2.3123822896 3.0670925725 
2.1488779362 3.0670925725 2.4151931947 3.0670925725 2.5993942859 3.0670925725 2.6866443013 3.0670925725 2.7447509614 
3.0670925725 2.8006918782 3.0670925725 2.6165336859 3.0670925725 2.4609720818 3.0670925725 2.6162506913 3.0670925725 
2.7821821215 3.0670925725 2.9910794443 3.0670925725 2.9096559845 3.0670925725 2.9985235284 3.0670925725 3.3267063518 
3.0670925725 3.1741703872 3.0670925725 3.0216043313 3.0670925725 2.7656329363 3.0670925725 2.8731443452 3.0670925725 
3.143835036 3.0670925725 3.535171561 3.0670925725 3.6997439541 3.06709256 3.5990174472 3.0670926513 3.3456789032 
3.067092598 3.4539959629 3.0670925725 3.7249427054 3.0670925725 4.1293011832 3.0670925725 4.3072420683 3.0670925725 
4.3480000985 3.0670925725 4.0949260774 3.0670925725 3.9343356836 3.0670925725 3.7169606635 3.0670925725 3.4682000386 
3.0670925725 3.257540522 3.0670925725 3.0897087157 3.0670925725 2.9407108903 3.0670925725 2.9129859611 3.0670925725 
2.7565811861 3.0670925725 2.454085542 3.0670925725 2.5797052848 3.0670925725 2.7218426895 3.0670925725 2.7306356815 
3.0670925725 2.5458122358 3.0670925725 2.2694997262 3.0670925725 1.9967716759 3.0670925725 1.7206697272 3.0670925725 
2.1482892236 3.0670925725 2.4396098406 3.553368212 3.4220468964 3.6159448643 3.4609382456 3.4027842227 3.457127472 
3.3005259389 3.0498692577 2.7621511386 2.6321399267 2.6296349375 2.7423375995 2.8109991504 2.8825070378 2.9727188001 
3.0546258888 3.0730789863 3.0801181567 3.0609791227 3.0402096862 2.9982955715 3.1936388592 3.0946754755 2.9924773017 
3.0209479756 3.2097908243 3.5838456091 3.7647104256 3.571691249 3.2518248064 3.0715487999 3.0326283534 2.9596901833 
2.8667864854 2.7287752145 2.7964181638 2.806435264 2.7669266312 2.711191276 2.689321213 2.5353456903 2.5802565244 
2.6952485052 2.7349645492 2.5364564451 2.5276242619 2.5269090702 2.4758133711 2.4335586024 2.3813715527 2.4348212974 
2.6693593377 3.2696536744 3.5945411412 3.4429991594 3.0836880497 3.4070675189 3.3005237846 3.4487358835 3.6380053384 
3.8031245842 3.8807581836 3.8701768668 3.3591822903 2.870486768 2.6346643867 2.4721787386 2.6211452684 2.7597385368 
2.8641163916 2.9189494006 2.9628085592 2.9013423441 2.8701679571 2.7931169159 2.9250427866 3.1141730438 3.0517262093 
3.2325775659 3.6064420322 3.3790735879 3.1098696381 2.8772902269 3.0398048356 3.3803610664 3.6516222856 3.8068245821 
3.6172084892 3.267390213 3.3944050391 3.8156451581 4.3376271007 4.4840675297 4.4360312499 4.2270733204 4.0227301645 
3.8351334616 3.5956399882 3.3612499689 3.1705456427 3.053108538 3.0272202858 2.9411639294 2.7676335206 2.9342270357 
3.0096537461 2.9512386943 2.7439977607 2.3776401677 2.0735992705 1.7863516868 2.3405705445 2.8244298197 3.137702664 
4.0624473054 3.9115193067 3.8207293318 3.6430609739 3.5206037303 3.2502194109 2.9704188267 2.7992329795 2.9411705037 
3.0887254334 3.1032194299 3.0386601219 2.8361175985 2.8491692009 2.9440839723 2.9916971046 3.0426933348 3.0745573411 
3.1245014085 3.2593026076 3.4854654701 3.224932989 3.3778533484 3.174297709 3.2484815616 3.5726083135 3.6496069358 
3.6186974004 3.2765130975 3.044933318 2.920894178 2.8227165073 2.8142750098 2.7207673911 2.7617011361 2.85154686 
2.8445654252 2.8085464502 2.6771831164 2.600403188 2.6463505565 2.8995586612 2.8661903376 2.2267801814 2.2981883572 
2.1919586064 2.3200294145 2.4205070442 2.4784099549 2.6240579022 2.7412966882 3.1075592505 3.4431749197 3.4843184279 
3.4798617609 3.7457902121 3.6413396108 3.8497990515 2.5491348798 2.7557801237 3.9054163059 3.7537955092 4.0596018337 
4.207885161 4.2585646762 4.2011982298 3.5852918491 3.017206493 2.5709232398 2.4245059634 2.6591567557 2.8114375874 
2.9117855589 2.9769493056 3.0032427656 3.1016719343 3.2889477158 2.9029046928 3.0571464076 3.2190910811 3.2074369627 
3.3489102905 3.6625272382 3.4411716819 3.1716060397 3.0215995039 3.1600776795 3.4082230123 3.6194076137 3.7097280071 
3.4306856926 3.1822880108 3.5380175947 3.8318725234 4.2206142455 4.2577300239 4.1926285821 4.0112462549 3.8342459131 
3.66403371 3.5047309259 3.2403385474 3.04112567 3.0776422772 3.0806076494 3.0761665326 3.1682196199 3.1673737198 
3.1940761449 3.0589927969 2.8838013561 2.6701698552 2.5690415049 2.410177963 2.7430606566 3.1194859271 3.3893533244 
3.5859131661 2.3863521045 2.6602087406 2.1145274906 2.0401394246 2.0478440134 2.2191800546 2.3358271895 2.4308289742 
2.6316458245 2.9158972815 2.9995174796 3.1819479515 3.3613454079 3.5645170285 3.745267835 4.2220664379 4.2431800101 
3.9052960791 3.667943054 3.4899131973 3.3255902372 3.0867318562 3.2675099706 3.3616065021 3.4429485153 3.3590535941 
3.1597699116 2.8777623109 2.835318774 2.8806198138 2.9266573955 3.0043580058 3.086208602 3.2531944655 3.4073404837 
3.659355532 3.985729724 4.2173450778 4.2317019782 3.8656272669 3.6211157499 3.4718569166 3.3457226683 3.3700643457 
3.5416552951 3.5393504713 3.4913407282 3.1847614885 2.92474666 2.7234060982 2.6776449656 2.6855537184 2.6482735929 
2.7143637859 2.8194990878 2.8200620513 2.7666297722 2.637394485 2.6318287667 2.7024532466 2.8909177959 2.9468480264 
2.9068378812 2.8867009911 2.5663868581 2.8601880774 2.3850729057 4.2004567009 3.9732828716 4.3897797839 4.3317692944 
4.2180582554 3.7525989647 3.2289574367 2.7453447482 2.3626721007 2.6952212859 3.0406935629 3.2605365718 3.4418491367 
3.4709965931 3.5863083488 3.7938097841 3.1265028061 3.2012693968 3.2130351843 3.3237958081 3.5329597607 3.7818279468 
3.5265092681 3.2199706215 3.0506565814 3.1638769605 3.3634363745 3.5067304777 3.5651639193 3.2939452799 3.2236902779 
3.555395157 3.8523930188 3.9645128532 3.960147271 3.9222004004 3.8220034231 3.6661758431 3.4847859977 3.3391553935 
3.1268552846 2.9181507302 3.0090117048 3.0446935149 3.0834699709 3.2114231257 3.2594232277 3.2114313444 2.9543260233 
2.8096082514 2.8059966153 2.9297250093 3.0694982752 3.3584445158 3.5364273543 3.4782065689 3.5426416601 3.7126050389 
3.520470233 3.6233204759 2.1945933195 2.1344709191 2.1388080178 2.3575071623 2.5326914032 2.7102762235 2.89766872 
3.0876839766 3.1158334055 3.0735249627 3.02495186 3.8370128248 3.3919982869 4.3688155752 4.1636824784 3.9307724396 
3.7188517361 3.502189478 3.3428720135 3.3582673599 3.8083959528 3.8144674526 3.7292371324 3.5540368751 3.2862081103 
3.0243552806 2.8875373347 2.825613616 2.8518260895 2.9556982213 3.2597814632 3.4406309452 3.5554256195 3.7523007866 
4.0049175626 4.274943493 4.2716513482 4.2427775025 4.2272090733 3.9727270909 3.759298979 3.6662501787 3.5109327411 
3.4522512937 3.5167846509 3.5269306084 3.4872442871 3.2537534084 2.9483880997 2.6635212717 2.5765370093 2.615676044 
2.7688877545 2.7760370461 2.7743316987 2.8466020105 2.874619105 2.7837897953 2.7644882115 2.7536583871 2.8468069307 
2.9781075537 3.1013304146 3.1592268226 3.1272308809 2.8165537057 3.1507538509 2.4383081652 3.3735850308 3.1607493965 
3.5820107696 3.6100812528 3.4810762642 3.3565481371 3.3120111728 3.3179385887 3.5054304109 3.7806590544 3.4836178207 
3.1312941667 2.876701341 2.9613166049 3.1424860314 3.2527803701 3.3819655282 3.2265212675 3.2963475291 3.5026476934 
3.5694526497 3.5991605228 3.6614202105 3.6818215767 3.6687590391 3.5125865443 3.3162727914 3.1635214415 3.000426307 
2.823782473 2.8837273734 2.9339380043 2.9559026294 3.0643147018 3.1017283155 3.0142564892 2.7494442375 2.5613766607 
2.692174449 2.9865065453 3.3873295356 3.553153117 3.4772403333 3.1988330865 3.3509308247 3.5900986928 3.8872111979 
4.0691923777 4.1374272442 4.1275580766 4.1162702766 3.7585383357 3.3906738181 2.9697019298 2.6242346758 2.965298888 
3.2718043625 3.5836346157 3.8280329204 3.7992189775 3.7418192121 3.7020495702 3.6529959176 3.5643823831 3.5591733412 
3.5798231347 3.5517240893 2.4012195917 2.3964581966 2.6419110636 2.9522873397 3.0196225413 3.0983749764 3.2073120811 
3.1947373399 3.0620337393 2.8234403018 2.7922879287 2.9371095049 2.894587646 3.1015379439 3.4619209803 3.9166083249 
4.0668247874 4.0127371748 3.9184971359 3.8121012689 3.6573853396 3.5602294407 3.7412157703 3.95048243 3.7538623649 
3.9625300821 3.4768674696 3.264010607 3.0787174132 2.8887723979 2.8187393343 2.8585193816 2.9732362346 3.6924186948 
3.5630550319 3.9916704561 3.9760519956 3.2640935752 3.0536521117 4.3369794234 4.0259723985 4.2386410914 4.0583367969 
4.0153303706 4.1384186914 4.13192798 3.9186713094 3.6722545787 3.5964366854 3.6101272569 3.5486153598 3.4652754176 
3.2961124928 3.063868863 2.7559487574 2.6244254265 2.5876218385 2.8233446784 2.9451791767 2.9155119629 2.976593447 
2.9948542753 2.9792593412 3.0450685391 3.0050838584 3.1085773072 3.0739673557 3.1684582122 3.2394208919 3.0869520255 
3.152669823 2.7532413933 3.4736418113 3.3662778879 3.3051483198 3.2914212123 3.4797965994 3.7353337962 3.3919976796 
3.079960934 2.8764956556 2.8574906923 3.0064604634 3.1532384054 3.2131262172 3.3436312302 3.2873205058 3.5095212453 
3.4335811779 3.384497736 3.4328537478 3.4577057064 3.449060152 3.3037820238 3.0859917138 2.994319753 2.9112786876 
2.7837067438 2.7644829846 2.7678476608 2.8196308601 2.8923817203 2.9409557776 2.8338462526 2.587928264 2.4896331528 
2.5723418789 2.9548370861 3.4177105323 3.3858968123 3.2675560021 2.9639845513 3.1051686428 3.4105486649 3.7356869149 
3.9899129753 4.1649174515 4.2106105676 4.1411290648 3.8282406959 3.5737446281 3.2760079825 2.949480996 3.091779639 
3.3368780546 3.445670446 3.615348253 3.706221381 3.7171657464 3.6719211247 3.5932801024 3.5398483729 3.5502298743 
3.6012612803 3.6722322963 3.4627183682 3.2476977707 3.1680475157 3.8865997339 3.7871532159 3.5932827089 3.7035195161 
3.4395928392 3.238749343 3.0037337678 2.703977972 2.6091259305 2.6243521715 2.8469569533 3.0105925606 3.0595026262 
3.0713903324 3.078110896 3.0938087636 3.1150759423 3.1385531528 3.1448246667 2.796524717 2.9298717451 3.2339373516 
3.253398524 3.1760557758 3.1137835324 3.0879627829 2.9895211332 2.8824061604 2.7692996257 2.8954707985 2.8690059689 
3.0185277471 2.7251752183 2.9873267799 3.5110695468 3.7683847695 3.7580884924 3.770795426 3.6492928301 3.6495298224 
3.8221192745 4.0250207366 4.0628155396 3.7823883502 3.8057509141 3.8481684123 3.8432912912 3.5915167358 3.2988480552 
3.0854320368 4.3606591271 3.9819318349 4.2653306983 3.6846616867 3.7232310075 3.992188554 3.3125735854 3.1832829224 
3.1473215765 3.341907258 3.5696146133 3.243233218 2.9756572162 2.9570201449 2.9678952662 3.0140702568 3.027000091 
3.3563331563 3.2862396762 3.3753347621 3.272749692 3.1995157539 3.2859620427 3.3283367129 3.3054095856 3.1541498867 
2.933168225 2.9120452458 2.8592336664 2.750999218 2.8290211285 2.7206690256 2.7839204448 2.8084857957 2.8058176606 
2.7076711584 2.6015963716 2.5551472192 2.4912004448 2.9523206459 3.3821231072 3.3420545688 3.2907771251 3.1501482744 
3.4370441703 2.9058538972 2.991195223 3.7580707084 3.8021724002 2.4790796326 2.5229879304 3.9351430604 4.1903398378 
4.2005579665 4.0650664554 3.7633101675 3.5131358367 3.2934351157 3.0657873496 3.1360820932 3.1741099771 3.2865642612 
3.3973436549 3.4998013299 3.5895787787 3.6087125064 3.5689852945 3.5141124047 3.5455611838 3.9053843181 2.8482399772 
2.8395095391 2.8522721615 2.8738875925 2.9646601914 3.21723272 3.0544417685 3.5452103143 3.1475867643 3.2741244904 
3.1208344082 3.2024734843 3.2552657314 3.2436249935 3.1362992077 2.8509317371 3.0322989018 2.9343947353 2.96484846 
3.0157309447 3.1842423619 3.344734737 3.4539021073 3.5534803226 3.4967230017 3.6158121633 3.6635334676 3.5886083957 
3.3791700048 3.1565340424 2.9821849977 3.5558561477 3.4232264379 3.2255596183 3.2132220466 3.3439782132 3.0754963968 
2.7712464581 3.6132807396 3.6993185181 3.8261279264 3.9664519312 2.8938005255 3.0812965452 3.3679680493 3.5279322023 
3.5355681283 3.4447537817 3.3263101178 3.1463238765 2.9288394802 2.8208571672 2.8393936396 2.8878313387 2.945464687 
2.9033138309 2.8776447513 2.8979134005 3.2220438649 3.1288174722 3.024670985 3.0416085639 3.3091638749 3.2673393887 
3.1492157468 3.3300847347 2.9684815845 2.9905276698 2.9101914759 2.8442036457 2.8221041269 2.8219097441 2.7663741718 
2.6796949452 2.654253868 2.6234423991 2.5586963401 2.4288586467 2.4976712798 2.3845399033 2.4912439475 2.6065379511 
3.0188714491 3.4526179636 3.5971764283 3.6317568433 3.7368248346 3.8416340688 3.7392526183 3.6713659626 3.5355349067 
3.4579320143 3.2458083319 3.0662752223 2.8231136752 2.5843023629 2.7762084999 2.6074711769 2.9178589841 3.0509022863 
2.99539291 2.9588471083 3.0325639432 3.079940118 3.1754529355 2.9596277891 2.9194765596 2.8140379992 2.7133102532 
2.6453632974 2.7673398692 2.6263650983 3.0593348202 3.3091883666 3.0508289514 3.2447970366 3.6437890644 3.3554778247 
3.7618703055 2.9009169425 2.9695219688 3.0982474143 3.2279368731 3.3752696183 2.4844259153 2.422872582 2.4810985244 
3.2080094347 3.2605839013 3.2271515678 3.0909812057 3.0891093597 3.1836796175 3.2735402325 4.0600373538 3.0387119016 

Total_Motion 1 1116 double
0 0 0 0 0 0 0 0 0 
0 0 0 0 0 0 0 0 0 
0 0 0 0 0 0 0 0 0 
0 0 0 0 0 0 0 0 0 
0 0 0 0 0 0 0 0 0 
0 0 0 0 0 0 0 0 0 
0 0 0 0 0 0 0 0 0 
0 0 0 0 0 0 0 0 0 
0 0 0 0 0 0 0 0 0 
0 0 0 0 0 0 0 0 0 
0 0 0 0 0 0 0 0 0 
0 0 0 0 0 0 0 0 0 
0 0 0 0 0 0 0 0 0 
0 0 0 0 0 0 0 0 0 
0 0 0 0 0 0 0 0 0 
0 0 0 0 0 0 0 0 0 
0 0 0 0 0 0 0 0 0 
0 0 0 0 0 0 0 0 0 
0 0 0 0 0 0 0 0 0 
0 0 0 0 0 0 0 0 0 
0 0 0 0 0 0 0 0 0 
0 0 0 0 0 0 0 0 0 
0 0 0 0 0 0 0 0 0 
0 0 0 0 0 0 0 0 0 
0 0 0 0 0 0 0 0 0 
0 0 0 0 0 0 0 0 0 
0 0 0 0 0 0 0 0 0 
0 0 0 0 0 0 0 0 0 
0 0 0 0 0 0 0 0 0 
0 0 0 0 0 0 0 0 0 
0 0 0 0 0 0 0 0 0 
0 0 0 0 0 0 0 0 0 
0 0 0 0 0 0 0 0 0 
0 0 0 0 0 0 0 0 0 
0 0 0 0 0 0 0 0 0 
0 0 0 0 0 0 0 0 0 
0 0 0 0 0 0 0 0 0 
0 0 0 0 0 0 0 0 0 
0 0 0 0 0 0 0 0 0 
0 0 0 0 0 0 0 0 0 
0 0 0 0 0 0 0 0 0 
0 0 0 0 0 0 0 0 0 
0 0 0 0 0 0 0 0 0 
0 0 0 0 0 0 0 0 0 
0 0 0 0 0 0 0 0 0 
0 0 0 0 0 0 0 0 0 
0 0 0 0 0 0 0 0 0 
0 0 0 0 0 0 0 0 0 
0 0 0 0 0 0 0 0 0 
0 0 0 0 0 0 0 0 0 
0 0 0 0 0 0 0 0 0 
0 0 0 0 0 0 0 0 0 
0 0 0 0 0 0 0 0 0 
0 0 0 0 0 0 0 0 0 
0 0 0 0 0 0 0 0 0 
0 0 0 0 0 0 0 0 0 
0 0 0 0 0 0 0 0 0 
0 0 0 0 0 0 0 0 0 
0 0 0 0 0 0 0 0 0 
0 0 0 0 0 0 0 0 0 
0 0 0 0 0 0 0 0 0 
0 0 0 0 0 0 0 0 0 
0 0 0 0 0 0 0 0 0 
0 0 0 0 0 0 0 0 0 
0 0 0 0 0 0 0 0 0 
0 0 0 0 0 0 0 0 0 
0 0 0 0 0 0 0 0 0 
0 0 0 0 0 0 0 0 0 
0 0 0 0 0 0 0 0 0 
0 0 0 0 0 0 0 0 0 
0 0 0 0 0 0 0 0 0 
0 0 0 0 0 0 0 0 0 
0 0 0 0 0 0 0 0 0 
0 0 0 0 0 0 0 0 0 
0 0 0 0 0 0 0 0 0 
0 0 0 0 0 0 0 0 0 
0 0 0 0 0 0 0 0 0 
0 0 0 0 0 0 0 0 0 
0 0 0 0 0 0 0 0 0 
0 0 0 0 0 0 0 0 0 
0 0 0 0 0 0 0 0 0 
0 0 0 0 0 0 0 0 0 
0 0 0 0 0 0 0 0 0 
0 0 0 0 0 0 0 0 0 
0 0 0 0 0 0 0 0 0 
0 0 0 0 0 0 0 0 0 
0 0 0 0 0 0 0 0 0 
0 0 0 0 0 0 0 0 0 
0 0 0 0 0 0 0 0 0 
0 0 0 0 0 0 0 0 0 
0 0 0 0 0 0 0 0 0 
0 0 0 0 0 0 0 0 0 
0 0 0 0 0 0 0 0 0 
0 0 0 0 0 0 0 0 0 
0 0 0 0 0 0 0 0 0 
0 0 0 0 0 0 0 0 0 
0 0 0 0 0 0 0 0 0 
0 0 0 0 0 0 0 0 0 
0 0 0 0 0 0 0 0 0 
0 0 0 0 0 0 0 0 0 
0 0 0 0 0 0 0 0 0 
0 0 0 0 0 0 0 0 0 
0 0 0 0 0 0 0 0 0 
0 0 0 0 0 0 0 0 0 
0 0 0 0 0 0 0 0 0 
0 0 0 0 0 0 0 0 0 
0 0 0 0 0 0 0 0 0 
0 0 0 0 0 0 0 0 0 
0 0 0 0 0 0 0 0 0 
0 0 0 0 0 0 0 0 0 
0 0 0 0 0 0 0 0 0 
0 0 0 0 0 0 0 0 0 
0 0 0 0 0 0 0 0 0 
0 0 0 0 0 0 0 0 0 
0 0 0 0 0 0 0 0 0 
0 0 0 0 0 0 0 0 0 
0 0 0 0 0 0 0 0 0 
0 0 0 0 0 0 0 0 0 
0 0 0 0 0 0 0 0 0 
0 0 0 0 0 0 0 0 0 
0 0 0 0 0 0 0 0 0 
0 0 0 0 0 0 0 0 0 
0 0 0 0 0 0 0 0 0 
0 0 0 0 0 0 0 0 0 

VAJ 1 1116 double
1 1 0 0 1 0 1 0 1 
0 1 0 1 0 1 0 1 0 
1 0 1 0 1 0 1 0 1 
0 1 0 1 0 1 0 1 0 
1 0 1 0 1 0 1 0 1 
0 1 0 1 0 1 0 1 0 
1 0 1 0 1 0 1 0 1 
0 1 0 1 0 1 0 1 0 
1 0 1 0 1 0 1 0 1 
0 1 0 1.0000004533 0 1.0000009635 0 1.0000013758 0 
1.0000010013 0 1.0000003375 0 1 0 1 0 1 
0 1 0 1 0 1 0 1 0 
1 0 1 0 0 0 0 0 0 
0 0 0 0 0 0 0 0 0 
0 0 0 0 0 0 0 0 0 
0 0 0 0 0 0 0 0 0 
0 0 0 0 0 0 0 0 0 
0 0 0 0 0 0 0 0 0 
0 0 0 0 0 0 0 0 0 
0 0 0 0 0 0 0 0 0 
0 0 0 0 0 0 0 0 0 
0 0 0 0 0 0 0 0 0 
0 0 0 0 0 0 0 0 0 
0 0 0 0 0 0 0 0 0 
0 0 0 0 0 0 0 0 0 
0 0 0 0 0 0 0 0 0 
0 0 0 0 0 0 0 0 0 
0 0 0 0 0 0 0 0 0 
0 0 0 0 0 0 0 0 0 
0 0 0 0 0 0 0 0 0 
0 0 0 0 0 0 0 0 0 
0 0 0 0 0 0 0 0 0 
0 0 0 0 0 0 0 0 0 
0 0 0 0 0 0 0 0 0 
0 0 0 0 0 0 0 0 0 
0 0 0 0 0 0 0 0 0 
0 0 0 0 0 0 0 0 0 
0 0 0 0 0 0 0 0 0 
0 0 0 0 0 0 0 0 0 
0 0 0 0 0 0 0 0 0 
0 0 0 0 0 0 0 0 0 
0 0 0 0 0 0 0 0 0 
0 0 0 0 0 0 0 0 0 
0 0 0 0 0 0 0 0 0 
0 0 0 0 0 0 0 0 0 
0 0 0 0 0 0 0 0 0 
0 0 0 0 0 0 0 0 0 
0 0 0 0 0 0 0 0 0 
0 0 0 0 0 0 0 0 0 
0 0 0 0 0 0 0 0 0 
0 0 0 0 0 0 0 0 0 
0 0 0 0 0 0 0 0 0 
0 0 0 0 0 0 0 0 0 
0 0 0 0 0 0 0 0 0 
0 0 0 0 0 0 0 0 0 
0 0 0 0 0 0 0 0 0 
0 0 0 0 0 0 0 0 0 
0 0 0 0 0 0 0 0 0 
0 0 0 0 0 0 0 0 0 
0 0 0 0 0 0 0 0 0 
0 0 0 0 0 0 0 0 0 
0 0 0 0 0 0 0 0 0 
0 0 0 0 0 0 0 0 0 
0 0 0 0 0 0 0 0 0 
0 0 0 0 0 0 0 0 0 
0 0 0 0 0 0 0 0 0 
0 0 0 0 0 0 0 0 0 
0 0 0 0 0 0 0 0 0 
0 0 0 0 0 0 0 0 0 
0 0 0 0 0 0 0 0 0 
0 0 0 0 0 0 0 0 0 
0 0 0 0 0 0 0 0 0 
0 0 0 0 0 0 0 0 0 
0 0 0 0 0 0 0 0 0 
0 0 0 0 0 0 0 0 0 
0 0 0 0 0 0 0 0 0 
0 0 0 0 0 0 0 0 0 
0 0 0 0 0 0 0 0 0 
0 0 0 0 0 0 0 0 0 
0 0 0 0 0 0 0 0 0 
0 0 0 0 0 0 0 0 0 
0 0 0 0 0 0 0 0 0 
0 0 0 0 0 0 0 0 0 
0 0 0 0 0 0 0 0 0 
0 0 0 0 0 0 0 0 0 
0 0 0 0 0 0 0 0 0 
0 0 0 0 0 0 0 0 0 
0 0 0 0 0 0 0 0 0 
0 0 0 0 0 0 0 0 0 
0 0 0 0 0 0 0 0 0 
0 0 0 0 0 0 0 0 0 
0 0 0 0 0 0 0 0 0 
0 0 0 0 0 0 0 0 0 
0 0 0 0 0 0 0 0 0 
0 0 0 0 0 0 0 0 0 
0 0 0 0 0 0 0 0 0 
0 0 0 0 0 0 0 0 0 
0 0 0 0 0 0 0 0 0 
0 0 0 0 0 0 0 0 0 
0 0 0 0 0 0 0 0 0 
0 0 0 0 0 0 0 0 0 
0 0 0 0 0 0 0 0 0 
0 0 0 0 0 0 0 0 0 
0 0 0 0 0 0 0 0 0 
0 0 0 0 0 0 0 0 0 
0 0 0 0 0 0 0 0 0 
0 0 0 0 0 0 0 0 0 
0 0 0 0 0 0 0 0 0 
0 0 0 0 0 0 0 0 0 
0 0 0 0 0 0 0 0 0 
0 0 0 0 0 0 0 0 0 
0 0 0 0 0 0 0 0 0 
0 0 0 0 0 0 0 0 0 
0 0 0 0 0 0 0 0 0 
0 0 0 0 0 0 0 0 0 
0 0 0 0 0 0 0 0 0 
0 0 0 0 0 0 0 0 0 
0 0 0 0 0 0 0 0 0 
0 0 0 0 0 0 0 0 0 
0 0 0 0 0 0 0 0 0 
0 0 0 0 0 0 0 0 0 
0 0 0 0 0 0 0 0 0 
0 0 0 0 0 0 0 0 0 
0 0 0 0 0 0 0 0 0 

vtkValidPointMask 1 1116 char
1 1 1 1 1 1 1 1 1 
1 1 1 1 1 1 1 1 1 
1 1 1 1 1 1 1 1 1 
1 1 1 1 1 1 1 1 1 
1 1 1 1 1 1 1 1 1 
1 1 1 1 1 1 1 1 1 
1 1 1 1 1 1 1 1 1 
1 1 1 1 1 1 1 1 1 
1 1 1 1 1 1 1 1 1 
1 1 1 1 1 1 1 1 1 
1 1 1 1 1 1 1 1 1 
1 1 1 1 1 1 1 1 1 
1 1 1 1 1 1 1 1 1 
1 1 1 1 1 1 1 1 1 
1 1 1 1 1 1 1 1 1 
1 1 1 1 1 1 1 1 1 
1 1 1 1 1 1 1 1 1 
1 1 1 1 1 1 1 1 1 
1 1 1 1 1 1 1 1 1 
1 1 1 1 1 1 1 1 1 
1 1 1 1 1 1 1 1 1 
1 1 1 1 1 1 1 1 1 
1 1 1 1 1 1 1 1 1 
1 1 1 1 1 1 1 1 1 
1 1 1 1 1 1 1 1 1 
1 1 1 1 1 1 1 1 1 
1 1 1 1 1 1 1 1 1 
1 1 1 1 1 1 1 1 1 
1 1 1 1 1 1 1 1 1 
1 1 1 1 1 1 1 1 1 
1 1 1 1 1 1 1 1 1 
1 1 1 1 1 1 1 1 1 
1 1 1 1 1 1 1 1 1 
1 1 1 1 1 1 1 1 1 
1 1 1 1 1 1 1 1 1 
1 1 1 1 1 1 1 1 1 
1 1 1 1 1 1 1 1 1 
1 1 1 1 1 1 1 1 1 
1 1 1 1 1 1 1 1 1 
1 1 1 1 1 1 1 1 1 
1 1 1 1 1 1 1 1 1 
1 1 1 1 1 1 1 1 1 
1 1 1 1 1 1 1 1 1 
1 1 1 1 1 1 1 1 1 
1 1 1 1 1 1 1 1 1 
1 1 1 1 1 1 1 1 1 
1 1 1 1 1 1 1 1 1 
1 1 1 1 1 1 1 1 1 
1 1 1 1 1 1 1 1 1 
1 1 1 1 1 1 1 1 1 
1 1 1 1 1 1 1 1 1 
1 1 1 1 1 1 1 1 1 
1 1 1 1 1 1 1 1 1 
1 1 1 1 1 1 1 1 1 
1 1 1 1 1 1 1 1 1 
1 1 1 1 1 1 1 1 1 
1 1 1 1 1 1 1 1 1 
1 1 1 1 1 1 1 1 1 
1 1 1 1 1 1 1 1 1 
1 1 1 1 1 1 1 1 1 
1 1 1 1 1 1 1 1 1 
1 1 1 1 1 1 1 1 1 
1 1 1 1 1 1 1 1 1 
1 1 1 1 1 1 1 1 1 
1 1 1 1 1 1 1 1 1 
1 1 1 1 1 1 1 1 1 
1 1 1 1 1 1 1 1 1 
1 1 1 1 1 1 1 1 1 
1 1 1 1 1 1 1 1 1 
1 1 1 1 1 1 1 1 1 
1 1 1 1 1 1 1 1 1 
1 1 1 1 1 1 1 1 1 
1 1 1 1 1 1 1 1 1 
1 1 1 1 1 1 1 1 1 
1 1 1 1 1 1 1 1 1 
1 1 1 1 1 1 1 1 1 
1 1 1 1 1 1 1 1 1 
1 1 1 1 1 1 1 1 1 
1 1 1 1 1 1 1 1 1 
1 1 1 1 1 1 1 1 1 
1 1 1 1 1 1 1 1 1 
1 1 1 1 1 1 1 1 1 
1 1 1 1 1 1 1 1 1 
1 1 1 1 1 1 1 1 1 
1 1 1 1 1 1 1 1 1 
1 1 1 1 1 1 1 1 1 
1 1 1 1 1 1 1 1 1 
1 1 1 1 1 1 1 1 1 
1 1 1 1 1 1 1 1 1 
1 1 1 1 1 1 1 1 1 
1 1 1 1 1 1 1 1 1 
1 1 1 1 1 1 1 1 1 
1 1 1 1 1 1 1 1 1 
1 1 1 1 1 1 1 1 1 
1 1 1 1 1 1 1 1 1 
1 1 1 1 1 1 1 1 1 
1 1 1 1 1 1 1 1 1 
1 1 1 1 1 1 1 1 1 
1 1 1 1 1 1 1 1 1 
1 1 1 1 1 1 1 1 1 
1 1 1 1 1 1 1 1 1 
1 1 1 1 1 1 1 1 1 
1 1 1 1 1 1 1 1 1 
1 1 1 1 1 1 1 1 1 
1 1 1 1 1 1 1 1 1 
1 1 1 1 1 1 1 1 1 
1 1 1 1 1 1 1 1 1 
1 1 1 1 1 1 1 1 1 
1 1 1 1 1 1 1 1 1 
1 1 1 1 1 1 1 1 1 
1 1 1 1 1 1 1 1 1 
1 1 1 1 1 1 1 1 1 
1 1 1 1 1 1 1 1 1 
1 1 1 1 1 1 1 1 1 
1 1 1 1 1 1 1 1 1 
1 1 1 1 1 1 1 1 1 
1 1 1 1 1 1 1 1 1 
1 1 1 1 1 1 1 1 1 
1 1 1 1 1 1 1 1 1 
1 1 1 1 1 1 1 1 1 
1 1 1 1 1 1 1 1 1 
1 1 1 1 1 1 1 1 1 
1 1 1 1 1 1 1 1 1 
1 1 1 1 1 1 1 1 1 

Stress_X_Pt 1 1116 double
-6.1849365011e-05 -4.5536313337e-05 -3.760779191e-05 -4.8024738135e-05 -2.3549501748e-05 -2.0006872319e-05 -9.4783173381e-06 -6.4248130798e-06 1.045310114e-06 
3.4615031268e-06 7.8779332853e-06 9.8338026646e-06 1.4886410554e-05 1.4833156911e-05 2.3231193154e-05 2.25169847e-05 2.6452487873e-05 2.8576464956e-05 
2.2316507966e-05 2.6268994588e-05 1.7982549252e-05 2.1367996396e-05 1.6307015358e-05 1.9102544684e-05 1.5262804027e-05 1.9083926645e-05 1.8391963295e-05 
2.3174303124e-05 2.2859858291e-05 2.8018236662e-05 1.8477122467e-05 2.5867900604e-05 8.760755918e-06 1.7774409116e-05 -2.3426991902e-08 8.0259090964e-06 
-6.7539178872e-06 -7.8345784971e-07 -8.6481300059e-06 -5.5948869573e-06 -5.193832294e-06 -5.0099706641e-06 -2.3051177322e-07 -1.12411103e-06 5.2182728041e-06 
3.5112894707e-06 1.2538920146e-05 1.001759108e-05 1.8101341084e-05 1.5518647388e-05 2.0664034309e-05 1.7732204014e-05 2.1078470127e-05 1.6587483969e-05 
1.5843979781e-05 9.8300936315e-06 7.8819562077e-06 1.5092150534e-06 2.0223660613e-07 -5.3824580846e-06 -8.6521740741e-06 -1.1635358987e-05 -1.5451768377e-05 
-1.5652773072e-05 -1.9093752599e-05 -1.7520514575e-05 -2.1741750061e-05 -1.7521859945e-05 -1.9882787456e-05 -1.2716375529e-05 -1.2687827166e-05 -4.7337592903e-06 
-6.7262330958e-06 1.4778412378e-06 -2.6382421794e-06 7.1111903921e-06 4.2991719482e-06 1.6483431203e-05 1.5503869236e-05 2.9850161127e-05 3.4037376281e-05 
4.7791294037e-05 5.5282687754e-05 6.4863527768e-05 6.6102031269e-05 6.9877965871e-05 6.5472504502e-05 6.5030839323e-05 6.5643260314e-05 6.0218197177e-05 
6.8160716182e-05 5.676019191e-05 6.320803368e-05 5.0670017117e-05 4.9616932301e-05 4.1959152441e-05 3.3828376218e-05 3.2845432088e-05 2.4277299417e-05 
2.7634761409e-05 2.2667765734e-05 2.7937222512e-05 2.2965534299e-05 2.9440616345e-05 1.7358029254e-05 2.5313554033e-05 3.3562037061e-07 9.0819495426e-06 
-2.2836242806e-05 -1.3684722376e-05 -4.8893329222e-05 -3.6584990539e-05 5.1058566896e-05 3.3614046515e-05 3.45679764e-05 4.9603514526e-05 1.4877708509e-05 
1.9201582518e-05 1.9454505491e-06 9.363914387e-06 -1.0437157471e-05 -2.2460020546e-06 -2.1874076992e-05 -1.4937165247e-05 -3.1394301004e-05 -2.497828109e-05 
-3.6432613342e-05 -3.0469590001e-05 -3.6388633816e-05 -3.0159390917e-05 -3.2340602047e-05 -2.5373386052e-05 -2.4452368052e-05 -1.7155632577e-05 -1.5843693291e-05 
-8.1825523353e-06 -7.0334697284e-06 -9.4103353376e-07 1.9503654585e-06 5.5967354911e-06 1.0823520142e-05 1.2212715887e-05 2.1768671104e-05 2.0481952561e-05 
3.4329499613e-05 3.0170066111e-05 4.8236515795e-05 4.1385966597e-05 5.4996156905e-05 4.9582116844e-05 4.6493776608e-05 4.6770854169e-05 3.6409996028e-05 
4.0148643166e-05 2.9532918234e-05 3.4631103972e-05 1.9049208731e-05 2.5127380695e-05 7.3099061524e-06 1.2392723562e-05 4.0907252696e-07 3.8416341113e-06 
4.5690505317e-06 6.3778349784e-06 1.2091730241e-05 1.3773996216e-05 1.4527834537e-05 1.7794799533e-05 1.3693548681e-05 1.6376383428e-05 7.2826323958e-06 
1.0002387626e-05 2.9224604532e-06 5.2144284837e-06 3.2357602322e-06 4.3982551006e-06 1.0130548844e-05 9.8635115364e-06 2.1760321033e-05 2.0265317744e-05 
3.0743662137e-05 2.8275554996e-05 3.651386578e-05 3.377068515e-05 3.8680120269e-05 3.7488010094e-05 3.7782547224e-05 3.7511417759e-05 3.660758739e-05 
3.615096557e-05 3.5898374335e-05 3.3881594391e-05 3.2108691812e-05 2.8006430512e-05 2.7900586247e-05 2.2628391434e-05 2.4145154384e-05 2.0473425138e-05 
2.1105262931e-05 1.92082166e-05 1.600323958e-05 1.6060395183e-05 8.8407896328e-06 9.7714831782e-06 1.1999300114e-06 1.5148672219e-06 -8.7173216343e-06 
-6.3743240162e-06 -1.7694751023e-05 -1.2378640008e-05 -2.3551389859e-05 -1.591516866e-05 -2.1812155865e-05 -1.1476387613e-05 -6.8967561901e-06 4.5261847958e-06 
1.6299693357e-05 2.8720931539e-05 4.0874248043e-05 5.4943344821e-05 7.0040241553e-05 8.0343705122e-05 8.6529569671e-05 8.5009205577e-05 7.4635194323e-05 
6.6394470196e-05 6.0026655774e-05 5.5181201787e-05 -1.2696541603e-05 -2.2993591983e-05 -1.0229701957e-06 7.6815344983e-06 1.2699367971e-05 1.5163044736e-05 
2.0867312287e-05 2.8640021355e-05 2.9468374123e-05 2.551007492e-05 2.3587506803e-05 2.487769234e-05 3.0273519769e-05 3.6131716115e-05 3.7083615098e-05 
3.1799218959e-05 2.1949777874e-05 1.1701782668e-05 3.8152975179e-06 2.7886960652e-07 1.7740308422e-06 5.0751261654e-06 7.2486336649e-06 1.1042850019e-05 
1.2037598253e-05 8.6110517827e-06 1.4009445408e-06 -5.9399769725e-06 -1.1249424915e-05 -1.3633894241e-05 -1.3102280946e-05 -1.1115065604e-05 -6.9899685968e-06 
1.1548614722e-06 1.0126317981e-05 1.7069687033e-05 2.4909545118e-05 3.6559145428e-05 5.1014591008e-05 6.5358863139e-05 7.400938739e-05 7.1355907494e-05 
6.187715644e-05 4.8694744328e-05 3.9839297187e-05 3.2895053209e-05 2.9907625503e-05 2.8998822472e-05 2.9864919725e-05 3.2369277505e-05 3.5053806641e-05 
3.4516893265e-05 2.254028675e-05 3.155323725e-06 -1.4779785715e-05 -2.4975118777e-05 2.4300312816e-05 3.3174010696e-05 1.922095089e-05 9.8619001392e-06 
-3.0518904168e-06 -1.3702726278e-05 -1.9822303329e-05 -1.9526182996e-05 -1.2756727884e-05 -3.1755170227e-06 4.6024600238e-06 8.5286297349e-06 1.1613277138e-05 
1.462497994e-05 1.7972190108e-05 2.2728332624e-05 2.9236636237e-05 3.742558647e-05 4.222438838e-05 4.2708178626e-05 4.0779330448e-05 3.421448946e-05 
2.128779056e-05 1.0259980968e-05 1.1144899531e-05 1.9087536657e-05 2.4588938231e-05 2.2986895146e-05 1.6725075966e-05 1.1434096109e-05 8.9323003749e-06 
1.1716545941e-05 1.9641789095e-05 2.6329211323e-05 3.1732461139e-05 3.6074862692e-05 3.6078622543e-05 3.3522378089e-05 2.906895179e-05 2.1614286652e-05 
1.5825046148e-05 1.5626329287e-05 1.7157406091e-05 1.6928838932e-05 1.2050883356e-05 4.6620291414e-06 6.0178774675e-07 -1.8810323468e-06 -2.1813708031e-06 
6.1102841755e-06 2.3234256446e-05 4.6530396503e-05 6.7481064434e-05 7.7255701399e-05 6.7425115958e-05 4.9668756219e-05 4.4827211241e-05 4.2899471737e-05 
4.0735676521e-06 -5.3901670753e-06 1.1356420714e-05 1.4760742715e-05 1.6141839069e-05 1.9103800696e-05 2.3955979941e-05 2.5608610486e-05 2.4215788471e-05 
2.4177943942e-05 2.6421254915e-05 3.2474728414e-05 4.0438333599e-05 4.3922818804e-05 4.0637019993e-05 3.2644565636e-05 2.3909004085e-05 1.6977404812e-05 
1.2343954836e-05 1.1394234207e-05 1.2532778896e-05 6.0927910113e-06 6.4830638848e-06 5.3419915105e-06 2.3906905824e-06 -1.9201840473e-06 -6.3289741661e-06 
-9.5618443083e-06 -9.117377715e-06 -5.3979243262e-06 -2.9198793072e-07 6.1566149725e-06 1.4797145354e-05 2.3663815227e-05 3.2039641155e-05 4.1158211388e-05 
5.1374566283e-05 6.2407044425e-05 7.1416528954e-05 7.3994731792e-05 6.8392797402e-05 5.8463254391e-05 4.7549810006e-05 2.2082550458e-05 2.7520027288e-05 
2.2072629235e-05 2.5858244044e-05 3.0423454518e-05 3.3795417039e-05 3.5927967474e-05 3.6956172153e-05 3.1975663205e-05 1.9315807322e-05 2.8229351869e-06 
-1.0615309463e-05 -1.2789334278e-05 8.4506305029e-06 1.3361532183e-05 3.3401682686e-05 3.640646446e-05 2.2275545234e-05 2.4268421384e-05 1.6487003222e-05 
6.7606740686e-06 -2.5923574789e-06 -8.0874002073e-06 -8.3732382166e-06 -1.7788404847e-06 9.184329528e-06 1.5311039306e-05 1.5699771666e-05 1.6272071889e-05 
1.6803538074e-05 1.6149141402e-05 1.6523926888e-05 1.9186366899e-05 2.4364411365e-05 3.396457214e-05 3.9362686948e-05 4.1384460928e-05 3.8421857425e-05 
2.746038308e-05 1.6497649995e-05 1.7560430479e-05 2.5361024655e-05 3.0508948839e-05 2.9978069051e-05 2.4528906124e-05 1.9278067612e-05 1.6196684555e-05 
1.7484891487e-05 2.3117637284e-05 2.8273785119e-05 3.2532174373e-05 3.4239677916e-05 3.181547163e-05 2.8316605039e-05 2.3926921585e-05 1.7990369088e-05 
1.4030483271e-05 1.4629736597e-05 1.739942627e-05 1.8511640974e-05 1.529014321e-05 1.1363871977e-05 1.0130801229e-05 8.6894226001e-06 9.9396003748e-06 
1.95113563e-05 3.6229287161e-05 5.3598857448e-05 6.1027843913e-05 5.3993001529e-05 4.0798295231e-05 3.3795133277e-05 3.429755634e-05 3.3576149235e-05 
2.834362067e-05 2.1807333042e-05 2.5372932214e-05 1.606615956e-05 1.2805988945e-05 1.6591827489e-05 2.5160571113e-05 3.3421785702e-05 3.8249923819e-05 
3.9166809984e-05 3.9016822484e-05 3.8501931158e-05 3.4288147162e-05 1.8255622308e-05 -3.4777921201e-06 -5.7787188723e-06 1.4241418569e-06 8.6459715476e-06 
1.4642363112e-05 1.7417583649e-05 1.7501378807e-05 1.8039006136e-05 1.9285056624e-05 1.9737923139e-05 1.9806725049e-05 2.1002576887e-05 2.4449499961e-05 
3.1010084967e-05 4.0535669541e-05 4.7445233577e-05 4.7075134717e-05 4.1407322897e-05 3.421861993e-05 2.8543932331e-05 2.4065105663e-05 2.1110983653e-05 
2.0643120934e-05 1.9765213437e-05 1.2919527762e-05 1.7624153543e-05 8.5112967554e-06 3.7350833395e-06 5.5065066817e-07 -7.1976842264e-09 -7.6354677958e-07 
-2.7982384267e-06 -4.9673375884e-06 -5.0961515115e-06 -1.584830585e-06 4.7798410492e-06 1.2263954886e-05 2.0173785515e-05 2.8139949791e-05 3.5647216464e-05 
4.4997978875e-05 5.5043996326e-05 6.2837733822e-05 6.931547432e-05 7.3637747846e-05 7.2946588261e-05 6.6525461079e-05 5.7029505115e-05 4.7524500587e-05 
3.7386586882e-05 2.6012597573e-05 1.406963429e-05 1.5146927353e-05 1.3738439217e-05 2.0286913241e-05 2.245788346e-05 1.5237461753e-05 1.0008650118e-05 
7.1667604367e-06 6.8921817444e-06 1.0580117163e-05 1.9020199488e-05 2.4032773581e-05 2.2419135348e-05 2.0322042019e-05 1.8595952497e-05 1.5028156213e-05 
1.2311264072e-05 1.2122168982e-05 1.3282955706e-05 3.4933461848e-05 2.8707917409e-05 3.9100527829e-05 3.8974026211e-05 3.1241549095e-05 2.2982405881e-05 
2.4438780201e-05 3.0649175642e-05 3.5029251194e-05 3.5238676901e-05 3.141221714e-05 2.7181505175e-05 2.4528927952e-05 2.5353088404e-05 2.8818796636e-05 
3.1069745091e-05 3.1700206819e-05 2.926701336e-05 2.5363498935e-05 2.2962798084e-05 1.9698280084e-05 1.5905153532e-05 1.4022154346e-05 1.5324788819e-05 
1.8563137019e-05 2.0425915409e-05 1.9630526594e-05 1.9520149408e-05 2.0603618395e-05 2.0494949013e-05 2.2374999162e-05 3.1021237646e-05 4.5325006795e-05 
5.5321447689e-05 5.2969901844e-05 4.0200330204e-05 2.6123957468e-05 2.2233868094e-05 2.5520135296e-05 2.5847720735e-05 2.2924909899e-05 2.1856839794e-05 
2.1567461772e-05 1.4574540273e-05 8.8644402467e-06 7.7043640658e-06 1.3200559806e-05 2.3621980745e-05 3.4399826745e-05 4.077632002e-05 4.1807337766e-05 
4.089443064e-05 4.0892733523e-05 4.2890585064e-05 4.0398235797e-05 2.0100145264e-06 1.3369864291e-06 7.4283309743e-06 1.2202163589e-05 1.7446616084e-05 
1.9707699266e-05 1.9145927126e-05 1.8019315576e-05 1.6807533029e-05 1.6043537107e-05 1.6013703316e-05 1.6935161057e-05 2.1104714051e-05 2.8326576285e-05 
3.7088736462e-05 4.6127781388e-05 5.0331978855e-05 4.7955206355e-05 4.2863586714e-05 3.5574913454e-05 3.0385728223e-05 2.642193734e-05 2.6687364425e-05 
2.585745051e-05 2.2964899472e-05 1.40992654e-05 1.9048617105e-05 9.1504051625e-06 4.1366000119e-06 2.5068175091e-07 -2.3209964297e-06 -1.619230261e-06 
-1.8352884581e-06 -3.3913824495e-06 -2.9503515222e-06 3.4346928857e-07 6.4936475894e-06 1.5053571246e-05 2.4757904384e-05 3.3770956634e-05 3.9702025788e-05 
4.3818301492e-05 5.2252450587e-05 6.2669563704e-05 6.8628613008e-05 7.110117258e-05 7.0717163908e-05 6.6807576331e-05 6.1060224652e-05 5.578951459e-05 
4.8271167543e-05 3.7902999793e-05 2.6417218578e-05 1.6196476054e-05 7.2870719805e-06 8.3687122014e-06 6.5859517235e-06 1.3037720294e-05 3.2240344808e-05 
1.9143333702e-05 1.4727630514e-05 2.5738348995e-05 3.0946900097e-05 3.5383038266e-05 3.7386612348e-05 3.3335385524e-05 2.8648245916e-05 3.0905745461e-05 
3.5651532926e-05 3.8873437006e-05 3.9199875573e-05 3.6738756535e-05 3.4398251955e-05 3.4474565473e-05 3.3178688682e-05 3.3847263694e-05 3.2535822811e-05 
2.8652146284e-05 2.2911208362e-05 1.9948215595e-05 1.8946730961e-05 1.6404418147e-05 1.4809411141e-05 1.4634004401e-05 1.6338012074e-05 2.0015475911e-05 
2.3398539724e-05 2.567959109e-05 2.8985451991e-05 3.2371922316e-05 3.3639620597e-05 3.5132472931e-05 4.0866264499e-05 5.0667180403e-05 5.5571968915e-05 
4.9220278015e-05 3.5304222365e-05 2.06079485e-05 1.5087339079e-05 1.7932735091e-05 1.8855105509e-05 1.7272434434e-05 1.8700905684e-05 2.1461496544e-05 
2.1934646156e-05 2.1159912649e-05 2.0887836854e-05 2.1926529371e-05 2.2882079065e-05 2.4340224627e-05 2.7389541629e-05 2.908831857e-05 2.6587554203e-05 
2.2915434329e-05 1.9566666651e-05 1.5115978158e-05 1.1312189145e-05 9.2606733233e-06 9.1390486432e-06 1.0280211654e-05 1.2645244851e-05 1.5897317098e-05 
1.5276179056e-05 1.7949980247e-05 5.3007547649e-06 1.030775752e-05 2.0967200953e-05 3.2689431919e-05 4.0947231355e-05 4.386420369e-05 4.313529098e-05 
4.2619133637e-05 4.4753106522e-05 4.7375026952e-05 4.4687001719e-05 2.8957977065e-05 4.0561990318e-05 1.441718166e-05 8.1263261222e-06 9.8882671296e-06 
1.3007764665e-05 1.6813022285e-05 1.9857624162e-05 2.1110580747e-05 2.0781539661e-05 1.9130912733e-05 1.6877842882e-05 1.5853468994e-05 1.3861667185e-05 
1.3666197447e-05 1.7937503571e-05 2.672986966e-05 3.4219471369e-05 4.0162082587e-05 4.9616266551e-05 5.114209398e-05 4.9860595936e-05 3.2039564758e-05 
3.7618642637e-05 1.4939394077e-05 1.5747131783e-05 4.3627072955e-05 4.8536515351e-05 2.7781446533e-05 3.1219498851e-05 2.3290693662e-05 1.502109717e-05 
2.0251419301e-05 9.3312351055e-06 3.8136091973e-06 -8.4026615355e-07 -1.4567446414e-06 -3.1042658634e-06 -2.8588552397e-06 9.8090429645e-07 6.7300609956e-06 
1.4382005816e-05 2.416316056e-05 3.5294850477e-05 4.4228629122e-05 4.7080093282e-05 4.7995266868e-05 5.4824384279e-05 6.4601230406e-05 6.9172190706e-05 
6.8671040935e-05 6.4522825596e-05 5.4792550509e-05 5.0867774917e-05 3.8943872823e-05 2.754720299e-05 1.7718911522e-05 1.0074398347e-05 4.6171061854e-06 
6.5740706532e-06 4.1211644088e-06 2.2710192752e-05 2.7364709695e-05 3.1802162084e-05 3.5242995182e-05 3.4042470361e-05 3.2601588828e-05 3.604333051e-05 
3.9575183109e-05 4.1237446567e-05 4.1533805415e-05 4.0271585021e-05 3.9754553654e-05 4.1202752072e-05 3.6231173908e-05 3.8741195567e-05 3.1462597235e-05 
2.4264176318e-05 1.7904899323e-05 1.6153485149e-05 1.5504132534e-05 1.3916792568e-05 1.4075223362e-05 1.5088609189e-05 1.7204077267e-05 2.3141709244e-05 
2.9138303034e-05 3.4271001368e-05 3.9896814997e-05 4.4359094318e-05 4.5866804612e-05 4.6225763981e-05 4.8299018999e-05 5.499992767e-05 5.5902800341e-05 
4.756798171e-05 3.2713837754e-05 1.7807403765e-05 1.0386874351e-05 1.0805032503e-05 1.1712488003e-05 1.1521816077e-05 1.52715686e-05 2.0285686787e-05 
2.3055352358e-05 2.4855851734e-05 2.773787719e-05 3.1444752949e-05 3.3702925521e-05 3.4295023397e-05 3.3978015381e-05 3.259272944e-05 2.8869719245e-05 
2.4432477403e-05 2.0443679205e-05 1.6288955521e-05 1.2511468412e-05 9.1577894636e-06 8.8593192231e-06 1.0093062883e-05 1.1090109638e-05 1.3721001778e-05 
1.7713845409e-05 1.6232242615e-05 1.9550142497e-05 4.111956423e-05 4.4186249397e-05 2.1369949366e-07 -2.270690203e-06 6.2335922024e-06 9.7635265206e-07 
1.2933187236e-05 2.1427588308e-05 3.1602542549e-05 4.3009481487e-05 5.0940851906e-05 5.2449207578e-05 5.1779986279e-05 5.6784553635e-05 6.4103706791e-05 
6.7308339567e-05 6.5121585067e-05 5.9031483033e-05 5.0286363148e-05 3.9886452214e-05 4.0323286157e-05 8.0951895711e-06 1.8293399535e-05 3.0178079669e-05 
4.0227213503e-05 4.5110255996e-05 4.5632375986e-05 4.4659363994e-05 4.5129878345e-05 4.6112646487e-05 4.5406301069e-05 4.3336537601e-05 4.0677532525e-05 
4.2374958139e-05 3.1478363326e-05 2.0014271513e-05 1.5672423842e-05 1.6798514253e-05 1.9154674419e-05 2.1183986064e-05 2.2357415219e-05 2.0956251319e-05 
1.860387647e-05 1.6912791125e-05 1.6146915186e-05 1.5389075088e-05 1.5142262555e-05 1.4031967339e-05 1.2133136352e-05 1.3117244407e-05 1.7162956055e-05 
2.6822571272e-05 3.0504559163e-05 3.5838590702e-05 2.640709954e-05 1.1658907442e-05 1.9425875053e-05 4.4843096418e-06 2.4001376914e-05 2.8461325201e-05 
3.2288689454e-05 3.3077124499e-05 3.4204304029e-05 3.9145233131e-05 4.2335997023e-05 4.162724872e-05 4.1861841055e-05 4.3167178774e-05 4.4715956392e-05 
3.5914759792e-05 4.1069020881e-05 2.8518845284e-05 2.0547094664e-05 1.5203690509e-05 1.3141166164e-05 1.2044805771e-05 1.152825962e-05 1.3145432604e-05 
1.5759967937e-05 1.7661062278e-05 2.1474570985e-05 4.4506254198e-05 3.8251094793e-05 5.0523274695e-05 5.4631463172e-05 5.5530409554e-05 5.4353893574e-05 
5.3773388572e-05 5.5916999372e-05 4.383020223e-05 5.4672987972e-05 2.8739835216e-05 1.4825835478e-05 7.9897073419e-06 5.3397470232e-06 4.1356405269e-06 
5.8252739166e-06 3.2852808545e-05 2.9755589367e-05 -2.8894709914e-06 -3.2354448791e-06 6.0168088567e-05 6.0151262005e-05 2.366433182e-05 2.6888599223e-05 
3.0603982395e-05 3.5187184039e-05 3.8933812903e-05 4.040370186e-05 3.9431365622e-05 3.6298981286e-05 3.1226497413e-05 2.593338877e-05 2.1223094336e-05 
1.6997736111e-05 1.371778535e-05 9.852484709e-06 8.5352797517e-06 9.884723795e-06 1.1372504105e-05 1.3326170574e-05 1.7743409899e-05 4.7064428145e-05 
3.847307562e-05 5.1070592842e-05 5.0398753956e-05 4.8632709877e-05 4.5566393055e-05 4.4937963139e-05 4.2111255425e-05 1.8306738639e-05 2.525455011e-05 
1.4139468021e-05 1.0732052374e-05 8.5262994389e-06 9.0372288923e-06 1.1868284901e-05 1.8759252634e-05 2.8623366688e-05 4.04115126e-05 3.3573237033e-05 
2.7022160339e-05 2.1492650376e-05 1.702664963e-05 1.3769350971e-05 1.0612267261e-05 1.1515243023e-05 1.3313136378e-05 1.1869533409e-05 1.2090445125e-05 
1.4423783114e-05 1.8384998384e-05 2.7221233267e-05 2.0796792523e-05 2.5486224331e-05 2.920920133e-05 3.0368672014e-05 3.3315003748e-05 3.9299638047e-05 
4.1811303163e-05 2.3603519821e-05 2.3420834168e-05 2.0854220566e-05 1.8936765628e-05 3.4557975596e-05 2.5633709811e-05 2.2141112822e-05 2.3033215712e-05 
1.0891339116e-05 1.311636629e-05 1.6086795995e-05 1.9913948108e-05 2.7301018235e-05 3.6615593672e-05 4.5080566451e-05 4.3345570703e-05 4.2037525418e-05 
4.3068512241e-05 4.4788526793e-05 4.5712234169e-05 4.4263242671e-05 4.617202012e-05 7.9746809661e-06 1.7014032892e-05 2.8347438274e-05 3.9684658987e-05 
4.5076353672e-05 3.3327899473e-05 4.5894882836e-05 4.2463036152e-05 4.7666558203e-05 5.4032254411e-05 5.9064417655e-05 6.1874910898e-05 6.1479481701e-05 
5.8886875195e-05 5.733971193e-05 5.7462415498e-05 5.7752345128e-05 6.2005584368e-05 5.828639496e-05 5.898695872e-05 5.0149513299e-05 3.8437741296e-05 
2.5105179702e-05 1.1889092548e-05 5.0516431713e-06 4.6470697512e-07 -8.9145417448e-07 9.9760579531e-07 -2.2509356086e-06 1.0475154255e-06 5.55143383e-06 
1.0601620374e-05 1.8219245021e-05 2.7514120575e-05 3.783833472e-05 4.8371972298e-05 5.6368248806e-05 5.6384516938e-05 5.8918049035e-05 6.3196634073e-05 
6.4362028206e-05 6.0884511186e-05 5.4357909903e-05 4.8803425064e-05 6.3391536287e-06 6.4454958192e-05 6.3021627284e-05 5.9912270444e-05 5.845434589e-05 
5.8591075989e-05 3.3054959658e-05 4.3837013436e-05 2.2286899366e-05 1.4228873018e-05 3.6125700717e-05 3.0332911592e-05 2.3014306407e-05 2.6119748145e-05 
2.0529769245e-05 3.5278615542e-05 2.7316017167e-05 2.1168710646e-05 1.684612721e-05 1.3543472051e-05 5.619006879e-05 5.9559547177e-05 5.3611108342e-05 
4.4408646014e-05 4.0568809709e-05 2.2722730743e-05 1.7194174461e-05 1.176910655e-05 8.5472182339e-06 2.685030131e-05 2.3575825253e-05 4.5989506361e-05 

Stress_Y_Pt 1 1116 double
-4.2094101445e-05 -3.2087404179e-05 -3.9985593503e-06 -8.089151379e-06 -1.6788055746e-05 2.5277315672e-06 -7.1425499755e-06 7.0495667615e-06 -5.446323712e-07 
1.0920921511e-05 6.6694962015e-06 1.6633353255e-05 1.40928978e-05 2.3465403046e-05 2.2553943381e-05 3.4685294395e-05 3.6873816498e-05 5.0952979109e-05 
4.8112262448e-05 6.1599079345e-05 4.6435803597e-05 6.0933632085e-05 3.6238628127e-05 5.2639503792e-05 2.6042163881e-05 4.3057460971e-05 1.9428616724e-05 
3.5414288504e-05 1.2194015198e-05 2.8922970841e-05 4.8671754485e-06 2.5075127269e-05 2.7631597277e-06 2.6096156148e-05 6.0384920744e-06 2.9407755505e-05 
1.041777432e-05 3.2079909033e-05 1.5227059976e-05 3.4752653619e-05 2.1769556952e-05 3.8639147078e-05 2.8496398954e-05 4.2665589717e-05 3.3468470065e-05 
4.2670520997e-05 3.7270070607e-05 3.9681459384e-05 4.0165610699e-05 3.6170591102e-05 4.31726221e-05 3.5056892102e-05 4.4038341002e-05 3.5653723444e-05 
3.2945735256e-05 2.898025059e-05 1.431501164e-05 1.7295022076e-05 -1.2778839391e-06 8.4250067403e-06 -1.2840347154e-05 3.0536375561e-06 -1.8704205104e-05 
1.0362114153e-06 -2.1854164515e-05 1.5930891095e-07 -2.9326522963e-05 -2.5679078135e-06 -3.4482944102e-05 -4.1979646994e-06 -3.0585141758e-05 -2.2290596462e-06 
-2.7495255381e-05 4.624016583e-07 -2.7312162274e-05 4.1137373046e-06 -2.3875322768e-05 1.0952439425e-05 -1.501350016e-05 2.0695652893e-05 1.671075097e-06 
3.4242809534e-05 2.2635903861e-05 5.0285283351e-05 4.5318965931e-05 6.5817447648e-05 7.0401829362e-05 8.0757822616e-05 9.4302937214e-05 9.4345703474e-05 
0.00010905139425 0.0001037410766 0.00010772419046 0.00010517228475 8.9508328529e-05 9.6180794571e-05 6.2998997237e-05 7.8405108979e-05 4.1602965211e-05 
5.9291434809e-05 2.7046912692e-05 4.3401033054e-05 1.584517895e-05 3.0259305504e-05 7.6531298419e-06 2.0561721726e-05 -2.5668100534e-07 1.2943997831e-05 
-1.1122861451e-05 5.9910064465e-06 -3.0164905183e-05 -2.911654974e-06 3.1982228393e-05 2.7366665563e-05 2.528019786e-05 2.5175919973e-05 1.9749462808e-05 
2.3905744456e-05 1.3995183053e-05 2.415422955e-05 6.3173049512e-06 2.1295700321e-05 1.6097053788e-06 1.8171621278e-05 -1.8472146337e-06 1.595958112e-05 
-5.3721869335e-06 1.4557948816e-05 -6.4210680648e-06 1.6223461444e-05 -3.1513825292e-06 2.2685349116e-05 4.1276800999e-06 3.3527205353e-05 1.3622320694e-05 
4.5568138376e-05 2.4625633159e-05 5.4659843045e-05 3.5882456359e-05 6.1241275944e-05 4.78809161e-05 6.8358716817e-05 6.0592035879e-05 7.5730482422e-05 
7.4993109592e-05 8.1435153334e-05 8.4292198153e-05 8.0393334429e-05 7.5110208854e-05 6.748186388e-05 4.6565555749e-05 4.501244257e-05 1.8974773411e-05 
2.5500225547e-05 1.1081710909e-06 1.3821423181e-05 -1.5740863091e-05 3.7462600631e-06 -2.8867606488e-05 -4.6572076826e-06 -3.2962961996e-05 -8.1382063399e-06 
-2.8148187994e-05 -5.567277185e-06 -2.0694509658e-05 -7.0485748438e-07 -1.7183831005e-05 2.8675058275e-06 -2.0741855224e-05 2.7398950806e-06 -3.339925297e-05 
-2.8406407182e-06 -4.4262060328e-05 -9.0171179181e-06 -4.2122501327e-05 -9.6005505839e-06 -1.9018866567e-05 8.8646314111e-07 -5.1032238275e-06 1.1279331403e-05 
1.4352899598e-06 2.0024978767e-05 2.558705728e-05 3.7053115648e-05 5.0177586672e-05 5.5404744671e-05 6.5783944592e-05 6.7771774411e-05 6.738826778e-05 
7.1732289143e-05 5.9522508309e-05 6.9734368481e-05 5.3563959227e-05 6.6849746872e-05 5.2077401051e-05 6.5758418714e-05 4.7900502977e-05 6.4595178628e-05 
4.0607232222e-05 6.1233349697e-05 3.0793198675e-05 5.4343658121e-05 1.9494423668e-05 4.400784087e-05 9.0300457032e-06 3.2851358924e-05 -8.7777925728e-07 
2.4328324571e-05 -5.8951254687e-06 1.9908605736e-05 -6.4011071572e-06 1.712392816e-05 -6.1424586875e-06 1.4721920365e-05 -1.8583170345e-06 1.3882718946e-05 
4.6412265533e-06 1.3850499073e-05 9.0759972409e-06 1.161936143e-05 1.9618009446e-05 1.3710466419e-05 2.9404033739e-05 1.7299105309e-05 2.6478505788e-05 
1.3723819649e-05 2.6959412935e-05 1.6843207362e-05 2.1956942874e-05 2.163581712e-05 2.2859984711e-05 2.5149526664e-05 3.0117991628e-05 3.7624218749e-05 
5.15003685e-05 6.8310338975e-05 7.8386039604e-05 8.0000547314e-05 7.5960224422e-05 6.9298817834e-05 6.3592307015e-05 6.0714204665e-05 6.0915044742e-05 
6.2310380599e-05 6.1956693571e-05 6.0509989453e-05 5.9438343669e-05 5.9498787778e-05 5.90219488e-05 5.1187648205e-05 4.1749274715e-05 3.4169076116e-05 
2.9468107641e-05 2.6979252652e-05 2.2828739475e-05 1.8404483853e-05 1.6777295968e-05 1.7983855287e-05 2.0500200208e-05 2.2858151169e-05 2.5531738174e-05 
2.9413985885e-05 3.3206076751e-05 3.7122559206e-05 4.3241237108e-05 5.2268916079e-05 6.2723911469e-05 7.2863353125e-05 8.2101701992e-05 8.8095075625e-05 
9.0211557108e-05 9.0734040714e-05 9.8972805063e-05 0.00010373099394 0.00010349095646 9.4525206805e-05 7.8503939221e-05 6.0689540078e-05 4.4540184717e-05 
3.282893249e-05 2.4756558105e-05 2.0999532353e-05 2.0857462005e-05 2.1529128389e-05 2.7177082302e-05 2.2156662908e-05 3.3147719478e-05 3.4911973671e-05 
3.3727546906e-05 3.2902703424e-05 3.4300200241e-05 4.095694203e-05 5.4518559409e-05 7.2169823397e-05 8.7292193712e-05 9.3788396043e-05 9.4690336482e-05 
9.4303321021e-05 9.1851787147e-05 8.4978715677e-05 7.2632075899e-05 5.7893589656e-05 4.356871159e-05 3.2617147554e-05 2.6292932034e-05 2.2032805191e-05 
1.7445268668e-05 1.3651745121e-05 1.38408152e-05 1.6332769064e-05 1.9653646177e-05 2.3190983484e-05 2.5290004487e-05 2.5560964332e-05 2.486345511e-05 
2.6407000405e-05 3.4335456803e-05 4.4579494897e-05 5.460052671e-05 6.4807326453e-05 7.230193296e-05 7.8832279542e-05 8.4915936895e-05 8.8904293079e-05 
9.119520837e-05 9.3810484032e-05 9.563236199e-05 9.3004824521e-05 8.3189370343e-05 6.9342740062e-05 5.8125917349e-05 4.8981323744e-05 4.0266550059e-05 
3.3603583233e-05 2.7287521789e-05 2.0719111717e-05 1.2188225014e-05 7.7327011923e-06 1.0384820314e-05 8.7802816608e-06 1.0308828536e-05 1.8030166075e-05 
2.6896538657e-05 2.3686206532e-05 3.045608355e-05 3.5804794607e-05 4.438378437e-05 5.7835755797e-05 7.287508015e-05 8.2349166405e-05 8.5281781139e-05 
8.4684024841e-05 8.289843754e-05 8.3031729446e-05 8.512416025e-05 8.539875671e-05 8.1707214122e-05 7.6120946687e-05 7.219265899e-05 6.9947427619e-05 
6.7749495429e-05 6.365432273e-05 5.6259917983e-05 3.3096098832e-05 3.7602254451e-05 2.9131057545e-05 2.423361093e-05 1.8736104266e-05 1.5401057681e-05 
1.5092415197e-05 1.7828290311e-05 2.2157154945e-05 2.6481123314e-05 3.1163047424e-05 3.8340298033e-05 4.7385251492e-05 5.518495891e-05 6.1077799728e-05 
6.7188068897e-05 7.4844552728e-05 8.3047983935e-05 8.9069842943e-05 9.0144709247e-05 8.6879557784e-05 8.1565536675e-05 9.7969979834e-05 9.2103486168e-05 
9.7598893262e-05 9.0230509159e-05 7.720481517e-05 6.0899778873e-05 4.4854998123e-05 3.22398555e-05 2.2998025997e-05 1.9073629574e-05 1.8133050617e-05 
1.7216948436e-05 1.9536224499e-05 4.2138643039e-05 4.7578119847e-05 8.2817310613e-05 7.6881597124e-05 3.0124876957e-05 2.492745034e-05 3.1814375234e-05 
3.1792715163e-05 3.2536256185e-05 3.657704201e-05 4.6893777835e-05 6.4699248469e-05 8.741979218e-05 0.00010401123654 0.00010693989498 0.00010286180623 
9.7225458376e-05 8.8844151833e-05 7.7699893154e-05 6.5597328103e-05 5.181640081e-05 4.0901009925e-05 3.2371639463e-05 2.6035085284e-05 2.125361425e-05 
1.5790235238e-05 1.1256460766e-05 1.1363290241e-05 1.3643990087e-05 1.6808791088e-05 2.0731744826e-05 2.3118449008e-05 2.5245400138e-05 2.8013691917e-05 
3.4108003092e-05 4.3221109991e-05 5.1973793234e-05 6.1362768975e-05 6.9398241976e-05 7.5492343967e-05 8.3007176727e-05 9.1670544862e-05 9.9868400866e-05 
0.0001065409142 0.00011183037896 0.00011604057545 0.00011533910219 0.00010544778888 8.996609904e-05 7.39812549e-05 5.7956573073e-05 4.4014638661e-05 
3.4351049635e-05 2.6950961455e-05 1.8911137431e-05 9.8912208841e-06 7.3929667224e-06 1.5346529381e-05 1.757635664e-05 1.4119810203e-05 1.5937765511e-05 
1.9525688458e-05 7.6119365986e-05 7.5654088505e-05 7.956781883e-05 8.1908037828e-05 7.9991948951e-05 7.4103366387e-05 6.5758797064e-05 5.4959576119e-05 
4.2365651097e-05 3.1298402973e-05 2.2487769911e-05 1.825006666e-05 1.6438326202e-05 1.6804676761e-05 2.0159162432e-05 2.5772236768e-05 2.9778650514e-05 
3.3806974898e-05 3.9179529267e-05 4.7342370635e-05 5.9757365307e-05 7.2592334618e-05 8.0321437053e-05 8.362234621e-05 8.5201889306e-05 8.7367321612e-05 
9.1532234364e-05 9.5917917861e-05 9.5700264865e-05 9.011065049e-05 8.3982957221e-05 8.0691292169e-05 7.8362856584e-05 7.4159564974e-05 6.8011191615e-05 
6.1234510213e-05 5.3550297707e-05 3.9798950638e-05 4.5056010094e-05 3.464813426e-05 3.0001936011e-05 2.6823091957e-05 2.4575900625e-05 2.1450306122e-05 
1.7091957261e-05 1.4335003698e-05 1.5171955965e-05 1.9259088276e-05 2.5141553124e-05 3.163128531e-05 3.8607653551e-05 4.6928127631e-05 5.7091436247e-05 
6.7917259912e-05 7.5796875535e-05 7.9979463408e-05 8.35333758e-05 8.7866590547e-05 9.0974954219e-05 8.9591963842e-05 8.3921589976e-05 7.8787512393e-05 
7.6829943282e-05 7.8027072959e-05 7.65225941e-05 8.0145102402e-05 7.4759397345e-05 2.9456917673e-05 2.7287745979e-05 3.164418149e-05 3.6068128793e-05 
4.4073770368e-05 5.6876177041e-05 7.4975352618e-05 9.760800458e-05 0.00011351468311 0.00011246415124 0.00010272047257 9.2901822427e-05 8.2767790445e-05 
7.2970180554e-05 6.3113884607e-05 5.4353197811e-05 3.1735421089e-05 3.8150200453e-05 2.6526926831e-05 2.2277081371e-05 1.720437831e-05 1.3147877553e-05 
1.2895205145e-05 1.4038798327e-05 1.678740341e-05 2.0554084131e-05 2.2763701054e-05 2.5016349809e-05 2.8755152925e-05 3.6084014937e-05 4.4848026846e-05 
5.1991388318e-05 6.0528415815e-05 6.9037827416e-05 7.6180416727e-05 8.4187900939e-05 9.266521738e-05 0.00010139444203 0.00010994151853 0.00011741871822 
0.00012325103671 0.00012384271213 0.00011517165694 0.00010116138037 8.5625593783e-05 6.8482026109e-05 5.2444616813e-05 3.9543959247e-05 2.9937847103e-05 
1.9831672262e-05 9.3642150887e-06 7.1129021535e-06 1.4294436824e-05 1.7973667582e-05 1.4909039237e-05 1.4043292595e-05 1.7203165498e-05 2.2669246846e-05 
4.4243531192e-05 4.9573533033e-05 7.397776244e-05 7.104103679e-05 6.4899488279e-05 5.696207063e-05 5.0666479183e-05 4.4705222535e-05 3.6772019484e-05 
2.9267469472e-05 2.2674712454e-05 1.8164835637e-05 1.4936146499e-05 2.1320898213e-05 1.7305428628e-05 2.6277390589e-05 3.0081792374e-05 3.4750692066e-05 
4.0270202589e-05 4.7806047405e-05 5.829687143e-05 6.8094554081e-05 7.1817096614e-05 7.6575779531e-05 7.9989238657e-05 8.4672527009e-05 9.0129920864e-05 
9.4651928521e-05 9.5256973509e-05 9.1787353085e-05 8.844443073e-05 8.8164171029e-05 8.255415014e-05 7.5914518675e-05 7.0464940412e-05 6.647029295e-05 
5.9829345446e-05 5.1282728236e-05 3.6800850467e-05 4.2338390813e-05 3.207668442e-05 2.8237330298e-05 2.5310047325e-05 2.3024754228e-05 2.2158833417e-05 
2.0140514607e-05 1.6060415646e-05 1.3987370266e-05 1.6095802948e-05 2.0923328975e-05 2.7571903502e-05 3.5435450627e-05 4.4356541366e-05 5.26603053e-05 
6.0408703575e-05 7.0612653872e-05 7.9861432823e-05 8.4472196249e-05 8.712844101e-05 8.9247494543e-05 8.9468207079e-05 8.7048598289e-05 8.3429474519e-05 
8.1064621554e-05 8.1303940533e-05 8.2779240984e-05 8.3063125203e-05 7.9547095083e-05 8.0078449173e-05 7.6242698924e-05 1.4056740611e-05 1.1363265685e-05 
4.1592901653e-05 4.6578500587e-05 3.8039569517e-05 3.3074954445e-05 2.8588208352e-05 2.4592321097e-05 1.9482661173e-05 1.5400911934e-05 1.4469781036e-05 
1.4307492165e-05 1.6248515976e-05 1.9794633772e-05 2.1806248697e-05 2.3364412755e-05 2.7268067788e-05 3.4877835787e-05 4.2046565795e-05 4.8772040827e-05 
5.7904426285e-05 6.758915697e-05 7.5698453657e-05 8.2904487499e-05 8.9843953901e-05 9.8236201666e-05 0.00010708021364 0.00011381745207 0.00011888142762 
0.00012063587383 0.00011482955961 0.00010430624206 9.179007975e-05 7.6751986853e-05 6.1290107624e-05 4.6143184591e-05 3.3359245663e-05 2.1845693482e-05 
1.1510530271e-05 9.9355607972e-06 1.4903805777e-05 1.706717967e-05 1.5493163573e-05 1.4386361727e-05 1.6498439891e-05 2.1761960397e-05 2.6507288567e-05 
3.0073397284e-05 3.5580589156e-05 4.4430740672e-05 5.6832703194e-05 7.2006374467e-05 8.9297383965e-05 0.00010723735613 0.00011845716836 0.00011523980356 
0.00010374186786 9.2105783551e-05 8.1536347352e-05 7.2690016168e-05 6.4700258918e-05 5.8944905504e-05 5.6407234297e-05 5.4236922551e-05 4.4803505261e-05 
4.996966527e-05 4.0888942749e-05 7.2282744441e-05 6.3295120526e-05 5.1794859246e-05 4.3159710913e-05 3.8286749259e-05 3.3188997804e-05 2.7686483918e-05 
2.3114751457e-05 1.9627258098e-05 1.7586934746e-05 1.3886688066e-05 1.2261938082e-05 1.1174690826e-05 1.6418454607e-05 1.9561815407e-05 2.3218167826e-05 
2.6991614504e-05 3.1572082662e-05 3.5671229853e-05 3.9539630052e-05 4.6171199756e-05 5.4974090745e-05 6.1912266574e-05 6.2593544499e-05 7.0968908403e-05 
6.6276952566e-05 7.7835040429e-05 8.5233048594e-05 9.0453671874e-05 9.0740161249e-05 9.2310827313e-05 9.2299453172e-05 9.5815707027e-05 7.3291788794e-05 
8.2637297965e-05 6.255538392e-05 5.7569061028e-05 9.3161001132e-05 0.00010296188702 5.682203664e-05 6.707761986e-05 4.6173035116e-05 3.4418689665e-05 
3.9034258407e-05 2.9966860438e-05 2.5960394396e-05 2.3293977847e-05 2.2070321847e-05 1.7464922894e-05 1.3593718677e-05 1.2954916883e-05 1.6771334458e-05 
2.2415390049e-05 2.9797015486e-05 3.8401278289e-05 4.738501957e-05 5.5156787312e-05 6.1007143813e-05 6.8712004577e-05 7.79179245e-05 8.382953456e-05 
8.749884546e-05 8.9978060714e-05 9.015979449e-05 8.6117142928e-05 8.7856944447e-05 8.9179638962e-05 8.728577086e-05 8.1330221292e-05 7.456809908e-05 
7.4729359767e-05 7.4935747762e-05 3.9672064304e-05 3.5796265365e-05 3.178058023e-05 2.7904280159e-05 2.2364494725e-05 1.7810978534e-05 1.6280598174e-05 
1.4887525367e-05 1.5578770444e-05 1.9032315322e-05 2.0636590307e-05 2.1476111669e-05 2.3901882287e-05 3.9130412006e-05 3.3596747016e-05 4.637109123e-05 
5.6601371398e-05 6.6552409407e-05 7.3757657447e-05 7.9766174167e-05 8.5785099145e-05 9.3525464763e-05 0.00010172399379 0.00010672515782 0.00010759926226 
0.00011080309196 0.00010823572848 0.00010155307791 9.2021175078e-05 7.9953690147e-05 6.724800096e-05 5.4038426242e-05 4.0208920109e-05 2.4912082608e-05 
1.6060100734e-05 1.4705451576e-05 1.7846733044e-05 1.8509986148e-05 1.6826073988e-05 1.5029503629e-05 1.6574571873e-05 2.2472991986e-05 2.8528963412e-05 
3.4443965887e-05 4.2525502977e-05 5.4153275414e-05 6.8785593612e-05 8.4553847046e-05 9.9721750303e-05 0.00011303720567 0.00012059349319 0.00011696857837 
0.00010647494673 9.5479630545e-05 8.5099594799e-05 7.6001791967e-05 6.9156547397e-05 6.5966682087e-05 6.4178648245e-05 6.0019710872e-05 5.3056219258e-05 
4.5433685955e-05 4.7619767429e-05 4.2883057176e-05 2.9548480143e-05 2.7211163797e-05 2.2194497888e-05 1.7059458514e-05 1.3007042753e-05 1.2908657482e-05 
1.6875907932e-05 2.2808264475e-05 3.0496235468e-05 3.9562200982e-05 4.7799679123e-05 5.5889298528e-05 6.1681219449e-05 6.794091496e-05 7.5896439739e-05 
8.2799440861e-05 8.7581098342e-05 9.0531126261e-05 9.1880305263e-05 9.2054695415e-05 9.3790209576e-05 6.5834438828e-05 5.3353426665e-05 4.2452456e-05 
3.6644242755e-05 3.238614272e-05 2.7477188632e-05 2.3097752546e-05 2.0660809241e-05 1.9868366962e-05 1.7792628114e-05 1.4638112361e-05 1.3714835632e-05 
1.429128406e-05 1.6754965145e-05 1.9742833956e-05 2.2058644845e-05 2.6196668841e-05 3.1215641229e-05 3.6382064536e-05 4.3297231969e-05 5.102389423e-05 
5.5921075727e-05 5.542287181e-05 5.1967366744e-05 5.4381307564e-05 5.060739295e-05 5.7268526689e-05 6.0181062508e-05 6.6106569648e-05 7.4379808211e-05 
8.2919807028e-05 5.9604602029e-05 7.5960508548e-05 4.8461984079e-05 2.5827928403e-05 3.3313024232e-05 2.3229675662e-05 3.9296285649e-05 3.5976531763e-05 
3.1906056847e-05 2.5794001886e-05 2.0344113182e-05 1.8387378077e-05 1.626708945e-05 1.6832173969e-05 1.8586301394e-05 2.0248797682e-05 2.2719332719e-05 
3.9207726331e-05 3.4544458686e-05 4.6161608225e-05 5.6288573433e-05 6.5672726123e-05 7.1417631261e-05 7.6186992374e-05 8.1755555584e-05 8.9518760433e-05 
9.7826345154e-05 0.00010232006753 0.00010051096979 0.00010078097694 0.00010213517271 9.6020832643e-05 8.8321930889e-05 7.8993405623e-05 6.9808131229e-05 
6.1205508246e-05 5.4119939705e-05 1.9648929538e-05 2.7789091291e-05 1.7198685782e-05 1.8705397451e-05 2.0033833152e-05 1.8090358481e-05 1.5517967313e-05 
1.7705593109e-05 0.00010006649245 9.6974241387e-05 1.3525371742e-05 1.3942624719e-05 3.8959787162e-05 5.0232403737e-05 3.9932772779e-05 4.7827319577e-05 
5.9327638155e-05 7.4040432082e-05 8.9756189482e-05 0.0001037715283 0.00011446585995 0.00011984545745 0.00011705920042 0.00010898242726 9.967502956e-05 
9.0400162662e-05 8.2018130342e-05 7.5001476944e-05 7.1198597046e-05 7.0123092883e-05 6.3747520471e-05 5.5220384638e-05 4.7344277846e-05 9.6393448985e-05 
9.3547634606e-05 9.6440257039e-05 0.00010175137686 0.00010978957471 0.00010627562733 0.00011474854546 9.3218635811e-05 5.5945378335e-05 4.6870556616e-05 
6.459247561e-05 6.9231291491e-05 7.2159120464e-05 7.7373353633e-05 8.5179102825e-05 9.41199105e-05 9.4172912213e-05 0.00011769543744 0.00011508794887 
0.00010882379866 0.00010064356866 9.1920352133e-05 8.3399901996e-05 7.5825268141e-05 6.7637865141e-05 5.713837345e-05 5.9272099861e-05 6.3435891207e-05 
7.0465255703e-05 7.8945824498e-05 8.7186683231e-05 4.3403921882e-05 4.0654791519e-05 3.6207090488e-05 2.864136286e-05 2.2758126761e-05 2.0961675546e-05 
1.8338032987e-05 3.8659467464e-05 4.6145822125e-05 5.0570438361e-05 4.9894332733e-05 2.0291616238e-05 2.1799062779e-05 2.5260890652e-05 3.1908526125e-05 
6.4296660033e-05 7.0576408689e-05 7.8913686593e-05 8.7665162937e-05 9.6078900242e-05 0.00010180112622 0.00010388965529 0.00011204388829 1.6413809741e-05 
1.8089049263e-05 1.9941444407e-05 2.1606655991e-05 3.1587753256e-05 2.9926325169e-05 6.5383076435e-05 5.4448088122e-05 4.3494197598e-05 3.6313995224e-05 
3.2657698739e-05 4.0276947402e-05 2.3202081744e-05 9.5526693258e-05 9.6424693766e-05 9.4651162726e-05 9.0357727458e-05 8.4939467342e-05 7.8226437836e-05 
7.1450738687e-05 6.6287231675e-05 6.2344020989e-05 5.8504605477e-05 4.875630475e-05 5.3933923482e-05 3.954433123e-05 2.973573055e-05 2.2027143586e-05 
1.7970978206e-05 1.6497473553e-05 1.7096913552e-05 1.5379436263e-05 1.5365995978e-05 1.7840860437e-05 1.3530397761e-05 1.4373721569e-05 1.4151980622e-05 
1.3921820255e-05 1.7164193196e-05 2.2866839117e-05 3.0193205475e-05 3.9059063056e-05 6.5308520789e-05 6.2285920649e-05 6.9670841185e-05 7.4945370216e-05 
8.3381682634e-05 8.992932635e-05 9.2543987193e-05 9.3260440432e-05 6.8828174335e-05 8.1361957806e-05 7.6381260442e-05 7.1446655056e-05 6.8054800067e-05 
6.5853644628e-05 2.2999118755e-05 3.0141155548e-05 1.7850062932e-05 1.4965884172e-05 2.2416214658e-05 2.3507867809e-05 4.536666529e-05 3.8848158874e-05 
4.6278985489e-05 0.0001098495577 0.00010413946984 9.6109122751e-05 8.7041829829e-05 7.7998976849e-05 4.7644707593e-05 4.6706332796e-05 3.9227194975e-05 
3.3172183369e-05 3.596147144e-05 4.8386332007e-05 5.5280240304e-05 6.2667953898e-05 6.6545532415e-05 2.8429600661e-05 4.2671808236e-05 2.5267107503e-05 

Stress_Z_Pt 1 1116 double
3.9930398543e-06 3.5769548958e-06 3.4331958659e-05 3.7621696606e-05 2.7685518944e-06 2.9069116408e-05 2.4108993557e-06 2.557145757e-05 4.5405751052e-06 
2.4602052292e-05 8.2010110418e-06 2.5895125418e-05 1.4235125491e-05 2.875708924e-05 2.3361822969e-05 3.4612082345e-05 3.279196244e-05 4.0857037675e-05 
3.1744773878e-05 3.6572208046e-05 2.0546455744e-05 2.4556405606e-05 1.0727244899e-05 1.5947135353e-05 4.4606902065e-06 1.1322159367e-05 4.3423049192e-06 
1.0176119645e-05 3.8172705104e-06 9.4894591314e-06 -5.6789942278e-06 6.2758653314e-06 -1.6209204659e-05 3.4474328459e-06 -2.2236178665e-05 1.8278478819e-06 
-2.4644091354e-05 9.2274058261e-07 -2.060056795e-05 2.8529552765e-06 -7.745008304e-06 1.0443785555e-05 1.1306930276e-05 2.4181873101e-05 3.6230879232e-05 
4.214025239e-05 6.6343769504e-05 6.4608681896e-05 9.0547640866e-05 8.6532090791e-05 9.8176315078e-05 9.8002172308e-05 8.4050137957e-05 9.1955551397e-05 
5.7468780142e-05 7.3333272667e-05 3.4383563616e-05 5.5552642152e-05 1.6567844341e-05 4.2678581622e-05 1.1117292615e-06 3.2125930034e-05 -1.1193257933e-05 
2.2683889597e-05 -2.3221434276e-05 1.3900014437e-05 -3.0972289096e-05 8.8667784439e-06 -2.6331365007e-05 9.8203872767e-06 -1.9612941287e-05 1.0309704066e-05 
-1.6820548808e-05 8.6570130406e-06 -1.3124814814e-05 8.5427902832e-06 -7.3911799063e-06 1.0206769161e-05 -7.9192204794e-08 1.1581573858e-05 8.7236485342e-06 
1.2924605926e-05 1.649666774e-05 1.4786148085e-05 2.0476568352e-05 1.5198761275e-05 2.289234726e-05 1.6665915837e-05 2.9223944694e-05 2.3243111855e-05 
3.8886855691e-05 3.1359356399e-05 4.7924921091e-05 3.742927538e-05 5.1128356063e-05 4.0788770548e-05 4.6383469453e-05 4.0949761569e-05 4.0623746827e-05 
4.1652307118e-05 3.7049532693e-05 4.4621414418e-05 3.3625954529e-05 4.7273078962e-05 2.8504340662e-05 4.671503757e-05 2.1331705284e-05 4.2612845391e-05 
1.4515351268e-05 3.8676754002e-05 8.2005180957e-06 3.7747852275e-05 9.4152834208e-05 6.850571117e-05 7.5181292232e-05 9.2192611191e-05 3.5836482311e-05 
5.2869889714e-05 1.6313877495e-05 3.6675742194e-05 3.7114340898e-06 2.4176791584e-05 -7.2936737183e-06 1.3885212383e-05 -1.6905086341e-05 6.8791296144e-06 
-2.319779469e-05 3.2207931326e-06 -2.6793656616e-05 1.9849885575e-06 -2.7193022106e-05 2.1028427e-06 -2.30464384e-05 3.9013152673e-06 -1.3922691778e-05 
7.3545490977e-06 -3.1818784123e-06 9.8993644713e-06 4.8905855579e-06 1.0895201143e-05 1.034641673e-05 1.1766991292e-05 1.7090662368e-05 1.55477519e-05 
2.7968540962e-05 2.3315531053e-05 4.3557069148e-05 3.446413757e-05 5.7187004131e-05 4.5154447889e-05 5.8073475884e-05 4.9184935961e-05 5.1376193369e-05 
4.9478258916e-05 4.3633217501e-05 4.9030532864e-05 3.1359838431e-05 4.5235472044e-05 1.7443036086e-05 3.8564632177e-05 8.541466741e-06 3.3019696275e-05 
4.912515351e-06 3.1510798067e-05 4.4800863179e-06 3.4133884128e-05 7.0584562764e-06 3.9215581069e-05 1.1075950169e-05 4.2346084228e-05 1.3723501525e-05 
4.2108948719e-05 1.5996446564e-05 4.1173530462e-05 2.0244142434e-05 4.1824193431e-05 2.7641219276e-05 4.4190047447e-05 3.5127253796e-05 4.572519083e-05 
4.4339067244e-05 4.6603895498e-05 5.3916948673e-05 4.8062550377e-05 5.8530102251e-05 4.9397302973e-05 5.9593146943e-05 5.0167962399e-05 6.0757707615e-05 
5.1242898735e-05 5.6908165789e-05 4.7577474106e-05 4.4426900786e-05 3.5894081975e-05 3.4252747355e-05 2.6357162824e-05 2.9586600249e-05 2.4195169317e-05 
2.6579617952e-05 2.5049042051e-05 2.0738252715e-05 2.4814367407e-05 1.1073547967e-05 2.0696386287e-05 2.4668181311e-06 1.5303824611e-05 -5.9803528814e-06 
1.1690575533e-05 -1.9306837203e-05 7.0161268013e-06 -3.0397492083e-05 2.4558084988e-06 -3.0931702895e-05 2.9043644645e-06 -2.1005713734e-05 1.0222479204e-05 
-2.9433836062e-06 2.5718683673e-05 2.5442873266e-05 5.0301908686e-05 6.8868008384e-05 8.3946220911e-05 0.00010233556168 0.00010695682431 0.00010284722521 
0.00010444444342 9.7440239188e-05 9.7168904176e-05 6.5704016379e-05 7.5827430919e-05 5.8936599999e-05 5.5027515373e-05 5.2792826864e-05 5.0448908951e-05 
4.9906872846e-05 4.9475781452e-05 4.1051928747e-05 2.8120787647e-05 1.9398620907e-05 1.467913853e-05 1.2904523828e-05 1.3371208297e-05 1.637564651e-05 
2.0653975753e-05 2.3324507765e-05 2.5038482818e-05 2.6743506169e-05 3.0439151942e-05 3.9152091631e-05 5.2950690588e-05 6.8494524385e-05 8.6873882537e-05 
0.00010072140867 0.00010254766494 9.4574294053e-05 8.5796693384e-05 8.0879386587e-05 7.7616681665e-05 7.274433392e-05 6.6815287937e-05 6.1559972892e-05 
5.5905623412e-05 4.7994278248e-05 3.8528932237e-05 3.0895090731e-05 2.5912755063e-05 2.1077711608e-05 1.5953416323e-05 1.2870643559e-05 1.1636856698e-05 
1.2799247543e-05 1.8698427266e-05 2.551591524e-05 2.9355638162e-05 3.2961503621e-05 3.8177056922e-05 4.7168275159e-05 5.8574805735e-05 6.9102410635e-05 
7.4601481174e-05 7.3782066465e-05 7.3827457527e-05 7.9182120317e-05 8.2495407696e-05 7.4977018812e-05 8.4456274635e-05 6.3541650889e-05 5.071115902e-05 
3.9588754589e-05 3.3071125927e-05 3.0632189009e-05 3.0971476463e-05 3.1250453503e-05 2.9101737255e-05 2.4853449759e-05 1.9212513962e-05 1.4173830095e-05 
1.1204168231e-05 1.2425341083e-05 1.8311477788e-05 2.6804616482e-05 3.5445393678e-05 4.3411359002e-05 5.2072996368e-05 5.9654867073e-05 6.4873789597e-05 
6.5839075432e-05 6.4587370616e-05 6.8478236244e-05 7.8403191765e-05 8.7129297754e-05 8.7909877038e-05 8.2318616478e-05 7.6010057455e-05 7.1308815677e-05 
6.7823870268e-05 6.2345680817e-05 5.2945414609e-05 4.4192172936e-05 3.9691124584e-05 3.8865803617e-05 3.90553123e-05 3.5273271806e-05 2.5691912469e-05 
1.8018888568e-05 1.8028635168e-05 2.2776036531e-05 2.8409669994e-05 3.0606455766e-05 3.0389903714e-05 3.2295786241e-05 3.5549710447e-05 3.8185907215e-05 
4.1468958443e-05 4.7196332162e-05 5.8106029428e-05 7.3911260188e-05 9.4303708465e-05 0.00010957044105 0.00010738515994 9.7823631222e-05 9.1215732027e-05 
7.4467687227e-05 8.0631418314e-05 7.0953719842e-05 6.7161075094e-05 6.209426374e-05 5.7102115534e-05 5.1679394346e-05 4.1448971388e-05 2.8398198992e-05 
1.8366843733e-05 1.1805161876e-05 9.7897504929e-06 1.1825040701e-05 1.5097694131e-05 1.8079593701e-05 2.0793479052e-05 2.4495028356e-05 2.9457572055e-05 
3.5479240523e-05 4.3376144276e-05 5.125314874e-05 8.9401546575e-05 7.5101495895e-05 0.00010035903142 0.00010387906877 0.00010152362302 9.9091812444e-05 
9.934276386e-05 0.00010116765225 0.00010071911311 9.5730070825e-05 8.72268065e-05 7.7445587522e-05 6.6143141339e-05 5.2451402553e-05 3.9002095946e-05 
2.8482283142e-05 2.144539576e-05 1.7088263348e-05 1.4837730305e-05 1.4260262333e-05 1.4954425296e-05 1.5917026076e-05 2.9670529784e-05 2.4471850338e-05 
3.5381752241e-05 4.3282620027e-05 5.5056536439e-05 6.8707506216e-05 8.1268519352e-05 8.8852531917e-05 9.081731514e-05 9.3741131423e-05 9.8504089692e-05 
9.8300119134e-05 9.0407322205e-05 6.2697477915e-05 5.6439911532e-05 1.9456319478e-05 1.5535963257e-05 7.574214942e-05 8.5168599981e-05 6.3256424255e-05 
5.0403104979e-05 4.0569874727e-05 3.5441609725e-05 3.3640396396e-05 3.2387964893e-05 2.9416884445e-05 2.3198656891e-05 1.583416838e-05 1.092369871e-05 
9.1878468993e-06 1.0962208762e-05 1.741985443e-05 2.6118093956e-05 3.6123713653e-05 4.8228436754e-05 5.9093685195e-05 6.8293418735e-05 7.4668627349e-05 
7.6597460065e-05 7.8279656009e-05 8.7775379143e-05 0.00010282845687 0.0001131432291 0.00011245277346 0.00010364654372 9.3647618996e-05 8.6097932581e-05 
8.0297168097e-05 7.1613903856e-05 5.9064419474e-05 4.7889577218e-05 4.083989279e-05 3.7427788811e-05 3.5156706872e-05 2.9791950965e-05 2.1612496766e-05 
1.6208968873e-05 1.6376182657e-05 2.1111738988e-05 2.6953407541e-05 3.0573800359e-05 3.4029470953e-05 3.7799986785e-05 4.053822704e-05 4.452772464e-05 
5.1416128372e-05 6.0330989072e-05 7.0292488999e-05 8.085468653e-05 9.4956796602e-05 0.00010813749577 0.00010906794159 0.00010208838103 9.6539599326e-05 
9.1737592811e-05 1.6799739569e-05 1.4367079757e-05 2.0757891889e-05 2.797246816e-05 3.7873833207e-05 4.8950761993e-05 6.1655356149e-05 7.5167889008e-05 
8.6995689344e-05 9.6050547654e-05 0.00010298482448 0.0001087214896 0.00010969293071 0.0001022819597 9.4156861451e-05 8.5376686911e-05 8.0211195382e-05 
7.8469629443e-05 7.5790410847e-05 7.0381796831e-05 6.337285231e-05 5.451504785e-05 4.2838128138e-05 3.0518825497e-05 2.0493780539e-05 1.3740499753e-05 
1.0675933936e-05 1.1951209444e-05 1.4841713892e-05 1.6796567706e-05 2.0051932552e-05 2.5648432256e-05 3.2582978747e-05 3.9482628381e-05 4.5358928219e-05 
5.062708351e-05 5.4883085795e-05 6.0733946157e-05 5.8842159888e-05 6.5576684392e-05 7.3926499681e-05 8.3964720034e-05 9.3604183348e-05 0.00010087353621 
0.00010418897728 0.00010536066657 0.00010809887317 0.00011325108972 0.00011718744827 0.00011578610793 0.00010791911336 9.596059499e-05 8.2435335571e-05 
6.8068365181e-05 5.3091598602e-05 3.8934628265e-05 2.8214157282e-05 2.203605618e-05 1.8940400878e-05 1.6758011725e-05 1.5173651718e-05 1.4497574284e-05 
1.3493683582e-05 1.2860997458e-05 1.5265911088e-05 1.5146982605e-05 1.5913694369e-05 7.2845350587e-05 8.3968288891e-05 6.0944773395e-05 5.0485442443e-05 
4.3283320338e-05 3.8268508433e-05 3.3813956179e-05 3.0155445074e-05 2.4512765322e-05 1.6237467889e-05 1.035762898e-05 9.0878550054e-06 1.0796925608e-05 
1.5985874825e-05 2.1917798676e-05 2.7511769986e-05 6.3984774897e-05 5.2887578931e-05 7.4414228948e-05 8.2078013293e-05 8.5913648945e-05 9.0869409178e-05 
0.00010341768575 0.00011982396973 0.00013016138109 0.00012860574498 0.00011872827235 0.00010692007345 9.6874591691e-05 8.795287431e-05 7.6099227954e-05 
6.1788523453e-05 5.0105109949e-05 4.2902858695e-05 3.8032047087e-05 3.2715190628e-05 2.510123295e-05 1.7945442323e-05 1.455918482e-05 1.5309294213e-05 
2.0008310912e-05 2.5525269393e-05 3.0035240798e-05 3.6307128539e-05 4.2718854274e-05 4.715877094e-05 5.2689917538e-05 6.2175336097e-05 7.4621579188e-05 
8.6941918198e-05 9.682930795e-05 0.00010470279631 0.0001087344408 0.00010877725617 0.00010809956621 0.00010568260222 0.00010042237227 9.3100668892e-05 
4.2553001549e-05 3.4133929148e-05 2.0127074549e-05 3.0247378618e-05 4.2928213588e-05 5.4587500017e-05 6.6161129325e-05 7.8228513303e-05 8.9786308308e-05 
0.00010030063095 0.00011032857765 0.00011941992125 0.00012282242642 9.3078009741e-05 0.00010150443813 8.4925250121e-05 8.1127100202e-05 8.1134669017e-05 
8.0329709817e-05 7.6256561442e-05 6.8825158451e-05 5.8556568547e-05 4.4983066618e-05 3.1842247608e-05 2.2491330583e-05 1.5901213601e-05 1.2387831248e-05 
1.1577232954e-05 1.2603782807e-05 1.4417588773e-05 1.9202290559e-05 2.7997319194e-05 3.5666288113e-05 4.1593003516e-05 4.5235119615e-05 4.8976190556e-05 
5.3879130064e-05 5.8113198975e-05 6.376051897e-05 6.2914357841e-05 6.5004174758e-05 6.8404304329e-05 7.2022718086e-05 7.8054727055e-05 8.6858304712e-05 
9.5488516308e-05 0.00010201214718 0.00010586451026 0.00010992548414 0.0001163743018 0.00012299923401 0.00012514403898 0.00011935713519 0.00010637554442 
8.9986517196e-05 7.5279758676e-05 6.2406198595e-05 4.8774170864e-05 3.6277162963e-05 2.7130100989e-05 2.1700822799e-05 1.8327436464e-05 1.5941918718e-05 
1.4864839613e-05 1.3451370933e-05 1.2580345356e-05 1.4274445221e-05 2.1269764147e-05 1.8535414256e-05 2.1430368179e-05 0.0001092743787 0.00012188179062 
4.6409179959e-05 4.0077818994e-05 5.652733671e-05 6.7843532634e-05 7.9361159806e-05 8.8817976575e-05 9.4528500995e-05 0.00010106539776 0.00011474541679 
0.0001314719193 0.00014134889352 0.00013920348647 0.00012901378796 0.00011671023094 0.00010326404736 8.9449711595e-05 7.6325644841e-05 6.2414505919e-05 
5.1122624427e-05 4.3520800318e-05 3.7828010136e-05 3.0235541089e-05 2.1556274532e-05 1.6080026853e-05 1.4027299358e-05 1.4833730575e-05 1.9057701138e-05 
2.4378670787e-05 3.046194206e-05 3.9412174374e-05 4.8631460231e-05 5.5969209825e-05 6.3149821472e-05 7.3621675256e-05 8.7384269136e-05 0.00010092838602 
0.00010954199388 0.00011107301725 0.00010681438289 0.00010391373871 0.00010744769861 0.00010938999549 0.00010390621901 9.4843971965e-05 8.5416280854e-05 
7.5708556324e-05 6.6264911766e-05 5.7757546529e-05 5.070660427e-05 4.3994424232e-05 3.6613842894e-05 2.9706945952e-05 2.3271295504e-05 1.6085954712e-05 
1.0750619595e-05 9.3806595487e-06 1.0873687643e-05 1.4511089603e-05 1.8601224383e-05 2.3836602395e-05 3.0118005725e-05 3.6949815694e-05 4.6726624532e-05 
4.3884791921e-05 4.8720658621e-05 3.2591490708e-05 4.5740842324e-05 5.7163331803e-05 6.7012808358e-05 7.857358105e-05 9.1501384304e-05 0.00010335939623 
0.00011419297698 0.00012458678066 0.00013287335969 0.00013609614325 0.00012586660887 0.00013868297538 0.00011189581346 0.00010116623343 9.1887552117e-05 
8.5010937255e-05 8.2520169599e-05 8.2286945447e-05 8.1844062152e-05 7.9126954006e-05 7.2867318522e-05 6.3208466599e-05 5.2893037719e-05 2.2093997359e-05 
2.9523797366e-05 1.6222111981e-05 1.3443560874e-05 1.2128585695e-05 1.194315646e-05 1.3374924492e-05 1.8521526954e-05 2.4836079774e-05 4.6136784476e-05 
4.1953479013e-05 3.7764880744e-05 4.4599175453e-05 3.7062311094e-05 3.1810428482e-05 5.6737660998e-05 5.2201143262e-05 6.0651531385e-05 6.9947274824e-05 
6.6832742959e-05 7.0590007454e-05 7.0378331657e-05 7.330254266e-05 8.0460782556e-05 8.6808328342e-05 9.5255398264e-05 0.00010086582915 0.00010713713709 
0.00011472376718 0.00012290857558 0.00012768075248 0.00012318856716 0.00010831993859 8.9227767603e-05 7.4480882176e-05 6.4209053562e-05 5.3204890719e-05 
4.1668255108e-05 3.1484761621e-05 2.2895550137e-05 1.7423302097e-05 1.5333592501e-05 1.3614808267e-05 1.3740575696e-05 1.6075820213e-05 2.6617962249e-05 
2.2142757643e-05 3.1127166039e-05 5.7176121118e-05 6.8982140874e-05 8.2147045759e-05 9.4073002401e-05 0.0001015303078 0.00010918399676 0.00012342795344 
0.00013910057169 0.00014751293565 0.00014582481526 0.00013656990268 0.00012487452477 0.00011495094077 7.3741104643e-05 8.6361764261e-05 6.1878536144e-05 
5.1986673498e-05 4.4087674723e-05 3.6618569538e-05 2.789233713e-05 1.9924684239e-05 1.5550779608e-05 1.3756600083e-05 1.4290811123e-05 1.8838288997e-05 
2.5355151593e-05 3.3199619793e-05 4.4036690269e-05 5.4595376241e-05 6.331106033e-05 7.1662581831e-05 8.2324875621e-05 9.768979362e-05 0.00010967018898 
0.00011555785022 0.00011201619782 0.00010344628754 9.8650039945e-05 0.00010182913138 0.00010454630319 9.8523596535e-05 8.8899247203e-05 8.0894096754e-05 
7.3521126978e-05 6.6219403379e-05 5.9809113736e-05 5.4277508752e-05 4.7890700444e-05 3.9250681766e-05 3.0144896755e-05 2.2359208288e-05 1.5710417983e-05 
1.1561614883e-05 1.0848144484e-05 1.2731960851e-05 1.5942905748e-05 1.9002822683e-05 2.3877459171e-05 2.9568944228e-05 3.4091191083e-05 3.9224094508e-05 
5.0909463425e-05 4.5727178076e-05 5.5293211517e-05 9.7728281617e-05 0.00010769407527 7.6283396993e-05 8.1541838881e-05 9.6625113656e-05 9.1071737188e-05 
0.00010346470481 0.00011124693629 0.00011955184164 0.00012515731032 0.0001210115297 0.00010439720209 8.559057278e-05 7.1463240602e-05 6.1684806496e-05 
5.2939618399e-05 4.3695338718e-05 3.4464458167e-05 2.7034304367e-05 1.8634671278e-05 2.239995456e-05 4.3845597247e-05 5.5194284869e-05 6.5308336161e-05 
7.7982471339e-05 9.207317089e-05 0.00010636232619 0.00011701445328 0.00012622879331 0.00013527479314 0.00014153234952 0.00014457524594 0.00014490592366 
0.00014832087327 0.00013289548951 0.00011587759764 0.00010155482596 9.2523092462e-05 8.6886922873e-05 8.3513048594e-05 8.1742995462e-05 7.6153190093e-05 
6.68525945e-05 5.6946635596e-05 4.8884023272e-05 3.8339063394e-05 4.1571934162e-05 3.2750891478e-05 2.6147926292e-05 2.0692822545e-05 1.542191626e-05 
1.2822340295e-05 5.5715870985e-05 4.9714129273e-05 6.0169984863e-05 8.0949229596e-05 7.4114563176e-05 7.8572558778e-05 6.6905595304e-05 8.1758675151e-05 
9.6378631497e-05 0.00010664102774 0.00011575704229 0.00013076869072 0.00014513064889 0.0001456415157 0.00013934004892 0.00013094443057 0.0001232008417 
7.1686394222e-05 8.2998301878e-05 6.1098248807e-05 5.2289727137e-05 4.4213787987e-05 3.5576074879e-05 2.7056794352e-05 1.9842999791e-05 1.5779733985e-05 
1.4231072555e-05 1.4074962868e-05 1.6107753027e-05 3.7514002543e-05 2.9226711831e-05 4.7960383199e-05 5.7958261095e-05 6.6972050263e-05 7.5887015555e-05 
8.5681671408e-05 9.5385285022e-05 0.00011645880841 0.00011511049706 0.00010994225522 0.0001010752494 9.7473272035e-05 9.8161763162e-05 9.788445459e-05 
9.2489934104e-05 2.3256970508e-05 1.9225792585e-05 8.6738094979e-05 8.7094953415e-05 0.00011002103929 0.00010461082456 6.8975532486e-05 6.3063496782e-05 
5.7573616687e-05 5.2809799854e-05 4.6944878704e-05 3.888358242e-05 2.9914240258e-05 2.1775228106e-05 1.5448326394e-05 1.241803443e-05 1.2738116766e-05 
1.5376347392e-05 1.9310218249e-05 2.1966197892e-05 2.4247417969e-05 2.746390237e-05 3.0952373436e-05 3.5377940549e-05 5.3273524827e-05 1.4527949816e-05 
1.2409011561e-05 1.7765838493e-05 2.0914418656e-05 2.5498472041e-05 3.7246693864e-05 2.9132930649e-05 4.3726053264e-05 5.2181262618e-05 6.0144147938e-05 
4.4188667744e-05 3.5225043121e-05 2.7007904009e-05 2.0132515147e-05 1.5585603023e-05 1.4816061594e-05 1.6234821487e-05 2.1217807443e-05 1.5260029386e-05 
1.2920174868e-05 1.3772307511e-05 1.6712223896e-05 2.094142792e-05 2.4312292226e-05 2.6171541322e-05 3.177823919e-05 2.7879520985e-05 2.445708833e-05 
1.983051834e-05 1.476205739e-05 1.2312784747e-05 6.2190729659e-05 7.9211289631e-05 9.5623383459e-05 0.00010869369726 0.00011997874026 0.00013494290397 
0.00014607264529 8.6938511231e-05 8.1160782429e-05 7.1127751653e-05 6.1385097069e-05 0.00013489341654 0.00011736118722 0.00010327881864 9.389835941e-05 
2.4636470092e-05 2.2855298084e-05 1.8440978693e-05 1.4114606984e-05 1.2628541299e-05 1.3550738686e-05 1.6575030941e-05 1.9205486751e-05 0.00014418864157 
0.00014026933786 0.00013400273019 0.00012682387023 9.3154249043e-05 0.00010085143731 3.8616785241e-05 5.2266912462e-05 6.4056651172e-05 7.8028953794e-05 
9.0921708761e-05 6.9503168561e-05 0.00011990130103 2.6853346753e-05 3.3225109291e-05 4.1249649257e-05 5.019116179e-05 5.9410059293e-05 6.8141975134e-05 
7.6597316365e-05 8.4932877144e-05 9.2836044132e-05 0.00010056527208 0.00011363957128 0.00010963732348 0.00011665992861 0.00011726634875 0.00011462921793 
0.0001072913401 9.8068758962e-05 9.4647810329e-05 9.3176277005e-05 9.2166948889e-05 8.702210107e-05 8.9672301935e-05 9.0327348516e-05 9.2344915174e-05 
9.6131760074e-05 0.00010213873975 0.00010933810336 0.00011643184553 0.00012100141066 8.4381230408e-05 9.5441242593e-05 7.1546637628e-05 6.128988025e-05 
5.2778792451e-05 4.3460551751e-05 3.5282539102e-05 2.9504815757e-05 2.9228173389e-05 5.923267842e-05 6.5299808739e-05 7.427973469e-05 8.4014562162e-05 
9.1345519953e-05 0.00011106236161 0.00011618423378 0.00010395628124 9.810187233e-05 0.00013233611147 0.00011969956722 7.5577687312e-05 9.1327738483e-05 
6.5643410683e-05 1.4597110294e-05 1.2767614862e-05 1.3942974419e-05 1.7210358237e-05 2.1515613298e-05 0.00011851083764 0.00011884670918 0.00011908341003 
8.893111711e-05 8.0306201198e-05 5.8512305259e-05 5.1794845604e-05 4.2235843466e-05 3.4685283633e-05 0.00010660448606 6.4732763955e-05 0.00011563531189 

Stress_XY_Pt 1 1116 double
3.9332566303e-05 3.2079386983e-05 2.0194070999e-05 2.4280961725e-05 2.0733261408e-05 1.3078208383e-05 1.4022029973e-05 8.1857234875e-06 1.0342746918e-05 
5.6202016907e-06 8.3015970631e-06 4.280858044e-06 5.7561607036e-06 2.2404200815e-06 2.2692942139e-06 -6.3473635237e-09 4.4657247145e-06 1.5198623089e-06 
1.0029320492e-05 3.530891064e-06 1.1492976228e-05 1.5983571302e-06 8.4967218754e-06 -2.7287385365e-06 4.950660923e-06 -6.411478239e-06 4.2201536417e-06 
-7.6958431237e-06 2.7381864811e-06 -9.4795569225e-06 -1.1259236317e-06 -1.2996946282e-05 -4.4720143251e-06 -1.5929571305e-05 -7.7584445535e-06 -1.8403321974e-05 
-1.186587042e-05 -2.0064036335e-05 -1.3595612927e-05 -1.8579497237e-05 -1.185113797e-05 -1.39144679e-05 -8.1956075064e-06 -7.2225695789e-06 -4.0709659288e-06 
-1.0579599774e-06 5.2609630075e-07 3.9091578401e-06 5.5209972061e-06 8.2380018398e-06 8.0390736912e-06 1.0328624285e-05 6.8894964897e-06 9.6610353921e-06 
1.4519533806e-06 5.1610671221e-06 -6.6767992166e-06 -2.2527054853e-06 -1.2829483694e-05 -8.5877110791e-06 -1.5156265363e-05 -1.194834158e-05 -1.5106287265e-05 
-1.3296516499e-05 -1.6326519926e-05 -1.4923359913e-05 -1.7640742954e-05 -1.646686178e-05 -1.5487611563e-05 -1.6195873741e-05 -1.3712987311e-05 -1.6545719063e-05 
-1.5740478375e-05 -1.985174822e-05 -2.0125512492e-05 -2.5249417376e-05 -2.6039921977e-05 -3.200403944e-05 -3.3098881431e-05 -4.0056962916e-05 -4.2598850996e-05 
-4.9436486734e-05 -5.2447858252e-05 -5.7035850659e-05 -5.5163145589e-05 -5.7857520005e-05 -5.1585835536e-05 -5.2863634664e-05 -4.7144725613e-05 -4.5243268687e-05 
-3.8690563088e-05 -3.3249656553e-05 -2.4392057639e-05 -1.7098435279e-05 -9.315906027e-06 -1.8968522966e-06 4.0041850298e-06 9.4203780918e-06 1.4790460227e-05 
1.7067072349e-05 2.1327488867e-05 2.130236453e-05 2.3344950023e-05 2.1774289507e-05 2.1970496164e-05 1.854546872e-05 2.1613148419e-05 1.5540849972e-05 
2.6090084248e-05 1.7000343178e-05 3.4674127164e-05 2.1746595621e-05 -2.8304885973e-06 -2.9565801469e-06 -5.8593799395e-06 -2.2069245347e-06 -1.7254736804e-06 
-7.6298287581e-06 3.4158609878e-06 -5.5053336041e-06 7.6009810073e-06 -2.8346819363e-06 9.2485206551e-06 -1.2085597518e-06 9.3067797025e-06 -7.6180322139e-07 
7.5829543675e-06 -1.7293621113e-06 4.7765224735e-06 -3.3555650134e-06 4.5877582124e-06 -2.3443585633e-06 8.5716096692e-06 3.0010457976e-06 1.4965545688e-05 
1.0182342294e-05 1.8167212147e-05 1.3594148413e-05 1.4421675587e-05 1.1066122511e-05 7.0120282771e-06 5.3559422497e-06 -1.9066834511e-06 -1.7076385745e-06 
-8.1670348209e-06 -7.846280937e-06 -1.1666625596e-05 -1.3577011941e-05 -1.2652070382e-05 -1.7742236423e-05 -1.0368279618e-05 -1.7263187146e-05 -8.332292964e-06 
-1.4000322608e-05 -7.4461202075e-06 -1.1199335518e-05 -9.9095821042e-06 -1.1311332287e-05 -1.5133442048e-05 -1.4066143194e-05 -1.7518634195e-05 -1.5627847461e-05 
-1.5332744169e-05 -1.2939922499e-05 -1.0808474599e-05 -7.4576364e-06 -7.9364506291e-06 -3.9971129411e-06 -9.6047253919e-06 -5.6430825168e-06 -1.454293988e-05 
-1.1342452694e-05 -1.9668926143e-05 -1.7340110162e-05 -1.8307026949e-05 -1.8773492684e-05 -1.5432330656e-05 -1.7426122213e-05 -1.4136837763e-05 -1.5315884639e-05 
-8.2062508682e-06 -1.0932164173e-05 -4.7289540817e-07 -5.5187279031e-06 4.1896305447e-06 -1.6140322714e-06 3.5885068428e-06 -1.1016021517e-06 -8.0132429048e-07 
-3.5214725926e-06 -7.4046939744e-06 -7.5157841479e-06 -9.6133949228e-06 -8.8915494416e-06 -4.8902053891e-06 -5.6072818495e-06 -1.5361450778e-07 -1.6319984013e-06 
1.1977970757e-06 -2.0638245246e-07 8.4077328211e-08 -1.4388132854e-06 -2.1248853841e-06 -4.0699912631e-06 -1.0805588886e-06 -4.4855826502e-06 4.4114563593e-06 
-2.319383583e-06 9.2875939117e-06 -1.0454234598e-06 1.0748835848e-05 -1.2614264051e-06 9.6173430393e-06 -2.6337800136e-06 6.6780698944e-06 -5.4443914905e-06 
1.6674133576e-06 -8.9245439199e-06 -2.6135493272e-06 -9.8518943901e-06 -2.0546518442e-06 -3.2865528254e-06 -3.2504509306e-06 3.1675144356e-06 -7.6824173902e-06 
1.3702253909e-06 -6.3176254343e-06 -9.5826345614e-07 3.7083878084e-06 6.5304488999e-06 1.0553939802e-06 -7.9744367554e-08 -4.9504867317e-07 -1.6936396952e-06 
-2.5523195859e-06 -2.8955746245e-06 -6.6490819961e-06 -1.3571097725e-05 -1.9750550564e-05 -2.4006988497e-05 -2.6482161047e-05 -2.8358294003e-05 -3.015739594e-05 
-3.1540883356e-05 -3.2329401165e-05 -3.0322587008e-05 -2.4312403639e-05 -1.5515156974e-05 -5.602652223e-06 3.0588483128e-06 7.5147268035e-06 9.1624940524e-06 
9.9134325637e-06 1.0772519886e-05 9.6279613899e-06 4.770136286e-06 -1.0695462151e-06 -5.29368657e-06 -7.9902986272e-06 -1.045724855e-05 -1.325418134e-05 
-1.6255612991e-05 -2.0200565814e-05 -2.6012446142e-05 -3.3457663903e-05 -4.1657895054e-05 -4.997637825e-05 -5.7520273913e-05 -6.1721322709e-05 -6.0233431213e-05 
-5.3855824262e-05 -4.233099753e-05 -2.7977765967e-05 -1.1068145653e-05 5.2154925072e-06 1.6423221041e-05 2.1929055492e-05 2.3638731363e-05 2.1926190584e-05 
1.6404652342e-05 1.01200053e-05 7.2275628327e-06 7.2215601676e-06 7.6067765349e-06 -1.3033128653e-05 -8.3731627001e-06 -1.4955479401e-05 -1.5085632413e-05 
-1.4171921976e-05 -1.3126726117e-05 -1.232255886e-05 -1.1304071677e-05 -8.4066600721e-06 -1.8407134803e-06 5.300624025e-06 7.9454240449e-06 6.359055817e-06 
2.631937015e-06 -2.6421557422e-06 -9.3725752777e-06 -1.7161263941e-05 -2.3103009426e-05 -2.3578218588e-05 -1.9255374809e-05 -1.445081989e-05 -1.1385747484e-05 
-1.0358151712e-05 -1.0268365827e-05 -7.376640724e-06 -1.7214719605e-06 1.8568176472e-06 4.1530608996e-07 -5.1190880015e-06 -1.1241657603e-05 -1.5480370166e-05 
-1.7201494757e-05 -1.6985079128e-05 -1.5694963622e-05 -1.3015959667e-05 -9.7511706372e-06 -7.5871338368e-06 -7.2108069844e-06 -7.5293316968e-06 -7.4018443001e-06 
-6.2981530391e-06 -4.4786443141e-06 -3.4141580159e-06 -4.1409039682e-06 -6.5405913574e-06 -8.9901980118e-06 -1.1185525636e-05 -1.3800485704e-05 -1.5761834675e-05 
-1.7240026409e-05 -1.9176308797e-05 -1.9959798919e-05 -1.6365671627e-05 -5.5529824863e-06 5.2640606896e-06 6.8319131401e-06 2.8052550789e-06 -2.3332114409e-06 
-5.9667251546e-07 1.5832013446e-06 -1.5210236199e-06 -1.6929438686e-06 -2.4231157738e-06 -3.5062641359e-06 -5.7552032331e-06 -1.1634411749e-05 -1.9720096589e-05 
-2.6632370918e-05 -3.1951045912e-05 -3.6004751564e-05 -3.8470679101e-05 -3.896896942e-05 -3.8666622459e-05 -3.7515557779e-05 -3.3266434912e-05 -2.5249550163e-05 
-1.5011489722e-05 -5.6203441829e-06 1.7220399329e-07 5.6620004329e-06 6.7929538545e-06 4.743621048e-06 6.6811095962e-06 9.1291839226e-06 7.8257635323e-06 
3.5488789081e-06 -5.0316239708e-07 -3.4669244826e-06 -6.8905278567e-06 -1.1715833125e-05 -1.7405668132e-05 -2.3510757728e-05 -3.0261400752e-05 -3.8056571611e-05 
-4.6252888751e-05 -5.3259721426e-05 -5.8224789427e-05 -6.0205567024e-05 -5.7649698647e-05 -5.0891552746e-05 -4.2282751565e-05 -1.000325436e-05 -2.4884416234e-05 
6.5450824565e-06 1.9306374952e-05 2.5676614769e-05 2.6759614684e-05 2.4071386633e-05 1.8274256945e-05 1.1385824337e-05 6.6900163347e-06 4.9608119639e-06 
4.8083101092e-06 3.9078338432e-06 5.6360348708e-06 2.3887061893e-06 -3.3129459553e-05 -3.310825241e-05 -1.5447872784e-05 -1.1996128933e-05 -1.7531923731e-05 
-1.8068816189e-05 -1.7093386532e-05 -1.4515891962e-05 -1.0615913538e-05 -5.688180849e-06 2.8278033426e-07 4.9618470257e-06 5.7523030819e-06 3.6750373624e-06 
6.6914715546e-08 -5.3617316595e-06 -1.1790308463e-05 -1.7698383544e-05 -2.103949264e-05 -2.1045578251e-05 -1.7344162188e-05 -1.2589226117e-05 -8.460525919e-06 
-5.8459801267e-06 -4.7683261641e-06 -2.4194720254e-06 1.717003272e-06 4.175286449e-06 3.1730112653e-06 -6.9853172135e-07 -5.5999765038e-06 -9.8674294122e-06 
-1.4001154568e-05 -1.7612182091e-05 -1.848220154e-05 -1.6180704506e-05 -1.2534355847e-05 -9.8550474377e-06 -8.710056818e-06 -7.7314610962e-06 -6.6600611035e-06 
-6.2504149128e-06 -6.0241245592e-06 -5.6748542647e-06 -5.7685160755e-06 -7.1380158033e-06 -9.8876707852e-06 -1.3268082284e-05 -1.6633471432e-05 -1.9251480808e-05 
-2.09142122e-05 -2.1547558845e-05 -1.999615597e-05 -1.4527852727e-05 -6.1794186195e-06 4.4539922328e-07 2.8714048312e-06 1.4138021101e-06 -2.4375473373e-06 
-7.276486258e-06 -2.4857080007e-05 -2.4479942113e-05 -1.8731911496e-05 -6.1867441588e-06 8.0276068815e-06 1.9407701302e-05 2.5434666441e-05 2.6391996471e-05 
2.3829230031e-05 1.8875525711e-05 1.2782752947e-05 7.7055228758e-06 4.8087340019e-06 3.7875938688e-06 3.3087344491e-06 1.5356640887e-06 -7.171736996e-07 
-1.9734606838e-06 -2.3452643063e-06 -3.082758667e-06 -4.5881618576e-06 -7.3473863722e-06 -1.2626658645e-05 -2.0023478555e-05 -2.7524854431e-05 -3.3975788028e-05 
-3.9382245632e-05 -4.3014906623e-05 -4.3819592065e-05 -4.2742301048e-05 -3.9629810999e-05 -3.3062865896e-05 -2.3814652195e-05 -1.4438822745e-05 -7.3160662168e-06 
-3.0759090812e-06 -1.1265319877e-06 2.1161121424e-06 -7.8059511566e-07 4.0844609543e-06 4.4052811177e-06 2.5584135379e-06 8.4089384345e-07 2.6005831728e-06 
6.508663887e-06 7.5825583963e-06 4.7377857868e-06 9.6791652027e-07 -2.5046190046e-06 -6.925413004e-06 -1.3325034161e-05 -2.1020838176e-05 -2.8226427276e-05 
-3.4060895359e-05 -3.9633699998e-05 -4.5663676246e-05 -5.1123469348e-05 -5.472570956e-05 -5.5266038544e-05 -5.1981362049e-05 -4.5359210162e-05 -3.7326326492e-05 
-2.9336143598e-05 -2.216103303e-05 -1.7850876702e-05 -1.692843648e-05 -1.9164444287e-05 -1.7977521566e-05 -1.5129955727e-05 -1.9572439214e-05 -1.8941479539e-05 
-1.5507179569e-05 -1.0180927802e-05 -3.9096574227e-06 1.2909923299e-06 3.1261647422e-06 1.9785733087e-06 -6.2011974933e-07 -4.1859642579e-06 -8.8159301868e-06 
-1.3034282574e-05 -1.6473562482e-05 -1.8421537334e-05 -1.4127318082e-05 -1.7625079636e-05 -9.5225711902e-06 -5.1792510476e-06 -2.4682552748e-06 -1.4769760686e-06 
3.1125143884e-07 3.3316828763e-06 5.0112929557e-06 4.3906731548e-06 1.7653009081e-06 -2.0984829803e-06 -6.5594761054e-06 -1.1985288438e-05 -1.7026398154e-05 
-1.8664244635e-05 -1.6276820133e-05 -1.2531259017e-05 -1.0589655176e-05 -9.9528765531e-06 -8.5438163069e-06 -7.1057000923e-06 -6.7382749194e-06 -6.6203332381e-06 
-6.1211758293e-06 -6.0328702602e-06 -7.1001670676e-06 -9.5174386843e-06 -1.2932799336e-05 -1.6547190398e-05 -1.967472781e-05 -2.2140780857e-05 -2.2296820134e-05 
-1.8642484974e-05 -1.1917604638e-05 -4.5578024128e-06 2.2678489131e-07 1.7354950188e-06 8.1883197822e-07 -1.9569054501e-06 -6.4433580746e-06 -1.1307184877e-05 
-1.8815937437e-05 -1.8328978513e-05 -1.456219934e-05 -6.0957103472e-06 4.1928448979e-06 1.3302594084e-05 1.929389714e-05 2.1607058898e-05 2.0792021132e-05 
1.7911107534e-05 1.3761934042e-05 9.3323475312e-06 6.5482921627e-06 3.6081966641e-06 3.8373206053e-06 1.7837620874e-06 -4.6868137815e-07 -1.7688905416e-06 
-2.3275211447e-06 -3.2038252016e-06 -4.7339859748e-06 -7.1406974484e-06 -1.2269703802e-05 -1.9917869849e-05 -2.757381435e-05 -3.4819040593e-05 -4.0526459088e-05 
-4.3853308853e-05 -4.4652411816e-05 -4.3257806283e-05 -3.8882931221e-05 -2.8948057297e-05 -1.9414985218e-05 -1.2441773151e-05 -8.5244458508e-06 -6.1650862335e-06 
-4.3124358626e-06 -4.0051312453e-06 -1.8041572787e-06 -4.7033008741e-06 1.905840179e-07 1.4129798132e-06 2.2078854537e-06 5.9111959771e-07 -7.7833890444e-07 
3.7538539743e-07 3.9608547553e-06 5.586939551e-06 3.6103681964e-06 4.1853613197e-07 -3.2003245849e-06 -8.3071645349e-06 -1.5760298083e-05 -2.3959360988e-05 
-3.0766543659e-05 -3.5004712117e-05 -3.7939919821e-05 -4.1317839532e-05 -4.4637046813e-05 -4.666400946e-05 -4.6152889809e-05 -4.3510889554e-05 -4.0900408446e-05 
-3.4415465052e-05 -2.6809944302e-05 -2.0227907498e-05 -1.5842050288e-05 -1.3691934782e-05 -1.2665984059e-05 -1.3653271708e-05 3.856429089e-06 5.045861144e-06 
-1.6604643633e-05 -1.7717559786e-05 -1.4937826563e-05 -1.1256673133e-05 -6.663053e-06 -2.2766623147e-06 1.8870628082e-07 6.750430952e-07 1.7963429126e-06 
4.2562909357e-06 5.8834987158e-06 5.5536531818e-06 3.8621780902e-06 1.205455618e-06 -2.6717651849e-06 -9.6752555692e-06 -1.4593820197e-05 -1.6064456759e-05 
-1.4602321016e-05 -1.2588347772e-05 -1.1806231214e-05 -1.1202108226e-05 -9.4215038189e-06 -7.7982533639e-06 -7.2220764196e-06 -6.7427668e-06 -5.4777861465e-06 
-5.1867056641e-06 -6.8939367566e-06 -9.5628865893e-06 -1.278781815e-05 -1.5821880424e-05 -1.8564555376e-05 -2.1511770228e-05 -2.1534134248e-05 -1.7068746274e-05 
-1.0239320432e-05 -3.1332158841e-06 7.110197231e-07 5.9936350283e-07 -8.4235711029e-07 -2.7830952405e-06 -6.6769279101e-06 -1.1228728908e-05 -1.4597538666e-05 
-1.720385626e-05 -1.8845470095e-05 -1.842078882e-05 -1.5635527916e-05 -1.1459769325e-05 -6.5510509444e-06 -2.8424972811e-06 -2.2812663616e-06 -4.1152653836e-06 
-6.8523402206e-06 -9.9066469375e-06 -1.2955663124e-05 -1.5254393702e-05 -1.7429462332e-05 -1.8735745471e-05 -1.9714892915e-05 -2.059854387e-05 -1.6401821313e-05 
-1.9016033548e-05 -1.5128176528e-05 -8.9029268224e-06 -2.2704521143e-06 4.3778729832e-06 1.0296786456e-05 1.431686087e-05 1.5795995296e-05 1.5463685259e-05 
1.3609218286e-05 1.0590410966e-05 8.1589961383e-06 6.5405554324e-06 3.8191295175e-06 5.1479314607e-06 3.4517681229e-06 4.0957626197e-06 3.4402243614e-06 
1.2570820971e-06 -6.4508690656e-07 -1.4723295105e-06 -1.8639893256e-06 -2.6691521384e-06 -3.9517553319e-06 -5.8981078155e-06 -8.9126658622e-06 -2.9296598314e-05 
-2.2796860776e-05 -3.5684544855e-05 -4.0885596718e-05 -4.3363913088e-05 -4.2503094301e-05 -4.103734409e-05 -3.694723091e-05 -3.0691028314e-05 -9.6766060551e-06 
-1.4354622863e-05 -1.751578111e-05 -1.4225377981e-05 -1.9845182578e-05 -2.4006219974e-05 -6.9610742912e-06 -7.6103175388e-06 -7.4942773836e-06 -5.7878908137e-06 
-8.6337054199e-06 -3.052337803e-06 -1.4865891842e-06 -6.1954659714e-07 -1.2937816081e-06 -8.6907246271e-07 1.7814104716e-06 3.0228280252e-06 1.7274935118e-06 
-1.1842725627e-06 -4.717959456e-06 -9.7067046454e-06 -1.7257900254e-05 -2.461871054e-05 -2.9824713693e-05 -3.269913941e-05 -3.3900148082e-05 -3.5460058825e-05 
-3.715098137e-05 -3.742631452e-05 -3.3870839252e-05 -3.4047204736e-05 -2.5525721412e-05 -1.8404716229e-05 -1.3476004597e-05 -1.0563519936e-05 -1.0511321761e-05 
-9.9914145721e-06 -1.043533166e-05 -1.3134234223e-05 -9.1872110488e-06 -4.2767114081e-06 1.6504658618e-07 2.3299658665e-06 2.1774165759e-06 2.6483714635e-06 
4.7709536375e-06 6.2044615561e-06 6.5180138336e-06 6.0504911517e-06 4.6426620202e-06 3.4866503853e-06 -1.0612132087e-05 -6.5764745045e-06 -1.2215962897e-05 
-1.2617707398e-05 -1.331365479e-05 -1.3349736946e-05 -1.1919461258e-05 -9.7960919447e-06 -7.9239246134e-06 -6.8830660211e-06 -6.4213610358e-06 -6.3036674419e-06 
-5.9064497577e-06 -8.1186520902e-06 -1.0906746411e-05 -1.3467648841e-05 -1.5719550674e-05 -1.7682512407e-05 -1.924009257e-05 -1.9555007384e-05 -1.6099366803e-05 
-9.9711866142e-06 -3.1434086765e-06 4.3287047191e-07 -3.213678994e-07 -2.3829140332e-06 -4.08923637e-06 -6.6754854515e-06 -1.0138441439e-05 -1.3256448028e-05 
-1.5540839286e-05 -1.6636028249e-05 -1.636253478e-05 -1.4986938822e-05 -1.3129596482e-05 -1.1007936678e-05 -9.4483264093e-06 -9.4875273362e-06 -1.1199258552e-05 
-1.3883916381e-05 -1.6678352495e-05 -1.8730856937e-05 -1.9885555957e-05 -2.1149804979e-05 -2.208670594e-05 -2.3405446882e-05 -2.4334267891e-05 -2.1847725748e-05 
-1.4508034155e-05 -1.6238924218e-05 -1.3137422911e-05 -1.1844345948e-06 4.3795540279e-06 -1.8665193693e-06 -2.2025757858e-06 1.3964986891e-06 8.0239852096e-07 
1.4441329199e-07 -2.8210262855e-06 -6.4036776166e-06 -1.0553735024e-05 -1.6746115762e-05 -2.3775685622e-05 -2.8336591186e-05 -2.9754552543e-05 -2.9622673082e-05 
-2.983819013e-05 -3.046838674e-05 -2.9943677418e-05 -2.6892109872e-05 -2.3909384709e-05 -2.0949179998e-05 -6.4165313347e-06 -1.7737393705e-06 3.3881616446e-06 
8.0259711694e-06 1.1046356803e-05 1.1633380745e-05 1.226110453e-05 1.0817036582e-05 9.2777340797e-06 7.9446793961e-06 6.8870094765e-06 4.1476592401e-06 
5.825374501e-06 3.9335305928e-06 4.6191811975e-06 4.5720342996e-06 2.8467802053e-06 5.859107759e-07 -1.0502677483e-06 -1.6717240641e-06 -2.6463598317e-06 
-4.2739312676e-06 -7.1218694302e-06 -1.1885751292e-05 -2.1536635813e-05 -1.8641236466e-05 -2.4755618142e-05 -2.8459543955e-05 -3.2582141102e-05 -3.6604506022e-05 
-4.0097832425e-05 -9.7441002254e-06 -1.1204177281e-05 -1.0427580946e-05 -7.1843774094e-06 -1.0761816384e-05 -3.5971139027e-06 -8.0441733417e-06 -2.4577071969e-06 
2.2558676704e-06 4.3064291617e-06 3.3912393178e-06 2.828403467e-06 4.1591621311e-06 7.6187998275e-06 7.8830283883e-06 7.348780855e-06 7.2888159366e-06 
-6.6142735591e-06 -3.1707482115e-06 -9.1121153218e-06 -1.1239386822e-05 -1.3446079492e-05 -1.3818375464e-05 -1.1907042563e-05 -9.6058981853e-06 -7.7536608387e-06 
-6.8972127565e-06 -6.7311358786e-06 -8.637557471e-06 -1.2440371393e-05 -1.0803242162e-05 -1.4169601855e-05 -1.5436418153e-05 -1.694622074e-05 -1.8298938812e-05 
-1.825489926e-05 -1.9205059743e-05 -9.2590236136e-06 -1.5011429923e-05 -3.2585537326e-06 -3.2138851935e-07 -1.3295989518e-06 -3.4214846778e-06 -4.5146539378e-06 
-5.4987957583e-06 -1.1201649045e-05 -1.3800766737e-05 -8.5512214909e-07 -2.1430181505e-06 -1.8731795535e-05 -2.0559822133e-05 -1.3076097275e-05 -1.366360425e-05 
-1.3070010482e-05 -1.3024521195e-05 -1.3840935026e-05 -1.4481068092e-05 -1.4879756691e-05 -1.6112318917e-05 -1.8645943101e-05 -2.1690974336e-05 -2.4243730422e-05 
-2.5545041808e-05 -2.5756724881e-05 -2.574950804e-05 -2.5299748813e-05 -2.6954946406e-05 -2.7935268463e-05 -2.5066765829e-05 -1.0026167274e-05 -3.7555273593e-05 
-3.8835069063e-05 -3.5623993123e-05 -3.1781141388e-05 -2.6303628601e-05 -1.8401829493e-05 -2.0431712073e-05 -1.5297331174e-05 -1.0456946256e-05 -7.0463389648e-06 
-1.3035037682e-05 -1.3048348592e-05 -1.1211857327e-05 -9.4620393156e-06 -8.4428703531e-06 -1.001713681e-05 -1.642647112e-05 -2.2574643026e-05 -2.5516583719e-05 
-2.844276969e-05 -3.0319327834e-05 -3.0798774333e-05 -3.040745969e-05 -2.9365559385e-05 -3.1549755295e-05 -2.8316786029e-05 -3.140285844e-05 -3.3482312574e-05 
-3.5286572711e-05 -3.710281635e-05 -3.8368602873e-05 -7.2661036938e-06 -1.3428490462e-06 3.094387111e-06 5.3564964446e-06 4.2204409851e-06 2.9351629678e-06 
3.3262338661e-06 6.293832655e-08 -7.87340241e-07 -2.567559477e-06 -5.4823115079e-06 4.4631187279e-06 5.7374456901e-06 4.9101066679e-06 2.5611516605e-06 
-3.3725401105e-05 -3.4687514926e-05 -3.5813132854e-05 -3.6339249164e-05 -3.6100354009e-05 -3.516151537e-05 -3.3434700981e-05 -2.848517579e-05 8.2767716473e-06 
8.5958470208e-06 8.9439054136e-06 9.5921398042e-06 1.2501383004e-06 6.5330311259e-06 -8.9130935521e-06 -5.7633662323e-06 -1.7436872966e-06 3.6152020382e-06 
6.5566096623e-06 -3.4918549066e-06 1.0476682291e-05 -1.8193331471e-05 -1.772633027e-05 -1.8508001403e-05 -1.8940002064e-05 -1.9069404971e-05 -1.974768611e-05 
-2.0652758394e-05 -2.0538990611e-05 -2.1177471808e-05 -2.2496087695e-05 -1.8921270566e-05 -2.0728934032e-05 -1.6523288423e-05 -1.2674654272e-05 -7.570168691e-06 
-3.0821656765e-06 -1.4800729105e-07 -1.1967975837e-06 -2.8428208623e-06 -3.3208280001e-06 -3.514101536e-06 -1.6084132236e-06 -4.8656995233e-07 9.6873713318e-07 
8.0493926191e-07 -1.2458859118e-06 -4.2154639175e-06 -7.9025531932e-06 -1.134257127e-05 -2.731733457e-05 -2.5463263228e-05 -2.710101171e-05 -2.6019395136e-05 
-2.4267590197e-05 -2.4409387606e-05 -2.3864477953e-05 -2.3089716099e-05 -1.0300008171e-05 -2.2096195607e-05 -2.292920135e-05 -2.3892332138e-05 -2.4302480597e-05 
-2.4216999615e-05 -5.7029601521e-06 -9.8428529327e-06 -2.4867881052e-06 -2.1699008812e-07 4.1107042155e-06 5.2181009664e-06 -1.232486099e-06 2.199852986e-06 
-3.8389360573e-06 -3.0946921015e-05 -3.2991468288e-05 -3.41486857e-05 -3.4090966437e-05 -3.31950896e-05 -1.5788289375e-05 -1.5930632799e-05 -1.3457759451e-05 
2.8517934396e-06 1.3766836027e-07 -6.1807888111e-06 -8.8708270596e-06 -1.0910773426e-05 -1.1267272688e-05 5.278218282e-06 -1.0872693868e-05 8.7024562845e-06 

Stress_YZ_Pt 1 1116 double
1.4028717032e-07 3.5331869412e-06 1.0227791023e-06 3.7355660254e-07 4.2841851382e-06 -1.493272066e-07 2.8664323963e-06 -3.2988803014e-06 6.3643580006e-07 
-7.2016045749e-06 -3.2363907962e-06 -1.2034320349e-05 -8.1065577433e-06 -1.76623887e-05 -1.2808652173e-05 -2.2810333576e-05 -2.0076392502e-05 -2.7845641398e-05 
-2.8101636417e-05 -3.1231345019e-05 -2.8562335501e-05 -2.8183735594e-05 -2.0728104573e-05 -1.9830687961e-05 -1.1589012502e-05 -1.1853959904e-05 -4.4478016434e-06 
-5.8355948909e-06 2.9784829394e-06 7.8487050814e-07 9.1234248885e-06 7.0374714483e-06 1.2618315395e-05 1.176775254e-05 1.5958031327e-05 1.666500475e-05 
2.039134597e-05 2.1897906208e-05 2.4409760044e-05 2.6126844205e-05 2.6525841349e-05 2.8730489248e-05 2.7490617867e-05 3.0645832339e-05 2.6160599191e-05 
3.1102631965e-05 1.8441076918e-05 2.6316997946e-05 3.418309916e-06 1.4853664425e-05 -1.3440127077e-05 -5.617286547e-07 -2.2545649699e-05 -1.2084425236e-05 
-2.3179413802e-05 -1.6186802782e-05 -2.4343366022e-05 -1.8388121816e-05 -2.7154482268e-05 -2.0906770487e-05 -2.7102541935e-05 -2.1978657514e-05 -2.2858524972e-05 
-2.0284521725e-05 -1.8801719307e-05 -1.761921294e-05 -1.522254297e-05 -1.4646439467e-05 -7.4947056419e-06 -9.7664712939e-06 3.8971052163e-07 -5.2034055216e-06 
2.25990442e-06 -3.9639859608e-06 -2.561070005e-07 -5.1012905828e-06 -3.8339679236e-06 -6.6605229279e-06 -7.9891394762e-06 -7.8273279769e-06 -1.1989773611e-05 
-7.7740857733e-06 -1.4673355963e-05 -5.6495679956e-06 -1.1691541204e-05 3.9145447772e-07 -2.0948673409e-06 1.019356705e-05 1.0897969787e-05 2.1025863816e-05 
2.5413435651e-05 3.1426111491e-05 3.6595241909e-05 3.9547774577e-05 3.8887934352e-05 4.3216468839e-05 3.3500485188e-05 4.2562887302e-05 2.5920939152e-05 
3.8469767787e-05 1.8856536371e-05 3.2467708934e-05 1.2847721337e-05 2.555142737e-05 7.3109720233e-06 1.7404811729e-05 3.3566950606e-06 1.0025183997e-05 
1.3119334881e-06 4.8968309443e-06 -6.9853751938e-07 1.3876233993e-06 1.8032279513e-05 1.8780436221e-05 2.1245076368e-05 1.9771795451e-05 1.6874940229e-05 
2.0989217774e-05 1.2548882296e-05 1.7618272523e-05 7.2586592523e-06 1.2758605521e-05 3.2940376968e-06 8.3369162667e-06 1.405119491e-06 5.3612674122e-06 
-6.5985915398e-08 3.7800059403e-06 -1.8839447193e-06 3.4396021533e-06 -3.0525047805e-06 4.3493919293e-06 -1.1201836969e-07 6.8557810664e-06 6.616818041e-06 
9.095094299e-06 1.0051668596e-05 7.6885034446e-06 8.9060372375e-06 3.4757038634e-06 5.2919621112e-06 -1.7780677695e-06 -2.445580094e-07 -8.2865405489e-06 
-8.2257058693e-06 -1.613642155e-05 -1.8401818579e-05 -2.387571908e-05 -2.388455232e-05 -2.7564183711e-05 -1.9704581973e-05 -2.4824608772e-05 -8.9375338348e-06 
-1.6708964438e-05 2.0768073909e-06 -7.372284756e-06 7.9747308064e-06 -9.5210032214e-07 8.6249751803e-06 2.000784491e-06 1.032558248e-05 4.1502133286e-06 
1.2152860563e-05 5.9735786806e-06 9.2338873401e-06 6.2943100545e-06 5.6196677178e-06 6.9246735848e-06 2.7330835621e-06 7.9581007668e-06 5.3568720659e-07 
8.5287094009e-06 1.8770296322e-06 9.4361871135e-06 9.8310141539e-07 9.5788797978e-06 4.2041971824e-06 1.2426616507e-05 1.2438671547e-05 1.86052971e-05 
1.5499889287e-05 2.3145156547e-05 1.8116735191e-05 2.611842001e-05 1.9429392523e-05 2.6164876999e-05 1.5807840555e-05 2.2514338298e-05 9.6895914794e-06 
1.7764792346e-05 6.955846402e-06 1.4968468804e-05 5.7702238792e-06 1.1483425965e-05 5.0380003813e-07 4.0539711677e-06 -6.4934663442e-06 -4.6239114795e-06 
-1.1256398921e-05 -1.1762776921e-05 -1.2717961454e-05 -1.5885100538e-05 -1.2619944755e-05 -1.735723572e-05 -1.2785812942e-05 -1.7600189949e-05 -1.2991019958e-05 
-1.6949867813e-05 -1.1845420431e-05 -1.4934333876e-05 -9.7395181911e-06 -1.2259160258e-05 -7.4124882303e-06 -9.6486653547e-06 -5.5220432387e-06 -7.8092042486e-06 
-5.2356197102e-06 -7.4300845654e-06 -6.482570825e-06 -7.8492412285e-06 -7.9291298789e-06 -6.7460291007e-06 -7.8640487118e-06 -3.2028344208e-06 -1.0608800949e-06 
4.7938517582e-06 1.1110492323e-05 1.4856142798e-05 -1.0088701572e-05 -5.9440480271e-06 -1.5024417394e-05 -2.1218503889e-05 -2.7662850243e-05 -3.4012990454e-05 
-3.8759614654e-05 -4.0195500333e-05 -3.8109118577e-05 -3.196184116e-05 -2.3733452053e-05 -1.6714494222e-05 -1.0872053167e-05 -4.3065929844e-06 3.2231940281e-06 
1.1155241964e-05 1.8938453195e-05 2.5496514354e-05 3.0105961287e-05 3.3371422887e-05 3.6382069993e-05 3.8447830593e-05 3.6125644328e-05 2.9200797599e-05 
1.6963524388e-05 4.1014571366e-06 -4.797929364e-06 -1.042435872e-05 -1.4362075035e-05 -1.8092533992e-05 -2.1064727662e-05 -2.2455243197e-05 -2.2814553631e-05 
-2.2924917857e-05 -2.2704461571e-05 -2.1392685312e-05 -1.9326922938e-05 -1.7119497215e-05 -1.406508386e-05 -9.0078123804e-06 -1.6012522934e-06 7.1642447779e-06 
1.5981378056e-05 2.3997393873e-05 3.6616730995e-05 4.3627817831e-05 4.9036777455e-05 5.2571125707e-05 5.2111708101e-05 4.7682498007e-05 3.985179228e-05 
2.892016937e-05 1.8213008161e-05 9.8828895716e-06 3.7563144417e-06 -1.3031603459e-06 2.8149084301e-05 2.6347543098e-05 2.6777169296e-05 2.3403052637e-05 
1.9406427327e-05 1.5881165154e-05 1.4643760665e-05 1.6508973317e-05 1.9793873207e-05 2.0716842528e-05 1.6422978888e-05 8.5192676238e-06 1.4449096852e-07 
-7.919668235e-06 -1.6071918253e-05 -2.3325347684e-05 -2.7718775982e-05 -2.9912567697e-05 -3.0153744774e-05 -2.6137593522e-05 -1.9652005676e-05 -1.3493968709e-05 
-7.994069108e-06 -4.4445474146e-06 -1.7863713708e-06 3.040330995e-06 1.0010164942e-05 1.6581736645e-05 2.0744103495e-05 2.2405891286e-05 2.4401643714e-05 
2.7681725896e-05 3.1936951473e-05 3.668774616e-05 3.812934392e-05 3.5025502257e-05 3.0732875985e-05 2.7888087516e-05 2.5259033009e-05 1.898362666e-05 
8.7507237936e-06 -2.4899892992e-06 -1.32718842e-05 -2.1964375719e-05 -2.7405722449e-05 -2.9521218949e-05 -2.8682401535e-05 -2.6008630812e-05 -2.2490116407e-05 
-1.8963240791e-05 -1.6230884285e-05 -1.4271704913e-05 -1.2550380916e-05 -8.1505186813e-06 -3.0020970598e-07 1.0442200164e-05 1.9978793716e-05 2.3859532121e-05 
-2.3017491912e-05 -1.8229655325e-05 -2.9816956612e-05 -3.695621217e-05 -4.3116401685e-05 -4.6789540647e-05 -4.6595636377e-05 -4.3128125071e-05 -3.7444067857e-05 
-3.0723835607e-05 -2.409148783e-05 -1.7034116127e-05 -8.6919055775e-06 1.1749301621e-06 1.1710858303e-05 2.1351310352e-05 2.8678968647e-05 3.3661802263e-05 
3.7411881749e-05 4.0047169932e-05 4.0596001782e-05 3.1338287499e-05 3.6209506106e-05 2.2515880119e-05 1.1838320347e-05 1.329570523e-06 -7.6704894809e-06 
-1.444071745e-05 -2.0721192413e-05 -2.7107574624e-05 -3.2789071156e-05 -3.7210043956e-05 -4.0310838813e-05 -4.1710588448e-05 -3.9863577513e-05 -3.5207820019e-05 
-2.9835799978e-05 -2.4361969281e-05 -1.798957328e-05 -1.0107925448e-05 -1.8115053422e-06 4.7416218081e-06 7.6769887016e-06 4.1710697587e-05 3.2282538996e-05 
4.8049440011e-05 5.1034354328e-05 5.0680373533e-05 4.713409362e-05 3.9834229028e-05 2.9534090572e-05 1.9105929596e-05 9.7531565757e-06 1.2977347694e-06 
-6.6679860709e-06 -1.3601579553e-05 3.7901780161e-05 3.8795184082e-05 1.9685564212e-05 7.4232007989e-06 3.2354829727e-05 3.2309361814e-05 3.0992730444e-05 
2.9016060125e-05 2.6900005196e-05 2.6199575132e-05 2.8181172638e-05 3.1243651847e-05 3.0901921946e-05 2.4318492706e-05 1.4157492046e-05 4.3072276128e-06 
-4.8000516983e-06 -1.3379798816e-05 -2.0407755528e-05 -2.4520215447e-05 -2.7817824957e-05 -3.0221229736e-05 -2.8248237868e-05 -2.3671776034e-05 -1.876399574e-05 
-1.3241648276e-05 -8.3786616187e-06 -3.9316311415e-06 2.9567571289e-06 1.2094807857e-05 2.0156663595e-05 2.5629640277e-05 2.9521484976e-05 3.3244637962e-05 
3.78271925e-05 4.2271106395e-05 4.4811354201e-05 4.3334508518e-05 3.8312111428e-05 3.3612874176e-05 3.0873457945e-05 2.74544077e-05 2.0066439674e-05 
9.2677980206e-06 -2.7132971923e-06 -1.4994285493e-05 -2.6452887141e-05 -3.544995343e-05 -4.0221932977e-05 -4.0413005081e-05 -3.7781577703e-05 -3.3712944969e-05 
-2.9584420645e-05 -2.5891595214e-05 -2.1867216674e-05 -1.7379176597e-05 -1.0169918824e-05 -6.2493450059e-07 9.9228066119e-06 1.9907059823e-05 2.5990661925e-05 
2.9849110888e-05 1.6601351035e-05 8.3443152903e-06 2.6815489491e-05 3.6114596242e-05 4.2824098273e-05 4.5406628487e-05 4.4943047214e-05 4.2056806706e-05 
3.5922756979e-05 2.7399316423e-05 1.7858705405e-05 7.7363357605e-06 -4.0070263822e-06 -1.3362780805e-05 -1.9221909042e-05 -2.2902591354e-05 -2.7201895591e-05 
-3.3114251892e-05 -3.9910969463e-05 -4.5874849093e-05 -4.9201476941e-05 -4.8285934099e-05 -4.3937354349e-05 -3.8737578507e-05 -3.3535168768e-05 -2.7499814223e-05 
-1.9662918248e-05 -9.885405575e-06 1.3003864296e-06 1.2443771652e-05 2.2633023036e-05 3.0974252695e-05 3.6593750337e-05 4.0050600546e-05 4.1643959776e-05 
4.1595180846e-05 4.0302395064e-05 3.6040153645e-05 3.8288018914e-05 3.4272471567e-05 3.2683851714e-05 2.9187849123e-05 2.2806753805e-05 1.3768815506e-05 
2.8418979809e-06 -7.5317437904e-06 -1.6219278223e-05 -2.4230238978e-05 -3.2778770219e-05 -4.1165664697e-05 -4.7704492317e-05 -5.1788467317e-05 -5.3537954045e-05 
-5.1905705732e-05 -4.6792159992e-05 -3.9940236093e-05 -3.2813741655e-05 -2.5546633424e-05 -1.7442089302e-05 -9.441520092e-06 -4.1906998263e-06 -2.353045403e-06 
-9.672740191e-07 3.2757237136e-06 1.3817543731e-05 1.1050443049e-05 1.6963016909e-05 3.5075751839e-05 3.4786336073e-05 3.5379910514e-05 3.5283593206e-05 
3.5242002923e-05 3.6238810935e-05 3.7429138501e-05 3.6059126614e-05 2.9314850053e-05 1.8529965701e-05 7.9488187623e-06 -1.179014788e-06 -9.3486531796e-06 
-1.6426212824e-05 -2.143437996e-05 -2.5097320759e-05 -2.9599761547e-05 -3.0794988561e-05 -2.6400666229e-05 -2.2248467758e-05 -1.6979470047e-05 -1.1467594277e-05 
-5.5424331151e-06 2.422098845e-06 1.1728909612e-05 1.9915395114e-05 2.6292190796e-05 3.1646432035e-05 3.6559409637e-05 4.1612820496e-05 4.5688891078e-05 
4.6693143304e-05 4.4176595111e-05 3.9849180212e-05 3.5405417293e-05 3.1438322821e-05 2.6356610761e-05 1.8183418661e-05 7.7402198428e-06 -3.5667135592e-06 
-1.5938245269e-05 -2.8629339795e-05 -3.9292111069e-05 -4.5772110752e-05 -4.7453353545e-05 -4.5402281103e-05 -4.1105000491e-05 -3.6822849324e-05 -3.315744334e-05 
-2.8055995699e-05 -2.0452266199e-05 -9.3710370379e-06 1.8306738525e-06 9.8440349348e-06 1.7648026642e-05 2.539982961e-05 3.1245755508e-05 3.4141545257e-05 
-2.9876375265e-05 -2.8270689654e-05 2.4159559871e-05 3.339382647e-05 3.9883138015e-05 4.1666940888e-05 4.0429921683e-05 3.7447581235e-05 3.2577914226e-05 
2.602883751e-05 1.8244430066e-05 9.5047972195e-06 8.4245466425e-07 -2.4047303668e-05 -1.9246782585e-05 -2.7210684948e-05 -3.0398466151e-05 -3.4559634514e-05 
-4.01197467e-05 -4.5517926992e-05 -4.8684656576e-05 -4.7578138037e-05 -4.2078931438e-05 -3.73857265e-05 -3.2960882436e-05 -2.6990950573e-05 -1.8718468709e-05 
-8.7936695081e-06 2.1232123117e-06 1.3208111795e-05 2.3912781671e-05 3.4584174864e-05 4.003846152e-05 4.1899946154e-05 4.2356898727e-05 4.2540834329e-05 
4.1930473344e-05 4.0647451897e-05 3.6086363252e-05 3.9156887397e-05 3.3276798604e-05 3.1681131986e-05 3.094398077e-05 2.7943404802e-05 2.2043018816e-05 
1.3581763596e-05 2.4604024702e-06 -8.8513889978e-06 -1.8854288783e-05 -2.8071720862e-05 -3.7933758904e-05 -4.7851873205e-05 -5.5646936744e-05 -5.9721754042e-05 
-6.0233008298e-05 -5.8234244534e-05 -5.3926057262e-05 -4.7675944188e-05 -4.0520258153e-05 -3.2704796467e-05 -2.4187411327e-05 -1.5926068045e-05 -1.0328228503e-05 
-9.9449474646e-06 -7.2744868476e-06 -1.3715316598e-06 7.46805744e-06 2.1158240543e-05 1.7414897684e-05 2.3063393201e-05 -1.296073458e-05 -6.7678573608e-06 
-3.1754036172e-05 -3.0990250707e-05 -3.2081436984e-05 -3.1735238281e-05 -2.9756455206e-05 -2.6161952974e-05 -2.0816510641e-05 -1.4781379605e-05 -8.2875483827e-06 
-9.7345434824e-08 9.5693466164e-06 1.8409391714e-05 2.5305002509e-05 3.0966580653e-05 3.6240575719e-05 4.144905688e-05 4.456786337e-05 4.5006555411e-05 
4.2894601393e-05 3.9526225009e-05 3.5071010643e-05 3.0183855415e-05 2.4339205993e-05 1.6112414187e-05 6.1222600873e-06 -4.5425998412e-06 -1.6598726916e-05 
-2.9750802696e-05 -4.130862726e-05 -4.9222071539e-05 -5.2894340115e-05 -5.2522313126e-05 -4.9045862397e-05 -4.4800187425e-05 -4.0748645006e-05 -3.4371079892e-05 
-2.4048526029e-05 -1.0390742091e-05 1.8944267595e-06 9.3516521247e-06 1.6042268044e-05 2.4457778181e-05 3.1650987239e-05 3.5039341128e-05 3.6491156607e-05 
3.7995114326e-05 3.9979279791e-05 4.169623935e-05 4.2779355681e-05 4.3370878302e-05 4.2336323531e-05 3.8779896386e-05 3.1337994642e-05 2.0679008003e-05 
1.0077743468e-05 8.985825275e-07 -6.8951414391e-06 -1.3415033209e-05 -1.8678610331e-05 -2.2982993869e-05 -2.6957481623e-05 -3.0260786843e-05 -3.3320001421e-05 
-3.2700533666e-05 -3.3057845333e-05 3.288677317e-05 3.9494560042e-05 4.1378383685e-05 3.9352188651e-05 3.5769211536e-05 3.178830184e-05 2.6820722269e-05 
2.076804094e-05 1.4085374232e-05 7.2823184034e-06 8.8549115773e-07 -1.38094465e-05 -5.4454822589e-06 -1.9698762571e-05 -2.4770991331e-05 -2.9030133646e-05 
-3.176093378e-05 -3.3920971873e-05 -3.5798077685e-05 -3.9528261368e-05 -4.4046269068e-05 -4.7012698815e-05 -4.6173038754e-05 -4.2183716687e-05 -2.9610107504e-05 
-3.3849389638e-05 -2.336335001e-05 -1.5194472326e-05 -8.1039161159e-06 1.539264801e-06 1.4607287994e-05 2.4389404643e-05 3.201401978e-05 4.3257870857e-05 
4.3274592826e-05 -3.6724346501e-05 -3.7901310861e-05 4.1611890083e-05 3.7774809243e-05 4.2241523261e-05 4.3388507947e-05 4.1043381316e-05 3.7325334233e-05 
4.0184865611e-05 3.3614311633e-05 3.0554411751e-05 2.8723213745e-05 2.3600375698e-05 1.3660645618e-05 1.1610409274e-06 -1.0052378343e-05 -2.0597128469e-05 
-3.0483896353e-05 -4.1123043957e-05 -5.1887351219e-05 -6.0205260525e-05 -6.3605626565e-05 -6.2357916249e-05 -5.9512855842e-05 -5.6104905525e-05 -5.133621471e-05 
-4.5159421461e-05 -3.7671559767e-05 -2.7638090251e-05 -1.7446439188e-05 -1.3886514353e-05 -7.0651790409e-06 2.660377497e-06 1.3205102505e-05 2.6543277727e-05 
2.2419790184e-05 3.0806767882e-05 -3.3648910176e-05 -3.4105027225e-05 -3.3081876609e-05 -3.0072786103e-05 -2.4846455744e-05 -1.8645314867e-05 -1.2244069922e-05 
-4.1979280638e-06 5.9427293593e-06 1.518204499e-05 2.2183850433e-05 2.8028007364e-05 3.2006719721e-05 4.2091805881e-05 3.9978184759e-05 4.2504355406e-05 
4.1305122977e-05 3.8356289224e-05 3.3797388824e-05 2.8730006761e-05 2.2737728159e-05 1.4698817267e-05 4.962968303e-06 -5.1963305783e-06 -1.8962851937e-05 
-3.2677747186e-05 -4.3706608267e-05 -5.1783442359e-05 -5.6422358284e-05 -5.7575457504e-05 -5.5790024817e-05 -5.2506667089e-05 -4.9628030683e-05 -3.9691374695e-05 
-2.754546631e-05 -1.3421201118e-05 -1.487450362e-06 6.434201822e-06 1.3702451724e-05 2.2199625619e-05 2.9939426895e-05 3.4988825973e-05 3.8081013372e-05 
4.0225058001e-05 4.23810543e-05 4.4646585593e-05 4.639045801e-05 4.6658883548e-05 4.4167347369e-05 3.8883747948e-05 3.0622221857e-05 2.047531666e-05 
1.0595624758e-05 1.6295136334e-06 -6.0470014773e-06 -1.2339322893e-05 -1.7702645664e-05 -2.1738132091e-05 -2.5671795811e-05 -2.9599228128e-05 -3.2016584555e-05 
-3.4605072869e-05 -3.4103593862e-05 -3.4788604353e-05 3.7162439185e-05 3.3892578358e-05 2.6229292416e-05 1.9588006808e-05 -1.1035233342e-05 -9.6254757409e-07 
-2.1091177132e-05 -3.1320657854e-05 -4.2427279368e-05 -5.3656064665e-05 -6.2042020545e-05 -6.4993726846e-05 -6.2403993979e-05 -5.914603571e-05 -5.6133845646e-05 
-5.2595560192e-05 -4.7433160034e-05 -4.0742844249e-05 -3.3940687445e-05 -2.1342278615e-05 -2.8057685995e-05 3.7740197513e-05 4.0807234654e-05 3.9577877942e-05 
3.6357315366e-05 3.304031361e-05 2.9668774005e-05 2.3969522317e-05 1.8824986682e-05 1.3592678215e-05 8.756946329e-06 4.2321458409e-06 -1.1481624028e-05 
3.8001228404e-07 -1.9653249637e-05 -2.5746885967e-05 -3.0889454592e-05 -3.4639194837e-05 -3.7052379412e-05 -3.8619547013e-05 -4.3253237891e-05 -4.577308664e-05 
-4.4655766033e-05 -4.1098382098e-05 -3.7451926801e-05 -3.4020618841e-05 -3.420813573e-05 -3.2420745811e-05 -2.9592315968e-05 -2.483454e-05 -1.7700283934e-05 
-8.8526540516e-06 4.3209581236e-05 4.4975036872e-05 4.1916732698e-05 3.4186638368e-05 3.9349698454e-05 2.9300540973e-05 -3.5927184399e-05 -3.6332834497e-05 
-3.4379819681e-05 -2.9374271435e-05 -2.3210122436e-05 -1.7259277229e-05 -9.9448467097e-06 1.16193022e-05 1.8083761461e-05 2.4012072117e-05 2.8088379167e-05 
4.0283524868e-05 3.8835135456e-05 4.081597308e-05 4.0203429307e-05 3.7423971662e-05 3.3073759369e-05 2.8033634408e-05 2.1634280984e-05 1.3191613562e-05 
3.161793515e-06 -4.6731605418e-06 -1.248402657e-05 -4.6347905482e-05 -3.7413476548e-05 -5.327910003e-05 -5.773680823e-05 -5.9993780269e-05 -6.0093132561e-05 
-5.8529574744e-05 -5.8430216995e-05 -2.9731874292e-05 -4.2927818868e-05 -1.6124289459e-05 -4.9540253713e-06 3.2973593989e-06 1.0415922361e-05 1.8102769445e-05 
2.639297054e-05 -2.8749277135e-05 -2.1813101739e-05 8.1053909753e-06 1.375937768e-05 -5.3526758165e-05 -6.0795213358e-05 4.1345894715e-05 4.2622380533e-05 
4.4394503675e-05 4.6416332225e-05 4.6513027883e-05 4.3349888074e-05 3.7331407839e-05 2.8838620892e-05 1.9132442503e-05 9.5365604693e-06 5.021402103e-07 
-7.3522284083e-06 -1.3724339624e-05 -1.9035692276e-05 -2.1885528137e-05 -2.4145294901e-05 -2.7528055398e-05 -3.1007383313e-05 -3.6877117964e-05 1.7113098011e-05 
7.6246457716e-06 2.348204968e-05 2.7238676921e-05 3.163903466e-05 4.165719929e-05 3.5160608149e-05 4.5098269766e-05 3.9580816519e-05 4.0041400098e-05 
3.6817098589e-05 3.3013881875e-05 2.8105317597e-05 2.0973839128e-05 1.1717243069e-05 -2.3203558158e-06 -1.4490046283e-05 2.6546083518e-05 1.6833748532e-05 
6.9476158444e-06 -2.2697422253e-06 -1.0074652778e-05 -1.6291761995e-05 -2.1253718842e-05 -2.4302526072e-05 -2.9588334655e-05 -2.829400637e-05 -2.5393771011e-05 
-1.9764617946e-05 -1.2017041968e-05 -2.5613232459e-06 -3.7265271385e-05 -3.9561037738e-05 -3.9144193579e-05 -3.4312783555e-05 -2.7890372166e-05 -2.2510864255e-05 
-1.7095016347e-05 -4.2404792111e-05 -4.4953041652e-05 -4.3580873353e-05 -4.0235523556e-05 -2.3688310648e-05 -2.9955742775e-05 -3.6122174606e-05 -4.027452087e-05 
-2.4912236768e-05 -2.1541714887e-05 -1.5670471385e-05 -7.9566842146e-06 1.3211376313e-06 1.1222380408e-05 2.0223383444e-05 2.3563362902e-05 1.0297287038e-05 
1.4172314195e-05 1.9165267304e-05 2.3641235657e-05 3.6808436562e-05 3.4200074879e-05 3.4398273419e-05 3.9709574594e-05 3.9602859033e-05 3.7256969335e-05 
3.5014856621e-05 3.9293971895e-05 2.6329703057e-05 -3.4066470562e-05 -4.0952234485e-05 -4.7997042202e-05 -5.3562044741e-05 -5.7505001678e-05 -6.0478687374e-05 
-6.2066639657e-05 -6.219844272e-05 -6.271246184e-05 -6.4664513047e-05 -6.1981817453e-05 -6.5388676376e-05 -5.4568837186e-05 -4.3745166295e-05 -3.0735185192e-05 
-1.8017748062e-05 -6.6397209139e-06 3.1625409633e-06 9.2808259069e-06 1.5530300743e-05 2.2712673854e-05 1.0101178001e-05 5.4001747287e-06 -2.8963430339e-06 
-1.1851354429e-05 -2.097630113e-05 -3.1526591556e-05 -4.2883348215e-05 -5.3898358601e-05 -6.2775289734e-05 -6.4890908106e-05 -5.9876330852e-05 -5.6831801885e-05 
-5.3753776592e-05 -4.8357633204e-05 -4.2070818381e-05 -3.6939327401e-05 2.9524134789e-05 -5.6791333918e-05 -5.8970592363e-05 -6.1560222093e-05 -6.3264365963e-05 
-6.4171108534e-05 -3.1308069083e-05 -4.3311869376e-05 -1.9933160502e-05 -1.2621221079e-05 -2.603968278e-05 -3.0817528113e-05 -4.2122193008e-05 -4.2656728328e-05 
-3.9855078891e-05 1.4078171034e-05 4.0873052001e-06 -5.1196936113e-06 -1.2763814311e-05 -1.8735761159e-05 -6.197334551e-05 -6.0765339488e-05 -5.4086322052e-05 
3.6518613342e-05 3.7950226215e-05 4.0143243192e-05 3.9443824789e-05 3.6195180655e-05 3.3208593474e-05 -3.744694186e-05 4.1465159787e-05 2.9856813853e-05 

Stress_XZ_Pt 1 1116 double
7.939806892e-06 1.706102875e-06 -8.6929511234e-07 7.7159253955e-06 -1.5978968584e-06 -4.617387356e-06 -3.8018014266e-06 -6.5775915914e-06 -4.8039582907e-06 
-7.699839216e-06 -5.8760165302e-06 -8.3801287474e-06 -5.3527292039e-06 -7.6866679137e-06 -3.1418917388e-06 -6.2723099745e-06 -3.371789262e-06 -5.6469916672e-06 
-2.085239629e-06 -3.34154673e-06 1.8319932735e-06 -1.3252675046e-07 4.3229562152e-06 1.4013953376e-06 5.7550091697e-06 1.9503555677e-06 4.3408000465e-06 
8.934359812e-07 1.5878419504e-06 -1.176720076e-06 2.9205555734e-06 -8.291636675e-07 7.2241678026e-06 2.2008771907e-06 1.1033854662e-05 5.730006535e-06 
1.33529511e-05 8.8893143584e-06 1.3275578567e-05 1.0698287269e-05 1.0750833553e-05 1.0143253576e-05 6.9901409461e-06 7.7681895618e-06 2.2083305851e-06 
4.2216302774e-06 -3.2962894636e-06 -1.1885630755e-06 -7.0915748438e-06 -6.4118580667e-06 -7.331673487e-06 -8.4377080611e-06 -3.2899010662e-06 -6.9164639065e-06 
-1.6625537569e-07 -4.5410169918e-06 -3.3447297412e-06 -5.5560276415e-06 -1.114192014e-05 -1.0332439047e-05 -1.8713681129e-05 -1.5043539179e-05 -2.2320902644e-05 
-1.6639078694e-05 -2.2141586669e-05 -1.4868849121e-05 -2.1167384148e-05 -1.1130220287e-05 -1.8510033442e-05 -6.0640148831e-06 -1.3771456452e-05 -9.1031870397e-07 
-1.0655021924e-05 2.3364734716e-06 -8.8336068984e-06 4.4147739118e-06 -5.9734488786e-06 6.696007631e-06 -1.5231561861e-06 9.1244942553e-06 2.216507994e-06 
9.4649618916e-06 3.7915706343e-06 5.9097637291e-06 3.5000456364e-06 3.1617844343e-07 1.5578949331e-06 -5.1094913971e-06 -1.1614990001e-06 -9.4980226351e-06 
-2.9425657431e-06 -1.1253489561e-05 -2.5861940571e-06 -8.7157374935e-06 -2.5328841957e-07 -2.558093172e-06 4.8472991239e-06 5.4083093062e-06 1.2374861399e-05 
1.3650625533e-05 1.9351477931e-05 2.0815507014e-05 2.3437914024e-05 2.605440568e-05 2.3088446142e-05 2.7334010611e-05 1.9559526663e-05 2.4635352929e-05 
1.5184529275e-05 2.0210278535e-05 1.2586887806e-05 1.5758161453e-05 -1.7603369088e-05 -1.5839687421e-05 -2.1058725679e-05 -2.0190805117e-05 -1.5037495814e-05 
-1.8880384005e-05 -1.5348904981e-05 -1.6118959593e-05 -1.4953772279e-05 -1.3461800791e-05 -1.744351357e-05 -1.3711465726e-05 -2.3311146833e-05 -1.7129384105e-05 
-2.8206069146e-05 -2.0562137934e-05 -2.8395174013e-05 -2.0795190494e-05 -2.4368593586e-05 -1.6977028395e-05 -2.0691099053e-05 -1.229377483e-05 -1.8502794774e-05 
-8.9580221925e-06 -1.4700028714e-05 -5.6656809306e-06 -1.0178207049e-05 -2.3063633989e-06 -4.6789587032e-06 1.3605894083e-06 3.1117465369e-06 5.9918870647e-06 
1.2334161966e-05 1.123610059e-05 2.2456543775e-05 1.7566169618e-05 3.0244146728e-05 2.5778043437e-05 3.2640256904e-05 3.3232314763e-05 3.0942022931e-05 
3.5609396036e-05 2.5423139959e-05 3.261983602e-05 1.820723719e-05 2.7085642159e-05 1.2245628568e-05 2.0491479972e-05 6.7206542553e-06 1.4328539464e-05 
4.1838998186e-06 1.0832445014e-05 5.4273984915e-06 8.7185209168e-06 2.6768556154e-06 3.8661430324e-06 -2.5956377385e-06 -2.0656425761e-06 -3.6585342968e-06 
-5.3880872883e-06 -6.0898137235e-06 -8.6011480107e-06 -7.3986082043e-06 -1.1552174442e-05 -1.1109859543e-05 -1.6335906253e-05 -1.6591061467e-05 -2.0828956167e-05 
-1.4008179733e-05 -1.9296627443e-05 -9.7238994385e-06 -1.5638040395e-05 -9.5703426268e-06 -1.4297659163e-05 -1.3236575796e-05 -1.5741426978e-05 -1.7399399439e-05 
-1.7944673345e-05 -2.008476622e-05 -1.9339538994e-05 -1.8994445782e-05 -1.8243677459e-05 -1.5130636257e-05 -1.5155663277e-05 -1.1588180769e-05 -1.2190856751e-05 
-8.4915518528e-06 -9.5979949037e-06 -3.6701871977e-06 -5.4995841765e-06 4.398839792e-06 1.6135398369e-06 1.3421272342e-05 1.0264377181e-05 2.1239371563e-05 
1.8466985011e-05 2.591385055e-05 2.4760670385e-05 2.7531674277e-05 2.8635499802e-05 2.7677716389e-05 3.0859578601e-05 2.5005329007e-05 3.1303328797e-05 
2.1737120733e-05 3.1805661365e-05 2.1289586584e-05 3.5011286855e-05 2.3659126782e-05 3.5732395645e-05 2.2529079615e-05 2.3954628432e-05 9.0253567464e-06 
4.1643725979e-06 -9.6155739016e-06 -1.1839866517e-05 -5.0729505858e-06 -1.0112548487e-06 -7.5755447142e-06 -9.7389364555e-06 -1.0566614264e-05 -1.0109223695e-05 
-9.2837049124e-06 -6.5028152676e-06 -2.1113966682e-06 -1.1605663985e-08 -8.1149167386e-07 -2.3875206523e-06 -3.7158588952e-06 -5.0887651923e-06 -5.9006913489e-06 
-5.1297836876e-06 -3.1934847016e-06 -6.9129782787e-07 2.0489883923e-06 4.1693890154e-06 5.4346777603e-06 6.2315596551e-06 4.5232735602e-06 -7.4226591096e-08 
-4.5448036872e-06 -7.4038715638e-06 -7.6671698253e-06 -7.0591045187e-06 -7.7194724781e-06 -8.1284769067e-06 -6.1882283831e-06 -1.4276933484e-06 5.3446220818e-06 
1.1938625107e-05 1.653776485e-05 1.9189014438e-05 2.0845626295e-05 2.1613022454e-05 2.0466397473e-05 1.6004071767e-05 7.4498379945e-06 -2.2412234557e-06 
-9.6877702163e-06 -1.391106216e-05 -1.5758731706e-05 -1.1043120196e-05 -2.2464358551e-06 7.0325545209e-06 1.4790221712e-05 2.1181954708e-05 2.670569711e-05 
2.9743598589e-05 2.8574525913e-05 2.3893576326e-05 1.7032071128e-05 7.4964537511e-06 -2.2311102384e-05 -2.2944287593e-05 -1.8572377712e-05 -1.4237296909e-05 
-1.138351945e-05 -1.0636596016e-05 -1.0996485116e-05 -1.050356866e-05 -7.6794074175e-06 -3.4080461546e-06 3.4338100363e-08 2.3693056193e-06 4.4677983055e-06 
6.2724421923e-06 7.9539539684e-06 1.0000764632e-05 1.338579068e-05 2.1178047518e-05 3.2417339753e-05 3.9181171815e-05 3.9533413656e-05 3.6340222323e-05 
3.0047169275e-05 2.3610239623e-05 1.8291543711e-05 1.1886081211e-05 4.4892930825e-06 -2.4188063256e-06 -8.0667865632e-06 -1.2270325669e-05 -1.6877891312e-05 
-2.2799801172e-05 -2.6682013868e-05 -2.6502024411e-05 -2.3928016617e-05 -2.1261903839e-05 -1.9458592305e-05 -1.7966587166e-05 -1.6435301404e-05 -1.4844992165e-05 
-1.2923683926e-05 -1.0912914149e-05 -9.0912482165e-06 -6.6201746449e-06 -1.7362922762e-06 5.8882963714e-06 1.4491319462e-05 2.2629624709e-05 2.9239241485e-05 
3.4079440411e-05 3.8311797653e-05 4.2919296902e-05 4.7610574256e-05 4.5255960686e-05 2.7876626518e-05 5.941306199e-06 -8.4053222054e-06 -1.7889086621e-05 
-4.4522288363e-06 -1.1232137069e-06 -7.3717623081e-06 -8.8797742137e-06 -8.7983347612e-06 -7.2069955195e-06 -2.7920256116e-06 2.1698247679e-06 3.0945263632e-06 
5.8666297775e-07 -2.3596968646e-06 -4.5733997922e-06 -6.1546935513e-06 -7.3821554452e-06 -8.0384546663e-06 -8.3697949549e-06 -8.3065028775e-06 -6.853759885e-06 
-4.0465237561e-06 -6.3834021091e-07 2.1762811571e-06 7.1666901249e-06 9.3211535841e-06 2.295984757e-06 -2.10377857e-06 -3.8148783688e-06 -3.8057008283e-06 
-3.3704476436e-06 -1.9081177811e-06 1.9753208562e-06 8.3205664509e-06 1.5414417021e-05 2.0996346848e-05 2.4172329631e-05 2.5375686164e-05 2.5760193239e-05 
2.5179168915e-05 2.2167684619e-05 1.6009854789e-05 7.4850905776e-06 -5.5626207995e-07 -5.753910159e-06 -7.715047559e-06 -4.4379988253e-06 -9.5548560921e-06 
2.9626768878e-06 9.8254766954e-06 1.5192231331e-05 1.9302728106e-05 2.2569578505e-05 2.5015860501e-05 2.5024262413e-05 2.0876864255e-05 1.4039562302e-05 
7.4880068723e-06 2.5500490608e-06 7.8100044902e-06 3.4840127512e-06 -1.0193901062e-05 -6.6620682446e-06 -2.0182918888e-05 -1.9909047751e-05 -1.7773558056e-05 
-1.4459514205e-05 -1.1305079397e-05 -8.7069421397e-06 -6.3172184355e-06 -3.9489700043e-06 -2.1223882243e-06 -8.5701834962e-07 6.4104371233e-07 2.4559101917e-06 
4.282194368e-06 6.3581574068e-06 8.9232357823e-06 1.2581666851e-05 1.8801652732e-05 2.8992891657e-05 3.554272007e-05 3.738088526e-05 3.576184281e-05 
3.1246703202e-05 2.5017577173e-05 1.7872682747e-05 1.0362606417e-05 3.172880802e-06 -3.1644341695e-06 -8.2781430137e-06 -1.2780968973e-05 -1.7821100982e-05 
-2.3981896902e-05 -2.8423341973e-05 -2.8843224754e-05 -2.6784357942e-05 -2.3940648589e-05 -2.0577092982e-05 -1.6235032945e-05 -1.21409239e-05 -9.7498058267e-06 
-8.4489034862e-06 -6.9585628353e-06 -5.209376468e-06 -3.9235971485e-06 -1.28127202e-06 4.4806373154e-06 1.207148523e-05 2.0356688992e-05 2.8275473596e-05 
3.4430726373e-05 3.9310101783e-05 4.277676544e-05 4.3310157707e-05 4.0292457015e-05 3.1797514112e-05 1.7502036371e-05 3.4483989566e-06 -7.3119434774e-06 
-1.5549485511e-05 -6.0138451659e-06 -3.9790737674e-06 -4.7206134468e-06 -2.6369093575e-09 6.166672506e-06 1.1274411463e-05 1.4604592934e-05 1.6586323e-05 
1.7603518472e-05 1.8522752953e-05 1.9001008013e-05 1.675787189e-05 1.2604932272e-05 7.9517147924e-06 3.7263857848e-06 4.5460720344e-07 -2.130828193e-06 
-4.3481545902e-06 -5.8183526335e-06 -5.4105896083e-06 -2.9033727742e-06 1.4409618529e-06 4.8278470786e-06 4.3584930154e-06 1.5968856104e-06 -1.1146219521e-06 
-3.3686818313e-06 -5.0450393019e-06 -6.7890987339e-06 -8.8440075388e-06 -1.0883208006e-05 -1.2243648143e-05 -1.1217520751e-05 -8.325856129e-06 -5.4711854318e-06 
-3.1296943348e-06 -1.4211957193e-06 3.9478685778e-06 -4.1693212438e-07 8.287641208e-06 1.020074842e-05 9.1023822506e-06 6.3443641807e-06 3.6721226024e-06 
2.3322063498e-06 1.7109318264e-06 1.8685441319e-06 3.6182873941e-06 7.8025306607e-06 1.4294756966e-05 2.1340686089e-05 2.6471629099e-05 2.8625309824e-05 
2.8507460229e-05 2.7754135772e-05 2.6498009902e-05 2.3347360184e-05 1.7179890619e-05 8.9227302738e-06 1.9502329849e-06 -1.7482951549e-06 -2.6535549615e-06 
-1.9531461923e-06 -1.0240429464e-06 -2.2347413164e-06 -1.196003625e-06 -3.1398357502e-06 -1.9443170913e-05 -1.9448784315e-05 -1.7383607428e-05 -1.3959072476e-05 
-1.010023459e-05 -6.4782243498e-06 -3.5780950611e-06 -2.4622431454e-06 -2.4403870782e-06 -1.2178115441e-06 1.0895722511e-06 3.2832568309e-06 5.2802930668e-06 
7.3658792417e-06 1.0138669495e-05 1.2933655171e-05 3.0501898436e-05 2.5824755994e-05 3.297335752e-05 3.2890221519e-05 2.9696538149e-05 2.3388166483e-05 
1.5276349131e-05 7.7243960277e-06 1.7298203687e-06 -2.8500613922e-06 -6.6594427608e-06 -1.0912496236e-05 -1.643876999e-05 -2.3000207875e-05 -2.7708600555e-05 
-2.8580016988e-05 -2.6790731226e-05 -2.3501675969e-05 -1.879967931e-05 -1.3149514416e-05 -8.3060766656e-06 -5.6726542539e-06 -4.693707524e-06 -3.2622225774e-06 
-1.091991237e-06 -8.0883239661e-08 1.1877631607e-06 4.9258466106e-06 1.081447283e-05 1.9000453904e-05 2.8399608709e-05 3.5926798773e-05 4.0538480789e-05 
4.2096400648e-05 4.0473811168e-05 3.8341951949e-05 3.4561343909e-05 2.5167782496e-05 1.3115842876e-05 1.4868017786e-06 -9.0991192394e-06 -1.6329204755e-05 
1.961913631e-05 1.4669884422e-05 -1.9226833672e-06 1.0664989247e-06 5.0045852049e-06 8.3255520167e-06 1.0498272673e-05 1.1417013184e-05 1.1461215536e-05 
1.1556099707e-05 1.2033868643e-05 1.1862879546e-05 1.2174497215e-05 3.4043733876e-06 7.4190336363e-06 1.0165549895e-06 -4.9967025006e-07 -2.0481016634e-06 
-2.7144895824e-06 -1.6071924023e-06 1.1838180853e-06 4.6569768415e-06 6.5834424277e-06 4.9036377732e-06 2.5568552644e-06 5.4383812653e-07 -8.896085717e-07 
-2.4469179891e-06 -5.056363932e-06 -8.764666859e-06 -1.2272018012e-05 -1.4955412007e-05 -1.360781016e-05 -1.0615525525e-05 -8.129314665e-06 -7.327996741e-06 
-5.6695893136e-06 -4.3948896291e-06 -3.0366081205e-07 -4.4118872893e-06 4.0763406162e-06 8.4552973476e-06 1.0263205089e-05 1.0268230881e-05 1.0374281146e-05 
9.7019600389e-06 8.1020360767e-06 7.2236861115e-06 7.4614628147e-06 9.0618763124e-06 1.2767564726e-05 1.8665022253e-05 2.514067728e-05 2.9425128105e-05 
3.0123539545e-05 2.8662252589e-05 2.7074789614e-05 2.5551250019e-05 2.2790883122e-05 1.740234643e-05 1.0193405956e-05 4.2871078847e-06 1.2955800059e-06 
1.5027937046e-06 1.7506404113e-06 1.2455925269e-06 -4.807904066e-07 -2.2731636022e-06 -2.547287778e-06 -1.818766151e-06 1.156286794e-05 1.3575269577e-05 
1.9043686734e-05 1.5375795101e-05 2.3031738237e-05 2.5968257432e-05 2.8234183446e-05 2.8725867196e-05 2.6228707156e-05 2.0455688627e-05 1.2980769725e-05 
6.2506636596e-06 1.3795117004e-06 -1.9547113945e-06 -4.7347365921e-06 -8.0177042037e-06 -1.2859633171e-05 -2.0760189727e-05 -2.5202167762e-05 -2.6073947538e-05 
-2.4590839075e-05 -2.1274997835e-05 -1.5906777662e-05 -1.0066260643e-05 -5.7282690022e-06 -3.2908812386e-06 -2.2709194241e-06 -6.6324213321e-07 1.8919148204e-06 
3.3622243336e-06 4.4335579616e-06 7.1688006642e-06 1.2268186993e-05 2.0099544372e-05 2.946608538e-05 3.6922109757e-05 4.1535481614e-05 4.3366839236e-05 
4.2055004087e-05 3.9840059799e-05 3.6672878196e-05 2.9356205687e-05 1.8635924562e-05 6.7493627682e-06 -4.9113663465e-06 -1.3574141121e-05 -1.8211886982e-05 
-1.9677145701e-05 -1.8801211809e-05 -1.6171504512e-05 -1.2836035467e-05 -9.5216164482e-06 -6.4982791059e-06 -4.6778794172e-06 -4.1373366457e-06 -2.5559626664e-06 
5.17892218e-07 3.3452817547e-06 5.1576167834e-06 6.8257165822e-06 9.0490395905e-06 1.0963093018e-05 1.2558908111e-05 1.3724986502e-05 1.5621070588e-05 
1.4201431213e-05 1.7656627582e-05 -6.5021902174e-07 1.1577881764e-06 3.0434557061e-06 4.6465461594e-06 5.0124522488e-06 4.8439011096e-06 5.0477555646e-06 
6.1396695514e-06 7.8238120977e-06 9.8305519032e-06 1.2214287835e-05 1.303990075e-05 1.2767198314e-05 9.2376208158e-06 5.189038518e-06 3.0666265616e-06 
1.609124908e-06 2.9565855542e-07 -8.1245430295e-07 -4.1848715782e-07 1.1000683742e-06 3.67814323e-06 6.3233812853e-06 8.1035600488e-06 4.5047011099e-06 
6.0868532046e-06 2.878925244e-06 1.6024093554e-06 -4.4106703475e-08 -2.448891307e-06 -8.2664903402e-06 -1.2465922055e-05 -1.5594265278e-05 -1.1053520211e-05 
-1.4465589857e-05 7.8051800756e-06 9.3576775271e-06 -1.661239412e-05 -1.6936508473e-05 -8.2663264038e-06 -9.6041914048e-06 -8.2616057853e-06 -4.9400135254e-06 
-9.4396571058e-06 3.3095889762e-07 5.6324230115e-06 9.6195693686e-06 1.1636912404e-05 1.257641361e-05 1.2231497294e-05 1.2623634575e-05 1.3380702057e-05 
1.4842348037e-05 1.769049868e-05 2.210365983e-05 2.6620732569e-05 2.9211534184e-05 2.9020940019e-05 2.7219022741e-05 2.5271504455e-05 2.3359277293e-05 
2.0655890694e-05 1.6322983356e-05 1.0115029545e-05 5.1311416769e-06 4.7553858735e-06 3.3661794703e-06 7.3668121914e-07 -2.3384045811e-06 -4.498731812e-06 
-5.0002889225e-06 -3.0002244387e-06 1.9356866233e-05 2.1408282009e-05 2.2990347588e-05 2.338708282e-05 2.1594412829e-05 1.7217126242e-05 1.1700460163e-05 
6.814232961e-06 2.947939179e-06 1.6038970241e-07 -1.9313688426e-06 -4.1199741645e-06 -6.0253709648e-06 -2.1557500986e-05 -1.802478846e-05 -2.2163570065e-05 
-2.068598269e-05 -1.7791319578e-05 -1.3381223198e-05 -8.5044355274e-06 -4.8253561999e-06 -2.3398275317e-06 -7.1973558136e-07 8.5130861294e-07 4.4683642273e-06 
6.5593874297e-06 8.2292269781e-06 1.0978940622e-05 1.5649031184e-05 2.2255568638e-05 2.9579673082e-05 3.60070444e-05 3.9924564044e-05 4.3468228796e-05 
4.2966791625e-05 3.9747781557e-05 3.5533544178e-05 2.9720623843e-05 2.1928724891e-05 1.1215620475e-05 -9.4311337762e-07 -1.0145062561e-05 -1.572747351e-05 
-1.8173736407e-05 -1.7936445147e-05 -1.6083427681e-05 -1.4038753307e-05 -1.2174988797e-05 -9.8952810959e-06 -7.5058682114e-06 -5.4755272458e-06 -2.9647987674e-06 
4.7263498004e-07 3.7603387e-06 5.8735049606e-06 7.3443119391e-06 9.0468042799e-06 1.0468708524e-05 1.1734436384e-05 1.2802461697e-05 1.3045603055e-05 
1.3985723172e-05 1.2368569969e-05 1.6150907868e-05 -1.2561630683e-05 -7.0519951123e-06 8.4066952013e-06 1.1131569295e-05 1.8218008108e-05 1.6790169866e-05 
1.8984363123e-05 2.0074509393e-05 2.1996581381e-05 2.4557199595e-05 2.6261958283e-05 2.6874924151e-05 2.7007000881e-05 2.6447783512e-05 2.4324365768e-05 
2.1461140022e-05 1.8406222807e-05 1.493758441e-05 1.1454634887e-05 7.2654333962e-06 9.0851127652e-06 -2.8989426824e-06 -1.9230101884e-06 -9.9214784655e-07 
-9.0368840233e-07 -1.1253513037e-06 -1.2201714981e-06 2.0204841462e-06 4.4733847631e-06 6.3517611011e-06 8.4567815293e-06 9.1088471663e-06 1.1124674529e-05 
6.9576625265e-06 1.0535052184e-05 6.4206282673e-06 3.5671030787e-06 3.024107059e-06 2.1422213052e-06 9.186640888e-07 2.4154943077e-06 4.698620728e-06 
7.0169754736e-06 8.7520584202e-06 1.0121613968e-05 1.0460440535e-05 1.1429822507e-05 9.1044037163e-06 7.8722005128e-06 6.5588043299e-06 4.6919273586e-06 
2.2058863269e-06 -1.1879320709e-05 -1.348813712e-05 -1.1892878092e-05 -4.4946205435e-06 -1.2065283727e-05 3.1868950714e-06 1.6730135485e-05 1.6797890567e-05 
1.6548380472e-05 1.5664377315e-05 1.3522866539e-05 1.0583126823e-05 8.3368411197e-06 3.1929254192e-06 1.2963560039e-06 -3.3014009304e-07 -2.0054638092e-06 
-1.7357723891e-05 -1.5047886563e-05 -1.7680366909e-05 -1.6257983816e-05 -1.4022275991e-05 -1.1341331629e-05 -8.1012378814e-06 -5.023876156e-06 -2.0310338584e-06 
4.7717017537e-07 1.5583073036e-06 3.9893626536e-06 1.1991723795e-05 9.5713377277e-06 1.5089105318e-05 1.9073435624e-05 2.4020063847e-05 2.8938404284e-05 
3.371270941e-05 3.5771156035e-05 4.0613586862e-05 4.1127197619e-05 3.641283638e-05 3.1419461266e-05 2.6761154459e-05 2.1626000034e-05 1.3778728771e-05 
4.1974226406e-06 8.3024415289e-06 7.1905958521e-06 1.576667637e-05 1.4924370134e-05 3.7823141611e-05 3.3765835724e-05 -1.5089189901e-05 -1.5292334183e-05 
-1.4485969359e-05 -1.4129860347e-05 -1.4230245142e-05 -1.3299998272e-05 -1.0720609453e-05 -7.2980838013e-06 -3.3825400578e-06 6.694758099e-07 4.1726756876e-06 
6.5844407118e-06 8.119697668e-06 9.4038016414e-06 1.0343504073e-05 1.1031774193e-05 1.1951636907e-05 1.2211927015e-05 1.085205372e-05 -8.4703669927e-06 
-3.3211177222e-06 -1.1895649853e-05 -1.3527470173e-05 -1.4470309452e-05 -1.5846086399e-05 -1.3357251191e-05 -1.5872349877e-05 -1.2438400972e-05 -1.304378975e-05 
-1.1173013263e-05 -9.9901790236e-06 -7.907416375e-06 -5.2234364603e-06 -1.9866167911e-06 2.0840590793e-06 5.4398939255e-06 -8.905790196e-06 -3.8374505493e-06 
9.281782809e-07 4.6837577088e-06 7.3142610972e-06 9.093118706e-06 1.0213219184e-05 1.1284248103e-05 1.1370524135e-05 1.0688250995e-05 9.7025699688e-06 
7.9458068285e-06 5.4880819107e-06 1.7094592497e-06 1.2358285494e-05 1.1298552181e-05 9.9384163832e-06 9.3756515298e-06 9.1848665988e-06 8.6476821934e-06 
9.2185196081e-06 3.1176517155e-06 5.1498562925e-06 7.5354860201e-06 9.254825045e-06 7.9363086343e-06 4.9483930411e-06 3.1849839957e-06 3.1828456031e-06 
1.1477058554e-05 1.0605540183e-05 8.6944472741e-06 5.8451478253e-06 1.3989770764e-06 -4.0183355736e-06 -9.2808035106e-06 -9.624692666e-06 5.7020496721e-06 
4.5841072165e-06 2.8126673364e-06 1.0428453585e-06 -1.1402186374e-05 -6.8884008897e-06 -5.9511438849e-06 -5.6625774505e-06 -7.0071200753e-06 -6.2862958998e-06 
-6.2837195287e-06 -1.2407225313e-05 -1.9278767619e-07 1.0318611203e-05 1.1997839238e-05 1.5043162421e-05 1.8465937501e-05 2.1475610538e-05 2.4894155104e-05 
2.8254911285e-05 3.1029418096e-05 3.2343531075e-05 3.0392290228e-05 3.1367989777e-05 2.7868639336e-05 3.4826086448e-05 3.6758064198e-05 3.6120941331e-05 
3.2551536151e-05 2.6992131097e-05 2.2622517918e-05 1.8583073597e-05 1.4043590909e-05 8.3551666421e-06 1.7537287931e-05 1.9360747501e-05 2.1644568278e-05 
2.3075629997e-05 2.380969454e-05 2.4922903322e-05 2.6048512154e-05 2.720725297e-05 2.7073009733e-05 2.7805218451e-05 2.6463213089e-05 2.3906635306e-05 
2.0700115419e-05 1.6946945152e-05 1.3710242229e-05 1.1695708963e-05 -7.3937984553e-06 2.2232604048e-05 2.4286735879e-05 2.7152812436e-05 2.893518058e-05 
2.9778589427e-05 3.0540368698e-05 3.1126560771e-05 2.8474613828e-05 2.6411778284e-05 6.8411356248e-06 5.682601909e-06 8.3506298552e-06 5.5616323607e-06 
9.6727905354e-06 -4.1631589625e-06 1.1697285913e-06 5.4287777402e-06 8.2865695958e-06 1.0157475799e-05 2.7499846055e-05 3.0105453334e-05 3.0923155009e-05 
-9.9600162381e-06 -1.1207539046e-05 -9.9196440715e-06 -8.9586940248e-06 -8.5065310031e-06 -8.9679142548e-06 4.8073439416e-06 -1.2310513436e-05 -2.8457053247e-06 

Disp_X 1 1116 double
0 0 -5.066005906e-05 -6.6734966822e-05 0 -4.0593226004e-05 0 -2.379309808e-05 0 
-8.748482287e-06 0 1.8350920072e-06 0 1.2023106137e-05 0 1.890115891e-05 0 1.8378563254e-05 
0 2.3409573259e-05 0 2.7902155125e-05 0 3.4488712117e-05 0 3.4358348785e-05 0 
3.5091146856e-05 0 3.439890861e-05 0 3.3227304812e-05 0 2.719904478e-05 0 1.8496126359e-05 
0 1.0816826943e-05 0 1.1868184629e-05 0 1.5726400306e-05 0 1.8406244635e-05 0 
2.4019673219e-05 0 2.573537131e-05 0 2.9133729186e-05 0 3.3364063711e-05 0 3.2756535802e-05 
0 3.569432738e-05 0 3.5161676351e-05 0 3.405735697e-05 0 3.2374835428e-05 0 
2.8169564757e-05 0 1.7854215912e-05 0 1.1015752534e-05 0 1.9359649741e-06 0 -1.3553184317e-06 
0 -5.1365718718e-06 0 -1.2603783034e-05 0 -1.698354572e-05 0 -1.6812344256e-05 0 
-1.7928397938e-05 0 -1.3832928744e-05 0 -7.9353703768e-06 0 -5.3191538427e-06 0 -8.8215972482e-07 
0 8.1642756413e-06 0 9.4640945463e-06 0 1.1293061561e-06 0 -1.0492726688e-05 0 
-2.0723256966e-05 0 -2.4343749828e-05 0 -2.4644061341e-05 0 -3.1589919672e-05 0 -4.5948934712e-05 
0 -5.9090521972e-05 0 -6.5482163336e-05 0 0 -7.6814319527e-07 -1.0184652638e-05 0 
9.3514790933e-06 0 2.5200883101e-05 0 3.5832475987e-05 0 4.7541547247e-05 0 5.2378447435e-05 
0 5.6670822232e-05 0 5.0232498324e-05 0 4.804657874e-05 0 3.1547995604e-05 0 
2.1866822863e-05 0 1.1760127563e-05 0 4.065264875e-06 0 -4.4665048335e-06 0 -1.5122715922e-05 
0 -1.8637392714e-05 0 -2.1859912522e-05 0 -1.6030977349e-05 0 -1.5046256522e-05 0 
-1.6603818949e-05 0 -1.2230203538e-05 0 -2.0534784198e-05 0 -2.2227861336e-05 0 -1.9279183107e-05 
0 -3.0068275009e-05 0 -4.7812507546e-05 0 -5.5167136452e-05 0 -5.1782859373e-05 0 
-4.6538567403e-05 0 -3.955158536e-05 0 -5.0508260756e-05 -2.499427319e-05 -5.413857798e-05 0 -5.9416517615e-05 
0 -5.741991481e-05 0 -5.4953361541e-05 0 -4.8902085837e-05 0 -4.6083605412e-05 0 
-4.4386470108e-05 0 -4.5143369789e-05 0 -5.1884544519e-05 0 -5.2382554713e-05 0 -5.0111579185e-05 
0 -4.424650615e-05 0 -3.6204779462e-05 0 -2.317986764e-05 0 -8.7484513642e-06 0 
1.0603760529e-05 0 2.5003482733e-05 0 3.8950292947e-05 0 5.1935789088e-05 0 4.7718538553e-05 
0 3.9783124521e-05 0 1.8707418349e-05 0 1.8232288994e-06 0 -1.4705242393e-05 0 
-2.2668205929e-05 0 -1.9258231987e-05 -7.2870949225e-05 -9.0487585112e-05 -4.9708247388e-05 -2.4317914722e-05 -2.7534131277e-06 1.4312308849e-05 
2.6910565794e-05 3.3586165955e-05 4.1010112909e-05 4.7374145652e-05 5.1859944506e-05 5.4101652495e-05 5.6121800299e-05 5.3354699048e-05 4.7967172577e-05 
3.4230713936e-05 2.7665551897e-05 2.0862848032e-05 2.599763684e-05 3.0158234949e-05 3.1635441701e-05 2.9434322641e-05 3.0852264899e-05 3.4906439396e-05 
4.1779865569e-05 4.6853598178e-05 5.3734500398e-05 5.8684436226e-05 6.0976675741e-05 5.8992995037e-05 5.1853920013e-05 3.7695848732e-05 2.4616227165e-05 
8.1640619101e-06 -1.6387721757e-07 -6.3181109908e-06 -1.5450284991e-05 -2.7036561733e-05 -3.418234337e-05 -3.4756089008e-05 -2.936031342e-05 -2.4812459742e-05 
-2.1980358724e-05 -1.3487407159e-05 4.4711418923e-06 8.0886893556e-06 -2.5071881282e-06 -2.2107969926e-05 -4.0428869397e-05 -5.1700135373e-05 -5.5590648117e-05 
-6.4551888499e-05 -7.7896373114e-05 -9.0208406618e-05 -9.8408403574e-05 -9.8120501207e-05 1.1023782463e-05 -6.0926126935e-06 3.224185275e-05 5.2232273447e-05 
6.8088833359e-05 7.776592247e-05 8.2164806372e-05 7.4308700277e-05 6.3876061176e-05 4.578381413e-05 3.3292548324e-05 2.0162195142e-05 8.3677232396e-06 
-6.4007272158e-06 -1.8295095288e-05 -2.3987950044e-05 -2.3583306756e-05 -1.7002657842e-05 -1.5941770471e-05 -1.691775833e-05 -1.5764095224e-05 -2.5297542379e-05 
-3.1161322113e-05 -4.07922671e-05 -5.565673564e-05 -6.8514382292e-05 -7.7405013144e-05 -7.8897515777e-05 -7.6435309893e-05 -7.3907103797e-05 -7.6344716945e-05 
-8.1761929323e-05 -8.7594038632e-05 -8.7211483333e-05 -8.1898986537e-05 -7.3307877756e-05 -6.762349949e-05 -6.4710548031e-05 -6.6692664404e-05 -7.330403605e-05 
-7.5987962191e-05 -7.2564289439e-05 -6.4895029936e-05 -5.2900395531e-05 -3.7727651943e-05 -1.7803991796e-05 7.6203095887e-06 3.1165836845e-05 5.3430871048e-05 
7.1649650636e-05 7.2548573371e-05 6.4579580794e-05 4.563141556e-05 1.6584783225e-05 -2.161654993e-05 -4.000307672e-05 -3.4215136111e-05 -2.2348831408e-05 
-6.9375062594e-05 -9.1305293608e-05 -3.964696225e-05 -1.2818132745e-05 9.5693185358e-06 2.7470361601e-05 3.9724945964e-05 4.8150453949e-05 5.4913525673e-05 
6.0149319324e-05 6.366470916e-05 6.5184241976e-05 6.1191669374e-05 4.9522939662e-05 3.6115008697e-05 3.2377451134e-05 3.2863379602e-05 3.6880042899e-05 
3.7946196244e-05 3.5584936995e-05 2.8918435419e-05 2.4463823138e-05 1.9619619707e-05 3.4307431633e-05 4.7501776862e-05 6.0216243583e-05 6.9021385571e-05 
7.2849274147e-05 7.2336319136e-05 6.5793916292e-05 5.3340118029e-05 3.7763307773e-05 1.6226047592e-05 -3.5068314475e-08 -1.2202633116e-05 -2.4064225727e-05 
-3.412631122e-05 -4.1872553993e-05 -4.4446049287e-05 -3.9589151129e-05 -3.463007306e-05 -3.2195410313e-05 -2.69043976e-05 3.8377106648e-06 1.029062787e-06 
-9.8990831248e-06 -3.5733883124e-05 -6.130849215e-05 -7.8144323197e-05 -8.7217893451e-05 -9.8288473964e-05 -0.00010536821355 -0.00011458541849 -0.00012304488337 
-0.00011872640607 -0.0001134551494 1.6759591745e-05 2.1399247998e-05 -1.2061573216e-05 -2.1637431928e-05 3.8730817323e-05 1.2290148334e-05 6.1691345763e-05 
8.020614041e-05 8.9463348559e-05 9.2850488727e-05 8.4813742433e-05 7.5446841947e-05 6.2236656959e-05 4.3778840336e-05 2.8369413485e-05 1.0943288544e-05 
-7.2758853094e-06 -2.1410603949e-05 -2.6537183658e-05 -2.2334430469e-05 -1.2355314539e-05 -1.2405831512e-05 -1.645204793e-05 -2.0856870833e-05 -3.4636097553e-05 
-4.8941601563e-05 -6.8018372986e-05 -8.3824532339e-05 -9.3393988209e-05 -9.7030089819e-05 -9.7797652415e-05 -9.9095319456e-05 -9.9211771158e-05 -0.0001001903147 
-0.00010273698717 -0.00010351421224 -9.8054028058e-05 -9.2567403044e-05 -8.5596409917e-05 -8.0503021309e-05 -7.6590382378e-05 -7.6739801443e-05 -7.7975710155e-05 
-7.7491728007e-05 -7.3358773079e-05 -6.5000269387e-05 -5.3573978221e-05 -3.9554390241e-05 -2.0054396373e-05 6.3927427618e-06 3.3997956052e-05 6.0384747485e-05 
8.2223756181e-05 8.9661902166e-05 8.6710329924e-05 6.6946995503e-05 3.1332478102e-05 -1.0786651728e-05 -4.3559131882e-05 -4.5171462261e-05 -3.1826857594e-05 
-1.1182112758e-05 -9.8978543974e-06 -1.5162349882e-05 -3.0041935588e-06 -3.1535985272e-06 -2.0509425667e-05 -5.1305840316e-05 -8.0453894043e-05 -0.00010217753879 
-0.00011595893011 -0.00012519628217 -0.0001276020339 -0.0001327101636 -0.00014613004168 -0.00013835683058 -0.00012133224664 -0.00010494684102 -8.2558850409e-05 
-5.374272223e-05 -2.3973496354e-05 1.4825435528e-06 2.1734662369e-05 3.6777746573e-05 4.7984565754e-05 5.7134206145e-05 6.3274950662e-05 6.6254775447e-05 
6.5598302172e-05 5.7991186623e-05 4.5365672122e-05 3.6413417547e-05 3.8443271478e-05 4.4003674702e-05 4.7517900384e-05 4.4189277105e-05 4.0916820581e-05 
3.4484222851e-05 2.9405860914e-05 1.2538279407e-05 2.2392548999e-05 9.0016992544e-06 9.5110999609e-06 1.3180207134e-05 2.4028826374e-05 4.1633717046e-05 
6.0008525907e-05 7.3049028288e-05 7.9356133938e-05 7.9885074229e-05 7.4757728726e-05 6.4183783252e-05 4.489911953e-05 1.9052149582e-05 -2.6488955882e-06 
-2.1770845706e-05 -3.5194621887e-05 -4.0462007746e-05 -4.4858035835e-05 -4.5511245844e-05 -4.356631689e-05 -3.8375099393e-05 -3.379741247e-05 -2.9599192203e-05 
-2.2847612854e-05 -1.7378892153e-05 -1.1114007066e-05 -1.4537489733e-05 -8.5343172032e-06 6.8334680691e-05 4.2051640776e-05 8.8134249381e-05 9.7599666333e-05 
0.00010041234782 9.4330840511e-05 8.3406404883e-05 6.8214074417e-05 4.8938702093e-05 2.7928337659e-05 6.496954029e-06 -1.2944558875e-05 -2.6880450605e-05 
-2.9307213481e-05 -2.3541351766e-05 -1.4759402802e-05 -1.8170203475e-05 -1.1404817087e-05 -2.8046790248e-05 -4.6046796342e-05 -6.6863758548e-05 -8.8420172688e-05 
-0.00010459875193 -0.00011332192662 -0.00011715645815 -0.00011385748076 -0.0001161681721 -0.00011975950474 -0.00012038960267 -0.00011723532953 -0.00011137456022 
-0.00010284313612 -9.5952178526e-05 -9.0080895461e-05 -8.5599487647e-05 -8.1138539826e-05 -7.7710261394e-05 -7.4082898209e-05 -6.990043039e-05 -6.3683524786e-05 
-5.5307573348e-05 -4.4653013902e-05 -3.2267005736e-05 -1.4116248167e-05 9.7815609479e-06 3.5483153624e-05 6.3491992478e-05 8.6210253357e-05 9.7995594842e-05 
9.5032926765e-05 7.5362127973e-05 4.4021024223e-05 6.9955221988e-06 -3.0332344977e-05 -4.3588723202e-05 -3.5274279071e-05 -1.396296193e-05 1.2766930922e-05 
-7.9633564383e-06 -6.4769396886e-06 -5.4023548728e-06 -8.4905350377e-06 -2.8286422094e-05 -6.0521088017e-05 -9.3267481134e-05 -0.00011928718595 -0.00013587584544 
-0.00014502482372 -0.00014449300943 -0.00014413532335 -0.00015246673138 -0.00012747765868 -0.00014440805535 -0.00011112119682 -8.4549435996e-05 -5.9547859564e-05 
-3.5341119656e-05 -1.058014368e-05 1.0708187801e-05 2.7199363103e-05 4.1029128624e-05 5.4318436014e-05 6.0514899815e-05 6.1729988374e-05 5.7929737522e-05 
4.8697318562e-05 3.6522906157e-05 3.2767515222e-05 4.0580769564e-05 5.7608045609e-05 5.8702891693e-05 5.1458624512e-05 4.5827135182e-05 4.4856125896e-05 
3.9752860175e-05 3.4913169657e-05 1.4567748622e-05 2.8537177059e-05 5.7688207562e-06 3.2013144846e-06 4.0861878006e-06 5.1507158787e-06 1.3496442989e-05 
3.2526782888e-05 5.5795855587e-05 7.353779074e-05 8.2886268501e-05 8.5214363935e-05 8.1332073023e-05 7.0906229666e-05 5.1822356909e-05 2.4985538403e-05 
-1.8428984276e-06 -2.5895096769e-05 -4.0035283746e-05 -4.4809385145e-05 -4.6033357648e-05 -4.3717784138e-05 -4.0488142986e-05 -3.6509027268e-05 -3.267343709e-05 
-2.8776961699e-05 -2.1700783691e-05 -1.7443868273e-05 -1.85939316e-05 -1.7128191757e-05 -2.4900295102e-05 -9.3121925602e-06 -0.00015701915254 -0.00015812680067 
-4.9227319323e-06 -1.6834751477e-06 -1.187844191e-05 -2.2755451937e-05 -3.9299135096e-05 -5.9808298829e-05 -8.335433813e-05 -0.00010629997269 -0.00012209384295 
-0.00012980819156 -0.00013014480646 -0.0001279678836 -0.00013116988703 -0.00013686572493 -0.00014004444529 -0.00012766946747 -0.00011444160191 -0.00010360056331 
-9.5818766567e-05 -9.0419503977e-05 -8.6065971118e-05 -7.9794801422e-05 -7.2901450039e-05 -6.555076834e-05 -5.8382589486e-05 -5.0546183047e-05 -4.0020677261e-05 
-3.0731211154e-05 -2.1328452931e-05 -6.4848372858e-06 1.4361358808e-05 3.8977272197e-05 6.5733620431e-05 8.6549021944e-05 9.8633950984e-05 9.475612751e-05 
7.7268472523e-05 5.3178180679e-05 2.5914683647e-05 -9.8499613159e-06 -3.0388577215e-05 -3.0628729291e-05 -1.2927555872e-05 1.3309906535e-05 4.2299147026e-05 
6.8385495979e-05 8.752062422e-05 9.7023854323e-05 9.960233001e-05 9.5148141554e-05 8.4951832832e-05 6.8839886808e-05 4.7517311032e-05 2.3719008823e-05 
6.1934792939e-07 -1.7345151718e-05 -2.9808879844e-05 -2.9573338907e-05 -2.4262777515e-05 -1.4939882021e-05 -5.5637306104e-06 1.5666608988e-06 -1.2936318399e-06 
4.8364763643e-06 -5.4153802012e-06 -1.4585314602e-05 -3.1791922083e-05 -6.234934699e-05 -9.7496900707e-05 -0.00012618399342 -0.00014601332077 -0.00015557515144 
-0.00015459414863 -0.00015078308934 -0.00014881926472 -0.00015003149747 -0.00015879186685 -0.00015212598373 -0.00015696855553 -0.00014506650041 -0.00012743526895 
-0.00010435204604 -8.0337034888e-05 -6.2940664066e-05 -4.8198951845e-05 -2.6601803256e-05 -5.1654405979e-06 1.1208778233e-05 2.286687959e-05 5.3454765293e-05 
4.998298391e-05 5.1683411584e-05 4.6345950977e-05 4.0298615204e-05 2.6007866836e-05 2.6472151148e-05 3.6032033677e-05 4.9004524044e-05 5.5697135394e-05 
6.5078347689e-05 4.1291757952e-05 2.8893726267e-05 6.8014815042e-05 5.9514688473e-05 4.8690264521e-05 5.4339496273e-05 4.4593092753e-05 2.2072354113e-05 
3.9936723624e-05 6.3378747654e-06 -1.4970761413e-06 -1.4118232912e-06 2.5772624213e-06 2.1170952095e-05 5.5097742006e-05 7.4154675531e-05 8.5421102995e-05 
8.909402095e-05 8.6483945779e-05 7.7331911598e-05 5.9413832787e-05 3.4771710489e-05 7.5192861004e-06 -1.809150308e-05 -3.5295575799e-05 -4.0210496081e-05 
-4.1426308599e-05 -3.8937116187e-05 -3.2076241041e-05 -2.9628743505e-05 -2.1024481612e-05 -1.6932592189e-05 -2.1487299819e-05 -3.1203704566e-05 -3.4084700019e-05 
-4.1887135012e-05 -2.3818060072e-05 -1.2109298041e-05 -2.4683635274e-05 -4.552536484e-05 -6.9525107392e-05 -9.5940864412e-05 -0.00011958636605 -0.000135602706 
-0.00014087567979 -0.0001389823592 -0.0001374980493 -0.00014092063066 -0.00014712123084 -0.0001531328744 -0.00011604272731 -0.00013063169899 -0.00010320973524 
-9.3907729024e-05 -8.735582378e-05 -8.1973077613e-05 -7.4194947956e-05 -6.5499931225e-05 -5.5912332755e-05 -4.6977704187e-05 -3.818926416e-05 -2.4234339435e-05 
-1.806855289e-05 -1.0935759747e-05 8.2052412154e-07 1.7619202481e-05 3.7934209104e-05 6.1593287683e-05 8.1366684753e-05 9.6213312645e-05 9.4955546956e-05 
7.998264482e-05 6.1471917434e-05 4.1171475459e-05 8.0838835856e-06 -1.4879235096e-05 -2.22516137e-05 -1.1305392036e-05 1.253724713e-05 4.0688435547e-05 
6.4504201873e-05 8.1084988778e-05 9.030977526e-05 9.3360504252e-05 9.0191570052e-05 8.035483188e-05 6.4338906668e-05 4.2616800783e-05 1.9738410629e-05 
-2.658483254e-06 -1.7413902242e-05 -2.6964069548e-05 -2.5838889997e-05 -2.1158244635e-05 -1.2929957848e-05 -2.3315976705e-06 7.5447392192e-06 1.2656860235e-05 
3.6398313341e-07 1.0700890016e-05 -8.0303707364e-06 -0.00014504102001 -0.00015608494869 -3.8337120714e-06 1.7358795503e-06 7.6989468653e-05 5.8038742281e-05 
8.7911197625e-05 9.2795191449e-05 9.0872461442e-05 8.4151623014e-05 7.1842878242e-05 5.2712508477e-05 2.1883035515e-05 -4.0395557335e-06 -2.2882079065e-05 
-3.0282904845e-05 -3.2881642255e-05 -3.1236966606e-05 -2.6324529244e-05 -2.0556850359e-05 -2.0096491426e-05 -3.8682046579e-05 -6.454186223e-05 -9.7351614386e-05 
-0.00012737474754 -0.00014781323262 -0.00015940076264 -0.00015821760462 -0.00015346944565 -0.00014815725444 -0.00014503113925 -0.00014542046119 -0.00015200243797 
-0.0001449349802 -0.0001565762941 -0.00015181805065 -0.00013730565843 -0.0001152017503 -8.8753578893e-05 -6.6420878284e-05 -4.5328397391e-05 -2.3975544536e-05 
-6.275040505e-06 6.8243639362e-06 1.5661997168e-05 3.1133746234e-05 2.094370393e-05 3.9153121179e-05 4.4076830818e-05 4.4198077376e-05 3.8940965169e-05 
3.2373234717e-05 6.4757703512e-05 7.0433867222e-05 5.9305835748e-05 9.3454264061e-06 3.7943598727e-05 -3.3180538139e-06 -2.2362934033e-05 -4.5401593525e-05 
-7.2423143138e-05 -0.00010219082469 -0.00012731274182 -0.00014357651526 -0.00014850514708 -0.00014080114488 -0.00014389939315 -0.00015028545749 -0.00015646133397 
-0.0001151531178 -0.00013020946062 -0.00010087806731 -8.9668967121e-05 -8.1433048763e-05 -7.5002950325e-05 -6.6983920988e-05 -5.7378783822e-05 -4.6741875849e-05 
-3.6720623029e-05 -3.0996918213e-05 -2.171117012e-05 -6.7672694968e-06 -1.257058193e-05 3.0713092656e-06 1.6528254491e-05 3.2763782656e-05 5.2089308156e-05 
6.9943846029e-05 8.3527011157e-05 8.4812585555e-05 9.2895970738e-05 7.0991583925e-05 5.3185176512e-05 2.2928712497e-05 -6.7297384021e-07 -1.3279964151e-05 
-1.1502630514e-05 -1.6181595129e-05 -1.7204385586e-05 3.4388947824e-05 1.3797113752e-05 9.6550502349e-05 8.8556465926e-05 5.8542569604e-05 7.1404036134e-05 
7.9841775005e-05 8.330901619e-05 8.2459257101e-05 7.2388276749e-05 5.6531927839e-05 3.5767163354e-05 1.4866992387e-05 -3.6285487113e-06 -1.4518267562e-05 
-1.9843053451e-05 -1.7221500457e-05 -1.2934136976e-05 -8.6318786998e-06 5.9756854398e-07 1.2613863873e-05 2.0516747099e-05 1.9086126031e-06 2.3422317099e-05 
1.7070116883e-05 3.2086591091e-05 3.7862373574e-05 4.4201628043e-05 6.5125554102e-05 4.9274876801e-05 7.4369556387e-05 -8.2969054347e-05 -9.5501171018e-05 
-7.3678042099e-05 -6.7032990046e-05 -5.8578178141e-05 -4.9072627007e-05 -3.7730391341e-05 -2.4552238756e-05 -1.7098629542e-05 3.0092067391e-05 1.2710542251e-05 
-1.3483711427e-06 -7.0882965701e-06 -8.8315173343e-06 -4.3070481297e-06 -6.5892589873e-07 1.6367941498e-05 2.6822837754e-05 3.2458734495e-05 3.4688608139e-05 
3.1755174859e-05 2.5271050617e-05 1.9875438738e-05 -1.5188352336e-05 -4.1616171075e-05 -7.1427661169e-05 -0.00010533961904 -0.00013109770953 -0.00014552750508 
-0.00015152063861 -6.7703585955e-05 -4.5102013246e-05 -2.3250666345e-05 -8.0063109635e-06 -0.0001506756671 -0.00014255856513 -0.0001234740339 -9.4797556812e-05 
2.4771296012e-05 2.2633263143e-05 1.756983329e-05 1.2831603271e-05 1.0292148545e-05 1.4208674656e-05 2.5488860047e-05 2.6781541237e-05 -0.00014272144472 
-0.00014436732454 -0.00014931157057 -0.00015487438941 -0.00014353674487 -0.00015356510994 -4.9104040954e-05 -6.9169946073e-05 -9.8604788946e-05 -0.00012524127669 
-0.00014348594414 -0.00011059054668 -0.00015791488113 -1.8035581888e-05 -1.5130430256e-05 -1.0522788216e-05 -6.9585729534e-07 1.1119865121e-05 2.4519897124e-05 
4.0418522985e-05 5.6291275541e-05 6.832730287e-05 7.2684837505e-05 8.8617591246e-05 7.7047217928e-05 9.3444265076e-05 9.2210284492e-05 8.9024390036e-05 
7.9221921624e-05 6.428505003e-05 3.5985736758e-05 1.2738096302e-05 -1.4774014971e-06 -6.8848980845e-06 2.1852853024e-05 4.0073358832e-05 6.1661674408e-05 
7.9083671153e-05 8.8532156951e-05 9.4579983852e-05 9.3657341495e-05 8.9435423433e-05 3.2800100598e-05 5.3194075008e-05 1.2908170902e-05 -3.961276434e-06 
-1.1721803276e-05 -2.0926885554e-05 -2.2192838514e-05 -2.2398120564e-05 -5.2098297601e-05 4.9506734285e-06 1.4092624042e-05 2.7997140933e-05 4.3010906666e-05 
5.4746942624e-05 9.2782560387e-05 9.3524358817e-05 8.6242092948e-05 7.8267308709e-05 -0.0001439886546 -0.00013355372357 -3.7446949136e-05 -7.0273505116e-05 
-1.970768426e-05 1.2112921468e-05 3.0743922252e-06 2.0712968762e-06 4.3863751671e-06 9.7831361927e-06 8.3318758698e-05 8.855118358e-05 9.1524270829e-05 
-0.00013852096163 -0.00012641429203 -8.8583772595e-05 -7.5828756962e-05 -6.4617124735e-05 -6.0338647017e-05 -0.00011027122673 5.3104162362e-05 -0.00015922093007 

Disp_Y 1 1116 double
0 0 0.00011094925867 0.00011791364523 0 0.00010328457574 0 9.7859483503e-05 0 
9.2045156634e-05 0 8.5634186689e-05 0 7.9311968875e-05 0 6.9131849159e-05 0 6.2014427385e-05 
0 6.87972788e-05 0 7.0771813625e-05 0 6.5551459556e-05 0 5.3366562497e-05 0 
3.8740818127e-05 0 2.5128139896e-05 0 1.1606227417e-05 0 -4.5918709475e-06 0 -2.1303589165e-05 
0 -3.6877063394e-05 0 -4.7369059757e-05 0 -5.5252425227e-05 0 -5.9742007579e-05 0 
-5.596605115e-05 0 -4.1503884859e-05 0 -2.1840467525e-05 0 -9.8038499345e-06 0 -1.512464496e-05 
0 -3.7867986975e-05 0 -6.5482352511e-05 0 -8.9446068159e-05 0 -0.00010681125423 0 
-0.00011908459419 0 -0.00012835381494 0 -0.0001384201023 0 -0.000144029691 0 -0.00014247689978 
0 -0.0001417848689 0 -0.00013456578017 0 -0.00012089238589 0 -0.00010336426931 0 
-8.3195882326e-05 0 -6.7420587584e-05 0 -5.148267519e-05 0 -3.2011317671e-05 0 -1.4058358829e-05 
0 -3.2329583064e-06 0 5.2277255236e-06 0 2.0259436496e-05 0 4.6622790251e-05 0 
7.7288452303e-05 0 0.00010061480862 0 0.00011178107525 0 0.00011328729306 0 0.00011449485464 
0 0.00011842334061 0 0.00011979069677 0 0 -7.0761598181e-05 -6.3607410993e-05 0 
-8.1343612692e-05 0 -9.0403147624e-05 0 -9.854180098e-05 0 -9.9423938082e-05 0 -9.6362506156e-05 
0 -8.542231808e-05 0 -7.1876624133e-05 0 -5.4833042668e-05 0 -4.5187640353e-05 0 
-3.7916033762e-05 0 -2.9202492442e-05 0 -1.4711625226e-05 0 1.4444217413e-06 0 1.3885322915e-05 
0 2.1923900931e-05 0 2.1439253032e-05 0 2.006543582e-05 0 3.2788742828e-05 0 
5.8396708482e-05 0 8.2846323494e-05 0 0.0001126689167 0 0.00013961009972 0 0.0001593632478 
0 0.00017035935889 0 0.00016984423564 0 0.00016172173491 0 0.00015899269783 0 
0.00016186229186 0 0.00016222792328 0 0.00015844735026 4.3733751227e-05 0.00013813456462 0 0.00012287688151 
0 9.1712856374e-05 0 5.7599678257e-05 0 2.7217252864e-05 0 9.3742464742e-06 0 
1.4690954231e-06 0 1.285665121e-06 0 -7.6815450711e-07 0 -8.6590780484e-06 0 -1.7969250621e-05 
0 -2.3385935492e-05 0 -2.6154975785e-05 0 -3.1218427466e-05 0 -4.6876881242e-05 0 
-7.0253081503e-05 0 -0.00010153532639 0 -0.00012859367416 0 -0.00015049094509 0 -0.00016488858091 
0 -0.00016466002853 0 -0.00015302996326 0 -0.00012430177594 0 -9.0190551418e-05 0 
-7.3442752182e-05 0 -6.5332445956e-05 0.00017888045113 0.00019660098769 0.00015995360445 0.00014497135999 0.00013347411004 0.00012172859715 
0.00010731104703 9.9417506135e-05 0.00010503006342 0.0001055211178 9.6703450254e-05 8.1203579612e-05 6.149992987e-05 4.0829545469e-05 1.7787129764e-05 
-9.0180010375e-06 -3.7174959289e-05 -6.6702094045e-05 -8.7146465376e-05 -0.00010403852502 -0.00011504128634 -0.00011527795141 -7.1553120506e-05 -3.7970650737e-05 
-1.8791297407e-05 -2.9041537346e-05 -6.5395237471e-05 -0.00010865236982 -0.00014681098401 -0.0001777838479 -0.00020292149566 -0.00022528144473 -0.00024169986136 
-0.00025341456058 -0.00025684363209 -0.00025108418777 -0.00023290360696 -0.00020347311511 -0.00016694527585 -0.00012886671175 -9.3960399681e-05 -6.3965264417e-05 
-3.5420391214e-05 -1.1530478332e-05 9.1082313247e-07 9.6439707704e-06 2.7149344533e-05 6.0416245105e-05 0.00010370571545 0.00013974728063 0.0001649918122 
0.00017895796918 0.00019619280647 0.00021391226619 0.00021818958339 0.00021166815714 -0.00013011378178 -0.00011270010873 -0.00014833989553 -0.00016470279661 
-0.00017184438184 -0.00016786155174 -0.00015302031534 -0.00013108215353 -0.00010539320647 -8.2654260041e-05 -5.9370031522e-05 -3.5477787605e-05 -6.0781294451e-06 
1.7168658815e-05 3.4596418118e-05 3.9216560253e-05 3.4732620406e-05 3.7402056478e-05 5.7991768699e-05 9.438113193e-05 0.0001377069857 0.00018656502652 
0.00023457795032 0.00027114673867 0.00028733312502 0.00028230881435 0.00026740352041 0.00025993667077 0.00026178074768 0.00026333422284 0.00025253245258 
0.0002270788973 0.00018645524688 0.00013716578542 8.4487444838e-05 4.1289011278e-05 1.3849888091e-05 5.39710868e-07 -1.1684977608e-06 -2.8698607366e-06 
-1.4184216525e-05 -2.7902557122e-05 -3.576261588e-05 -3.805502638e-05 -4.8973870435e-05 -8.1338061136e-05 -0.00012807625171 -0.0001823612547 -0.00023636854894 
-0.00027586100623 -0.00029552693013 -0.00028751796344 -0.00025108119007 -0.00018912453379 -0.00012381905981 -9.592439892e-05 -9.1704903753e-05 -9.7755349998e-05 
0.00021214605658 0.00024911400396 0.00018484883185 0.00016364009934 0.00014654200641 0.00013001785555 0.00012013979722 0.00012037692795 0.00011689805979 
0.00010847253725 9.4594048278e-05 7.5365780503e-05 5.451272591e-05 2.8581547667e-05 -6.6625998443e-06 -5.0264723541e-05 -9.3940798251e-05 -0.00012816628441 
-0.00015095926938 -0.00016559976211 -0.00017624061729 -4.714987881e-05 -8.7279848231e-05 -2.5905021175e-05 -3.8634439989e-05 -8.2868049503e-05 -0.00013868116366 
-0.00019148034335 -0.00023631438671 -0.00027480188874 -0.00030836308724 -0.00033446677844 -0.00035120930988 -0.00035468002898 -0.00034298255923 -0.00031464209314 
-0.00027158475132 -0.00021830033802 -0.00016350304941 -0.00011541472486 -7.6569245721e-05 -4.5374988986e-05 -2.3412960218e-05 8.0727968452e-06 1.1958803725e-06 
2.6088091545e-05 6.4312262111e-05 0.00011595788965 0.00016373762628 0.00020087407029 0.00022713845829 0.00026257018908 0.000296291837 0.00031746621244 
0.00030759040965 0.00028021857725 -0.00013806532661 -0.00018565768551 -2.0496449906e-06 -7.0323389991e-06 -0.00018852185167 -0.00015990942484 -0.00021331790776 
-0.0002270827099 -0.00022572962916 -0.00021015222592 -0.00018435191305 -0.00014771007409 -0.00010807272338 -7.3598210292e-05 -3.273256516e-05 7.7394151958e-06 
3.8477221096e-05 5.2979314205e-05 5.2324659919e-05 4.2272491555e-05 4.5346539991e-05 7.5903408288e-05 0.00012299262744 0.00017996021779 0.00024600108736 
0.00031116092578 0.00035912080784 0.00037894354318 0.00037018788862 0.00034899640013 0.00033656743472 0.00033898183028 0.00034117343603 0.00032634907984 
0.00028865327477 0.00022995813924 0.00015840961714 9.2315101938e-05 4.1964402044e-05 1.3107548511e-05 -7.0093513216e-08 -1.0986964298e-06 -5.405713182e-06 
-1.7170219508e-05 -3.0771636375e-05 -3.9134982217e-05 -4.2661009502e-05 -6.4496271079e-05 -0.00011580740829 -0.00018231355352 -0.00025995270698 -0.00033573817927 
-0.00038878465421 -0.00040811335202 -0.00038477650378 -0.00032168201869 -0.00022592756432 -0.00013116939226 -8.5677158495e-05 -8.7844906375e-05 -0.00010668714822 
-0.00013263733126 1.8728977693e-06 1.3879468952e-06 1.7294865984e-06 3.5202103845e-06 2.0340798073e-05 6.4247047703e-05 0.00012663577218 0.0001833174174 
0.00022949563572 0.00026602452272 0.00030752492603 0.00035503302934 0.00041761185275 0.00039495123201 0.00035201045102 0.00030123014585 0.00025219129748 
0.00021441248828 0.00018639129121 0.00016402258188 0.00014299870236 0.00012743280968 0.00011923429702 0.00011318245379 0.00010694398952 9.8001837614e-05 
8.413654723e-05 6.8430177635e-05 4.2476858653e-05 -1.4364262597e-06 -5.8795583755e-05 -0.00012064963812 -0.00016542097728 -0.00019012700068 -0.00020214363758 
-0.00021760408708 -0.0002245776559 -0.0001840023906 -0.00022451503901 -0.00013825543283 -9.4576345873e-05 -5.8386845922e-05 -3.6835303035e-05 -4.7428413382e-05 
-9.3263319286e-05 -0.00015728006838 -0.00022208315204 -0.00027942741872 -0.00033054177766 -0.00037572803558 -0.00041329374653 -0.00043765341979 -0.000438504474 
-0.00041531951865 -0.00037350688945 -0.00031735334778 -0.0002510198683 -0.00018433200603 -0.00012402648281 -8.1170401245e-05 -5.3177802329e-05 -2.8687862141e-05 
-1.2825646081e-05 5.5904860119e-07 2.9031602935e-06 2.7590574518e-06 2.0350437353e-06 -0.00024555643904 -0.00021446905157 -0.00026341548073 -0.00026372112916 
-0.00024810567265 -0.0002191158419 -0.00017686457431 -0.00012493540999 -7.5059688243e-05 -2.5602335882e-05 2.2477355742e-05 5.4105708841e-05 6.8625922722e-05 
6.2654988142e-05 5.1096652896e-05 4.6412886149e-05 0.00014618196292 9.7485892184e-05 0.00021170460968 0.00028750053025 0.00036321821972 0.00041937059723 
0.00044297424029 0.0004332428507 0.00040748997708 0.00038990785833 0.00039117861888 0.00039444843424 0.00037773605436 0.00032701995224 0.00025232287589 
0.00016670059995 9.057517309e-05 3.5776589357e-05 8.7808439275e-06 4.3217269763e-07 -1.900066593e-08 -8.1080806922e-06 -1.9867755327e-05 -2.9455555705e-05 
-3.8600857806e-05 -4.6247572755e-05 -8.0157595221e-05 -0.00014555384405 -0.00022764776077 -0.00032492296305 -0.00041632095235 -0.00047995217028 -0.00049675063929 
-0.00045544654131 -0.00036509652273 -0.00024460401619 -0.00013814674458 -7.8248151112e-05 -7.4997049524e-05 -0.00010177050717 -0.0001384949137 -0.00017639470752 
6.5395433921e-05 5.2826304454e-05 2.8654045536e-07 -5.0827173936e-07 1.4053958694e-05 6.596428284e-05 0.00013589605805 0.0002026722068 0.00025929979165 
0.00030166297802 0.0003403640585 0.00038259412395 0.00044019133202 0.00039711530553 0.00045461548143 0.00033548427746 0.00028329814086 0.000239166955 
0.00020990330086 0.00018230960995 0.00015560608881 0.00013129033323 0.00010979285435 0.00010217290401 9.9755474366e-05 9.6561794635e-05 9.0031557193e-05 
7.936158363e-05 5.7287750678e-05 9.2656282504e-06 -5.6607317674e-05 -0.00014314123837 -0.00020011278684 -0.0002203850454 -0.00022320916469 -0.0002415132476 
-0.00025618687505 -0.00025738409022 -0.00020903922268 -0.00024575271527 -0.00016707352188 -0.00012659805361 -9.8913398688e-05 -7.3919632996e-05 -4.940960207e-05 
-5.6030483393e-05 -0.00010108679999 -0.00017067349108 -0.00024223365472 -0.00030966347549 -0.00037259270903 -0.00043094003922 -0.00048109228374 -0.00051432533655 
-0.00051250122488 -0.00047517969506 -0.00041529809823 -0.00034231966129 -0.00026179655106 -0.00018553288828 -0.00011936474039 -7.5433483289e-05 -5.4729265685e-05 
-3.5109384044e-05 -1.5125857317e-05 -4.1472485464e-06 3.2119660318e-06 -1.5290008832e-06 -1.4227676957e-06 -4.019308335e-07 0.00049071462126 0.00049949227832 
8.2569400547e-05 6.6753280407e-05 0.00011520174303 0.00016511943249 0.00023346082889 0.00031232403126 0.00039389741141 0.00045667457744 0.00048549828352 
0.00047808888485 0.00044941625674 0.0004261698341 0.00042376804049 0.00042733346345 0.00041020894423 0.00034102442442 0.00025247281883 0.00015965616331 
8.0899015302e-05 2.682498598e-05 7.6019414337e-06 2.6527563932e-06 1.4597506492e-07 -1.0390743228e-05 -2.0145313101e-05 -2.4125029086e-05 -3.1796997064e-05 
-4.8981706641e-05 -9.7814379842e-05 -0.00017506704899 -0.00026520792744 -0.00037349580089 -0.00047693887609 -0.00054958136752 -0.0005626816419 -0.00050112017198 
-0.0003852363443 -0.00025209406158 -0.00014613034728 -7.8480727097e-05 -6.4854095399e-05 -9.1860820248e-05 -0.00013631508045 -0.00018447822367 -0.00023013280588 
-0.00026453699684 -0.00028400731389 -0.00028441639734 -0.00026804915979 -0.00023489985324 -0.00018613415887 -0.0001285692706 -7.1382833994e-05 -1.6295667592e-05 
3.08754461e-05 6.0761900386e-05 7.6484990132e-05 6.9014538894e-05 5.8686633565e-05 4.9807978939e-05 4.9847029004e-05 6.0324229707e-05 8.6961612396e-05 
7.8429824498e-05 9.6770745586e-05 -3.9175229176e-06 8.1396274254e-06 5.9739340941e-05 0.00013463257346 0.00021484591707 0.00028334002127 0.00033402856207 
0.00036905045272 0.00039825937711 0.00043582261424 0.0004825546057 0.00053740898147 0.00051998684648 0.00052373117069 0.00047710112995 0.00041396907181 
0.00034794717794 0.00029218851705 0.0002545294119 0.00023378270271 0.00020503626729 0.0001725954935 0.00014309544349 0.00011634370458 9.3500078947e-05 
9.1172827524e-05 9.595976735e-05 9.2003800091e-05 8.3313476352e-05 7.3653740401e-05 2.1493679014e-05 -3.7128367694e-05 -9.2766000307e-05 -0.00024874164956 
-0.00023624226742 9.1902598797e-05 9.4790455478e-05 -0.00019265680749 -0.00013475868036 -0.0002804530086 -0.00027326031704 -0.00027070599026 -0.00022034424182 
-0.00025670701871 -0.00017920153914 -0.00013842064072 -9.9866287201e-05 -6.7606211815e-05 -5.946762758e-05 -0.00011206978525 -0.0001834470022 -0.00025887117954 
-0.00033173823613 -0.00040303566493 -0.0004731650406 -0.0005384052638 -0.00058069801889 -0.00057405018015 -0.00052242953097 -0.00044461089419 -0.00035588044557 
-0.00026215292746 -0.0001734069956 -8.9608016424e-05 -5.1699244068e-05 -2.5775731046e-05 -8.7011840151e-06 -2.4064213449e-06 -3.4728762444e-07 -7.2485754572e-06 
-4.5140782277e-06 -7.7443773989e-06 0.00012533091649 0.00017264627968 0.00024070660584 0.00032016308978 0.00040607940173 0.00047497972264 0.00051059463294 
0.00050909706624 0.0004803002812 0.00044973037438 0.00043989814003 0.00043987497338 0.00042955370736 0.00023116853845 0.00031345256139 0.00014094336075 
6.7123226472e-05 1.7186237528e-05 5.3075341384e-06 2.4769135507e-06 -1.1363378007e-06 -1.0926001778e-05 -1.749157309e-05 -1.7889138689e-05 -2.0524437787e-05 
-5.786111069e-05 -0.00012245270773 -0.0002049584582 -0.00029794158763 -0.00041296027484 -0.00051900779363 -0.00059941440122 -0.00062076660106 -0.00051941449055 
-0.00038608707837 -0.00025390827795 -0.00015367472952 -8.5197432782e-05 -6.2384591729e-05 -8.2571066741e-05 -0.00012908663484 -0.00018848206673 -0.0002394963376 
-0.00027471777867 -0.00029377129977 -0.00029376329621 -0.00027643190697 -0.00023951412004 -0.00018729650765 -0.00012744404376 -6.6251610406e-05 -1.3145372577e-05 
3.3613519918e-05 5.9260120906e-05 7.4320712883e-05 6.8359411671e-05 6.1307968281e-05 5.3620529798e-05 5.1355735195e-05 5.6821969338e-05 7.1079150075e-05 
0.00010810457024 9.2278489319e-05 0.00012025553588 0.00037532285205 0.00040096312296 -9.9160904938e-05 -7.042773359e-05 -0.00019944262749 -0.00013254622172 
-0.00027262524236 -0.00034874604899 -0.00042485116865 -0.00050142389955 -0.00057699851459 -0.000636573066 -0.00061415747041 -0.00055032479577 -0.00046120668412 
-0.00035797277815 -0.00025446980726 -0.00016935743042 -0.00010311169899 -3.7338180846e-05 -5.4239080782e-05 1.3803932575e-07 4.5055719966e-05 0.00012473865354 
0.00021779962117 0.00029671227094 0.00036768638529 0.00039326303522 0.00041398309986 0.00043608422857 0.00046239927178 0.00049010489602 0.00054005626589 
0.00050620984985 0.00054817780619 0.00052448699716 0.00047072579036 0.00040172829176 0.00033424483263 0.00027529653744 0.0002444475831 0.00020283195772 
0.0001648239413 0.00013185356511 0.00010425709479 7.7411750681e-05 8.1905614934e-05 8.0356039689e-05 8.3830949734e-05 8.8842331024e-05 9.5109717222e-05 
8.9490393293e-05 -0.0002927162277 -0.00027425779263 -0.00028742259019 -0.00018545462808 -0.00024629081599 -0.0001365984208 0.00016894232249 0.00023641147709 
0.00031592097366 0.00040521536721 0.00047939104843 0.00052161252825 0.00053023220971 0.00046310227481 0.00044629722834 0.00043993932195 0.00042915402446 
0.00019584260008 0.00027212986606 0.00011766266834 5.233675256e-05 1.2757962395e-05 3.2558543808e-06 5.0146871899e-07 -2.2347037429e-06 -9.0332414402e-06 
-1.3009088434e-05 -1.386023996e-05 -1.2971997421e-05 -0.00016129344294 -9.1869980679e-05 -0.00024592701811 -0.00033548392821 -0.00044243287994 -0.00054414739134 
-0.00061993749114 -0.00065353122773 -0.0003759660467 -0.00049777445383 -0.00025709258625 -0.00016204282292 -9.4362207165e-05 -6.5572952735e-05 -7.4195122579e-05 
-0.00011560336134 -4.6595218009e-05 -2.3429931389e-05 -8.3362378064e-05 -6.585670053e-05 -0.00059972400777 -0.00065118336352 -0.00027744550607 -0.00029479994555 
-0.00029571156483 -0.00027700283681 -0.0002367648267 -0.00018009732594 -0.00011875930068 -5.6041524658e-05 -4.2073693294e-06 3.6605655623e-05 5.8898454881e-05 
6.9445479312e-05 6.5228668973e-05 6.0177328123e-05 5.5981374317e-05 5.5371110648e-05 5.802657688e-05 6.5818130679e-05 0.00012257239723 2.0087127268e-05 
6.1711369199e-05 -1.9767583581e-05 -4.5769262215e-05 -7.3853509093e-05 -0.00016293245426 -9.8789554613e-05 -0.00022363534663 4.2502575525e-05 9.6641488199e-05 
1.0107871276e-05 5.4637820313e-07 -2.5036258648e-06 -3.1230656532e-06 -4.2884462346e-06 -7.9022256614e-06 -1.6613757907e-05 -3.9723432565e-05 7.5154398473e-06 
4.3019521399e-05 5.9780413721e-05 6.8089364504e-05 6.3890816818e-05 5.9967729612e-05 6.2563114625e-05 6.7565590143e-05 7.275569078e-05 7.7485630754e-05 
8.4272774984e-05 8.8767897978e-05 8.1859507191e-05 0.0001575849019 0.00022897736926 0.00031053894782 0.0004058155173 0.00047978543444 0.00052166281966 
0.00054124498274 0.00029630705831 0.00024715761538 0.0001935702312 0.00015472507221 0.00053617655067 0.00050622946583 0.00044697895646 0.00036700940109 
6.8360110163e-05 7.2128677857e-05 7.8394303273e-05 7.8191915236e-05 6.8792753154e-05 4.3569019908e-05 1.1971451386e-06 -1.8152200937e-05 0.00046690666932 
0.00045135975233 0.0004378632002 0.00042468419997 0.00032908332651 0.00035666552139 -5.0473327065e-06 3.4612337913e-05 0.00012032019004 0.00022118374181 
0.00029634256498 0.00016106183466 0.00040996316238 -8.426624845e-05 -0.00013343441242 -0.00020491471514 -0.00029060823726 -0.0003703001712 -0.00046377955005 
-0.00055648543639 -0.00062447553501 -0.00065958494088 -0.00066585524473 -0.00062080961652 -0.00064145802753 -0.00056213978678 -0.0004705855099 -0.00036636600271 
-0.00026613866794 -0.00017351878341 -0.00010131867748 -6.9956717198e-05 -6.7474422394e-05 -9.0990542958e-05 -7.5727693911e-05 -9.9493307061e-05 -0.00015178820468 
-0.00021432930953 -0.00028280113474 -0.00035964141716 -0.00043902418111 -0.00051719375188 -0.00062509771669 -0.00065636675572 -0.00056174676865 -0.00046978081809 
-0.0003542136983 -0.00023957829399 -0.00016346435586 -0.00011366309627 -6.0844849941e-06 -0.00039851327892 -0.00047766705393 -0.00056156254141 -0.00062260753475 
-0.00065098312916 -0.0003648197744 -0.00045093422523 -0.00028417704743 -0.00022474322759 0.00051687058294 0.00048439137754 0.00022373322281 0.00030916268588 
0.00017663062317 2.5572378945e-05 5.5214055465e-05 6.7258093623e-05 7.1003305493e-05 6.7389351898e-05 -0.00058802589774 -0.00058296904899 -0.0005297564785 
0.00028909760294 0.00023596573737 8.1393016444e-05 3.5633151128e-05 6.276287877e-06 -8.074315474e-07 0.00041727453936 -0.00027567020152 0.00040704329149 

Disp_Z 1 1116 double
0 0 2.0408617274e-05 1.2441884792e-05 0 2.9759290555e-05 0 3.840626232e-05 0 
4.4204272854e-05 0 4.8785092076e-05 0 5.2107381634e-05 0 5.3399358876e-05 0 5.0980266678e-05 
0 5.2790921472e-05 0 6.4927182393e-05 0 8.0588564742e-05 0 9.5216266345e-05 0 
0.00010488799307 0 0.00010913624283 0 0.00011297249875 0 0.00011255904974 0 0.00011077201634 
0 0.00010691722855 0 9.7706957604e-05 0 8.1456862972e-05 0 5.9712696384e-05 0 
3.1026887882e-05 0 -2.8651968478e-06 0 -2.220656279e-05 0 -2.5008717785e-05 0 -1.2222083569e-05 
0 -9.353083442e-06 0 -2.1334306439e-05 0 -3.9997314161e-05 0 -5.8153684222e-05 0 
-7.329066284e-05 0 -8.4262392193e-05 0 -0.00010129273142 0 -0.00011536396778 0 -0.00012827631144 
0 -0.00014555636153 0 -0.00015836213424 0 -0.00016438022431 0 -0.00016197742661 0 
-0.00015027438349 0 -0.00013336927805 0 -0.0001128894437 0 -9.1760324722e-05 0 -6.7461689468e-05 
0 -4.5742533985e-05 0 -4.0975177399e-05 0 -4.717394404e-05 0 -5.5623051594e-05 0 
-5.493095523e-05 0 -4.6169960115e-05 0 -3.5430486605e-05 0 -2.7521142329e-05 0 -2.1069559807e-05 
0 -1.0038233995e-05 0 1.9991457521e-06 0 0 2.2272688511e-05 2.0491652322e-05 0 
3.6915167584e-05 0 5.0416008889e-05 0 6.8351597292e-05 0 8.8694832812e-05 0 0.00011175176769 
0 0.00012870853243 0 0.00014025438577 0 0.00014319796173 0 0.00014205131447 0 
0.00013588462025 0 0.00012647805852 0 0.00011363553494 0 9.3914837635e-05 0 6.9842710218e-05 
0 4.3330957851e-05 0 2.6028294087e-05 0 2.3027379939e-05 0 3.442032903e-05 0 
3.9873262722e-05 0 4.2707495595e-05 0 4.3495001592e-05 0 3.8238780689e-05 0 2.3872158636e-05 
0 5.2265072554e-06 0 -8.0299732872e-06 0 -1.457419603e-05 0 -1.6946878532e-05 0 
-2.1773179469e-05 0 -3.3180789615e-05 0 -4.4973337936e-05 5.1109409469e-06 -5.8519348386e-05 0 -6.4538493461e-05 
0 -6.5735701355e-05 0 -6.047754141e-05 0 -4.9147103709e-05 0 -3.4555949242e-05 0 
-2.4021586796e-05 0 -2.0016641429e-05 0 -2.3957163648e-05 0 -3.3111209632e-05 0 -4.1054456233e-05 
0 -4.9243877584e-05 0 -6.1687882408e-05 0 -8.2073289377e-05 0 -0.00010529376596 0 
-0.00012789684115 0 -0.00014471937902 0 -0.00014800082135 0 -0.00013755235705 0 -0.00011275475845 
0 -8.1312522525e-05 0 -4.8178695579e-05 0 -1.4374294551e-05 0 -2.6575360152e-06 0 
1.2224569446e-06 0 1.5936759155e-05 5.6514418247e-05 3.8108235458e-05 6.9116911618e-05 7.5114578067e-05 7.7369557403e-05 7.8552824561e-05 
7.7888274973e-05 7.2538103268e-05 7.3682589573e-05 9.078214498e-05 0.0001143929112 0.00013668803149 0.00015396036906 0.0001654157677 0.00017415259208 
0.00018171062402 0.00018877269758 0.00018874293892 0.00017687516811 0.00015135436843 0.00011536707461 6.3471517933e-05 -8.3058523614e-07 -2.9296021239e-05 
-2.7952353776e-05 -9.2769223556e-06 -6.3569727899e-06 -2.6252673706e-05 -5.6865239458e-05 -8.7823143986e-05 -0.00011535843805 -0.0001396730222 -0.0001674083469 
-0.00019378034631 -0.00022149200959 -0.00025088051916 -0.00027421402046 -0.00028274627402 -0.00027456166572 -0.00025226169964 -0.00021994748386 -0.00018281834491 
-0.00014417027705 -0.00010191879119 -6.4598520112e-05 -5.984048039e-05 -6.9455578341e-05 -8.1194964878e-05 -8.2224825746e-05 -7.2884024121e-05 -5.9231835621e-05 
-5.1073544455e-05 -4.2565334297e-05 -2.2900019758e-05 1.05187587e-06 2.0401635993e-05 5.6999229855e-05 3.5306562495e-05 7.907347026e-05 0.00010945532995 
0.00014790118439 0.00018674127932 0.00021853616636 0.00024023187871 0.00024688217673 0.00024068626226 0.0002270379191 0.00020759788458 0.00018062835443 
0.00014465145068 0.00010311014194 6.5628293669e-05 4.5164677431e-05 4.688347326e-05 6.1223086959e-05 7.5355477748e-05 8.6176056357e-05 8.7189269834e-05 
7.7021672041e-05 5.0605300203e-05 1.6395373677e-05 -1.2444062122e-05 -2.6799016268e-05 -3.1087038224e-05 -4.1322124162e-05 -6.0010348534e-05 -8.2836231741e-05 
-0.00010276730609 -0.00011422930402 -0.00011469755555 -0.00010530108557 -8.5969513748e-05 -6.2589344452e-05 -4.3708590965e-05 -3.4520489862e-05 -3.728354568e-05 
-4.8630590754e-05 -6.0219423176e-05 -7.396658475e-05 -9.9703596788e-05 -0.00014150379866 -0.00018927194469 -0.00023110897746 -0.00025811506202 -0.00026103414712 
-0.00023944689019 -0.00019582237292 -0.00013566021516 -6.9378569606e-05 -3.9699189074e-06 2.4031192879e-05 1.1959238691e-05 1.4495553842e-05 2.1477077098e-05 
9.9284850876e-05 8.3484133938e-05 0.00010195638606 9.9739387224e-05 9.5097413578e-05 8.8282627985e-05 7.8624761954e-05 7.7034455899e-05 9.181801579e-05 
0.0001150385724 0.00014067426673 0.00016401834728 0.00018523096514 0.00020918509108 0.00023562005663 0.00025810868829 0.00026347552193 0.00024860011763 
0.00021382042905 0.00017153353838 0.00012732751202 -3.2430209103e-05 -9.5666564448e-06 -2.6887055355e-05 -5.726796644e-06 -1.194000788e-06 -2.2893216737e-05 
-5.9580397647e-05 -0.00010285323515 -0.00014373542217 -0.00018333936168 -0.00022597580391 -0.00026611975045 -0.0003053987748 -0.00034223578405 -0.00036908694892 
-0.00037772982614 -0.00036396223004 -0.00032976700459 -0.00028220022796 -0.00023072212934 -0.0001858240139 -0.00014661495516 -5.8449495555e-05 -6.0509919422e-05 
-7.3444214649e-05 -9.1137328127e-05 -9.7249656392e-05 -9.10732997e-05 -7.8012926679e-05 -7.1151254815e-05 -6.2967905251e-05 -4.1326406063e-05 -8.484558748e-06 
2.6992087442e-05 5.9908656112e-05 3.4408396459e-05 9.0319532319e-05 -8.369047282e-05 -0.000115296898 9.7739262856e-05 6.8289751653e-05 0.00014177139383 
0.00019351534138 0.00024755849154 0.00029128391179 0.00032170131453 0.00033247779356 0.00032300321618 0.00029913493199 0.00026642417652 0.00022400241869 
0.00017248123186 0.00011867501598 7.518439088e-05 5.0320402806e-05 5.7753743022e-05 8.0899932072e-05 0.00010323533206 0.00012079386215 0.00012400030391 
0.00011028484005 7.3850023909e-05 2.7064419555e-05 -1.232307477e-05 -3.4485929064e-05 -4.1532301111e-05 -5.3971223679e-05 -8.0267367593e-05 -0.00011131497013 
-0.00013756705448 -0.00015069160145 -0.00015088937653 -0.00013316579862 -0.00010632861085 -7.5263451436e-05 -5.123912706e-05 -3.9761045628e-05 -4.1929215513e-05 
-5.2746945585e-05 -6.732896145e-05 -8.9637855126e-05 -0.0001316708076 -0.00019484953373 -0.00026254777913 -0.00032184144948 -0.00035816757008 -0.00036031726631 
-0.00032713913242 -0.00026223497116 -0.00017259499873 -7.5345742516e-05 9.6669464256e-06 4.6344008297e-05 2.2541342332e-05 1.1950764019e-05 1.8497432393e-05 
3.9612787077e-05 -6.9368317781e-05 -8.6638319772e-05 -5.4523850849e-05 -5.660633542e-05 -7.7973592852e-05 -0.00010130444571 -0.00011062328849 -0.00010789765656 
-9.7354248282e-05 -8.8726257673e-05 -7.9728815763e-05 -6.5975851612e-05 -2.7587486329e-05 3.9000755351e-05 8.373480523e-05 0.00011268236267 0.00012515790877 
0.00012620180496 0.00011852419993 0.00010761711746 9.4884388091e-05 7.9299403296e-05 7.2410082794e-05 8.1124519056e-05 0.00010079923959 0.00012485854677 
0.00015228737902 0.0001829535031 0.00022371573141 0.00027115581906 0.00030928192427 0.00032472534804 0.0003027402563 0.00025945759262 0.00021730581648 
0.00018068554346 0.00014635945263 5.3720235883e-05 0.00010627221491 1.3133540051e-05 -1.6203675841e-05 -3.0170504033e-05 -2.2792652089e-05 -3.2908155845e-06 
3.4151155432e-06 -1.8201815692e-05 -5.7789187849e-05 -0.00010764938634 -0.00015874214296 -0.00021307601128 -0.00026907541906 -0.00032416061731 -0.00037754091318 
-0.00042066574679 -0.00044481627992 -0.00044832655112 -0.00042698564357 -0.00038250343641 -0.00032251345692 -0.00026359889307 -0.00021613878198 -0.00017916888464 
-0.00014237120922 -0.00010372784163 -6.230262079e-05 -6.6679742304e-05 -5.9317233536e-05 0.00016263897123 0.00010987926362 0.00022372852254 0.00028777579428 
0.0003397205146 0.00037566263927 0.00038999982644 0.0003789049515 0.0003463846806 0.00030216324376 0.00024867840693 0.00018714020553 0.00012622257054 
8.017350774e-05 5.4624906625e-05 5.1752700529e-05 0.0001263825834 0.00010290627688 0.00014810684661 0.0001532844617 0.00013674293587 9.4039671239e-05 
3.9112408558e-05 -8.4055727712e-06 -3.6870755139e-05 -4.7754714615e-05 -6.0641646996e-05 -9.0702451416e-05 -0.00013036196469 -0.00016187068832 -0.00017597527767 
-0.00017198415298 -0.00014813670714 -0.00011507148884 -7.7107790275e-05 -5.0260834541e-05 -4.0448154323e-05 -4.4485193939e-05 -5.5237487686e-05 -7.3600604082e-05 
-0.00010671545897 -0.00016543366655 -0.0002460758551 -0.00032901400118 -0.00040006704512 -0.00044126153807 -0.00044299807632 -0.00039902664139 -0.00031321388087 
-0.00019758367853 -7.8116048826e-05 1.6426907678e-05 5.3392701375e-05 3.1514577131e-05 1.2052809325e-05 1.3535010112e-05 3.7910125684e-05 7.3211289418e-05 
7.9470228229e-05 6.2413309934e-05 -5.0061720685e-05 -5.3650099289e-05 -8.2810358435e-05 -0.00011093840294 -0.00012673177116 -0.00012802307901 -0.00011759381596 
-0.00010484788072 -9.1612870165e-05 -8.2293634478e-05 -7.2762064519e-05 0.00011390710279 6.957561709e-05 0.00013771999511 0.00014338626352 0.00014363019727 
0.00013587127614 0.00012211457943 0.00010366681818 8.4126775619e-05 6.5728272602e-05 6.813294749e-05 8.3575636381e-05 0.00010677210958 0.00013734371169 
0.00017354317242 0.00022376661946 0.00028622668469 0.00034085160587 0.00037798762787 0.00034035000135 0.00028906227089 0.00024735956686 0.00023199938005 
0.000201298506 0.00016434896679 6.5999083745e-05 0.00012129895185 2.4973054678e-05 -3.2727887174e-06 -1.8944965632e-05 -2.7075333492e-05 -2.002574729e-05 
-6.3239156134e-07 8.7396547315e-06 -1.2718172002e-05 -5.274938303e-05 -0.00010590274906 -0.00016271097411 -0.00022683902353 -0.00029910705052 -0.00037197396159 
-0.00044082538807 -0.00049153208965 -0.00051167450147 -0.0005037165829 -0.00046985657536 -0.00041260090075 -0.0003420781577 -0.00027542174212 -0.00023366765527 
-0.00020782879437 -0.00016663360293 -0.00011963544239 -7.4297400715e-05 -4.0477283619e-05 -4.1497361963e-05 -4.4523501856e-05 1.0397292499e-05 -4.3498039304e-05 
9.6211362688e-05 7.9288220149e-05 0.00011728766549 0.00014174335229 0.00016235109069 0.00017216747801 0.00015702743258 0.00011185759649 5.2835999668e-05 
-1.8083649138e-06 -3.7612975575e-05 -5.0382805057e-05 -6.2888284447e-05 -9.3450471468e-05 -0.00014402053785 -0.00017934665084 -0.00019344310567 -0.00018547794025 
-0.00015369635366 -0.00011527391325 -7.0626316301e-05 -4.5530417992e-05 -4.0196748159e-05 -4.6297369408e-05 -5.8030549553e-05 -8.1370366388e-05 -0.00013061915524 
-0.00020641382434 -0.00029796143644 -0.00038867729018 -0.00046589202248 -0.00051159289433 -0.00051259098109 -0.00046072364785 -0.00035522234975 -0.00021685876709 
-8.6184103566e-05 7.3073447311e-06 4.7961664677e-05 3.4298322134e-05 1.4134357116e-05 9.3358739832e-06 3.1889128877e-05 7.090386498e-05 0.00011552643264 
0.00017768878024 0.00024485672475 0.00031276632217 0.00036721481592 0.0004051059077 0.00042020116234 0.00040856492706 0.00037207818241 0.00031967568793 
0.0002583588066 0.00019191330648 0.00012908074132 8.243026241e-05 5.4219919548e-05 4.6825090976e-05 5.1116341638e-05 6.2717175751e-05 9.6657051472e-05 
8.1557918747e-05 0.00010664343426 -4.5775454055e-05 -7.6195829024e-05 -0.00011685745267 -0.00014623990864 -0.00015159169561 -0.00014112617646 -0.00012207463442 
-0.00010045235103 -8.7363710918e-05 -8.2962440501e-05 -7.1089831181e-05 -1.0166810398e-06 -4.3262109102e-05 5.3889507399e-05 0.00010762373131 0.00014366213873 
0.0001572817855 0.00015992726549 0.00015423024888 0.00015288408031 0.00014163067681 0.00012207170948 9.9768622022e-05 7.9969810031e-05 7.1176968049e-05 
5.7948818721e-05 9.4829323643e-05 0.00012899425928 0.00016591900203 0.00020542991115 0.0002870928729 0.00034435768612 0.00038440781645 0.00028970444691 
0.00035133154597 5.6652566855e-05 6.6365835664e-05 0.00039691996062 0.00040889775846 0.0002217933652 0.00026647467166 0.00017904351989 8.3583443484e-05 
0.00014098153042 3.2148440368e-05 -1.9452395463e-06 -2.0776376914e-05 -1.8528955479e-05 6.0551797105e-06 1.9681472622e-05 -5.1237648222e-06 -4.7220662964e-05 
-9.9804645288e-05 -0.00016025481455 -0.00023021645029 -0.00031253526686 -0.00041141847032 -0.00049634353491 -0.00055212312145 -0.00056707882322 -0.00054597074632 
-0.00049804156879 -0.00042636934086 -0.00032790348632 -0.00025095793535 -0.00019790287479 -0.00013751107326 -8.3958853793e-05 -4.5609558583e-05 -3.0767831049e-05 
-3.1711686461e-05 -3.6438501411e-05 0.00012339449313 0.00014842089149 0.00017078382371 0.00018461170839 0.00017239531735 0.00012876774417 6.7383829446e-05 
8.1005018728e-06 -3.5889839637e-05 -5.3657149692e-05 -6.3608000346e-05 -8.6815314717e-05 -0.00012010718638 -0.00020095526997 -0.00019428311498 -0.00018718243518 
-0.00014943633869 -0.00010440909682 -6.2026461819e-05 -4.1168019379e-05 -3.9456164814e-05 -4.8093948863e-05 -6.2552549934e-05 -9.0214933152e-05 -0.00016352289822 
-0.00026086816797 -0.00035711834789 -0.00044582158444 -0.00052138225874 -0.00056427106028 -0.00056621909607 -0.00051274889847 -0.00039054348599 -0.00021477085829 
-8.9729510364e-05 -7.3973051258e-06 3.6119818105e-05 3.2570944313e-05 1.737137427e-05 7.0212900027e-06 2.1904872483e-05 5.9838563175e-05 0.00011876920325 
0.00018503374304 0.00025074035511 0.00031860152376 0.00037421268644 0.00041440935456 0.00043052670662 0.00041845309897 0.00037982803769 0.00032202032162 
0.00025681447005 0.00018815405201 0.00012836666428 8.1799713371e-05 5.4454631027e-05 4.3323594582e-05 4.2891588237e-05 5.0496131735e-05 6.5809195803e-05 
0.00010679993284 8.7191256171e-05 0.000117909869 -0.00017241557362 -0.00014888359874 -1.1571957657e-05 -5.059290288e-06 -1.2992281881e-06 2.0995124942e-05 
-4.0047303628e-05 -9.0517452918e-05 -0.00015350077592 -0.00022456597071 -0.00031670296448 -0.00044873758452 -0.00054676050786 -0.00059719011188 -0.00060691090766 
-0.00057531858329 -0.00051426305436 -0.00043693927 -0.00035611525527 -0.00024017547548 -0.00028077838942 -6.6776847234e-05 -0.000119887045 -0.00016207782028 
-0.00017445796402 -0.00016451142437 -0.00014025239216 -0.00010771158122 -8.9879315055e-05 -7.8396653407e-05 -7.3189643444e-05 -6.0175043473e-05 -2.2165581868e-06 
-3.7261361285e-05 4.2470222979e-05 9.5226496342e-05 0.0001416557061 0.00016851378314 0.00017230927187 0.00016592886823 0.00015849270858 0.00014445601846 
0.00012183452054 0.00010214446229 8.5440144176e-05 5.3704246966e-05 6.824763841e-05 4.7741592425e-05 5.0786242355e-05 6.5119696956e-05 9.369651525e-05 
0.00013862269407 0.00027679011691 0.00034345977474 0.00022232935589 4.6267647122e-05 0.00012090673408 5.7741026467e-06 0.00014602280862 0.00017288519302 
0.00019214097119 0.00018371724582 0.00014288698731 8.3985207311e-05 2.2113332307e-05 -6.1066639319e-05 -6.6386070102e-05 -8.0481688201e-05 -0.00010386525537 
-0.0002008053998 -0.00020119169494 -0.0001811011316 -0.00014194642426 -9.3391528935e-05 -5.5059768783e-05 -3.7984100345e-05 -3.7713300117e-05 -4.9472433602e-05 
-7.0064153988e-05 -9.5199204225e-05 -0.00013541869703 -0.00041594868526 -0.0003310641041 -0.00049792852951 -0.00056307547493 -0.00060093606589 -0.00060104380827 
-0.00056052667787 -0.0004834246065 -8.4069812146e-05 -0.00018577622541 -1.6635553038e-05 2.5067103707e-05 2.9342418202e-05 1.9734055968e-05 6.8832828219e-06 
6.8809072218e-06 -0.00025264418218 -0.0002016901708 2.2767202609e-05 1.1707424164e-05 -0.00029927340802 -0.00039805957931 0.00018480485596 0.00024319635122 
0.00030807367875 0.00036825941061 0.00041372384294 0.00043076640577 0.00041688641068 0.00037501982297 0.00031315162778 0.00024382260744 0.00017514928186 
0.0001172322518 7.5172785728e-05 5.1399241784e-05 4.2997115088e-05 3.8647751353e-05 4.0235689085e-05 5.198726285e-05 0.00010888102406 0.00029207990156 
0.00022329267813 0.00033520007855 0.00036164047197 0.00038617840619 0.00042296337779 0.0004048566625 0.00040646278649 -0.00012908887584 -0.00016771955416 
-8.4523373516e-05 -5.2157600294e-05 -3.6234494473e-05 -3.4932221752e-05 -4.9675567425e-05 -9.1708927357e-05 -0.00016287610924 0.00035951833706 0.00029425372486 
0.00022260587139 0.0001553970651 0.00010026625387 6.3068830059e-05 4.3085015932e-05 3.6786317651e-05 4.2065064918e-05 4.1889867134e-05 4.8085232265e-05 
6.5446336521e-05 0.00010065293463 0.00015294234618 0.00013451756968 0.00016706759925 0.00019093320589 0.00018590787658 0.00014862205717 0.00010069838027 
4.9909358495e-05 0.00017678458244 0.00016455963487 0.00014634680701 0.00012360433175 8.4345854702e-05 0.00012634704763 0.00016407725343 0.00018307719438 
4.1642251745e-05 4.9362493883e-05 7.2205206379e-05 0.00011477856606 0.00017343412037 0.00024484161986 0.0003122590133 0.000337314239 -6.4841624408e-05 
-6.9609668572e-05 -7.8377095633e-05 -9.3447815743e-05 -0.00018724691472 -0.00016678513202 -5.507997048e-05 -0.00011919019744 -0.00017235055566 -0.00018793463823 
-0.00018125677889 -0.00019327309565 -0.00010907441902 -0.00032287434442 -0.00039148831274 -0.0004714394745 -0.00054441555403 -0.00059316970874 -0.00062260014238 
-0.00062170886667 -0.00058777601225 -0.00052950636018 -0.00046367073082 -0.0003240230144 -0.00038230634527 -0.00024370673054 -0.0001614564826 -8.2248414401e-05 
-2.7094680263e-05 1.5853163859e-05 2.8718373869e-05 2.0913614208e-05 8.6228055807e-06 -2.6233612971e-06 2.1663381631e-05 2.6648733183e-05 1.9202665499e-05 
-4.0461273443e-07 -3.8495523768e-05 -8.3707636804e-05 -0.00014649151126 -0.00021525649936 -0.00058190588607 -0.00052026018966 -0.00062139378861 -0.00062590482412 
-0.00058670953149 -0.00050917395856 -0.00043024678598 -0.00037099479232 -3.8380640035e-05 -0.0006098379381 -0.00063169165514 -0.0006281157257 -0.00059616123326 
-0.00055251771118 -8.4187166067e-05 -0.00014773321163 -3.7743386201e-05 -5.6688982113e-06 0.00011253704724 0.00014607861522 0.00016163283726 0.00018685347459 
0.00014220949379 0.0002699130564 0.00019772378437 0.00013368876535 8.3789156633e-05 5.1951141359e-05 -0.00029292638646 -0.00027418482932 -0.00021638613543 
-0.00019160096417 -0.000198299982 -0.00015334351338 -0.00012004331074 -7.7018710726e-05 -5.2541967307e-05 0.00017983822909 0.0001841072808 -0.00012662273366 

Disp_FEB 3 1116 double
0 0 0 0 0 0 -5.066005906e-05 0.00011094925867 2.0408617274e-05 
-6.6734966822e-05 0.00011791364523 1.2441884792e-05 0 0 0 -4.0593226004e-05 0.00010328457574 2.9759290555e-05 
0 0 0 -2.379309808e-05 9.7859483503e-05 3.840626232e-05 0 0 0 
-8.748482287e-06 9.2045156634e-05 4.4204272854e-05 0 0 0 1.8350920072e-06 8.5634186689e-05 4.8785092076e-05 
0 0 0 1.2023106137e-05 7.9311968875e-05 5.2107381634e-05 0 0 0 
1.890115891e-05 6.9131849159e-05 5.3399358876e-05 0 0 0 1.8378563254e-05 6.2014427385e-05 5.0980266678e-05 
0 0 0 2.3409573259e-05 6.87972788e-05 5.2790921472e-05 0 0 0 
2.7902155125e-05 7.0771813625e-05 6.4927182393e-05 0 0 0 3.4488712117e-05 6.5551459556e-05 8.0588564742e-05 
0 0 0 3.4358348785e-05 5.3366562497e-05 9.5216266345e-05 0 0 0 
3.5091146856e-05 3.8740818127e-05 0.00010488799307 0 0 0 3.439890861e-05 2.5128139896e-05 0.00010913624283 
0 0 0 3.3227304812e-05 1.1606227417e-05 0.00011297249875 0 0 0 
2.719904478e-05 -4.5918709475e-06 0.00011255904974 0 0 0 1.8496126359e-05 -2.1303589165e-05 0.00011077201634 
0 0 0 1.0816826943e-05 -3.6877063394e-05 0.00010691722855 0 0 0 
1.1868184629e-05 -4.7369059757e-05 9.7706957604e-05 0 0 0 1.5726400306e-05 -5.5252425227e-05 8.1456862972e-05 
0 0 0 1.8406244635e-05 -5.9742007579e-05 5.9712696384e-05 0 0 0 
2.4019673219e-05 -5.596605115e-05 3.1026887882e-05 0 0 0 2.573537131e-05 -4.1503884859e-05 -2.8651968478e-06 
0 0 0 2.9133729186e-05 -2.1840467525e-05 -2.220656279e-05 0 0 0 
3.3364063711e-05 -9.8038499345e-06 -2.5008717785e-05 0 0 0 3.2756535802e-05 -1.512464496e-05 -1.2222083569e-05 
0 0 0 3.569432738e-05 -3.7867986975e-05 -9.353083442e-06 0 0 0 
3.5161676351e-05 -6.5482352511e-05 -2.1334306439e-05 0 0 0 3.405735697e-05 -8.9446068159e-05 -3.9997314161e-05 
0 0 0 3.2374835428e-05 -0.00010681125423 -5.8153684222e-05 0 0 0 
2.8169564757e-05 -0.00011908459419 -7.329066284e-05 0 0 0 1.7854215912e-05 -0.00012835381494 -8.4262392193e-05 
0 0 0 1.1015752534e-05 -0.0001384201023 -0.00010129273142 0 0 0 
1.9359649741e-06 -0.000144029691 -0.00011536396778 0 0 0 -1.3553184317e-06 -0.00014247689978 -0.00012827631144 
0 0 0 -5.1365718718e-06 -0.0001417848689 -0.00014555636153 0 0 0 
-1.2603783034e-05 -0.00013456578017 -0.00015836213424 0 0 0 -1.698354572e-05 -0.00012089238589 -0.00016438022431 
0 0 0 -1.6812344256e-05 -0.00010336426931 -0.00016197742661 0 0 0 
-1.7928397938e-05 -8.3195882326e-05 -0.00015027438349 0 0 0 -1.3832928744e-05 -6.7420587584e-05 -0.00013336927805 
0 0 0 -7.9353703768e-06 -5.148267519e-05 -0.0001128894437 0 0 0 
-5.3191538427e-06 -3.2011317671e-05 -9.1760324722e-05 0 0 0 -8.8215972482e-07 -1.4058358829e-05 -6.7461689468e-05 
0 0 0 8.1642756413e-06 -3.2329583064e-06 -4.5742533985e-05 0 0 0 
9.4640945463e-06 5.2277255236e-06 -4.0975177399e-05 0 0 0 1.1293061561e-06 2.0259436496e-05 -4.717394404e-05 
0 0 0 -1.0492726688e-05 4.6622790251e-05 -5.5623051594e-05 0 0 0 
-2.0723256966e-05 7.7288452303e-05 -5.493095523e-05 0 0 0 -2.4343749828e-05 0.00010061480862 -4.6169960115e-05 
0 0 0 -2.4644061341e-05 0.00011178107525 -3.5430486605e-05 0 0 0 
-3.1589919672e-05 0.00011328729306 -2.7521142329e-05 0 0 0 -4.5948934712e-05 0.00011449485464 -2.1069559807e-05 
0 0 0 -5.9090521972e-05 0.00011842334061 -1.0038233995e-05 0 0 0 
-6.5482163336e-05 0.00011979069677 1.9991457521e-06 0 0 0 0 0 0 
-7.6814319527e-07 -7.0761598181e-05 2.2272688511e-05 -1.0184652638e-05 -6.3607410993e-05 2.0491652322e-05 0 0 0 
9.3514790933e-06 -8.1343612692e-05 3.6915167584e-05 0 0 0 2.5200883101e-05 -9.0403147624e-05 5.0416008889e-05 
0 0 0 3.5832475987e-05 -9.854180098e-05 6.8351597292e-05 0 0 0 
4.7541547247e-05 -9.9423938082e-05 8.8694832812e-05 0 0 0 5.2378447435e-05 -9.6362506156e-05 0.00011175176769 
0 0 0 5.6670822232e-05 -8.542231808e-05 0.00012870853243 0 0 0 
5.0232498324e-05 -7.1876624133e-05 0.00014025438577 0 0 0 4.804657874e-05 -5.4833042668e-05 0.00014319796173 
0 0 0 3.1547995604e-05 -4.5187640353e-05 0.00014205131447 0 0 0 
2.1866822863e-05 -3.7916033762e-05 0.00013588462025 0 0 0 1.1760127563e-05 -2.9202492442e-05 0.00012647805852 
0 0 0 4.065264875e-06 -1.4711625226e-05 0.00011363553494 0 0 0 
-4.4665048335e-06 1.4444217413e-06 9.3914837635e-05 0 0 0 -1.5122715922e-05 1.3885322915e-05 6.9842710218e-05 
0 0 0 -1.8637392714e-05 2.1923900931e-05 4.3330957851e-05 0 0 0 
-2.1859912522e-05 2.1439253032e-05 2.6028294087e-05 0 0 0 -1.6030977349e-05 2.006543582e-05 2.3027379939e-05 
0 0 0 -1.5046256522e-05 3.2788742828e-05 3.442032903e-05 0 0 0 
-1.6603818949e-05 5.8396708482e-05 3.9873262722e-05 0 0 0 -1.2230203538e-05 8.2846323494e-05 4.2707495595e-05 
0 0 0 -2.0534784198e-05 0.0001126689167 4.3495001592e-05 0 0 0 
-2.2227861336e-05 0.00013961009972 3.8238780689e-05 0 0 0 -1.9279183107e-05 0.0001593632478 2.3872158636e-05 
0 0 0 -3.0068275009e-05 0.00017035935889 5.2265072554e-06 0 0 0 
-4.7812507546e-05 0.00016984423564 -8.0299732872e-06 0 0 0 -5.5167136452e-05 0.00016172173491 -1.457419603e-05 
0 0 0 -5.1782859373e-05 0.00015899269783 -1.6946878532e-05 0 0 0 
-4.6538567403e-05 0.00016186229186 -2.1773179469e-05 0 0 0 -3.955158536e-05 0.00016222792328 -3.3180789615e-05 
0 0 0 -5.0508260756e-05 0.00015844735026 -4.4973337936e-05 -2.499427319e-05 4.3733751227e-05 5.1109409469e-06 
-5.413857798e-05 0.00013813456462 -5.8519348386e-05 0 0 0 -5.9416517615e-05 0.00012287688151 -6.4538493461e-05 
0 0 0 -5.741991481e-05 9.1712856374e-05 -6.5735701355e-05 0 0 0 
-5.4953361541e-05 5.7599678257e-05 -6.047754141e-05 0 0 0 -4.8902085837e-05 2.7217252864e-05 -4.9147103709e-05 
0 0 0 -4.6083605412e-05 9.3742464742e-06 -3.4555949242e-05 0 0 0 
-4.4386470108e-05 1.4690954231e-06 -2.4021586796e-05 0 0 0 -4.5143369789e-05 1.285665121e-06 -2.0016641429e-05 
0 0 0 -5.1884544519e-05 -7.6815450711e-07 -2.3957163648e-05 0 0 0 
-5.2382554713e-05 -8.6590780484e-06 -3.3111209632e-05 0 0 0 -5.0111579185e-05 -1.7969250621e-05 -4.1054456233e-05 
0 0 0 -4.424650615e-05 -2.3385935492e-05 -4.9243877584e-05 0 0 0 
-3.6204779462e-05 -2.6154975785e-05 -6.1687882408e-05 0 0 0 -2.317986764e-05 -3.1218427466e-05 -8.2073289377e-05 
0 0 0 -8.7484513642e-06 -4.6876881242e-05 -0.00010529376596 0 0 0 
1.0603760529e-05 -7.0253081503e-05 -0.00012789684115 0 0 0 2.5003482733e-05 -0.00010153532639 -0.00014471937902 
0 0 0 3.8950292947e-05 -0.00012859367416 -0.00014800082135 0 0 0 
5.1935789088e-05 -0.00015049094509 -0.00013755235705 0 0 0 4.7718538553e-05 -0.00016488858091 -0.00011275475845 
0 0 0 3.9783124521e-05 -0.00016466002853 -8.1312522525e-05 0 0 0 
1.8707418349e-05 -0.00015302996326 -4.8178695579e-05 0 0 0 1.8232288994e-06 -0.00012430177594 -1.4374294551e-05 
0 0 0 -1.4705242393e-05 -9.0190551418e-05 -2.6575360152e-06 0 0 0 
-2.2668205929e-05 -7.3442752182e-05 1.2224569446e-06 0 0 0 -1.9258231987e-05 -6.5332445956e-05 1.5936759155e-05 
-7.2870949225e-05 0.00017888045113 5.6514418247e-05 -9.0487585112e-05 0.00019660098769 3.8108235458e-05 -4.9708247388e-05 0.00015995360445 6.9116911618e-05 
-2.4317914722e-05 0.00014497135999 7.5114578067e-05 -2.7534131277e-06 0.00013347411004 7.7369557403e-05 1.4312308849e-05 0.00012172859715 7.8552824561e-05 
2.6910565794e-05 0.00010731104703 7.7888274973e-05 3.3586165955e-05 9.9417506135e-05 7.2538103268e-05 4.1010112909e-05 0.00010503006342 7.3682589573e-05 
4.7374145652e-05 0.0001055211178 9.078214498e-05 5.1859944506e-05 9.6703450254e-05 0.0001143929112 5.4101652495e-05 8.1203579612e-05 0.00013668803149 
5.6121800299e-05 6.149992987e-05 0.00015396036906 5.3354699048e-05 4.0829545469e-05 0.0001654157677 4.7967172577e-05 1.7787129764e-05 0.00017415259208 
3.4230713936e-05 -9.0180010375e-06 0.00018171062402 2.7665551897e-05 -3.7174959289e-05 0.00018877269758 2.0862848032e-05 -6.6702094045e-05 0.00018874293892 
2.599763684e-05 -8.7146465376e-05 0.00017687516811 3.0158234949e-05 -0.00010403852502 0.00015135436843 3.1635441701e-05 -0.00011504128634 0.00011536707461 
2.9434322641e-05 -0.00011527795141 6.3471517933e-05 3.0852264899e-05 -7.1553120506e-05 -8.3058523614e-07 3.4906439396e-05 -3.7970650737e-05 -2.9296021239e-05 
4.1779865569e-05 -1.8791297407e-05 -2.7952353776e-05 4.6853598178e-05 -2.9041537346e-05 -9.2769223556e-06 5.3734500398e-05 -6.5395237471e-05 -6.3569727899e-06 
5.8684436226e-05 -0.00010865236982 -2.6252673706e-05 6.0976675741e-05 -0.00014681098401 -5.6865239458e-05 5.8992995037e-05 -0.0001777838479 -8.7823143986e-05 
5.1853920013e-05 -0.00020292149566 -0.00011535843805 3.7695848732e-05 -0.00022528144473 -0.0001396730222 2.4616227165e-05 -0.00024169986136 -0.0001674083469 
8.1640619101e-06 -0.00025341456058 -0.00019378034631 -1.6387721757e-07 -0.00025684363209 -0.00022149200959 -6.3181109908e-06 -0.00025108418777 -0.00025088051916 
-1.5450284991e-05 -0.00023290360696 -0.00027421402046 -2.7036561733e-05 -0.00020347311511 -0.00028274627402 -3.418234337e-05 -0.00016694527585 -0.00027456166572 
-3.4756089008e-05 -0.00012886671175 -0.00025226169964 -2.936031342e-05 -9.3960399681e-05 -0.00021994748386 -2.4812459742e-05 -6.3965264417e-05 -0.00018281834491 
-2.1980358724e-05 -3.5420391214e-05 -0.00014417027705 -1.3487407159e-05 -1.1530478332e-05 -0.00010191879119 4.4711418923e-06 9.1082313247e-07 -6.4598520112e-05 
8.0886893556e-06 9.6439707704e-06 -5.984048039e-05 -2.5071881282e-06 2.7149344533e-05 -6.9455578341e-05 -2.2107969926e-05 6.0416245105e-05 -8.1194964878e-05 
-4.0428869397e-05 0.00010370571545 -8.2224825746e-05 -5.1700135373e-05 0.00013974728063 -7.2884024121e-05 -5.5590648117e-05 0.0001649918122 -5.9231835621e-05 
-6.4551888499e-05 0.00017895796918 -5.1073544455e-05 -7.7896373114e-05 0.00019619280647 -4.2565334297e-05 -9.0208406618e-05 0.00021391226619 -2.2900019758e-05 
-9.8408403574e-05 0.00021818958339 1.05187587e-06 -9.8120501207e-05 0.00021166815714 2.0401635993e-05 1.1023782463e-05 -0.00013011378178 5.6999229855e-05 
-6.0926126935e-06 -0.00011270010873 3.5306562495e-05 3.224185275e-05 -0.00014833989553 7.907347026e-05 5.2232273447e-05 -0.00016470279661 0.00010945532995 
6.8088833359e-05 -0.00017184438184 0.00014790118439 7.776592247e-05 -0.00016786155174 0.00018674127932 8.2164806372e-05 -0.00015302031534 0.00021853616636 
7.4308700277e-05 -0.00013108215353 0.00024023187871 6.3876061176e-05 -0.00010539320647 0.00024688217673 4.578381413e-05 -8.2654260041e-05 0.00024068626226 
3.3292548324e-05 -5.9370031522e-05 0.0002270379191 2.0162195142e-05 -3.5477787605e-05 0.00020759788458 8.3677232396e-06 -6.0781294451e-06 0.00018062835443 
-6.4007272158e-06 1.7168658815e-05 0.00014465145068 -1.8295095288e-05 3.4596418118e-05 0.00010311014194 -2.3987950044e-05 3.9216560253e-05 6.5628293669e-05 
-2.3583306756e-05 3.4732620406e-05 4.5164677431e-05 -1.7002657842e-05 3.7402056478e-05 4.688347326e-05 -1.5941770471e-05 5.7991768699e-05 6.1223086959e-05 
-1.691775833e-05 9.438113193e-05 7.5355477748e-05 -1.5764095224e-05 0.0001377069857 8.6176056357e-05 -2.5297542379e-05 0.00018656502652 8.7189269834e-05 
-3.1161322113e-05 0.00023457795032 7.7021672041e-05 -4.07922671e-05 0.00027114673867 5.0605300203e-05 -5.565673564e-05 0.00028733312502 1.6395373677e-05 
-6.8514382292e-05 0.00028230881435 -1.2444062122e-05 -7.7405013144e-05 0.00026740352041 -2.6799016268e-05 -7.8897515777e-05 0.00025993667077 -3.1087038224e-05 
-7.6435309893e-05 0.00026178074768 -4.1322124162e-05 -7.3907103797e-05 0.00026333422284 -6.0010348534e-05 -7.6344716945e-05 0.00025253245258 -8.2836231741e-05 
-8.1761929323e-05 0.0002270788973 -0.00010276730609 -8.7594038632e-05 0.00018645524688 -0.00011422930402 -8.7211483333e-05 0.00013716578542 -0.00011469755555 
-8.1898986537e-05 8.4487444838e-05 -0.00010530108557 -7.3307877756e-05 4.1289011278e-05 -8.5969513748e-05 -6.762349949e-05 1.3849888091e-05 -6.2589344452e-05 
-6.4710548031e-05 5.39710868e-07 -4.3708590965e-05 -6.6692664404e-05 -1.1684977608e-06 -3.4520489862e-05 -7.330403605e-05 -2.8698607366e-06 -3.728354568e-05 
-7.5987962191e-05 -1.4184216525e-05 -4.8630590754e-05 -7.2564289439e-05 -2.7902557122e-05 -6.0219423176e-05 -6.4895029936e-05 -3.576261588e-05 -7.396658475e-05 
-5.2900395531e-05 -3.805502638e-05 -9.9703596788e-05 -3.7727651943e-05 -4.8973870435e-05 -0.00014150379866 -1.7803991796e-05 -8.1338061136e-05 -0.00018927194469 
7.6203095887e-06 -0.00012807625171 -0.00023110897746 3.1165836845e-05 -0.0001823612547 -0.00025811506202 5.3430871048e-05 -0.00023636854894 -0.00026103414712 
7.1649650636e-05 -0.00027586100623 -0.00023944689019 7.2548573371e-05 -0.00029552693013 -0.00019582237292 6.4579580794e-05 -0.00028751796344 -0.00013566021516 
4.563141556e-05 -0.00025108119007 -6.9378569606e-05 1.6584783225e-05 -0.00018912453379 -3.9699189074e-06 -2.161654993e-05 -0.00012381905981 2.4031192879e-05 
-4.000307672e-05 -9.592439892e-05 1.1959238691e-05 -3.4215136111e-05 -9.1704903753e-05 1.4495553842e-05 -2.2348831408e-05 -9.7755349998e-05 2.1477077098e-05 
-6.9375062594e-05 0.00021214605658 9.9284850876e-05 -9.1305293608e-05 0.00024911400396 8.3484133938e-05 -3.964696225e-05 0.00018484883185 0.00010195638606 
-1.2818132745e-05 0.00016364009934 9.9739387224e-05 9.5693185358e-06 0.00014654200641 9.5097413578e-05 2.7470361601e-05 0.00013001785555 8.8282627985e-05 
3.9724945964e-05 0.00012013979722 7.8624761954e-05 4.8150453949e-05 0.00012037692795 7.7034455899e-05 5.4913525673e-05 0.00011689805979 9.181801579e-05 
6.0149319324e-05 0.00010847253725 0.0001150385724 6.366470916e-05 9.4594048278e-05 0.00014067426673 6.5184241976e-05 7.5365780503e-05 0.00016401834728 
6.1191669374e-05 5.451272591e-05 0.00018523096514 4.9522939662e-05 2.8581547667e-05 0.00020918509108 3.6115008697e-05 -6.6625998443e-06 0.00023562005663 
3.2377451134e-05 -5.0264723541e-05 0.00025810868829 3.2863379602e-05 -9.3940798251e-05 0.00026347552193 3.6880042899e-05 -0.00012816628441 0.00024860011763 
3.7946196244e-05 -0.00015095926938 0.00021382042905 3.5584936995e-05 -0.00016559976211 0.00017153353838 2.8918435419e-05 -0.00017624061729 0.00012732751202 
2.4463823138e-05 -4.714987881e-05 -3.2430209103e-05 1.9619619707e-05 -8.7279848231e-05 -9.5666564448e-06 3.4307431633e-05 -2.5905021175e-05 -2.6887055355e-05 
4.7501776862e-05 -3.8634439989e-05 -5.726796644e-06 6.0216243583e-05 -8.2868049503e-05 -1.194000788e-06 6.9021385571e-05 -0.00013868116366 -2.2893216737e-05 
7.2849274147e-05 -0.00019148034335 -5.9580397647e-05 7.2336319136e-05 -0.00023631438671 -0.00010285323515 6.5793916292e-05 -0.00027480188874 -0.00014373542217 
5.3340118029e-05 -0.00030836308724 -0.00018333936168 3.7763307773e-05 -0.00033446677844 -0.00022597580391 1.6226047592e-05 -0.00035120930988 -0.00026611975045 
-3.5068314475e-08 -0.00035468002898 -0.0003053987748 -1.2202633116e-05 -0.00034298255923 -0.00034223578405 -2.4064225727e-05 -0.00031464209314 -0.00036908694892 
-3.412631122e-05 -0.00027158475132 -0.00037772982614 -4.1872553993e-05 -0.00021830033802 -0.00036396223004 -4.4446049287e-05 -0.00016350304941 -0.00032976700459 
-3.9589151129e-05 -0.00011541472486 -0.00028220022796 -3.463007306e-05 -7.6569245721e-05 -0.00023072212934 -3.2195410313e-05 -4.5374988986e-05 -0.0001858240139 
-2.69043976e-05 -2.3412960218e-05 -0.00014661495516 3.8377106648e-06 8.0727968452e-06 -5.8449495555e-05 1.029062787e-06 1.1958803725e-06 -6.0509919422e-05 
-9.8990831248e-06 2.6088091545e-05 -7.3444214649e-05 -3.5733883124e-05 6.4312262111e-05 -9.1137328127e-05 -6.130849215e-05 0.00011595788965 -9.7249656392e-05 
-7.8144323197e-05 0.00016373762628 -9.10732997e-05 -8.7217893451e-05 0.00020087407029 -7.8012926679e-05 -9.8288473964e-05 0.00022713845829 -7.1151254815e-05 
-0.00010536821355 0.00026257018908 -6.2967905251e-05 -0.00011458541849 0.000296291837 -4.1326406063e-05 -0.00012304488337 0.00031746621244 -8.484558748e-06 
-0.00011872640607 0.00030759040965 2.6992087442e-05 -0.0001134551494 0.00028021857725 5.9908656112e-05 1.6759591745e-05 -0.00013806532661 3.4408396459e-05 
2.1399247998e-05 -0.00018565768551 9.0319532319e-05 -1.2061573216e-05 -2.0496449906e-06 -8.369047282e-05 -2.1637431928e-05 -7.0323389991e-06 -0.000115296898 
3.8730817323e-05 -0.00018852185167 9.7739262856e-05 1.2290148334e-05 -0.00015990942484 6.8289751653e-05 6.1691345763e-05 -0.00021331790776 0.00014177139383 
8.020614041e-05 -0.0002270827099 0.00019351534138 8.9463348559e-05 -0.00022572962916 0.00024755849154 9.2850488727e-05 -0.00021015222592 0.00029128391179 
8.4813742433e-05 -0.00018435191305 0.00032170131453 7.5446841947e-05 -0.00014771007409 0.00033247779356 6.2236656959e-05 -0.00010807272338 0.00032300321618 
4.3778840336e-05 -7.3598210292e-05 0.00029913493199 2.8369413485e-05 -3.273256516e-05 0.00026642417652 1.0943288544e-05 7.7394151958e-06 0.00022400241869 
-7.2758853094e-06 3.8477221096e-05 0.00017248123186 -2.1410603949e-05 5.2979314205e-05 0.00011867501598 -2.6537183658e-05 5.2324659919e-05 7.518439088e-05 
-2.2334430469e-05 4.2272491555e-05 5.0320402806e-05 -1.2355314539e-05 4.5346539991e-05 5.7753743022e-05 -1.2405831512e-05 7.5903408288e-05 8.0899932072e-05 
-1.645204793e-05 0.00012299262744 0.00010323533206 -2.0856870833e-05 0.00017996021779 0.00012079386215 -3.4636097553e-05 0.00024600108736 0.00012400030391 
-4.8941601563e-05 0.00031116092578 0.00011028484005 -6.8018372986e-05 0.00035912080784 7.3850023909e-05 -8.3824532339e-05 0.00037894354318 2.7064419555e-05 
-9.3393988209e-05 0.00037018788862 -1.232307477e-05 -9.7030089819e-05 0.00034899640013 -3.4485929064e-05 -9.7797652415e-05 0.00033656743472 -4.1532301111e-05 
-9.9095319456e-05 0.00033898183028 -5.3971223679e-05 -9.9211771158e-05 0.00034117343603 -8.0267367593e-05 -0.0001001903147 0.00032634907984 -0.00011131497013 
-0.00010273698717 0.00028865327477 -0.00013756705448 -0.00010351421224 0.00022995813924 -0.00015069160145 -9.8054028058e-05 0.00015840961714 -0.00015088937653 
-9.2567403044e-05 9.2315101938e-05 -0.00013316579862 -8.5596409917e-05 4.1964402044e-05 -0.00010632861085 -8.0503021309e-05 1.3107548511e-05 -7.5263451436e-05 
-7.6590382378e-05 -7.0093513216e-08 -5.123912706e-05 -7.6739801443e-05 -1.0986964298e-06 -3.9761045628e-05 -7.7975710155e-05 -5.405713182e-06 -4.1929215513e-05 
-7.7491728007e-05 -1.7170219508e-05 -5.2746945585e-05 -7.3358773079e-05 -3.0771636375e-05 -6.732896145e-05 -6.5000269387e-05 -3.9134982217e-05 -8.9637855126e-05 
-5.3573978221e-05 -4.2661009502e-05 -0.0001316708076 -3.9554390241e-05 -6.4496271079e-05 -0.00019484953373 -2.0054396373e-05 -0.00011580740829 -0.00026254777913 
6.3927427618e-06 -0.00018231355352 -0.00032184144948 3.3997956052e-05 -0.00025995270698 -0.00035816757008 6.0384747485e-05 -0.00033573817927 -0.00036031726631 
8.2223756181e-05 -0.00038878465421 -0.00032713913242 8.9661902166e-05 -0.00040811335202 -0.00026223497116 8.6710329924e-05 -0.00038477650378 -0.00017259499873 
6.6946995503e-05 -0.00032168201869 -7.5345742516e-05 3.1332478102e-05 -0.00022592756432 9.6669464256e-06 -1.0786651728e-05 -0.00013116939226 4.6344008297e-05 
-4.3559131882e-05 -8.5677158495e-05 2.2541342332e-05 -4.5171462261e-05 -8.7844906375e-05 1.1950764019e-05 -3.1826857594e-05 -0.00010668714822 1.8497432393e-05 
-1.1182112758e-05 -0.00013263733126 3.9612787077e-05 -9.8978543974e-06 1.8728977693e-06 -6.9368317781e-05 -1.5162349882e-05 1.3879468952e-06 -8.6638319772e-05 
-3.0041935588e-06 1.7294865984e-06 -5.4523850849e-05 -3.1535985272e-06 3.5202103845e-06 -5.660633542e-05 -2.0509425667e-05 2.0340798073e-05 -7.7973592852e-05 
-5.1305840316e-05 6.4247047703e-05 -0.00010130444571 -8.0453894043e-05 0.00012663577218 -0.00011062328849 -0.00010217753879 0.0001833174174 -0.00010789765656 
-0.00011595893011 0.00022949563572 -9.7354248282e-05 -0.00012519628217 0.00026602452272 -8.8726257673e-05 -0.0001276020339 0.00030752492603 -7.9728815763e-05 
-0.0001327101636 0.00035503302934 -6.5975851612e-05 -0.00014613004168 0.00041761185275 -2.7587486329e-05 -0.00013835683058 0.00039495123201 3.9000755351e-05 
-0.00012133224664 0.00035201045102 8.373480523e-05 -0.00010494684102 0.00030123014585 0.00011268236267 -8.2558850409e-05 0.00025219129748 0.00012515790877 
-5.374272223e-05 0.00021441248828 0.00012620180496 -2.3973496354e-05 0.00018639129121 0.00011852419993 1.4825435528e-06 0.00016402258188 0.00010761711746 
2.1734662369e-05 0.00014299870236 9.4884388091e-05 3.6777746573e-05 0.00012743280968 7.9299403296e-05 4.7984565754e-05 0.00011923429702 7.2410082794e-05 
5.7134206145e-05 0.00011318245379 8.1124519056e-05 6.3274950662e-05 0.00010694398952 0.00010079923959 6.6254775447e-05 9.8001837614e-05 0.00012485854677 
6.5598302172e-05 8.413654723e-05 0.00015228737902 5.7991186623e-05 6.8430177635e-05 0.0001829535031 4.5365672122e-05 4.2476858653e-05 0.00022371573141 
3.6413417547e-05 -1.4364262597e-06 0.00027115581906 3.8443271478e-05 -5.8795583755e-05 0.00030928192427 4.4003674702e-05 -0.00012064963812 0.00032472534804 
4.7517900384e-05 -0.00016542097728 0.0003027402563 4.4189277105e-05 -0.00019012700068 0.00025945759262 4.0916820581e-05 -0.00020214363758 0.00021730581648 
3.4484222851e-05 -0.00021760408708 0.00018068554346 2.9405860914e-05 -0.0002245776559 0.00014635945263 1.2538279407e-05 -0.0001840023906 5.3720235883e-05 
2.2392548999e-05 -0.00022451503901 0.00010627221491 9.0016992544e-06 -0.00013825543283 1.3133540051e-05 9.5110999609e-06 -9.4576345873e-05 -1.6203675841e-05 
1.3180207134e-05 -5.8386845922e-05 -3.0170504033e-05 2.4028826374e-05 -3.6835303035e-05 -2.2792652089e-05 4.1633717046e-05 -4.7428413382e-05 -3.2908155845e-06 
6.0008525907e-05 -9.3263319286e-05 3.4151155432e-06 7.3049028288e-05 -0.00015728006838 -1.8201815692e-05 7.9356133938e-05 -0.00022208315204 -5.7789187849e-05 
7.9885074229e-05 -0.00027942741872 -0.00010764938634 7.4757728726e-05 -0.00033054177766 -0.00015874214296 6.4183783252e-05 -0.00037572803558 -0.00021307601128 
4.489911953e-05 -0.00041329374653 -0.00026907541906 1.9052149582e-05 -0.00043765341979 -0.00032416061731 -2.6488955882e-06 -0.000438504474 -0.00037754091318 
-2.1770845706e-05 -0.00041531951865 -0.00042066574679 -3.5194621887e-05 -0.00037350688945 -0.00044481627992 -4.0462007746e-05 -0.00031735334778 -0.00044832655112 
-4.4858035835e-05 -0.0002510198683 -0.00042698564357 -4.5511245844e-05 -0.00018433200603 -0.00038250343641 -4.356631689e-05 -0.00012402648281 -0.00032251345692 
-3.8375099393e-05 -8.1170401245e-05 -0.00026359889307 -3.379741247e-05 -5.3177802329e-05 -0.00021613878198 -2.9599192203e-05 -2.8687862141e-05 -0.00017916888464 
-2.2847612854e-05 -1.2825646081e-05 -0.00014237120922 -1.7378892153e-05 5.5904860119e-07 -0.00010372784163 -1.1114007066e-05 2.9031602935e-06 -6.230262079e-05 
-1.4537489733e-05 2.7590574518e-06 -6.6679742304e-05 -8.5343172032e-06 2.0350437353e-06 -5.9317233536e-05 6.8334680691e-05 -0.00024555643904 0.00016263897123 
4.2051640776e-05 -0.00021446905157 0.00010987926362 8.8134249381e-05 -0.00026341548073 0.00022372852254 9.7599666333e-05 -0.00026372112916 0.00028777579428 
0.00010041234782 -0.00024810567265 0.0003397205146 9.4330840511e-05 -0.0002191158419 0.00037566263927 8.3406404883e-05 -0.00017686457431 0.00038999982644 
6.8214074417e-05 -0.00012493540999 0.0003789049515 4.8938702093e-05 -7.5059688243e-05 0.0003463846806 2.7928337659e-05 -2.5602335882e-05 0.00030216324376 
6.496954029e-06 2.2477355742e-05 0.00024867840693 -1.2944558875e-05 5.4105708841e-05 0.00018714020553 -2.6880450605e-05 6.8625922722e-05 0.00012622257054 
-2.9307213481e-05 6.2654988142e-05 8.017350774e-05 -2.3541351766e-05 5.1096652896e-05 5.4624906625e-05 -1.4759402802e-05 4.6412886149e-05 5.1752700529e-05 
-1.8170203475e-05 0.00014618196292 0.0001263825834 -1.1404817087e-05 9.7485892184e-05 0.00010290627688 -2.8046790248e-05 0.00021170460968 0.00014810684661 
-4.6046796342e-05 0.00028750053025 0.0001532844617 -6.6863758548e-05 0.00036321821972 0.00013674293587 -8.8420172688e-05 0.00041937059723 9.4039671239e-05 
-0.00010459875193 0.00044297424029 3.9112408558e-05 -0.00011332192662 0.0004332428507 -8.4055727712e-06 -0.00011715645815 0.00040748997708 -3.6870755139e-05 
-0.00011385748076 0.00038990785833 -4.7754714615e-05 -0.0001161681721 0.00039117861888 -6.0641646996e-05 -0.00011975950474 0.00039444843424 -9.0702451416e-05 
-0.00012038960267 0.00037773605436 -0.00013036196469 -0.00011723532953 0.00032701995224 -0.00016187068832 -0.00011137456022 0.00025232287589 -0.00017597527767 
-0.00010284313612 0.00016670059995 -0.00017198415298 -9.5952178526e-05 9.057517309e-05 -0.00014813670714 -9.0080895461e-05 3.5776589357e-05 -0.00011507148884 
-8.5599487647e-05 8.7808439275e-06 -7.7107790275e-05 -8.1138539826e-05 4.3217269763e-07 -5.0260834541e-05 -7.7710261394e-05 -1.900066593e-08 -4.0448154323e-05 
-7.4082898209e-05 -8.1080806922e-06 -4.4485193939e-05 -6.990043039e-05 -1.9867755327e-05 -5.5237487686e-05 -6.3683524786e-05 -2.9455555705e-05 -7.3600604082e-05 
-5.5307573348e-05 -3.8600857806e-05 -0.00010671545897 -4.4653013902e-05 -4.6247572755e-05 -0.00016543366655 -3.2267005736e-05 -8.0157595221e-05 -0.0002460758551 
-1.4116248167e-05 -0.00014555384405 -0.00032901400118 9.7815609479e-06 -0.00022764776077 -0.00040006704512 3.5483153624e-05 -0.00032492296305 -0.00044126153807 
6.3491992478e-05 -0.00041632095235 -0.00044299807632 8.6210253357e-05 -0.00047995217028 -0.00039902664139 9.7995594842e-05 -0.00049675063929 -0.00031321388087 
9.5032926765e-05 -0.00045544654131 -0.00019758367853 7.5362127973e-05 -0.00036509652273 -7.8116048826e-05 4.4021024223e-05 -0.00024460401619 1.6426907678e-05 
6.9955221988e-06 -0.00013814674458 5.3392701375e-05 -3.0332344977e-05 -7.8248151112e-05 3.1514577131e-05 -4.3588723202e-05 -7.4997049524e-05 1.2052809325e-05 
-3.5274279071e-05 -0.00010177050717 1.3535010112e-05 -1.396296193e-05 -0.0001384949137 3.7910125684e-05 1.2766930922e-05 -0.00017639470752 7.3211289418e-05 
-7.9633564383e-06 6.5395433921e-05 7.9470228229e-05 -6.4769396886e-06 5.2826304454e-05 6.2413309934e-05 -5.4023548728e-06 2.8654045536e-07 -5.0061720685e-05 
-8.4905350377e-06 -5.0827173936e-07 -5.3650099289e-05 -2.8286422094e-05 1.4053958694e-05 -8.2810358435e-05 -6.0521088017e-05 6.596428284e-05 -0.00011093840294 
-9.3267481134e-05 0.00013589605805 -0.00012673177116 -0.00011928718595 0.0002026722068 -0.00012802307901 -0.00013587584544 0.00025929979165 -0.00011759381596 
-0.00014502482372 0.00030166297802 -0.00010484788072 -0.00014449300943 0.0003403640585 -9.1612870165e-05 -0.00014413532335 0.00038259412395 -8.2293634478e-05 
-0.00015246673138 0.00044019133202 -7.2762064519e-05 -0.00012747765868 0.00039711530553 0.00011390710279 -0.00014440805535 0.00045461548143 6.957561709e-05 
-0.00011112119682 0.00033548427746 0.00013771999511 -8.4549435996e-05 0.00028329814086 0.00014338626352 -5.9547859564e-05 0.000239166955 0.00014363019727 
-3.5341119656e-05 0.00020990330086 0.00013587127614 -1.058014368e-05 0.00018230960995 0.00012211457943 1.0708187801e-05 0.00015560608881 0.00010366681818 
2.7199363103e-05 0.00013129033323 8.4126775619e-05 4.1029128624e-05 0.00010979285435 6.5728272602e-05 5.4318436014e-05 0.00010217290401 6.813294749e-05 
6.0514899815e-05 9.9755474366e-05 8.3575636381e-05 6.1729988374e-05 9.6561794635e-05 0.00010677210958 5.7929737522e-05 9.0031557193e-05 0.00013734371169 
4.8697318562e-05 7.936158363e-05 0.00017354317242 3.6522906157e-05 5.7287750678e-05 0.00022376661946 3.2767515222e-05 9.2656282504e-06 0.00028622668469 
4.0580769564e-05 -5.6607317674e-05 0.00034085160587 5.7608045609e-05 -0.00014314123837 0.00037798762787 5.8702891693e-05 -0.00020011278684 0.00034035000135 
5.1458624512e-05 -0.0002203850454 0.00028906227089 4.5827135182e-05 -0.00022320916469 0.00024735956686 4.4856125896e-05 -0.0002415132476 0.00023199938005 
3.9752860175e-05 -0.00025618687505 0.000201298506 3.4913169657e-05 -0.00025738409022 0.00016434896679 1.4567748622e-05 -0.00020903922268 6.5999083745e-05 
2.8537177059e-05 -0.00024575271527 0.00012129895185 5.7688207562e-06 -0.00016707352188 2.4973054678e-05 3.2013144846e-06 -0.00012659805361 -3.2727887174e-06 
4.0861878006e-06 -9.8913398688e-05 -1.8944965632e-05 5.1507158787e-06 -7.3919632996e-05 -2.7075333492e-05 1.3496442989e-05 -4.940960207e-05 -2.002574729e-05 
3.2526782888e-05 -5.6030483393e-05 -6.3239156134e-07 5.5795855587e-05 -0.00010108679999 8.7396547315e-06 7.353779074e-05 -0.00017067349108 -1.2718172002e-05 
8.2886268501e-05 -0.00024223365472 -5.274938303e-05 8.5214363935e-05 -0.00030966347549 -0.00010590274906 8.1332073023e-05 -0.00037259270903 -0.00016271097411 
7.0906229666e-05 -0.00043094003922 -0.00022683902353 5.1822356909e-05 -0.00048109228374 -0.00029910705052 2.4985538403e-05 -0.00051432533655 -0.00037197396159 
-1.8428984276e-06 -0.00051250122488 -0.00044082538807 -2.5895096769e-05 -0.00047517969506 -0.00049153208965 -4.0035283746e-05 -0.00041529809823 -0.00051167450147 
-4.4809385145e-05 -0.00034231966129 -0.0005037165829 -4.6033357648e-05 -0.00026179655106 -0.00046985657536 -4.3717784138e-05 -0.00018553288828 -0.00041260090075 
-4.0488142986e-05 -0.00011936474039 -0.0003420781577 -3.6509027268e-05 -7.5433483289e-05 -0.00027542174212 -3.267343709e-05 -5.4729265685e-05 -0.00023366765527 
-2.8776961699e-05 -3.5109384044e-05 -0.00020782879437 -2.1700783691e-05 -1.5125857317e-05 -0.00016663360293 -1.7443868273e-05 -4.1472485464e-06 -0.00011963544239 
-1.85939316e-05 3.2119660318e-06 -7.4297400715e-05 -1.7128191757e-05 -1.5290008832e-06 -4.0477283619e-05 -2.4900295102e-05 -1.4227676957e-06 -4.1497361963e-05 
-9.3121925602e-06 -4.019308335e-07 -4.4523501856e-05 -0.00015701915254 0.00049071462126 1.0397292499e-05 -0.00015812680067 0.00049949227832 -4.3498039304e-05 
-4.9227319323e-06 8.2569400547e-05 9.6211362688e-05 -1.6834751477e-06 6.6753280407e-05 7.9288220149e-05 -1.187844191e-05 0.00011520174303 0.00011728766549 
-2.2755451937e-05 0.00016511943249 0.00014174335229 -3.9299135096e-05 0.00023346082889 0.00016235109069 -5.9808298829e-05 0.00031232403126 0.00017216747801 
-8.335433813e-05 0.00039389741141 0.00015702743258 -0.00010629997269 0.00045667457744 0.00011185759649 -0.00012209384295 0.00048549828352 5.2835999668e-05 
-0.00012980819156 0.00047808888485 -1.8083649138e-06 -0.00013014480646 0.00044941625674 -3.7612975575e-05 -0.0001279678836 0.0004261698341 -5.0382805057e-05 
-0.00013116988703 0.00042376804049 -6.2888284447e-05 -0.00013686572493 0.00042733346345 -9.3450471468e-05 -0.00014004444529 0.00041020894423 -0.00014402053785 
-0.00012766946747 0.00034102442442 -0.00017934665084 -0.00011444160191 0.00025247281883 -0.00019344310567 -0.00010360056331 0.00015965616331 -0.00018547794025 
-9.5818766567e-05 8.0899015302e-05 -0.00015369635366 -9.0419503977e-05 2.682498598e-05 -0.00011527391325 -8.6065971118e-05 7.6019414337e-06 -7.0626316301e-05 
-7.9794801422e-05 2.6527563932e-06 -4.5530417992e-05 -7.2901450039e-05 1.4597506492e-07 -4.0196748159e-05 -6.555076834e-05 -1.0390743228e-05 -4.6297369408e-05 
-5.8382589486e-05 -2.0145313101e-05 -5.8030549553e-05 -5.0546183047e-05 -2.4125029086e-05 -8.1370366388e-05 -4.0020677261e-05 -3.1796997064e-05 -0.00013061915524 
-3.0731211154e-05 -4.8981706641e-05 -0.00020641382434 -2.1328452931e-05 -9.7814379842e-05 -0.00029796143644 -6.4848372858e-06 -0.00017506704899 -0.00038867729018 
1.4361358808e-05 -0.00026520792744 -0.00046589202248 3.8977272197e-05 -0.00037349580089 -0.00051159289433 6.5733620431e-05 -0.00047693887609 -0.00051259098109 
8.6549021944e-05 -0.00054958136752 -0.00046072364785 9.8633950984e-05 -0.0005626816419 -0.00035522234975 9.475612751e-05 -0.00050112017198 -0.00021685876709 
7.7268472523e-05 -0.0003852363443 -8.6184103566e-05 5.3178180679e-05 -0.00025209406158 7.3073447311e-06 2.5914683647e-05 -0.00014613034728 4.7961664677e-05 
-9.8499613159e-06 -7.8480727097e-05 3.4298322134e-05 -3.0388577215e-05 -6.4854095399e-05 1.4134357116e-05 -3.0628729291e-05 -9.1860820248e-05 9.3358739832e-06 
-1.2927555872e-05 -0.00013631508045 3.1889128877e-05 1.3309906535e-05 -0.00018447822367 7.090386498e-05 4.2299147026e-05 -0.00023013280588 0.00011552643264 
6.8385495979e-05 -0.00026453699684 0.00017768878024 8.752062422e-05 -0.00028400731389 0.00024485672475 9.7023854323e-05 -0.00028441639734 0.00031276632217 
9.960233001e-05 -0.00026804915979 0.00036721481592 9.5148141554e-05 -0.00023489985324 0.0004051059077 8.4951832832e-05 -0.00018613415887 0.00042020116234 
6.8839886808e-05 -0.0001285692706 0.00040856492706 4.7517311032e-05 -7.1382833994e-05 0.00037207818241 2.3719008823e-05 -1.6295667592e-05 0.00031967568793 
6.1934792939e-07 3.08754461e-05 0.0002583588066 -1.7345151718e-05 6.0761900386e-05 0.00019191330648 -2.9808879844e-05 7.6484990132e-05 0.00012908074132 
-2.9573338907e-05 6.9014538894e-05 8.243026241e-05 -2.4262777515e-05 5.8686633565e-05 5.4219919548e-05 -1.4939882021e-05 4.9807978939e-05 4.6825090976e-05 
-5.5637306104e-06 4.9847029004e-05 5.1116341638e-05 1.5666608988e-06 6.0324229707e-05 6.2717175751e-05 -1.2936318399e-06 8.6961612396e-05 9.6657051472e-05 
4.8364763643e-06 7.8429824498e-05 8.1557918747e-05 -5.4153802012e-06 9.6770745586e-05 0.00010664343426 -1.4585314602e-05 -3.9175229176e-06 -4.5775454055e-05 
-3.1791922083e-05 8.1396274254e-06 -7.6195829024e-05 -6.234934699e-05 5.9739340941e-05 -0.00011685745267 -9.7496900707e-05 0.00013463257346 -0.00014623990864 
-0.00012618399342 0.00021484591707 -0.00015159169561 -0.00014601332077 0.00028334002127 -0.00014112617646 -0.00015557515144 0.00033402856207 -0.00012207463442 
-0.00015459414863 0.00036905045272 -0.00010045235103 -0.00015078308934 0.00039825937711 -8.7363710918e-05 -0.00014881926472 0.00043582261424 -8.2962440501e-05 
-0.00015003149747 0.0004825546057 -7.1089831181e-05 -0.00015879186685 0.00053740898147 -1.0166810398e-06 -0.00015212598373 0.00051998684648 -4.3262109102e-05 
-0.00015696855553 0.00052373117069 5.3889507399e-05 -0.00014506650041 0.00047710112995 0.00010762373131 -0.00012743526895 0.00041396907181 0.00014366213873 
-0.00010435204604 0.00034794717794 0.0001572817855 -8.0337034888e-05 0.00029218851705 0.00015992726549 -6.2940664066e-05 0.0002545294119 0.00015423024888 
-4.8198951845e-05 0.00023378270271 0.00015288408031 -2.6601803256e-05 0.00020503626729 0.00014163067681 -5.1654405979e-06 0.0001725954935 0.00012207170948 
1.1208778233e-05 0.00014309544349 9.9768622022e-05 2.286687959e-05 0.00011634370458 7.9969810031e-05 5.3454765293e-05 9.3500078947e-05 7.1176968049e-05 
4.998298391e-05 9.1172827524e-05 5.7948818721e-05 5.1683411584e-05 9.595976735e-05 9.4829323643e-05 4.6345950977e-05 9.2003800091e-05 0.00012899425928 
4.0298615204e-05 8.3313476352e-05 0.00016591900203 2.6007866836e-05 7.3653740401e-05 0.00020542991115 2.6472151148e-05 2.1493679014e-05 0.0002870928729 
3.6032033677e-05 -3.7128367694e-05 0.00034435768612 4.9004524044e-05 -9.2766000307e-05 0.00038440781645 5.5697135394e-05 -0.00024874164956 0.00028970444691 
6.5078347689e-05 -0.00023624226742 0.00035133154597 4.1291757952e-05 9.1902598797e-05 5.6652566855e-05 2.8893726267e-05 9.4790455478e-05 6.6365835664e-05 
6.8014815042e-05 -0.00019265680749 0.00039691996062 5.9514688473e-05 -0.00013475868036 0.00040889775846 4.8690264521e-05 -0.0002804530086 0.0002217933652 
5.4339496273e-05 -0.00027326031704 0.00026647467166 4.4593092753e-05 -0.00027070599026 0.00017904351989 2.2072354113e-05 -0.00022034424182 8.3583443484e-05 
3.9936723624e-05 -0.00025670701871 0.00014098153042 6.3378747654e-06 -0.00017920153914 3.2148440368e-05 -1.4970761413e-06 -0.00013842064072 -1.9452395463e-06 
-1.4118232912e-06 -9.9866287201e-05 -2.0776376914e-05 2.5772624213e-06 -6.7606211815e-05 -1.8528955479e-05 2.1170952095e-05 -5.946762758e-05 6.0551797105e-06 
5.5097742006e-05 -0.00011206978525 1.9681472622e-05 7.4154675531e-05 -0.0001834470022 -5.1237648222e-06 8.5421102995e-05 -0.00025887117954 -4.7220662964e-05 
8.909402095e-05 -0.00033173823613 -9.9804645288e-05 8.6483945779e-05 -0.00040303566493 -0.00016025481455 7.7331911598e-05 -0.0004731650406 -0.00023021645029 
5.9413832787e-05 -0.0005384052638 -0.00031253526686 3.4771710489e-05 -0.00058069801889 -0.00041141847032 7.5192861004e-06 -0.00057405018015 -0.00049634353491 
-1.809150308e-05 -0.00052242953097 -0.00055212312145 -3.5295575799e-05 -0.00044461089419 -0.00056707882322 -4.0210496081e-05 -0.00035588044557 -0.00054597074632 
-4.1426308599e-05 -0.00026215292746 -0.00049804156879 -3.8937116187e-05 -0.0001734069956 -0.00042636934086 -3.2076241041e-05 -8.9608016424e-05 -0.00032790348632 
-2.9628743505e-05 -5.1699244068e-05 -0.00025095793535 -2.1024481612e-05 -2.5775731046e-05 -0.00019790287479 -1.6932592189e-05 -8.7011840151e-06 -0.00013751107326 
-2.1487299819e-05 -2.4064213449e-06 -8.3958853793e-05 -3.1203704566e-05 -3.4728762444e-07 -4.5609558583e-05 -3.4084700019e-05 -7.2485754572e-06 -3.0767831049e-05 
-4.1887135012e-05 -4.5140782277e-06 -3.1711686461e-05 -2.3818060072e-05 -7.7443773989e-06 -3.6438501411e-05 -1.2109298041e-05 0.00012533091649 0.00012339449313 
-2.4683635274e-05 0.00017264627968 0.00014842089149 -4.552536484e-05 0.00024070660584 0.00017078382371 -6.9525107392e-05 0.00032016308978 0.00018461170839 
-9.5940864412e-05 0.00040607940173 0.00017239531735 -0.00011958636605 0.00047497972264 0.00012876774417 -0.000135602706 0.00051059463294 6.7383829446e-05 
-0.00014087567979 0.00050909706624 8.1005018728e-06 -0.0001389823592 0.0004803002812 -3.5889839637e-05 -0.0001374980493 0.00044973037438 -5.3657149692e-05 
-0.00014092063066 0.00043989814003 -6.3608000346e-05 -0.00014712123084 0.00043987497338 -8.6815314717e-05 -0.0001531328744 0.00042955370736 -0.00012010718638 
-0.00011604272731 0.00023116853845 -0.00020095526997 -0.00013063169899 0.00031345256139 -0.00019428311498 -0.00010320973524 0.00014094336075 -0.00018718243518 
-9.3907729024e-05 6.7123226472e-05 -0.00014943633869 -8.735582378e-05 1.7186237528e-05 -0.00010440909682 -8.1973077613e-05 5.3075341384e-06 -6.2026461819e-05 
-7.4194947956e-05 2.4769135507e-06 -4.1168019379e-05 -6.5499931225e-05 -1.1363378007e-06 -3.9456164814e-05 -5.5912332755e-05 -1.0926001778e-05 -4.8093948863e-05 
-4.6977704187e-05 -1.749157309e-05 -6.2552549934e-05 -3.818926416e-05 -1.7889138689e-05 -9.0214933152e-05 -2.4234339435e-05 -2.0524437787e-05 -0.00016352289822 
-1.806855289e-05 -5.786111069e-05 -0.00026086816797 -1.0935759747e-05 -0.00012245270773 -0.00035711834789 8.2052412154e-07 -0.0002049584582 -0.00044582158444 
1.7619202481e-05 -0.00029794158763 -0.00052138225874 3.7934209104e-05 -0.00041296027484 -0.00056427106028 6.1593287683e-05 -0.00051900779363 -0.00056621909607 
8.1366684753e-05 -0.00059941440122 -0.00051274889847 9.6213312645e-05 -0.00062076660106 -0.00039054348599 9.4955546956e-05 -0.00051941449055 -0.00021477085829 
7.998264482e-05 -0.00038608707837 -8.9729510364e-05 6.1471917434e-05 -0.00025390827795 -7.3973051258e-06 4.1171475459e-05 -0.00015367472952 3.6119818105e-05 
8.0838835856e-06 -8.5197432782e-05 3.2570944313e-05 -1.4879235096e-05 -6.2384591729e-05 1.737137427e-05 -2.22516137e-05 -8.2571066741e-05 7.0212900027e-06 
-1.1305392036e-05 -0.00012908663484 2.1904872483e-05 1.253724713e-05 -0.00018848206673 5.9838563175e-05 4.0688435547e-05 -0.0002394963376 0.00011876920325 
6.4504201873e-05 -0.00027471777867 0.00018503374304 8.1084988778e-05 -0.00029377129977 0.00025074035511 9.030977526e-05 -0.00029376329621 0.00031860152376 
9.3360504252e-05 -0.00027643190697 0.00037421268644 9.0191570052e-05 -0.00023951412004 0.00041440935456 8.035483188e-05 -0.00018729650765 0.00043052670662 
6.4338906668e-05 -0.00012744404376 0.00041845309897 4.2616800783e-05 -6.6251610406e-05 0.00037982803769 1.9738410629e-05 -1.3145372577e-05 0.00032202032162 
-2.658483254e-06 3.3613519918e-05 0.00025681447005 -1.7413902242e-05 5.9260120906e-05 0.00018815405201 -2.6964069548e-05 7.4320712883e-05 0.00012836666428 
-2.5838889997e-05 6.8359411671e-05 8.1799713371e-05 -2.1158244635e-05 6.1307968281e-05 5.4454631027e-05 -1.2929957848e-05 5.3620529798e-05 4.3323594582e-05 
-2.3315976705e-06 5.1355735195e-05 4.2891588237e-05 7.5447392192e-06 5.6821969338e-05 5.0496131735e-05 1.2656860235e-05 7.1079150075e-05 6.5809195803e-05 
3.6398313341e-07 0.00010810457024 0.00010679993284 1.0700890016e-05 9.2278489319e-05 8.7191256171e-05 -8.0303707364e-06 0.00012025553588 0.000117909869 
-0.00014504102001 0.00037532285205 -0.00017241557362 -0.00015608494869 0.00040096312296 -0.00014888359874 -3.8337120714e-06 -9.9160904938e-05 -1.1571957657e-05 
1.7358795503e-06 -7.042773359e-05 -5.059290288e-06 7.6989468653e-05 -0.00019944262749 -1.2992281881e-06 5.8038742281e-05 -0.00013254622172 2.0995124942e-05 
8.7911197625e-05 -0.00027262524236 -4.0047303628e-05 9.2795191449e-05 -0.00034874604899 -9.0517452918e-05 9.0872461442e-05 -0.00042485116865 -0.00015350077592 
8.4151623014e-05 -0.00050142389955 -0.00022456597071 7.1842878242e-05 -0.00057699851459 -0.00031670296448 5.2712508477e-05 -0.000636573066 -0.00044873758452 
2.1883035515e-05 -0.00061415747041 -0.00054676050786 -4.0395557335e-06 -0.00055032479577 -0.00059719011188 -2.2882079065e-05 -0.00046120668412 -0.00060691090766 
-3.0282904845e-05 -0.00035797277815 -0.00057531858329 -3.2881642255e-05 -0.00025446980726 -0.00051426305436 -3.1236966606e-05 -0.00016935743042 -0.00043693927 
-2.6324529244e-05 -0.00010311169899 -0.00035611525527 -2.0556850359e-05 -3.7338180846e-05 -0.00024017547548 -2.0096491426e-05 -5.4239080782e-05 -0.00028077838942 
-3.8682046579e-05 1.3803932575e-07 -6.6776847234e-05 -6.454186223e-05 4.5055719966e-05 -0.000119887045 -9.7351614386e-05 0.00012473865354 -0.00016207782028 
-0.00012737474754 0.00021779962117 -0.00017445796402 -0.00014781323262 0.00029671227094 -0.00016451142437 -0.00015940076264 0.00036768638529 -0.00014025239216 
-0.00015821760462 0.00039326303522 -0.00010771158122 -0.00015346944565 0.00041398309986 -8.9879315055e-05 -0.00014815725444 0.00043608422857 -7.8396653407e-05 
-0.00014503113925 0.00046239927178 -7.3189643444e-05 -0.00014542046119 0.00049010489602 -6.0175043473e-05 -0.00015200243797 0.00054005626589 -2.2165581868e-06 
-0.0001449349802 0.00050620984985 -3.7261361285e-05 -0.0001565762941 0.00054817780619 4.2470222979e-05 -0.00015181805065 0.00052448699716 9.5226496342e-05 
-0.00013730565843 0.00047072579036 0.0001416557061 -0.0001152017503 0.00040172829176 0.00016851378314 -8.8753578893e-05 0.00033424483263 0.00017230927187 
-6.6420878284e-05 0.00027529653744 0.00016592886823 -4.5328397391e-05 0.0002444475831 0.00015849270858 -2.3975544536e-05 0.00020283195772 0.00014445601846 
-6.275040505e-06 0.0001648239413 0.00012183452054 6.8243639362e-06 0.00013185356511 0.00010214446229 1.5661997168e-05 0.00010425709479 8.5440144176e-05 
3.1133746234e-05 7.7411750681e-05 5.3704246966e-05 2.094370393e-05 8.1905614934e-05 6.824763841e-05 3.9153121179e-05 8.0356039689e-05 4.7741592425e-05 
4.4076830818e-05 8.3830949734e-05 5.0786242355e-05 4.4198077376e-05 8.8842331024e-05 6.5119696956e-05 3.8940965169e-05 9.5109717222e-05 9.369651525e-05 
3.2373234717e-05 8.9490393293e-05 0.00013862269407 6.4757703512e-05 -0.0002927162277 0.00027679011691 7.0433867222e-05 -0.00027425779263 0.00034345977474 
5.9305835748e-05 -0.00028742259019 0.00022232935589 9.3454264061e-06 -0.00018545462808 4.6267647122e-05 3.7943598727e-05 -0.00024629081599 0.00012090673408 
-3.3180538139e-06 -0.0001365984208 5.7741026467e-06 -2.2362934033e-05 0.00016894232249 0.00014602280862 -4.5401593525e-05 0.00023641147709 0.00017288519302 
-7.2423143138e-05 0.00031592097366 0.00019214097119 -0.00010219082469 0.00040521536721 0.00018371724582 -0.00012731274182 0.00047939104843 0.00014288698731 
-0.00014357651526 0.00052161252825 8.3985207311e-05 -0.00014850514708 0.00053023220971 2.2113332307e-05 -0.00014080114488 0.00046310227481 -6.1066639319e-05 
-0.00014389939315 0.00044629722834 -6.6386070102e-05 -0.00015028545749 0.00043993932195 -8.0481688201e-05 -0.00015646133397 0.00042915402446 -0.00010386525537 
-0.0001151531178 0.00019584260008 -0.0002008053998 -0.00013020946062 0.00027212986606 -0.00020119169494 -0.00010087806731 0.00011766266834 -0.0001811011316 
-8.9668967121e-05 5.233675256e-05 -0.00014194642426 -8.1433048763e-05 1.2757962395e-05 -9.3391528935e-05 -7.5002950325e-05 3.2558543808e-06 -5.5059768783e-05 
-6.6983920988e-05 5.0146871899e-07 -3.7984100345e-05 -5.7378783822e-05 -2.2347037429e-06 -3.7713300117e-05 -4.6741875849e-05 -9.0332414402e-06 -4.9472433602e-05 
-3.6720623029e-05 -1.3009088434e-05 -7.0064153988e-05 -3.0996918213e-05 -1.386023996e-05 -9.5199204225e-05 -2.171117012e-05 -1.2971997421e-05 -0.00013541869703 
-6.7672694968e-06 -0.00016129344294 -0.00041594868526 -1.257058193e-05 -9.1869980679e-05 -0.0003310641041 3.0713092656e-06 -0.00024592701811 -0.00049792852951 
1.6528254491e-05 -0.00033548392821 -0.00056307547493 3.2763782656e-05 -0.00044243287994 -0.00060093606589 5.2089308156e-05 -0.00054414739134 -0.00060104380827 
6.9943846029e-05 -0.00061993749114 -0.00056052667787 8.3527011157e-05 -0.00065353122773 -0.0004834246065 8.4812585555e-05 -0.0003759660467 -8.4069812146e-05 
9.2895970738e-05 -0.00049777445383 -0.00018577622541 7.0991583925e-05 -0.00025709258625 -1.6635553038e-05 5.3185176512e-05 -0.00016204282292 2.5067103707e-05 
2.2928712497e-05 -9.4362207165e-05 2.9342418202e-05 -6.7297384021e-07 -6.5572952735e-05 1.9734055968e-05 -1.3279964151e-05 -7.4195122579e-05 6.8832828219e-06 
-1.1502630514e-05 -0.00011560336134 6.8809072218e-06 -1.6181595129e-05 -4.6595218009e-05 -0.00025264418218 -1.7204385586e-05 -2.3429931389e-05 -0.0002016901708 
3.4388947824e-05 -8.3362378064e-05 2.2767202609e-05 1.3797113752e-05 -6.585670053e-05 1.1707424164e-05 9.6550502349e-05 -0.00059972400777 -0.00029927340802 
8.8556465926e-05 -0.00065118336352 -0.00039805957931 5.8542569604e-05 -0.00027744550607 0.00018480485596 7.1404036134e-05 -0.00029479994555 0.00024319635122 
7.9841775005e-05 -0.00029571156483 0.00030807367875 8.330901619e-05 -0.00027700283681 0.00036825941061 8.2459257101e-05 -0.0002367648267 0.00041372384294 
7.2388276749e-05 -0.00018009732594 0.00043076640577 5.6531927839e-05 -0.00011875930068 0.00041688641068 3.5767163354e-05 -5.6041524658e-05 0.00037501982297 
1.4866992387e-05 -4.2073693294e-06 0.00031315162778 -3.6285487113e-06 3.6605655623e-05 0.00024382260744 -1.4518267562e-05 5.8898454881e-05 0.00017514928186 
-1.9843053451e-05 6.9445479312e-05 0.0001172322518 -1.7221500457e-05 6.5228668973e-05 7.5172785728e-05 -1.2934136976e-05 6.0177328123e-05 5.1399241784e-05 
-8.6318786998e-06 5.5981374317e-05 4.2997115088e-05 5.9756854398e-07 5.5371110648e-05 3.8647751353e-05 1.2613863873e-05 5.802657688e-05 4.0235689085e-05 
2.0516747099e-05 6.5818130679e-05 5.198726285e-05 1.9086126031e-06 0.00012257239723 0.00010888102406 2.3422317099e-05 2.0087127268e-05 0.00029207990156 
1.7070116883e-05 6.1711369199e-05 0.00022329267813 3.2086591091e-05 -1.9767583581e-05 0.00033520007855 3.7862373574e-05 -4.5769262215e-05 0.00036164047197 
4.4201628043e-05 -7.3853509093e-05 0.00038617840619 6.5125554102e-05 -0.00016293245426 0.00042296337779 4.9274876801e-05 -9.8789554613e-05 0.0004048566625 
7.4369556387e-05 -0.00022363534663 0.00040646278649 -8.2969054347e-05 4.2502575525e-05 -0.00012908887584 -9.5501171018e-05 9.6641488199e-05 -0.00016771955416 
-7.3678042099e-05 1.0107871276e-05 -8.4523373516e-05 -6.7032990046e-05 5.4637820313e-07 -5.2157600294e-05 -5.8578178141e-05 -2.5036258648e-06 -3.6234494473e-05 
-4.9072627007e-05 -3.1230656532e-06 -3.4932221752e-05 -3.7730391341e-05 -4.2884462346e-06 -4.9675567425e-05 -2.4552238756e-05 -7.9022256614e-06 -9.1708927357e-05 
-1.7098629542e-05 -1.6613757907e-05 -0.00016287610924 3.0092067391e-05 -3.9723432565e-05 0.00035951833706 1.2710542251e-05 7.5154398473e-06 0.00029425372486 
-1.3483711427e-06 4.3019521399e-05 0.00022260587139 -7.0882965701e-06 5.9780413721e-05 0.0001553970651 -8.8315173343e-06 6.8089364504e-05 0.00010026625387 
-4.3070481297e-06 6.3890816818e-05 6.3068830059e-05 -6.5892589873e-07 5.9967729612e-05 4.3085015932e-05 1.6367941498e-05 6.2563114625e-05 3.6786317651e-05 
2.6822837754e-05 6.7565590143e-05 4.2065064918e-05 3.2458734495e-05 7.275569078e-05 4.1889867134e-05 3.4688608139e-05 7.7485630754e-05 4.8085232265e-05 
3.1755174859e-05 8.4272774984e-05 6.5446336521e-05 2.5271050617e-05 8.8767897978e-05 0.00010065293463 1.9875438738e-05 8.1859507191e-05 0.00015294234618 
-1.5188352336e-05 0.0001575849019 0.00013451756968 -4.1616171075e-05 0.00022897736926 0.00016706759925 -7.1427661169e-05 0.00031053894782 0.00019093320589 
-0.00010533961904 0.0004058155173 0.00018590787658 -0.00013109770953 0.00047978543444 0.00014862205717 -0.00014552750508 0.00052166281966 0.00010069838027 
-0.00015152063861 0.00054124498274 4.9909358495e-05 -6.7703585955e-05 0.00029630705831 0.00017678458244 -4.5102013246e-05 0.00024715761538 0.00016455963487 
-2.3250666345e-05 0.0001935702312 0.00014634680701 -8.0063109635e-06 0.00015472507221 0.00012360433175 -0.0001506756671 0.00053617655067 8.4345854702e-05 
-0.00014255856513 0.00050622946583 0.00012634704763 -0.0001234740339 0.00044697895646 0.00016407725343 -9.4797556812e-05 0.00036700940109 0.00018307719438 
2.4771296012e-05 6.8360110163e-05 4.1642251745e-05 2.2633263143e-05 7.2128677857e-05 4.9362493883e-05 1.756983329e-05 7.8394303273e-05 7.2205206379e-05 
1.2831603271e-05 7.8191915236e-05 0.00011477856606 1.0292148545e-05 6.8792753154e-05 0.00017343412037 1.4208674656e-05 4.3569019908e-05 0.00024484161986 
2.5488860047e-05 1.1971451386e-06 0.0003122590133 2.6781541237e-05 -1.8152200937e-05 0.000337314239 -0.00014272144472 0.00046690666932 -6.4841624408e-05 
-0.00014436732454 0.00045135975233 -6.9609668572e-05 -0.00014931157057 0.0004378632002 -7.8377095633e-05 -0.00015487438941 0.00042468419997 -9.3447815743e-05 
-0.00014353674487 0.00032908332651 -0.00018724691472 -0.00015356510994 0.00035666552139 -0.00016678513202 -4.9104040954e-05 -5.0473327065e-06 -5.507997048e-05 
-6.9169946073e-05 3.4612337913e-05 -0.00011919019744 -9.8604788946e-05 0.00012032019004 -0.00017235055566 -0.00012524127669 0.00022118374181 -0.00018793463823 
-0.00014348594414 0.00029634256498 -0.00018125677889 -0.00011059054668 0.00016106183466 -0.00019327309565 -0.00015791488113 0.00040996316238 -0.00010907441902 
-1.8035581888e-05 -8.426624845e-05 -0.00032287434442 -1.5130430256e-05 -0.00013343441242 -0.00039148831274 -1.0522788216e-05 -0.00020491471514 -0.0004714394745 
-6.9585729534e-07 -0.00029060823726 -0.00054441555403 1.1119865121e-05 -0.0003703001712 -0.00059316970874 2.4519897124e-05 -0.00046377955005 -0.00062260014238 
4.0418522985e-05 -0.00055648543639 -0.00062170886667 5.6291275541e-05 -0.00062447553501 -0.00058777601225 6.832730287e-05 -0.00065958494088 -0.00052950636018 
7.2684837505e-05 -0.00066585524473 -0.00046367073082 8.8617591246e-05 -0.00062080961652 -0.0003240230144 7.7047217928e-05 -0.00064145802753 -0.00038230634527 
9.3444265076e-05 -0.00056213978678 -0.00024370673054 9.2210284492e-05 -0.0004705855099 -0.0001614564826 8.9024390036e-05 -0.00036636600271 -8.2248414401e-05 
7.9221921624e-05 -0.00026613866794 -2.7094680263e-05 6.428505003e-05 -0.00017351878341 1.5853163859e-05 3.5985736758e-05 -0.00010131867748 2.8718373869e-05 
1.2738096302e-05 -6.9956717198e-05 2.0913614208e-05 -1.4774014971e-06 -6.7474422394e-05 8.6228055807e-06 -6.8848980845e-06 -9.0990542958e-05 -2.6233612971e-06 
2.1852853024e-05 -7.5727693911e-05 2.1663381631e-05 4.0073358832e-05 -9.9493307061e-05 2.6648733183e-05 6.1661674408e-05 -0.00015178820468 1.9202665499e-05 
7.9083671153e-05 -0.00021432930953 -4.0461273443e-07 8.8532156951e-05 -0.00028280113474 -3.8495523768e-05 9.4579983852e-05 -0.00035964141716 -8.3707636804e-05 
9.3657341495e-05 -0.00043902418111 -0.00014649151126 8.9435423433e-05 -0.00051719375188 -0.00021525649936 3.2800100598e-05 -0.00062509771669 -0.00058190588607 
5.3194075008e-05 -0.00065636675572 -0.00052026018966 1.2908170902e-05 -0.00056174676865 -0.00062139378861 -3.961276434e-06 -0.00046978081809 -0.00062590482412 
-1.1721803276e-05 -0.0003542136983 -0.00058670953149 -2.0926885554e-05 -0.00023957829399 -0.00050917395856 -2.2192838514e-05 -0.00016346435586 -0.00043024678598 
-2.2398120564e-05 -0.00011366309627 -0.00037099479232 -5.2098297601e-05 -6.0844849941e-06 -3.8380640035e-05 4.9506734285e-06 -0.00039851327892 -0.0006098379381 
1.4092624042e-05 -0.00047766705393 -0.00063169165514 2.7997140933e-05 -0.00056156254141 -0.0006281157257 4.3010906666e-05 -0.00062260753475 -0.00059616123326 
5.4746942624e-05 -0.00065098312916 -0.00055251771118 9.2782560387e-05 -0.0003648197744 -8.4187166067e-05 9.3524358817e-05 -0.00045093422523 -0.00014773321163 
8.6242092948e-05 -0.00028417704743 -3.7743386201e-05 7.8267308709e-05 -0.00022474322759 -5.6688982113e-06 -0.0001439886546 0.00051687058294 0.00011253704724 
-0.00013355372357 0.00048439137754 0.00014607861522 -3.7446949136e-05 0.00022373322281 0.00016163283726 -7.0273505116e-05 0.00030916268588 0.00018685347459 
-1.970768426e-05 0.00017663062317 0.00014220949379 1.2112921468e-05 2.5572378945e-05 0.0002699130564 3.0743922252e-06 5.5214055465e-05 0.00019772378437 
2.0712968762e-06 6.7258093623e-05 0.00013368876535 4.3863751671e-06 7.1003305493e-05 8.3789156633e-05 9.7831361927e-06 6.7389351898e-05 5.1951141359e-05 
8.3318758698e-05 -0.00058802589774 -0.00029292638646 8.855118358e-05 -0.00058296904899 -0.00027418482932 9.1524270829e-05 -0.0005297564785 -0.00021638613543 
-0.00013852096163 0.00028909760294 -0.00019160096417 -0.00012641429203 0.00023596573737 -0.000198299982 -8.8583772595e-05 8.1393016444e-05 -0.00015334351338 
-7.5828756962e-05 3.5633151128e-05 -0.00012004331074 -6.4617124735e-05 6.276287877e-06 -7.7018710726e-05 -6.0338647017e-05 -8.074315474e-07 -5.2541967307e-05 
-0.00011027122673 0.00041727453936 0.00017983822909 5.3104162362e-05 -0.00027567020152 0.0001841072808 -0.00015922093007 0.00040704329149 -0.00012662273366 

