# vtk DataFile Version 5.1
vtk output
ASCII
DATASET POLYDATA
POINTS 1116 double
52.981952374 75.224627905 44.021810855 52.762770133 74.803224387 45.426238787 54.126585875 75.145531872 45.319304651 
54.216215249 75.496217783 43.827675833 52.514343937 74.241474147 46.81085609 53.99477933 74.695014409 46.761737461 
52.512567501 73.51821966 48.147282066 53.996705747 74.028912678 48.104230022 52.671361103 72.774195605 49.452631681 
54.142807179 73.289148899 49.389660363 52.986175385 72.009990437 50.727785407 54.449245839 72.524419569 50.633412891 
53.508182778 71.128340809 51.848985592 54.910739397 71.682108914 51.778672212 54.083627732 70.240726585 52.938359959 
55.449327254 70.808122609 52.873502176 54.712482438 69.350104612 53.996881974 56.032585118 69.859072147 53.898189741 
55.359551364 68.111388171 54.591362428 56.627921992 68.643100916 54.463234237 55.833333608 66.746358937 54.979930661 
57.126353821 67.293019123 54.807381318 56.173416613 65.283387911 55.207598694 57.551685824 65.874871899 55.026262947 
56.6374309 63.866423386 55.500919119 58.020691707 64.478670546 55.322351474 57.150717018 62.449004321 55.620221885 
58.551143396 63.103050087 55.544892759 57.718450106 61.043354858 55.633725571 59.183891206 61.760161777 55.725424257 
58.584484292 59.811266214 55.836400085 59.961269776 60.479221349 55.791482413 59.446778566 58.574560434 55.929540707 
60.772018224 59.213963712 55.807792249 60.300536009 57.327315448 55.772656131 61.57312748 57.945945205 55.645767805 
61.033635859 56.07595518 55.400822289 62.301068128 56.66937285 55.270517079 61.632662288 54.820022055 54.79013913 
62.883290089 55.43304687 54.598953034 62.007686075 53.626637547 53.951167576 63.324971926 54.216202335 53.747005441 
62.292182872 52.458303694 53.022727279 63.683857234 53.01635215 52.815391988 62.399306677 51.331754946 52.008554214 
63.909450981 51.829085142 51.68891711 62.421762814 50.258970814 50.946482895 63.816941767 50.631280487 50.539377826 
62.240189569 49.315746899 49.768987927 63.609556416 49.638853897 49.339720118 62.020413574 48.565402224 48.479553307 
63.35729763 48.910393805 48.061688648 61.771071691 47.954186561 47.112293482 63.061155526 48.309107094 46.708764725 
61.283540141 47.817048025 45.679589532 62.634422706 48.177663867 45.301183616 60.793849724 47.874824951 44.256652183 
62.159084029 48.263698398 43.894755885 60.301821519 48.143671229 42.844290855 61.658448769 48.52932662 42.508583803 
59.773116973 48.456820498 41.454531674 61.125583322 48.897127249 41.155462034 59.197815358 48.809774327 40.094657079 
60.578264275 49.299048773 39.817121255 58.583519461 49.212659591 38.766607249 60.040973924 49.748756823 38.496918891 
58.141963396 49.983221528 37.533563398 59.533816877 50.428996396 37.259552066 57.589090183 50.862914529 36.44353117 
59.004059631 51.236438977 36.108754698 56.93433884 51.844563224 35.486271412 58.468097473 52.21030512 35.104351883 
56.506731893 53.001265701 34.598394014 58.010792414 53.315309764 34.181497663 56.120336964 54.207670214 33.764382244 
57.601184764 54.485164704 33.30836356 55.785505384 55.47626055 32.997765673 57.229319688 55.729765395 32.524820399 
55.467232998 56.818326306 32.362597263 56.875162776 57.053651638 31.845804364 55.1720488 58.206683296 31.837853672 
56.52901112 58.42332331 31.261320376 54.915957978 59.662644458 31.486102081 56.181077153 59.855209724 30.818944162 
54.51618653 61.112928841 31.286389922 55.801813554 61.33925417 30.510327698 54.128147418 62.573406367 31.133993538 
55.432423082 62.845933938 30.276930275 53.781157666 64.048076664 31.015333428 55.070665565 64.47402344 30.178635688 
53.489726109 65.509035586 31.310653616 54.630228402 66.051211914 30.554649407 53.244571362 66.889218617 31.854071249 
54.313548635 67.447821176 31.189976609 53.028695308 68.167629068 32.630377683 54.080364163 68.736592425 32.041406016 
52.793839347 69.230167362 33.691032974 53.974627534 69.826107556 33.135925902 52.628981507 70.215593292 34.831712796 
53.897947529 70.824755635 34.303299021 52.50365448 71.157470703 36.017585754 53.850038702 71.77045205 35.528959802 
52.476456651 72.046785514 37.249459953 53.834679999 72.657055641 36.794077815 52.481348467 72.885247774 38.513693664 
53.84073048 73.509258828 38.08502092 52.539952801 73.638591652 39.832091605 53.89741577 74.282048199 39.427356976 
52.632335566 74.366539546 41.162631786 54.012726829 74.913053501 40.838066999 52.769112914 74.942384948 42.543916111 
54.144877878 75.340895073 42.328652645 84.390699466 55.635742141 42.826813071 84.662955148 56.050373095 44.271560537 
83.435777221 55.499145261 44.495189969 83.334886019 55.09038866 43.023845258 84.868621153 56.621290199 45.676183056 
83.532803284 56.097018593 45.910565296 84.909569379 57.359364797 47.030391546 83.600515434 56.809059511 47.274324384 
84.959909948 58.340440904 48.210910729 83.579827776 57.796052054 48.481610382 84.996879342 59.385693332 49.343093132 
83.513799194 58.8563019 49.618263358 84.805285386 60.508216654 50.384027641 83.326642004 60.015268719 50.629737375 
84.595512377 61.655137928 51.390522163 83.102447413 61.198521793 51.613378421 84.318190159 62.892716428 52.269045554 
82.805449712 62.474415391 52.433690498 83.981537438 64.166405941 53.042319158 82.47593572 63.772421682 53.220020011 
83.470495541 65.546235967 53.506233788 82.066990175 65.187728245 53.68463401 83.015481097 66.959090449 53.892074198 
81.683184271 66.62714138 54.083955779 82.713718692 68.462276814 54.064357995 81.350444069 68.110317779 54.359204784 
82.401092161 69.965544665 54.211690973 81.025971745 69.607205066 54.587125061 82.072990247 71.468928589 54.323482808 
80.674763085 71.114191695 54.74911182 81.663064163 72.952886447 54.324716012 80.267164754 72.619037211 54.778256241 
81.210140613 74.426636177 54.267852188 79.824739403 74.121663502 54.736737588 80.660787589 75.749826462 53.707399717 
79.263166397 75.530630041 54.281545548 80.145024548 77.000435112 53.004329388 78.750346472 76.89048154 53.571389164 
79.737077797 78.066288231 51.966134761 78.264031248 77.918475627 52.452826279 79.361106224 78.965978612 50.784722259 
77.868059792 78.842531551 51.207749291 79.007112521 79.751458431 49.504870152 77.503129347 79.676774279 49.91270093 
78.552418624 80.265157166 48.124462709 77.100682094 80.116582678 48.439508674 78.181440485 80.723918322 46.705573806 
76.761786533 80.517652805 46.958960366 77.965745382 81.107041725 45.226721689 76.479109596 80.878929292 45.469338059 
77.734878593 81.08323319 43.711779904 76.236443063 80.964458535 43.928938836 77.522270531 81.02564436 42.186186484 
76.000307904 80.871230925 42.390301634 77.349988167 81.049564131 40.653196551 75.797207944 80.793273152 40.843167851 
77.152244147 80.875711743 39.134151151 75.609197538 80.686058999 39.3027537 77.007456631 80.644529032 37.617583589 
75.448814397 80.439358966 37.774542558 76.932943374 80.36230075 36.102622707 75.352518658 80.047311483 36.270779296 
76.999785394 79.623541677 34.756366962 75.370490582 79.314466735 34.911289187 77.090673427 78.720228779 33.523576434 
75.451898688 78.438592778 33.632473822 77.199927065 77.646156926 32.421421817 75.572775726 77.426990058 32.44993195 
77.289506354 76.630085488 31.263961581 75.690658267 76.496575006 31.214518262 77.361954112 75.760289773 30.002225299 
75.807103061 75.646937651 29.920897873 77.420532227 75.011230469 28.654712677 75.928038021 74.878104084 28.591636578 
77.453910838 74.11694741 27.397948903 76.044646753 73.909732489 27.414988706 77.586937015 73.06217537 26.330841282 
76.210010863 72.785116987 26.416834691 77.874815069 71.758004161 25.558458484 76.459871163 71.476491995 25.739649553 
78.286393704 70.304763007 25.287217039 76.809688948 70.00288725 25.497919405 78.727015997 68.837692378 25.113183631 
77.19656104 68.51864839 25.364281724 79.186193588 67.369161069 25.003145869 77.585061383 67.033574537 25.299955212 
79.554040535 65.871551243 25.049674751 77.95955387 65.543512684 25.349107507 79.922097257 64.415559882 25.329236936 
78.364346535 64.083853321 25.647380529 80.294469376 63.006097901 25.823457681 78.789912554 62.715919724 26.181226942 
80.746662793 61.823859456 26.705582886 79.257856019 61.488528477 27.003201031 81.166299825 60.783062194 27.744839513 
79.730120299 60.362476993 27.964027203 81.556833376 59.86870498 28.924562333 80.189099528 59.404352744 29.086888339 
82.122525142 58.996316478 30.063322502 80.699914275 58.50412387 30.243509047 82.673410577 58.203376381 31.256471407 
81.216017179 57.651254167 31.441225422 83.156243841 57.599696545 32.591669594 81.679660234 56.994314283 32.77245174 
83.536928908 57.070268679 33.984844937 82.093547425 56.395685766 34.150793535 83.842710174 56.595288713 35.420534093 
82.396956315 55.922618603 35.594815221 83.961913674 56.133062732 36.885632355 82.670795653 55.431699345 37.035067579 
84.102300859 55.737977446 38.354829457 82.989182872 55.007318462 38.472348988 84.587597824 55.773487743 39.818911892 
83.266727843 54.926017813 39.981607892 84.661025218 55.735349207 41.311123815 83.365598595 54.951911066 41.505711434 
55.367730718 75.218356885 46.775716134 55.493581175 75.617121501 45.288481681 55.325697081 74.650420654 48.153914273 
55.458592359 73.931127489 49.440061883 55.766551086 73.160836868 50.666198578 56.217044857 72.339332759 51.812675581 
56.768841902 71.447947623 52.875412448 57.369928739 70.453295723 53.839137228 57.96548922 69.228426486 54.385701518 
58.467845236 67.902234275 54.80484511 58.89823789 66.525907001 55.187411642 59.366315698 65.141275089 55.514913364 
59.89644595 63.763814948 55.750554923 60.525943869 62.426108067 55.9588775 61.283642339 61.123501372 55.994839256 
62.084683437 59.827416275 55.997308931 62.891792124 58.577208246 55.669973756 63.634655188 57.287066936 55.260550885 
64.208444239 56.059643643 54.524314387 64.682546564 54.831766035 53.71506809 65.182741662 53.571723755 52.795689401 
65.849959663 52.11124004 51.573985623 65.342756879 50.732369468 50.203658786 65.026314628 49.704099429 48.994881456 
64.744237734 48.970595132 47.691754763 64.431624655 48.436499579 46.325287427 64.018250543 48.371023862 44.921743976 
63.538285997 48.558238567 43.532511296 63.022310768 48.897401745 42.176412597 62.492238352 49.295966963 40.840439044 
61.961566736 49.717957894 39.512507301 61.449820088 50.168077593 38.187243004 60.945879229 50.808839182 36.932241063 
60.443333558 51.552975355 35.727573041 59.941052095 52.496217353 34.67634742 59.484256238 53.58447341 33.728828513 
59.06503436 54.745713861 32.845802196 58.661053189 55.957235799 31.994874655 58.260155366 57.229232694 31.222967726 
57.86593836 58.572140837 30.569264303 57.466321852 59.984992754 30.055287608 57.041938374 61.419315171 29.615388021 
56.658821728 62.980000667 29.201454258 56.428516591 64.973045772 28.826481501 55.619463385 66.760445366 29.539798693 
55.186502655 68.228709474 30.318680562 54.944422865 69.531306042 31.241527904 54.900304328 70.657897734 32.361566209 
54.897132992 71.682646525 33.574750237 54.908552976 72.641018508 34.839805542 55.001519191 73.487847102 36.190971087 
55.095655116 74.283595551 37.581348361 55.281166455 74.900489062 39.042338249 55.487290616 75.389406375 40.56191743 
55.604342213 75.702399885 42.162728104 55.625272234 75.768837353 43.743420213 82.224130926 55.508666279 46.17459132 
82.194997787 54.866355403 44.746509241 82.262611763 56.259733473 47.542587751 82.209137834 57.237145427 48.770173188 
82.075373183 58.336800676 49.877728434 81.864515283 59.514486012 50.885584579 81.617239717 60.735059215 51.835596433 
81.308201177 62.051768309 52.613481457 80.986663142 63.400918541 53.333019256 80.64332652 64.820328564 53.868065338 
80.321294784 66.251931795 54.388474629 80.022105338 67.727438825 54.80226441 79.739814022 69.216319309 55.207468553 
79.397111513 70.747317592 55.445352432 79.023486197 72.302314402 55.608285682 78.579404127 73.875804973 55.591875994 
77.969185079 75.377469572 55.137485801 77.286120673 76.866585935 54.336513261 76.77188689 77.945467613 53.025185813 
76.362994064 78.876018901 51.695409013 75.985168956 79.705224165 50.291590511 75.612490695 80.122958803 48.774493035 
75.278455628 80.482700485 47.248141812 74.985157691 80.735801855 45.709079355 74.719984893 80.870105277 44.149929835 
74.467670663 80.923464475 42.579752522 74.240817553 80.862827923 41.013153718 74.025557531 80.691385106 39.450000589 
73.843053868 80.354809116 37.903368436 73.719510659 79.862674505 36.391879736 73.696755962 79.160531087 34.970323071 
73.79032028 78.269634109 33.650847134 73.944527088 77.310357065 32.39125856 74.111563327 76.445843955 31.087557451 
74.274710173 75.676941701 29.726334174 74.444054865 74.921837375 28.380359421 74.604659104 73.855512175 27.251613341 
74.792860195 72.614238614 26.329879532 75.014416647 71.211456484 25.815736386 75.312613635 69.716820519 25.613570805 
75.652030432 68.216424464 25.54623609 76.001472335 66.710518569 25.525959682 76.381205427 65.216994763 25.626933878 
76.811962141 63.747576322 25.913254796 77.276187368 62.398514258 26.485911529 77.772054465 61.157826556 27.291498334 
78.26971995 60.004452265 28.225133083 78.759112088 58.994619109 29.304850701 79.252813747 58.065987347 30.467105611 
79.7459275 57.175525116 31.670871141 80.203565902 56.437352474 32.983681579 80.642914853 55.763374267 34.337097974 
81.049534027 55.145927753 35.726240947 81.452188729 54.557267369 37.128365738 81.885441327 54.023555718 38.529075636 
82.148759251 53.923971471 40.119176256 82.226578186 54.041141478 41.723741783 82.186340431 54.379263257 43.256316764 
56.610220719 75.171552422 48.236071972 56.740849135 75.576650033 46.81903504 56.712520372 74.502216946 49.495131023 
57.007517237 73.795574699 50.724284577 57.481527583 73.005355914 51.847113961 58.07519985 72.116712804 52.877438831 
58.713548695 71.121353051 53.819447302 59.28719374 69.897258381 54.479464575 59.76862923 68.597874589 55.122275224 
60.138582175 67.215324847 55.670123702 60.593324008 65.800754225 56.001193687 61.124137215 64.407471516 56.22751239 
61.784208912 63.065480214 56.331277964 62.562466374 61.765887701 56.347303447 63.392272467 60.482881422 56.222647143 
64.245389523 59.224460057 55.827128743 64.99077591 57.925152531 55.331765896 65.59397033 56.636946583 54.690919964 
66.052985936 55.340274844 53.986198113 66.584364554 54.128907046 53.253750025 67.401554624 52.973847842 52.503285999 
66.414076607 49.510898477 48.640802019 66.78142806 50.34986001 49.799913514 66.153730048 48.895685034 47.357072335 
65.854758382 48.463335984 45.953444789 65.437928835 48.414381201 44.538491508 64.942302893 48.655161077 43.138981311 
64.415119734 49.012876911 41.776988434 63.878965378 49.48176578 40.457041907 63.35253414 49.964524752 39.143673651 
62.849951923 50.493684394 37.843446056 62.363971465 51.149124442 36.589452688 61.879242106 51.868870965 35.357018972 
61.398435025 52.761634689 34.244452697 60.935743377 53.798218406 33.22937733 60.502174554 54.926880227 32.280028152 
60.089152551 56.141797369 31.413308402 59.674072815 57.411286329 30.613692594 59.244738428 58.719210704 29.891416246 
58.795046997 60.07201321 29.303402615 58.322058109 61.43832145 28.802885475 57.997819727 62.804291082 28.273454324 
58.032912132 64.316343301 27.747117995 56.098476502 69.089881609 29.485593611 56.505728017 67.765243512 28.645632325 
55.866600889 70.409393856 30.430444748 55.864414151 71.538377201 31.575589538 55.918399621 72.579310985 32.824752405 
56.016499575 73.515637706 34.154400117 56.157186964 74.375044568 35.563677767 56.298193651 75.174692351 37.033853351 
56.63257685 75.629880508 38.613211065 56.941819724 75.965073309 40.253945922 57.210197144 76.114887076 42.006491189 
57.124578926 76.005249441 43.760806301 56.902019627 75.935165581 45.37611034 67.469704451 51.158975127 50.94255003 
68.536158922 52.042674285 51.808646667 57.255167594 66.538223786 27.876070424 58.437396461 65.721040125 27.107796714 
80.952288186 55.612933187 47.885966982 80.905923404 54.863816361 46.487618889 80.8564713 56.641790628 49.10750565 
80.68989137 57.760262575 50.220554357 80.421775125 58.995126345 51.181092995 80.149350038 60.249312135 52.10151855 
79.8201388 61.610303243 52.835559568 79.525003858 62.979901643 53.572020613 79.256594854 64.372496032 54.27113507 
78.971998314 65.824635999 54.83252404 78.751008728 67.276851544 55.427497933 78.51452444 68.771826728 55.947382737 
78.255855768 70.308213588 56.378858435 77.895029248 71.92970093 56.614777525 77.43190889 73.510201118 56.604228345 
76.683042285 75.151690223 56.200286614 75.377327215 76.831504703 55.275951937 75.138456421 78.049778363 53.518023029 
74.799169257 78.949665139 52.04684899 74.443980675 79.703706575 50.604328314 74.090228635 80.095989639 49.063088049 
73.768878718 80.395059668 47.505948304 73.478664798 80.57234306 45.935150837 73.195297672 80.734335012 44.366350172 
72.919279754 80.836725016 42.786598855 72.651047786 80.862592941 41.19198089 72.417111713 80.727481053 39.599611158 
72.206450894 80.333493695 38.017722319 72.034020974 79.77891522 36.462565783 72.006060894 79.049984779 34.978477644 
72.104410965 78.136822238 33.609029228 72.31020626 77.214192723 32.270247494 72.533098472 76.495252196 30.853729927 
72.743842695 75.713030288 29.485358811 72.947231604 74.921245196 28.155285488 73.123348409 73.756860909 27.087552856 
73.319031034 72.429525828 26.23507572 73.525966051 70.963984398 25.863302195 73.782163631 69.45207665 25.648138041 
74.077668525 67.924192843 25.541407759 74.40579408 66.391890299 25.563361542 74.782811973 64.870231172 25.724116217 
75.24301844 63.396831237 26.08270379 75.75278438 62.052119474 26.718271512 76.280610066 60.809355021 27.537440137 
76.806358021 59.636757329 28.452964547 77.309986134 58.583579834 29.511800202 77.795822124 57.61559719 30.674919892 
78.266345291 56.683805064 31.891380644 78.730065873 55.846347301 33.179594084 79.231446099 55.036655572 34.482010631 
79.725675382 54.303551074 35.828974758 80.212071088 53.656984016 37.229668731 80.701551308 53.071691338 38.625942497 
80.921883783 53.024314146 40.309097583 80.988035164 53.231008927 41.961121473 80.95227611 53.631327765 43.524641321 
80.907367441 54.203133938 45.034475141 57.965149861 67.663823971 27.29827207 58.948814476 67.051640678 26.631930181 
57.314980531 68.698930557 27.793806531 56.999093825 69.984686683 28.633183154 56.836110084 71.306152033 29.604087035 
56.949811867 72.394437998 30.811344347 57.105591523 73.367223471 32.130413584 57.228658943 74.321313817 33.495084095 
57.394208222 75.196029921 34.931865628 57.578163615 75.992942981 36.43275285 57.931250855 76.46445863 38.078035872 
58.407349459 76.756160331 39.833897295 59.14561001 76.788161952 41.93256863 58.71433595 76.34117631 44.004619172 
58.35468157 76.100409506 45.613335049 58.034675024 75.958805884 47.053877821 57.847622635 75.580216523 48.409559704 
57.869090797 75.034252367 49.584044097 58.191061643 74.380528931 50.735214106 58.704268628 73.662347609 51.818137148 
59.311182964 72.872831141 52.837314239 60.001286801 71.926537996 53.867525948 60.64841023 70.76308874 54.842005405 
61.038634773 69.315824864 55.631316946 61.388552512 67.833079467 56.219901682 61.783084514 66.419453998 56.578523832 
62.307014759 65.002654947 56.749380705 62.960651177 63.669236981 56.811491838 63.804464058 62.431861307 56.683730859 
64.683329782 61.17017099 56.425524542 65.564686379 59.927090716 55.998123551 66.483857751 58.569992741 55.507889775 
67.035151472 57.109240621 54.901355309 67.39666617 55.746438451 54.300355515 67.796054925 54.672217181 53.675555787 
68.597111798 53.729469261 53.180941865 69.637747995 52.913403836 52.500289275 69.681619857 51.218946046 51.071400493 
70.743690783 52.115880996 51.719864076 68.700431618 50.525580204 50.29266789 67.997371722 49.888547429 49.419016463 
67.728970226 49.232581603 48.366871686 67.582480856 48.716618853 47.072595008 67.303132354 48.44343016 45.633207041 
66.897277519 48.427807697 44.161144753 66.364544328 48.725648239 42.74038587 65.806164902 49.097637766 41.363394108 
65.259279774 49.595282708 40.045199064 64.736308135 50.138460407 38.748864935 64.246127863 50.764977764 37.486296479 
63.783353653 51.421674116 36.220241751 63.329245872 52.143123529 34.964817087 62.860063677 53.031532933 33.827662205 
62.393448405 54.014248991 32.732721862 61.94699844 55.082124543 31.702535786 61.523938229 56.313753897 30.80092652 
61.096813117 57.593625747 29.972329511 60.661180852 58.918661488 29.234330924 60.131905461 60.223427569 28.572333868 
59.611688576 61.476580358 28.048132791 59.276557212 62.67210361 27.641533236 59.357009591 63.859440372 27.037251923 
59.767162062 65.160428987 26.514420639 60.245731103 66.529726998 26.045693472 59.393277954 68.274931583 26.458161206 
60.672321222 68.011376506 25.888948242 58.533506722 68.451183607 26.951548477 79.557170042 55.977475798 49.548783748 
79.623418815 54.954486869 48.274675562 79.384540727 57.097585408 50.701959699 79.07840483 58.35235519 51.683620599 
78.77961674 59.638369013 52.618120896 78.427571453 61.025098899 53.358873503 78.117213502 62.448605974 54.051114508 
77.871404754 63.886597528 54.733585773 77.660280271 65.329335857 55.399182877 77.473969425 66.781069985 56.056974277 
77.286694866 68.261866169 56.695910083 77.011384689 69.793959392 57.164082809 76.652149054 71.419396476 57.531511495 
76.107751047 72.963223412 57.445608776 75.296521409 74.445439658 57.153083408 74.230610242 75.673586554 56.629629859 
73.220118038 78.973089209 52.278042653 73.412998717 78.224372426 53.636510126 72.867460791 79.64661223 50.83768575 
72.543236951 80.036625389 49.3109411 72.241408729 80.302829367 47.744304436 71.959070187 80.482524527 46.170912648 
71.668468879 80.633771334 44.592151106 71.368894246 80.715962818 43.000052763 71.074571503 80.689555928 41.398359973 
70.80300631 80.665059544 39.789249545 70.551137715 80.283936086 38.152393136 70.330912116 79.684653791 36.566483695 
70.183415523 78.917734829 34.966802024 70.400373106 77.991224549 33.46856598 70.673859534 77.148588606 32.059993879 
70.962302692 76.469427107 30.602998221 71.220572686 75.710507582 29.21559682 71.45378136 74.909635824 27.88807227 
71.632540799 73.687186313 26.851039672 71.816941275 72.26139307 26.122382031 72.005021854 70.741269194 25.840819623 
72.230656883 69.200837469 25.645498598 72.497763735 67.643791289 25.502128872 72.788958309 66.074152179 25.513770827 
73.164849408 64.525943502 25.779472296 73.645965301 63.010778791 26.164938745 74.213363919 61.649913694 26.8389193 
74.791621605 60.382052311 27.654131161 75.353679785 59.198115403 28.580406016 75.862549527 58.151732701 29.681007481 
76.332223086 57.149297607 30.857427566 76.766799284 56.197299667 32.109566559 77.221728505 55.271355168 33.397183776 
77.771712194 54.392497262 34.696238467 78.329974401 53.597643664 36.042071805 78.881722382 52.859816198 37.419317783 
79.396561571 52.222290529 38.820829966 79.657785619 52.160449788 40.555066036 79.752840264 52.385937775 42.25892405 
79.64585707 52.919473409 43.825583002 79.560741766 53.540001461 45.350079825 79.553702617 54.21541037 46.840943666 
73.359377822 77.294988724 54.955847299 72.732597536 76.298092459 55.998547351 58.272681074 69.384191786 27.123983549 
58.14251023 70.665794806 27.869520035 58.040485915 72.075576725 28.814415535 58.239672441 73.079226423 30.106066934 
58.412640022 74.065502576 31.463314239 58.58527449 74.98926419 32.876603386 58.784956889 75.866267588 34.336530959 
58.9951603 76.694636317 35.835113528 59.28763685 77.230906919 37.47549339 59.758995188 77.621871986 39.128362487 
60.544069521 77.852477289 40.774437845 59.703691716 76.420327496 46.130833864 60.215763834 76.618414629 44.687441792 
59.265050941 76.275162738 47.443514156 59.024503826 75.797084468 48.589733898 58.93496547 75.384009361 49.636253787 
59.270091197 74.918416494 50.587488229 59.830000018 74.359036654 51.605236899 60.529100382 73.690166916 52.665339587 
61.296535827 72.941514391 53.817341145 62.364503922 71.845559608 55.188029454 62.472029319 69.952721755 56.180732542 
62.682565292 68.370281882 56.817104471 63.014323137 66.87854888 57.176385033 63.482668227 65.457344768 57.314836289 
64.056792389 64.228004297 57.292826944 64.97729152 63.144139686 57.143182872 65.861485599 61.939651718 56.736545041 
66.833430839 60.725277333 56.274435448 68.292255269 59.329192015 55.710792019 68.641991043 57.40699984 55.038475969 
68.709886317 55.990660369 54.440922168 68.68079301 55.071938209 53.941233096 69.535008944 54.583028012 53.651979705 
70.622944975 53.828955853 53.16292787 71.741354649 53.116487215 52.329408733 71.802994279 51.401326978 50.726947459 
72.754769833 52.45155086 51.299172435 70.696570448 50.588467195 50.145057619 69.65684049 49.969503121 49.556774126 
68.874844652 49.583903598 49.122992424 68.959102446 49.144918554 48.246491624 69.02409663 48.709123079 46.942912902 
68.886693747 48.47780631 45.345523407 68.357369126 48.453373545 43.748482067 67.759052824 48.800652552 42.286686883 
67.184310792 49.185008559 40.93156567 66.625051879 49.693885616 39.617085233 66.100991069 50.257382723 38.331148286 
65.628250927 50.939138872 37.096013529 65.202492982 51.681757291 35.865844403 64.792777744 52.448392548 34.6191558 
64.321278169 53.339077118 33.457338742 63.852896213 54.300974588 32.321538047 63.409661842 55.350090905 31.230722533 
62.972618368 56.532633759 30.231455966 62.529132223 57.808706194 29.320719684 62.051693912 59.145950191 28.534932005 
61.508634482 60.513716497 27.817166627 60.770070274 61.723189445 27.393267413 60.219640529 62.57347583 27.212093092 
60.588040572 63.357794545 26.643011084 61.115442136 64.558793427 26.024070448 61.699670089 65.986930631 25.656092496 
62.114084805 67.572505808 25.393955269 60.885761613 69.558926147 26.138845627 62.388693995 69.291733292 25.571362571 
59.473150565 69.586334214 26.617136191 60.841380926 77.147235845 43.225999478 61.739447851 77.951088239 42.047949627 
71.928418267 77.479523706 54.684424457 71.409428299 76.645719364 55.462925689 71.911068229 78.169260549 53.606813052 
71.660338758 78.822997584 52.37842957 71.317513235 79.380150929 50.990099806 70.995628393 79.843154951 49.52406363 
70.717585981 80.124656934 47.96868237 70.455018726 80.298708062 46.395851688 70.15892146 80.444243915 44.821577659 
69.827464985 80.493664123 43.236050785 69.489292925 80.537055247 41.638025316 69.22268556 80.477554374 40.023445341 
68.926747937 80.124974108 38.423068974 68.556645891 79.531457726 36.789739162 67.960784946 78.663154751 34.920552541 
68.639879145 77.769584693 33.226571385 69.066061351 77.067333223 31.712481145 69.423402108 76.453352412 30.251198621 
69.717844491 75.663277859 28.896102345 69.964421426 74.858044614 27.603610649 70.149249696 73.499192654 26.742549934 
70.306207596 72.059947161 26.064695103 70.468068889 70.532803271 25.755257275 70.663769608 68.970378997 25.528207512 
70.901768705 67.389429732 25.350743538 71.167340835 65.812204203 25.353156321 71.43589599 64.138570447 25.630387848 
72.050889913 62.544647682 26.139992176 72.674198038 61.185042968 26.88781114 73.311124046 59.908391188 27.728803382 
73.915426822 58.719749266 28.647331215 74.434204977 57.660498016 29.763276994 74.875222698 56.657953905 30.972679964 
75.242245052 55.730470322 32.264456727 75.65216888 54.743269068 33.651968314 76.275431421 53.84835225 35.015033327 
76.892707473 53.028516836 36.378913981 77.461490961 52.246978968 37.753995175 77.977054904 51.501910572 39.112021653 
78.295381853 51.411848464 40.859620881 78.429843108 51.632578474 42.581462632 78.284479152 52.237668782 44.141379093 
78.203002352 52.807844111 45.728167704 78.230326793 53.483189003 47.279834889 78.308543999 54.278073209 48.718173744 
78.245099619 55.340057209 49.995262687 78.069692949 56.454453561 51.182179608 77.754052556 57.682459893 52.241442679 
77.465216617 58.952875234 53.277466521 77.134597859 60.363781392 54.075358548 76.87806045 61.817619574 54.815584023 
76.615304069 63.305213425 55.44416483 76.371209567 64.794899412 56.017323105 76.181754608 66.256604208 56.648964072 
75.956994616 67.738915113 57.238463052 75.669646476 69.247186764 57.676189729 75.312321923 70.813411073 58.082072016 
74.736006766 72.269637844 57.967956686 74.027003991 73.655984668 57.774818347 73.062871379 74.625399443 57.21681354 
71.914093641 75.293499429 56.70463264 70.709482375 75.672944894 56.020220828 70.351783221 76.951352633 54.897877494 
69.557178537 76.092188122 55.375279473 70.971289665 77.52356272 54.451028717 59.501857366 71.038135739 27.248466173 
59.511722104 72.462477409 28.118262338 59.63642114 73.643385216 29.406407015 59.787259162 74.722401385 30.788147537 
60.001021404 75.595727578 32.2785288 60.259250504 76.438581013 33.782273001 60.55177828 77.207835796 35.308937598 
60.735894929 77.778304176 36.919592694 61.091120788 78.238572175 38.425033678 61.760717292 78.566553942 39.846227786 
62.730105896 78.752105859 41.129631467 62.921882321 78.161162637 43.182815202 63.723836735 78.993529684 42.253426905 
62.165877528 77.407535283 44.246774946 61.500405128 77.020300913 45.549823854 60.918593038 76.809916441 46.818334726 
60.427115374 76.430503596 48.016677207 60.013009305 76.014615469 48.994260345 59.69509167 75.665507952 49.678946328 
60.151084216 75.501365537 50.361629773 60.786386129 75.152436194 51.267494248 61.547091543 74.698904217 52.3359871 
62.397976087 74.15585665 53.437314097 63.454977044 73.608213274 54.58378057 64.02727898 68.686270301 57.466821236 
63.931921537 70.271917919 56.954154979 64.267860136 67.178662251 57.784886116 64.640802031 65.797616588 57.735352942 
64.92679337 64.70525007 57.603591219 66.105867848 64.103134273 57.69422298 66.972932534 62.687217924 57.125895504 
67.793229607 61.626995147 56.696286572 69.048805751 60.922048257 56.416197562 70.060515761 55.698796743 54.24752444 
70.420097649 57.192390905 54.962449922 64.155865539 71.815390514 56.219710419 64.777549739 73.307575829 55.568985177 
70.433325016 58.961036977 55.625762838 70.64061234 60.587224619 56.297534052 72.690849828 54.154809772 52.856194973 
71.481808057 55.047081228 53.775885156 73.560272246 53.531491333 51.777921028 73.761467133 51.997563108 50.079041997 
74.435134804 53.113521134 50.796190656 72.733501859 50.835394655 49.539493688 71.515138401 49.902828612 49.056728128 
70.2178546 49.294525223 48.524633338 70.579457114 48.872606351 47.095097429 70.850625671 48.466455522 45.099632447 
69.843236618 48.40516656 43.147660027 69.137064681 48.854833519 41.740992226 68.515562484 49.302540076 40.4226567 
67.953604744 49.804571311 39.163948077 67.436164235 50.395540645 37.923655143 66.989453873 51.097447871 36.722305106 
66.632932631 51.873195544 35.534519613 66.305645083 52.79279106 34.331488901 65.777305636 53.706024587 33.153035861 
65.298639866 54.669541983 31.999690215 64.871390472 55.68054873 30.851473202 64.462287943 56.839630169 29.793859576 
64.000993426 58.064605931 28.807157112 63.541506261 59.419529034 27.877683488 63.111908103 61.161864004 26.86983864 
61.717319702 62.490583102 26.614922611 62.508928496 63.779880157 25.910831151 63.208660935 65.304549357 25.399728884 
63.800902063 67.032530767 25.173623055 63.973525855 68.917393815 25.139734081 62.537648002 71.023209699 25.948294759 
64.144457887 70.588169134 25.563450716 60.955457275 71.175628074 26.571770213 70.664951928 77.942932037 53.647286803 
70.224405476 78.51367403 52.546191937 69.795144513 79.049206273 51.185445216 69.458938221 79.53137302 49.737057347 
69.212466425 79.832862669 48.183964691 68.983295483 80.036418134 46.626077148 68.70023791 80.149195515 45.066965999 
68.316251589 80.221683248 43.536081896 67.899345807 80.280951782 41.918697774 67.688959574 80.233037367 40.315552689 
67.400232384 79.936496841 38.781772616 66.911716005 79.46834996 37.314687995 66.162930598 78.826336784 35.931649917 
67.531700924 76.884729653 31.229042128 66.990059631 77.41903781 32.55464548 67.933552648 76.312599254 29.838579299 
68.241116775 75.503451654 28.574780177 68.484974054 74.599049574 27.320423863 68.673641131 73.292122594 26.587388161 
68.803528877 71.870906464 25.97898972 68.919053202 70.350786155 25.624800287 69.073043599 68.778149892 25.367418836 
69.319327496 67.222864572 25.184526308 69.542748295 65.666253231 25.186100126 69.337896699 63.721525771 25.396470817 
70.404504495 61.954532393 26.154358883 71.172995525 60.5937544 26.979148653 71.855646341 59.372387137 27.823264054 
72.500488291 58.238802546 28.737301586 73.009142615 57.254288599 29.875784045 73.391626288 56.292665245 31.042292313 
73.670887014 55.365598541 32.367139047 73.7310411 54.151887025 33.948037733 74.80886507 53.213418704 35.416869463 
75.495140023 52.428045163 36.794500945 76.058281777 51.689751906 38.174737966 76.556606579 50.942186774 39.53046154 
76.944697368 50.791111388 41.212300884 77.138563996 50.875689015 42.910990651 76.974458526 51.434753465 44.498396548 
76.898975813 51.934087293 46.139343414 76.88321268 52.60840444 47.846622057 76.957385627 53.666977844 49.26424127 
76.976399031 54.744811981 50.499515676 76.809089893 55.771534729 51.658459679 76.46749757 56.935140415 52.802765946 
76.126842253 58.213694195 53.922546638 75.741582597 59.697613715 54.750562593 75.499261729 61.226284053 55.479729122 
75.250077128 62.786059054 56.002456109 75.016417358 64.305115121 56.529132756 74.776887115 65.804266043 57.011000275 
74.549341016 67.254644944 57.54766313 74.241746814 68.741819997 57.851880307 73.897568748 70.162395804 58.20278892 
73.409022811 71.58066099 58.094585352 72.823403529 72.811360891 57.946430212 72.152448187 73.739903413 57.466913638 
71.151580599 74.245715578 57.005963244 69.949955738 74.694245146 56.573420291 68.745563902 75.080629058 55.927675294 
68.430835912 76.617491874 54.534098261 67.536553339 75.538265445 55.209759411 69.564193047 77.39361931 54.000248849 
66.227264306 77.944732773 33.84118136 65.056473294 78.255210489 34.809848213 72.107026745 49.425163288 47.614741135 
72.674049171 48.965205339 46.056142227 70.42478038 49.039201407 41.075347255 71.190520127 48.715179952 42.31734823 
69.798847249 49.451538091 39.887996631 69.245469843 49.943581144 38.697157314 68.743678867 50.563641575 37.541608117 
68.339884468 51.265852186 36.434135238 68.062588295 52.119418557 35.34659645 68.043438429 53.228963822 34.087203825 
67.243484881 54.156342356 32.83307028 66.704975957 55.046722896 31.678677614 66.331220346 55.983426898 30.520883682 
65.985343101 57.115612853 29.397946845 65.506137023 58.299501543 28.365165502 65.089657895 59.555355198 27.485461855 
64.936428067 60.864659526 26.721587792 63.979823216 62.858104215 25.883623441 65.5259333 62.102790832 26.008194841 
61.069612963 72.745835947 27.449424402 61.118172889 74.14154045 28.725486507 61.284947129 75.271076748 30.162691273 
61.484799441 76.134425288 31.756519206 61.777038551 76.860672937 33.267531249 62.462052962 77.689904621 34.912750979 
62.157142811 78.118255337 36.543002652 62.474349565 78.564912023 37.85630723 63.026769245 78.946578077 39.126195754 
63.746083486 79.332433241 40.318672618 64.61938904 79.540537861 41.350022974 64.837479064 79.174206846 43.319817847 
66.066121842 79.894116185 42.209275071 64.009270936 78.360132558 44.19790892 63.303201868 77.778528305 45.280026686 
62.648459177 77.434702073 46.486893856 62.050519535 77.091974641 47.706308589 61.487210883 76.546447674 48.791586759 
60.834341275 76.043741587 49.717061334 61.669289774 75.868694807 50.628148773 62.486057622 75.670048998 51.741404241 
63.355021293 75.310168239 52.885142764 64.35015159 74.953589619 53.98644417 65.519619975 74.669945142 54.970703304 
66.118847197 73.074033621 56.432818389 66.768984289 74.335257419 55.821218675 65.607729505 71.720855784 56.927340084 
65.368620722 70.398316362 57.619085947 65.433507828 68.844358097 57.932706776 65.652675248 67.286638735 58.18741282 
65.943698581 65.795129346 57.996574599 73.730468712 55.286804074 53.214680106 72.554593446 56.681123679 54.474603397 
74.453325751 54.424688269 52.10832274 75.146387355 51.705412514 48.554472884 75.617132925 53.15640205 49.936482075 
73.605856206 50.291139697 48.077364195 68.807516719 77.981241048 52.853037067 68.297983124 78.594567076 51.433633523 
67.925625677 79.112452829 49.949510297 67.743401879 79.429247961 48.373498745 67.596248707 79.636927668 46.842300942 
67.344914007 79.743072656 45.374323608 66.864741927 79.802006899 43.900049165 66.251927227 80.062852254 40.545802404 
65.96587674 79.823701574 39.182343973 65.463567423 79.405620879 37.899345734 64.794893906 78.891553727 36.689219297 
66.074420966 76.666412029 30.685509537 65.601416617 77.120425342 31.920539348 66.501254138 76.103611373 29.448422494 
66.808769607 75.330038233 28.278380799 67.039185545 74.324691371 27.208937199 67.235939094 73.088996744 26.50492736 
67.307332159 71.770457033 25.905799313 67.362307479 70.266864322 25.511017879 67.485368385 68.645204504 25.202742954 
67.753241237 67.044956408 25.051449359 68.230574634 65.812107831 25.091856654 67.411988415 64.75430288 25.135951738 
69.71576774 59.974654512 27.248177851 68.916076304 61.161231906 26.471091807 70.43260351 58.832374201 28.082878572 
71.113889743 57.819653009 28.943768578 71.61122843 56.916931532 29.99036736 71.971184842 56.055513197 31.101799389 
72.083442507 55.205213163 32.235938206 71.95161921 54.307191914 33.342215826 74.193086075 51.746585915 37.233366716 
73.469229191 52.416374661 36.01323798 74.701772478 51.071267344 38.575980153 75.154996628 50.404771158 40.007020054 
75.549196863 50.251285097 41.617086474 75.814690398 50.248796619 43.190617942 75.771752156 50.500710871 44.765667022 
75.576079785 50.871012949 46.504491191 67.859383279 62.40626701 25.852664456 66.410747757 63.439595668 25.441010949 
72.167801465 48.599162329 43.639386473 73.262049517 49.017758249 44.561647618 72.548451267 53.002543866 34.895767017 
71.354636934 53.421606426 34.193618947 75.805029927 54.237699183 50.948382685 75.575253128 55.108274019 52.005881106 
75.086274496 56.187909915 53.101601796 74.508390438 57.519941746 54.268103239 74.160576014 59.173769369 55.130974412 
73.963509359 60.797791518 55.882569099 73.786025717 62.356383376 56.410658905 73.600088734 63.893895883 56.926634343 
73.36441049 65.402138609 57.347753066 73.112928827 66.87354465 57.736886186 72.811930031 68.330338258 57.963284113 
72.483340733 69.730039073 58.144722883 72.115100093 71.070865799 58.016777031 71.732749598 72.249429596 57.869408655 
71.48509735 73.0886211 57.577829164 70.613396269 73.245880933 57.336340851 69.357953976 73.522639725 57.002788449 
68.042775798 73.991563761 56.546129648 66.330847265 75.92151557 54.27354139 68.11645127 63.203064997 57.36907725 
67.678829108 64.460762596 57.833582464 68.446773416 62.323337681 57.009338222 69.431051678 62.147505214 56.944727446 
70.767194722 62.057775517 56.867246197 72.312117863 60.529749201 56.161153608 72.264505928 62.120756537 56.72387107 
72.368619122 58.836507095 55.435206529 65.421708921 75.008633639 28.11073442 65.169858329 75.763601049 29.152911871 
65.68988091 74.047219312 27.160822122 65.915121487 72.980683574 26.48001834 65.823807095 71.790603053 25.874995331 
65.749172192 70.309918125 25.426829448 65.76411876 68.576276834 25.056176859 65.900300788 66.342998141 25.036848124 
64.879690169 64.451398617 25.380099367 72.143102991 63.607205306 57.209234933 71.926687826 65.10811392 57.559593869 
71.674849043 66.577147568 57.880581966 71.383093819 68.029040665 58.004563776 71.073714149 69.447653523 58.108399309 
70.767297269 70.802096281 57.911113415 70.504890582 72.098272886 57.735149086 68.928341923 72.115350443 57.557718526 
67.500569175 72.704679832 57.015615872 66.926566114 71.575008045 57.469797083 66.810746986 70.315376343 57.892711869 
66.889208698 68.903695058 58.150382792 67.104752481 67.417875837 58.272215151 67.367364769 65.959137832 58.109742067 
67.241349514 77.100385556 53.246955166 66.803473138 77.921641689 51.629944417 66.370289119 78.494231848 50.053733759 
66.333268742 78.882540747 48.372567262 66.328761432 79.126454617 46.923604387 66.193100281 79.273744937 45.693093616 
65.668581906 79.236797067 44.506108654 62.448546683 76.645646694 49.797572854 63.462750872 76.593901725 50.963331819 
64.296489958 76.385710342 52.26256267 65.201407723 76.025274399 53.338457216 64.826914914 78.634605041 45.192395645 
64.281535293 78.181068459 46.156811948 63.768036779 77.787258166 47.358933167 63.21364715 77.307502181 48.697670794 
67.968982336 71.380104005 57.741710676 68.093510479 70.327179851 57.946893176 68.293854047 69.019201936 58.184971179 
68.540045134 67.585803678 58.213002438 68.804454097 66.146135215 58.09061376 69.086264065 64.710241931 57.786216322 
69.338592582 63.380257875 57.361772875 70.697213884 63.450957962 57.363787619 65.192315823 79.820497998 40.511306647 
64.762890345 79.59781551 39.602735682 64.236059033 79.205932982 38.487166532 63.688727629 78.787929019 37.402258601 
64.976991927 77.480721276 33.013218826 63.923813063 77.644272522 33.882558342 62.964219388 72.870424468 26.820500876 
62.696820205 74.49238139 28.234922483 63.085888951 75.703663792 29.767875394 63.005780796 76.454226856 31.441398795 
63.186047613 77.042185925 32.769218471 64.668955706 76.374610059 30.231226567 63.251125623 78.42265203 36.528766764 
66.781848772 61.416613447 26.354536789 67.621981059 60.402158519 26.902921503 68.348252173 59.289914787 27.627092773 
69.081195487 58.241769788 28.445532148 69.854774212 57.411781253 29.199954092 70.277469084 56.636731316 30.132721991 
70.572655089 55.881806768 31.160359516 70.730843225 55.118811423 32.142905067 70.674771146 54.373072749 33.015070294 
70.194970847 53.662571718 33.734009145 70.717027519 52.682550635 34.840695629 69.612839795 52.91006623 34.486905474 
71.576676251 52.230453037 35.524510829 72.310013091 51.738569853 36.515767545 72.923245772 51.125949455 37.644525744 
73.353777725 50.543439249 38.902868688 73.572642376 49.817435707 40.458857918 74.252988104 49.581604696 42.023519014 
74.647068313 49.590716151 43.412015536 74.523058588 49.623463304 44.796081886 74.138241554 49.841356249 46.422133971 
73.709378917 49.146466699 43.53857907 73.132274272 49.023622916 42.628113273 72.37420503 49.186320201 41.452558508 
71.570824241 49.357274503 40.428334585 71.008580119 49.768378511 39.391735651 70.506239103 50.201354636 38.280959654 
70.012127995 50.806019406 37.213970351 69.597584153 51.434814985 36.210739911 68.50228652 54.616549264 32.408042572 
69.140848078 53.986027045 33.261308767 68.065008769 55.396620293 31.410696324 67.772310805 56.283361731 30.312014411 
67.722076697 57.466646617 29.111348291 67.0020164 58.665759157 28.026704601 66.438663671 59.807917551 27.264309779 
66.052692852 60.684717746 26.737759976 64.414983428 72.069818573 26.022113421 68.876774446 57.049611411 29.483212993 
69.062839303 56.379889877 30.28461597 69.327328086 55.667680257 31.245675872 69.587423183 54.975585739 32.13813357 
69.800807233 54.435769149 32.800205753 71.697021411 50.629835094 37.945973075 71.208120066 51.196944397 36.905915619 
72.129479432 50.157912189 39.032774883 72.435332535 49.752838144 39.946200316 65.403057459 78.865536803 45.896973674 
65.221652011 78.621659852 46.793894954 65.400450297 77.246246371 51.692966761 64.641992484 77.676574612 49.953649195 
65.9154387 76.859441142 52.804067853 70.495739959 64.889165606 57.729944934 70.2418492 66.345712569 58.016032238 
69.961207159 67.793927193 58.09504732 69.670596217 69.231109895 58.099047715 69.363574479 70.621870909 57.914923696 
69.357959568 52.121149684 35.309433584 70.253358492 52.143997328 35.351532544 70.673454206 51.716842953 35.987264271 
64.174118852 77.126643521 32.423599025 64.369806231 76.801258567 31.470889421 64.100616972 75.383405784 28.969330516 
64.150104825 74.722736281 28.032738274 64.415304824 73.715300565 27.097939996 64.901839247 72.919901236 26.527901702 
64.984077108 78.26058367 48.086062443 74.88160156 53.927653155 51.300577561 63.931287555 78.35531188 35.690245855 

POLYGONS 1060 4236
OFFSETS vtktypeint64
0 4 8 12 16 20 24 28 32 
36 40 44 48 52 56 60 64 68 
72 76 80 84 88 92 96 100 104 
108 112 116 120 124 128 132 136 140 
144 148 152 156 160 164 168 172 176 
180 184 188 192 196 200 204 208 212 
216 220 224 228 232 236 240 244 248 
252 256 260 264 268 272 276 280 284 
288 292 296 300 304 308 312 316 320 
324 328 332 336 340 344 348 352 356 
360 364 368 372 376 380 384 388 392 
396 400 404 408 412 416 420 424 428 
432 436 440 444 448 452 456 460 464 
468 472 476 480 484 488 492 496 500 
504 508 512 516 520 524 528 532 536 
540 544 548 552 556 560 564 568 572 
576 580 584 588 592 596 600 604 608 
612 616 620 624 628 632 636 640 644 
648 652 656 660 664 668 672 676 680 
684 688 692 696 700 704 708 712 716 
720 724 728 732 736 740 744 748 752 
756 760 764 768 772 776 780 784 788 
792 796 800 804 808 812 816 820 824 
828 832 836 840 844 848 852 856 860 
864 868 872 876 880 884 888 892 896 
900 904 908 912 916 920 924 928 932 
936 940 944 948 952 956 960 964 968 
972 976 980 984 988 992 996 1000 1004 
1008 1012 1016 1020 1024 1028 1032 1036 1040 
1044 1048 1052 1056 1060 1064 1068 1072 1076 
1080 1084 1088 1092 1096 1100 1104 1108 1112 
1116 1120 1124 1128 1132 1136 1140 1144 1148 
1152 1156 1160 1164 1168 1172 1176 1180 1184 
1188 1192 1196 1200 1204 1208 1212 1216 1220 
1224 1228 1232 1236 1240 1244 1248 1252 1256 
1260 1264 1268 1272 1276 1280 1284 1288 1292 
1296 1300 1304 1308 1312 1316 1320 1324 1328 
1332 1336 1340 1344 1348 1352 1356 1360 1364 
1368 1372 1376 1380 1384 1388 1392 1396 1400 
1404 1408 1412 1416 1420 1424 1428 1432 1436 
1440 1444 1448 1452 1456 1460 1464 1468 1472 
1476 1480 1484 1488 1492 1496 1500 1504 1508 
1512 1516 1520 1524 1528 1532 1536 1540 1544 
1548 1552 1556 1560 1564 1568 1572 1576 1580 
1584 1588 1592 1596 1600 1604 1608 1612 1616 
1620 1624 1628 1632 1636 1640 1644 1648 1652 
1656 1660 1664 1668 1672 1676 1680 1684 1688 
1692 1696 1700 1704 1708 1712 1716 1720 1724 
1728 1732 1736 1740 1744 1748 1752 1756 1760 
1764 1768 1772 1776 1780 1784 1788 1792 1796 
1800 1804 1808 1812 1816 1820 1824 1828 1832 
1836 1840 1844 1848 1852 1856 1860 1864 1868 
1872 1876 1880 1884 1888 1892 1896 1900 1904 
1908 1912 1916 1920 1924 1928 1932 1936 1940 
1944 1948 1952 1956 1960 1964 1968 1972 1976 
1980 1984 1988 1992 1996 2000 2004 2008 2012 
2016 2020 2024 2028 2032 2036 2040 2044 2048 
2052 2056 2060 2064 2068 2072 2076 2080 2084 
2088 2092 2096 2100 2104 2108 2112 2116 2120 
2124 2128 2132 2136 2140 2144 2148 2152 2156 
2160 2164 2168 2172 2176 2180 2184 2188 2192 
2196 2200 2204 2208 2212 2216 2220 2224 2228 
2232 2236 2240 2244 2248 2252 2256 2260 2264 
2268 2272 2276 2280 2284 2288 2292 2296 2300 
2304 2308 2312 2316 2320 2324 2328 2332 2336 
2340 2344 2348 2352 2356 2360 2364 2368 2372 
2376 2380 2384 2388 2392 2396 2400 2404 2408 
2412 2416 2420 2424 2428 2432 2436 2440 2444 
2448 2452 2456 2460 2464 2468 2472 2476 2480 
2484 2488 2492 2496 2500 2504 2508 2512 2516 
2520 2524 2528 2532 2536 2540 2544 2548 2552 
2556 2560 2564 2568 2572 2576 2580 2584 2588 
2592 2596 2600 2604 2608 2612 2616 2620 2624 
2628 2632 2636 2640 2644 2648 2652 2656 2660 
2664 2668 2672 2676 2680 2684 2688 2692 2696 
2700 2704 2708 2712 2716 2720 2724 2728 2732 
2736 2740 2744 2748 2752 2756 2760 2764 2768 
2772 2776 2780 2784 2788 2792 2796 2800 2804 
2808 2812 2816 2820 2824 2828 2832 2836 2840 
2844 2848 2852 2856 2860 2864 2868 2872 2876 
2880 2884 2888 2892 2896 2900 2904 2908 2912 
2916 2920 2924 2928 2932 2936 2940 2944 2948 
2952 2956 2960 2964 2968 2972 2976 2980 2984 
2988 2992 2996 3000 3004 3008 3012 3016 3020 
3024 3028 3032 3036 3040 3044 3048 3052 3056 
3060 3064 3068 3072 3076 3080 3084 3088 3092 
3096 3100 3104 3108 3112 3116 3120 3124 3128 
3132 3136 3140 3144 3148 3152 3156 3160 3164 
3168 3172 3176 3180 3184 3188 3192 3196 3200 
3204 3208 3212 3216 3220 3224 3228 3232 3236 
3240 3244 3248 3252 3256 3260 3264 3268 3272 
3276 3280 3284 3288 3292 3296 3300 3304 3308 
3312 3316 3320 3324 3328 3332 3336 3340 3344 
3348 3352 3356 3360 3364 3368 3372 3376 3380 
3384 3388 3392 3396 3400 3404 3408 3412 3416 
3420 3424 3428 3432 3436 3440 3444 3448 3452 
3456 3460 3464 3468 3472 3476 3480 3484 3488 
3492 3496 3500 3504 3508 3512 3516 3520 3524 
3528 3532 3536 3540 3544 3548 3552 3556 3560 
3564 3568 3572 3576 3580 3584 3588 3592 3596 
3600 3604 3608 3612 3616 3620 3624 3628 3632 
3636 3640 3644 3648 3652 3656 3660 3664 3668 
3672 3676 3680 3684 3688 3692 3696 3700 3704 
3708 3712 3716 3720 3724 3728 3732 3736 3740 
3744 3748 3752 3756 3760 3764 3768 3772 3776 
3780 3784 3788 3792 3796 3800 3804 3808 3812 
3816 3820 3824 3828 3832 3836 3840 3844 3848 
3852 3856 3860 3864 3868 3872 3876 3880 3884 
3888 3892 3896 3900 3904 3908 3912 3916 3920 
3924 3928 3932 3936 3940 3944 3948 3952 3956 
3960 3964 3968 3972 3976 3980 3984 3988 3992 
3996 4000 4004 4008 4012 4016 4020 4024 4028 
4032 4036 4040 4044 4048 4052 4056 4060 4064 
4068 4072 4076 4080 4084 4088 4092 4096 4100 
4104 4108 4112 4116 4120 4124 4128 4132 4136 
4140 4144 4148 4152 4156 4160 4164 4168 4172 
4176 4180 4184 4188 4192 4196 4200 4204 4208 
4212 4216 4220 4224 4228 4232 4236 
CONNECTIVITY vtktypeint64
0 1 2 3 1 4 5 2 4 
6 7 5 6 8 9 7 8 10 
11 9 10 12 13 11 12 14 15 
13 14 16 17 15 16 18 19 17 
18 20 21 19 20 22 23 21 22 
24 25 23 24 26 27 25 26 28 
29 27 28 30 31 29 30 32 33 
31 32 34 35 33 34 36 37 35 
36 38 39 37 38 40 41 39 40 
42 43 41 42 44 45 43 44 46 
47 45 46 48 49 47 48 50 51 
49 50 52 53 51 52 54 55 53 
54 56 57 55 56 58 59 57 58 
60 61 59 60 62 63 61 62 64 
65 63 64 66 67 65 66 68 69 
67 68 70 71 69 70 72 73 71 
72 74 75 73 74 76 77 75 76 
78 79 77 78 80 81 79 80 82 
83 81 82 84 85 83 84 86 87 
85 86 88 89 87 88 90 91 89 
90 92 93 91 92 94 95 93 94 
96 97 95 96 98 99 97 98 100 
101 99 100 102 103 101 102 104 105 
103 104 106 107 105 106 108 109 107 
108 110 111 109 110 0 3 111 112 
113 114 115 113 116 117 114 116 118 
119 117 118 120 121 119 120 122 123 
121 122 124 125 123 124 126 127 125 
126 128 129 127 128 130 131 129 130 
132 133 131 132 134 135 133 134 136 
137 135 136 138 139 137 138 140 141 
139 140 142 143 141 142 144 145 143 
144 146 147 145 146 148 149 147 148 
150 151 149 150 152 153 151 152 154 
155 153 154 156 157 155 156 158 159 
157 158 160 161 159 160 162 163 161 
162 164 165 163 164 166 167 165 166 
168 169 167 168 170 171 169 170 172 
173 171 172 174 175 173 174 176 177 
175 176 178 179 177 178 180 181 179 
180 182 183 181 182 184 185 183 184 
186 187 185 186 188 189 187 188 190 
191 189 190 192 193 191 192 194 195 
193 194 196 197 195 196 198 199 197 
198 200 201 199 200 202 203 201 202 
204 205 203 204 206 207 205 206 208 
209 207 208 210 211 209 210 212 213 
211 212 214 215 213 214 216 217 215 
216 218 219 217 218 220 221 219 220 
222 223 221 222 224 225 223 224 226 
227 225 226 112 115 227 2 5 228 
229 5 7 230 228 7 9 231 230 
9 11 232 231 11 13 233 232 13 
15 234 233 15 17 235 234 17 19 
236 235 19 21 237 236 21 23 238 
237 23 25 239 238 25 27 240 239 
27 29 241 240 29 31 242 241 31 
33 243 242 33 35 244 243 35 37 
245 244 37 39 246 245 39 41 247 
246 41 43 248 247 43 45 249 248 
45 47 250 249 47 49 251 250 49 
51 252 251 51 53 253 252 53 55 
254 253 55 57 255 254 57 59 256 
255 59 61 257 256 61 63 258 257 
63 65 259 258 65 67 260 259 67 
69 261 260 69 71 262 261 71 73 
263 262 73 75 264 263 75 77 265 
264 77 79 266 265 79 81 267 266 
81 83 268 267 83 85 269 268 85 
87 270 269 87 89 271 270 89 91 
272 271 91 93 273 272 93 95 274 
273 95 97 275 274 97 99 276 275 
99 101 277 276 101 103 278 277 103 
105 279 278 105 107 280 279 107 109 
281 280 109 111 282 281 111 3 283 
282 3 2 229 283 114 117 284 285 
117 119 286 284 119 121 287 286 121 
123 288 287 123 125 289 288 125 127 
290 289 127 129 291 290 129 131 292 
291 131 133 293 292 133 135 294 293 
135 137 295 294 137 139 296 295 139 
141 297 296 141 143 298 297 143 145 
299 298 145 147 300 299 147 149 301 
300 149 151 302 301 151 153 303 302 
153 155 304 303 155 157 305 304 157 
159 306 305 159 161 307 306 161 163 
308 307 163 165 309 308 165 167 310 
309 167 169 311 310 169 171 312 311 
171 173 313 312 173 175 314 313 175 
177 315 314 177 179 316 315 179 181 
317 316 181 183 318 317 183 185 319 
318 185 187 320 319 187 189 321 320 
189 191 322 321 191 193 323 322 193 
195 324 323 195 197 325 324 197 199 
326 325 199 201 327 326 201 203 328 
327 203 205 329 328 205 207 330 329 
207 209 331 330 209 211 332 331 211 
213 333 332 213 215 334 333 215 217 
335 334 217 219 336 335 219 221 337 
336 221 223 338 337 223 225 339 338 
225 227 340 339 227 115 341 340 115 
114 285 341 228 230 342 343 230 231 
344 342 231 232 345 344 232 233 346 
345 233 234 347 346 234 235 348 347 
235 236 349 348 236 237 350 349 237 
238 351 350 238 239 352 351 239 240 
353 352 240 241 354 353 241 242 355 
354 242 243 356 355 243 244 357 356 
244 245 358 357 245 246 359 358 246 
247 360 359 247 248 361 360 248 249 
362 361 250 251 363 364 251 252 365 
363 252 253 366 365 253 254 367 366 
254 255 368 367 255 256 369 368 256 
257 370 369 257 258 371 370 258 259 
372 371 259 260 373 372 260 261 374 
373 261 262 375 374 262 263 376 375 
263 264 377 376 264 265 378 377 265 
266 379 378 266 267 380 379 267 268 
381 380 268 269 382 381 269 270 383 
382 270 271 384 383 272 273 385 386 
273 274 387 385 274 275 388 387 275 
276 389 388 276 277 390 389 277 278 
391 390 278 279 392 391 279 280 393 
392 280 281 394 393 281 282 395 394 
282 283 396 395 283 229 397 396 229 
228 343 397 249 250 364 398 362 249 
398 399 271 272 386 400 384 271 400 
401 284 286 402 403 286 287 404 402 
287 288 405 404 288 289 406 405 289 
290 407 406 290 291 408 407 291 292 
409 408 292 293 410 409 293 294 411 
410 294 295 412 411 295 296 413 412 
296 297 414 413 297 298 415 414 298 
299 416 415 299 300 417 416 300 301 
418 417 301 302 419 418 302 303 420 
419 303 304 421 420 304 305 422 421 
305 306 423 422 306 307 424 423 307 
308 425 424 308 309 426 425 309 310 
427 426 310 311 428 427 311 312 429 
428 312 313 430 429 313 314 431 430 
314 315 432 431 315 316 433 432 316 
317 434 433 317 318 435 434 318 319 
436 435 319 320 437 436 320 321 438 
437 321 322 439 438 322 323 440 439 
323 324 441 440 324 325 442 441 325 
326 443 442 326 327 444 443 327 328 
445 444 328 329 446 445 329 330 447 
446 330 331 448 447 331 332 449 448 
332 333 450 449 333 334 451 450 334 
335 452 451 335 336 453 452 336 337 
454 453 337 338 455 454 338 339 456 
455 339 340 457 456 340 341 458 457 
341 285 459 458 285 284 403 459 401 
400 460 461 400 386 462 460 386 385 
463 462 385 387 464 463 387 388 465 
464 388 389 466 465 389 390 467 466 
390 391 468 467 391 392 469 468 392 
393 470 469 393 394 471 470 394 395 
472 471 395 396 473 472 396 397 474 
473 397 343 475 474 343 342 476 475 
342 344 477 476 344 345 478 477 345 
346 479 478 346 347 480 479 347 348 
481 480 348 349 482 481 349 350 483 
482 350 351 484 483 351 352 485 484 
352 353 486 485 353 354 487 486 354 
355 488 487 355 356 489 488 356 357 
490 489 357 358 491 490 358 359 492 
491 359 360 493 492 360 361 494 493 
361 362 495 494 362 399 496 495 399 
497 498 496 399 398 499 497 398 364 
500 499 364 363 501 500 363 365 502 
501 365 366 503 502 366 367 504 503 
367 368 505 504 368 369 506 505 369 
370 507 506 370 371 508 507 371 372 
509 508 372 373 510 509 373 374 511 
510 374 375 512 511 375 376 513 512 
376 377 514 513 377 378 515 514 378 
379 516 515 379 380 517 516 380 381 
518 517 381 382 519 518 382 383 520 
519 383 384 521 520 384 401 522 521 
401 461 523 522 461 524 525 523 461 
460 526 524 402 404 527 528 404 405 
529 527 405 406 530 529 406 407 531 
530 407 408 532 531 408 409 533 532 
409 410 534 533 410 411 535 534 411 
412 536 535 412 413 537 536 413 414 
538 537 414 415 539 538 415 416 540 
539 416 417 541 540 417 418 542 541 
419 420 543 544 420 421 545 543 421 
422 546 545 422 423 547 546 423 424 
548 547 424 425 549 548 425 426 550 
549 426 427 551 550 427 428 552 551 
428 429 553 552 429 430 554 553 430 
431 555 554 431 432 556 555 432 433 
557 556 433 434 558 557 434 435 559 
558 435 436 560 559 436 437 561 560 
437 438 562 561 438 439 563 562 439 
440 564 563 440 441 565 564 441 442 
566 565 442 443 567 566 443 444 568 
567 444 445 569 568 445 446 570 569 
446 447 571 570 447 448 572 571 448 
449 573 572 449 450 574 573 450 451 
575 574 451 452 576 575 452 453 577 
576 453 454 578 577 454 455 579 578 
455 456 580 579 456 457 581 580 457 
458 582 581 458 459 583 582 459 403 
584 583 403 402 528 584 418 419 544 
585 542 418 585 586 460 462 587 526 
462 463 588 587 463 464 589 588 464 
465 590 589 465 466 591 590 466 467 
592 591 467 468 593 592 468 469 594 
593 469 470 595 594 470 471 596 595 
471 472 597 596 473 474 598 599 474 
475 600 598 475 476 601 600 476 477 
602 601 477 478 603 602 478 479 604 
603 479 480 605 604 480 481 606 605 
481 482 607 606 482 483 608 607 483 
484 609 608 484 485 610 609 485 486 
611 610 486 487 612 611 487 488 613 
612 488 489 614 613 489 490 615 614 
490 491 616 615 491 492 617 616 492 
493 618 617 493 494 619 618 494 495 
620 619 495 496 621 620 496 498 622 
621 498 623 624 622 498 497 625 623 
497 499 626 625 499 500 627 626 500 
501 628 627 501 502 629 628 502 503 
630 629 503 504 631 630 504 505 632 
631 505 506 633 632 506 507 634 633 
507 508 635 634 508 509 636 635 509 
510 637 636 510 511 638 637 511 512 
639 638 512 513 640 639 513 514 641 
640 514 515 642 641 515 516 643 642 
516 517 644 643 517 518 645 644 518 
519 646 645 519 520 647 646 520 521 
648 647 521 522 649 648 522 523 650 
649 523 525 651 650 525 652 653 651 
525 524 654 652 524 526 587 654 472 
473 599 655 597 472 655 656 586 585 
657 658 585 544 659 657 544 543 660 
659 543 545 661 660 545 546 662 661 
546 547 663 662 547 548 664 663 548 
549 665 664 549 550 666 665 550 551 
667 666 551 552 668 667 552 553 669 
668 553 554 670 669 554 555 671 670 
555 556 672 671 556 557 673 672 557 
558 674 673 558 559 675 674 559 560 
676 675 560 561 677 676 561 562 678 
677 562 563 679 678 563 564 680 679 
564 565 681 680 565 566 682 681 566 
567 683 682 567 568 684 683 568 569 
685 684 569 570 686 685 570 571 687 
686 571 572 688 687 572 573 689 688 
573 574 690 689 574 575 691 690 575 
576 692 691 576 577 693 692 577 578 
694 693 578 579 695 694 579 580 696 
695 580 581 697 696 581 582 698 697 
582 583 699 698 583 584 700 699 584 
528 701 700 528 527 702 701 527 529 
703 702 529 530 704 703 530 531 705 
704 531 532 706 705 532 533 707 706 
533 534 708 707 534 535 709 708 535 
536 710 709 536 537 711 710 537 538 
712 711 538 539 713 712 539 540 714 
713 540 541 715 714 541 542 716 715 
542 586 717 716 586 658 718 717 658 
719 720 718 658 657 721 719 587 588 
722 654 588 589 723 722 589 590 724 
723 590 591 725 724 591 592 726 725 
592 593 727 726 593 594 728 727 594 
595 729 728 595 596 730 729 596 597 
731 730 597 656 732 731 656 733 734 
732 656 655 735 733 655 599 736 735 
599 598 737 736 598 600 738 737 600 
601 739 738 601 602 740 739 602 603 
741 740 603 604 742 741 604 605 743 
742 605 606 744 743 606 607 745 744 
608 609 746 747 609 610 748 746 610 
611 749 748 611 612 750 749 612 613 
751 750 613 614 752 751 614 615 753 
752 615 616 754 753 617 618 755 756 
618 619 620 755 607 608 747 757 745 
607 757 758 616 617 756 759 754 616 
759 760 621 622 761 762 622 624 763 
761 624 764 765 763 624 623 766 764 
623 625 767 766 625 626 768 767 626 
627 628 768 628 629 769 768 629 630 
770 769 630 631 771 770 631 632 772 
771 632 633 773 772 633 634 774 773 
634 635 775 774 635 636 776 775 636 
637 777 776 637 638 778 777 638 639 
779 778 639 640 780 779 640 641 781 
780 641 642 782 781 642 643 783 782 
643 644 784 783 644 645 785 784 645 
646 786 785 646 647 648 786 648 649 
787 786 649 650 788 787 650 651 789 
788 651 653 790 789 653 791 792 790 
653 652 793 791 652 654 722 793 657 
659 794 721 659 660 795 794 660 661 
796 795 661 662 797 796 662 663 798 
797 663 664 799 798 664 665 800 799 
665 666 801 800 666 667 802 801 667 
668 803 802 668 669 804 803 669 670 
805 804 670 671 806 805 672 673 807 
808 673 674 809 807 674 675 810 809 
675 676 811 810 676 677 812 811 677 
678 813 812 678 679 814 813 679 680 
815 814 680 681 816 815 681 682 817 
816 682 683 818 817 683 684 819 818 
684 685 820 819 685 686 821 820 686 
687 822 821 687 688 823 822 688 689 
824 823 689 690 825 824 690 691 826 
825 691 692 827 826 692 693 828 827 
693 694 829 828 694 695 830 829 695 
696 831 830 696 697 832 831 697 698 
833 832 698 699 834 833 699 700 835 
834 700 701 836 835 701 702 837 836 
702 703 838 837 703 704 839 838 704 
705 840 839 705 706 841 840 706 707 
842 841 707 708 843 842 708 709 844 
843 709 710 845 844 710 711 846 845 
711 712 847 846 712 713 848 847 713 
714 849 848 714 715 850 849 715 716 
851 850 716 717 852 851 717 718 853 
852 718 720 854 853 720 855 856 854 
720 719 857 855 719 721 794 857 671 
672 808 858 806 671 858 859 768 769 
860 767 769 770 861 860 771 772 862 
863 772 773 864 862 773 774 865 864 
774 775 866 865 775 776 867 866 776 
777 868 867 777 778 869 868 778 779 
870 869 779 780 871 870 780 781 872 
871 781 782 873 872 782 783 874 873 
783 784 875 874 784 785 876 875 785 
786 787 877 876 785 877 878 722 723 
879 793 723 724 880 879 724 725 881 
880 725 726 882 881 726 727 883 882 
727 728 884 883 728 729 885 884 729 
730 886 885 730 731 887 886 731 732 
888 887 732 734 889 888 734 890 891 
889 734 733 892 890 733 735 893 892 
735 736 894 893 736 737 895 894 737 
738 896 895 738 739 897 896 739 740 
741 897 741 742 898 897 742 743 899 
898 743 744 900 899 744 745 901 900 
745 758 902 901 758 903 904 902 758 
757 905 903 757 747 906 905 747 746 
907 906 746 748 908 907 748 749 909 
908 621 762 755 620 762 761 910 911 
761 763 912 910 765 764 913 914 764 
766 915 913 766 767 860 915 794 795 
916 857 795 796 917 916 796 797 918 
917 797 798 919 918 798 799 920 919 
799 800 921 920 800 801 922 921 801 
802 891 922 802 803 923 891 803 804 
924 923 804 805 925 924 805 806 926 
925 808 807 927 928 807 809 929 927 
809 810 930 929 810 811 931 930 811 
812 932 931 812 813 933 932 813 814 
934 933 814 815 935 934 815 816 936 
935 816 817 937 936 817 818 938 937 
819 820 939 940 820 821 941 939 821 
822 942 941 822 823 943 942 823 824 
944 943 824 825 945 944 825 826 946 
945 827 828 947 948 828 829 949 947 
829 830 950 949 830 831 951 950 831 
832 952 951 832 833 953 952 833 834 
954 953 834 835 913 954 835 836 914 
913 818 819 940 955 938 818 955 956 
770 771 863 957 861 770 957 958 826 
827 948 959 946 826 959 960 836 837 
961 914 837 838 962 961 838 839 963 
962 839 840 964 963 840 841 965 964 
841 842 966 965 842 843 967 966 843 
844 968 967 844 845 969 968 845 846 
970 969 846 847 971 970 847 848 972 
971 848 849 973 972 849 850 974 973 
850 851 975 974 851 852 976 975 852 
853 977 976 853 854 978 977 854 856 
904 978 856 979 902 904 751 752 980 
981 752 753 982 980 753 754 983 982 
754 760 984 983 760 985 986 984 760 
759 987 985 759 756 911 987 756 755 
762 911 962 963 910 912 963 964 911 
910 964 965 987 911 965 966 985 987 
966 967 986 985 929 930 988 989 930 
931 990 988 931 932 991 990 932 933 
992 991 933 934 993 992 934 935 994 
993 935 936 995 994 956 878 877 996 
967 968 997 986 968 969 998 997 969 
970 999 998 970 971 1000 999 971 972 
1001 1000 972 973 1002 1001 973 974 1003 
1002 975 976 1003 974 976 977 1004 1003 
977 978 1005 1004 978 904 903 1005 903 
905 1006 1005 905 906 1007 1006 906 907 
1008 1007 907 908 1009 1008 908 909 1010 
1009 909 751 981 1010 749 750 751 909 
857 916 1011 855 916 917 1012 1011 917 
918 1013 1012 918 919 1014 1013 919 920 
1015 1014 920 921 1016 1015 921 922 1017 
1016 922 891 890 1017 897 898 1018 896 
898 899 1019 1018 899 900 1020 1019 900 
901 1021 1020 901 902 979 1021 890 892 
1022 1017 892 893 1023 1022 893 894 1024 
1023 894 895 1025 1024 895 896 1018 1025 
1005 1006 1026 1004 1006 1007 1027 1026 1007 
1008 1028 1027 1008 1009 1029 1028 1009 1010 
1030 1029 1010 981 1031 1030 981 980 1032 
1031 982 983 1032 980 983 984 1033 1032 
984 986 997 1033 891 923 1034 889 923 
924 1035 1034 924 925 1036 1035 925 926 
1037 1036 859 858 1038 1039 793 879 1040 
791 879 880 1041 1040 880 881 1042 1041 
881 882 1043 1042 882 883 1044 1043 883 
884 1039 1044 927 929 989 1045 885 886 
1037 1046 956 955 1047 878 955 940 1048 
1047 940 939 1049 1048 939 941 1050 1049 
941 942 1051 1050 942 943 1052 1051 943 
944 1053 1052 944 945 1054 1053 945 946 
1055 1054 946 960 1056 1055 960 1057 1058 
1056 960 959 1059 1057 959 948 1060 1059 
948 947 1061 1060 947 949 1062 1061 949 
950 1063 1062 950 951 1064 1063 951 952 
1065 1064 952 953 1066 1065 953 954 1067 
1066 954 913 915 1067 886 887 1036 1037 
887 888 1035 1036 888 889 1034 1035 860 
861 1067 915 861 958 1066 1067 787 788 
996 877 1066 958 1068 1065 958 957 1069 
1068 957 863 1070 1069 863 862 1071 1070 
862 864 1072 1071 864 865 1073 1072 865 
866 1074 1073 866 867 1075 1074 869 870 
1076 1077 870 871 1078 1076 871 872 1079 
1078 872 873 1080 1079 873 874 1081 1080 
874 875 1082 1081 875 876 1083 1082 876 
878 1047 1083 788 789 995 996 789 790 
994 995 790 792 993 994 792 1084 992 
993 1047 1048 1082 1083 1048 1049 1081 1082 
1049 1050 1080 1081 1050 1051 1085 1080 1051 
1052 1086 1085 1052 1053 1087 1086 1053 1054 
1088 1087 1054 1055 1089 1088 1055 1056 1077 
1089 1056 1058 869 1077 1065 1068 1069 1064 
1060 1061 1090 1091 1061 1062 1092 1090 1062 
1063 1093 1092 1063 1064 1069 1070 792 791 
1040 1084 856 855 1011 979 1070 1071 1093 
1063 1017 1022 1094 1016 1022 1023 1095 1094 
1019 1020 1096 1097 1020 1021 1098 1096 1021 
979 1011 1098 1071 1072 1092 1093 1072 1073 
1090 1092 1073 1074 1091 1090 997 998 1099 
1033 998 999 1100 1099 999 1000 1101 1100 
1000 1001 1102 1101 1001 1002 1103 1102 1002 
1003 1004 1103 867 868 1104 1075 868 869 
1058 1104 1032 1033 1099 1031 1058 1057 1105 
1104 1074 1075 1106 1091 1075 1104 1105 1106 
1038 1107 1044 1039 1077 1076 1088 1089 1107 
1108 1043 1044 1076 1078 1087 1088 1043 1108 
1045 1042 1078 1079 1086 1087 1045 989 1109 
1042 989 988 1110 1109 988 990 1111 1110 
990 991 1112 1111 991 992 1084 1112 1080 
1085 1086 1079 1042 1109 1110 1041 1011 1012 
1096 1098 1012 1013 1097 1096 1004 1026 1027 
1103 1013 1014 1113 1097 1027 1028 1102 1103 
1016 1094 1095 1015 1028 1029 1101 1102 1100 
1101 1029 1030 1030 1031 1099 1100 858 808 
928 1038 1045 1108 928 927 1108 1107 1038 
928 912 763 765 1114 1114 765 914 961 
962 912 1114 961 995 936 937 938 938 
956 996 995 1113 1014 1015 1095 1023 1024 
1113 1095 1025 1018 1019 1097 1113 1024 1025 
1097 1037 926 1115 1046 926 806 859 1115 
1115 859 1039 884 1046 1115 884 885 1110 
1111 1040 1041 1111 1112 1084 1040 1059 1060 
1091 1106 1059 1106 1105 1057 
CELL_DATA 1059
FIELD FieldData 6
Stress_X 1 1059 double
-0.00095758092357 -0.00049175182357 -0.00025765394093 -4.3787014874e-05 7.7152122685e-05 0.00017350033158 0.00030012681964 0.00043887918582 0.00040208833525 
0.00030696514295 0.00026429569698 0.00025382151944 0.00023118148965 0.00035387225216 0.0003741098044 0.0002147439518 6.5166088461e-05 -6.4357715019e-05 
-0.00014885867131 -0.00012490351219 -3.9098638808e-05 3.2953266782e-05 0.00013398476585 0.00026560566039 0.00031079089968 0.00034685950959 0.00032373753493 
0.00018035629182 7.0409681939e-05 -6.4035477408e-05 -0.00021126474894 -0.00028025713982 -0.00032663546153 -0.000363258383 -0.00026594565134 -0.00013349947403 
-7.6385862485e-05 -4.2193582885e-06 0.00014316226589 0.00035100860987 0.00073169521056 0.0010261993157 0.001075575361 0.0010058286134 0.0010809437372 
0.001086621196 0.00092412554659 0.00065454194555 0.00042204203783 0.0003509533999 0.00037118050386 0.00036087870831 0.00019320815045 -0.00018065006589 
-0.00054465979338 -0.0010106010595 0.00072378630284 0.0003424800525 0.00012828643958 -6.8511304562e-05 -0.00026523740962 -0.00043219991494 -0.00056811625836 
-0.00059222232085 -0.00056591798784 -0.00046249595471 -0.00031452596886 -0.00018873032241 -3.4502645576e-05 9.7042284324e-05 0.00024798652157 0.0004455105227 
0.0006478788564 0.00088839052478 0.00086314900545 0.00061769323656 0.00054240436293 0.00039912122884 0.00020867036073 2.5065643058e-05 -1.1073841961e-05 
0.00015810955665 0.00022905705555 0.00023602870351 0.00020252076501 3.1226241845e-05 6.2731342041e-05 4.054072997e-05 0.00028234854108 0.00041170432814 
0.00056875642622 0.00059510051506 0.00063722196501 0.00056590227177 0.00059920735657 0.00054321781499 0.00047890344285 0.00040936519508 0.00035939121153 
0.00031281853444 0.00019741256256 8.5424348072e-05 -4.4943877583e-05 -0.00022881806944 -0.00032969957101 -0.00041547650471 -0.00027508643689 5.8363082644e-05 
0.00046208142885 0.00083902286133 0.0013887981186 0.001363965217 0.0010112224845 0.0008978471742 -0.0003846011532 -0.0001379212481 3.1921190384e-05 
0.00015624467051 0.00021990515233 0.00025119999191 0.00044336658902 0.00053423881764 0.00042773474706 0.00036007119343 0.00033693690784 0.00039219396422 
0.00049792911159 0.00055855512619 0.00050073844614 0.00035283053876 0.00016012460401 6.6269230956e-06 -8.5975108959e-05 -6.6302854975e-05 3.2886864574e-06 
5.5051579693e-05 0.00018421142886 0.0002282353089 0.0002438526717 0.00014246744104 -1.9829498342e-05 -0.00013406030484 -0.00021412203205 -0.00025016098516 
-0.00025291895145 -0.00025200031814 -0.00016714376397 -3.6453714074e-06 0.00011267227819 0.00020147918258 0.00034014656558 0.00057588837808 0.00083268637536 
0.0011264692293 0.0012421226129 0.0011010295711 0.00095419009449 0.00079026620369 0.0006547277444 0.00056039512856 0.00053253630176 0.00048241714831 
0.00050486263353 0.00055320526008 0.00059147953289 0.0004694579402 0.00010032657883 -0.00024219330226 -0.00052782328567 -0.00055801233975 0.00042603546171 
0.00032152139465 0.00021243077936 -2.2821690436e-05 -0.00023123496794 -0.00035884790123 -0.00042012450285 -0.00033966140472 -0.00024329693406 -6.7172215495e-05 
5.3713123634e-05 0.0001127460273 0.00018347924924 0.00025129978894 0.00036147175706 0.00046828156337 0.00063274253625 0.00077474949649 0.00072409305722 
0.00067409843905 0.00059206713922 0.00040291171172 0.00015484854521 7.8174009104e-05 0.0001844058861 0.00031027838122 0.0003633874876 0.00024647713872 
0.00016095407773 7.9522826127e-05 9.827719623e-05 0.00020798342302 0.00039074770757 0.00043210943113 0.00055675912881 0.0005996657419 0.00058659043862 
0.0005502741551 0.00046459311852 0.00029679379077 0.00025616254425 0.00027927293559 0.00027279433561 0.00024197476159 0.00010120919615 -3.9446495066e-05 
-8.3783364971e-05 -0.00013477975153 -0.00012254754256 9.1697613243e-05 0.00042010884499 0.00089168432169 0.0013047981774 0.0015787919983 0.0010781013407 
0.0007733621751 0.00082818121882 0.00070261408109 -5.8102676121e-05 0.00010183019185 0.00020141272398 0.00023290578974 0.00026292930124 0.00037254011841 
0.00047465242096 0.00044032142614 0.00039651989937 0.00040877744323 0.00044650028576 0.00059142359532 0.00065326748881 0.00064944033511 0.00052304705605 
0.00036378912046 0.00021766420105 0.00010793927504 6.5146661655e-05 0.00011357012409 0.00012881800649 0.00016388634685 0.00013340217993 3.2085794373e-05 
-6.2450846599e-05 -0.00015947544307 -0.00020613921515 -0.00019453262212 -0.00013202719856 -6.3850355218e-05 4.7628327593e-05 0.00020897858485 0.00033972028177 
0.00044432480354 0.00060894986382 0.00080871605314 0.0010333926184 0.0011684901547 0.0011730226688 0.001024991856 0.00085905339802 0.00047849738621 
0.0004037298786 0.00040980044287 0.00042300036876 0.00049247907009 0.00051208765944 0.00057743943762 0.00056255061645 0.00030678333133 4.0637900383e-05 
-0.00020604983729 -0.00029255138361 -0.00022427474323 9.5198840427e-05 0.00013964179379 0.0006160120829 0.00065879820613 0.00037685688585 0.00031273812056 
0.00012648761913 -6.5235537477e-05 -0.00021516096604 -0.00026525906287 -0.0002139924909 -9.361056982e-06 0.00012416706886 0.00018825643929 0.00019314141537 
0.00025418229052 0.00024610900437 0.00028934897273 0.00033209484536 0.00043234144687 0.00054661324248 0.00064579176251 0.00067772652255 0.00065538240597 
0.00053131475579 0.00026960825198 0.00015406229068 0.00029727662331 0.00042877433589 0.00046930153621 0.0003904455225 0.00027197445161 0.00021913467208 
0.00017423056124 0.00026771755074 0.00038663868327 0.00046925956849 0.00056448485702 0.00057825882686 0.00053480442148 0.00046469975496 0.00037282594712 
0.0002431445173 0.00021266561816 0.00024836766534 0.00029448379064 0.00027248298284 0.00015684230311 8.5302366642e-05 8.6101215857e-05 2.4711012884e-05 
0.00010589992598 0.00032460130751 0.00065044732764 0.0010036790045 0.0010953651508 0.00093712919625 0.00069863704266 0.00061358115636 0.00063834618777 
0.00055950792739 0.00042071772623 0.00047756911954 0.00037986366078 0.00028285634471 0.00024515626137 0.00034992638393 0.00046587255201 0.00055744568817 
0.000591545715 0.00060852913884 0.00060707423836 0.00056268257322 0.00032386832754 2.6656776754e-05 -0.00019826785137 -9.44131898e-05 3.7429719669e-05 
0.0001813947456 0.00024115675478 0.00026674484252 0.00026734694256 0.00031586785917 0.00036493546213 0.00035310568637 0.00035402897629 0.00038207625039 
0.00044651076314 0.00058444374008 0.00074641674291 0.0007481026696 0.00066784280352 0.0005257158773 0.00041795329889 0.00034068810055 0.00027540969313 
0.00027434687945 0.00027321014204 0.00025339031708 0.0001875081216 0.00011865932902 7.3230046837e-05 2.5936344173e-05 2.1967529392e-05 -2.9779617762e-05 
-5.753676669e-05 -0.00011994357919 -0.00011962098506 -5.5513057305e-05 4.4857053581e-05 0.00014107226161 0.00027798546944 0.00041997764492 0.00055030273506 
0.00071580871008 0.00085885298904 0.00099907838739 0.0011341415811 0.0012110448442 0.0011581393192 0.00099879910704 0.00084173702635 0.00067225279054 
0.00051563774468 0.00031926494557 0.00031032337574 0.00035444926471 0.00025746657047 0.00011370901484 4.1708863137e-06 -3.5413020669e-05 -1.4069431018e-05 
0.00012973595585 0.00034613523167 0.00032172322972 0.00030137875001 0.00029203147278 0.00028229271993 0.00021540350281 0.00022036943119 0.00024189244141 
0.00055404158775 0.00063185614999 0.00067303760443 0.00059003167553 0.0003613801382 0.00026964649442 0.00040191106382 0.00049214763567 0.00055783585412 
0.00049648986896 0.00040770717897 0.00033286336111 0.00030873841024 0.00036589414231 0.00045445392607 0.00049208191922 0.00054790393915 0.00049261952518 
0.00042381108506 0.00038334718556 0.00030542333843 0.00022619440279 0.00021361652762 0.00025956903119 0.00030910046189 0.00030743450043 0.00024239507911 
0.00024600437609 0.00023672512907 0.0002165719925 0.00029698299477 0.00052457145648 0.00081344950013 0.00094741751673 0.00083867413923 0.00056615535868 
0.0003977768356 0.00044458388584 0.00048852036707 0.00045104513993 0.00037214095937 0.00037485788926 0.00041996853543 0.00030428651371 0.00022765951871 
0.00013887097884 0.00015386486484 0.0003117727756 0.0004777428112 0.0006296572974 0.00065918604378 0.00063676119316 0.00063410704024 0.00065011938568 
0.00064977689181 -9.5277486253e-05 2.4997863875e-05 0.00012658639753 0.00020837751799 0.00030437641544 0.00029955827631 0.00028339665732 0.00028503808426 
0.00026580825215 0.00027675350429 0.00028085280792 0.0003236704797 0.00040723802522 0.00053828541422 0.00071309000487 0.00081394001609 0.00076820841059 
0.00067630782723 0.00056128576398 0.00050034193555 0.0004186189035 0.00037853381946 0.00039095128886 0.00034373119706 0.00030174132553 0.00022652368352 
0.00015875294048 8.093946235e-05 -3.0404142308e-05 -2.8083280995e-05 -1.3798530745e-05 -2.0347690224e-05 -6.4606188971e-05 -6.9283923949e-05 -1.0882043171e-05 
9.0712012025e-05 0.0002312745055 0.00037224957487 0.00050337420544 0.00060149817728 0.00070868601324 0.00089908117661 0.0010370134842 0.0011095671216 
0.0011723405914 0.0011719436152 0.0011047119042 0.00097655243007 0.00081806385424 0.00069961231202 0.00049994926667 0.00032896877383 0.00017356664466 
0.00015019773855 0.00012331617472 5.1205555792e-05 0.00040735665243 0.00026809217525 0.00038587936433 0.00047228723997 0.00056966982083 0.00061826145975 
0.00060371047584 0.00043822213775 0.00039877483505 0.00049061671598 0.00057167868363 0.00061341753462 0.00058046041522 0.00051976111718 0.00047463158262 
0.00044977891957 0.00049374153605 0.00052394927479 0.00051024870481 0.00047114936751 0.0003561709309 0.00034752796637 0.00031237877556 0.0002570686629 
0.00022744621674 0.0002295391314 0.00027749990113 0.00034075681469 0.00034894590499 0.00035704058246 0.00040408576024 0.00043309456669 0.00042789368308 
0.00049319089158 0.00066919095116 0.00088421488181 0.00087933399482 0.00070730125299 0.00044814337161 0.00025425772765 0.00032293022377 0.00037186755799 
0.00033600948518 0.0003012214147 0.00034436600981 0.00035772676347 0.00032389571425 0.00027744279942 0.00024485966424 0.00024621549528 0.00024634547299 
0.0003165351809 0.00042375034536 0.00044363187044 0.00036572077079 0.00033992886893 0.00027504388709 0.00018952725804 0.00016410705575 0.00015102858015 
0.00015411520144 0.00020712365222 0.00024769600714 0.00022052056738 8.1154801592e-05 0.00012258852075 0.00025726293097 0.00046139888582 0.00062500167405 
0.00068549870048 0.00068313750671 0.00065206491854 0.00066951976623 0.00076375837671 0.00075418624328 0.00060145789757 0.00029377662577 8.3343787992e-05 
5.1752725994e-05 0.00015150297259 0.00017381290672 0.0002714828006 0.00032981851837 0.00032422840013 0.00031500303885 0.00026742945192 0.00025610241573 
0.0002288390242 0.00024937299895 0.00036727025872 0.00049364462029 0.00061849848134 0.0007927037077 0.0008307408425 0.00077961658826 0.00055168301333 
0.00046645235852 0.00023782713106 0.00024626209051 0.00065430335235 0.00074288796168 0.00044843420619 0.00037109159166 0.0003086492361 0.00023473553301 
0.00013862506603 6.3114181103e-05 -3.4500495531e-05 -4.8557380069e-05 -5.7039010244e-06 -6.9687870564e-05 -5.4250369431e-05 6.3971860982e-06 0.00010123196989 
0.00023824285017 0.00040471350076 0.00057539652335 0.00070744677214 0.0007247797912 0.0007644717698 0.00096262845909 0.0010966411792 0.0011293898569 
0.0011176846456 0.0010426547378 0.00093746592756 0.00087326043285 0.00068881106563 0.00053224130534 0.00032870526775 0.00020795673481 8.310857811e-05 
7.5943818956e-05 7.1539048804e-05 0.00034953269642 0.00043553256546 0.00049678602954 0.00057165027829 0.00059040560154 0.00049440230941 0.00049757171655 
0.00058575277217 0.0006264509866 0.00066769990372 0.00063821586082 0.00060463283444 0.00059519824572 0.00058097875444 0.00055986846564 0.00048057359527 
0.00036621186882 0.00027062461595 0.0003018505522 0.00025039003231 0.0002297655592 0.00023362807406 0.00024697984918 0.00029265732155 0.00036996995914 
0.00043654956971 0.0004985590349 0.00059175991919 0.00063858757494 0.00064976705471 0.00067478930578 0.00077317550313 0.00090502761304 0.00087186985184 
0.00067579536699 0.00041783356573 0.00019538696506 0.00019310427888 0.0002588290954 0.00023764195794 0.0002277653839 0.0003198729828 0.00034677452641 
0.00037042069016 0.00037805215106 0.00043251083116 0.00047568892478 0.00049222091911 0.0004985773121 0.00050928280689 0.00047997018555 0.00040835610707 
0.00035017210757 0.0002860671666 0.0002173500252 0.00015496855485 0.00012538516603 0.00015737536887 0.00014208836365 0.0002143587335 0.00025801052107 
0.00025852388353 0.00029106275178 0.00059218826937 0.00063740630867 -2.7559111913e-05 -4.0262975745e-06 8.1208545453e-06 0.00010911628488 0.00021793859196 
0.00036410122993 0.00053693092195 0.00073554489063 0.00080375513062 0.00076968490612 0.00080614018952 0.00096510071307 0.0010934496531 0.0010872965213 
0.0010399671737 0.00091068726033 0.00074512959691 0.00073082791641 6.8528854172e-05 0.00021339060913 0.00040752626956 0.00059134571347 0.00070884486195 
0.0007185844006 0.00069540762343 0.00069886050187 0.00071920780465 0.00078112113988 0.00071097962791 0.00068241154077 0.00059142743703 0.00036244661896 
0.0001846869709 0.00020350889827 0.0002276297746 0.00027919889544 0.00034946136293 0.00034396469709 0.00034340799903 0.00029607082251 0.00025937607279 
0.00025250006001 0.00024556202698 0.00026376222377 0.00020883214893 0.00020018777286 0.00020949628379 0.00032057156204 0.00046564851073 0.00051737914328 
0.00043433622341 0.00026555891964 0.00015148574312 7.4054354627e-05 0.00037462779437 0.00043962098425 0.0005205773632 0.00056493346347 0.00052203272935 
0.00056677963585 0.00064979563467 0.00066218257416 0.00067299423972 0.00066890905146 0.00065569119761 0.00067925435724 0.00062403891934 0.00054571504006 
0.00042072555516 0.0002819976944 0.00022707713651 0.00023537398374 0.00020595372189 0.00020626054902 0.00023311827681 0.00025445918436 0.00030935037648 
0.00057663046755 0.0006758060772 0.00077868427616 0.00081974465866 0.00081807660172 0.00080850167433 0.00082747003762 0.0008426377899 0.00063921749825 
0.00035210399074 0.0001727945928 0.00010628900782 0.00013661537378 0.0001187623202 0.00015440388233 0.00027424580185 0.00047857439495 0.00040090331458 
-5.8429570345e-05 -9.9475269963e-05 0.0009417795809 0.00093736790586 0.00035368610406 0.00039962449227 0.00043711054605 0.00052107608644 0.00057540088892 
0.00060522038257 0.00059049739502 0.00056847307133 0.00052149489056 0.0004328575742 0.00036927461042 0.00030167200021 0.00023786605743 0.00019243743736 
0.00011650141823 0.00017113376816 0.00017850585573 0.00017778707843 0.00022990860452 0.00026042677928 0.00071839644806 0.0008186493651 0.00082872575149 
0.00082532264059 0.00077435292769 0.00074984144885 0.00063308113022 0.00055842241272 0.00046838697745 0.00052439112915 0.00062169128796 0.00067873537773 
0.00070035835961 0.00035572439083 0.00025479667238 0.00021021460998 0.00017065493739 0.00016181841784 0.00016722240252 0.000238315959 0.00054984772578 
0.00065408379305 0.00057065929286 0.00046749220928 0.00038662052248 0.0002994624665 0.00024943769677 0.00020003836835 0.00012491394591 0.00016159385268 
0.00021315961203 0.00023443800455 0.00024227509857 0.00018481085135 0.00018500538135 0.00024639291223 0.00032141504926 0.0005457609077 0.00052387668984 
0.00032582815038 0.00039283555816 0.00046317453962 0.00051085161977 0.00051253195852 0.0005816211924 0.00069936481304 0.0006887697964 0.00037969165714 
0.00036000419641 0.00033869149047 0.0002947471221 0.00027507028426 0.00063210149528 0.00042440975085 0.00030921580037 0.00030597607838 0.00033694005106 
0.00016465743829 0.00017093228234 0.000235800675 0.00025733828079 0.00035079245572 0.00051933043869 0.00066887727007 0.00079254852608 0.00076403864659 
0.00073473114753 0.00067058438435 0.0006407184992 0.00070283847163 0.00071374734398 0.00071926787496 5.3110084991e-05 0.00018627602549 0.0003623587545 
0.00056427373784 0.00070066080661 0.00074784836033 0.00049771089107 0.00072301272303 0.0005719542969 0.0006471646484 0.00073858292308 0.00084690446965 
0.0009184962837 0.00096441537607 0.00093818356982 0.00090359721798 0.00089358707191 0.00091068726033 0.00096915650647 0.001018517185 0.00093623081921 
0.00076193758287 0.00054873619229 0.00029319399619 0.00013135082554 0.00010538340575 -3.1846531101e-07 1.5938636352e-05 8.8134795078e-05 0.00073457701365 
0.00070308352588 0.00069785042433 -2.237130866e-05 -1.1164467651e-05 0.00052059261361 -5.3062485676e-05 -3.4012366086e-05 1.6260391931e-05 0.00010419140744 
0.00018275590264 0.00032014184399 0.00046776235104 0.00064799672691 0.00085283681983 0.00087751785759 0.00097424112028 0.0010530690197 0.001053961576 
0.00096702767769 0.00084387807874 0.00072104501305 0.0003805377637 0.00021949018992 0.00013918637706 0.00011489801545 0.00076891417848 0.0008844123804 
0.00097314442974 0.0010240591364 0.0010347089265 0.00098141899798 0.00093389116228 0.00092955928994 0.00093479239149 0.00087092991453 -1.3962677258e-05 
0.00066784385126 0.00047203703434 0.0002891678887 0.00010675381782 8.9073408162e-05 0.0002911220945 0.00013417706941 0.00064715987537 0.00050275586545 
0.00036640375038 0.00033221088233 0.00030843142304 0.00026120431721 0.00040229875594 0.00056684791343 0.00061660143547 0.00048693927238 0.00038448226405 
0.00030371002504 0.00023787839746 0.0001960535883 0.00082168541849 0.00088686420349 0.0006470704102 0.00098938355222 0.00073051336221 0.00088244257495 
0.00073154439451 0.00094102846924 0.00069416349288 0.00092697417131 0.0005716587184 0.0009800940752 0.00043349535554 0.00032541662222 0.00023484081612 
0.00020644703181 0.00010268604092 0.0010207080049 0.00032956316136 0.00034319187398 0.00042770491564 0.00018992829428 0.00046186117106 0.00024538661819 
0.00057951471535 0.00029205018654 0.00037330988562 0.00049928994849 0.00067372847116 0.00062313553644 0.00069818925112 0.00037180262734 0.00034677603981 
0.00040947989328 0.00028626553831 0.00037967739627 0.0004528578138 0.00040178353083 0.00042993290117 0.00039783256943 0.00074195803609 0.00071545515675 
0.00074541324284 0.00072890910087 0.00021012086654 0.00010403338092 0.00082900578855 0.00097330351127 
Stress_Y 1 1059 double
-0.00065881712362 -0.00035997561645 -0.00017287243099 -5.333550871e-05 3.6901623389e-05 0.0001762919419 0.00027326482814 0.00044560516835 0.00072946603177 
0.00080396363046 0.00067618413595 0.00047902562073 0.00035140311229 0.00026865609107 0.00012134340068 3.5573655623e-05 5.4837491916e-05 0.00014082049893 
0.00019520465867 0.00029407735565 0.00040271546459 0.00050685094902 0.00055933924159 0.00062636629445 0.0006502129836 0.00072060199454 0.00067646743264 
0.00036745035322 8.427521243e-05 -0.00012779515237 -0.00028236932121 -0.00031283311546 -0.00038099367521 -0.00054925150471 -0.00054426130373 -0.00042482826393 
-0.00044543121476 -0.00041840001359 -0.00033569330117 -0.00013628992019 0.00019535703177 0.00053061801009 0.00091624713968 0.0013279316481 0.0016764065949 
0.0017971341731 0.0016342850868 0.0012175271986 0.00079059897689 0.00053660006961 0.00032734216074 0.0001799834572 6.6415093897e-05 -7.1868846135e-05 
-0.00027933059027 -0.00067738909274 0.00052496191347 0.00034512128332 0.00028302354622 0.00016256317031 3.9152157115e-05 1.3162509276e-05 -7.0517147833e-05 
-9.8849508504e-05 -0.00010357944848 6.1291461861e-06 0.00012931940728 0.0003090412647 0.00047925725812 0.00066645100014 0.0008604034083 0.0010705561144 
0.0013186499709 0.0013666369487 0.0010262327269 0.00045754257008 0.00014764489606 -0.00011121492571 -0.0003885163751 -0.00052862928715 -0.00051823124522 
-0.00037481193431 -0.0002809499565 -0.00026303448249 -0.00039370075683 -0.00066570483614 -0.00073999341112 -0.00059859221801 -4.6643676797e-06 -0.00015503834584 
0.00020343947108 0.0006131901755 0.0009852014482 0.0011088568717 0.0010355307022 0.00085845869035 0.00084629131015 0.00081168825272 0.00071411335375 
0.00058041122975 0.00040241749957 0.00022116822947 6.9847257691e-05 -9.3252681836e-05 -8.9328510512e-05 -0.00010979987564 -8.1929036241e-05 2.5724742954e-05 
0.0001240431593 0.00016597968352 0.00045893134666 0.00047700255527 0.00036550295772 0.00049199268688 0.00035042580566 0.00034615758341 0.00033137894934 
0.00038285632036 0.00046576600289 0.00058183533838 0.00091128860367 0.0011623153696 0.0012316845823 0.0011734161526 0.0010282732546 0.00088809174486 
0.00075243005995 0.00070526247146 0.00074089784175 0.00083761953283 0.00084777409211 0.00086832843954 0.000864346046 0.00090661674039 0.00090545474086 
0.00074772810331 0.00059355061967 0.00043172278674 0.00042671218398 0.00044164896826 0.0003542736813 0.00029049310251 0.00028612258029 0.00031699979445 
0.00034514491563 0.00036258381442 0.00041052381857 0.00042410692549 0.00041270031943 0.00049765093718 0.0006398804835 0.00082401896361 0.00097822153475 
0.0011553299846 0.0013320599683 0.0014219272416 0.0014845642727 0.0015260449145 0.0016129554715 0.0016588912113 0.0016198564554 0.001370555372 
0.0010835648281 0.00082169729285 0.00060282764025 0.00046438645222 0.00036907577305 0.00036745797843 0.00040870442172 0.00041778202285 0.00038459821371 
0.00050993909827 0.00058381730923 0.00057258614106 0.00053493847372 0.00054196303245 0.00055821385467 0.00068225938594 0.00086690939497 0.0011420071824 
0.0013315312099 0.0013697536197 0.0013912341092 0.0014403619571 0.001455783844 0.0013452784624 0.0010935189202 0.0008153631934 0.00057110597845 
0.00045077953837 0.00039582981844 0.00034535911982 0.00027875302476 0.00025440042373 0.00028886421933 0.00032591633499 0.00040428695502 0.00043157988694 
0.00045301520731 0.0003850577923 0.00034794828389 0.00031700963154 0.00056649022736 0.00066583201988 0.00088200782193 0.0010515556205 0.0011724438518 
0.0012522935867 0.001295263879 0.0012580656912 0.0012731577735 0.0013173952466 0.0012920044828 0.001191916177 0.00099404563662 0.00081457261695 
0.00076622894267 0.00069188093767 0.00060397613561 0.00052997615421 0.00041352043627 0.00032077377546 0.00013061641948 0.00011929949687 4.8582034651e-05 
-1.52637258e-05 0.00023141529527 0.00035504900734 0.00037451167009 0.00040576455649 0.0004841882328 0.00058849673951 0.00076397310477 0.0010276328539 
0.0012549997773 0.0013494904852 0.0013471273705 0.001296092174 0.0012088719523 0.0012092700927 0.0012090245727 0.0012339610839 0.0011657694122 
0.0011047142325 0.0010426725494 0.0010188289452 0.0010064456146 0.00094524933957 0.0006110430113 0.00054134428501 0.00047818751773 0.00037207006244 
0.0002851166646 0.00024075752299 0.00024971281528 0.00029160580016 0.00035214639502 0.00039813478361 0.00045928161126 0.00058621459175 0.00070054916432 
0.00076340039959 0.00086408440256 0.0010126034031 0.0011917303782 0.0013269712217 0.0014260282042 0.0014415731421 0.0014077344676 0.0016506460961 
0.0016924878582 0.0016275735106 0.0014088109601 0.001142514986 0.00082217826275 0.00059379352024 0.00043255271157 0.00031241215765 0.00028991233557 
0.00026422849623 0.00028261632542 0.00032896117773 0.00070840964327 0.00077181105735 0.0015230664285 0.0012942961184 0.00047812439152 0.00054194504628 
0.00052831711946 0.00051571510267 0.00050678564003 0.00058221374638 0.0007922022487 0.0011396886548 0.0014584900346 0.0016380962916 0.0016426548827 
0.0016339793801 0.0015463577583 0.0014130014461 0.0012038204586 0.00098903267644 0.0007949018036 0.00059848226374 0.00046102699707 0.00037008739309 
0.00029452689341 0.00019501056522 0.00014429095609 0.00019654304197 0.00023022126697 0.00029199122218 0.00035056099296 0.00037861245801 0.00041585616418 
0.00043990917038 0.00058229884598 0.00072643830208 0.00088628876256 0.001049489365 0.0011506839655 0.0012360747205 0.0013653767528 0.0015001470456 
0.0016130142612 0.0016678702086 0.0017206742195 0.0017661515158 0.0016800281592 0.0014398352941 0.0011757210596 0.00095282035181 0.00071474083234 
0.00055824883748 0.00045066085295 0.00034511595732 0.00024099915754 8.5317027697e-05 0.00016012044216 0.00033705352689 0.00019228135352 0.00025124644162 
0.0003132140846 0.00036037736572 0.0011968659237 0.0012700986117 0.0014317638706 0.0014739471953 0.0014305011136 0.0012870782521 0.0010844888166 
0.00083400896983 0.00061031215591 0.00041924865218 0.00030204537325 0.00031148747075 0.00029071854078 0.00026068888837 0.00037345720921 0.00043292716146 
0.00050140125677 0.00055055413395 0.00066012400202 0.00081812869757 0.0010788128711 0.001285942737 0.0013610551832 0.0013812710531 0.0013772095554 
0.0014066752046 0.0014734911965 0.0015406566672 0.0014665619237 0.0013486185344 0.0012396970997 0.0012207777472 0.0011811823351 0.0011151611106 
0.00099209381733 0.00087746424833 0.00073683931259 0.00064688909333 0.00055912410608 0.00051838211948 0.00043902269681 0.00039839014062 0.00029576435918 
0.00024038589618 0.00021379280952 0.00025575817563 0.00033716668258 0.00042950263014 0.00050739443395 0.0006226238329 0.00077854731353 0.00095907779178 
0.00109937659 0.0011721070623 0.0012404230656 0.0013328215573 0.0014490494505 0.0014823060483 0.001402663067 0.0012920540757 0.0012110675452 
0.0012044184841 0.0012277900241 0.0011991109932 0.00047432089923 0.0004861249181 0.0004994054907 0.00055540649919 0.00069117388921 0.00092877756106 
0.00126981223 0.0017108947504 0.0018276849296 0.0017115664668 0.0015706206905 0.0014481417602 0.0012574130669 0.0010806275532 0.00091027247254 
0.00055726827122 0.00044913674355 0.00038107475848 0.00031046147342 0.00020797720936 0.0001720096916 0.00021296786144 0.00023051974131 0.00031844485784 
0.00036024823203 0.00038486433914 0.00043163439841 0.00050084182294 0.00065421772888 0.000795638829 0.00090840278426 0.0010710431961 0.001156018232 
0.0012726373971 0.0014199260622 0.0015600590268 0.0016938033514 0.0018166595837 0.0019227649318 0.0019869259559 0.0019193610642 0.0016837797593 
0.0014380987268 0.0011528733885 0.00087804475334 0.00065827922663 0.00052499654703 0.00039872192428 0.00022213542252 8.4365259681e-05 0.00014428225404 
0.00033838607487 0.00025340385037 0.00020456424681 0.00024852174101 0.00032400424243 0.00042824493721 0.00065945001552 0.00077858369332 0.0011914628558 
0.0011837014463 0.0011364107486 0.00106229214 0.0009470609948 0.00087536015781 0.00071098638 0.00054631876992 0.00041997001972 0.00029252041713 
0.00025721066049 0.00027134764241 0.00038010583376 0.00045654075802 0.00050751701929 0.00059593672631 0.00069178035483 0.00084922433598 0.0010649100877 
0.0011998971459 0.001275665476 0.0013155789347 0.0013610282913 0.0014290221734 0.0015311362222 0.001575323171 0.0015244673705 0.0014111701166 
0.0013605501736 0.0013281069696 0.0012688140851 0.0011640528683 0.0010648408206 0.00096912070876 0.00083008484216 0.00070060451981 0.00060481368564 
0.00054887041915 0.0004544518597 0.00038140630932 0.00037184674875 0.00035770816612 0.0003152640129 0.00023734630668 0.00022093715961 0.00027483221493 
0.00035763424239 0.00047580178943 0.0006015317631 0.00072866346454 0.00086212053429 0.0010406774236 0.0012315247441 0.0013306757901 0.0013585750712 
0.001397999702 0.0014272325207 0.0014470801689 0.0013854166027 0.0012758380035 0.0012498529395 0.0012385661248 0.0013087498955 0.001308426843 
0.0012687840499 0.0011873740004 0.00024913804373 0.00020147945907 0.00071798212593 0.00066752248676 0.00055078376317 0.00046847166959 0.00039430713514 
0.00033578061266 0.00024396525987 0.00021573949198 0.00022248541063 0.00022942006763 0.0002914997458 0.00033950046054 0.00036659350735 0.00041280977894 
0.00048989587231 0.00065818853909 0.00075441511581 0.00085972895613 0.0010233278153 0.0011546438327 0.0012769006426 0.0014007537393 0.0015292236349 
0.0016824653139 0.0018165628426 0.0019291985082 0.0020174728706 0.0019703367725 0.0017684755148 0.0015595314326 0.0013100471115 0.0010274067754 
0.00078243541066 0.00055775075452 0.0004292363883 0.00021686781838 7.7198455983e-05 0.00015112484107 0.00027931202203 0.00027513183886 0.00021834184008 
0.00022559166246 0.00030066503678 0.00039494293742 0.0004454520822 0.00047560973326 0.00055983255152 0.00068845780334 0.0008787738625 0.0011318493634 
0.0014544074656 0.0017922234256 0.0019094001036 0.0017233944964 0.0015447776532 0.0013607400469 0.0012119469466 0.0011037888471 0.00093103502877 
0.00084775191499 0.0008189631626 0.00079256470781 0.00064306653803 0.001158066676 0.0010550714796 0.00088772329036 0.00073789962335 0.00067240966018 
0.00059305160539 0.00049512821715 0.00040519458707 0.0003282444668 0.00028006944922 0.00021352720796 0.00013773154933 0.00017235838459 0.00027369603049 
0.00030986723141 0.00039876325172 0.00044035099563 0.00051365658874 0.00059864867944 0.00068163208198 0.00082615477731 0.00097769196145 0.0011003058171 
0.0011703802738 0.001256307005 0.0013562805252 0.0014348740224 0.0014988457551 0.0014803271042 0.0014418384526 0.0014307890087 0.00126700697 
0.0011403175304 0.0011231912067 0.0010266783647 0.0014008280123 0.0015103413025 0.00095140835037 0.00078688713256 0.00064009893686 0.00057188648498 
0.00046935735736 0.00042261072667 0.00037515177974 0.00034045451321 0.00034293849603 0.0002675500582 0.00020277865406 0.00022914868896 0.00029897683999 
0.00039959271089 0.00052144244546 0.00065713899676 0.00083801080473 0.00092713686172 0.0010209453758 0.0012083073379 0.0013208686141 0.0013765858021 
0.0014246266801 0.0014445398701 0.0013906366657 0.0013325236505 0.0013161626412 0.0013843992492 0.0013504673261 0.0013319579884 0.001221221406 
0.0012473696843 0.0012505233753 0.00062620046083 0.00058340025134 0.00050843600184 0.00045336797484 0.00038590389886 0.00027780630626 0.00024571255199 
0.00023954070639 0.00022117132903 0.00029363346403 0.000336707104 0.00034724344732 0.0003637833579 0.00058508728398 0.00068634457421 0.0008126461762 
0.00099980272353 0.0011352720903 0.0012629886623 0.0013481731294 0.0014526802115 0.0016009547981 0.0017286359798 0.0017830805155 0.0018496406265 
0.0018529945519 0.0017283776542 0.0015933176037 0.0013894503936 0.0011672079563 0.00093157542869 0.00067154620774 0.00047020267812 0.00027931769728 
0.00016408142983 0.00024402758572 0.00027712999145 0.00025696126977 0.00023805887031 0.0002366763365 0.00029113260098 0.00040359256673 0.00044934180914 
0.0005503698485 0.00068584724795 0.00090144644491 0.0011573361699 0.0014254096895 0.0016840914031 0.0019086545799 0.001943969517 0.0017718574964 
0.0015753784683 0.0013926932588 0.0012344792485 0.0010858417954 0.001006329665 0.00097523030126 0.00095672369935 0.000892078795 0.00076825468568 
0.00073550367961 0.00068816466955 0.00049320986727 0.00041576777585 0.00034790707286 0.00037619817886 0.00016382803733 0.00022916824673 0.00030990707455 
0.00041765175411 0.00055739807431 0.00070874294033 0.00081443577074 0.00093553960323 0.0010058247717 0.0011460741516 0.0012927660719 0.0013554337202 
0.0014241861645 0.0014467294095 0.0014566417085 0.0014521691483 0.001148374984 0.00094782182714 0.0007321939338 0.00061200215714 0.00056558445795 
0.00046369287884 0.0004021624336 0.00033862661803 0.00030448965845 0.00032317449222 0.00021141978505 0.0001844537037 0.00017982556892 0.0002926744055 
0.0003087168443 0.00035589252366 0.00041688533383 0.00046578494948 0.00059371080715 0.00064757006476 0.00078925408889 0.00091292709112 0.00095742754638 
0.00090773333795 0.00083262310363 0.00090597785311 0.0009355659713 0.0010003072675 0.0011023378465 0.0012526714709 0.0010629134485 0.0010591368191 
0.00082451564958 0.00052930053789 0.00045392641914 0.00041617493844 0.00063419359503 0.00055854616221 0.00050775136333 0.00043340478442 0.00032999218092 
0.00028327875771 0.00027033188962 0.00021864569862 0.00025986766559 0.00032272515818 0.00030875261291 0.00035006544203 0.00056736322585 0.00065942358924 
0.00080165395048 0.00099831400439 0.0011134730885 0.0011943451827 0.0012835471425 0.0013883343199 0.0015241380315 0.0016349907964 0.0016606443096 
0.0016917287139 0.0016278016847 0.0015250366414 0.0013589920709 0.0011818904895 0.0010067635449 0.00083539623301 0.00033516957774 0.00024754213518 
0.00028311996721 0.00033343394171 0.00031220845995 0.00026587562752 0.00021895788086 0.00031210071757 0.00042852803017 0.0016709676711 0.001613846398 
0.00023195329413 0.00017298835155 0.00050542666577 0.00072221452137 0.00054014130728 0.00065869319951 0.00081838207552 0.0010482126381 0.001279116259 
0.0015293220058 0.0017194985412 0.0018952409737 0.0019413819537 0.0018008500338 0.001641093404 0.0014792850707 0.0013205101714 0.0012063778704 
0.0011124622542 0.0011135822861 0.0010480829515 0.00093196873786 0.00079316127812 0.00076078722486 0.0014761071652 0.0014926196309 0.0015245040413 
0.0016467791284 0.0017779238988 0.0016303332523 0.0013986692065 0.0012019289425 0.00085220055189 0.0010637863306 0.0013288455084 0.0015845239395 
0.0017821901711 0.00080686347792 0.00098540785257 0.0010933746817 0.0011557032121 0.0012275191257 0.001316943788 0.0014820471406 0.0015153603163 
0.0019006567309 0.0019034019206 0.0018176025478 0.0016891013365 0.0015460887225 0.0014185947366 0.0012847717153 0.0011795468163 0.0011311012786 
0.00095555750886 0.00084334623534 0.00088897132082 0.00092496076832 0.00098096078727 0.0011363883968 0.001256248448 0.0013875284931 0.0013957414776 
0.00067869975464 0.00063617987325 0.00059298059205 0.00050129159354 0.0003809609334 0.00030401695403 0.0003155337472 0.00023319711909 0.00061344605638 
0.00071124720853 0.00084059359506 0.00085518410197 0.00081447267439 0.0002778081107 0.00031859276351 0.0003395837557 0.00040349247865 0.00049532915 
0.00095898058498 0.0010104260873 0.0011326712556 0.0012471979717 0.001398128923 0.0015214858577 0.0015837562969 0.0015976929571 0.001721329405 
0.0018545035273 0.00024339783704 0.00024696131004 0.00030635815347 0.00032617352554 0.00047795721912 0.0011345857056 0.00096975552151 0.00075496581849 
0.00061028334312 0.00055070605595 0.00048662052723 0.00067853718065 0.00034083763603 0.0015194636071 0.0015784553252 0.001572517911 0.0015345663996 
0.0014351924183 0.0013122581877 0.0011834705947 0.0010783879552 0.00098076777067 0.00091054767836 0.00086186121916 0.00070566416252 0.00054954912048 
0.00038189464249 0.00028890499379 0.00027687652619 0.00029803070356 0.00033234170405 0.00024264375679 0.00026288384106 0.00033648029785 0.00033355064807 
0.00030537007842 0.00029436865589 0.00027544578188 0.00026362287463 0.0014487289591 0.00021111374372 0.00024172112171 0.00021570229728 0.000211269391 
0.00022466044175 0.00031110958662 0.00041338137817 0.00055287301075 0.00094857416116 0.0010432212148 0.0011377102928 0.0012633377919 0.0013687136816 
0.0014375823084 0.0014662533067 0.0014961172128 0.0015062263701 0.0013803121401 0.0012558301678 0.0011369361309 0.0014991316712 0.0014996425016 
0.0014294767752 0.0013627340086 0.0013057667529 0.001186351059 0.0011072532507 0.0010587212164 0.0010228044121 0.0009323831182 0.00019444328791 
0.00041767820949 0.00031559172203 0.00026382625219 0.00026451933081 0.0011543957517 0.0007167555741 0.00021056494734 0.00034319297993 0.00035472097807 
0.00074515695451 0.00078402081272 0.00072874006582 0.000241102156 0.00031705846777 0.00041504472028 0.0018448315095 0.0017717127921 0.0016601014649 
0.0015219023917 0.0013746384066 0.0012402655557 0.00070009438787 0.00082184193889 0.001723631518 0.00081962707918 0.00054153596284 0.00069297471782 
0.00049807719188 0.0010660560802 0.00054889352759 0.0011060879333 0.00060785829555 0.0011560025159 0.00068685488077 0.00081922410754 0.00095865223557 
0.0010840266477 0.0010843793862 0.0012226973195 0.00080989167327 0.00070125097409 0.00066301680636 0.0011079551186 0.00055226468248 0.0012521505123 
0.00037435605191 0.0014024432749 0.0015444918536 0.0016644533025 0.00049924541963 0.00059760338627 0.00054106285097 0.00069254840491 0.00062770873774 
0.00072095124051 0.0015999461757 0.0015377323143 0.00039270674461 0.00037794784294 0.00064604071667 0.00049100880278 0.00037749213516 0.00039558261051 
0.00044722185703 0.00039174369886 0.0009397965041 0.0010162920225 0.00054573296802 0.00071798579302 
Stress_Z 1 1059 double
5.5221342336e-05 6.1612547142e-05 2.8065822335e-05 4.9329093599e-05 9.5209295978e-05 0.00016533517919 0.00028695678338 0.00045552011579 0.00058655365137 
0.00042206054786 0.00023068880546 0.00011017925135 3.1637777283e-05 0.00010682498396 1.5270066797e-05 -0.00019535051251 -0.00031945930095 -0.00038617866812 
-0.00039518353879 -0.00025721592829 1.3898155885e-05 0.00034893339034 0.0008066209848 0.0013065519743 0.0015760995448 0.0015486226184 0.0011262093903 
0.0007029492408 0.00039218671736 0.00013689158368 -9.8661032098e-05 -0.00025399404694 -0.00048119697021 -0.00050014577573 -0.00033302648808 -0.00028678996023 
-0.00024468969787 -0.00016949587734 -6.2879684265e-05 6.2304221501e-05 0.00021648776601 0.00030915107345 0.00034281812259 0.00038585512084 0.00054430280579 
0.00069366034586 0.00083243241534 0.00079608731903 0.00068183412077 0.00061316398205 0.00056853151182 0.00050476903562 0.00040614459431 0.00027700996725 
0.00018945816555 7.6207797974e-05 0.0014175001998 0.00076468841871 0.0003773549106 0.00014317349996 -2.3710819733e-05 -0.00020699239394 -0.00032923414255 
-0.00040666558198 -0.00044316856656 -0.00041911701555 -0.00031135239988 -0.00012927943317 2.9709632145e-05 0.00012696495105 0.00020285794744 0.00034121368662 
0.0005489764153 0.00083763850853 0.00098318420351 0.00086618948262 0.00077051814878 0.00062054145383 0.0003805772576 0.00017790669517 9.762278205e-05 
6.3121166022e-05 8.4486251581e-05 0.00014552999346 0.00021233034204 0.00022901779448 0.00028335611569 0.00036338096834 0.00051783258095 0.00060065963771 
0.0008107611211 0.0009051237721 0.00095681461971 0.00093797541922 0.00099278299604 0.00081488938304 0.00059597188374 0.00049171870342 0.00044791476103 
0.00039648119127 0.00026277458528 9.0086134151e-05 -9.4929200714e-06 -0.0001766498026 -0.00043204787653 -0.00052938086446 -0.00044974236516 -0.00021429290064 
0.00012474841787 0.00068927102257 0.0015073049581 0.0017540763365 0.0015221823705 0.0015811086632 0.00094285869272 0.00082312128507 0.00073077826528 
0.00069302151678 0.00069617037661 0.00068281765562 0.00077825243352 0.00078023475362 0.00053876749007 0.0003717209911 0.00030320743099 0.00027660801425 
0.00023384125961 0.00024939363357 0.0003315564536 0.00040489868843 0.00042092526564 0.00042472156929 0.0004157256044 0.00049923494225 0.0006843272713 
0.00084946549032 0.0011562139262 0.0014744487125 0.0016431540716 0.0015385324368 0.0013031306444 0.0011413162574 0.0010511665605 0.00096242310246 
0.00084280315787 0.00078685162589 0.00076902541332 0.00069904769771 0.00058518233709 0.00050369289238 0.00045938786934 0.00042657446465 0.00031389857759 
0.0002321726497 0.00018575371359 0.00013246196613 0.00020257945289 0.00034982731449 0.00041193791549 0.00044884206727 0.00052405119641 0.0006101729814 
0.00075228675269 0.00091332115699 0.0010303943418 0.0010409338865 0.00099740643054 0.0010073162848 0.0011396971531 0.0011334535666 0.001220785547 
0.0010086109396 0.00081095081987 0.00061350711621 0.00050564139383 0.00047335025738 0.00047318244469 0.00050928804558 0.00049297203077 0.00049068563385 
0.00042138001299 0.00031033795676 0.00022796499252 0.00019255363441 0.00025441823527 0.00034129497362 0.00046840362484 0.00058842054568 0.00069701694883 
0.0008205716149 0.00091536052059 0.00097003305564 0.0009341253317 0.00090081774397 0.00095403264277 0.0010822099866 0.001195967081 0.0011532964418 
0.001095756772 0.001020643278 0.0010012089042 0.00093516678317 0.00085993349785 0.00069701921893 0.00064747332362 0.00063512549968 0.00066271203104 
0.00066639663419 0.00055168679683 0.00031966646202 0.00026825358509 0.00033033732325 0.00041807521484 0.00050132692559 0.00046403225861 0.0004328575742 
0.00050412962446 0.00056100293295 0.00056819530437 0.0006072417018 0.00071804109029 0.0010184209095 0.0013791157398 0.0017779063201 0.0017792884028 
0.0016018648166 0.0014877064386 0.0013893559808 0.0011432868196 0.0010612055194 0.0010233878857 0.0009526842623 0.000883722445 0.00083581515355 
0.00075878563803 0.00053872604622 0.00034385497565 0.00021874527738 0.00013795153063 0.00017458181537 0.00019439579046 0.00026806467213 0.00031194183975 
0.00035004626261 0.00040286133299 0.00046508479863 0.00056463520741 0.00075211509829 0.0013132955646 0.0015956488205 0.0017074305797 0.0016467880923 
0.0015385231236 0.0014844739344 0.0014778551413 0.0014570687199 0.0013778413413 0.001256459509 0.001117099775 0.00098337687086 0.00079563033069 
0.0005739426706 0.00043369087507 0.00033283678931 0.00027078462881 0.00020120647969 0.00020346195379 0.00022308700136 0.0002609922376 0.00047465279931 
0.00053982692771 0.00059266592143 0.00071091222344 0.00093749078223 0.0011349155102 0.0013305250322 0.0013577496866 0.001311056898 0.0013943284284 
0.0015104208142 0.0014792862348 0.0012814234942 0.00105070055 0.00088783638785 0.00039367537829 0.00028657191433 0.0012114575366 0.0010226659942 
0.00078871374717 0.00061890151119 0.0005134504172 0.00049606099492 0.0004992041504 0.00049331405899 0.00037915955181 0.00029256372363 0.0001993792248 
0.00016520151985 0.00012868612248 0.0002173436369 0.00035560241668 0.00054487760644 0.00065944448579 0.00082424783614 0.00097961153369 0.0010895258747 
0.0011633271351 0.0011329853442 0.0011535098311 0.001361855655 0.0016053696163 0.0016761826118 0.0015832115896 0.001418773667 0.0013127501588 
0.0012127927039 0.0011752794962 0.0010039453628 0.00081335456343 0.0006582091446 0.00058854912641 0.00059049099218 0.00056926446268 0.00046020973241 
0.00030530826189 0.00025462711346 0.00029466350679 0.00040643071407 0.00048218303709 0.00050113047473 0.00053873925935 0.00058512325631 0.0006208094419 
0.0006913957186 0.00078496529022 0.00090649712365 0.0010682911379 0.001251900685 0.0016077734763 0.0018240717473 0.0016435899306 0.0015053804964 
0.0014345993986 0.0013414208079 0.00025619749795 0.00030616269214 0.00038845493691 0.00049181672512 0.00063481874531 0.00082444428699 0.0010405312059 
0.0012706911657 0.0014481996186 0.0015312493779 0.0015928184148 0.0016810676316 0.0016971869627 0.001582921017 0.0014224053593 0.0012950028758 
0.0012491180096 0.0011903737905 0.0011154374806 0.0010068130214 0.00091409008019 0.00078613561345 0.00055925030028 0.00036960581201 0.00024001466227 
0.00015700145741 0.00015508850629 0.0002295083541 0.00026971945772 0.00030241010245 0.00036177807488 0.00044854937005 0.000563866226 0.00067117833532 
0.00078049657168 0.00085012643831 0.00090873538284 0.00095458334545 0.0011072458001 0.0013195950305 0.0014732375275 0.0016231331974 0.0016455699224 
0.0016408875817 0.0016519057099 0.0017169811763 0.0017957888776 0.0017892381875 0.0016794867115 0.001508776797 0.0013294671662 0.0011097888928 
0.00086569081759 0.00061409472255 0.00043633222231 0.00032861329964 0.00029034679756 0.00025255794753 0.0002316711616 0.00023917884391 0.00022949183767 
0.00021972687682 0.00020492177282 0.00023666581546 0.0012148289243 0.0010091124568 0.00079920043936 0.00065733731026 0.00059490156127 0.00055658398196 
0.00051741534844 0.00048631976824 0.00032077686046 0.00019617223006 0.00013523787493 0.0001566845749 0.00019677435921 0.00034169282299 0.00042367275455 
0.0008956186939 0.0010693365475 0.0012171188137 0.0012925001793 0.0012971005635 0.0014099330874 0.0016738893464 0.0019176638452 0.0020165909082 
0.0018950505182 0.0017119317781 0.0015276684426 0.0014364031376 0.0012950217351 0.0010911888676 0.00085649918765 0.00072456139605 0.00063231290551 
0.00057514884975 0.00050688505871 0.00036307590199 0.0002491537889 0.00022399472073 0.00026960927062 0.00037293793866 0.0004538759531 0.00050940550864 
0.00061923405156 0.00066831492586 0.00071432976983 0.0008183074533 0.00099029368721 0.0011720247567 0.0013424535282 0.001500321785 0.0017017828068 
0.0017668261426 0.001722816145 0.0016390348319 0.001577605959 0.0014967526076 0.0013821574394 0.00069654232357 0.00055518257432 0.00027415360091 
0.00035717058927 0.00054864230333 0.00074204424163 0.00092205603141 0.0011461554095 0.0013371213572 0.0014923227718 0.0016536756884 0.0017897791695 
0.0018696563784 0.0015689310385 0.0014307247475 0.0012965210481 0.0012743588304 0.0012898948044 0.0012370003387 0.0011284330394 0.00099148624577 
0.00078446284169 0.00060190545628 0.00041578759556 0.00028228762676 0.00019777417765 0.00017139675037 0.00020585807215 0.00024051418586 0.00025790656218 
0.00035669715726 0.00046910048695 0.00059714954114 0.00068671652116 0.00075547775486 0.00084388710093 0.00089875882259 0.00096558890073 0.00098092551343 
0.0010307440534 0.0010912729194 0.0011980462587 0.0013650779147 0.0015085418709 0.0016552890884 0.0017010495067 0.0017226040363 0.0017984579317 
0.0019062971696 0.0019767310005 0.0019333483651 0.0017560656415 0.001521397382 0.0012930117082 0.0010692353826 0.00083414802793 0.00059689348564 
0.00043714002823 0.00034940740443 0.00031588203274 0.00026910522138 0.00022839060694 0.0002281954512 0.00018383732822 0.00021244803793 0.00026750264806 
0.00028166850097 0.00025141675724 0.0016742899315 0.0018219845369 0.00064487796044 0.00081685627811 0.0009634346352 0.0011517938692 0.0013070441782 
0.0014174690004 0.0014718278544 0.0016161246458 0.0018948544748 0.0021537346765 0.0022104661912 0.0020766761154 0.0018852226203 0.0016913184663 
0.0015205128584 0.0013552934397 0.0011099060066 0.00088137172861 0.00073195679579 0.00064693001332 0.00057116628159 0.00043332079076 0.00029748710222 
0.00023464646074 0.00022051182168 0.00026104808785 0.00036983357859 0.00042809464503 0.0005212862161 0.00066367222462 0.00077296089148 0.00085366575513 
0.00097745354287 0.0011836678023 0.0014182353625 0.0016178404912 0.001720347791 0.0017596450634 0.0017097557429 0.0017396339681 0.0017925961874 
0.0017300528707 0.001599389594 0.001458751387 0.0012991804397 0.0011228019139 0.00095611193683 0.00080745259766 0.00070077041164 0.00058823899599 
0.00049423385644 0.00042503589066 0.00033065932803 0.00018738998915 0.00014158993145 0.00014623162861 0.00018931206432 0.00029214797541 0.00034058649908 
0.00043531652773 0.00054149248172 0.00068744260352 0.00068180955714 0.00040220565279 0.00062197609805 0.00082551559899 0.0009917296702 0.0011591829825 
0.0013459254988 0.0015496731503 0.0016994309844 0.0018914476968 0.0020630154759 0.0020761149935 0.0020804237574 0.0017922825646 0.0016800413141 
0.0015504283365 0.0013861365151 0.0013026662637 0.0013001206098 0.0013096460607 0.001285983366 0.0012111305259 0.0010574974585 0.00090023153462 
0.00043333132635 0.00030326205888 0.00023127459281 0.00018990976969 0.00017118554388 0.00018596719019 0.00023487536237 0.00037494543358 0.00064720661612 
0.00072210509097 0.00057945284061 0.0007189483149 0.00056142255198 0.00046932700207 0.00089135050075 0.00095120834885 0.0010256966343 0.001070812461 
0.0010503595695 0.0010852164123 0.0011569465278 0.0012594306609 0.001407498843 0.0015189143596 0.0016298925038 0.0016959584318 0.0017900968669 
0.001922199619 0.0020333339926 0.002031408716 0.0018849044573 0.0016158912331 0.0013034020085 0.0011304609943 0.00094146397896 0.00073426112067 
0.00054283486679 0.000399456796 0.00031826173654 0.00026510586031 0.00022642200929 0.00021950878727 0.00018671057478 0.00024378932721 0.00029538682429 
0.00037535451702 0.00043204030953 0.00081569212489 0.0010080683278 0.0012021647999 0.0013987786369 0.0015393957729 0.0015980587341 0.0017574646045 
0.0020467676222 0.0022853503469 0.0023600936402 0.0022254816722 0.0020359128248 0.001826782478 0.0013096610783 0.0010909407865 0.00089682615362 
0.00074939423939 0.00064706156263 0.0005472691264 0.00037649623118 0.00026748416713 0.00022589895525 0.00021338359511 0.00025000426103 0.00033211198752 
0.00042182955076 0.00056854239665 0.00075702642789 0.00090545555577 0.0010362811154 0.0011607686756 0.0013757377164 0.0015991128748 0.0018061182927 
0.0018458210398 0.0017609609058 0.0015845255693 0.001595698297 0.0017257075524 0.0017280426109 0.0015689068241 0.0014213010436 0.0012677728664 
0.0011381944641 0.0010085417889 0.00091057817917 0.00081358308671 0.00070144835627 0.00054972543148 0.00042473181384 0.00030321982922 0.00020435235638 
0.00015243384405 0.00015843313304 0.0001999836677 0.00024442453287 0.00030951324152 0.00043499137973 0.00050891167484 0.00061805028236 0.00071468617534 
0.00077746977331 0.00083240424283 0.0015168706886 0.0016725974856 0.001175022102 0.0012912248494 0.0014947145246 0.0016120531363 0.0017327938695 
0.0018678904744 0.0020101221744 0.0020622827578 0.0018722208915 0.0015303408727 0.0012368647149 0.0010753083043 0.00094323884696 0.00076975219417 
0.00060690043028 0.00045614253031 0.00030058345874 0.00034839267028 0.00062222225824 0.00084664148744 0.00098046311177 0.0011408320861 0.0013633091003 
0.0015743467957 0.001765520894 0.0019230333855 0.0020643321332 0.0022664158605 0.0022519915365 0.002321528038 0.0021852951031 0.0019664240535 
0.0016967216507 0.0015246303519 0.0013988652499 0.0013338399585 0.0013259872794 0.0012977236183 0.0012509427033 0.0011266522342 0.00094551371876 
0.00080722471466 0.00068810972152 0.00062891712878 0.00048038645764 0.00038949557347 0.00028311615461 0.00021728820866 0.00080281903502 0.00086430768715 
0.00091161206365 0.0011628944194 0.0012025736505 0.0011794820894 0.0009890596848 0.00119823555 0.0014372663572 0.0016209243331 0.0017132422654 
0.0018907273188 0.0021721760277 0.0023610955104 0.0023945071734 0.0023134856019 0.0021291300654 0.0019670578185 0.0012410217896 0.0010592307663 
0.00089777610265 0.00077049760148 0.00064424052835 0.00049637176562 0.00035849449341 0.00026825626264 0.00023010451696 0.00020773337747 0.00023934918863 
0.0004781743628 0.00064521562308 0.00083325756714 0.00098157941829 0.0011108283652 0.0012606823584 0.0014532436617 0.00186457159 0.0018561418401 
0.0016830819659 0.0015711465385 0.0015430974308 0.0016324101016 0.0015831557103 0.0014044935815 0.001275581657 0.0003819388221 0.00029559570248 
0.0014324517688 0.0012725205161 0.001728061121 0.0016342259478 0.0011945031583 0.0010880279588 0.00098767213058 0.00090612913482 0.00082894350635 
0.00070743524702 0.0005420834641 0.00040430223453 0.00029288962833 0.00020120035333 0.00017951066548 0.00020186776237 0.00025200960226 0.00032045610715 
0.00033761002123 0.00044050923316 0.00050077802734 0.00054571946384 0.00062226783484 0.00075105193537 0.00018751068274 0.00024457299151 0.00032628330518 
0.00041214097291 0.00050952483434 0.00063559261616 0.00069604889723 0.00077059800969 0.00092369591584 0.00085322320228 0.00077773357043 0.00067713286262 
0.00055036810227 0.00089292402845 0.00077222153777 0.00063188292552 0.00049571163254 0.00037459511077 0.00026409368729 0.00024382819538 0.00030697061447 
0.00040887494106 0.00028142350493 0.00020922273688 0.00020196348487 0.00022908192477 0.00029750177055 0.00036101668957 0.00038131733891 0.00042817083886 
0.00049862579908 0.00058908178471 0.0005382176023 0.0004407223314 0.00035699308501 0.00029025785625 0.00019315609825 0.00018835790979 0.00021905360336 
0.00092599523487 0.0011515466031 0.0014240278397 0.00166017015 0.0018018914852 0.0019714338705 0.0022995213512 0.0024158658925 0.0013682474382 
0.0012955770362 0.0011823117966 0.0010075879982 0.00087000953499 0.0023123975843 0.0020073833875 0.0017177078407 0.0015365711879 0.0014398244675 
0.0004004087823 0.00039861153346 0.00036334106699 0.00025405941415 0.00020407886768 0.00019965425599 0.00021567918884 0.00027833806234 0.00031570656574 
0.00038663676241 0.0023218225688 0.0022514916491 0.0021859644912 0.0020631235093 0.0016022543423 0.0005549484631 0.00077119347407 0.00091990811052 
0.001121588517 0.0013449756661 0.0015862296568 0.0010446843226 0.0019507183461 0.00035584537545 0.00044671414071 0.00055345176952 0.00071139569627 
0.00086372293299 0.00101236091 0.0011616863776 0.0013032710413 0.0014456190402 0.0015500886366 0.0016975046601 0.0017902334221 0.0018656805623 
0.0018852833891 0.0018231539289 0.0016506121028 0.0015429148916 0.0015613629948 0.0015258702915 0.0015034489334 0.0014090816258 0.0021075108089 
0.0021836154629 0.0023181412835 0.0012212131405 0.0014175077667 0.00023067154689 0.0014327532845 0.0014335690066 0.0013954181923 0.0014875853667 
0.0015694081085 0.0016844772035 0.0018082187744 0.0019351105439 0.0014755565207 0.0012132741977 0.001029382227 0.00088266609237 0.0007766688359 
0.00062937004259 0.00050210085465 0.00041458889609 0.0002309512347 0.00021464348538 0.00027142980252 0.00037380045978 0.00049195962492 0.00062271289062 
0.00073879631236 0.00088226801017 0.0010250459891 0.001141441986 0.0012748199515 0.0013906587847 0.0015330677852 0.0016321425792 0.0014242263278 
0.0018513198011 0.001751941978 0.0016178854275 0.0015093543334 0.00047140521929 0.00082724320237 0.0014989997726 0.0022808855865 0.0019967884291 
0.0012566726655 0.0010876710294 0.00094782392262 0.0015768664889 0.0016846460057 0.0017961038975 0.00027456699172 0.00020722167392 0.00020524240972 
0.00024174631108 0.00029699580045 0.00037925122888 0.0019703812432 0.0018092067912 0.00024639361072 0.0018522869796 0.0018850493943 0.0019243811257 
0.001510379836 0.0014437953942 0.0013534717727 0.0012461150764 0.001153205405 0.0010713846423 0.0010074577294 0.00088836497162 0.00077262928244 
0.00064012914663 0.00047795125283 0.00092226057313 0.00090113980696 0.0011027278379 0.0013702951837 0.00037938242895 0.0016396167921 0.00031598442001 
0.0020473808981 0.00024243358348 0.00019946364046 0.00020192636293 0.0014376176987 0.0012244103709 0.0013872166164 0.00098016706761 0.0010944267269 
0.0010220580734 0.00022554241878 0.00026524128043 0.0018250906141 0.0017593144439 0.0014396269107 0.0015704301186 0.001961595146 0.0018601503689 
0.0017290685792 0.0018191597192 0.00073916307883 0.00054035289213 0.001877439674 0.0019069690024 
Stress_XY 1 1059 double
0.00061877048574 0.00040197811904 0.00025795161491 0.00018861165154 0.00014099362306 0.00012370408513 6.0008671426e-05 1.2751853319e-05 0.0001299851574 
0.0001900299394 0.00017683274928 9.4687995443e-05 6.3759820478e-05 7.1255330113e-05 1.6168167349e-05 -5.2472452808e-05 -9.0914923931e-05 -0.00015728303697 
-0.00022155573242 -0.0002120774443 -0.00016577320639 -9.5642753877e-05 -3.4590910218e-05 5.0594255299e-05 0.00012443096784 0.00013075304742 8.7742613687e-05 
-4.2523784941e-05 -0.00017125863815 -0.00023849276477 -0.000245161762 -0.00023645738838 -0.00028357942938 -0.00027800939279 -0.00021475824178 -0.00022157224885 
-0.00027973158285 -0.00036162236938 -0.00046839902643 -0.00058652186999 -0.00077069597319 -0.00089960877085 -0.00085643475177 -0.00078519858653 -0.00071499974001 
-0.0005162798916 -0.00026013035676 -3.6639954487e-05 0.00016388160293 0.00030701025389 0.00037242771941 0.00037168632844 0.00032879738137 0.00035994392238 
0.00047067462583 0.00063256372232 -3.2458319765e-05 -5.9565696574e-05 6.1813834691e-06 0.00010380992171 0.00013912029681 0.00015584277571 0.00014056253713 
0.00010058315092 5.1009683375e-05 9.4817056379e-05 0.00017827795818 0.00029861787334 0.00028005405329 0.00017893819313 4.3812251533e-05 -0.00010523150559 
-0.00015554692072 -0.00021664089581 -0.00018698725034 -0.00014403167006 -0.00012226164108 -0.00011579414422 -0.00020068338199 -0.00028210759046 -0.00027640836197 
-0.00021219128394 -0.00013201357797 -0.00012044914183 -0.00018515987904 -0.00027813157067 -0.00034903211053 -0.00023492886976 -0.00025737565011 -0.00019356780103 
-6.813496293e-05 5.3052837757e-05 8.043202979e-05 3.3795920899e-05 -5.9540245275e-05 -0.00017671844398 -0.00013004372886 -2.6370689739e-05 2.0813968149e-05 
1.6750092982e-05 -1.4560048839e-05 -5.3632371419e-05 1.8429114789e-05 0.00012082999456 0.00017328710237 0.00016721923021 0.00013752587256 7.4444171332e-05 
-2.0723762646e-05 -6.0499962274e-05 -1.8510684185e-06 -9.8417178378e-05 -0.00014379659842 -5.5344185967e-05 0.0001167127848 5.4538002587e-05 1.9346793124e-05 
8.5912288341e-06 -8.585251976e-07 -4.0294748032e-05 -3.2906882552e-05 -1.3002203559e-05 -8.1893762399e-05 -0.00018247088883 -0.00026182486909 -0.00030396017246 
-0.00032036277116 -0.00037060742034 -0.0004217029782 -0.00045102238073 -0.00047451347928 -0.00042580120498 -0.00032482121605 -0.00018434431695 -1.5362016711e-05 
7.6527583587e-05 0.00015433134104 0.00019303671434 0.00020730347023 0.00018708841526 9.3818205642e-05 -2.6027828426e-05 -0.00011321852071 -0.00016531870642 
-0.00020005596161 -0.00022949359845 -0.00025595357874 -0.00028056587325 -0.00033503765007 -0.00042692077113 -0.000539235014 -0.00066873111064 -0.00082724896492 
-0.00096332054818 -0.00099715893157 -0.00092894624686 -0.0007934672758 -0.00058605580125 -0.00029982542037 -1.33429985e-05 0.00018800659745 0.00028336327523 
0.00033195773722 0.00034552899888 0.00029834290035 0.00018391558842 0.00011801774963 0.00013352914539 0.00014607554476 0.00014593830565 -0.00019754386449 
-0.00023258120927 -0.00022606250423 -0.0001960008085 -0.00017534523795 -0.00016979461361 -0.00018233782612 -0.00018392808852 -0.00011163261661 2.9770624678e-05 
0.00014174643729 0.00014447371359 9.9646371382e-05 1.6676985979e-05 -6.6067652369e-05 -0.00017461307289 -0.00031928395038 -0.00040833061212 -0.00036148700747 
-0.00026532818447 -0.00021115380514 -0.00019363459432 -0.00021963827021 -0.00021654901502 -0.0001177356462 -1.1480578905e-05 1.1109116713e-05 -6.3041072281e-05 
-0.00019445260114 -0.00028190755984 -0.00032958234078 -0.00028819605359 -0.0002366463159 -0.00019780090952 -0.00013815153216 -9.7786047263e-05 -8.6761363491e-05 
-0.0001126520001 -0.00013139288058 -0.00013029421098 -7.2876777267e-05 -2.8156926419e-05 -2.526046228e-05 -7.1215334174e-05 -0.0001224574371 -0.00013103584934 
-0.00015947005886 -0.00020506052533 -0.00021962518804 -0.00025603134418 -0.0003039247822 -0.00031638785731 -0.00022497787722 8.4545914433e-05 0.00022314528178 
0.00010986965935 3.0874503864e-05 -8.0646263086e-05 9.0788080342e-06 -1.7461936295e-05 -1.6792302631e-05 -2.3621640139e-05 -4.4315609557e-05 -4.6293873311e-05 
-9.3487193226e-05 -0.00023626352777 -0.00036439386895 -0.0004492708249 -0.00051360059297 -0.0005483260029 -0.00056687544566 -0.00056221784325 -0.00057488610037 
-0.00055949721718 -0.00047208723845 -0.00032649654895 -0.00015362908016 -5.2288510233e-06 0.00012324863928 0.00011084794824 0.00011826564878 0.00017126390594 
0.00015847479517 7.5152689533e-05 -5.6328372011e-06 -5.3587598813e-05 -8.9631139417e-05 -0.00014564780577 -0.00021104463667 -0.00028534329613 -0.0003834280069 
-0.0005094424705 -0.0006533448468 -0.00078969483729 -0.00089488562662 -0.00097509374609 -0.00099185178988 -0.00091447198065 -0.00079026003368 -0.00033870179323 
-5.4467109294e-05 0.00021020244458 0.00036274723243 0.00041753155529 0.00041040277574 0.00034302953281 0.00022086981335 0.00012260153017 8.5809464508e-05 
9.2841102742e-05 9.6831849078e-05 5.3329240473e-05 0.00012226271792 6.2647370214e-05 -0.00055776629597 -0.00064117810689 -0.00022887992964 -0.00026315878495 
-0.0002741056087 -0.00025636208011 -0.00023445182887 -0.00019859930035 -0.000155360176 -8.4502731625e-05 4.880806955e-05 0.00011580387945 0.00010137665231 
5.6421318732e-05 -8.0962427091e-06 -0.0001133141559 -0.00024483900052 -0.00035554968053 -0.00038913785829 -0.00034352642251 -0.00025679930695 -0.00018767631263 
-0.00013273983495 -0.00011264940986 -0.00010294138337 -2.9880045986e-05 5.1875784266e-05 6.8808090873e-05 1.1878988516e-05 -7.7588098065e-05 -0.00015907606576 
-0.00021292100428 -0.0002631933603 -0.00029255714617 -0.00027156568831 -0.00022055904265 -0.00016396188585 -0.00013474927982 -0.00012606478413 -0.00011142282165 
-0.00010117993952 -0.00010044792725 -8.8196175057e-05 -8.0835270637e-05 -9.1602552857e-05 -0.00013625234715 -0.00018759527302 -0.00023877777858 -0.0002795556793 
-0.00030299130594 -0.00032172174542 -0.00033987048664 -0.00030826867442 -0.00018733726756 -1.9820025045e-05 5.1826973504e-05 5.2440933359e-05 -1.3334187315e-05 
-8.4268562205e-05 -0.00016927250545 -0.00047471298603 -0.00043612584705 -0.00025255509536 7.9892070062e-06 0.00025242514675 0.00040356520913 0.00045101213618 
0.00042533167289 0.00035487176501 0.00024613027927 0.00013654453505 8.1469297584e-05 5.5320721003e-05 5.9812344261e-05 3.685676711e-05 -4.0152846736e-07 
-3.0723054806e-05 -3.3101616282e-05 -3.5559558455e-05 -5.2282361139e-05 -8.2010978076e-05 -0.00014646953787 -0.00026643820456 -0.00038997837692 -0.00049290136667 
-0.00057900894899 -0.000651902752 -0.00068312190706 -0.00067029456841 -0.00065609428566 -0.00059958919883 -0.00048820095253 -0.00032229724457 -0.00015516864369 
-4.5914104703e-05 -2.5056488084e-06 1.7056348952e-05 7.3565039202e-05 9.8972173873e-05 8.6937907327e-05 3.894584006e-05 3.3747277485e-05 0.00010152575123 
0.00014876715431 0.00011437156354 4.0765942686e-05 -1.4502894373e-05 -6.3596642576e-05 -0.0001399939938 -0.00024887913605 -0.00036211972474 -0.00046496410505 
-0.00056775112171 -0.00069126999006 -0.00080921989866 -0.00089574360754 -0.00093975005439 -0.00092462438624 -0.00083770306082 -0.00069652445382 -0.00056365947239 
-0.00042837709771 -0.00031096555176 -0.00034443396726 -0.00027282591327 -0.00030457749381 -0.00031432305695 -0.00028267610469 -0.00020831433358 -0.00011351772991 
-8.8784745458e-06 6.1530881794e-05 8.7261068984e-05 5.8383950091e-05 1.4411173652e-05 -6.1404120061e-05 -0.00016094029706 -0.00023348306422 -0.00029442517553 
-0.00028854349512 -0.00021620976622 -0.0001415751758 -7.7086566307e-05 -4.9217203923e-05 -3.7141493522e-05 1.7938396923e-05 7.0891379437e-05 7.5251686212e-05 
4.724669634e-05 -2.424259219e-05 -9.3435832241e-05 -0.00016065503587 -0.00025299502886 -0.00031157993362 -0.00030048415647 -0.00023721205071 -0.00017601648869 
-0.00015273501049 -0.00014157364785 -0.00011455917411 -9.9263452285e-05 -0.00010067816766 -9.9212229543e-05 -9.9148972367e-05 -0.00010216093506 -0.00013066575048 
-0.00018065885524 -0.00024250688148 -0.00030193911516 -0.00034398137359 -0.00036432847264 -0.00034549474367 -0.00027684454108 -0.00014838273637 -3.3362957765e-05 
3.3324045944e-05 4.7282112064e-05 4.7955986702e-06 -6.1448285123e-05 -0.00014718897 -0.00021689619462 -0.00031956110615 -0.00031694385689 -0.00032774955616 
-0.00017672499234 2.7128773581e-05 0.0002237289591 0.00035640576971 0.00040895343409 0.0003956988221 0.00034208901343 0.00025971920695 0.00017265348288 
0.00010094054596 6.2026614614e-05 5.0473980082e-05 9.2620612122e-06 -2.517610119e-05 -3.7880981836e-05 -4.4089334551e-05 -6.5923210059e-05 -9.372884233e-05 
-0.00014757039025 -0.00024537905119 -0.00037457264261 -0.00049594673328 -0.00059596356004 -0.00068121653749 -0.00072354788426 -0.00071463023778 -0.00068220199319 
-0.00058697059285 -0.00043177229236 -0.00027549613151 -0.00016810477246 -9.8492739198e-05 -5.0591122999e-05 -3.6801593524e-05 -4.1028277337e-05 1.0645727343e-05 
3.2961688703e-05 5.4095322412e-05 4.0282608097e-05 -2.9801783512e-06 -1.5536585124e-05 4.6293578635e-05 0.00011768509285 0.00010133085016 4.4400316256e-05 
-9.826693713e-06 -7.2304464993e-05 -0.0001655472006 -0.00029379612533 -0.00043255640776 -0.00053601333639 -0.0005984698073 -0.00066472188337 -0.0007409567479 
-0.00080783723388 -0.00083964207442 -0.00081317470176 -0.00073262804653 -0.00061998446472 -0.0004955799086 -0.00037954628351 -0.00029133984935 -0.00023694735137 
-0.00023779776529 -0.00024302885868 6.3197498093e-05 8.2275349996e-05 -0.00027963455068 -0.00028226521681 -0.00023222115124 -0.00016298948321 -8.6066400399e-05 
-2.5410257877e-05 -5.0543740144e-06 -1.1979923329e-06 4.1965551645e-05 8.2517886767e-05 9.1060093837e-05 6.6748310928e-05 2.392172064e-05 -3.8098580262e-05 
-0.00012361271365 -0.00022442509362 -0.00029433565214 -0.00028172627208 -0.00021684171224 -0.00016764849715 -0.00017768704856 -0.00016170203162 -0.00012666425027 
-0.00011343643564 -0.00011846230336 -0.00010760181613 -8.9734858193e-05 -9.9707744084e-05 -0.00012607306417 -0.00017453348846 -0.00023059148225 -0.00028207627474 
-0.00032694166293 -0.00037511572009 -0.0003335759975 -0.00022848068329 -0.00010167047003 -3.1512513488e-06 2.0634688553e-05 1.1316128621e-05 -9.8301088656e-06 
-5.7084453147e-05 -0.00014337296307 -0.00021078610735 -0.00026090693427 -0.00030463474104 -0.00032140189433 -0.00028686123551 -0.00020919977396 -0.00011734075088 
-1.0063378795e-05 3.7485915527e-05 9.2912323453e-06 -3.295496208e-05 -8.2928338088e-05 -0.00013953764574 -0.00020175002282 -0.000235532847 -0.00028677654336 
-0.00027565579512 -0.00029529884341 -0.00029899613583 -0.00025437411387 -0.00017983579892 -5.8785528381e-05 7.507736882e-05 0.0001922572992 0.00027146804496 
0.00030028351466 0.00028643760015 0.00025288114557 0.00019186400459 0.00012979509484 0.00010499569908 8.1010352005e-05 5.3992480389e-05 4.650550909e-05 
7.2102193371e-05 4.4007989345e-05 8.5352367023e-06 -2.3673050237e-05 -2.702018719e-05 -4.0429338696e-05 -5.5035499827e-05 -8.8438719104e-05 -0.00012667801639 
-0.00038284278708 -0.00050295045367 -0.00062265282031 -0.00068129523424 -0.00070739141665 -0.00069935026113 -0.00066019687802 -0.00054832897149 -0.0002085265005 
-0.00014172398369 -0.00026645933394 -0.00019225761935 -0.00032202753937 -0.00041710399091 -8.4994979261e-05 -9.2506001238e-05 -0.00010447090608 -6.1097707658e-05 
-2.3163374863e-05 -8.1102807599e-06 1.1271176845e-05 -1.0271622159e-05 -1.9629565941e-05 1.4015658053e-05 7.4978663179e-05 6.1997379817e-05 2.2099995476e-05 
-3.0311923183e-05 -9.1776695626e-05 -0.00019955121388 -0.00034399997094 -0.00045359600335 -0.00053482945077 -0.00055809546029 -0.00059381721076 -0.00063098582905 
-0.00066195323598 -0.00066103425343 -0.00062375637935 -0.00059973454336 -0.00047507142881 -0.00035581694101 -0.00026009450085 -0.0002192358952 -0.00016151832824 
-0.00018807212473 -0.00020849784778 -0.00024111654784 -0.00019565325056 -0.00012611882994 -4.9486803618e-05 1.5621673811e-05 2.7094103643e-05 2.3329244868e-05 
5.1805214753e-05 9.5783849247e-05 0.00010584355914 9.0563087724e-05 6.561713235e-05 2.6587365937e-05 -0.00018412235659 -0.0002259422763 -0.00022088666447 
-0.00021044675668 -0.00020651248633 -0.00019947899273 -0.00017386878608 -0.00013749716163 -0.00011969556363 -0.00011018672376 -9.6420655609e-05 -5.9993359173e-05 
-8.6806612671e-05 -0.00013245383161 -0.00018141100009 -0.00023217410489 -0.00026572888601 -0.00030906856409 -0.00035854539601 -0.00030221516499 -0.00021980826568 
-9.8668206192e-05 7.2373518378e-06 2.327695438e-05 -1.4682692381e-05 -3.8331705582e-05 -7.0280257205e-05 -0.00015269355208 -0.00020602734003 -0.00024962588213 
-0.00027843183489 -0.00029409260605 -0.00026969771716 -0.00022961317154 -0.00017415077309 -0.00011725327204 -9.4055867521e-05 -0.00010183193081 -0.00014058023226 
-0.00018339138478 -0.0002278266038 -0.00025813150569 -0.0002777139598 -0.0003111588012 -0.00032036856283 -0.00036456697853 -0.00035287954961 -0.00029487456777 
-0.00026398609043 -0.00022698745306 -8.2913029473e-05 7.0277915256e-06 -3.1519368349e-05 -1.960319787e-05 2.265353578e-05 3.3867778257e-05 -7.3737205639e-06 
-5.9578866058e-05 -0.00011880834063 -0.00020790853887 -0.00034660243546 -0.00042181817116 -0.00048719494953 -0.00050112663303 -0.00050583708799 -0.00052802672144 
-0.00054514495423 -0.00051504862495 -0.00046851023217 -0.00042703616782 -0.00011989071209 -4.1134015191e-05 5.2630861319e-05 0.00013966437837 0.00020073534688 
0.00021891806682 0.00022697246459 0.00019550228899 0.00015800910478 0.00012765833526 0.00010380450112 8.1802965724e-05 6.2224418798e-05 4.6926459618e-05 
7.2805647505e-05 6.9025882112e-05 3.3015312511e-05 -6.6045745371e-06 -2.0384472009e-05 -3.1944571674e-05 -4.3817504775e-05 -6.57514247e-05 -9.6102747193e-05 
-0.00015363928105 -0.00025601411471 -0.00030461041024 -0.0003527009394 -0.00045010453323 -0.00052994932048 -0.00061717018252 -0.00010318210843 -0.00013321127335 
-0.00013275777746 -0.00012378323299 -7.8207580373e-05 -3.1043942727e-05 -0.00017256186402 -9.0734887635e-05 -6.2600838646e-06 5.0254238886e-05 5.5483415053e-05 
3.3719046769e-05 6.1149636167e-05 9.6092888271e-05 9.8030308436e-05 0.00012121632608 0.0001086031989 9.5708623121e-05 -0.00010994181503 -0.00015558597806 
-0.00017560843844 -0.00019667221932 -0.00023394709569 -0.00020949980535 -0.0001753137476 -0.00013654917711 -0.00011107094906 -9.8576201708e-05 -0.0001058814014 
-0.00012874661479 -0.00017402373487 -0.00021132169059 -0.00023654208053 -0.00026924078702 -0.00028333123191 -0.00027408558526 -0.00021251072758 -0.00010037357424 
-5.1376896408e-06 4.8925235205e-06 -3.1271199987e-05 -6.4762833063e-05 -8.4633444203e-05 -0.00011528898176 -0.00016939771012 -0.00010530598229 -0.00013812151155 
3.2414423004e-06 -4.502129741e-05 -0.00028756470419 -0.0003319568641 -0.00021700275829 -0.00024272219162 -0.00024270865833 -0.00023464667902 -0.00022036938753 
-0.00021279530483 -0.00019860541215 -0.00019456581504 -0.00021723199461 -0.00025716726668 -0.00030623326893 -0.00034732493805 -0.00036170199746 -0.00037052697735 
-0.00038873084122 -0.00038710824447 -0.00041884864913 -0.00041331906687 -0.00033002442797 -0.00021723061218 -0.00064794468926 -0.00060769903939 -0.00053854880389 
-0.00045233540004 -0.00035571758053 -0.00030537010753 -0.00022087463003 -0.00016411852266 -0.00018558801094 -0.00016896027955 -0.00020578330441 -0.00024343941186 
-0.00026897556381 -0.00014682293113 -0.00019671779592 -0.00022861367324 -0.00020720613247 -0.0001653580548 -0.00013375394337 -0.00011219536827 -0.0003014311369 
-0.00028783467133 -0.00032945000567 -0.00038670550566 -0.00043407658814 -0.00045866405708 -0.0004610332835 -0.00044849939877 -0.00043308729073 -0.00047792826081 
-0.00046891736565 -0.00038395766751 -0.00042708820547 -0.00049217027845 -0.00051744881785 -0.00057761266362 -0.00060681928881 -0.00064729742007 -0.00068309705239 
-0.00017292573466 -7.6011725469e-05 1.6304560631e-05 8.2992788521e-05 8.5501553258e-05 4.2064068111e-05 4.4475120376e-05 6.429162022e-05 -8.9239138106e-06 
-2.2788382921e-05 -3.7244179111e-05 -7.4116462201e-05 -0.00013049552217 5.6897515606e-05 8.5399595264e-05 8.9431385277e-05 5.9588463046e-05 1.8890028514e-05 
-0.00052325363504 -0.00055719603552 -0.00056549796136 -0.00058699515648 -0.0005921581178 -0.00059833307751 -0.00058114429703 -0.00055667635752 -0.00047826499213 
-0.0003907008504 0.00012456084369 0.00014200010628 0.00013080891222 0.00013355752162 4.2579704314e-05 -0.0001480084029 -9.9826880614e-05 -2.4800374376e-05 
4.8351765145e-05 0.00012266742124 0.00016158331709 -0.00010242628923 0.00017612650117 -0.00025079329498 -0.00022121809889 -0.00023592812067 -0.00025720093981 
-0.00026341958437 -0.00027497374685 -0.00030073249945 -0.00031312205829 -0.0002920847619 -0.00032410156564 -0.00034844854963 -0.00030328889261 -0.00026781327324 
-0.00018483116583 -8.8413333287e-05 -1.0551010746e-05 -7.0401802077e-06 -4.8504633014e-05 -7.0479007263e-05 -6.5011248807e-05 -8.3060287579e-05 0.00015985639766 
0.00014599198767 0.00012924561452 -3.5338434827e-05 -3.8465306716e-05 -0.00032504706178 -3.5208995541e-05 -1.5656842152e-05 4.9824502639e-06 2.1956684577e-05 
1.1826879017e-05 -2.8135302273e-05 -8.3889011876e-05 -0.00014521667617 -0.00043731645565 -0.00045688395039 -0.00044918779167 -0.00043103616918 -0.00043654421461 
-0.0004316366103 -0.00041565715219 -0.00035501478123 -0.00022995698964 -0.00014781733626 -0.00014332027058 -0.00015937846911 -0.00033275774331 -0.00034098309698 
-0.00034701026743 -0.00034106726525 -0.0003373103682 -0.00034640560625 -0.00035586717422 -0.00034703253186 -0.00038475031033 -0.00037382578012 -2.4318189389e-05 
-0.00013919963385 -6.6770808189e-05 -2.7923002563e-05 6.0555644268e-06 -0.00017147508333 -0.00019191806496 3.0383520425e-05 4.7413985158e-05 9.5473420515e-05 
-6.9132083809e-06 -4.5989843784e-05 -9.9076496554e-05 -1.1415922927e-05 -5.0187863962e-05 -0.00010505482351 -0.00043210756849 -0.00047925376566 -0.00051361625083 
-0.00052644609241 -0.00051679997705 -0.00051122583682 -0.00020002400561 -0.0003112097038 -0.00051498739049 -0.00028514300357 -0.00016824618797 -0.00020842906088 
7.6020514825e-05 -0.00042413425399 5.7683198975e-05 -0.0004202281998 1.7055648414e-06 -0.00039953735541 -6.8497938628e-05 -0.00013118938659 -0.00019124966639 
-0.00021323826513 -0.0001813374256 -0.0003782902204 -9.5693350886e-05 -3.8608199247e-05 1.249782963e-05 -0.00053037854377 8.4860424977e-05 -0.00055628916016 
5.4208769143e-05 -0.00057264365023 -0.00056350976229 -0.00054644915508 -4.1217343096e-05 -5.3225285228e-05 2.7913984013e-06 -0.00014697971346 -0.00017345692322 
-0.00019797647838 -0.00011799958156 -0.00018917728448 8.7712185632e-05 9.5452072856e-05 1.5987508959e-05 6.8002169428e-05 0.00014195544645 9.3697890406e-05 
0.00013644836145 0.00018277519848 -0.00014687217481 -0.00014334556181 -0.00021253482555 -0.00026654574322 
Stress_YZ 1 1059 double
3.4280958062e-05 7.8124350694e-05 5.8153436839e-05 3.290586028e-05 -1.2922721908e-05 -9.0480192739e-05 -0.00016806606436 -0.00024037141702 -0.0003996793821 
-0.00049583584769 -0.0004141832469 -0.00024629657855 -0.00012310882448 -1.8854318114e-05 0.00011348687985 0.00017702995683 0.00022496064776 0.00028348568594 
0.00036621151958 0.00041167921154 0.00043396669207 0.00044272464584 0.00039179043961 0.00019700359553 -8.6388252384e-05 -0.00033943686867 -0.00037625007099 
-0.00036008487223 -0.00041377494927 -0.00044982880354 -0.00041235619574 -0.00031510033295 -0.00028357474366 -0.00020124446019 -3.7569509004e-05 4.9513346312e-05 
2.1753192414e-05 -3.0542494642e-05 -9.1947171313e-05 -0.00016254730872 -0.00021886981267 -0.00024747804855 -0.00012369353499 5.8013207308e-05 0.00028988189297 
0.00052012613742 0.00064592633862 0.00059323356254 0.00047452605213 0.00035206304165 0.00024979663431 0.00016088217671 7.3398950917e-05 3.4549488191e-05 
7.6789719969e-06 -3.0049999623e-05 0.00030250527197 0.00029546921724 0.00024193030549 0.00015776879445 7.3417621024e-05 3.1443149055e-05 1.3196188775e-05 
-1.5330706447e-05 -4.4404780056e-05 -5.2212006267e-05 4.933270975e-05 0.00016176901408 0.00015823397553 0.00012495261035 4.2956078687e-05 -5.1504572184e-05 
-0.00021146799554 -0.00037591185537 -0.00038636653335 -0.00024297936761 -4.3489289965e-05 0.00010791168461 0.00014465699496 0.00012905763288 0.00019918137696 
0.00018743747205 0.00010650193144 7.3067189078e-05 1.5431356587e-05 3.4245722418e-06 5.8046767663e-05 -2.5169931178e-05 0.00016056130698 0.00023712773691 
0.00025814495166 0.00032044673571 0.00029988650931 0.00020518187375 0.00010519153875 0.00011787845142 6.7065149779e-05 -4.9908252549e-05 -0.0001559513621 
-0.00020205171313 -0.00020309269894 -0.0001993955666 -0.00020857075287 -0.00020586687606 -0.00017176174151 -0.00013833623962 -9.7414595075e-05 -7.8322831541e-05 
-8.8580265583e-05 -0.0001180840045 -0.00013457205205 -0.00011586339679 8.2295780885e-05 0.00027182971826 -3.8698326534e-05 -0.00010820530588 -0.00019421560864 
-0.00028571503935 -0.00037856335985 -0.00048892584164 -0.00055659672944 -0.00057819805807 -0.0005167099298 -0.00036939009442 -0.0002341005893 -0.0001522678067 
-7.8060817032e-05 3.3049167541e-05 0.00012460988364 0.00022316932154 0.00033035763772 0.00041556230281 0.00047216226812 0.00051444163546 0.00056372780818 
0.00058589753462 0.00050454289885 0.00033405379509 5.9750567743e-05 -0.00010951962031 -0.00018117092259 -0.00021268526325 -0.00025221440592 -0.0002829747973 
-0.00028015335556 -0.00024325439881 -0.00020571181085 -0.00017948489403 -0.00016683177091 -0.00016025599325 -0.00015891224029 -0.00014523681602 -0.00010043122893 
-1.4024031771e-05 0.00012059127039 0.00027600646717 0.00043970736442 0.00055272923782 0.00064038147684 0.00071416835999 0.00080101727508 0.00084414711455 
0.00078189617489 0.00068709818879 0.00053292873781 0.00034457311267 0.00018873161753 8.2848986494e-05 2.87599687e-05 -9.2679938462e-06 0.00040597617044 
0.00039381496026 0.00032942346297 0.00025310422643 0.00017428054707 0.00012389892072 0.0001206834786 0.00016048678663 0.00021600465698 0.00022602250101 
0.00014333124273 2.6157889806e-05 -8.8956592663e-05 -0.00019357263227 -0.00032730813837 -0.00043953157729 -0.00049639103236 -0.00050011824351 -0.00045528970077 
-0.00032631625072 -0.00021146907238 -0.00010515353642 -4.3785803427e-05 -2.2094764063e-05 1.4393577658e-05 9.1858615633e-05 0.00017059460515 0.00025054387515 
0.00027746288106 0.00026571418857 0.00031502282945 0.00034461379983 0.0004462893412 0.00053611118346 0.00055208138656 0.00049697951181 0.00043471506797 
0.00038926699199 0.00034368073102 0.0002050887706 3.825954991e-05 -0.00012478603458 -0.00026495146449 -0.00034135699389 -0.0003626459802 -0.00035228882916 
-0.00031522737117 -0.00026074721245 -0.00021180220938 -0.00016818697623 -0.00015463060117 -0.00015307651483 -0.00014136389655 -3.6545261537e-05 8.2151585957e-05 
0.00025620908127 0.00033579813316 0.00034917212906 -0.00027950471849 -0.0003772272612 -0.00049661716912 -0.00060322263744 -0.00069763400825 -0.00072735920548 
-0.00069984706352 -0.00063439528458 -0.00051696848823 -0.00039263258805 -0.00028667459264 -0.00017613859382 -5.3330426454e-05 0.00010132377065 0.00026229006471 
0.00039178362931 0.00048813933972 0.00054433260811 0.00059803476324 0.00064495630795 0.00057808862766 0.00044624210568 0.00024363741977 7.0969821536e-05 
-8.2036647655e-05 -0.00018415243539 -0.0002619586885 -0.0003521348408 -0.00042466749437 -0.0004821519542 -0.00052382418653 -0.00055469275685 -0.00054997880943 
-0.00049086939543 -0.00042601724272 -0.00036462632124 -0.0002891656186 -0.00017296108126 -3.7808702473e-05 9.6047704574e-05 0.00020570126071 0.00065621681279 
0.00077057542512 0.00084017659537 0.00086581101641 0.0008303046925 0.00074105226668 0.00058065651683 0.00038716028212 0.00024256293545 0.00011781115609 
1.1354710296e-05 -0.00011368988635 -0.00021808374731 0.00063568458427 0.00063543359283 0.00048493096256 0.00022867877851 0.00050690741045 0.0004775156558 
0.00043329386972 0.00037856059498 0.00033833528869 0.0003538231249 0.00042109217611 0.00046782448771 0.00041341877659 0.00026524273562 0.00010823067714 
-3.6953384551e-05 -0.00018636412278 -0.00031833013054 -0.00040278688539 -0.00042955792742 -0.00048250274267 -0.0004865929659 -0.00040090130642 -0.00031740119448 
-0.0002295866143 -0.00013413513079 -8.5897030658e-05 -2.2392125175e-05 0.00010877379827 0.00026713963598 0.00037033314584 0.00042635845602 0.00046128060785 
0.00051609158982 0.00059165526181 0.00065595074557 0.00070243160008 0.00064140598988 0.00054324907251 0.00048500666162 0.00046971073607 0.00040862726746 
0.00025420461316 6.2294384406e-05 -0.0001319442672 -0.00032164738514 -0.00047004510998 -0.00057199556613 -0.00059529428836 -0.00056714721723 -0.00051738787442 
-0.00044659891864 -0.00038494073669 -0.00032957884832 -0.00027514027897 -0.00023256007989 -0.00011046982399 4.4717926357e-05 0.0002815319167 0.00039892861969 
0.00043628705316 0.00048772027367 0.00017146670143 0.00037058597081 0.00054706219817 0.00068600435043 0.00076704047387 0.00078101787949 0.00075447000563 
0.00067987758666 0.00053895253222 0.00037734172656 0.00021240059868 5.0308688515e-05 -9.5890951343e-05 -0.00022661186813 -0.00030909429188 -0.00035629392369 
-0.00045538123231 -0.00057265814394 -0.00068429333623 -0.00076400651596 -0.00079407315934 -0.00074945634697 -0.00066613976378 -0.00056995777413 -0.00047933854512 
-0.00037732571946 -0.00024577585282 -7.8538781963e-05 0.00010617211228 0.00027775100898 0.00043037807336 0.00051923299907 0.00059584947303 0.00064871809445 
0.00066318921745 0.00064593838761 0.00061084801564 0.00058210565476 0.00056427018717 0.00053161947289 0.00044339775923 0.00030416189111 0.00013859057799 
-3.9426427975e-05 -0.00017938416568 -0.00029080169043 -0.00041198084364 -0.00053600937827 -0.0006453965907 -0.00072004675167 -0.00077171315206 -0.00078416260658 
-0.00071867095539 -0.00061176018789 -0.0005024834536 -0.00039947504411 -0.00028765009483 -0.00014805450337 -2.7233685614e-05 2.696759293e-05 2.8095908419e-05 
4.5755772589e-05 0.00012677045015 0.00018912011001 0.00053701887373 0.00052972545382 0.00051053054631 0.00049037515419 0.00049106345978 0.00053405913059 
0.00057186937192 0.00051907839952 0.0003537745215 0.00017559013213 2.725140439e-05 -0.00011095187074 -0.00023860191868 -0.00034261323162 -0.0003897518036 
-0.00048648871598 -0.00042993959505 -0.00036414005444 -0.00028827067581 -0.00019503862131 -0.00012147520465 -2.266105912e-05 0.00012382028217 0.00027131670504 
0.0003770616604 0.00046155176824 0.00053449266125 0.00060945260338 0.00069661543239 0.00075294438284 0.00074736692477 0.00067283131648 0.0005860394449 
0.00052960176254 0.00048507805332 0.00038824116928 0.00022991646256 4.6571843995e-05 -0.000147296043 -0.00035218772246 -0.00053985242266 -0.0006759998505 
-0.00071986357216 -0.00069436104968 -0.00063134910306 -0.00055652437732 -0.00050116126658 -0.0004384406202 -0.00035424914677 -0.00024838987156 -5.8231395087e-05 
8.3638915385e-05 0.00022261150298 0.00036584603367 0.0004558719229 0.00052353111096 0.00054250261746 -0.00047363480553 -0.00044375707512 0.00032826283132 
0.00046470889356 0.00060571520589 0.00067246082472 0.0006754330243 0.00065559684299 0.00059257057728 0.00048000621609 0.00035176883102 0.00019845053612 
3.3396227082e-05 -0.00032574802754 -0.00036425879807 -0.00043104944052 -0.00049222703092 -0.00059175607748 -0.00069666968193 -0.0007805225905 -0.00079883495346 
-0.00073668843834 -0.00064958364237 -0.00058449205244 -0.000504425494 -0.00039228698006 -0.00023833202431 -6.7444758315e-05 0.00012325965508 0.00028698140522 
0.00044883781811 0.00057749118423 0.00064185378142 0.0006684664404 0.00067595631117 0.00066785188392 0.00064552557888 0.0006155227311 0.00056958111236 
0.00053590320749 0.00050368625671 0.00048529671039 0.00040198548231 0.00030633804272 0.00013114417379 -4.5924360165e-05 -0.00021150993416 -0.00034799837158 
-0.00048962712754 -0.00064815214137 -0.00079158466542 -0.00088182080071 -0.00092634226894 -0.00092984735966 -0.00087613088544 -0.00077714084182 -0.00065614591585 
-0.00053536356427 -0.00040766614256 -0.00026996937231 -0.00015770325263 -0.00010960830696 -9.5118135505e-05 -3.9421025576e-05 7.7015691204e-05 0.00023030223383 
0.00027164979838 0.00029447668931 -0.00020336500893 -0.0001025909296 -0.00048626799253 -0.00050294335233 -0.00050264730817 -0.00047088670544 -0.00042122029117 
-0.00034769758349 -0.00025410074159 -0.00016262743156 -4.8129302741e-05 0.00010047169781 0.00025184472906 0.00036973500391 0.00046863444732 0.00055402779253 
0.00063440314261 0.00071452971315 0.00075085787103 0.00072753569111 0.000670221576 0.00061274232576 0.00053015875164 0.00046096587903 0.00034775779932 
0.00019535743922 2.3979320758e-05 -0.00014808592096 -0.00036579524749 -0.00056438863976 -0.00072185549652 -0.00079819804523 -0.00081195501843 -0.00075750396354 
-0.00067730818409 -0.00061568780802 -0.00056188245071 -0.00043658429058 -0.00026588648325 -2.5697225283e-05 0.00011605709733 0.00020483817207 0.00033194071148 
0.00046608847333 0.00054736871971 0.00056445662631 0.00057518988615 0.00059583957773 0.00062143965624 0.00062954839086 0.00063859607326 0.00064936344279 
0.0006331516779 0.00057623250177 0.00042051228229 0.00023137648532 7.1755755926e-05 -6.4471569203e-05 -0.00018341220857 -0.00028397992719 -0.00035156827653 
-0.0004164573329 -0.00045740231872 -0.00050801085308 -0.00052553648129 0.00045377170318 0.00060578458942 0.0006599528715 0.00065008102683 0.00059815478744 
0.0005427999422 0.00046312739141 0.00036595575511 0.00024838300305 0.00012710165174 -3.008575959e-06 -0.00010860675684 -0.0002163859026 -0.00030341750244 
-0.00039454942453 -0.00044900254579 -0.00049107195809 -0.00052437966224 -0.000595834048 -0.00067456508987 -0.00075127987657 -0.00077422149479 -0.0007244523149 
-0.00054346432444 -0.00046926381765 -0.0003550715046 -0.00020802849031 -4.707334665e-05 0.00012665553368 0.00030554170371 0.00048378121573 0.00068034976721 
0.00068172218744 -0.000606424117 -0.00063715752913 0.00065393571276 0.00059284584131 0.00067288440187 0.00065774796531 0.00063442368992 0.00058893434471 
0.00052702636458 0.00048969493946 0.00049141806085 0.00040412897943 0.00029461513623 0.00013597552606 -6.1392522184e-05 -0.0002416860807 -0.00039643511991 
-0.00055097037693 -0.00072509166785 -0.00088167825015 -0.00098892045207 -0.0010072344448 -0.00097397482023 -0.00093059975188 -0.00085282057989 -0.00075289054075 
-0.00063883460825 -0.00050321640447 -0.0003612212895 -0.00022643887496 -0.00020209573267 -0.00012581887131 2.3364241315e-06 0.0001678957924 0.0003167099203 
0.00039656713489 0.0004514202592 -0.00051141850417 -0.00053043884691 -0.00052175146993 -0.00048588518985 -0.00041566288564 -0.00031192353345 -0.00021555776766 
-0.00010341320012 4.3986728997e-05 0.00021335018391 0.00033876064117 0.00043664130499 0.00051584874745 0.0006747514708 0.00070334068732 0.00068953220034 
0.00064911652589 0.00058940745657 0.00050522416132 0.00042974489043 0.0003151113342 0.00017114618095 2.3561474336e-06 -0.00016531204164 -0.00037647617864 
-0.0005870257155 -0.00075689534424 -0.00085799634689 -0.00090185238514 -0.00087638368132 -0.00081645295722 -0.00074876094004 -0.00067352078622 -0.00052000046708 
-0.00031032858533 -6.052700337e-05 9.0048117272e-05 0.00018460272986 0.00030155689456 0.00046042253962 0.00054502225248 0.00057832431048 0.00060975603992 
0.00064275634941 0.00069012393942 0.00071872794069 0.00074208772276 0.00073634996079 0.00068104156526 0.00058212922886 0.0004186713486 0.00024690805003 
9.1109366622e-05 -4.2639785534e-05 -0.00015057464771 -0.00023872556631 -0.00031798344571 -0.00038070013397 -0.00046550779371 -0.00049967033556 -0.00053119001677 
-0.00054720637854 -0.00054492324125 0.00062090391293 0.00056480942294 0.00044703722233 0.00036023210851 -7.8109638707e-05 -0.00025639458909 -0.00041458729538 
-0.00057700672187 -0.00076401862316 -0.00093264406314 -0.0010309104109 -0.0010246743914 -0.00096708524507 -0.00092035467969 -0.00087135005742 -0.00079439824913 
-0.00069175398676 -0.00056669377955 -0.0003214867611 -0.00044818341848 0.00058660126524 0.00066670536762 0.00066265941132 0.00059958786005 0.0005416549393 
0.00048075508676 0.00040159953642 0.00030941009754 0.00021427265892 0.00012688600691 4.1969309677e-05 -5.747655814e-05 -0.00022245057335 -0.00033251274726 
-0.000403613667 -0.00047817014274 -0.00052972172853 -0.00055579131003 -0.0005921611446 -0.00065851473482 -0.00072483555414 -0.00074787950143 -0.00069795671152 
-0.00063054362545 -0.00057651451789 -0.00057294411818 -0.00052545877406 -0.00048312780564 -0.00039222743362 -0.00027331832098 0.00068746623583 0.00069715816062 
0.00066545070149 0.00061405921588 0.00054263917264 0.00048498797696 -0.00056025601225 -0.00056389451493 -0.00053973024478 -0.00047806592193 -0.00038027251139 
-0.00028250768082 -0.00018027132319 -2.8625790947e-05 0.00014981740969 0.00026600019191 0.00037334652734 0.0004618545936 0.00064851075877 0.00065894605359 
0.00065990205621 0.00063655065605 0.00057195889531 0.00048988423077 0.00040859432193 0.00029800643097 0.00015490080114 -9.5157911346e-06 -0.0001562780235 
-0.00064635917079 -0.00079258583719 -0.00089031358948 -0.00094392395113 -0.00094645132776 -0.0009168474935 -0.00086594629101 -0.00057412777096 -0.00035008139093 
-0.00013384685735 9.3757525974e-06 0.00012608662655 0.00026187184267 0.0003925357305 0.00051206402713 0.00059648096794 -0.00047043594532 -0.00033951969817 
8.0024779891e-05 0.00021996063879 -0.00076177349547 -0.00090469949646 0.00064421759453 0.0006685925764 0.00070126034552 0.00073698558845 0.00076023454312 
0.00073602457996 0.00066195736872 0.00055297097424 0.00039729062701 0.00024099415168 9.4741670182e-05 -4.1092433094e-05 -0.00015283490939 -0.00024607477826 
-0.0003273251059 -0.00036139853182 -0.00043048584484 -0.0004926311085 -0.0005189057556 -0.00056323170429 0.00017270365788 0.00032606686 0.00043938466115 
0.00052466586931 0.0005999468849 0.00068995944457 0.00071607140126 0.0007089706487 0.00067885784665 0.00071353977546 0.00074836239219 0.00072013481986 
0.0006445213221 0.00064588326495 0.00062240794068 0.00055667373817 0.00049177650362 0.00039867471787 0.00027573673287 0.00011431454186 -0.00035459417268 
0.00051911798073 0.00036746490514 0.00021205372468 5.8107336372e-05 -8.1743906776e-05 -0.00019484716177 -0.00028284132713 -0.00035881821532 -0.00039002162521 
-0.00044313570834 -0.00052334408974 -0.00049707450671 -0.00047218767577 -0.00040639509098 -0.00030211627018 -0.0001614993962 2.396318223e-06 -0.00013269833289 
-0.0005669852253 -0.00060092378408 -0.00061340304092 -0.00056221475825 -0.00045368087012 -0.00036458173417 -0.00027391442563 -0.00015166054072 -0.00065653421916 
-0.00071846635547 -0.00072764907964 -0.00067401200067 -0.00061829853803 -0.00030024061562 -0.00039790596929 -0.00050794437993 -0.00058026588522 -0.00062093802262 
-0.00042390672024 -0.00041158378008 -0.0003296493087 -0.00022294085647 -8.0812038505e-05 7.52791384e-05 0.00023445981788 0.00035678085987 0.00041461572982 
0.00047628226457 0.00011822852684 0.00020684757328 0.00030715271714 0.00038919915096 0.00057867891155 0.00053043640219 0.00062341341982 0.00064997322625 
0.00061236310285 0.00056593952468 0.0005198426079 0.00063915463397 0.00037383599556 -0.00045208973461 -0.00056805385975 -0.00069734803401 -0.0008151679649 
-0.00089520961046 -0.00094828987494 -0.00098356057424 -0.00098263123073 -0.00096525007393 -0.00098798063118 -0.001037928625 -0.00094232481206 -0.00080107932445 
-0.00059740949655 -0.00037167413393 -0.00017088468303 -1.97061363e-05 9.5186827821e-05 0.00018201430794 0.00031912222039 0.00046024020412 0.00030367658474 
0.00022249914764 0.00016742841399 0.00038098730147 0.00028888549423 -0.0002342799562 0.00020153721562 0.00016806478379 5.0110647862e-05 -0.00011138695118 
-0.00025492240093 -0.000415374554 -0.00058598234318 -0.00077360752039 -0.0010172048351 -0.00096768204821 -0.00091406778665 -0.00087134010391 -0.00081431574654 
-0.00072172249202 -0.00061535125133 -0.00053136266069 -9.0735753474e-05 9.1904221335e-05 0.00026690660161 0.00039747467963 -0.00061761611141 -0.00072499777889 
-0.00081960007083 -0.00088189274538 -0.00093790137907 -0.00098336860538 -0.0010053229053 -0.0010106108384 -0.0010324888863 -0.0010612615151 0.00011425582488 
-0.00059859297471 -0.0003892420209 -0.00021501851734 1.2969698219e-05 0.00044969818555 -0.00056211173069 -0.00013472069986 -0.00036448525498 -0.00044820338371 
-0.00071203045081 -0.00066507537849 -0.00060838815989 -0.00025227526203 -0.00041203547153 -0.00059325661277 0.00032743249903 0.00016394916747 6.5056992753e-06 
-0.00012969430827 -0.00023785229132 -0.00032472374733 -0.00094598461874 -0.0010416553123 0.00028181617381 -0.0010239871917 -0.00077722617425 -0.00093498767819 
0.00056402070913 -0.0010238017421 0.00058431801153 -0.00099183735438 0.00061425182503 -0.00094220461324 0.00062989688013 0.00063935597427 0.00061725365231 
0.00055243854877 0.00050539750373 -0.00089391740039 0.00065118307248 -0.00063276290894 -0.00067608017707 -0.00035655515967 -0.00064485240728 -0.00027684125234 
-0.00043299261597 -0.00017108678003 -3.4156269976e-05 0.0001220099366 0.00060664396733 0.00062344147591 0.00059920188505 0.00065928365802 0.00065458862809 
0.00066913320916 -5.5900818552e-05 -0.00024166687217 -0.00052792584756 -0.00055640982464 -0.00070812273771 -0.00065888708923 0.00044145877473 0.00049921014579 
0.00051953375805 0.00044451796566 0.00060818897327 0.00053107267013 -0.00078859092901 -0.0009431327926 
Stress_XZ 1 1059 double
5.6363482145e-05 -1.8932449848e-06 -4.8965979659e-05 -7.1844100603e-05 -8.0557605543e-05 -0.00010570111044 -6.3619343564e-05 -3.4995904571e-05 -7.0745751145e-05 
5.9604140006e-06 5.3845629736e-05 8.5090316134e-05 9.9310396763e-05 3.9919545088e-05 1.1510129298e-05 8.2268394181e-05 0.00014830134751 0.00020309153479 
0.00022171421733 0.0002004361304 0.00014124900918 8.0679252278e-05 -1.0983945685e-05 -9.4547773188e-05 -0.00013173771731 -0.00010203553393 -2.7499029329e-06 
-2.3448308184e-06 -0.00010387363 -0.0002505837474 -0.00034500824404 -0.00036549303331 -0.00033916634857 -0.00033410449396 -0.00025402265601 -0.00018289321451 
-0.00015507182979 -0.00012553474517 -6.4761115937e-05 1.5233175873e-05 5.3195515648e-05 6.4499850851e-05 4.3748979806e-05 2.9311388516e-06 -4.26025872e-05 
-5.3647407185e-05 -3.1159514037e-05 2.0782661522e-05 0.00013162230607 0.00026103178971 0.00035435109749 0.00039180915337 0.00034399461583 0.00028020527679 
0.00020523436251 0.00019750595675 -0.00028005463537 -0.00022527152032 -0.00025460260804 -0.0002350123541 -0.00024162638874 -0.00031397884595 -0.00042828576989 
-0.00046966070659 -0.00043402193114 -0.00034123373916 -0.00031714510988 -0.00027201956254 -0.00019640137907 -0.00012829821208 -2.1469557396e-05 0.00011968044419 
0.00027213888825 0.00044192379573 0.00052006210899 0.00051840441301 0.00046636883053 0.00034305863664 0.00023693621915 0.00015349769092 6.1092090618e-05 
7.268119225e-05 0.00010076589388 -1.4798241864e-05 -6.7139168095e-05 -4.8795962357e-05 -0.00014479429228 -9.0425783128e-05 -0.00026293424889 -0.00026480242377 
-0.00018023910525 -0.00012806059385 -0.00017517418019 -0.00024488181225 -0.00030794151826 -0.00033052230719 -0.00027322678943 -0.00020751285774 -0.00016051143757 
-0.00010902256327 -7.2077677942e-06 0.00014758577163 0.00027964351466 0.0003960680624 0.00042835992645 0.00044776836876 0.00043347297469 0.00036330247531 
0.00032974994974 0.00034874820267 0.00040414996329 0.00031183479587 -2.5894029022e-05 -0.0002815881162 -0.00010583751282 -0.00013658544049 -0.00016047208919 
-0.00017598012346 -0.0001694936509 -0.00014829855354 -0.00014964504226 -0.00010110339645 -4.389859896e-05 -2.17110628e-05 -2.5858116715e-05 -3.2670239307e-05 
-4.8330035497e-05 -7.701121649e-05 -6.8948000262e-05 -2.1555582862e-05 3.3944339521e-05 0.00010531093722 0.00015133354464 0.00015033186355 0.00012002634321 
7.7120188507e-05 -4.8636509746e-05 -0.00013396779832 -0.00016930374841 -0.00016511509602 -0.0001170733085 -0.00012835835514 -0.00017278647283 -0.00018703687238 
-0.00015926107881 -7.9618541349e-05 4.8151210649e-05 0.00015830644406 0.00022505353263 0.00026523452834 0.00029847025871 0.00031824150938 0.00031012177351 
0.00021971251408 3.3180607716e-05 -0.00012669512944 -0.00024969651713 -0.00031904943171 -0.00030470019556 -0.00016905229131 1.2780375982e-05 0.00017560849665 
0.00029798992909 0.00041000256897 0.00050200038822 0.00050333951367 0.00044335308485 0.00036153427209 0.0002427740983 -2.796937224e-06 -0.00040781396092 
-0.00031548144761 -0.00022195152997 -0.00015861126303 -0.00015821002307 -0.00018901660223 -0.00022055771842 -0.00019757190603 -0.00010566972196 -1.6900223272e-05 
3.6364715925e-05 7.1063223004e-05 0.0001059332717 0.00012933500693 0.00015283907123 0.00016973390302 0.00023365064408 0.000444522826 0.0006317938678 
0.00064985908102 0.00061726209242 0.0005275325384 0.00038746034261 0.00031100137858 0.00024550428498 0.00013691096683 2.4434501029e-05 -7.2520939284e-05 
-0.00015303230612 -0.0001997321524 -0.00029944974813 -0.00038630096242 -0.00041087478166 -0.00037050069659 -0.00031393242534 -0.00029005820397 -0.00028942045174 
-0.00029811088461 -0.00029289501254 -0.00026303084451 -0.0002192347747 -0.00018702195666 -0.00015273391909 -7.9613804701e-05 4.3038391595e-05 0.00018337035726 
0.00031545315869 0.00043430685764 0.00051027222071 0.00057159207063 0.00062431336846 0.00070814334322 0.00084265560145 0.00067805405706 0.00012815080117 
-0.00015198372421 -0.00029682205059 -0.00042878909153 -6.2808525399e-05 -0.00012051418162 -0.00016090772988 -0.00016391610552 -0.0001591831824 -0.00013094824681 
-2.9260945666e-05 4.2630697862e-05 2.4491120712e-05 -2.6968415114e-05 -6.5465086664e-05 -8.9470770035e-05 -0.000108905464 -0.00012115633581 -0.00011614982213 
-0.00010168430163 -8.4499311924e-05 -4.516863919e-05 5.3089624998e-06 6.6948683525e-05 0.00012500889716 5.2383416914e-05 -3.7624788092e-05 -9.7201271274e-05 
-0.00010565148841 -9.450714424e-05 -9.1265646915e-05 -6.1102669861e-05 1.939574031e-05 0.00013502176444 0.00024327686697 0.00031633977778 0.00035811972339 
0.00037690391764 0.00038838674664 0.00037055870052 0.00030150153907 0.00018316185742 3.3178021113e-05 -8.6800435383e-05 -0.00015712172899 -0.000172100903 
-6.0173268139e-05 7.0309302828e-05 0.00018588193052 0.0002792130108 0.00035900602234 0.00042789173312 0.00046046255738 0.00041360911564 0.00030541894375 
0.0001778640144 6.2531486037e-05 -1.5776111468e-05 0.00013287174806 9.5675772172e-05 -0.00021028747142 -0.00017489473976 -0.0003492574906 -0.00029530725442 
-0.00022972298029 -0.00017670047237 -0.00015098099539 -0.0001365893695 -0.00011079220712 -7.2166469181e-05 -2.0686187781e-05 3.7497472931e-06 3.9258313336e-05 
6.7415377998e-05 9.5802955911e-05 0.00012774838251 0.00018597071175 0.0002626030473 0.0004071748117 0.0005797315971 0.000632284733 0.00061684235698 
0.00055174535373 0.00044632368372 0.00035840936471 0.00024948816281 0.00012490288645 3.5035915857e-07 -0.00010460606427 -0.00018125753559 -0.00024499327992 
-0.00032844438101 -0.0004356590216 -0.0004639516701 -0.00043936664588 -0.00039658107562 -0.00035023136297 -0.00030681039789 -0.00024769903393 -0.00020612041408 
-0.00018153559358 -0.00015736737987 -0.000129439999 -0.000107699816 -7.9232893768e-05 7.2991851994e-06 0.00014214101247 0.00028092085267 0.00040766800521 
0.00050605391152 0.00057883845875 0.00066251761746 0.0007365475758 0.00074295111699 0.00061572960112 0.00034959512413 4.9183610827e-05 -0.00013774835679 
-0.0002766889229 -0.00034771749051 -0.00012214109302 -0.00014566333266 -8.4157887613e-05 3.0253004297e-05 0.00014495363575 0.00022146241099 0.0002779950446 
0.00031045361538 0.0003380656417 0.00036583724432 0.00035413785372 0.00025797553826 0.0001555015624 8.4239596617e-05 3.4608943679e-05 -2.4689923521e-05 
-7.2729155363e-05 -0.00011230526434 -0.00012513107504 -0.00010865950753 -5.6647906604e-05 4.2402516556e-05 8.5188847152e-05 4.6827426559e-05 -5.4684846873e-06 
-5.1234503189e-05 -8.4237421106e-05 -0.00010879182082 -0.00013124440738 -0.00014411109441 -0.00017256138381 -0.0001723964815 -0.00013720626885 -8.3793784142e-05 
-3.2233656384e-05 5.4241345424e-06 2.0093746571e-05 9.8506723589e-05 0.00016820273595 0.00016581836098 0.00011230450764 1.9443548808e-05 -1.7134092559e-05 
-2.0407445845e-05 -1.7977457901e-05 -5.708939625e-06 4.2982013838e-05 0.00013166596182 0.00025080752675 0.00035861588549 0.00042352278251 0.00044445952517 
0.00043814771925 0.00043703531264 0.0004056027683 0.00033050609636 0.000199865186 5.5788317695e-05 -4.1858227632e-05 -8.4563092969e-05 -7.8562923591e-05 
-5.2383027651e-05 -2.347327063e-05 -5.8833775256e-05 -0.00032147925231 -0.00028429873055 -0.00022866968357 -0.00016160756059 -0.00010290671344 -4.9833040975e-05 
-1.7639024009e-05 -2.5125671527e-05 -1.3889601178e-05 1.0219668184e-05 3.8185979065e-05 7.0192138082e-05 0.00011034488125 0.00014365647803 0.00020863312238 
0.0004922975204 0.00055792031344 0.00057222682517 0.00053554301849 0.00045543807209 0.00033224743675 0.00019728958432 8.7948814326e-05 -1.0495895367e-05 
-8.5107312771e-05 -0.00015389217879 -0.0002312384895 -0.0003276563948 -0.00043285413994 -0.00047480131616 -0.00045575562399 -0.00041116817738 -0.00036417928641 
-0.00028721743729 -0.00019056814199 -0.00012743845582 -0.00010458660108 -9.33329502e-05 -6.163836224e-05 -3.117072265e-05 -2.9100994652e-05 2.2482756322e-05 
0.00011562542204 0.00023074469937 0.00037599442294 0.00050855218433 0.00059652567143 0.00066344224615 0.00066031370079 0.00061707361601 0.0005879769451 
0.0004680317943 0.00024413912615 6.1659433413e-05 -0.0001139640226 -0.00025183835533 -0.00031834081165 0.00036626166548 0.00025149749126 -6.0080827097e-05 
-1.4492807168e-05 6.4596097218e-05 0.00014954918879 0.00019900253392 0.0002287995303 0.0002364621032 0.00023396858887 0.00024033222871 0.00024933303939 
0.00020657530695 9.208740812e-05 2.9948359952e-05 -7.6809365055e-06 -2.7481723009e-05 -6.1095532146e-05 -6.8473724241e-05 -3.8600755943e-05 2.2723166694e-05 
8.6618798377e-05 9.5856579719e-05 5.1608374633e-05 1.0181143807e-05 -2.3281592803e-05 -5.4768141126e-05 -7.2691989772e-05 -0.00011923782586 -0.00016883805802 
-0.00020849905559 -0.00022785924375 -0.00017907502479 -0.00013266023598 -0.00010224219295 -7.2551731137e-05 -4.5399719966e-05 -3.4931832488e-05 3.2220603316e-05 
9.9006625533e-05 0.00016047421377 0.00015368999448 0.00014680098684 0.00012506266648 0.00010683704022 8.0602141679e-05 6.9648020144e-05 7.771782839e-05 
0.00012162288476 0.00020760070765 0.00032699800795 0.00042807403952 0.00047922570957 0.00047777660075 0.00045590606169 0.00043591874419 0.0004068617709 
0.0003403868468 0.00021910379292 8.9243381808e-05 1.6971693185e-05 -5.858419172e-06 -3.8567714e-06 6.8708732215e-06 7.1026016712e-07 -2.6492096367e-05 
-2.9378381441e-05 -3.3589985833e-05 0.00017802174261 0.00020811067952 0.00026745410287 0.00036392611219 0.00042144887266 0.00046983925859 0.00049876357662 
0.00048696380691 0.0004123551771 0.00028857443249 0.00015398849791 5.2428222261e-05 -1.9136978153e-05 -6.53399984e-05 -0.00011780533532 -0.00018985307543 
-0.00029589183396 -0.00040592625737 -0.00044847468962 -0.00043867318891 -0.00039846723666 -0.00032111714245 -0.00022325357713 -0.00013510379358 -7.4812283856e-05 
-5.3597399528e-05 -4.6616049076e-05 -5.2610230341e-06 2.9933869882e-05 2.7765916457e-05 5.7959012338e-05 0.00012077741121 0.00022336750408 0.00037969916593 
0.00054232910043 0.00063813728048 0.00068199273665 0.00067430373747 0.00062484748196 0.00060962710995 0.00053163192933 0.00035514385672 0.00017167357146 
-2.5942723369e-05 -0.00018771491887 -0.00028119058697 -0.00031650619349 -0.00031483644852 -0.00027798794326 -0.00021916380501 -0.00015790830366 -0.00010077515617 
-5.9706257161e-05 -5.5789390899e-05 -6.2592625909e-05 -1.2936352505e-05 3.2741085306e-05 6.7132255936e-05 8.8057466201e-05 0.00012673920719 0.00016649441386 
0.00019698444521 0.00021834607469 0.00023260530725 0.0002609626099 -1.7606860638e-05 3.2112584449e-05 6.9266970968e-05 0.0001094895415 0.0001286824554 
0.00013077553012 0.0001265945175 0.00013333118113 0.00014222180471 0.00015710761363 0.00020419129578 0.00023913485347 0.00021406343149 0.00013851912809 
6.7197826866e-05 3.1173192838e-05 1.4695112441e-05 -8.0340896602e-06 -3.0368682928e-05 -9.2448535725e-06 1.7825916075e-05 7.717157132e-05 0.00011327442189 
6.8861932959e-05 3.3621581679e-05 1.5343333871e-05 7.1181329986e-06 -3.4581807995e-05 -9.4821887615e-05 -0.00017499779642 -0.00022959220223 -0.00021129878587 
-0.00015490122314 9.7768846899e-05 0.00013354772818 -0.00025002623443 -0.00027590664104 -0.00010587862926 -9.4892224297e-05 -0.000109771805 -4.2243995267e-05 
2.4520897568e-05 0.00010258870316 0.00017503654817 0.00017712330737 0.00021063191525 0.00017476454377 0.00015410226479 0.00015750410967 0.00017394965107 
0.0002090108319 0.00028089896659 0.00037897040602 0.00047152119805 0.00049780105473 0.00046494661365 0.00042731189751 0.00040486321086 0.00037806946784 
0.00032327958615 0.00022187840659 0.00011521224951 4.7794732382e-05 5.3880612541e-05 5.1218015869e-05 1.7739806935e-05 -2.463250712e-05 -5.9595633502e-05 
-5.3003688663e-05 -3.7907957449e-05 0.00032030927832 0.00036062436993 0.00040116073797 0.00042740002391 0.00041534754564 0.00035493288306 0.0002461510303 
0.00013740059512 5.4087726312e-05 8.9871787168e-07 -3.9912669308e-05 -7.7131662692e-05 -0.00012439403508 -0.00035781678162 -0.00039096892579 -0.00038078927901 
-0.00034675802453 -0.00028727130848 -0.00018016954709 -0.00010150777962 -5.2639250498e-05 -2.808397403e-05 -1.5959833036e-05 2.6056419301e-05 7.0673086157e-05 
8.7818851171e-05 0.00011191301746 0.00016897532623 0.00027004358708 0.00040678153164 0.00054581748554 0.00062303151935 0.00070105399936 0.00070407579187 
0.00067409896292 0.00062630174216 0.00056427298114 0.00041463374509 0.00024246991961 4.0182538214e-05 -0.00013936714095 -0.00025546783581 -0.00030572101241 
-0.00031511948328 -0.0002883716661 -0.00024323631078 -0.00019617268117 -0.0001511288865 -0.00010287675832 -8.1221209257e-05 -6.578402099e-05 -2.2835622076e-05 
3.5146866139e-05 7.7436125139e-05 9.5472751127e-05 0.00012425536988 0.00015876459656 0.00017603169545 0.00020866187697 0.0002148332278 0.00021810446924 
0.00023942698317 0.00026210321812 -0.00026076383074 -0.00015121344768 0.00015651120339 0.00019550659636 0.00023987343593 0.00025354669197 0.00026981843985 
0.00029658613494 0.00034511261038 0.00040752397035 0.00044113094918 0.00045235783909 0.0004345215857 0.00040745388833 0.00036999111762 0.00033404969145 
0.00027834088542 0.0002133698581 0.00010643493442 0.00014455307974 -2.0665032935e-05 -9.6772510005e-06 2.2226549845e-05 3.3338248613e-05 2.4466204195e-05 
2.4826176741e-05 3.5042241507e-05 7.8974779171e-05 0.0001189771283 0.00014527545136 0.00018901762087 0.00017034210032 0.00021441481658 0.00016377169231 
7.4197421782e-05 5.3701787692e-05 4.6662607929e-05 1.3382923498e-05 2.2382910174e-06 1.4419684703e-05 5.0907940022e-05 9.1996225819e-05 0.00012339255773 
0.00014835009642 0.00016625763965 0.00014971350902 0.00011789399286 0.00010475423915 8.1013662566e-05 5.4559204727e-05 -0.00013874386786 -0.00016773659445 
-0.00015877181431 -0.00012719200458 -3.598863259e-05 7.3869043263e-05 0.00028959478368 0.00031167411362 0.00032338532037 0.00032273834222 0.0002817499626 
0.00021320556698 0.00014810885477 9.4323266239e-05 3.8558711822e-05 1.1014346455e-05 -1.6428093659e-05 -4.3933323468e-05 -0.00029859878123 -0.00032456824556 
-0.00031428347575 -0.00027466780739 -0.00022336507391 -0.00016042409698 -9.8760625406e-05 -5.3989839216e-05 -1.4254534108e-05 1.2328620869e-05 3.1817267882e-05 
0.00014398121857 0.00018232558796 0.00023803459771 0.00032076891512 0.00041951279854 0.00051025720313 0.00061262224335 0.00070194556611 0.00065543397795 
0.00057344132802 0.0004958602367 0.00041464026435 0.00032189543708 0.00010801985627 -6.927488721e-05 -0.00018169502437 0.00011643023026 0.00011085777078 
0.00021013829974 0.00020898212097 0.000661366852 0.00058033748064 -0.00025820784504 -0.00027771026362 -0.00026038088254 -0.00023161082936 -0.0002225334174 
-0.00020542394486 -0.00017132867652 -0.00012383666763 -7.9257813923e-05 -2.1957735953e-05 3.9087721234e-05 8.7345877546e-05 0.0001135183411 0.00013437567395 
0.0001587979059 0.00017329552793 0.00018969351368 0.00020276616851 0.00019600884116 0.00017862624372 -9.0594941867e-05 -0.00016546636471 -0.00022373067623 
-0.00026417328627 -0.00026665584301 -0.00027217765455 -0.00026067224098 -0.00020037619106 -0.00021197930619 -0.00021838692192 -0.00022728077602 -0.00025109411217 
-0.00021947151981 -0.00023708217486 -0.00020885656704 -0.00018550446839 -0.00015240545326 -0.00010397908045 -6.3161402068e-05 1.722922093e-06 0.00012081008026 
-0.00016874875291 -9.3722053862e-05 -2.1123638362e-05 4.6200042561e-05 9.2839363788e-05 0.00012553353736 0.00014377760817 0.00016218620294 0.00017795088934 
0.00019163983234 0.00018848401669 0.00016329789651 0.00015051588707 0.000129686945 0.00010359090084 6.0814141762e-05 6.0106259525e-08 2.602512177e-05 
0.00023774889996 0.00022672263731 0.00020822226361 0.0001996926585 0.00019343866734 0.0001727611816 0.00013999649673 0.0001486219262 3.2039148209e-05 
6.0122161813e-05 9.9680451967e-05 0.00013481602946 0.00015324121341 0.00017514525098 0.00011863349937 5.4512522183e-05 4.7708850616e-05 4.7767240176e-05 
0.00018210512644 0.00018624088261 0.0001528927678 0.00012119325402 6.5050509875e-05 -1.6096450054e-05 -0.00010401959298 -0.00017866383132 -0.00019463559147 
-0.00019596228958 0.00010168142762 5.17943663e-05 3.5976743675e-05 3.0375838378e-06 -0.00015769417223 -8.1379323092e-05 -7.4857140135e-05 -6.204481906e-05 
-5.8330719185e-05 -5.8493362303e-05 -6.3876039349e-05 -0.00024967911304 3.1598985515e-05 0.00014400716464 0.00015661858197 0.00019256499945 0.00024533233955 
0.00029603365692 0.00036042250576 0.00042887608288 0.00048369306023 0.00053995382041 0.00054571084911 0.00047173644998 0.00055473140674 0.00061410933267 
0.00064241193468 0.00058612279827 0.00050245650345 0.00042706142995 0.00036439290852 0.00027408599271 0.0001718277199 5.5830205383e-05 5.4191059462e-05 
8.5079518612e-05 0.00011837187049 0.00010824808851 0.00019499137125 8.8206965302e-05 0.00025210951571 0.00029325901414 0.00029102692497 0.00032812802237 
0.00033936506952 0.00034825451439 0.00036703361548 0.000396281539 0.00040449813241 0.00043044859194 0.00041280552978 0.0003591843124 0.00030337049975 
0.00025549181737 0.00020222632156 0.00016706023598 5.4638923757e-05 -2.5847029974e-06 -6.318508531e-05 -0.00010265895253 0.00018799367535 0.00022605844424 
0.0002935823286 0.0003409521305 0.00037043227348 0.00042572905659 0.0004612763878 0.00049171643332 0.00048350868747 0.00043675198685 0.00029152451316 
0.00054713181453 0.00052463723114 0.00045907407184 0.0003565067891 -9.3753427791e-05 0.00019616386271 0.00040246840217 0.00012382140267 8.90463416e-05 
0.00010929296695 0.00013879135076 0.00016473616415 0.00039993578685 0.00043006660417 0.00044412928401 -0.00010893544822 -2.0778865292e-05 5.474767022e-05 
0.00010460345948 0.00014314171858 0.00016715278616 0.00041934926412 0.00040830418584 -0.00011311257549 0.00046129469411 0.0004547003773 0.0004662250285 
-0.00014134122466 0.00044833461288 -0.00013736222172 0.00044268294005 -0.00014708790695 0.00040033899131 -0.00016136407794 -0.00018270441797 -0.0001634740911 
-0.00015359108511 -0.00014459791419 0.00035066402052 -0.00013013659918 0.00015992480621 0.00012593630527 0.00018084820476 0.00010025276424 0.00015670763969 
0.00011476800864 0.00012406439055 6.2872299168e-05 -2.1939707949e-05 -0.0002299171756 -0.0002323275985 -0.00019739565323 -0.00016324674652 -0.00020124219009 
-0.00022354199609 2.9999988328e-05 8.0512247223e-05 0.00010453746654 5.4937921959e-05 6.1963910412e-05 4.8222489568e-05 -2.3380283892e-05 -6.3976083766e-05 
-7.6470787462e-05 -1.824273204e-05 -9.4756520411e-05 -0.00013035908341 0.00053841603221 0.00051303202054 
POINT_DATA 1116
FIELD FieldData 31
Circ_Strain_Pt 1 1116 double
0.984859908 0.9854855974 0.98817120629 0.98950405915 0.98833828695 0.99013306333 0.99528813402 0.99585063898 0.99866970398 
0.99804395052 0.99858409518 0.99901409136 0.99860677422 0.99928951983 0.99664830537 0.99663679788 0.99246576805 0.99227747779 
0.9923731836 0.99092009321 0.99329327715 0.99266825948 0.99495609826 0.99511116358 0.99570141901 0.99891904527 0.99554892974 
0.99922467625 0.99485503449 0.99931085134 0.99520097165 0.99872417891 0.99520167334 0.99734454115 0.99441433066 0.99505047597 
0.99420651711 0.99422384365 0.99464267011 0.99543243135 0.9960874775 0.9971145451 0.99786562521 0.99870465517 0.99791218381 
0.99816879142 0.99783966001 0.99753983957 0.99748017535 0.99708808764 0.99623500409 0.99462229473 0.99440193908 0.99260413387 
0.99405278175 0.99437118055 0.99491311124 0.99694359081 0.99708316545 0.99854071039 0.99898381535 0.99928937034 0.99947678442 
0.99941547336 0.99857901509 0.99873671873 0.99719049316 0.99753816888 0.99703698525 0.99732233291 0.99802551037 0.99810789524 
0.99874087823 0.9989537813 0.9991972547 0.99927429433 0.99932958825 0.99892373403 0.99841982097 0.99869653396 0.9979203092 
0.9986374942 0.99847304074 0.99886171323 0.99921619914 0.99893151104 0.99886772856 0.99868031876 0.99707452297 0.99817052232 
0.99648621482 0.99725913973 0.99653790512 0.99684425595 0.99714165106 0.99705359419 0.9982426022 0.9981100104 0.99903870601 
0.99887825568 0.99966265003 0.99948412618 0.99889207405 0.99929891871 0.99854201246 0.99925282353 0.99889581926 0.99919125348 
0.99776917607 0.99714884005 0.993837215 0.99447274116 0.99750681077 0.99731514762 0.99801450876 0.99840775067 0.99741048682 
0.9967653003 0.99788236228 0.99598931394 0.99833072682 0.99719020126 0.99868592888 0.9989592434 0.9977635035 0.99850004923 
0.99682227674 0.99755288147 0.99581118837 0.99701716932 0.99557214732 0.99696327004 0.99760237238 0.9979814113 0.99915501876 
0.99878846341 0.99940134293 0.99925449141 0.9987254987 0.99888012276 0.99673607362 0.99733713705 0.99523374291 0.99461544312 
0.99398737354 0.99099682067 0.99471279194 0.99106746221 0.99573583022 0.99234197896 0.99733451355 0.9965435997 0.99803331732 
0.9973783538 0.99811359644 0.99609005332 0.99748789074 0.99697283816 0.99608561793 0.99745423233 0.9933704023 0.9963684236 
0.99574897582 0.99690888095 0.99818971337 0.99897937331 0.9989211284 0.99846989158 0.99687763308 0.99739125899 0.99471219752 
0.99682250313 0.99269972502 0.99683416986 0.99515679813 0.99680383623 0.99684207364 0.99717219466 0.99714305459 0.99842061683 
0.99602529609 0.99721132387 0.99406796085 0.99464771182 0.99144046136 0.99102879073 0.9881302795 0.98814287993 0.98812259644 
0.98781361157 0.99324698194 0.99338293792 0.99743907581 0.9968085219 0.99891581019 0.99914260946 0.99738248419 0.9986086791 
0.99530386735 0.99452122102 0.99455151425 0.99390869431 0.99494065734 0.99603778382 0.99599145743 0.99750916137 0.99655770213 
0.99799021252 0.99669078299 0.99854478404 0.99669666522 0.99836426763 0.99702633297 0.99814052213 0.99818074507 0.99860550401 
0.9988825792 0.99855837462 0.99925254444 0.99788651663 0.99883304793 0.99760439979 0.99835757646 0.99764356083 0.99837733719 
0.99555480682 0.99807604995 0.99541869648 0.9912493661 0.99167381484 0.99338101416 0.99830061887 0.99885826071 0.99704719425 
0.99434932255 0.99294968452 0.99440531857 0.99668466603 0.99902129536 0.9986023556 0.9984563525 0.99838536767 0.99749120296 
0.99580822853 0.99469213281 0.99529530655 0.99753859162 0.99917985136 0.99929234946 0.99873677121 0.99809951598 0.99637578419 
0.99212782667 0.99086182784 0.99193617815 0.99564177706 0.99810017948 0.99942991836 0.99890915231 0.99808392612 0.99763690065 
0.9975880168 0.998077676 0.99896065455 0.99905751524 0.99912996846 0.99911356017 0.99937364839 0.99906019053 0.99857561545 
0.99810703965 0.99761456691 0.99677106819 0.99655667727 0.99731984922 0.99833175692 0.99925875789 0.99943627613 0.99825117816 
0.99739820525 0.99707723848 0.99601807248 0.99623937448 0.99186557151 0.9981186833 0.99739582339 0.9961454018 0.99659253778 
0.99850431734 0.99867604419 0.99826016949 0.99802426743 0.99821734167 0.99864080974 0.99880549165 0.99871696391 0.9982255918 
0.99802941495 0.99663580573 0.99469049023 0.9912466627 0.99142761898 0.99520338546 0.99652165446 0.99549145531 0.99683927869 
0.99843102454 0.99886114775 0.99862671254 0.99885354167 0.9995206329 0.99886982443 0.99835256841 0.99778838083 0.99651779041 
0.9960796674 0.99671767827 0.99725412028 0.99647523304 0.99454239853 0.99070857487 0.98994324503 0.99380097135 0.9984938919 
0.99923356719 0.99616734196 0.99421815068 0.99411852337 0.99718308221 0.99836377309 0.99867449205 0.99904896411 0.99911432136 
0.99907428296 0.9991359923 0.99885908799 0.99615898921 0.99482512101 0.99478229813 0.99239654169 0.99409749074 0.99499162718 
0.99312836988 0.99077531283 0.99626129534 0.99829393992 0.99903913323 0.99644684045 0.99430105223 0.99486164005 0.99729225447 
0.99822724114 0.9978469704 0.99821240398 0.99766570889 0.99685815046 0.99784502553 0.99728869086 0.9975032117 0.99868731611 
0.99918926203 0.99894121005 0.99863578505 0.99432629541 0.99712238308 0.99229943618 0.99177810796 0.99544233469 0.99778666986 
0.99940542899 0.9997146238 0.99941932516 0.99899576163 0.99852610323 0.99804432576 0.99809852886 0.9986120631 0.9993188269 
0.99953181112 0.99948766214 0.99937977096 0.99903937294 0.99839818267 0.99731779585 0.99767461378 0.9959112168 0.99663699572 
0.99515487695 0.99792422794 0.99912925014 0.99840399161 0.99723927998 0.99652093126 0.99694276738 0.99676909853 0.99713511311 
0.99665443193 0.99063912296 0.99812959999 0.9975608496 0.99713190218 0.99581523606 0.99429038983 0.99690276711 0.99493445349 
0.99667630063 0.99729640335 0.99783015446 0.99828142434 0.99868817392 0.9990874795 0.99871638839 0.99860915807 0.99801403272 
0.99695809988 0.99580849661 0.99461808896 0.99106174492 0.99074187812 0.99299632219 0.99469117254 0.99574121294 0.99644592397 
0.99801353904 0.99899847994 0.99941937268 0.99975938651 0.99964917511 0.99773843262 0.99794060347 0.9977526963 0.99675112066 
0.99497574574 0.9957692276 0.99676337331 0.99553795072 0.99279628618 0.9889244993 0.98930623789 0.99410244271 0.99759669722 
0.99941940858 0.99874171483 0.99620857872 0.995536785 0.99635008406 0.99752746118 0.99863885731 0.9991812615 0.99942440482 
0.99954165062 0.9995888759 0.99957410742 0.99948352004 0.99315895817 0.987780506 0.98878540041 0.99308338465 0.99858361895 
0.99846173657 0.99366795469 0.99408451282 0.99473852162 0.99327965787 0.99292481567 0.99459744723 0.99788536654 0.99884813615 
0.9977252627 0.99701794 0.99733390002 0.99672836443 0.99555945748 0.99533959877 0.99370467762 0.9928199286 0.99274823698 
0.99442926262 0.99730246015 0.99865023191 0.99902545357 0.99725155651 0.99815218016 0.99780331567 0.99727013119 0.99724748703 
0.99695919355 0.99615480535 0.99577460988 0.99572962088 0.99811978982 0.99950870284 0.99883705519 0.99844192866 0.99819966413 
0.99813788137 0.9983767744 0.99754973736 0.99731031877 0.99564600351 0.99615532947 0.99533511492 0.99435507095 0.99478084914 
0.99542257507 0.99696360757 0.99806768024 0.99867736655 0.9993398898 0.9993698417 0.99917735597 0.99902874531 0.99905842735 
0.99901425394 0.99899059141 0.99881241607 0.9989140856 0.99926841345 0.99923676116 0.99892023306 0.99803507989 0.99643664966 
0.99680547156 0.99629395033 0.99466886097 0.99475141375 0.99212817401 0.99448296587 0.99295907572 0.99926143497 0.99898617547 
0.99861664775 0.9990821079 0.99965790685 0.99920213012 0.99884351315 0.99677081571 0.99467336674 0.99308204051 0.99176441011 
0.99225902078 0.99220056387 0.99129959602 0.99757425188 0.99603832548 0.99703789175 0.99803599844 0.99914295991 0.99957812418 
0.99964208207 0.99943126367 0.9974964511 0.99617795931 0.99736533649 0.99862714656 0.99711279257 0.99608873401 0.99591839525 
0.99497997306 0.99353035659 0.9909991922 0.98801809369 0.99113635722 0.99542154872 0.99907084161 0.99880196142 0.99774192598 
0.99712400258 0.99688142813 0.99785740546 0.99853529357 0.99891792365 0.99912118071 0.99931103179 0.99946620897 0.99968274236 
0.99949783112 0.99611150139 0.98931787208 0.98617323675 0.98858132544 0.99246982198 0.99439752175 0.9986794191 0.99596734482 
0.99338140332 0.99541294048 0.99126626279 0.98965421331 0.99080280434 0.99321223138 0.99586245891 0.99814442491 0.99907847114 
0.99818700458 0.9971358066 0.99591887565 0.99362182088 0.98997423047 0.9923469967 0.98987831431 0.9921210837 0.99449358769 
0.9965116218 0.99790385504 0.99879581943 0.99897850178 0.99726838548 0.99633433616 0.99564187817 0.99568581747 0.99530473232 
0.99565849968 0.99623549737 0.99753373155 0.99870445279 0.99917907509 0.99837284561 0.99802977491 0.99811012303 0.99805278505 
0.99814936506 0.99877094559 0.9973000724 0.99721180587 0.99413436253 0.994162048 0.99435006148 0.99369518362 0.99298708826 
0.99364760956 0.99447355966 0.99740059427 0.99880081388 0.9990015044 0.99913647234 0.99930852523 0.99928555262 0.99912324716 
0.99924372283 0.99916569187 0.99913143094 0.99907092465 0.99928279446 0.99939515816 0.99903430469 0.9976300075 0.9969582687 
0.9976089992 0.99685090834 0.99577045086 0.99502518638 0.99466238028 0.99397824841 0.99331052448 0.99370680167 0.99350921069 
0.99733369886 0.99544629785 0.99795332906 0.9981259306 0.99807947449 0.99770985873 0.99802044228 0.99897469196 0.99971311013 
0.99953137974 0.9985503728 0.9976086964 0.99793309291 0.99838288171 0.99847156034 0.99690475 0.99672302504 0.99711450551 
0.99257698169 0.98774823086 0.9882747131 0.99078928641 0.99483557139 0.99832130911 0.99824785252 0.99654916793 0.99655018179 
0.99841433489 0.99837940308 0.99840618828 0.99785244643 0.99820629459 0.99910070394 0.99951220628 0.99976440999 0.99969433365 
0.99603484516 0.99033677398 0.98428063591 0.98266494359 0.98381682997 0.99383148622 0.99729782757 0.9980320547 0.99563964381 
0.99633284777 0.99760839856 0.9984198161 0.99811067312 0.9983691862 0.99866648392 0.99903754133 0.99937182681 0.99907918525 
0.99719835609 0.99399616134 0.99223283275 0.99226091364 0.99394989662 0.99508082456 0.99558260413 0.99597628311 0.99556275726 
0.99610618672 0.99603255572 0.99229166198 0.99258768398 0.99577712706 0.99926706551 0.99899495689 0.99875436512 0.99852459297 
0.99842863184 0.99818304609 0.99489257986 0.99456177184 0.99239089532 0.99378916668 0.9894852985 0.98957795707 0.99104388659 
0.99240362175 0.99481718673 0.99657495735 0.99735736425 0.99784546467 0.998370557 0.99856267754 0.99886698873 0.99527110574 
0.99638448006 0.99484549113 0.99411347549 0.993598493 0.99447763512 0.99669495998 0.99867724294 0.99920902391 0.997428415 
0.99765705922 0.99702403782 0.99691933958 0.9987459154 0.99913691098 0.99819449 0.99852508634 0.99817217066 0.99822139432 
0.99823658293 0.99494626931 0.99285098016 0.99294174059 0.99404363301 0.99301190129 0.99294532901 0.99665693414 0.99881613344 
0.99864074421 0.99875302822 0.99909462867 0.99906667192 0.99950340741 0.9995438329 0.99933561925 0.9991216607 0.99894281574 
0.99898340996 0.99879994923 0.99749657016 0.99777906985 0.99731104062 0.99715276108 0.99516870627 0.99532133624 0.99462109816 
0.99600272398 0.99436892436 0.99637487501 0.99680666613 0.9973213459 0.99780536138 0.99818733215 0.9993916217 0.99981065948 
0.99931258625 0.99820977079 0.99782188385 0.99805553775 0.99868308055 0.99939977307 0.99621373026 0.9979999383 0.99212892566 
0.98900869474 0.98742240253 0.993177983 0.99730413579 0.99848501598 0.99908335859 0.99935311347 0.99665337517 0.99483219638 
0.99774224667 0.9986087406 0.99841677008 0.99733846297 0.99738435586 0.99811108737 0.99879663376 0.99902356707 0.99932524241 
0.99952764292 0.99235316864 0.98625851505 0.98746498036 0.9894869325 0.99112618149 0.99418944812 0.9968205406 0.99746254146 
0.99824008854 0.99889718849 0.99842016661 0.99828745759 0.99798033586 0.99824025126 0.99818643512 0.99875502761 0.9991237282 
0.99766983425 0.99591175358 0.99448927437 0.99366444395 0.99378990959 0.9946586782 0.99575948905 0.99688923171 0.99681424996 
0.99660418853 0.99706955461 0.99609309203 0.99877603097 0.99940079295 0.99343825482 0.99486321123 0.99412718669 0.9924332979 
0.99523792181 0.99853404113 0.99798267256 0.99762299315 0.99773020782 0.9975426826 0.9992385083 0.99951721346 0.99937600791 
0.99915279731 0.99903945094 0.99930562196 0.99808285545 0.99730436011 0.99635255112 0.99367793076 0.99403800928 0.99617124203 
0.99856610179 0.99944000131 0.99944506243 0.9984916996 0.99733447007 0.99697729936 0.99701828565 0.9960171118 0.99405684452 
0.99620828562 0.99046262594 0.98963199286 0.99063890545 0.99510676298 0.99656909002 0.99755340958 0.99764909613 0.99740586771 
0.9976827485 0.99813156679 0.99807031619 0.99862978941 0.9973416503 0.99481888388 0.99256528385 0.99393224212 0.99581671571 
0.99523295602 0.99745014446 0.99757244329 0.99817447249 0.99684535131 0.99874135588 0.99687532098 0.99738351342 0.99744560389 
0.99702335326 0.99772202093 0.99926997061 0.99937789548 0.99779494317 0.99657568775 0.99738907022 0.99858966157 0.99868313574 
0.99534992224 0.99558612012 0.99425569109 0.99086093258 0.99037370434 0.99127312788 0.99446360374 0.99772309431 0.99857746838 
0.99723453998 0.99570120976 0.99576229395 0.99891405808 0.99705442511 0.99815094859 0.99743158091 0.99796794731 0.99913317413 
0.99922292424 0.99913361243 0.99727218153 0.9986606745 0.99461392296 0.99238316309 0.99323809008 0.9936889055 0.99420454822 
0.99797223696 0.99513677932 0.99546719705 0.99161404096 0.99339574402 0.99827872564 0.99832951034 0.99848485563 0.99798323472 
0.99785236382 0.99772176259 0.99835119334 0.99910253831 0.99940653206 0.99931251882 0.99899871194 0.99838246757 0.99692236732 
0.99567895563 0.99524612693 0.99508293317 0.99529989683 0.99605731411 0.99631086687 0.99695601639 0.99731990102 0.99719576318 
0.99610609334 0.99814277174 0.99831898715 0.99949100743 0.99949730492 0.99938391863 0.99827074786 0.99280313864 0.99391600236 
0.9929489607 0.99478540569 0.99608154948 0.99658036835 0.99731040692 0.99780182673 0.99646042486 0.99930825054 0.9990524412 
0.99871041369 0.9981893105 0.99752956772 0.99658470645 0.99560173583 0.99484342977 0.9961137329 0.99520312036 0.99455920045 
0.99458471495 0.99485454969 0.99535381734 0.99758136496 0.99717839735 0.99587998904 0.99634724482 0.99798614023 0.99884689888 
0.99845795283 0.99760283308 0.99768631231 0.99762135765 0.99760523592 0.99382159445 0.99439895184 0.99645453756 0.99599595376 
0.99464941299 0.99536970111 0.9965679331 0.99711103838 0.99734599508 0.9977832669 0.99823631808 0.99882105248 0.99625205652 
0.99691482695 0.998118908 0.99952727343 0.9980003799 0.99919225564 0.99341892452 0.99306628212 0.9933754913 0.99629323333 
0.99763354304 0.99571596611 0.99950844289 0.99753853245 0.99904525077 0.9986799667 0.99790089433 0.99704138376 0.99701529931 
0.99742385855 0.99857620954 0.99893334896 0.99824363003 0.99810954395 0.99812736857 0.99817899341 0.99866499251 0.99918600719 
0.99809455256 0.99703864583 0.99440127417 0.99451807607 0.99447849117 0.99470185327 0.99308327896 0.99238593691 0.99307772955 
0.99683022696 0.99885802037 0.99863562145 0.99806467131 0.99745104845 0.99909831631 0.99889190815 0.99895687638 0.99820247152 
0.99801902479 0.99826723999 0.99801346112 0.99731388368 0.99524765665 0.99770543204 0.99823772377 0.99905435195 0.99922451602 
0.99885232454 0.99872778025 0.9984848051 0.99690968345 0.99567283332 0.99809163361 0.99764062221 0.99697160567 0.99590967734 
0.99730337894 0.99869054754 0.99844196769 0.99705563417 0.99568764998 0.99495416935 0.99728459831 0.99765961211 0.99805587312 
0.99832714889 0.99735568449 0.99311377935 0.99234904128 0.99288674533 0.99394883686 0.99693159925 0.99815779597 0.99946669576 

Circumferential 3 1116 double
-0.21939288528 -0.073250276029 -0.96722531644 -0.27998789031 0.11452269865 -0.93838993113 -0.27590568855 0.11633190941 -0.94663862939 
-0.22388011498 -0.02776347361 -0.97204403288 -0.33372239385 0.27998796844 -0.89929633004 -0.31400873032 0.23269624386 -0.9173490125 
-0.36559194201 0.34804504458 -0.86093133284 -0.34189822837 0.32376124133 -0.87913254006 -0.38411128606 0.41499701901 -0.82293433155 
-0.36114346167 0.39936848854 -0.84031345918 -0.38965867113 0.48087520205 -0.78529489992 -0.37491998308 0.46871691294 -0.79914729677 
-0.40594431313 0.53040627245 -0.74266986174 -0.38032686225 0.52777778057 -0.75803570555 -0.42395500465 0.59152918389 -0.68142077444 
-0.39756086734 0.60150334877 -0.68639536775 -0.44356302291 0.66615738076 -0.59945204344 -0.42638712798 0.69859647495 -0.56632776635 
-0.46272473676 0.78085594164 -0.38701662543 -0.45464499202 0.81223638399 -0.34968320477 -0.46468619278 0.85045998632 -0.23335404909 
-0.4645558723 0.85494750105 -0.2248435176 -0.45242963647 0.88171864392 -0.13349709875 -0.46141389105 0.86992539574 -0.17296295813 
-0.43708698318 0.89194138113 -0.11442473542 -0.42610976964 0.88718824734 -0.17542045528 -0.40678666376 0.90828531483 -0.088863310771 
-0.39715695603 0.90662946124 -0.12958467573 -0.37051697523 0.92674504698 -0.061398002924 -0.3645185746 0.92795012716 -0.077348903501 
-0.3953988969 0.91548026622 -0.070315021115 -0.33986375372 0.93885128508 -0.022886769387 -0.39776773088 0.91182443098 -0.03712560366 
-0.32159639775 0.94252240927 0.054834696593 -0.34874754572 0.92553699285 0.092177170431 -0.31718084442 0.93008467628 0.16053751041 
-0.30585703465 0.90866917443 0.24398591562 -0.30432235443 0.89986435302 0.28747174514 -0.26977775165 0.85782076556 0.4208030544 
-0.27953813961 0.84486329715 0.44213117052 -0.21313034818 0.8101633969 0.53644192081 -0.23343570651 0.79967994422 0.54680159444 
-0.14931875409 0.76372345049 0.627763624 -0.17785294483 0.76076496453 0.6240941306 -0.10832309015 0.71735174956 0.68450537648 
-0.1170212451 0.71613736485 0.6845338938 -0.063130056941 0.65660953308 0.74667587976 -0.054778188713 0.65078253347 0.75171534877 
-0.0078223402767 0.56123771727 0.8219284095 0.0053595769446 0.56074991832 0.82475486491 0.060190094934 0.43026149658 0.88960823014 
0.060963371259 0.42603004261 0.89244521262 0.13665963945 0.27418744726 0.95143296892 0.11664901583 0.2516099472 0.9565254061 
0.19357231213 0.072583849799 0.96644435295 0.17987526436 0.040395823029 0.97672947009 0.23777825949 -0.08317635843 0.96453156885 
0.23506327467 -0.11748050387 0.96008088881 0.26822439393 -0.18929384254 0.94429200257 0.29330954473 -0.21648790049 0.93075334359 
0.31266716847 -0.22499962685 0.92187797591 0.32130952034 -0.25062595009 0.91245674436 0.35848259403 -0.27430932257 0.89012104792 
0.35192794645 -0.29177536945 0.88813255375 0.40499206287 -0.34052588053 0.84796860814 0.38643018554 -0.34566848571 0.85472039104 
0.44401433096 -0.45222045833 0.76690489401 0.41744662787 -0.4454153717 0.78690980236 0.47098064757 -0.55454375117 0.679316733 
0.43896498978 -0.54756977217 0.70710109035 0.48662992309 -0.64798739725 0.58587662997 0.44708274199 -0.64577645634 0.61695574298 
0.47265050135 -0.702567729 0.52857568184 0.44438095165 -0.70128033927 0.55455600669 0.45834583899 -0.75388434022 0.46703742192 
0.43615049504 -0.74783871556 0.49835013675 0.44363424447 -0.80111747382 0.40019755365 0.41630154458 -0.79479636482 0.43947170469 
0.40643465225 -0.85015617028 0.32637193305 0.39675335631 -0.83877839313 0.36677480927 0.37227819522 -0.89328905921 0.24285336797 
0.37470374907 -0.87968562258 0.28844327191 0.34987601189 -0.92480553353 0.14293156995 0.34744627872 -0.91655226771 0.19534744577 
0.34408777671 -0.93392375612 0.091552305469 0.3513403034 -0.92727569265 0.11456108669 0.32821881367 -0.94213871187 0.028593122418 
0.35403657154 -0.9316477548 0.018286473072 0.29633146665 -0.95322272423 -0.058074915573 0.33493459389 -0.9341057759 -0.11861858458 
0.24101704192 -0.93328423446 -0.23663810544 0.27298806083 -0.90874055824 -0.29667249586 0.17752375459 -0.88461130493 -0.4095586239 
0.1871959744 -0.85994391118 -0.45898300743 0.11409327042 -0.81206284527 -0.5680168248 0.10497720215 -0.78970502528 -0.60006935513 
0.079487040318 -0.72299063425 -0.67961599174 0.060340789134 -0.70710750809 -0.69973080887 0.055343918978 -0.65962387623 -0.74759302517 
0.057260513148 -0.63297131502 -0.76842986246 0.037109744641 -0.61077404265 -0.7909348492 0.073793796911 -0.56183965669 -0.82334993066 
0.050618124521 -0.56934684342 -0.81950139753 0.07235597172 -0.52095641237 -0.84953886518 0.052082737882 -0.52332328512 -0.84945438176 
0.055869080815 -0.4794747742 -0.87485448985 0.033388167448 -0.46960621606 -0.88172802009 -0.0015315853735 -0.42502300699 -0.90500467111 
-0.049000650129 -0.41333681513 -0.90536684753 -0.067666199832 -0.34523413993 -0.9337060209 -0.1386263241 -0.29982274718 -0.93186845851 
-0.14193653271 -0.21253483275 -0.95754278652 0.1157127793 0.18656407387 0.97508301636 0.067494384932 0.31445556662 0.94073737659 
0.062492106477 0.34580611726 0.93323700586 0.10403601926 0.22662861378 0.96658975533 0.016956248577 0.44155877193 0.89112028217 
0.018313088904 0.46201183298 0.88156097869 -0.034940885211 0.56245608127 0.82242830297 -0.030139485775 0.57342275487 0.81465306831 
-0.070763875515 0.64125824826 0.7593392119 -0.069162305679 0.65322042228 0.74927099933 -0.10183535071 0.70823178642 0.69818774421 
-0.10314668408 0.71946113216 0.68653999892 -0.12039895788 0.75142854642 0.64550672432 -0.12314999188 0.76213584366 0.63257201871 
-0.14146498647 0.79830217021 0.57981805984 -0.13804703216 0.80569299779 0.5740547489 -0.17182944233 0.85883818126 0.4657959549 
-0.15140983644 0.85618951454 0.48492056527 -0.19584897688 0.91164158537 0.35386796255 -0.16791782192 0.90619915684 0.38621974792 
-0.20121898785 0.94171666414 0.24809516111 -0.18096222999 0.93706917289 0.28575985593 -0.20726749818 0.9648227347 0.15921716473 
-0.19205692411 0.95918683957 0.20442606649 -0.21517190955 0.96886645928 0.11655157189 -0.19372921264 0.96778816407 0.15425254364 
-0.22656582735 0.97062018895 0.068467681949 -0.19846495607 0.97399687717 0.09474705022 -0.24293036525 0.96911194018 0.012665710064 
-0.2074299016 0.97648470887 0.022581060297 -0.24763007545 0.95096755065 -0.11819088446 -0.22453989999 0.96167462329 -0.097973197911 
-0.24620008042 0.92408109981 -0.28848764252 -0.25802019707 0.93034138156 -0.25386875289 -0.29345659894 0.82218502768 -0.45654730186 
-0.30112754504 0.82787035235 -0.43656401637 -0.32397644871 0.71725462609 -0.60979886737 -0.33082538622 0.71486702061 -0.61000714155 
-0.30068948938 0.61383105902 -0.72153085793 -0.32377003915 0.6062230416 -0.71863955378 -0.28967369026 0.50415658291 -0.80690373165 
-0.30562217989 0.50173780872 -0.80285341424 -0.28709237004 0.39018559697 -0.87415888782 -0.2815004413 0.39275708908 -0.8742682675 
-0.23411521458 0.31726593782 -0.91574146241 -0.22820890275 0.29240319967 -0.9251404534 -0.17952991401 0.21829421518 -0.95355224107 
-0.17393069207 0.21655908896 -0.95888742086 -0.12602976644 0.070243798364 -0.98671522541 -0.14476051352 0.1118976602 -0.98101199647 
-0.13561078868 0.0038537251794 -0.98989780914 -0.14135764402 0.018168655618 -0.9884695055 -0.14655079204 -0.039044654629 -0.98827650324 
-0.13418879721 -0.051868481308 -0.98916808216 -0.13744813413 -0.066371909261 -0.98823749691 -0.14706245381 -0.065522321407 -0.98678451918 
-0.17031226201 -0.13863707758 -0.97363539807 -0.15610333846 -0.14323581237 -0.97558785476 -0.16834718106 -0.25190417816 -0.94553407097 
-0.15203950967 -0.26242884519 -0.94656411403 -0.11736130057 -0.41239938618 -0.9018578749 -0.13069576311 -0.40956512652 -0.90164974338 
-0.052871046158 -0.55598727922 -0.8193629517 -0.072542885217 -0.52636380797 -0.84139216275 -0.0025296565262 -0.64490676088 -0.76376182305 
-0.013874426514 -0.60689594172 -0.79437353034 0.028473475019 -0.66520375215 -0.74607882057 0.026172409449 -0.61592961099 -0.78719506775 
0.067975085492 -0.58661980608 -0.80378247596 0.063165284981 -0.55908757276 -0.8249647297 0.10960372026 -0.5463538245 -0.82972405038 
0.097216021266 -0.55115738442 -0.82760891741 0.15282709124 -0.54011351303 -0.82759970591 0.12920854239 -0.5848182171 -0.80037306063 
0.17519028652 -0.68307754047 -0.6919353562 0.14216876672 -0.71717689508 -0.66436961114 0.19360973541 -0.81548857879 -0.51865765596 
0.16529920706 -0.84412773483 -0.48985074353 0.20590061984 -0.93150031862 -0.28692897518 0.20370823485 -0.93427929838 -0.27471066053 
0.20791252212 -0.96198912521 -0.15299552831 0.23222890669 -0.9590677292 -0.14010639859 0.23097522254 -0.96979455021 -0.060696862076 
0.2528497583 -0.96543241416 -0.056320251479 0.27886160857 -0.95993690701 -0.0040170507561 0.26590136817 -0.96385379583 -0.0093394298694 
0.31933926174 -0.93186346408 0.13823816424 0.29333544265 -0.94845116445 0.094190604217 0.35625937114 -0.87302516829 0.30019416237 
0.3406555849 -0.89648065619 0.26031317294 0.38823891828 -0.78727495035 0.47665026374 0.37706620523 -0.82001196439 0.42655747764 
0.38222501195 -0.67782756205 0.6155835582 0.39079160714 -0.73158305454 0.55020174959 0.36941514788 -0.60774263821 0.70173910496 
0.38859656092 -0.63472475204 0.66679538787 0.3505300997 -0.57284542842 0.74071446827 0.37291812622 -0.58036870628 0.72319599544 
0.32804340273 -0.50966240058 0.79223445099 0.36788305608 -0.51895373488 0.76866981903 0.31388794241 -0.43403458655 0.84151974115 
0.36211140717 -0.45329990781 0.81361116871 0.32101264671 -0.33265075563 0.8830227407 0.34561208408 -0.3728230435 0.85812881023 
0.31667488048 -0.26726109929 0.90940928316 0.33721420122 -0.29916872287 0.89232892319 0.30393184977 -0.22826545252 0.92471114545 
0.32142186489 -0.24672679686 0.91352742617 0.27026520911 -0.15293007672 0.94720133632 0.29391227646 -0.16385812006 0.9379166891 
0.23190761132 -0.071106623402 0.96920124232 0.26634371634 -0.089016213874 0.9583383211 0.18543698502 0.013821436432 0.98007049106 
0.18845749329 0.058412672695 0.97434775962 0.14715690117 0.099767806063 0.98151131375 0.12766109809 0.17069392442 0.97506099208 
-0.28327465511 0.19241458722 -0.93680648155 -0.2582686326 0.085901799247 -0.95990778602 -0.30931464209 0.29434521402 -0.90267607229 
-0.33687775237 0.400381323 -0.85028060211 -0.35961502911 0.48782305296 -0.79353335471 -0.37579130801 0.55788510873 -0.73825321723 
-0.40194730843 0.65186076592 -0.6293217518 -0.43632382069 0.76112797123 -0.47528455539 -0.44756820359 0.81771400116 -0.35217825196 
-0.44174781377 0.84845846302 -0.28866148146 -0.42223889531 0.86857320697 -0.25671068647 -0.39950772631 0.89555779377 -0.18857927427 
-0.37894449584 0.91590254976 -0.11615451122 -0.35664826143 0.93262816206 -0.04484297575 -0.34864943554 0.93270675346 0.040184654289 
-0.33377644296 0.93152629958 0.13576384505 -0.3246891908 0.90350366516 0.25687136017 -0.30509712083 0.86897040676 0.38484872991 
-0.25789443115 0.83357812658 0.48197170972 -0.19670554276 0.80845720797 0.55085848009 -0.13496995717 0.79149945798 0.59434237359 
-0.053468662359 0.74841654491 0.65709238812 -0.0034657567349 0.66269952743 0.74333262927 0.037273985787 0.55934111678 0.8258290252 
0.071274161093 0.40937213742 0.90225150208 0.11457216266 0.2067890232 0.96284491276 0.15438965661 -0.017312490952 0.98066979083 
0.20111728797 -0.1730084362 0.96059864075 0.25327177307 -0.26169060209 0.93083082145 0.3049093373 -0.28642787479 0.90770672552 
0.33879395356 -0.3133983999 0.88624961947 0.37332383427 -0.37250279353 0.84870258568 0.39762154261 -0.45634771864 0.79184938795 
0.41684379825 -0.55827097279 0.71491625001 0.41736993986 -0.63938163834 0.64234180009 0.41497001785 -0.71400112527 0.56268181781 
0.40811407285 -0.75627619246 0.51090620949 0.39919470201 -0.79218186129 0.45926218219 0.38551022023 -0.83227097828 0.39716582 
0.3537060606 -0.87784893772 0.32039047349 0.35531291863 -0.9004955341 0.24622759618 0.36546564591 -0.91529676171 0.15978280382 
0.36715577169 -0.92524229377 0.052748478705 0.36122652304 -0.92255130563 -0.11310281788 0.26647384309 -0.88960571332 -0.3536982332 
0.17216973621 -0.82323734332 -0.52598321773 0.086154753142 -0.74088932253 -0.66255447008 0.049772629634 -0.65988167166 -0.74509133957 
0.031806900599 -0.58707474376 -0.80597136712 0.030234647111 -0.52110341567 -0.85186199646 0.0089797959194 -0.45660120188 -0.88691156277 
-0.0087328022837 -0.38876950292 -0.91970173319 -0.054741690774 -0.32247387945 -0.94300783458 -0.1006085272 -0.25176486318 -0.95772117513 
-0.16552198926 -0.11986157897 -0.9757731954 -0.22539536026 0.0058337320966 -0.97388286854 0.03705127289 0.44974482153 0.89020810711 
0.059417032113 0.3697885288 0.92559111119 0.00266494345 0.53687377229 0.84201154903 -0.059176930668 0.6441058559 0.75738820697 
-0.10622541978 0.72871256244 0.67548163156 -0.13370977454 0.77805276382 0.6116583255 -0.15957405398 0.82594073632 0.53882430885 
-0.16047969574 0.86244508774 0.47671884194 -0.15870776636 0.89338300999 0.41763329006 -0.16360632303 0.9189970416 0.35291292198 
-0.16165608165 0.94036790983 0.29670269174 -0.14248583126 0.95712700193 0.24445668204 -0.13012089076 0.9728501533 0.17835399535 
-0.12666583682 0.98480580289 0.084645963343 -0.15663412157 0.98058268933 -0.049917884706 -0.21201531712 0.9532454352 -0.19820039249 
-0.2826840335 0.86623600791 -0.38862230287 -0.35583276543 0.71852842107 -0.58555177489 -0.35876991761 0.59620216681 -0.71346090543 
-0.3369087393 0.49249489009 -0.79817476056 -0.29840160903 0.36455237493 -0.8799229006 -0.25604586705 0.26377770057 -0.92690526713 
-0.20899094971 0.18619841471 -0.95878168344 -0.16911029718 0.13166856092 -0.97614520366 -0.17101695956 0.049614493466 -0.9827472145 
-0.17160009102 -0.010493265662 -0.98444576256 -0.18058713334 -0.078150514263 -0.98037628131 -0.18628365966 -0.14826244794 -0.96996616883 
-0.17649730812 -0.26445184388 -0.94580205547 -0.15478235986 -0.38664159251 -0.90652311169 -0.10707081566 -0.50274040102 -0.85422117896 
-0.05277483164 -0.57225045916 -0.8161603187 0.0023502677516 -0.58067696059 -0.81244868459 0.065000787025 -0.53237217181 -0.84203819987 
0.12868914096 -0.53160374834 -0.83532212094 0.17433840388 -0.58013227008 -0.79325706333 0.16536939433 -0.71164672001 -0.6727756817 
0.16944026081 -0.84732540056 -0.4799678657 0.19842763843 -0.94030923215 -0.26383459578 0.23072052951 -0.96657254866 -0.10169191013 
0.25017523714 -0.96766298938 -0.026102845934 0.26636857179 -0.96297726882 0.035530990986 0.30118894164 -0.92961018968 0.1744249201 
0.33623724219 -0.88023707549 0.32078209337 0.36362358192 -0.81452919019 0.44537126376 0.38654200631 -0.73784443202 0.54664794092 
0.40197380022 -0.66151879916 0.63062297145 0.3984074163 -0.59840529723 0.69368991302 0.3926896556 -0.54366587593 0.74058282408 
0.38449566739 -0.48257399418 0.7861281537 0.37312681383 -0.41779327673 0.82641723129 0.3686875083 -0.35948466834 0.85610153899 
0.37065640119 -0.31272033647 0.8737410971 0.36218610275 -0.23672541081 0.8976081463 0.34836846782 -0.14409177422 0.92562214779 
0.22418505003 0.045745936788 0.96497690268 0.1268491276 0.19854589039 0.96768388507 0.081594904207 0.29094868518 0.95155549489 
-0.2848996644 0.27372836029 -0.91672810023 -0.27095902061 0.16805127134 -0.94273680854 -0.30910818754 0.3830350311 -0.86421357943 
-0.33184636884 0.48726463055 -0.8050032984 -0.3461372045 0.5669810684 -0.74566551668 -0.36032561365 0.64706432044 -0.66641025074 
-0.37116471133 0.7238175736 -0.57715643266 -0.3807321512 0.7939728949 -0.46810638116 -0.36688916391 0.83557934347 -0.40378522956 
-0.36133348933 0.87258529682 -0.32386850751 -0.35883554677 0.90425612747 -0.22098325029 -0.3601992099 0.92450225214 -0.10644582709 
-0.35785379099 0.93140470365 0.0067848963401 -0.35666475158 0.92679369931 0.10772511707 -0.34199189322 0.91612834197 0.20435204765 
-0.32653468399 0.8956842415 0.29419778198 -0.3019187077 0.8747159664 0.37535784898 -0.26008459335 0.85209170388 0.44961447226 
-0.20916534564 0.82926865767 0.51282181868 -0.15414578081 0.811369212 0.55920428637 -0.11550170478 0.79540253344 0.58881756317 
0.040626911214 0.48824636556 0.86993243601 0.0074337889358 0.60154973832 0.79313450383 0.067195320563 0.30205076131 0.93605478609 
0.10183115078 0.10150197716 0.98189865414 0.14703359455 -0.095264620336 0.97648751361 0.1865346561 -0.2137251767 0.95563878052 
0.22308704447 -0.29451974764 0.92914069589 0.27027011398 -0.31931379163 0.90675557973 0.30883360457 -0.35157788869 0.88254520298 
0.34692487179 -0.38998020912 0.85182448218 0.37215784002 -0.45611873185 0.80659548075 0.38349017585 -0.53294365535 0.75202871295 
0.39412730882 -0.62794286823 0.66630376003 0.39568932636 -0.6982936637 0.59346758236 0.3842111851 -0.75223411995 0.53506344917 
0.37712129326 -0.78650193457 0.48721767012 0.3672775398 -0.82403772379 0.42941775636 0.36776117328 -0.84857405839 0.37987983238 
0.37095719054 -0.87392452612 0.30918715888 0.37881492446 -0.89473564967 0.22269119311 0.36654640765 -0.92164706851 0.10900824221 
0.38604086035 -0.91530336556 0.026556977892 0.18830233509 -0.79203855632 -0.56931089438 0.26085889202 -0.85602232634 -0.43331365245 
0.097444212017 -0.7053764784 -0.69902508148 0.0509577768 -0.61231008821 -0.78426346237 0.02357612977 -0.53734236355 -0.8413083139 
0.0083887344575 -0.48390266595 -0.8740303256 -0.032176832595 -0.40778949819 -0.90866188711 -0.091040420149 -0.30741119988 -0.94606326105 
-0.11980026721 -0.20279550541 -0.9697902545 -0.14628062739 -0.10210931302 -0.98118538961 -0.17374589742 -0.018558284744 -0.98433326659 
-0.1977689265 0.026593327256 -0.97865031613 -0.25155728259 0.069212359064 -0.96492674828 -0.038677836223 0.71360313043 0.69808281309 
-0.10479464897 0.72922517346 0.67007781867 0.3436899637 -0.90071621604 -0.23378785896 0.38023910968 -0.91616873715 -0.085488497671 
-0.0043958564635 0.56512152465 0.82083650965 0.035722591312 0.4742055987 0.87833355398 -0.066468375616 0.66324192875 0.73884631126 
-0.11385883084 0.73929035886 0.66336791424 -0.13402120289 0.78413379684 0.60176466075 -0.15103467877 0.82654801794 0.54111331306 
-0.15170839874 0.85962545234 0.48413877597 -0.14811569835 0.89172886521 0.42694838661 -0.13023582789 0.90945853478 0.39384740087 
-0.12775909152 0.92924318811 0.34404947632 -0.092741975865 0.94642768115 0.30367406326 -0.076463416268 0.96427810832 0.24086685215 
-0.084360854184 0.98440015705 0.13000946609 -0.12383895776 0.983332883 -0.015012677522 -0.20386109244 0.95832407973 -0.17531476413 
-0.27835440914 0.86978483361 -0.36118754303 -0.36709275101 0.67316981777 -0.6320241466 -0.36436319031 0.55923721958 -0.74334981171 
-0.33521618096 0.47748697279 -0.80761840479 -0.30295264834 0.38705410354 -0.86697435773 -0.26755071935 0.25595536247 -0.92288874534 
-0.22499326969 0.16623479824 -0.95890719959 -0.18417776675 0.11564946097 -0.97567103847 -0.17145825477 0.087055989199 -0.98116720235 
-0.17115603787 0.039391454278 -0.98337496665 -0.18078026042 -0.034900434172 -0.98243579855 -0.19657687142 -0.13161451354 -0.97117926281 
-0.1874567351 -0.25638432865 -0.94406863251 -0.16419000005 -0.37333472468 -0.91005554848 -0.12604683114 -0.47718148216 -0.86867854999 
-0.063449645503 -0.53325518234 -0.84203012286 -0.0066795510599 -0.52173424373 -0.85194103686 0.064030841171 -0.48805632405 -0.86835383324 
0.11510391057 -0.5259525475 -0.83985850518 0.13851842091 -0.62593702589 -0.76447640714 0.14649174654 -0.77788345926 -0.58803707558 
0.16140766523 -0.90344299046 -0.37947614893 0.20202767188 -0.95379665831 -0.20057688768 0.22763968351 -0.96610871922 -0.10963842884 
0.25069435831 -0.96625481158 -0.039790230485 0.27626755437 -0.95890973237 0.0481302784 0.30070550529 -0.93758160939 0.16058124745 
0.33223331053 -0.8929414618 0.28721874487 0.36952799619 -0.82495821947 0.42396510256 0.39194520962 -0.75805213308 0.5140343944 
0.40938788685 -0.68869194416 0.59659275061 0.41722845515 -0.61493538287 0.6672920527 0.41200655188 -0.56274069185 0.71513342673 
0.40349861769 -0.52059922174 0.75242017941 0.40289795508 -0.4793863438 0.77864727526 0.40349770577 -0.43575637647 0.80355168631 
0.40794777582 -0.38078933665 0.82866538045 0.37609264323 -0.28888594822 0.87555087648 0.30301872268 -0.13645786496 0.93792393605 
0.17622580223 0.079991665891 0.97129838647 0.080682146564 0.24401628948 0.96296384038 0.048080883874 0.34619752849 0.93547942848 
0.042526882494 0.41274369528 0.90846736112 0.33732290642 -0.88096004859 -0.29742544817 0.35823196138 -0.9138819099 -0.16777961685 
0.32346930631 -0.84626209422 -0.41672160594 0.23222697988 -0.77392170613 -0.56730608835 0.13700586095 -0.67187673609 -0.72173332488 
0.069367218364 -0.56055208544 -0.82354137624 0.037429775991 -0.5038812745 -0.86237028252 0.0099014335312 -0.46904204658 -0.88270767467 
-0.029945121653 -0.40982322233 -0.90902402897 -0.083969982063 -0.31709840463 -0.94387181494 -0.14647033978 -0.16744717461 -0.97037410943 
-0.18319429316 -0.024093580507 -0.9804047441 -0.18879581141 0.10031930366 -0.9762546854 -0.18424765844 0.067063302008 -0.97986640128 
-0.20243860803 0.053388626739 -0.97684334052 -0.23528541029 0.099416161487 -0.96578922431 -0.2620307856 0.21506726418 -0.93347527738 
-0.28479956719 0.36421389104 -0.8833323968 -0.30552065796 0.48231447959 -0.81750288163 -0.31983135916 0.57466068272 -0.75062709422 
-0.3190475332 0.6485658694 -0.68760899732 -0.32556750451 0.72497317169 -0.60414042065 -0.31360825725 0.78067587828 -0.53719777224 
-0.31394473751 0.8371550741 -0.44279442353 -0.3262386565 0.88160611189 -0.33097103987 -0.34542447636 0.91186066261 -0.20399851965 
-0.3589678971 0.92439476886 -0.068528790384 -0.36589751185 0.92605832748 0.055122415191 -0.35724629876 0.91813168046 0.15010333137 
-0.34939454964 0.90189208524 0.25333816165 -0.32811586279 0.8951329044 0.29928120372 -0.3016699322 0.8929276457 0.33309816804 
-0.25359205306 0.88564852519 0.38583130696 -0.21636246648 0.86665707038 0.44507724377 -0.17798522042 0.83646894059 0.5114478011 
-0.15374490211 0.81235937386 0.56111441484 -0.13695574017 0.78229470505 0.60188621577 -0.10274039845 0.70065274486 0.70392570694 
-0.13320713445 0.71118898157 0.68556374435 -0.059578558808 0.62765584901 0.7708278321 -0.0095860239929 0.542918082 0.83090472861 
0.024378355742 0.44838774522 0.88702014983 0.05184304352 0.27416768726 0.95060387107 0.092123308715 0.077066439769 0.98632469441 
0.13437544262 -0.080886015081 0.98363391533 0.16979359071 -0.20078976084 0.96066669649 0.20903695939 -0.28840348887 0.93401149458 
0.25036714334 -0.33195463615 0.90755688344 0.28535343619 -0.3794488984 0.87931953924 0.30897523261 -0.42012695139 0.85252654534 
0.33701070936 -0.45985710739 0.82025140694 0.35688182018 -0.50766928629 0.78338073787 0.36486200117 -0.57966744892 0.72633754074 
0.3720422528 -0.64457829764 0.66437462401 0.37608129278 -0.70864948462 0.59649508636 0.36708043538 -0.76011517891 0.53285616097 
0.36471569278 -0.80064101286 0.47376831875 0.36942393202 -0.82716117021 0.42337334619 0.38327482573 -0.84491951027 0.37052309901 
0.39524692617 -0.86454986766 0.30115501876 0.40495166492 -0.88781894339 0.20509060853 0.39377803653 -0.9139803111 0.076734700544 
0.38809410212 -0.91421372529 0.02916351215 0.36455225596 -0.92246998141 -0.081041619145 0.33958610671 -0.90047697246 -0.23246697254 
0.31629371442 -0.91501862248 -0.23098986635 0.3152753552 -0.88324188762 -0.31802828747 -0.072215915025 0.68052121306 0.72282728212 
-0.0063856445122 0.57112872584 0.81548232015 -0.12659595205 0.76208323487 0.63409853787 -0.14660357861 0.80602351202 0.56839795683 
-0.16445976794 0.84841953699 0.5015084452 -0.16253091484 0.87708761177 0.4499040977 -0.14659807214 0.89865117829 0.41324666337 
-0.11885615616 0.9073410217 0.40215679524 -0.094232957368 0.91753544192 0.38518098775 -0.079585411219 0.93797682277 0.33212632319 
-0.077488565447 0.95739122644 0.27479924286 -0.12367792112 0.97246933529 0.1430761806 -0.17676859965 0.97974772213 -0.010221009909 
-0.25110932107 0.93564125798 -0.18823204548 -0.30711096621 0.87125267178 -0.3565621139 -0.33038790732 0.7925374328 -0.49457364603 
-0.33172888389 0.42384866062 -0.837539467 -0.35659064429 0.51173744171 -0.77854002225 -0.31144406678 0.31243528976 -0.89434341188 
-0.27944821663 0.1992699801 -0.93533272402 -0.24422577302 0.12570058082 -0.96111981407 -0.22024411912 0.099519158262 -0.97021937556 
-0.20051059002 0.060309361814 -0.97728032866 -0.18231116102 0.018281188811 -0.98283809067 -0.17131679435 -0.028384080731 -0.98444235831 
-0.17447492481 -0.14558254195 -0.97194531261 -0.16764438306 -0.28927723432 -0.93805931626 -0.14865082586 -0.40325875813 -0.9018151095 
-0.11294456204 -0.48606890351 -0.86581550997 -0.060036976834 -0.4778311858 -0.87471008544 -0.00073921686674 -0.45887747834 -0.88733961548 
0.057698376772 -0.46935753361 -0.87999095208 0.09621948412 -0.52554829323 -0.84155806835 0.11137237557 -0.66102577161 -0.73439725009 
0.12126488277 -0.81669455996 -0.5436495211 0.14668219749 -0.93062973098 -0.31722136023 0.19079822584 -0.96271013674 -0.17725589151 
0.22640838999 -0.96884628705 -0.082011933485 0.26260864846 -0.96352672031 -0.020129389714 0.28402422613 -0.9547492673 0.070545137378 
0.30894025654 -0.92562543677 0.19300756764 0.33797884133 -0.87904642708 0.3305474708 0.36556883847 -0.81309934421 0.44492995095 
0.38688498268 -0.73901767125 0.5475118735 0.40365981856 -0.66196126818 0.63112762293 0.40760636095 -0.59541322314 0.68978938157 
0.40958514127 -0.54594238143 0.73036103589 0.40128282777 -0.51822971559 0.75510262519 0.39096130308 -0.5058784513 0.76865261276 
0.38631825471 -0.47563980382 0.78987877996 0.3815787865 -0.43433441503 0.81490588153 0.35068947803 -0.31795053504 0.86879835709 
0.26670958198 -0.13312342333 0.94609796917 0.14211300955 0.10579130772 0.96603348881 0.054718089572 0.29999426624 0.95095314389 
0.046518658441 0.37048203696 0.92688564277 0.042483082607 0.41956876956 0.90622983861 0.039088830788 0.46546843631 0.88277469282 
-0.34802407861 0.62041279535 -0.68905552857 -0.3282280907 0.66050275431 -0.66784814374 0.28344035889 -0.85640769008 -0.4219566451 
0.2291471598 -0.77014627651 -0.5786269059 0.14896123497 -0.6463436155 -0.74390203147 0.080237701705 -0.55833675729 -0.82013196711 
0.038329743726 -0.49877643714 -0.86560481673 0.015709669864 -0.47634590507 -0.87864758444 -0.014268881291 -0.42981861997 -0.90137415928 
-0.043555353844 -0.36458799335 -0.92962441817 -0.087742069774 -0.21981614279 -0.9670822201 -0.13699786563 -0.050519807099 -0.9831408804 
-0.1989677485 0.14960529168 -0.96745996838 -0.15615797575 0.05803821344 -0.9849806631 -0.14073907595 0.084387034202 -0.98592035997 
-0.20923054634 0.15161363817 -0.96527679192 -0.24186734286 0.25874152369 -0.92696938271 -0.26753784126 0.35394486129 -0.8915880466 
-0.28020108728 0.44213417524 -0.84703401489 -0.27993593027 0.53538139884 -0.79263418921 -0.26773602251 0.61724303215 -0.7366737967 
-0.26187455286 0.68429553147 -0.6801791569 -0.26076645061 0.75841133281 -0.5942628401 -0.27790804465 0.83544654591 -0.46225602166 
-0.30164643893 0.89124367374 -0.32805225634 -0.34156019875 0.91674841147 -0.17236380059 -0.37041267772 0.92511601972 -0.019595418967 
-0.38152281613 0.90751947058 0.13102632367 -0.3746894595 0.89081162292 0.24890336918 -0.34641961623 0.88272206934 0.31189722647 
-0.31567615658 0.88500531631 0.34053228382 -0.27415086014 0.89534163186 0.35083564336 -0.23336085112 0.90013461216 0.36602325584 
-0.20895058466 0.88071585801 0.42006299575 -0.19603767632 0.85454081726 0.47620515164 -0.16862831505 0.84552365651 0.50355185419 
-0.1528858855 0.79398266367 0.58696419842 -0.14520711372 0.74971462351 0.63951229405 -0.12726107961 0.65065387301 0.74414457949 
-0.11817569446 0.66114820954 0.73819129446 -0.085414964451 0.59898352842 0.78784819244 -0.056640759257 0.57246006627 0.81225923508 
-0.029100436544 0.52997680992 0.8430030612 -0.0066194838074 0.44505846058 0.88422966448 0.030413739912 0.2937196984 0.94465952778 
0.061864556007 0.1119206835 0.98349874958 0.08708518742 -0.062722644347 0.99302887137 0.144402043 -0.2092751104 0.96236908603 
0.18955563566 -0.30450850981 0.93270340249 0.22267315107 -0.37235625399 0.89917452179 0.25663986113 -0.43466935348 0.86230566639 
0.28014516185 -0.47475403198 0.83346564166 0.30629493794 -0.5110776284 0.80185512697 0.33418710563 -0.54690056342 0.76749389309 
0.34209306021 -0.58694802382 0.73239182662 0.34965145165 -0.63411590727 0.68882038585 0.35232717785 -0.69263013255 0.62768562126 
0.35971701406 -0.74347610553 0.56163487708 0.36934339714 -0.78847856784 0.48978649112 0.38107174456 -0.81532409074 0.43527222649 
0.39791719617 -0.83896113217 0.36787104562 0.39779146452 -0.87083173801 0.28368148714 0.39520086207 -0.89091348176 0.19865763781 
0.39601131836 -0.89305009316 0.20463911346 0.37676950807 -0.9189537949 0.089198816872 0.35481257062 -0.93031601447 0.005363475856 
0.33950672545 -0.93619996578 -0.071917488829 0.29094955486 -0.88980386665 -0.32955908101 0.29137839483 -0.91516814528 -0.25460570504 
0.29585849781 -0.87062997909 -0.37766897911 -0.16686449334 0.17662827411 -0.96833980139 -0.20824999542 0.21609470047 -0.95356041632 
-0.33109599476 0.53418483033 -0.77352754468 -0.32013662583 0.65335351129 -0.67785674704 -0.31823781305 0.45895813824 -0.82521654535 
-0.29298669856 0.38804412271 -0.8698568144 -0.27386703297 0.30265534264 -0.91051914203 -0.26531822596 0.21761485703 -0.93696547448 
-0.24427455312 0.1470359276 -0.95722750529 -0.21976997583 0.093286364071 -0.97091762587 -0.20178275663 0.064085410416 -0.97716583438 
-0.17447365463 0.028482163528 -0.98391571667 -0.16328524309 -0.018382539246 -0.98596562966 -0.14312692003 -0.11721874178 -0.98121055289 
-0.12365143112 -0.260306567 -0.9538739336 -0.086529406459 -0.37753805895 -0.92037688946 -0.058745119676 -0.4378444922 -0.89670815694 
-0.035052746588 -0.4482675105 -0.89261114142 0.0025603172295 -0.44817145616 -0.89270839256 0.047244743718 -0.44109593225 -0.89569236632 
0.07093280114 -0.53236413692 -0.83442092878 0.085577416698 -0.65636408322 -0.74713405714 0.10120116692 -0.81524559772 -0.53899622626 
0.12804793371 -0.92330163321 -0.34594999249 0.17523913301 -0.95806249258 -0.207189264 0.21842183457 -0.96670153343 -0.11940902427 
0.26547830495 -0.96291083679 -0.031106411487 0.28859792459 -0.94393915072 0.12392018417 0.31715307576 -0.90607210857 0.26062201377 
0.33808872459 -0.85203999469 0.39860560391 0.36229526861 -0.79681831154 0.47742540294 0.38418479827 -0.73613771132 0.55461433597 
0.3907435941 -0.66638080647 0.63296553234 0.3892258648 -0.60269555117 0.69500988777 0.38706744056 -0.54716403794 0.74150461539 
0.38385016359 -0.52143818299 0.76191153335 0.37026088099 -0.50767881183 0.7776740856 0.35792957036 -0.49037428716 0.79444662585 
0.34636262504 -0.47055272625 0.81115201364 0.3328771952 -0.39775179344 0.84867182518 0.31671683547 -0.28525339543 0.90136687915 
0.20129182066 -0.0087266154838 0.95306691698 0.10465422508 0.22354057118 0.96371771921 0.031217192276 0.37900755979 0.92383751809 
0.046554227665 0.409348617 0.91088720435 0.056669984543 0.44599273806 0.89077881254 0.019962126139 0.54581253864 0.83473712417 
-0.026451317507 0.65609544469 0.7464774498 -0.068684205053 0.7484330175 0.65868610167 -0.10736558719 0.80056300621 0.58464907546 
-0.1426938329 0.85222890715 0.50276728095 -0.15862388974 0.87775957739 0.44798436361 -0.16969810136 0.90059678943 0.39968277192 
-0.14594732501 0.91061967488 0.38533587893 -0.12450272221 0.91920551281 0.37308890953 -0.11508887567 0.93007291574 0.34714761256 
-0.12561979703 0.94141143765 0.30866333498 -0.16456561507 0.96078378562 0.20816760872 -0.20742845303 0.97177136959 0.068273626311 
-0.26922864496 0.94462865293 -0.12701997396 -0.30875175183 0.8863607395 -0.33235054898 -0.3192478291 0.79543912568 -0.48951303884 
-0.32090890486 0.77994220023 -0.53251059077 -0.29990887736 0.71320434649 -0.62440216571 -0.29947043243 0.60307938089 -0.73505374548 
-0.28513445307 0.66380453912 -0.68288725283 -0.32011221722 0.5647030691 -0.75731715004 0.236780193 -0.78317565909 -0.56099894615 
0.14915483194 -0.66481401197 -0.72197676463 0.073309647956 -0.56717718583 -0.81435922919 0.01472769671 -0.48859631912 -0.87217529756 
-0.0045871916142 -0.44703301999 -0.89345990405 -0.017836017515 -0.4052430214 -0.91329841701 -0.024372489441 -0.35218593903 -0.93462044353 
-0.037631064483 -0.26706245429 -0.96081923178 -0.055823161277 -0.16309930282 -0.98137720973 -0.088585287338 -0.026303372035 -0.9907053387 
-0.13493208435 0.12850044683 -0.97711419927 -0.17347528323 0.22839728003 -0.95697318442 -0.17583471982 0.21395376535 -0.95852145813 
-0.13135804294 0.13504145544 -0.9786489874 -0.11715867011 0.074016443526 -0.98996300624 -0.13610354997 0.072637082276 -0.98747038527 
-0.16525491171 0.13015277862 -0.97154030416 -0.22043599586 0.26967300355 -0.93169631384 -0.26442833116 0.36651035814 -0.88827262164 
-0.25622424423 0.41440355629 -0.8712682065 -0.23941945964 0.48435203683 -0.83596683016 -0.22252195068 0.56255219253 -0.79239332811 
-0.21184126558 0.62523658542 -0.74763655974 -0.2098960281 0.68617926693 -0.6943173524 -0.28860998903 0.88069265145 -0.34372286463 
-0.24495094566 0.82753412711 -0.49889273186 -0.34154408504 0.92121952085 -0.16773832541 -0.36111750381 0.92154743974 -0.011848508687 
-0.37138060885 0.91503287202 0.11109228385 -0.36196161392 0.90324488677 0.22202770315 -0.33863530965 0.88048252341 0.32815591955 
-0.32264261593 0.87262118105 0.36611819196 -0.281517577 0.88406794837 0.36925840948 -0.17435716306 0.85534851332 0.48060021744 
-0.18699780943 0.89350175499 0.40663000995 -0.23370916433 0.77658232245 -0.58119596796 -0.23388851512 0.73654360996 -0.63137183566 
-0.21375589854 0.90134292252 0.37507225114 -0.2441226059 0.89870925178 0.3622910939 -0.10727706893 0.74657926897 0.65424833889 
-0.16532897688 0.83811968568 0.51510425077 -0.098879355646 0.7157805442 0.68625562051 -0.091632544746 0.62856563617 0.76921155851 
-0.069747057844 0.65909178341 0.74715557305 -0.077538173187 0.54061810559 0.83024940217 -0.069221348127 0.54268723329 0.83528524172 
-0.01570445641 0.39625820838 0.91348393573 0.017325560509 0.30935068584 0.94512717011 0.075949779097 0.15419349834 0.97334589769 
0.10203393631 -0.14282161189 0.97991080394 0.13074871875 -0.27073249177 0.94890702608 0.16713135147 -0.34607624642 0.92225559491 
0.19427434364 -0.39375471509 0.89656374114 0.22367416713 -0.44567960197 0.86489864916 0.25309243946 -0.50302186911 0.82491441378 
0.2769572651 -0.54846648791 0.78771236513 0.305607526 -0.56754448866 0.76417304954 0.31742690907 -0.59602270394 0.73723857211 
0.32698307075 -0.6220107487 0.71027608253 0.33437197652 -0.66567369677 0.66661336233 0.34612955385 -0.71825294607 0.60013551196 
0.36239683044 -0.76771460074 0.52587335505 0.38989079607 -0.8034661805 0.44897563872 0.40716284649 -0.84602619485 0.33622993491 
0.40831992976 -0.87075298198 0.26320674106 0.3807511103 -0.90405725445 0.17345279996 0.35760555575 -0.92631059501 0.094340192946 
0.31734135987 -0.93795112467 -0.057714020387 0.26099337013 -0.95026025927 -0.14592618885 0.22364593503 -0.8681042359 -0.42885031013 
0.19981281011 -0.93367784973 -0.25630820469 0.25478825905 -0.84699065629 -0.45377445556 -0.31074952777 0.50686928671 -0.79658636647 
-0.29764048741 0.42887587764 -0.84958626218 -0.27191763762 0.34122699372 -0.89608328265 -0.24700572369 0.24470879423 -0.93602098018 
-0.23041786075 0.14641699661 -0.9603123133 -0.21125789954 0.088086541764 -0.97330169936 -0.19100883343 0.066438368998 -0.97903736495 
-0.16604983444 0.051158164933 -0.98464446518 -0.14074434606 0.031559993914 -0.98876204866 -0.10792050825 -0.068101270399 -0.99096900987 
-0.075979960081 -0.19224098172 -0.97372095584 -0.043361887298 -0.29926300503 -0.95217294176 -0.017283611306 -0.36323688416 -0.93079203399 
0.0033013751119 -0.42034774356 -0.90682250558 -0.0094691751325 -0.40878918445 -0.91251974262 0.026714500238 -0.46914607258 -0.88222257145 
0.031387805797 -0.62463040349 -0.75903982861 0.042544275604 -0.78750090864 -0.60998176375 0.07463512094 -0.88322516282 -0.42986712387 
0.11387899261 -0.94993257095 -0.28226310914 0.16204210877 -0.96439939531 -0.19510423827 0.21756935911 -0.96553132655 -0.12283244781 
0.27581036863 -0.95894405506 -0.058795093572 0.31041694392 -0.94504633068 0.06475947514 0.34381298061 -0.88733716931 0.29650518128 
0.36995810509 -0.83553500701 0.40388507014 0.37978213558 -0.79124107218 0.47577518002 0.38117496241 -0.74445532471 0.54360311743 
0.37614879518 -0.68546150061 0.62177280093 0.37391307627 -0.60705877481 0.69734876309 0.37005311222 -0.54861258734 0.74962466096 
0.36063357694 -0.53388796199 0.76459637033 0.33852011243 -0.54495086325 0.76674463481 0.33478332727 -0.51523133384 0.78838339957 
0.32289998095 -0.47395729548 0.8189317128 0.29305557426 -0.41403721492 0.85774143525 0.24505232449 -0.24107188423 0.93358228452 
0.1776640452 0.0050660809344 0.96711940556 0.089576872469 0.24683986531 0.96225204726 0.037921933444 0.3547756881 0.93275694693 
0.024227401144 0.41325433909 0.90891333043 0.012909774576 0.48237200127 0.87261664451 -0.014514188875 0.59262117303 0.80133609854 
-0.026902892927 0.67089856398 0.73811145705 -0.030556430216 0.72407188233 0.68823422563 -0.068897801889 0.78312026016 0.61356784408 
-0.09689112272 0.85011495152 0.5158424267 -0.13093150976 0.88632198861 0.44029574503 -0.16582014033 0.90596664142 0.38894024333 
-0.1813632847 0.91295426371 0.36327206756 -0.17791788662 0.92268739976 0.34097879867 -0.19211044917 0.92808321452 0.31472019063 
-0.20597359871 0.93742716412 0.27953955278 -0.24132770506 0.94525012274 0.19174906711 -0.27872044157 0.9545553839 0.083993893693 
-0.29777223715 0.94025321051 -0.074922192835 -0.31980160999 0.91969528421 -0.21493121236 -0.32202914086 0.87103381726 -0.33857459018 
-0.30218232693 0.81144942326 -0.48428114506 -0.29722473497 0.79128325232 -0.53147824062 -0.29177088059 0.73588587967 -0.60121032929 
-0.28205160316 0.62351291254 -0.72474249846 -0.25837092095 0.64095301493 -0.71446238222 -0.27403913742 0.51601893164 -0.80589209531 
-0.0053946224388 -0.39235767383 -0.91964441462 0.0014937855938 -0.36228265196 -0.93173994291 -0.0015412367503 0.36895543338 0.92116218604 
0.051172784828 0.26991634037 0.95908431751 0.18164118777 -0.29458420107 0.93547694467 0.18405522535 -0.2113217163 0.95570167175 
0.18785940158 -0.3505427459 0.91553980997 0.20655203748 -0.40449083658 0.88950782416 0.22183369249 -0.47855067465 0.84647141757 
0.23945837167 -0.54446029123 0.80185746032 0.25978732863 -0.58438922724 0.76780869066 0.28283188413 -0.61413990855 0.73653350173 
0.29901900296 -0.59089858724 0.74911015573 0.31312393177 -0.59921249885 0.73629286139 0.32703379484 -0.62625893815 0.70739605262 
0.34583909069 -0.67136451277 0.65215207951 0.36710225141 -0.72454938593 0.58001375282 0.38591800692 -0.77706471906 0.49503462302 
0.40052550947 -0.81467340754 0.41414999318 0.40018962511 -0.8688579226 0.27836327244 0.39798376161 -0.86238996601 0.29898768065 
0.19172749967 -0.7704278261 -0.58964188501 0.10436904705 -0.64543902454 -0.74455875261 0.029485346597 -0.5094218187 -0.85771005463 
-0.0023775080779 -0.42587523268 -0.90416375167 -0.0067618484971 -0.37035318437 -0.92873085778 -0.0052191473848 -0.32639215139 -0.94466741916 
-0.016748262834 -0.25069572013 -0.96608155771 -0.019701806295 -0.19075631098 -0.98078368021 -0.037817574217 -0.11634934488 -0.98937662195 
-0.055247268724 -0.049081493253 -0.99416957257 -0.094588705787 0.054147007067 -0.98718971644 -0.13633155581 0.17328112807 -0.97514646027 
-0.13405813309 0.11553176109 -0.98280204111 -0.11804832091 0.16953097931 -0.97660800708 -0.096701478309 0.12866552945 -0.98538544089 
-0.089483829465 0.066044842511 -0.992924436 -0.12704000536 0.14413769803 -0.97967264332 -0.16321124782 0.23725590956 -0.95312858677 
-0.19825491447 0.29441667058 -0.93356259609 -0.1813260108 0.37767807337 -0.90170139069 -0.19046005315 0.47649984542 -0.85476721655 
-0.20857341897 0.56584419633 -0.79182826205 -0.20686362114 0.62434188785 -0.74883872308 -0.21179802845 0.65841508362 -0.71794724065 
-0.2486700434 0.76155463392 -0.59650494646 -0.27202739394 0.74216964079 -0.60283633824 -0.27126585068 0.80980879651 -0.51003703838 
-0.31850259515 0.86994741072 -0.37166393073 -0.34313583111 0.90515466765 -0.1833766693 -0.35945571783 0.93130985717 -0.018594844849 
-0.36291116188 0.9179237286 0.10869793677 -0.10330563908 0.80164935159 0.58469866843 -0.12853680015 0.85093450383 0.50515998494 
-0.062143857231 0.72431681602 0.68381582556 -0.038637807195 0.54238955388 0.83633628855 -0.052984741373 0.63819381076 0.76656366636 
-0.06304080069 0.50630479274 0.85482341312 -0.26079120922 0.43045784199 -0.85912419898 -0.24124236858 0.31984560748 -0.91119020565 
-0.22032485297 0.2123570307 -0.94881266614 -0.20097272391 0.14005554364 -0.96856354781 -0.17883259012 0.093966407621 -0.97911325153 
-0.16438092035 0.084220547368 -0.98257599946 -0.14833979393 0.096054302167 -0.98393393662 -0.079111751418 -0.082303697074 -0.98924261917 
-0.042650713752 -0.19788015875 -0.97666837279 -0.014188192652 -0.27222627653 -0.96100363674 0.0002439674755 -0.28836198101 -0.95636212151 
0.0063555140959 -0.44623404649 -0.89208998146 -0.0050392340087 -0.40673352791 -0.91098766308 0.016327138329 -0.50526053377 -0.85682144895 
0.020239978004 -0.61873329571 -0.77868819269 0.043603254966 -0.74536268959 -0.64980640354 0.073358662034 -0.85740448206 -0.49073306899 
0.11107294121 -0.92541348114 -0.34974233605 0.16360328043 -0.95644995032 -0.22285836797 0.22302828792 -0.96625492897 -0.10666554343 
0.28319902305 -0.95672841585 -0.010587312549 0.31471119219 -0.93891031745 0.084385891043 0.35178503906 -0.92217184355 0.1274030637 
0.37516445779 -0.76907789138 0.51426626837 0.39201196133 -0.8077486236 0.43876066929 0.36279392581 -0.71399765748 0.59490741347 
0.35726407211 -0.63757453713 0.67920800583 0.35344153478 -0.58927888339 0.72516690372 0.34853918249 -0.55087089989 0.7581247062 
0.3367821257 -0.56045546868 0.75642150995 0.32489526442 -0.57856430464 0.74804672445 0.29928526037 -0.45333173326 0.83917489525 
0.31508320442 -0.49387946857 0.80945179668 0.27052642964 -0.3766748566 0.88103867385 0.2363577663 -0.26877533829 0.93054102268 
0.19329447131 -0.058816765878 0.96863684994 0.14340622157 0.1186394583 0.97570174386 0.082791589663 0.27384901425 0.95287804419 
0.013176637296 0.41135799088 0.90520841202 0.39312994832 -0.85065816495 0.33359834562 0.39662572982 -0.8691110335 0.28668699725 
0.1644472349 -0.056638669972 0.97615361595 0.10983791394 0.15963939191 0.96721132892 0.32161560358 -0.55784114347 0.76475807661 
0.31134889064 -0.59314119283 0.74177866314 -0.054506606125 0.69453679145 0.71339611029 -0.05428629487 0.74087174853 0.66699136308 
-0.056267753546 0.78789475668 0.60725348766 -0.071888527066 0.8503022493 0.51997852761 -0.11847500524 0.87837675667 0.45631071451 
-0.17202545406 0.90572675967 0.38641468466 -0.21036333444 0.91767967928 0.33315860047 -0.23231364092 0.9249847231 0.30005442991 
-0.24919562675 0.93312162958 0.25263236543 -0.26792382189 0.94233907515 0.19573157491 -0.29156029949 0.94684169033 0.092480311338 
-0.3085288234 0.94936284491 -0.020510202554 -0.3106429581 0.92786263101 -0.15546584527 -0.30758379525 0.90365352899 -0.28106936467 
-0.30646318926 0.87171992034 -0.37044030656 -0.3059481617 0.86645696237 -0.38070429071 -0.30510982009 0.84081716945 -0.43877063736 
-0.28623479181 0.77413506229 -0.56360450576 -0.24932292557 0.60815983151 -0.74673367556 -0.33469413031 0.889489474 0.30750806004 
-0.34962747357 0.90611422638 0.22922949613 -0.32488810689 0.87994720597 0.34534671133 -0.30500438418 0.8886912428 0.34114312586 
-0.27563272061 0.89702005655 0.34197279894 -0.21036597891 0.90454713584 0.36931743476 -0.23628683862 0.91129628502 0.33429418667 
-0.1806410711 0.89201961343 0.40975008124 0.028017058827 -0.66852089314 -0.73133555961 0.0091534038792 -0.54737013461 -0.8286235995 
0.058063507276 -0.78831906493 -0.602913325 0.086424911839 -0.86525708427 -0.47592511694 0.12117003714 -0.91233327186 -0.37922404049 
0.16618003763 -0.93605305919 -0.28543948357 0.23054717927 -0.95781874187 -0.14120878877 0.32741197702 -0.94119581161 0.043699305971 
0.36943473175 -0.91437016548 0.13943607205 -0.25955618985 0.91665894373 0.30160368836 -0.27818604399 0.92619086585 0.24705366221 
-0.29710190773 0.93528319559 0.18694481994 -0.31033766807 0.94092285758 0.098584829007 -0.32254785506 0.94567297524 0.0045720892585 
-0.32280107875 0.93244106708 -0.10965552484 -0.32170700321 0.91688735835 -0.23184579761 -0.30569400068 0.86941592221 -0.37481141348 
-0.3035554972 0.83944783147 -0.43007940644 -0.30753622894 0.85319163196 -0.4088604279 -0.319590967 0.87975860508 -0.3267599151 
-0.33576358582 0.90739812215 -0.20003407857 -0.3514950173 0.92988348586 -0.042687995952 -0.35325454944 0.92416703051 0.095437613566 
-0.22959190103 0.48776253178 -0.83638850573 -0.20359128992 0.38065882039 -0.89809452536 -0.17646951252 0.28028884103 -0.94134992025 
-0.15374920716 0.18922481724 -0.96637826795 -0.129377171 0.11100780532 -0.98498064156 -0.13699698578 0.10857324985 -0.9843611381 
-0.12912214827 0.12041136468 -0.98416918078 -0.15300540226 0.3240478646 -0.93244793579 -0.14233054255 0.36929071313 -0.91383794545 
-0.14468701724 0.44559913749 -0.88323560292 -0.20272732982 0.53308154284 -0.81471853065 -0.12600041236 0.17269418119 -0.97564370558 
-0.079591792808 0.12131996345 -0.98929814095 -0.07688643001 0.13231231742 -0.98703007929 -0.10073117274 0.17666892306 -0.97516539054 
-0.32988082433 0.89815367289 -0.28476395021 -0.33456466847 0.91709257057 -0.17968463594 -0.33305498145 0.93501433247 -0.055417526872 
-0.3325622933 0.93680989347 0.057832697371 -0.33082291201 0.92564368779 0.15875429924 -0.32425391156 0.91166268948 0.24642942102 
-0.31601474792 0.89804199534 0.3005888906 -0.29393868824 0.91293727114 0.28062633242 -0.082705920757 0.00055459289976 -0.99411937092 
-0.04874871134 -0.091940634665 -0.99044158098 -0.012912528402 -0.19900430405 -0.97755179396 0.0014300158262 -0.25968169349 -0.96492233176 
-0.0043571359032 -0.37373972952 -0.92751778186 -0.00089138413016 -0.35901350269 -0.93311411192 0.14383447175 -0.79862017408 -0.57018235383 
0.062368204448 -0.64624885208 -0.75300606267 0.004346988147 -0.53379646871 -0.84278182314 -0.008154681128 -0.43594030481 -0.89696374077 
-0.014692708412 -0.37719434897 -0.92574744163 -0.0051502610054 -0.43834992957 -0.89835012496 -0.00036144015547 -0.29000610535 -0.95588190732 
0.39793864309 -0.81468542171 0.41489062346 0.39347451436 -0.78144316977 0.48300647047 0.37928590649 -0.74942838214 0.53986989639 
0.36414525572 -0.70831081288 0.60092448478 0.35083523617 -0.67013448872 0.65170535466 0.33815729008 -0.62313809846 0.7024346934 
0.32532145254 -0.57617604045 0.74840584456 0.31908645297 -0.57392229605 0.75407685155 0.31166277989 -0.5968756029 0.73893171033 
0.29812699097 -0.61798729697 0.72736970972 0.29315952195 -0.57564686762 0.76180037545 0.28572318153 -0.60983240534 0.73915522451 
0.29975757197 -0.54714070878 0.78091644979 0.29828782271 -0.50782229494 0.8060895926 0.29194976724 -0.46011373855 0.83831228794 
0.2684111164 -0.39979681938 0.87365527456 0.24147912938 -0.3090729373 0.9155472128 0.22760428605 -0.13418978925 0.95991425865 
0.17095671258 0.052053307237 0.97484850097 0.11883304073 0.18662201449 0.96921851338 0.052496426241 0.33329373816 0.93385766853 
0.17569096201 0.021607852249 0.97622476621 0.18829925437 -0.060558823765 0.97369240563 0.20387556076 -0.2021523187 0.94862154382 
0.21856818267 -0.32525869846 0.91964528693 0.23454589624 -0.39304690403 0.88658208628 0.24870013848 -0.44977725642 0.856299478 
0.25751508596 -0.50566890494 0.82112609711 0.26512447063 -0.56309606897 0.78005886286 0.29296157612 -0.59405836463 0.74904752133 
0.29051079488 -0.60530369127 0.7409203532 0.30255116916 -0.60271254099 0.73726469455 0.3196465649 -0.63999963382 0.69780491935 
0.343235601 -0.68534566242 0.63881258844 0.35576848739 -0.75013910158 0.55541581579 0.38101691962 -0.78604780105 0.48268819751 
0.39399593716 -0.81328706205 0.42437539844 0.14329620415 -0.89245917379 -0.42186516922 0.33688346608 -0.62388774597 0.70282620796 
0.32478053022 -0.5994602368 0.73121711483 0.31432301971 -0.5858740998 0.74668582323 0.30659953932 -0.58787296628 0.74831828767 
0.30247894516 -0.6015542217 0.73892461005 0.26138499367 -0.42531913094 0.86604441237 0.27302926563 -0.48351052241 0.82937121069 
0.24601499544 -0.37072455252 0.89268633552 0.23305969799 -0.32813034312 0.91390021747 -0.10511390147 0.11412973699 -0.98759454597 
-0.089975721448 0.11240137737 -0.9894013454 -0.19623647964 0.40290856708 -0.8891512674 -0.14704421608 0.2906608367 -0.94431281989 
-0.22444652663 0.47642845145 -0.84735095304 -0.30864578944 0.92685818318 0.20074293578 -0.32122776736 0.9385970964 0.11174229872 
-0.32693290263 0.93996159959 0.012454402792 -0.33172514681 0.93645090186 -0.095113551934 -0.31906414503 0.91054740921 -0.22947514022 
0.27810613115 -0.6037603702 0.74678672679 0.28538905838 -0.58906598776 0.75508546588 0.2814825318 -0.54357215264 0.78882419728 
-0.0060633635092 -0.38320870235 -0.92326754067 -0.0052268048213 -0.40735842325 -0.91236896875 0.011625134169 -0.58029039424 -0.80587092345 
0.041803003234 -0.67355816093 -0.72985898849 0.081095655413 -0.76918474676 -0.61919253981 0.10003510506 -0.8192229394 -0.54513179967 
-0.087190974486 0.15578121634 -0.98235795696 -0.051681594131 0.68185722699 0.72633823218 0.0059332967305 -0.32256204835 -0.94602136936 

Curv_Gaussian 1 1116 double
5.2769808382 5.4241749965 -0.0091084704208 -0.0037723472497 5.7656035194 -0.0071247132685 5.8562153915 -0.0047904368218 5.9182666067 
-0.0052638210802 5.9525663606 -0.0052514440885 6.0436294811 -0.0038916840461 5.9440733318 -0.0038690728456 5.6290735653 -0.0055375728808 
5.268088276 -0.0046866692679 5.0165432465 -0.0029165296395 4.8594797995 0.00038666170914 4.7813958004 -0.0051302760624 4.811679228 
-0.0070105331915 4.9124938074 -0.0047775705365 4.9622550193 -0.0077351690272 5.0097518471 -0.009519699003 5.052079927 -0.0096584998455 
4.9300883048 -0.0080965390092 4.625506393 -0.0038266325536 4.4820531878 -0.0022997726653 4.404835202 -0.0022888545812 4.4932722443 
-0.0081183606746 4.6552659272 -0.011677318924 4.9945140017 -0.015396374957 5.4227294966 -0.022656526078 5.9133989339 -0.02665235524 
6.4991717388 -0.013427542687 6.7493424125 -0.0084641866207 6.6360974598 -0.0023397561792 6.1171099353 -0.0018179035871 5.8088561359 
-0.0024135488429 5.7191513807 -0.0040841329164 5.6235935427 -0.0042535334803 5.8364821652 -0.0032094758274 6.3296064371 -0.0016311198774 
5.7997864739 -0.0011470041347 5.5018236758 -0.0010605674065 5.4939542058 -0.0028787937014 5.7680572193 -0.0046108481519 5.8057075747 
-0.0059534261476 5.3221591462 -0.0042753340684 5.3185005912 -0.0057821569786 5.3432280279 -0.0075643869408 5.3181555399 -0.010129590282 
5.1069505146 -0.014960552935 4.9196977878 -0.019648939979 4.7201262255 -0.019631238565 4.3616773059 -0.013270308412 4.2683984639 
-0.0071186402032 4.3248720493 -0.0052254392209 4.4831361851 -0.006025933714 4.9600117533 -0.0062087594986 5.9701877979 -0.0046459393147 
6.6288405656 -0.0012017694141 6.5865701156 -0.00028781716539 4.5738632977 5.2929217011 -0.0040270812727 -0.008209810325 5.6012298063 
-0.0050033480967 5.1282201196 -0.003198349344 5.335300212 -0.00189263943 5.6849961276 -0.00091906888472 5.7105565642 -0.00030912787955 
5.6341244914 -5.4089190517e-05 5.1787115161 -0.00037607476293 4.7588042582 -0.00020842671596 4.4432583753 -0.0046308419508 4.2961600184 
-0.0071234562288 4.6098166108 -0.0065318403166 4.7485323581 -0.0070609637455 4.6380539857 -0.0093769051881 4.6287137755 -0.015706275999 
4.6725202671 -0.026741141749 4.5447387338 -0.019019673678 4.6184643496 -0.011322120997 5.28432358 -0.0059836017318 5.9508362235 
-0.0048283557086 6.617797985 -0.0078385804197 6.5478051855 -0.0075327801865 6.8028796182 -0.0057150920332 7.6878087484 -0.0060256647264 
7.7860994222 -0.003606497779 7.4547270081 -0.00059269410643 6.5848532266 -0.0017679883257 6.039046261 -0.0044180055959 5.9383444672 
-0.0076922869618 6.3685303236 -0.011154505359 6.5230182356 -0.0093096120657 6.383243222 -0.0077676152262 5.8903944878 0.00042876023261 
5.7923350129 0.0032755262142 5.9478086432 -0.0016835865327 6.3063637441 -0.013370342799 6.8016263459 -0.021117231421 7.4458718864 
-0.022581464495 8.3216362555 -0.0071794799017 9.0527091614 -0.0022914057151 9.2707168917 -0.0015607598834 8.9171685471 -0.0010575506186 
8.4757339411 0.00044209747073 7.8878133026 -0.0031381377632 7.1797849232 -0.0057319770088 6.5137866491 -0.0025406141506 5.7918659582 
0.00029005444158 5.0199539357 0.00013913517561 5.4125654262 -0.00016146953361 5.7553283507 -0.00028725661681 5.7660009616 -0.0017553800441 
5.4544835286 -0.0038879048303 4.906708779 -0.0047593890952 4.2437194776 -0.0076121043286 3.8189201877 -0.011978696995 5.0977058923 
-0.012164860822 5.2894260309 -0.012382682248 0.0009211173112 0.0049292234962 -0.004981497059 -0.0010514610527 -0.00152396027 -0.00083463405729 
-0.0020799995562 -0.0047942779025 -0.0124917845 -0.010342146638 -0.0040397246208 -0.0061644165944 -0.0058600466611 -0.0033792215459 -0.0020802276237 
-0.0030176577776 -0.0042342919661 -0.0050317825472 -0.0075015351578 -0.0081451536955 -0.0075765365288 -0.0075257947796 -0.011167562328 -0.010932026595 
-0.0091842923114 -0.0077017843631 -0.0094368824687 -0.0061088951073 -0.0025260385217 -0.0022119792505 -0.0024587148397 -0.0024532435369 -0.0025059874847 
-0.0007343977833 -0.0019294654236 -0.0020816771744 -0.0021610967584 -0.0020717626719 -0.0011951196682 -0.0021722886702 -0.0024888901101 -0.0010691945308 
0.0003417255907 -8.8924794501e-05 0.0010981611552 0.0047913583087 0.0014532496909 0.00015565491069 -0.00021091929675 -0.00066768832826 -0.001261232497 
-0.007743627807 -0.0088171045477 -0.0061277944151 2.1022328718e-05 -0.0046469360932 -0.0036059904487 -0.0018502477952 -0.0065166595965 -0.0040804382292 
-0.002816867401 -0.0023888001041 -0.0023672458548 -0.003159244742 -0.0037877609891 -0.0036149107999 -0.0035741817641 -0.0049291717359 -0.0073733279195 
-0.010358042439 -0.0088662001546 -0.0090957861565 -0.011793663856 -0.0018133506364 2.2884119777e-05 0.0019730169427 0.00096128725657 -0.00014152535018 
-0.0016414705154 -0.0020065412619 0.00031568094319 0.0024540072355 0.0011594807922 -0.001530919931 -0.0031047671184 -0.0031434146849 -0.0013515032472 
-0.0010651975748 -0.0010360833669 -0.0014740046843 9.058210476e-06 0.0013396142145 -0.0092795780939 -0.010874872023 -0.0085705459065 -0.0015855182733 
-0.0025281595576 -0.003852369201 -0.0059540133994 -0.0059544974297 -0.0017695623435 -0.00052257677155 -0.00076440199224 -0.00026879496732 -0.00097669994694 
-0.0010469401381 -0.0021856368214 -0.0041805806242 -0.0031236678554 -0.0017694636308 -0.0008977893132 0.009123338702 0.0041639778345 -0.0019685283226 
0.0032010312501 -0.0033094411329 0.0028755029564 0.0028691875807 0.0012970870792 -0.0016628947806 -0.0059275661704 -0.0093870891099 -0.0066535094236 
-0.0047852530082 -0.0030857954945 -0.003522204118 -0.0073163058292 -0.0063352770303 0.00098496801243 -0.0020032011517 -0.0057529895246 -0.0038181081291 
-0.0018445449669 -0.0006795703017 0.0025298134131 -0.0091043726771 -0.0038907494734 -0.0078756737687 -0.0056927387582 -0.001516212576 -6.2812851898e-05 
0.00016436155219 -0.0014125028063 -0.0030556825218 -0.0024637275351 -0.0030415655135 -0.0011778846352 0.00019639407834 0.00010480494279 -0.00024502096908 
-0.00030478639837 0.00018587533286 -0.00094418709601 -0.00048181834608 0.0017662706185 0.0043987868475 0.0048492127504 -0.0024732185711 -0.0034003151053 
-0.0042751956696 0.0014944750034 0.0042284483093 0.001408295876 0.0014714113981 0.0043859319145 -0.0079752723027 -0.010636161602 -0.0064168880965 
0.0018269066752 -0.0033819288754 0.0019055619845 0.0051451342777 0.0074350072565 0.0053025127445 -0.0019399854888 -0.00023345688965 -0.0035563153945 
-0.0038195415596 -0.005988001899 -0.0071091969127 -0.0032104317426 -0.0023034216394 -0.0037516275755 -0.0031642263371 -0.0029002640792 -0.0028396288423 
0.0018302528987 0.0084683951181 0.019935601902 0.021262073799 0.012397550108 0.00058962451686 -0.00023488555145 0.00063805172011 0.0010056992223 
0.00027082245194 -0.00085829471533 -0.0013607154484 -0.00031221943428 0.0023160063616 0.0012031588699 0.0011538085776 0.0012321722471 -0.00040797811735 
0.00049778167104 -0.00024729414704 -0.00090125712795 -0.00045572791994 -0.0011945426489 0.00056139978211 0.0009444675834 -0.0013390438452 -0.00024446434106 
0.00021889665619 -0.002915539959 -0.0045070739976 -0.0048805335311 -0.0056736489034 -0.004923182222 -0.0038398247544 -0.0011545401778 -0.00070908707405 
-0.00036616985092 -0.00094680078421 -0.00072245269708 0.00010059464123 0.0037303566613 0.012152523883 0.0079800778855 -0.00055877695146 0.0010005668104 
0.00059762403578 0.0090729097165 0.0066993481551 0.011886628935 0.01215245937 0.011215893117 0.0077733207065 -0.00040991140609 0.0027572074066 
0.0035174747484 0.0043819650546 0.0022136927976 -0.0049065730891 -0.0027422380197 -0.0021918357842 -9.1821192285e-05 0.0056453859242 0.0066389010221 
0.0032706853718 0.0029753147633 0.00012207264969 -0.0024570242284 -0.0088959478363 -0.0026536894248 -0.0012412817508 -0.0012269640699 -0.00050101980604 
-5.303554049e-05 -0.00023172433766 -0.0032101436691 -0.008207341287 -0.0039409355581 -0.0003131726421 7.4452323502e-05 0.0010087448432 0.0021746079862 
0.0028052972268 0.0033572278833 0.004070554915 0.0060981295427 0.0090412590045 0.0042797529505 0.0026202262546 0.0023012708842 0.0028170271821 
0.00090550314177 -0.00029170891909 -0.00033054021966 -0.0003497707099 -0.0012576816923 -0.0024315692203 -0.00098082353588 0.00058163218044 0.0013175327877 
0.0016139906918 0.0019136843761 0.00048063481998 -0.00022579424614 -0.00023924608986 0.0014435088019 0.0021303567273 0.00091303535776 0.0038313994978 
0.0070510529652 0.0077930262262 0.010320466305 0.0053267054992 0.014612558994 0.0010005861873 0.00021095519264 0.0016085847069 -0.0012394816848 
-0.0037648775209 -0.0022026557829 -0.0002963450377 -0.00043060726254 -0.00090249069748 0.001621237434 0.0047180791288 0.013515729774 0.020977674432 
0.01846405162 0.017174003996 0.018105179572 0.0048088714983 0.0035768743356 0.0091125910641 0.0045783015304 0.00031123817811 0.00035564884878 
0.0013539784407 0.0012848123299 -0.0012413045037 0.007030151145 0.0060683524064 0.00078280611815 -0.00027739015824 -0.00092878283716 -0.0010606427503 
-0.00061829011385 -0.00069000665577 0.00079908239725 0.002573544947 0.0017749985409 -0.0011202337217 -0.0017396257686 -0.0025487800934 -0.0038949221054 
-0.0052064614879 -0.0047842497642 -0.0024348435964 -0.0017619841071 -0.002463037973 -0.0017641791701 -0.0013610937569 -0.00056497970044 3.0888478394e-05 
0.0012815546332 0.001791490828 0.0070138845949 0.011295239498 0.0073764974395 0.0021381919979 -0.0012028658748 -0.00078626293357 -0.0011385583162 
0.0083554615777 0.0072201093979 0.024757073571 0.023400872205 0.017937345936 0.010486749808 -5.5942695767e-05 -0.00031027811017 0.0011632638013 
0.004675205126 0.0062240378677 0.0068407687946 0.0026906974817 0.0011701975772 0.0012321096075 -0.005282490387 -0.0029488714064 -0.00042564188395 
-0.00054501069967 -0.0019401938689 -0.0029685589381 -0.0021547868698 -0.00052609150686 -0.00042740176393 0.00088075364469 0.0013620859353 0.0022072499196 
0.0018279759512 0.0010324499571 -0.00024940561993 -0.00052515875841 0.00011283594686 7.5008943929e-05 0.0006731911623 0.0012648604998 0.0015880656771 
0.0052231535045 0.0062189194277 0.0077366163018 0.0035388886904 0.0080420234045 0.010105222553 0.0099370585731 0.0081919616692 0.0033131426192 
-0.0043974027169 -0.011297070176 -0.0028710513162 -0.00074292605077 -0.00041020797846 0.0012143103457 -0.00069651588912 -0.00093135470393 0.00020251316787 
0.001078881837 0.00059858919364 0.0016248374682 0.0018550279471 0.0014302501901 0.00022120503595 0.0016128164251 0.0010414745267 0.0021175194449 
0.0070669754669 0.0084526984572 0.0074500415593 0.006041013728 0.0039279762695 0.0066825086533 0.0089799246003 0.0010321206772 -0.00097825315623 
0.0068216080239 0.0089140376264 0.0048618265331 0.0027238154491 0.0019261474287 0.0033107081638 0.0023784330345 0.00044683424414 0.001323879646 
4.0864334532e-05 0.0012522802174 0.0015364487656 0.0031407773441 0.00031594370447 -0.00084989295034 -0.0013707061208 -0.00041907304531 0.0019907218123 
0.0041659289784 0.0060631967513 3.3619341567e-05 -0.0018016914912 -0.00067213590213 -0.001219977352 -0.00070315754177 2.7956077397e-05 0.00032130608184 
-0.00063688640094 -0.00075138908687 -0.0010425354182 -7.1139651231e-05 0.00088034256803 0.0011284268951 8.1460893389e-05 -0.00031062001271 -0.00026627925601 
1.6676972634e-05 0.007317985905 0.018302377365 0.01068208608 0.0056133803803 0.0012583555199 -0.0016896540431 -0.0033716493278 -0.0023917011337 
-0.0023563479235 -0.0019761441118 -0.0015075099932 -0.0019889204097 -0.0006397918233 0.00031863866234 -0.00059404353024 -0.0017364565264 0.001314248772 
0.003413886692 0.0094037983009 0.019956855635 0.020571078251 0.021833939056 0.015025705142 0.0072467846061 0.00079432218004 0.0052797851775 
-0.00073943902505 0.0086013026367 0.0045862601942 0.00099754833458 -0.00023314309916 0.0013663976377 0.00089825548484 0.00086727474497 0.0025281536544 
0.004348670168 0.0062566214549 0.010663957393 -0.0023491575254 0.0015826435687 0.0025172675099 0.0056573260024 0.0015764540391 -0.0020131834265 
-0.0033978951112 -0.0034701636212 -0.0018513701533 -0.0018619896648 -0.002783992656 -0.003235803481 -0.0017290697936 8.118438543e-05 0.01091144596 
0.0068069897547 0.014006409924 0.0095188652688 0.0054128969241 0.0063252008747 0.0019730485976 -0.00014812195198 -0.00017379792377 0.0020532683432 
0.00085105830302 0.0020343657351 0.0012485175904 0.00019128749713 -8.3094010297e-05 0.0040132260523 0.0042652694724 0.0012023549881 0.00010734115994 
-0.00030069465881 0.0080005914396 0.010868997676 0.013230396276 0.0059675250184 0.014284187056 0.01141479837 0.001418457176 -0.00054487249602 
-0.00052656140211 -2.2133081415e-05 -6.4564872574e-05 -0.0013735842361 -0.00056616225743 0.00054502636377 -0.00043345914236 -0.00018022767665 0.00048079181882 
0.00094969338408 0.0012706999034 0.003288847116 0.0058226131742 0.0047712834574 0.0032139956526 0.0055171377926 0.007783647797 0.0091831122851 
0.0082166218337 0.0034664028003 0.0060515424422 0.0026072846813 0.0014972511338 0.0021051673801 0.0025108614978 0.001360867938 0.00077538217295 
-0.00039753900972 -0.0019835638041 -0.0074923084557 -0.0034491262263 -0.00076734419578 -0.0002554498225 0.0019253459323 -0.0019584998904 -0.00039303916162 
0.0030478413423 0.0044863976397 0.00076310478218 -0.0013205591453 -0.00074349316581 -0.00023979104201 0.00012587938833 0.00097429289924 0.0068342561337 
0.0024921494535 0.0020499499017 0.0029190970281 0.0054923850902 0.0022992288394 0.00095096316036 9.4092494019e-05 -0.00069465429861 -0.0010041251786 
-0.00074676911807 -0.0026052029933 -0.00032270654908 -0.00065647140946 -0.0046827124245 0.0032597839477 0.0021494015858 0.0013163655235 -0.0018502724592 
-0.00058358430282 0.00051803695312 0.0060835576809 0.008653787787 0.006590994053 0.0054033999549 0.0023621262494 -0.0011540191048 -0.00075096770712 
0.00066397479456 0.001283458586 0.007218861813 0.0098392509962 0.0087149348449 0.0054462489516 -0.00053144463533 -0.0023852211072 0.0016765410173 
0.001367643827 0.0053074137538 0.0017168820287 -0.0012778476257 0.00073457322285 0.010525792567 0.012390492806 0.0029104269298 0.0062579581759 
0.0027044373025 0.0046695019512 0.0031418037511 0.00068711340906 -0.00055226516116 -0.00023359996786 -0.00014584368723 0.00011749804346 0.00092411884605 
0.0017841542263 0.0028463490162 0.0044076561638 0.0041100337716 0.0051752396913 0.004289385174 0.0080984455127 0.0086017194054 0.0066559029865 
0.0045597347437 0.00062149602966 0.00041094254284 0.00028423453127 -0.00081749994987 -0.0016689722865 -0.0019340645925 0.0096682601903 0.0018923839952 
-0.0013587439818 0.0025623014047 0.0063078233537 -0.00011634100562 -0.0028721086192 -0.003587462513 -0.0027448404371 -0.0038513280175 -0.00210000585 
0.000951819134 0.00092771859468 0.0016537269492 0.0026389114744 0.0040929137044 0.0046879025183 0.013591172884 0.012780492402 0.010541350027 
0.0082509206564 0.003292945651 0.0062306233046 0.0014917337667 0.0014092301063 0.00074017298719 0.0042817157442 0.0043357011478 0.0061208766184 
0.005903450186 0.0043301625409 0.0013667587434 -0.00026357965064 -0.0028814282373 0.01196487307 0.0098755040678 0.0016232416719 0.0021933716495 
0.003343866575 0.0014121870365 0.0061858744998 0.011097523063 0.0066773841859 0.00060856701945 0.00079293599915 0.00033867131458 -0.0010288805739 
0.0010941757829 0.0032742086928 0.0061188596755 0.001514195651 0.0013763048548 0.001783455322 0.00081245336589 0.00026106949691 -0.00024067275256 
-0.00048451331222 -0.00062478159555 0.00020930561207 -0.00028307970919 -0.0016638167584 -0.0031289488019 -0.0028181052825 -0.0057597602148 -0.0061478241014 
0.00547476397 0.0027387229195 0.0012108663846 0.010770238165 0.012596141752 0.00061796191971 -0.00017085650396 0.0018179357884 0.0027609123127 
0.0016116999702 -0.00030300235372 0.00035492308493 0.0019039814559 0.0022891791535 -3.0529346808e-05 -0.00057710305007 -0.0015116692915 -0.0017162424453 
-0.0024892432199 -0.0012366968491 -0.00052393640453 -9.8589055719e-05 -0.0022368064371 7.8404102984e-05 0.0040776085429 0.0070422734526 0.0020299664958 
0.0041168534998 -5.9712696178e-05 -0.00031525031038 0.0012973120505 0.0016875784992 0.0024579528153 0.0012503262197 0.0022660282027 0.0065784892348 
-0.00079724064008 0.00036850738797 0.0023600097082 0.0045155355834 0.0058767524032 0.0021956628872 0.0028479577646 0.0025403143838 0.00097945582172 
-0.00055585187431 -0.0021150098499 -0.003813601045 -0.0069228437191 -0.0089593361097 0.0030064876273 0.0012558463624 0.005030001019 0.0068715327419 
0.0075596117157 0.0068587736837 0.0056061095526 0.0026047709476 0.0030642914679 0.0068758760919 0.0049113902375 0.00025468060274 -0.0016043333396 
-0.0041178159449 -0.0047694028328 -0.0027870292675 -0.0015516302364 0.0030121691161 -0.0075393150126 0.00088159739148 -0.0031696867519 -0.0021040941064 
0.00053630536051 0.00074809976216 0.0029390795519 0.0031727380159 0.0021284520537 0.00069435120303 0.00022363443014 0.0025223501254 0.0099011069323 
0.0069318304712 0.00059474227171 -0.00022588273436 -0.00074341513173 -0.00047518498559 0.010458132275 0.0085360999726 0.0015725914571 0.0016276664243 
0.00011576616873 0.008697552312 -0.00017850916943 0.00071556661057 -5.7251892586e-05 0.00032433288913 0.0010428524524 0.0017786722715 0.0012960058321 
0.00025229748221 -0.00030347068108 -0.00073864727502 -0.0004681231164 0.0018656817544 0.0018650977226 0.0021902155486 0.0010170181552 2.3259896849e-05 
0.0007330547921 0.0013753467076 0.0021360726402 0.0020629949654 0.0081710588662 0.010330271601 0.0098836219401 0.0098236273416 0.005643380613 
0.0031103392413 0.0040457934676 0.0052046968833 0.0042885876253 0.0040886988603 -0.00040688328196 -0.00039963543677 -0.00066915513054 -0.0017690609217 
-0.00032169421825 0.002725685316 0.0020502512414 0.0019915534253 0.0063356322401 0.0024115813067 0.001827901435 0.00051804918613 -0.00024463949623 
-0.00054208599183 0.0011694432864 0.0027051318167 0.0012676904238 0.0014879086332 -0.0022113915378 -0.0010402598942 0.0034909962815 0.00094437171382 
0.0053036529657 0.0020488285899 0.0015637378478 -0.0011107647587 -0.0035793245927 -8.917196006e-06 0.0039074855118 0.0039900111008 0.00400638495 
0.00054659491029 0.0040544239744 0.0021772015261 0.0043481759987 0.0056449010803 0.003181588277 -0.002456432583 0.00071601870102 0.0011092496284 

Curv_Mean 1 1116 double
-0.16835226517 0.061635300899 -0.025903601986 -0.064625900881 0.23108208708 -0.017644923455 0.089202635473 0.0042797494583 -0.011006177848 
0.015941191373 -0.070724987662 0.024435388706 0.10169543608 0.021778118014 0.074772307061 -0.017063634365 -0.18286575104 -0.071039786653 
-0.13611826921 -0.053846286712 -0.046131364173 0.03628440742 0.06203339667 0.10522200494 -0.072479106664 0.078839008001 0.016987682663 
0.052028056756 0.21987659778 -0.0034197977927 -0.1476085471 0.03282301739 -0.30672829705 0.041440941124 0.0097727745172 0.00052752572657 
0.071586260731 -0.023386523132 -0.14960636492 -0.024356675883 -0.098895852865 -0.015676621525 0.049256074364 0.00077810326735 -0.011113329484 
0.034968267443 -0.052415871361 0.029941403109 -0.047771711633 0.032418991887 -0.098070784369 0.027785641061 -0.18396613911 0.010356835568 
-0.11507870751 -0.0076221139663 0.031115577473 -0.00852363759 0.26102362923 -0.0011510968067 -0.060993939446 0.0098841652156 -0.23203522061 
0.009356209178 -0.23402366024 -0.005501442856 -0.092214331968 -0.027339681356 -0.0092312454141 -0.035266824672 0.019357825271 -0.019655590796 
0.061599194025 -0.017748114613 0.055574839249 -0.015695554705 -0.010838265462 -0.014678159445 -0.014673652167 -0.00051071491827 -0.01104028419 
0.013451979899 -0.010072390878 -0.014143710306 0.023023448229 0.0048914014486 -0.03149011642 0.0077916626257 -0.20498705964 0.012123179186 
-0.14689722989 0.0097916358827 -0.13264008474 0.029258037633 -0.15426154048 0.045989493176 -0.18333275369 0.051478515109 -0.16008274326 
0.065174161477 -0.10728479019 0.070538085805 0.031953425159 0.054070736958 0.12542325434 0.022874797724 0.14228471459 -0.014602540888 
-0.24485316737 -0.052860387256 -0.45581224053 -0.074967440053 -0.061281868514 -0.1483645304 -0.015842548498 0.012557494456 -0.11443377428 
0.0034142613856 0.10188119127 -0.034558400137 0.18668857105 -0.032290781571 0.22349657483 -0.017057423988 0.024671413398 -0.030104079824 
-0.1351818975 -0.043370298827 -0.15022470059 -0.042195543034 -0.15608437263 -0.042590824564 -0.13495221757 0.001267732154 -0.11043688791 
0.025167965308 -0.076667552103 0.053051387315 -0.052082664122 0.06999765999 -0.040580543571 0.075266342397 -0.13527672124 0.070165502985 
-0.28577863212 0.057679238036 -0.055132041124 -0.00066891347707 0.074432620227 -0.033200931125 -0.13267242384 -0.0063596338658 -0.12387236579 
-0.0076833857458 0.033328250679 -0.019080319237 0.044181410399 0.020322828536 -0.04207199839 0.040813757707 -0.28798954708 -0.01806526261 
0.1376901557 -0.013467116511 0.30027747846 0.078409736379 -0.28076296473 0.080315441614 -0.052918636763 0.018323254672 0.042640709384 
-0.015265079696 -0.1201384594 -0.0032379093289 -0.30183973603 0.0019476082171 -0.32988732423 0.03064056052 -0.15919773818 0.062318873251 
0.10544991472 0.07283106392 0.19101119085 0.062981877342 0.12528636233 0.03712488259 0.2206502157 -0.0025927636453 0.1322387071 
-0.03944596551 -0.24175890215 -0.065141648504 0.030731987311 -0.031648152162 0.13318763781 0.0010656378065 -0.019286157962 -0.00056253327932 
-0.020928251782 -0.057781827472 -0.019318760022 -0.051938848742 -0.025379476306 -0.019296282562 -0.23164840825 -0.038860223854 -0.24239102425 
-0.050023314011 -0.078344683649 -0.020232946545 -0.069686669617 -0.026052216601 -0.037842089965 -0.037695942921 0.079269168277 -0.026514413682 
0.038645478764 -0.0066169263642 -0.11764297506 0.02356317704 -0.087043202409 0.027921635681 -0.028972183125 0.027259670478 0.0060258865051 
0.020084482442 -0.0074143047973 0.014073842235 -0.063558828626 -0.073907444347 -0.029846834673 -0.034411236173 -0.019028583161 -0.020676150143 
-0.043628938999 -0.064101495808 0.025531570459 0.067739719253 0.057973117313 0.049232061175 0.035342201106 0.0096158094115 -0.022710011321 
-0.03239337377 -0.026115203473 -0.0209464698 0.040388217524 0.066262052997 0.073801841131 0.033686817101 0.040562116158 0.022669620164 
-0.031900450795 -0.066019348375 -0.032683330257 0.002116156742 0.055528368615 0.039087955262 0.020195341829 -0.011046126134 -0.023087214144 
-0.045845585537 -0.033296219885 -0.00072432210942 0.017073944614 -0.0068042143814 -0.030349031874 -0.028281898582 -0.013383067059 -0.02008981717 
-0.046643816393 -0.049950250132 -0.052664459094 -0.078095926727 -0.058585911089 -0.035465605618 -0.029232426041 -0.029085605114 -0.02938862624 
-0.007888326558 -0.0051451105613 -0.040649576675 -0.054563456828 -0.013351114268 -0.012409654975 -0.020593110885 -0.012723356528 -0.027034952115 
0.0030983675171 -0.0015984911068 -0.012645031367 -0.007339451992 -0.0015383704969 0.007104294305 0.013098034881 0.0061533831087 0.0072840907544 
0.024527030915 -0.0023972483178 -0.022381352126 -0.024835323046 -0.058065942101 -0.02763478475 -0.054685260058 -0.056662509171 -0.033265138572 
-0.015454955819 -0.015825765238 -0.052765225502 -0.052049665328 -0.034132872321 -0.031297572681 -0.022127329025 -0.021887224095 -0.033877020759 
-0.014438039106 0.024275989542 0.044158564094 -0.0057913554809 -0.063704507054 -0.051330098808 -0.058819803998 -0.042762919734 -0.011969962397 
0.036863596078 0.017139109065 -0.016397269128 -0.03859735921 -0.03672019141 -0.040217762743 -0.036256822244 -0.027011845759 -0.012553768473 
-0.026548419696 -0.021547348355 -0.0059331679808 0.0047965104396 -0.032997677983 -0.093323163945 -0.1173249874 -0.073234975485 -0.023903068418 
-0.07279643745 -0.061086824879 -0.064204838344 -0.058727390588 -0.044002375429 -0.043118211439 -0.021265673807 0.050697544518 0.010210530232 
-0.019255119725 -0.010873301337 -0.0056967269499 0.013469165816 -0.017228760172 -0.047294610815 -0.025283731438 0.0066787038863 0.0041267155846 
-0.0061866351659 -0.017011981217 -0.059586949024 -0.0016451256527 -0.017110303617 -0.037685144332 -0.060175876094 -0.055982556639 -0.042496563125 
-0.022933841993 0.0008657604255 0.014487882256 -0.003524223332 -0.0058271661406 -0.031525167028 -0.051765000262 -0.038456219626 -0.011316545825 
-0.018937114332 -0.029300623811 -0.032906193561 -0.036869369473 -0.050403215336 -0.070297298448 -0.072675619873 -0.039263235104 -0.029050442384 
-0.03945180135 -0.06684198934 -0.073526778894 -0.042254066358 -0.050179231162 -0.085673432171 0.0077724937184 0.010436619403 0.0040849779557 
0.0023447392446 -0.059819008492 -0.048770669222 -0.0715840018 -0.09511480128 -0.077462117257 -0.047662972359 -0.018897879036 -0.024839293242 
0.018207496774 0.025549084029 0.0331454365 0.0520711568 0.053444727134 0.016084380345 0.035695291456 0.01047874444 -0.013178743535 
-0.052755342425 -0.09110065462 -0.13530477824 -0.14634742142 -0.10107739694 -0.020773240721 -0.036386233617 -0.053128493585 -0.046124795863 
-0.018223871331 0.018224768453 0.014548145167 -0.013904390503 -0.067909097156 -0.063420910701 -0.051160075137 -0.044737091057 -0.031030424014 
0.011494448507 0.04325411573 0.0017207370174 -0.038886938807 -0.05775354498 -0.086400605918 -0.089235947575 -0.035044557746 -0.032771422761 
-0.030852210203 -0.0050203851407 -0.028210828008 -0.033078753248 -0.0038461903629 0.0013261230773 0.001304300973 -0.020033601964 -0.012896662239 
-0.0084327552011 -0.016309413367 -0.034102786803 -0.061015589315 -0.069798533567 -0.11780822722 -0.10116711106 -0.038721241643 -0.047439231097 
-0.028138630748 -0.10076061918 -0.085207951377 -0.11904561141 -0.11303901117 -0.10471019569 -0.085212701906 -0.037038593287 -0.059479197957 
-0.073563050041 -0.072215627666 -0.055773019483 -0.01581804949 0.029920672882 0.040598758119 0.0077162058194 -0.074189515992 -0.095600287975 
-0.074676783107 -0.061839166145 -0.038839117301 -0.027214474872 -0.0058227527239 -0.028546595536 -0.029304649701 -0.03467869834 -0.043725127882 
-0.048280087109 -0.046341357301 -0.022872847031 0.013350819252 0.0072737055509 -0.0074839621294 -0.028595069793 -0.046774889347 -0.052162849512 
-0.053653069863 -0.058718785988 -0.063830414454 -0.08333240554 -0.096360489324 -0.077300602898 -0.077744686883 -0.086180284314 -0.076458571385 
-0.057213126218 -0.032894579832 -0.014788035138 -0.014254436398 -0.0048295082409 0.0059101029909 -0.014750918034 -0.037954767494 -0.041287777588 
-0.050993842279 -0.065015161248 -0.040018502047 -0.014762939782 0.011969553061 -0.032453207052 -0.055562967634 -0.042216113709 -0.065071879931 
-0.083326743702 -0.089010510245 -0.10093847759 -0.07828881736 -0.11763399936 -0.051988562011 -0.043707257356 -0.047574522021 -0.017722454933 
0.011966856213 0.036026879687 0.067139383047 0.040923020486 0.01164483229 -0.030066463269 -0.073259562247 -0.11385505619 -0.14825374749 
-0.13717623045 -0.13080745289 -0.13321389076 -0.075339533975 -0.07096398206 -0.097513473826 -0.061520258009 -0.026078461232 -0.030297992251 
-0.043597388055 -0.040386788152 0.0018194510615 -0.078356948136 -0.076192058976 -0.034679371526 -0.032065189963 -0.0024843139405 0.01761271873 
-0.0059618542431 -0.035413741474 -0.077589510598 -0.10153003225 -0.07618271385 -0.0099770866088 0.0060906471355 -0.0026519086449 -0.015476792178 
-0.011916498113 -0.018318878448 -0.025715714916 -0.023315288083 -0.0079427783839 -0.0093362449417 -0.0044821905879 -0.0027379516684 -0.016122511335 
-0.042370669517 -0.056295347575 -0.095422464681 -0.12109768207 -0.096934692926 -0.056186321075 -0.010883966346 0.0039731166759 0.01175638111 
-0.090793205742 -0.093208251775 -0.15712574567 -0.15223835928 -0.13436914896 -0.081953022634 -0.022407318166 -0.014143385405 -0.033728280568 
-0.071420698531 -0.086293765725 -0.095775812843 -0.060789362585 0.029203242711 0.055696283935 -0.042040064721 -0.055987404433 -0.066663188652 
-0.057626889265 -0.029053527844 -0.011207092587 -0.01722746175 -0.03307588165 -0.040713835871 -0.052621108755 -0.061115873686 -0.067546389078 
-0.066281824036 -0.048316417426 -0.0077367994485 0.018183792527 0.030122125174 -0.011972881532 -0.034342677108 -0.040406019919 -0.043336116641 
-0.076415101639 -0.090695996151 -0.097873334441 -0.066285200026 -0.087744918533 -0.10040071988 -0.1056835376 -0.098305160299 -0.075073956925 
-0.033424156611 0.010775793168 -0.025206440966 -0.019434594231 -0.022325233084 -0.043143202631 -0.012253266874 -0.011791528016 -0.028333112002 
-0.036489039538 -0.035737681585 -0.050517219368 -0.056669765587 -0.049022593736 -0.026968916619 -0.037780341907 -0.032744419534 -0.045593624486 
-0.080052817272 -0.093122769724 -0.088425744387 -0.079346175646 -0.070368811198 -0.082996723555 -0.096493150847 0.058397300979 0.0045700772961 
-0.085027310438 -0.099973903791 -0.070146353128 -0.053357303767 -0.048605111851 -0.06197119198 -0.044048667805 -0.021472821179 -0.04246127173 
-0.024808374977 -0.039923129885 -0.053945621327 -0.062565595037 -0.036460538598 -0.030942572842 0.0015613356587 -0.012702774619 -0.048479409183 
-0.073390563157 -0.10345288712 -0.075381878451 -0.05186778199 -0.022050321414 -0.0068191313194 -0.019711048802 -0.044880583827 -0.050574207637 
-0.034474150239 -0.027203393037 -0.020346471854 -0.035491180949 -0.040142918022 -0.032529532561 -0.017893737542 -0.010910591988 -0.0016895601255 
-0.010892370014 -0.061070673454 -0.1373729265 -0.12362125743 -0.068119920617 0.029568941238 0.02409711006 0.0059362339925 -0.046821222862 
-0.029462639937 -0.012063357684 -0.01759735181 -0.010365480432 -0.030668491258 -0.043162205926 -0.043349457805 -0.026935123775 -0.058878279525 
-0.076046991274 -0.099026675803 -0.14197747149 -0.14356607673 -0.14858989948 -0.12340789112 -0.086378428521 -0.051539474344 -0.079892087655 
-0.044155546512 -0.095913998032 -0.07832323589 -0.067017494225 -0.05054890176 -0.04527534183 -0.048139986826 -0.049886344058 -0.056743225449 
-0.067846291298 -0.082447178156 -0.12185415454 -0.069736029932 0.026841698101 -0.067771768079 0.083229899407 0.038952887307 -0.019348056241 
-0.033783202624 -0.042394435431 -0.068363923085 -0.070035679267 -0.048114668761 -0.025994288218 -0.025254436726 -0.032109621372 -0.10546087635 
-0.08103100991 -0.11909040651 -0.10043001426 -0.081980885617 -0.079481480319 -0.031765245465 -0.0015645949011 -0.0042308022249 -0.046831233386 
-0.027663243732 -0.043645468068 -0.041402321843 -0.0082105056494 -0.033855494065 -0.074486816428 -0.07395957306 -0.039239864575 -0.026614791764 
-0.015826727379 -0.090492134786 -0.10627090415 -0.11396085422 -0.079594185502 -0.10895988496 -0.1103763534 -0.04104376713 -0.01096077903 
-0.020001180006 -0.028790638693 -0.029668269277 -0.031236862965 -0.021700278238 -0.022503205615 -0.023768435453 -0.027083431378 -0.038010689676 
-0.041425605655 -0.039364353292 -0.060927313863 -0.077950499932 -0.072403776988 -0.05937865176 -0.072080845608 -0.092461068217 -0.095185931954 
-0.093712734385 -0.06829497119 -0.07843133223 -0.054799032868 -0.046068195054 -0.049689401827 -0.051693446352 -0.046314895674 -0.039535735326 
-0.027617690778 -0.022248648963 -0.0026488251372 -0.022289413868 -0.025105369315 -0.015176858031 -0.003005886662 -0.013694058754 -0.029278327698 
-0.068179059834 -0.099702790412 -0.067020436131 -0.040321608505 -0.020864296493 -0.018452512867 -0.025205170506 -0.050226507609 -0.088197211139 
-0.056041844784 -0.048742116196 -0.053985058749 -0.073766738643 -0.050426608509 -0.032975673399 0.00045432500068 0.0043908723952 -0.0056648964836 
0.0064308375738 -0.015619596682 -0.078813505238 -0.093266147917 -0.10290408071 0.05751674821 0.018051541604 -0.062302974711 -0.033260246974 
-0.031468774357 -0.0319762881 -0.080862005051 -0.10169322267 -0.093028871502 -0.087425310154 -0.060762447086 -0.034910762615 -0.043602477918 
-0.053659076322 -0.068010220112 -0.096943751707 -0.10329111489 -0.09631779783 -0.080658343963 -0.047356485075 -0.036693958825 -0.056948767793 
-0.054240275235 -0.076949989324 -0.05921176532 -0.022440647195 -0.038945624874 -0.10325243472 -0.11276681905 -0.062430641175 -0.083952821726 
-0.059870833699 -0.065900098301 -0.05982062738 -0.042208020746 -0.01012682624 0.033515701922 0.013630035245 -0.0095520647715 -0.040272883475 
-0.047868794291 -0.056915047558 -0.071437392914 -0.063892500548 -0.073261196624 -0.069331822952 -0.092352513293 -0.093972084874 -0.08344880567 
-0.0756114768 -0.041301306393 -0.028224122026 -0.030924196235 -0.028528912129 -0.043593916494 -0.060033642421 -0.11452803419 -0.059807399445 
-0.051866025955 0.056269869989 0.069331822409 0.001327339203 -0.041344874299 -0.021685064299 -0.024800533423 -0.02784984552 -0.047114712655 
-0.051690653907 -0.047418719332 -0.052162756778 -0.054975777802 -0.072553908373 -0.071599786606 -0.12217238332 -0.11571908841 -0.10347399655 
-0.092390060726 -0.063376729998 -0.093376924556 -0.042192035675 -0.04413350171 -0.031404481015 -0.069016702916 -0.070526300198 -0.078784656113 
-0.076946002298 -0.066246409206 -0.050633376844 -0.04070759952 -0.0291669656 -0.11231657753 -0.096886282416 -0.047136054596 -0.05978430107 
-0.056829106484 -0.035230608914 -0.081755599239 -0.11498972634 -0.095822074651 -0.059260724852 -0.051605066595 -0.037465317281 -0.021946758346 
-0.045779723795 -0.06137693202 -0.085625390567 -0.041376773915 -0.041909892177 -0.048317029403 -0.044989826457 -0.03440473466 -0.019646016074 
-0.0012013877129 0.0098404108903 -0.02064680123 -0.016350103591 -0.036215548231 -0.052332014049 -0.058337869865 -0.063542428481 -0.081489873196 
-0.083181662689 -0.056991642598 -0.054510308764 -0.10780581876 -0.11345148713 -0.028277570007 -0.02635388769 -0.044301516252 -0.057707956903 
-0.047518586683 -0.029560828585 -0.034755201048 -0.04934091244 -0.055849269888 -0.038896696137 -0.037163265265 -0.031028990615 -0.034142111239 
-0.029282730045 -0.041275551334 -0.053254302149 -0.056080154417 -0.043839665298 -0.054653485843 -0.069799256944 -0.085929549259 -0.044268505394 
-0.063471151157 -0.01887668467 -0.02370154501 -0.043311665391 -0.052783359951 -0.057394368747 -0.066354916383 -0.073710578054 -0.089164736977 
-0.060271947804 -0.059083614401 -0.062753198243 -0.073485809637 -0.083031616006 -0.051556598879 -0.054690222629 -0.054921277002 -0.038737379662 
-0.025755169068 -0.025215568903 -0.023104341426 -0.011249543998 -0.0048119819041 -0.07190783664 -0.06240915651 -0.085662005591 -0.095090586061 
-0.093335354593 -0.08422531054 -0.074356995591 -0.054985702459 -0.053894857364 -0.080588337822 -0.057531989614 -0.027374683516 -0.050746759315 
-0.053606915827 -0.0028329922991 -0.022317932587 -0.030566392826 -0.061850699469 0.017378404684 0.032794033278 0.017192357377 -0.032821543223 
-0.060570811172 -0.056470953448 -0.063555400501 -0.061420796438 -0.054771734296 -0.042199902368 -0.033392063094 -0.060487126215 -0.10257775847 
-0.087479028264 -0.048751632528 -0.024421905529 -0.026568421085 -0.029199115615 -0.10269710322 -0.091213027957 -0.049299252215 -0.038936978107 
-0.017000192665 -0.091396940603 -0.020325905361 -0.036717901514 -0.021265644009 -0.030633287908 -0.042601274906 -0.052683239017 -0.031239364862 
0.0057396354707 0.014490695396 -0.0015713553263 -0.023192391643 -0.047751545072 -0.027126943901 -0.049587949581 -0.033073231885 -0.017643293701 
-0.034764593984 -0.053593493436 -0.073428549767 -0.079732380408 -0.10269285655 -0.1024042786 -0.10549983424 -0.1000594296 -0.073220796264 
-0.063707979469 -0.069813050597 -0.075975636527 -0.067229573541 -0.065315772505 -0.0076160491023 0.0074158419095 -0.015313856706 -0.0063547840451 
-0.024960428167 -0.052753647584 -0.044861030909 -0.047172687602 -0.081453660391 -0.057391156239 -0.037049387915 -0.00087206551309 0.011737551441 
0.00046095734698 -0.038705161804 -0.052603509689 -0.042519416277 -0.047174508242 -0.035077114673 -0.020201665493 -0.061970120437 -0.047310134255 
-0.074884744353 -0.054952397549 -0.048532073688 -0.027802680936 -0.011080415831 -0.04560898701 -0.048293443258 -0.06463883164 -0.064499708892 
-0.039664882069 -0.063668537985 -0.060754508411 -0.075874472311 -0.082021069877 -0.06800044261 -0.012524871114 -0.027929948254 -0.040952650116 

Displacement_Root 3 1116 double
0 0 0 0 0 0 0 0 0 
0 0 0 0 0 0 0 0 0 
0 0 0 0 0 0 0 0 0 
0 0 0 0 0 0 0 0 0 
0 0 0 0 0 0 0 0 0 
0 0 0 0 0 0 0 0 0 
0 0 0 0 0 0 0 0 0 
0 0 0 0 0 0 0 0 0 
0 0 0 0 0 0 0 0 0 
0 0 0 0 0 0 0 0 0 
0 0 0 0 0 0 0 0 0 
0 0 0 0 0 0 0 0 0 
0 0 0 0 0 0 0 0 0 
0 0 0 0 0 0 0 0 0 
0 0 0 0 0 0 0 0 0 
0 0 0 0 0 0 0 0 0 
0 0 0 0 0 0 0 0 0 
0 0 0 0 0 0 0 0 0 
0 0 0 0 0 0 0 0 0 
0 0 0 0 0 0 0 0 0 
0 0 0 0 0 0 0 0 0 
0 0 0 0 0 0 0 0 0 
0 0 0 0 0 0 0 0 0 
0 0 0 0 0 0 0 0 0 
0 0 0 0 0 0 0 0 0 
0 0 0 0 0 0 0 0 0 
0 0 0 0 0 0 0 0 0 
0 0 0 0 0 0 0 0 0 
0 0 0 0 0 0 0 0 0 
0 0 0 0 0 0 0 0 0 
0 0 0 0 0 0 0 0 0 
0 0 0 0 0 0 0 0 0 
0 0 0 0 0 0 0 0 0 
0 0 0 0 0 0 0 0 0 
0 0 0 0 0 0 0 0 0 
0 0 0 0 0 0 0 0 0 
0 0 0 0 0 0 0 0 0 
0 0 0 0 0 0 0 0 0 
0 0 0 0 0 0 0 0 0 
0 0 0 0 0 0 0 0 0 
0 0 0 0 0 0 0 0 0 
0 0 0 0 0 0 0 0 0 
0 0 0 0 0 0 0 0 0 
0 0 0 0 0 0 0 0 0 
0 0 0 0 0 0 0 0 0 
0 0 0 0 0 0 0 0 0 
0 0 0 0 0 0 0 0 0 
0 0 0 0 0 0 0 0 0 
0 0 0 0 0 0 0 0 0 
0 0 0 0 0 0 0 0 0 
0 0 0 0 0 0 0 0 0 
0 0 0 0 0 0 0 0 0 
0 0 0 0 0 0 0 0 0 
0 0 0 0 0 0 0 0 0 
0 0 0 0 0 0 0 0 0 
0 0 0 0 0 0 0 0 0 
0 0 0 0 0 0 0 0 0 
0 0 0 0 0 0 0 0 0 
0 0 0 0 0 0 0 0 0 
0 0 0 0 0 0 0 0 0 
0 0 0 0 0 0 0 0 0 
0 0 0 0 0 0 0 0 0 
0 0 0 0 0 0 0 0 0 
0 0 0 0 0 0 0 0 0 
0 0 0 0 0 0 0 0 0 
0 0 0 0 0 0 0 0 0 
0 0 0 0 0 0 0 0 0 
0 0 0 0 0 0 0 0 0 
0 0 0 0 0 0 0 0 0 
0 0 0 0 0 0 0 0 0 
0 0 0 0 0 0 0 0 0 
0 0 0 0 0 0 0 0 0 
0 0 0 0 0 0 0 0 0 
0 0 0 0 0 0 0 0 0 
0 0 0 0 0 0 0 0 0 
0 0 0 0 0 0 0 0 0 
0 0 0 0 0 0 0 0 0 
0 0 0 0 0 0 0 0 0 
0 0 0 0 0 0 0 0 0 
0 0 0 0 0 0 0 0 0 
0 0 0 0 0 0 0 0 0 
0 0 0 0 0 0 0 0 0 
0 0 0 0 0 0 0 0 0 
0 0 0 0 0 0 0 0 0 
0 0 0 0 0 0 0 0 0 
0 0 0 0 0 0 0 0 0 
0 0 0 0 0 0 0 0 0 
0 0 0 0 0 0 0 0 0 
0 0 0 0 0 0 0 0 0 
0 0 0 0 0 0 0 0 0 
0 0 0 0 0 0 0 0 0 
0 0 0 0 0 0 0 0 0 
0 0 0 0 0 0 0 0 0 
0 0 0 0 0 0 0 0 0 
0 0 0 0 0 0 0 0 0 
0 0 0 0 0 0 0 0 0 
0 0 0 0 0 0 0 0 0 
0 0 0 0 0 0 0 0 0 
0 0 0 0 0 0 0 0 0 
0 0 0 0 0 0 0 0 0 
0 0 0 0 0 0 0 0 0 
0 0 0 0 0 0 0 0 0 
0 0 0 0 0 0 0 0 0 
0 0 0 0 0 0 0 0 0 
0 0 0 0 0 0 0 0 0 
0 0 0 0 0 0 0 0 0 
0 0 0 0 0 0 0 0 0 
0 0 0 0 0 0 0 0 0 
0 0 0 0 0 0 0 0 0 
0 0 0 0 0 0 0 0 0 
0 0 0 0 0 0 0 0 0 
0 0 0 0 0 0 0 0 0 
0 0 0 0 0 0 0 0 0 
0 0 0 0 0 0 0 0 0 
0 0 0 0 0 0 0 0 0 
0 0 0 0 0 0 0 0 0 
0 0 0 0 0 0 0 0 0 
0 0 0 0 0 0 0 0 0 
0 0 0 0 0 0 0 0 0 
0 0 0 0 0 0 0 0 0 
0 0 0 0 0 0 0 0 0 
0 0 0 0 0 0 0 0 0 
0 0 0 0 0 0 0 0 0 
0 0 0 0 0 0 0 0 0 
0 0 0 0 0 0 0 0 0 
0 0 0 0 0 0 0 0 0 
0 0 0 0 0 0 0 0 0 
0 0 0 0 0 0 0 0 0 
0 0 0 0 0 0 0 0 0 
0 0 0 0 0 0 0 0 0 
0 0 0 0 0 0 0 0 0 
0 0 0 0 0 0 0 0 0 
0 0 0 0 0 0 0 0 0 
0 0 0 0 0 0 0 0 0 
0 0 0 0 0 0 0 0 0 
0 0 0 0 0 0 0 0 0 
0 0 0 0 0 0 0 0 0 
0 0 0 0 0 0 0 0 0 
0 0 0 0 0 0 0 0 0 
0 0 0 0 0 0 0 0 0 
0 0 0 0 0 0 0 0 0 
0 0 0 0 0 0 0 0 0 
0 0 0 0 0 0 0 0 0 
0 0 0 0 0 0 0 0 0 
0 0 0 0 0 0 0 0 0 
0 0 0 0 0 0 0 0 0 
0 0 0 0 0 0 0 0 0 
0 0 0 0 0 0 0 0 0 
0 0 0 0 0 0 0 0 0 
0 0 0 0 0 0 0 0 0 
0 0 0 0 0 0 0 0 0 
0 0 0 0 0 0 0 0 0 
0 0 0 0 0 0 0 0 0 
0 0 0 0 0 0 0 0 0 
0 0 0 0 0 0 0 0 0 
0 0 0 0 0 0 0 0 0 
0 0 0 0 0 0 0 0 0 
0 0 0 0 0 0 0 0 0 
0 0 0 0 0 0 0 0 0 
0 0 0 0 0 0 0 0 0 
0 0 0 0 0 0 0 0 0 
0 0 0 0 0 0 0 0 0 
0 0 0 0 0 0 0 0 0 
0 0 0 0 0 0 0 0 0 
0 0 0 0 0 0 0 0 0 
0 0 0 0 0 0 0 0 0 
0 0 0 0 0 0 0 0 0 
0 0 0 0 0 0 0 0 0 
0 0 0 0 0 0 0 0 0 
0 0 0 0 0 0 0 0 0 
0 0 0 0 0 0 0 0 0 
0 0 0 0 0 0 0 0 0 
0 0 0 0 0 0 0 0 0 
0 0 0 0 0 0 0 0 0 
0 0 0 0 0 0 0 0 0 
0 0 0 0 0 0 0 0 0 
0 0 0 0 0 0 0 0 0 
0 0 0 0 0 0 0 0 0 
0 0 0 0 0 0 0 0 0 
0 0 0 0 0 0 0 0 0 
0 0 0 0 0 0 0 0 0 
0 0 0 0 0 0 0 0 0 
0 0 0 0 0 0 0 0 0 
0 0 0 0 0 0 0 0 0 
0 0 0 0 0 0 0 0 0 
0 0 0 0 0 0 0 0 0 
0 0 0 0 0 0 0 0 0 
0 0 0 0 0 0 0 0 0 
0 0 0 0 0 0 0 0 0 
0 0 0 0 0 0 0 0 0 
0 0 0 0 0 0 0 0 0 
0 0 0 0 0 0 0 0 0 
0 0 0 0 0 0 0 0 0 
0 0 0 0 0 0 0 0 0 
0 0 0 0 0 0 0 0 0 
0 0 0 0 0 0 0 0 0 
0 0 0 0 0 0 0 0 0 
0 0 0 0 0 0 0 0 0 
0 0 0 0 0 0 0 0 0 
0 0 0 0 0 0 0 0 0 
0 0 0 0 0 0 0 0 0 
0 0 0 0 0 0 0 0 0 
0 0 0 0 0 0 0 0 0 
0 0 0 0 0 0 0 0 0 
0 0 0 0 0 0 0 0 0 
0 0 0 0 0 0 0 0 0 
0 0 0 0 0 0 0 0 0 
0 0 0 0 0 0 0 0 0 
0 0 0 0 0 0 0 0 0 
0 0 0 0 0 0 0 0 0 
0 0 0 0 0 0 0 0 0 
0 0 0 0 0 0 0 0 0 
0 0 0 0 0 0 0 0 0 
0 0 0 0 0 0 0 0 0 
0 0 0 0 0 0 0 0 0 
0 0 0 0 0 0 0 0 0 
0 0 0 0 0 0 0 0 0 
0 0 0 0 0 0 0 0 0 
0 0 0 0 0 0 0 0 0 
0 0 0 0 0 0 0 0 0 
0 0 0 0 0 0 0 0 0 
0 0 0 0 0 0 0 0 0 
0 0 0 0 0 0 0 0 0 
0 0 0 0 0 0 0 0 0 
0 0 0 0 0 0 0 0 0 
0 0 0 0 0 0 0 0 0 
0 0 0 0 0 0 0 0 0 
0 0 0 0 0 0 0 0 0 
0 0 0 0 0 0 0 0 0 
0 0 0 0 0 0 0 0 0 
0 0 0 0 0 0 0 0 0 
0 0 0 0 0 0 0 0 0 
0 0 0 0 0 0 0 0 0 
0 0 0 0 0 0 0 0 0 
0 0 0 0 0 0 0 0 0 
0 0 0 0 0 0 0 0 0 
0 0 0 0 0 0 0 0 0 
0 0 0 0 0 0 0 0 0 
0 0 0 0 0 0 0 0 0 
0 0 0 0 0 0 0 0 0 
0 0 0 0 0 0 0 0 0 
0 0 0 0 0 0 0 0 0 
0 0 0 0 0 0 0 0 0 
0 0 0 0 0 0 0 0 0 
0 0 0 0 0 0 0 0 0 
0 0 0 0 0 0 0 0 0 
0 0 0 0 0 0 0 0 0 
0 0 0 0 0 0 0 0 0 
0 0 0 0 0 0 0 0 0 
0 0 0 0 0 0 0 0 0 
0 0 0 0 0 0 0 0 0 
0 0 0 0 0 0 0 0 0 
0 0 0 0 0 0 0 0 0 
0 0 0 0 0 0 0 0 0 
0 0 0 0 0 0 0 0 0 
0 0 0 0 0 0 0 0 0 
0 0 0 0 0 0 0 0 0 
0 0 0 0 0 0 0 0 0 
0 0 0 0 0 0 0 0 0 
0 0 0 0 0 0 0 0 0 
0 0 0 0 0 0 0 0 0 
0 0 0 0 0 0 0 0 0 
0 0 0 0 0 0 0 0 0 
0 0 0 0 0 0 0 0 0 
0 0 0 0 0 0 0 0 0 
0 0 0 0 0 0 0 0 0 
0 0 0 0 0 0 0 0 0 
0 0 0 0 0 0 0 0 0 
0 0 0 0 0 0 0 0 0 
0 0 0 0 0 0 0 0 0 
0 0 0 0 0 0 0 0 0 
0 0 0 0 0 0 0 0 0 
0 0 0 0 0 0 0 0 0 
0 0 0 0 0 0 0 0 0 
0 0 0 0 0 0 0 0 0 
0 0 0 0 0 0 0 0 0 
0 0 0 0 0 0 0 0 0 
0 0 0 0 0 0 0 0 0 
0 0 0 0 0 0 0 0 0 
0 0 0 0 0 0 0 0 0 
0 0 0 0 0 0 0 0 0 
0 0 0 0 0 0 0 0 0 
0 0 0 0 0 0 0 0 0 
0 0 0 0 0 0 0 0 0 
0 0 0 0 0 0 0 0 0 
0 0 0 0 0 0 0 0 0 
0 0 0 0 0 0 0 0 0 
0 0 0 0 0 0 0 0 0 
0 0 0 0 0 0 0 0 0 
0 0 0 0 0 0 0 0 0 
0 0 0 0 0 0 0 0 0 
0 0 0 0 0 0 0 0 0 
0 0 0 0 0 0 0 0 0 
0 0 0 0 0 0 0 0 0 
0 0 0 0 0 0 0 0 0 
0 0 0 0 0 0 0 0 0 
0 0 0 0 0 0 0 0 0 
0 0 0 0 0 0 0 0 0 
0 0 0 0 0 0 0 0 0 
0 0 0 0 0 0 0 0 0 
0 0 0 0 0 0 0 0 0 
0 0 0 0 0 0 0 0 0 
0 0 0 0 0 0 0 0 0 
0 0 0 0 0 0 0 0 0 
0 0 0 0 0 0 0 0 0 
0 0 0 0 0 0 0 0 0 
0 0 0 0 0 0 0 0 0 
0 0 0 0 0 0 0 0 0 
0 0 0 0 0 0 0 0 0 
0 0 0 0 0 0 0 0 0 
0 0 0 0 0 0 0 0 0 
0 0 0 0 0 0 0 0 0 
0 0 0 0 0 0 0 0 0 
0 0 0 0 0 0 0 0 0 
0 0 0 0 0 0 0 0 0 
0 0 0 0 0 0 0 0 0 
0 0 0 0 0 0 0 0 0 
0 0 0 0 0 0 0 0 0 
0 0 0 0 0 0 0 0 0 
0 0 0 0 0 0 0 0 0 
0 0 0 0 0 0 0 0 0 
0 0 0 0 0 0 0 0 0 
0 0 0 0 0 0 0 0 0 
0 0 0 0 0 0 0 0 0 
0 0 0 0 0 0 0 0 0 
0 0 0 0 0 0 0 0 0 
0 0 0 0 0 0 0 0 0 
0 0 0 0 0 0 0 0 0 
0 0 0 0 0 0 0 0 0 
0 0 0 0 0 0 0 0 0 
0 0 0 0 0 0 0 0 0 
0 0 0 0 0 0 0 0 0 
0 0 0 0 0 0 0 0 0 
0 0 0 0 0 0 0 0 0 
0 0 0 0 0 0 0 0 0 
0 0 0 0 0 0 0 0 0 
0 0 0 0 0 0 0 0 0 
0 0 0 0 0 0 0 0 0 
0 0 0 0 0 0 0 0 0 
0 0 0 0 0 0 0 0 0 
0 0 0 0 0 0 0 0 0 
0 0 0 0 0 0 0 0 0 
0 0 0 0 0 0 0 0 0 
0 0 0 0 0 0 0 0 0 
0 0 0 0 0 0 0 0 0 
0 0 0 0 0 0 0 0 0 
0 0 0 0 0 0 0 0 0 
0 0 0 0 0 0 0 0 0 
0 0 0 0 0 0 0 0 0 
0 0 0 0 0 0 0 0 0 
0 0 0 0 0 0 0 0 0 
0 0 0 0 0 0 0 0 0 
0 0 0 0 0 0 0 0 0 
0 0 0 0 0 0 0 0 0 
0 0 0 0 0 0 0 0 0 
0 0 0 0 0 0 0 0 0 
0 0 0 0 0 0 0 0 0 
0 0 0 0 0 0 0 0 0 
0 0 0 0 0 0 0 0 0 
0 0 0 0 0 0 0 0 0 
0 0 0 0 0 0 0 0 0 
0 0 0 0 0 0 0 0 0 
0 0 0 0 0 0 0 0 0 
0 0 0 0 0 0 0 0 0 
0 0 0 0 0 0 0 0 0 
0 0 0 0 0 0 0 0 0 
0 0 0 0 0 0 0 0 0 
0 0 0 0 0 0 0 0 0 
0 0 0 0 0 0 0 0 0 
0 0 0 0 0 0 0 0 0 
0 0 0 0 0 0 0 0 0 
0 0 0 0 0 0 0 0 0 

Displacement_Total 3 1116 double
0 0 0 0 0 0 0 0 0 
0 0 0 0 0 0 0 0 0 
0 0 0 0 0 0 0 0 0 
0 0 0 0 0 0 0 0 0 
0 0 0 0 0 0 0 0 0 
0 0 0 0 0 0 0 0 0 
0 0 0 0 0 0 0 0 0 
0 0 0 0 0 0 0 0 0 
0 0 0 0 0 0 0 0 0 
0 0 0 0 0 0 0 0 0 
0 0 0 0 0 0 0 0 0 
0 0 0 0 0 0 0 0 0 
0 0 0 0 0 0 0 0 0 
0 0 0 0 0 0 0 0 0 
0 0 0 0 0 0 0 0 0 
0 0 0 0 0 0 0 0 0 
0 0 0 0 0 0 0 0 0 
0 0 0 0 0 0 0 0 0 
0 0 0 0 0 0 0 0 0 
0 0 0 0 0 0 0 0 0 
0 0 0 0 0 0 0 0 0 
0 0 0 0 0 0 0 0 0 
0 0 0 0 0 0 0 0 0 
0 0 0 0 0 0 0 0 0 
0 0 0 0 0 0 0 0 0 
0 0 0 0 0 0 0 0 0 
0 0 0 0 0 0 0 0 0 
0 0 0 0 0 0 0 0 0 
0 0 0 0 0 0 0 0 0 
0 0 0 0 0 0 0 0 0 
0 0 0 0 0 0 0 0 0 
0 0 0 0 0 0 0 0 0 
0 0 0 0 0 0 0 0 0 
0 0 0 0 0 0 0 0 0 
0 0 0 0 0 0 0 0 0 
0 0 0 0 0 0 0 0 0 
0 0 0 0 0 0 0 0 0 
0 0 0 0 0 0 0 0 0 
0 0 0 0 0 0 0 0 0 
0 0 0 0 0 0 0 0 0 
0 0 0 0 0 0 0 0 0 
0 0 0 0 0 0 0 0 0 
0 0 0 0 0 0 0 0 0 
0 0 0 0 0 0 0 0 0 
0 0 0 0 0 0 0 0 0 
0 0 0 0 0 0 0 0 0 
0 0 0 0 0 0 0 0 0 
0 0 0 0 0 0 0 0 0 
0 0 0 0 0 0 0 0 0 
0 0 0 0 0 0 0 0 0 
0 0 0 0 0 0 0 0 0 
0 0 0 0 0 0 0 0 0 
0 0 0 0 0 0 0 0 0 
0 0 0 0 0 0 0 0 0 
0 0 0 0 0 0 0 0 0 
0 0 0 0 0 0 0 0 0 
0 0 0 0 0 0 0 0 0 
0 0 0 0 0 0 0 0 0 
0 0 0 0 0 0 0 0 0 
0 0 0 0 0 0 0 0 0 
0 0 0 0 0 0 0 0 0 
0 0 0 0 0 0 0 0 0 
0 0 0 0 0 0 0 0 0 
0 0 0 0 0 0 0 0 0 
0 0 0 0 0 0 0 0 0 
0 0 0 0 0 0 0 0 0 
0 0 0 0 0 0 0 0 0 
0 0 0 0 0 0 0 0 0 
0 0 0 0 0 0 0 0 0 
0 0 0 0 0 0 0 0 0 
0 0 0 0 0 0 0 0 0 
0 0 0 0 0 0 0 0 0 
0 0 0 0 0 0 0 0 0 
0 0 0 0 0 0 0 0 0 
0 0 0 0 0 0 0 0 0 
0 0 0 0 0 0 0 0 0 
0 0 0 0 0 0 0 0 0 
0 0 0 0 0 0 0 0 0 
0 0 0 0 0 0 0 0 0 
0 0 0 0 0 0 0 0 0 
0 0 0 0 0 0 0 0 0 
0 0 0 0 0 0 0 0 0 
0 0 0 0 0 0 0 0 0 
0 0 0 0 0 0 0 0 0 
0 0 0 0 0 0 0 0 0 
0 0 0 0 0 0 0 0 0 
0 0 0 0 0 0 0 0 0 
0 0 0 0 0 0 0 0 0 
0 0 0 0 0 0 0 0 0 
0 0 0 0 0 0 0 0 0 
0 0 0 0 0 0 0 0 0 
0 0 0 0 0 0 0 0 0 
0 0 0 0 0 0 0 0 0 
0 0 0 0 0 0 0 0 0 
0 0 0 0 0 0 0 0 0 
0 0 0 0 0 0 0 0 0 
0 0 0 0 0 0 0 0 0 
0 0 0 0 0 0 0 0 0 
0 0 0 0 0 0 0 0 0 
0 0 0 0 0 0 0 0 0 
0 0 0 0 0 0 0 0 0 
0 0 0 0 0 0 0 0 0 
0 0 0 0 0 0 0 0 0 
0 0 0 0 0 0 0 0 0 
0 0 0 0 0 0 0 0 0 
0 0 0 0 0 0 0 0 0 
0 0 0 0 0 0 0 0 0 
0 0 0 0 0 0 0 0 0 
0 0 0 0 0 0 0 0 0 
0 0 0 0 0 0 0 0 0 
0 0 0 0 0 0 0 0 0 
0 0 0 0 0 0 0 0 0 
0 0 0 0 0 0 0 0 0 
0 0 0 0 0 0 0 0 0 
0 0 0 0 0 0 0 0 0 
0 0 0 0 0 0 0 0 0 
0 0 0 0 0 0 0 0 0 
0 0 0 0 0 0 0 0 0 
0 0 0 0 0 0 0 0 0 
0 0 0 0 0 0 0 0 0 
0 0 0 0 0 0 0 0 0 
0 0 0 0 0 0 0 0 0 
0 0 0 0 0 0 0 0 0 
0 0 0 0 0 0 0 0 0 
0 0 0 0 0 0 0 0 0 
0 0 0 0 0 0 0 0 0 
0 0 0 0 0 0 0 0 0 
0 0 0 0 0 0 0 0 0 
0 0 0 0 0 0 0 0 0 
0 0 0 0 0 0 0 0 0 
0 0 0 0 0 0 0 0 0 
0 0 0 0 0 0 0 0 0 
0 0 0 0 0 0 0 0 0 
0 0 0 0 0 0 0 0 0 
0 0 0 0 0 0 0 0 0 
0 0 0 0 0 0 0 0 0 
0 0 0 0 0 0 0 0 0 
0 0 0 0 0 0 0 0 0 
0 0 0 0 0 0 0 0 0 
0 0 0 0 0 0 0 0 0 
0 0 0 0 0 0 0 0 0 
0 0 0 0 0 0 0 0 0 
0 0 0 0 0 0 0 0 0 
0 0 0 0 0 0 0 0 0 
0 0 0 0 0 0 0 0 0 
0 0 0 0 0 0 0 0 0 
0 0 0 0 0 0 0 0 0 
0 0 0 0 0 0 0 0 0 
0 0 0 0 0 0 0 0 0 
0 0 0 0 0 0 0 0 0 
0 0 0 0 0 0 0 0 0 
0 0 0 0 0 0 0 0 0 
0 0 0 0 0 0 0 0 0 
0 0 0 0 0 0 0 0 0 
0 0 0 0 0 0 0 0 0 
0 0 0 0 0 0 0 0 0 
0 0 0 0 0 0 0 0 0 
0 0 0 0 0 0 0 0 0 
0 0 0 0 0 0 0 0 0 
0 0 0 0 0 0 0 0 0 
0 0 0 0 0 0 0 0 0 
0 0 0 0 0 0 0 0 0 
0 0 0 0 0 0 0 0 0 
0 0 0 0 0 0 0 0 0 
0 0 0 0 0 0 0 0 0 
0 0 0 0 0 0 0 0 0 
0 0 0 0 0 0 0 0 0 
0 0 0 0 0 0 0 0 0 
0 0 0 0 0 0 0 0 0 
0 0 0 0 0 0 0 0 0 
0 0 0 0 0 0 0 0 0 
0 0 0 0 0 0 0 0 0 
0 0 0 0 0 0 0 0 0 
0 0 0 0 0 0 0 0 0 
0 0 0 0 0 0 0 0 0 
0 0 0 0 0 0 0 0 0 
0 0 0 0 0 0 0 0 0 
0 0 0 0 0 0 0 0 0 
0 0 0 0 0 0 0 0 0 
0 0 0 0 0 0 0 0 0 
0 0 0 0 0 0 0 0 0 
0 0 0 0 0 0 0 0 0 
0 0 0 0 0 0 0 0 0 
0 0 0 0 0 0 0 0 0 
0 0 0 0 0 0 0 0 0 
0 0 0 0 0 0 0 0 0 
0 0 0 0 0 0 0 0 0 
0 0 0 0 0 0 0 0 0 
0 0 0 0 0 0 0 0 0 
0 0 0 0 0 0 0 0 0 
0 0 0 0 0 0 0 0 0 
0 0 0 0 0 0 0 0 0 
0 0 0 0 0 0 0 0 0 
0 0 0 0 0 0 0 0 0 
0 0 0 0 0 0 0 0 0 
0 0 0 0 0 0 0 0 0 
0 0 0 0 0 0 0 0 0 
0 0 0 0 0 0 0 0 0 
0 0 0 0 0 0 0 0 0 
0 0 0 0 0 0 0 0 0 
0 0 0 0 0 0 0 0 0 
0 0 0 0 0 0 0 0 0 
0 0 0 0 0 0 0 0 0 
0 0 0 0 0 0 0 0 0 
0 0 0 0 0 0 0 0 0 
0 0 0 0 0 0 0 0 0 
0 0 0 0 0 0 0 0 0 
0 0 0 0 0 0 0 0 0 
0 0 0 0 0 0 0 0 0 
0 0 0 0 0 0 0 0 0 
0 0 0 0 0 0 0 0 0 
0 0 0 0 0 0 0 0 0 
0 0 0 0 0 0 0 0 0 
0 0 0 0 0 0 0 0 0 
0 0 0 0 0 0 0 0 0 
0 0 0 0 0 0 0 0 0 
0 0 0 0 0 0 0 0 0 
0 0 0 0 0 0 0 0 0 
0 0 0 0 0 0 0 0 0 
0 0 0 0 0 0 0 0 0 
0 0 0 0 0 0 0 0 0 
0 0 0 0 0 0 0 0 0 
0 0 0 0 0 0 0 0 0 
0 0 0 0 0 0 0 0 0 
0 0 0 0 0 0 0 0 0 
0 0 0 0 0 0 0 0 0 
0 0 0 0 0 0 0 0 0 
0 0 0 0 0 0 0 0 0 
0 0 0 0 0 0 0 0 0 
0 0 0 0 0 0 0 0 0 
0 0 0 0 0 0 0 0 0 
0 0 0 0 0 0 0 0 0 
0 0 0 0 0 0 0 0 0 
0 0 0 0 0 0 0 0 0 
0 0 0 0 0 0 0 0 0 
0 0 0 0 0 0 0 0 0 
0 0 0 0 0 0 0 0 0 
0 0 0 0 0 0 0 0 0 
0 0 0 0 0 0 0 0 0 
0 0 0 0 0 0 0 0 0 
0 0 0 0 0 0 0 0 0 
0 0 0 0 0 0 0 0 0 
0 0 0 0 0 0 0 0 0 
0 0 0 0 0 0 0 0 0 
0 0 0 0 0 0 0 0 0 
0 0 0 0 0 0 0 0 0 
0 0 0 0 0 0 0 0 0 
0 0 0 0 0 0 0 0 0 
0 0 0 0 0 0 0 0 0 
0 0 0 0 0 0 0 0 0 
0 0 0 0 0 0 0 0 0 
0 0 0 0 0 0 0 0 0 
0 0 0 0 0 0 0 0 0 
0 0 0 0 0 0 0 0 0 
0 0 0 0 0 0 0 0 0 
0 0 0 0 0 0 0 0 0 
0 0 0 0 0 0 0 0 0 
0 0 0 0 0 0 0 0 0 
0 0 0 0 0 0 0 0 0 
0 0 0 0 0 0 0 0 0 
0 0 0 0 0 0 0 0 0 
0 0 0 0 0 0 0 0 0 
0 0 0 0 0 0 0 0 0 
0 0 0 0 0 0 0 0 0 
0 0 0 0 0 0 0 0 0 
0 0 0 0 0 0 0 0 0 
0 0 0 0 0 0 0 0 0 
0 0 0 0 0 0 0 0 0 
0 0 0 0 0 0 0 0 0 
0 0 0 0 0 0 0 0 0 
0 0 0 0 0 0 0 0 0 
0 0 0 0 0 0 0 0 0 
0 0 0 0 0 0 0 0 0 
0 0 0 0 0 0 0 0 0 
0 0 0 0 0 0 0 0 0 
0 0 0 0 0 0 0 0 0 
0 0 0 0 0 0 0 0 0 
0 0 0 0 0 0 0 0 0 
0 0 0 0 0 0 0 0 0 
0 0 0 0 0 0 0 0 0 
0 0 0 0 0 0 0 0 0 
0 0 0 0 0 0 0 0 0 
0 0 0 0 0 0 0 0 0 
0 0 0 0 0 0 0 0 0 
0 0 0 0 0 0 0 0 0 
0 0 0 0 0 0 0 0 0 
0 0 0 0 0 0 0 0 0 
0 0 0 0 0 0 0 0 0 
0 0 0 0 0 0 0 0 0 
0 0 0 0 0 0 0 0 0 
0 0 0 0 0 0 0 0 0 
0 0 0 0 0 0 0 0 0 
0 0 0 0 0 0 0 0 0 
0 0 0 0 0 0 0 0 0 
0 0 0 0 0 0 0 0 0 
0 0 0 0 0 0 0 0 0 
0 0 0 0 0 0 0 0 0 
0 0 0 0 0 0 0 0 0 
0 0 0 0 0 0 0 0 0 
0 0 0 0 0 0 0 0 0 
0 0 0 0 0 0 0 0 0 
0 0 0 0 0 0 0 0 0 
0 0 0 0 0 0 0 0 0 
0 0 0 0 0 0 0 0 0 
0 0 0 0 0 0 0 0 0 
0 0 0 0 0 0 0 0 0 
0 0 0 0 0 0 0 0 0 
0 0 0 0 0 0 0 0 0 
0 0 0 0 0 0 0 0 0 
0 0 0 0 0 0 0 0 0 
0 0 0 0 0 0 0 0 0 
0 0 0 0 0 0 0 0 0 
0 0 0 0 0 0 0 0 0 
0 0 0 0 0 0 0 0 0 
0 0 0 0 0 0 0 0 0 
0 0 0 0 0 0 0 0 0 
0 0 0 0 0 0 0 0 0 
0 0 0 0 0 0 0 0 0 
0 0 0 0 0 0 0 0 0 
0 0 0 0 0 0 0 0 0 
0 0 0 0 0 0 0 0 0 
0 0 0 0 0 0 0 0 0 
0 0 0 0 0 0 0 0 0 
0 0 0 0 0 0 0 0 0 
0 0 0 0 0 0 0 0 0 
0 0 0 0 0 0 0 0 0 
0 0 0 0 0 0 0 0 0 
0 0 0 0 0 0 0 0 0 
0 0 0 0 0 0 0 0 0 
0 0 0 0 0 0 0 0 0 
0 0 0 0 0 0 0 0 0 
0 0 0 0 0 0 0 0 0 
0 0 0 0 0 0 0 0 0 
0 0 0 0 0 0 0 0 0 
0 0 0 0 0 0 0 0 0 
0 0 0 0 0 0 0 0 0 
0 0 0 0 0 0 0 0 0 
0 0 0 0 0 0 0 0 0 
0 0 0 0 0 0 0 0 0 
0 0 0 0 0 0 0 0 0 
0 0 0 0 0 0 0 0 0 
0 0 0 0 0 0 0 0 0 
0 0 0 0 0 0 0 0 0 
0 0 0 0 0 0 0 0 0 
0 0 0 0 0 0 0 0 0 
0 0 0 0 0 0 0 0 0 
0 0 0 0 0 0 0 0 0 
0 0 0 0 0 0 0 0 0 
0 0 0 0 0 0 0 0 0 
0 0 0 0 0 0 0 0 0 
0 0 0 0 0 0 0 0 0 
0 0 0 0 0 0 0 0 0 
0 0 0 0 0 0 0 0 0 
0 0 0 0 0 0 0 0 0 
0 0 0 0 0 0 0 0 0 
0 0 0 0 0 0 0 0 0 
0 0 0 0 0 0 0 0 0 
0 0 0 0 0 0 0 0 0 
0 0 0 0 0 0 0 0 0 
0 0 0 0 0 0 0 0 0 
0 0 0 0 0 0 0 0 0 
0 0 0 0 0 0 0 0 0 
0 0 0 0 0 0 0 0 0 
0 0 0 0 0 0 0 0 0 
0 0 0 0 0 0 0 0 0 
0 0 0 0 0 0 0 0 0 
0 0 0 0 0 0 0 0 0 
0 0 0 0 0 0 0 0 0 
0 0 0 0 0 0 0 0 0 
0 0 0 0 0 0 0 0 0 
0 0 0 0 0 0 0 0 0 
0 0 0 0 0 0 0 0 0 

Displacement_Wall 3 1116 double
0 0 0 0 0 0 0 0 0 
0 0 0 0 0 0 0 0 0 
0 0 0 0 0 0 0 0 0 
0 0 0 0 0 0 0 0 0 
0 0 0 0 0 0 0 0 0 
0 0 0 0 0 0 0 0 0 
0 0 0 0 0 0 0 0 0 
0 0 0 0 0 0 0 0 0 
0 0 0 0 0 0 0 0 0 
0 0 0 0 0 0 0 0 0 
0 0 0 0 0 0 0 0 0 
0 0 0 0 0 0 0 0 0 
0 0 0 0 0 0 0 0 0 
0 0 0 0 0 0 0 0 0 
0 0 0 0 0 0 0 0 0 
0 0 0 0 0 0 0 0 0 
0 0 0 0 0 0 0 0 0 
0 0 0 0 0 0 0 0 0 
0 0 0 0 0 0 0 0 0 
0 0 0 0 0 0 0 0 0 
0 0 0 0 0 0 0 0 0 
0 0 0 0 0 0 0 0 0 
0 0 0 0 0 0 0 0 0 
0 0 0 0 0 0 0 0 0 
0 0 0 0 0 0 0 0 0 
0 0 0 0 0 0 0 0 0 
0 0 0 0 0 0 0 0 0 
0 0 0 0 0 0 0 0 0 
0 0 0 0 0 0 0 0 0 
0 0 0 0 0 0 0 0 0 
0 0 0 0 0 0 0 0 0 
0 0 0 0 0 0 0 0 0 
0 0 0 0 0 0 0 0 0 
0 0 0 0 0 0 0 0 0 
0 0 0 0 0 0 0 0 0 
0 0 0 0 0 0 0 0 0 
0 0 0 0 0 0 0 0 0 
0 0 0 0 0 0 0 0 0 
0 0 0 0 0 0 0 0 0 
0 0 0 0 0 0 0 0 0 
0 0 0 0 0 0 0 0 0 
0 0 0 0 0 0 0 0 0 
0 0 0 0 0 0 0 0 0 
0 0 0 0 0 0 0 0 0 
0 0 0 0 0 0 0 0 0 
0 0 0 0 0 0 0 0 0 
0 0 0 0 0 0 0 0 0 
0 0 0 0 0 0 0 0 0 
0 0 0 0 0 0 0 0 0 
0 0 0 0 0 0 0 0 0 
0 0 0 0 0 0 0 0 0 
0 0 0 0 0 0 0 0 0 
0 0 0 0 0 0 0 0 0 
0 0 0 0 0 0 0 0 0 
0 0 0 0 0 0 0 0 0 
0 0 0 0 0 0 0 0 0 
0 0 0 0 0 0 0 0 0 
0 0 0 0 0 0 0 0 0 
0 0 0 0 0 0 0 0 0 
0 0 0 0 0 0 0 0 0 
0 0 0 0 0 0 0 0 0 
0 0 0 0 0 0 0 0 0 
0 0 0 0 0 0 0 0 0 
0 0 0 0 0 0 0 0 0 
0 0 0 0 0 0 0 0 0 
0 0 0 0 0 0 0 0 0 
0 0 0 0 0 0 0 0 0 
0 0 0 0 0 0 0 0 0 
0 0 0 0 0 0 0 0 0 
0 0 0 0 0 0 0 0 0 
0 0 0 0 0 0 0 0 0 
0 0 0 0 0 0 0 0 0 
0 0 0 0 0 0 0 0 0 
0 0 0 0 0 0 0 0 0 
0 0 0 0 0 0 0 0 0 
0 0 0 0 0 0 0 0 0 
0 0 0 0 0 0 0 0 0 
0 0 0 0 0 0 0 0 0 
0 0 0 0 0 0 0 0 0 
0 0 0 0 0 0 0 0 0 
0 0 0 0 0 0 0 0 0 
0 0 0 0 0 0 0 0 0 
0 0 0 0 0 0 0 0 0 
0 0 0 0 0 0 0 0 0 
0 0 0 0 0 0 0 0 0 
0 0 0 0 0 0 0 0 0 
0 0 0 0 0 0 0 0 0 
0 0 0 0 0 0 0 0 0 
0 0 0 0 0 0 0 0 0 
0 0 0 0 0 0 0 0 0 
0 0 0 0 0 0 0 0 0 
0 0 0 0 0 0 0 0 0 
0 0 0 0 0 0 0 0 0 
0 0 0 0 0 0 0 0 0 
0 0 0 0 0 0 0 0 0 
0 0 0 0 0 0 0 0 0 
0 0 0 0 0 0 0 0 0 
0 0 0 0 0 0 0 0 0 
0 0 0 0 0 0 0 0 0 
0 0 0 0 0 0 0 0 0 
0 0 0 0 0 0 0 0 0 
0 0 0 0 0 0 0 0 0 
0 0 0 0 0 0 0 0 0 
0 0 0 0 0 0 0 0 0 
0 0 0 0 0 0 0 0 0 
0 0 0 0 0 0 0 0 0 
0 0 0 0 0 0 0 0 0 
0 0 0 0 0 0 0 0 0 
0 0 0 0 0 0 0 0 0 
0 0 0 0 0 0 0 0 0 
0 0 0 0 0 0 0 0 0 
0 0 0 0 0 0 0 0 0 
0 0 0 0 0 0 0 0 0 
0 0 0 0 0 0 0 0 0 
0 0 0 0 0 0 0 0 0 
0 0 0 0 0 0 0 0 0 
0 0 0 0 0 0 0 0 0 
0 0 0 0 0 0 0 0 0 
0 0 0 0 0 0 0 0 0 
0 0 0 0 0 0 0 0 0 
0 0 0 0 0 0 0 0 0 
0 0 0 0 0 0 0 0 0 
0 0 0 0 0 0 0 0 0 
0 0 0 0 0 0 0 0 0 
0 0 0 0 0 0 0 0 0 
0 0 0 0 0 0 0 0 0 
0 0 0 0 0 0 0 0 0 
0 0 0 0 0 0 0 0 0 
0 0 0 0 0 0 0 0 0 
0 0 0 0 0 0 0 0 0 
0 0 0 0 0 0 0 0 0 
0 0 0 0 0 0 0 0 0 
0 0 0 0 0 0 0 0 0 
0 0 0 0 0 0 0 0 0 
0 0 0 0 0 0 0 0 0 
0 0 0 0 0 0 0 0 0 
0 0 0 0 0 0 0 0 0 
0 0 0 0 0 0 0 0 0 
0 0 0 0 0 0 0 0 0 
0 0 0 0 0 0 0 0 0 
0 0 0 0 0 0 0 0 0 
0 0 0 0 0 0 0 0 0 
0 0 0 0 0 0 0 0 0 
0 0 0 0 0 0 0 0 0 
0 0 0 0 0 0 0 0 0 
0 0 0 0 0 0 0 0 0 
0 0 0 0 0 0 0 0 0 
0 0 0 0 0 0 0 0 0 
0 0 0 0 0 0 0 0 0 
0 0 0 0 0 0 0 0 0 
0 0 0 0 0 0 0 0 0 
0 0 0 0 0 0 0 0 0 
0 0 0 0 0 0 0 0 0 
0 0 0 0 0 0 0 0 0 
0 0 0 0 0 0 0 0 0 
0 0 0 0 0 0 0 0 0 
0 0 0 0 0 0 0 0 0 
0 0 0 0 0 0 0 0 0 
0 0 0 0 0 0 0 0 0 
0 0 0 0 0 0 0 0 0 
0 0 0 0 0 0 0 0 0 
0 0 0 0 0 0 0 0 0 
0 0 0 0 0 0 0 0 0 
0 0 0 0 0 0 0 0 0 
0 0 0 0 0 0 0 0 0 
0 0 0 0 0 0 0 0 0 
0 0 0 0 0 0 0 0 0 
0 0 0 0 0 0 0 0 0 
0 0 0 0 0 0 0 0 0 
0 0 0 0 0 0 0 0 0 
0 0 0 0 0 0 0 0 0 
0 0 0 0 0 0 0 0 0 
0 0 0 0 0 0 0 0 0 
0 0 0 0 0 0 0 0 0 
0 0 0 0 0 0 0 0 0 
0 0 0 0 0 0 0 0 0 
0 0 0 0 0 0 0 0 0 
0 0 0 0 0 0 0 0 0 
0 0 0 0 0 0 0 0 0 
0 0 0 0 0 0 0 0 0 
0 0 0 0 0 0 0 0 0 
0 0 0 0 0 0 0 0 0 
0 0 0 0 0 0 0 0 0 
0 0 0 0 0 0 0 0 0 
0 0 0 0 0 0 0 0 0 
0 0 0 0 0 0 0 0 0 
0 0 0 0 0 0 0 0 0 
0 0 0 0 0 0 0 0 0 
0 0 0 0 0 0 0 0 0 
0 0 0 0 0 0 0 0 0 
0 0 0 0 0 0 0 0 0 
0 0 0 0 0 0 0 0 0 
0 0 0 0 0 0 0 0 0 
0 0 0 0 0 0 0 0 0 
0 0 0 0 0 0 0 0 0 
0 0 0 0 0 0 0 0 0 
0 0 0 0 0 0 0 0 0 
0 0 0 0 0 0 0 0 0 
0 0 0 0 0 0 0 0 0 
0 0 0 0 0 0 0 0 0 
0 0 0 0 0 0 0 0 0 
0 0 0 0 0 0 0 0 0 
0 0 0 0 0 0 0 0 0 
0 0 0 0 0 0 0 0 0 
0 0 0 0 0 0 0 0 0 
0 0 0 0 0 0 0 0 0 
0 0 0 0 0 0 0 0 0 
0 0 0 0 0 0 0 0 0 
0 0 0 0 0 0 0 0 0 
0 0 0 0 0 0 0 0 0 
0 0 0 0 0 0 0 0 0 
0 0 0 0 0 0 0 0 0 
0 0 0 0 0 0 0 0 0 
0 0 0 0 0 0 0 0 0 
0 0 0 0 0 0 0 0 0 
0 0 0 0 0 0 0 0 0 
0 0 0 0 0 0 0 0 0 
0 0 0 0 0 0 0 0 0 
0 0 0 0 0 0 0 0 0 
0 0 0 0 0 0 0 0 0 
0 0 0 0 0 0 0 0 0 
0 0 0 0 0 0 0 0 0 
0 0 0 0 0 0 0 0 0 
0 0 0 0 0 0 0 0 0 
0 0 0 0 0 0 0 0 0 
0 0 0 0 0 0 0 0 0 
0 0 0 0 0 0 0 0 0 
0 0 0 0 0 0 0 0 0 
0 0 0 0 0 0 0 0 0 
0 0 0 0 0 0 0 0 0 
0 0 0 0 0 0 0 0 0 
0 0 0 0 0 0 0 0 0 
0 0 0 0 0 0 0 0 0 
0 0 0 0 0 0 0 0 0 
0 0 0 0 0 0 0 0 0 
0 0 0 0 0 0 0 0 0 
0 0 0 0 0 0 0 0 0 
0 0 0 0 0 0 0 0 0 
0 0 0 0 0 0 0 0 0 
0 0 0 0 0 0 0 0 0 
0 0 0 0 0 0 0 0 0 
0 0 0 0 0 0 0 0 0 
0 0 0 0 0 0 0 0 0 
0 0 0 0 0 0 0 0 0 
0 0 0 0 0 0 0 0 0 
0 0 0 0 0 0 0 0 0 
0 0 0 0 0 0 0 0 0 
0 0 0 0 0 0 0 0 0 
0 0 0 0 0 0 0 0 0 
0 0 0 0 0 0 0 0 0 
0 0 0 0 0 0 0 0 0 
0 0 0 0 0 0 0 0 0 
0 0 0 0 0 0 0 0 0 
0 0 0 0 0 0 0 0 0 
0 0 0 0 0 0 0 0 0 
0 0 0 0 0 0 0 0 0 
0 0 0 0 0 0 0 0 0 
0 0 0 0 0 0 0 0 0 
0 0 0 0 0 0 0 0 0 
0 0 0 0 0 0 0 0 0 
0 0 0 0 0 0 0 0 0 
0 0 0 0 0 0 0 0 0 
0 0 0 0 0 0 0 0 0 
0 0 0 0 0 0 0 0 0 
0 0 0 0 0 0 0 0 0 
0 0 0 0 0 0 0 0 0 
0 0 0 0 0 0 0 0 0 
0 0 0 0 0 0 0 0 0 
0 0 0 0 0 0 0 0 0 
0 0 0 0 0 0 0 0 0 
0 0 0 0 0 0 0 0 0 
0 0 0 0 0 0 0 0 0 
0 0 0 0 0 0 0 0 0 
0 0 0 0 0 0 0 0 0 
0 0 0 0 0 0 0 0 0 
0 0 0 0 0 0 0 0 0 
0 0 0 0 0 0 0 0 0 
0 0 0 0 0 0 0 0 0 
0 0 0 0 0 0 0 0 0 
0 0 0 0 0 0 0 0 0 
0 0 0 0 0 0 0 0 0 
0 0 0 0 0 0 0 0 0 
0 0 0 0 0 0 0 0 0 
0 0 0 0 0 0 0 0 0 
0 0 0 0 0 0 0 0 0 
0 0 0 0 0 0 0 0 0 
0 0 0 0 0 0 0 0 0 
0 0 0 0 0 0 0 0 0 
0 0 0 0 0 0 0 0 0 
0 0 0 0 0 0 0 0 0 
0 0 0 0 0 0 0 0 0 
0 0 0 0 0 0 0 0 0 
0 0 0 0 0 0 0 0 0 
0 0 0 0 0 0 0 0 0 
0 0 0 0 0 0 0 0 0 
0 0 0 0 0 0 0 0 0 
0 0 0 0 0 0 0 0 0 
0 0 0 0 0 0 0 0 0 
0 0 0 0 0 0 0 0 0 
0 0 0 0 0 0 0 0 0 
0 0 0 0 0 0 0 0 0 
0 0 0 0 0 0 0 0 0 
0 0 0 0 0 0 0 0 0 
0 0 0 0 0 0 0 0 0 
0 0 0 0 0 0 0 0 0 
0 0 0 0 0 0 0 0 0 
0 0 0 0 0 0 0 0 0 
0 0 0 0 0 0 0 0 0 
0 0 0 0 0 0 0 0 0 
0 0 0 0 0 0 0 0 0 
0 0 0 0 0 0 0 0 0 
0 0 0 0 0 0 0 0 0 
0 0 0 0 0 0 0 0 0 
0 0 0 0 0 0 0 0 0 
0 0 0 0 0 0 0 0 0 
0 0 0 0 0 0 0 0 0 
0 0 0 0 0 0 0 0 0 
0 0 0 0 0 0 0 0 0 
0 0 0 0 0 0 0 0 0 
0 0 0 0 0 0 0 0 0 
0 0 0 0 0 0 0 0 0 
0 0 0 0 0 0 0 0 0 
0 0 0 0 0 0 0 0 0 
0 0 0 0 0 0 0 0 0 
0 0 0 0 0 0 0 0 0 
0 0 0 0 0 0 0 0 0 
0 0 0 0 0 0 0 0 0 
0 0 0 0 0 0 0 0 0 
0 0 0 0 0 0 0 0 0 
0 0 0 0 0 0 0 0 0 
0 0 0 0 0 0 0 0 0 
0 0 0 0 0 0 0 0 0 
0 0 0 0 0 0 0 0 0 
0 0 0 0 0 0 0 0 0 
0 0 0 0 0 0 0 0 0 
0 0 0 0 0 0 0 0 0 
0 0 0 0 0 0 0 0 0 
0 0 0 0 0 0 0 0 0 
0 0 0 0 0 0 0 0 0 
0 0 0 0 0 0 0 0 0 
0 0 0 0 0 0 0 0 0 
0 0 0 0 0 0 0 0 0 
0 0 0 0 0 0 0 0 0 
0 0 0 0 0 0 0 0 0 
0 0 0 0 0 0 0 0 0 
0 0 0 0 0 0 0 0 0 
0 0 0 0 0 0 0 0 0 
0 0 0 0 0 0 0 0 0 
0 0 0 0 0 0 0 0 0 
0 0 0 0 0 0 0 0 0 
0 0 0 0 0 0 0 0 0 
0 0 0 0 0 0 0 0 0 
0 0 0 0 0 0 0 0 0 
0 0 0 0 0 0 0 0 0 
0 0 0 0 0 0 0 0 0 
0 0 0 0 0 0 0 0 0 
0 0 0 0 0 0 0 0 0 
0 0 0 0 0 0 0 0 0 
0 0 0 0 0 0 0 0 0 
0 0 0 0 0 0 0 0 0 
0 0 0 0 0 0 0 0 0 
0 0 0 0 0 0 0 0 0 
0 0 0 0 0 0 0 0 0 
0 0 0 0 0 0 0 0 0 
0 0 0 0 0 0 0 0 0 
0 0 0 0 0 0 0 0 0 
0 0 0 0 0 0 0 0 0 
0 0 0 0 0 0 0 0 0 
0 0 0 0 0 0 0 0 0 
0 0 0 0 0 0 0 0 0 
0 0 0 0 0 0 0 0 0 
0 0 0 0 0 0 0 0 0 

I1_Pt 1 1116 double
2 2 2 2 2 2 2 2 2 
2 2 2 2 2 2 2 2 2 
2 2 2 2 2 2 2 2 2 
2 2 2 2 2 2 2 2 2 
2 2 2 2 2 2 2 2 2 
2 2 2 2 2 2 2 2 2 
2 2 2 2 2 2 2 2 2 
2 2 2 2 2 2 2 2 2 
2 2 2 2 2 2 2 2 2 
2 2 2 2 2 2 2 2 2 
2 2 2 2 2 2 2 2 2 
2 2 2 2 2 2 2 2 2 
2 2 2 2 2 2 2 2 2 
2 2 2 2 2 2 2 2 2 
2 2 2 2 2 2 2 2 2 
2 2 2 2 2 2 2 2 2 
2 2 2 2 2 2 2 2 2 
2 2 2 2 2 2 2 2 2 
2 2 2 2 2 2 2 2 2 
2 2 2 2 2 2 2 2 2 
2 2 2 2 2 2 2 2 2 
2 2 2 2 2 2 2 2 2 
2 2 2 2 2 2 2 2 2 
2 2 2 2 2 2 2 2 2 
2 2 2 2 2 2 2 2 2 
2 2 2 2 2 2 2 2 2 
2 2 2 2 2 2 2 2 2 
2 2 2 2 2 2 2 2 2 
2 2 2 2 2 2 2 2 2 
2 2 2 2 2 2 2 2 2 
2 2 2 2 2 2 2 2 2 
2 2 2 2 2 2 2 2 2 
2 2 2 2 2 2 2 2 2 
2 2 2 2 2 2 2 2 2 
2 2 2 2 2 2 2 2 2 
2 2 2 2 2 2 2 2 2 
2 2 2 2 2 2 2 2 2 
2 2 2 2 2 2 2 2 2 
2 2 2 2 2 2 2 2 2 
2 2 2 2 2 2 2 2 2 
2 2 2 2 2 2 2 2 2 
2 2 2 2 2 2 2 2 2 
2 2 2 2 2 2 2 2 2 
2 2 2 2 2 2 2 2 2 
2 2 2 2 2 2 2 2 2 
2 2 2 2 2 2 2 2 2 
2 2 2 2 2 2 2 2 2 
2 2 2 2 2 2 2 2 2 
2 2 2 2 2 2 2 2 2 
2 2 2 2 2 2 2 2 2 
2 2 2 2 2 2 2 2 2 
2 2 2 2 2 2 2 2 2 
2 2 2 2 2 2 2 2 2 
2 2 2 2 2 2 2 2 2 
2 2 2 2 2 2 2 2 2 
2 2 2 2 2 2 2 2 2 
2 2 2 2 2 2 2 2 2 
2 2 2 2 2 2 2 2 2 
2 2 2 2 2 2 2 2 2 
2 2 2 2 2 2 2 2 2 
2 2 2 2 2 2 2 2 2 
2 2 2 2 2 2 2 2 2 
2 2 2 2 2 2 2 2 2 
2 2 2 2 2 2 2 2 2 
2 2 2 2 2 2 2 2 2 
2 2 2 2 2 2 2 2 2 
2 2 2 2 2 2 2 2 2 
2 2 2 2 2 2 2 2 2 
2 2 2 2 2 2 2 2 2 
2 2 2 2 2 2 2 2 2 
2 2 2 2 2 2 2 2 2 
2 2 2 2 2 2 2 2 2 
2 2 2 2 2 2 2 2 2 
2 2 2 2 2 2 2 2 2 
2 2 2 2 2 2 2 2 2 
2 2 2 2 2 2 2 2 2 
2 2 2 2 2 2 2 2 2 
2 2 2 2 2 2 2 2 2 
2 2 2 2 2 2 2 2 2 
2 2 2 2 2 2 2 2 2 
2 2 2 2 2 2 2 2 2 
2 2 2 2 2 2 2 2 2 
2 2 2 2 2 2 2 2 2 
2 2 2 2 2 2 2 2 2 
2 2 2 2 2 2 2 2 2 
2 2 2 2 2 2 2 2 2 
2 2 2 2 2 2 2 2 2 
2 2 2 2 2 2 2 2 2 
2 2 2 2 2 2 2 2 2 
2 2 2 2 2 2 2 2 2 
2 2 2 2 2 2 2 2 2 
2 2 2 2 2 2 2 2 2 
2 2 2 2 2 2 2 2 2 
2 2 2 2 2 2 2 2 2 
2 2 2 2 2 2 2 2 2 
2 2 2 2 2 2 2 2 2 
2 2 2 2 2 2 2 2 2 
2 2 2 2 2 2 2 2 2 
2 2 2 2 2 2 2 2 2 
2 2 2 2 2 2 2 2 2 
2 2 2 2 2 2 2 2 2 
2 2 2 2 2 2 2 2 2 
2 2 2 2 2 2 2 2 2 
2 2 2 2 2 2 2 2 2 
2 2 2 2 2 2 2 2 2 
2 2 2 2 2 2 2 2 2 
2 2 2 2 2 2 2 2 2 
2 2 2 2 2 2 2 2 2 
2 2 2 2 2 2 2 2 2 
2 2 2 2 2 2 2 2 2 
2 2 2 2 2 2 2 2 2 
2 2 2 2 2 2 2 2 2 
2 2 2 2 2 2 2 2 2 
2 2 2 2 2 2 2 2 2 
2 2 2 2 2 2 2 2 2 
2 2 2 2 2 2 2 2 2 
2 2 2 2 2 2 2 2 2 
2 2 2 2 2 2 2 2 2 
2 2 2 2 2 2 2 2 2 
2 2 2 2 2 2 2 2 2 
2 2 2 2 2 2 2 2 2 
2 2 2 2 2 2 2 2 2 
2 2 2 2 2 2 2 2 2 
2 2 2 2 2 2 2 2 2 

IAS 1 1116 double
0 0 0 0 0 0 0 0 0 
0 0 0 0 0 0 0 0 0 
0 0 0 0 0 0 0 0 0 
0 0 0 0 0 0 0 0 0 
0 0 0 0 0 0 0 0 0 
0 0 0 0 0 0 0 0 0 
0 0 0 0 0 0 0 0 0 
0 0 0 0 0 0 0 0 0 
0 0 0 0 0 0 0 0 0 
0 0 0 0 0 0 0 0 0 
0 0 0 0 0.10905443507 0.11049866669 0.76372023372 0.74818487272 0.61009708918 
0.63742142367 0 0.042398175081 0 0 0 0 0 0 
0 0 0 0 0 0 0 0 0 
0 0 0 0 0 0 0 0 0 
0 0 0 0 0 0 0 0 0 
0 0 0 0 0 0 0 0 0 
0 0 0 0 0 0 0 0 0 
0 0 0 0 0 0 0 0 0 
0 0 0 0 0 0 0 0 0 
0 0 0 0 0 0 0 0 0.01415413061 
0.68206820775 0.68876632751 0.64710919364 0.65820396249 0 0.032142973242 0 0 0 
0 0 0 0 0 0 0 0 0 
0 0 0 0 0 0 0 0 0 
0 0 0 0 0 0 0 0 0 
0 0 0 0 0 0 0 0 0 
0 0 0 0 0 0 0 0 0 
0 0 0 0 0 0 0 0 0 
0 0 0 0 0 0 0 0 0 
0 0 0 0 0 0 0 0 0 
0 0 0 0 0 0 0 0 0 
0 0 0 0 0.12719029353 0.7418156001 0.6718618367 0.10079692666 0 
0 0 0 0 0 0 0 0 0 
0 0 0 0 0 0 0 0 0 
0 0 0 0 0 0 0 0 0 
0 0 0 0 0 0 0 0 0 
0 0.064000865661 0.71055377851 0.67355844208 0.076540596574 0 0 0 0 
0 0 0 0 0 0 0 0 0 
0 0 0 0 0 0 0 0 0 
0 0 0 0 0 0 0 0 0 
0 0 0 0 0 0 0 0 0 
0 0 0 0 0 0 0 0 0 
0 0 0 0 0 0 0 0 0 
0 0 0 0 0 0 0 0 0 
0.14285265981 0.72583347682 0.70542623779 0.15505519853 0 0 0 0 0 
0 0 0 0 0 0 0 0 0 
0 0 0 0 0 0 0 0 0 
0 0 0 0 0 0 0 0 0 
0 0 0 0 0 0 0 0 0 
0 0.12621457116 0.72462538099 0.67920884799 0.094015957868 0 0 0 0 
0 0 0 0 0 0 0 0 0 
0 0 0 0 0 0 0 0 0 
0 0 0 0 0 0.1230137066 0.68487776552 0.77135024666 0.22118401182 
0 0 0 0 0 0 0 0 0 
0 0 0 0 0 0 0 0 0 
0 0 0 0 0 0 0 0 0 
0 0 0 0 0 0 0 0 0 
0 0 0 0 0 0 0 0 0 
0 0 0 0 0 0 0 0 0 
0 0 0 0 0 0 0 0 0 
0 0 0 0 0 0 0 0 0 
0 0 0 0 0 0 0 0 0 
0 0 0 0 0 0 0 0 0.21833446113 
0.78713288581 0.63721683514 0.078787205886 0 0 0 0 0 0 
0 0 0 0 0 0 0 0 0 
0 0 0 0 0 0 0 0 0 
0 0 0 0 0.046815772464 0.58315853364 0.86173987608 0.30217284205 0 
0 0 0 0 0 0 0 0 0 
0 0 0 0 0 0 0 0 0 
0 0 0 0 0 0 0 0 0 
0 0 0 0 0 0 0 0 0 
0 0 0 0 0 0 0 0 0 
0 0 0 0 0 0 0 0 0 
0 0 0 0 0 0 0 0 0 
0 0 0 0 0 0 0 0 0 
0 0 0 0 0 0 0 0.33499210527 0.86995214018 
0.57944121166 0.039854021195 0 0 0 0 0 0 0 
0 0 0 0 0 0 0 0 0 
0 0 0 0 0 0 0 0 0 
0 0 0 0 0 0 0 0 0 
0 0 0 0 0 0 0 0 0 
0 0 0 0 0.45601220169 0.96481518911 0.38725934149 0 0 
0 0 0 0 0 0 0 0 0 
0 0 0 0 0 0 0 0 0 
0 0 0 0 0 0 0 0 0 
0 0 0 0 0 0 0 0 0 
0 0 0 0 0 0 0 0 0 
0 0 0 0 0 0 0 0 0 
0 0 0 0 0 0 0 0 0 
0 0 0 0 0 0 0 0 0 
0 0 0 0 0 0 0.50106207993 0.035665823404 0.99700579231 
0.47313752657 0 0 0 0 0 0 0 0 
0 0 0 0 0 0 0 0 0 
0 0 0 0 0 0 0 0 0 
0 0 0 0 0 0 0 0 0 
0 0 0 0 0 0 0 0 0 
0 0 0 0 0 0 0 0 0 
0 0 0 0 0 0 0 0 0 
0 0 0 0 0 0 0 0.32761327369 0.93394115064 
0.4590596707 0 0 0 0 0 0 0 0 
0 0 0 0 0 0 0 0 0 
0 0 0 0 0 0 0 0 0 
0 0 0 0 0 0 0 0 0 
0 0 0 0 0 0 0 0 0 
0.69423934829 0.26643371385 0.85153942614 0.36360253477 0 0 0 0 0 
0 0 0 0 0 0 0 0 0 
0 0 0 0 0 0 0 0 0 
0 0 0 0 0 0 0 0 0 
0 0 0 0 0 0 0 0 0 
0 0 0 0 0 0 0 0 0 
0 0 0 0 0 0 0 0.25823259342 0.70421797892 
0 0 0 0 0 0 0 0 0 
0 0 0 0 0 0 0 0 0 
0 0 0 0 0 0 0 0 0 
0 0 0 0 0 0 0 0 0 
0 0 0 0 0 0 0 0 0 
0 0 0 0 0 0 0.22694966334 0.8778201409 0.50958052069 
0.027383021715 0.87188800829 0 0 0 0 0 0 0 
0 0 0 0 0 0 0 0 0 
0 0 0 0 0 0 0 0 0 
0 0 0 0 0 0 0 0 0 
0 0 0 0 0 0 0 0 0 
0 0 0 0 0 0 0 0 0 
0 0 0 0 0 0 0 0 0 
0.1166659757 0.44457689207 0.5805123915 0.19045240424 0 0 0 0 0 

J_Pt 1 1116 double
1 1 1 1 1 1 1 1 1 
1 1 1 1 1 1 1 1 1 
1 1 1 1 1 1 1 1 1 
1 1 1 1 1 1 1 1 1 
1 1 1 1 1 1 1 1 1 
1 1 1 1 1 1 1 1 1 
1 1 1 1 1 1 1 1 1 
1 1 1 1 1 1 1 1 1 
1 1 1 1 1 1 1 1 1 
1 1 1 1 1 1 1 1 1 
1 1 1 1 1 1 1 1 1 
1 1 1 1 1 1 1 1 1 
1 1 1 1 1 1 1 1 1 
1 1 1 1 1 1 1 1 1 
1 1 1 1 1 1 1 1 1 
1 1 1 1 1 1 1 1 1 
1 1 1 1 1 1 1 1 1 
1 1 1 1 1 1 1 1 1 
1 1 1 1 1 1 1 1 1 
1 1 1 1 1 1 1 1 1 
1 1 1 1 1 1 1 1 1 
1 1 1 1 1 1 1 1 1 
1 1 1 1 1 1 1 1 1 
1 1 1 1 1 1 1 1 1 
1 1 1 1 1 1 1 1 1 
1 1 1 1 1 1 1 1 1 
1 1 1 1 1 1 1 1 1 
1 1 1 1 1 1 1 1 1 
1 1 1 1 1 1 1 1 1 
1 1 1 1 1 1 1 1 1 
1 1 1 1 1 1 1 1 1 
1 1 1 1 1 1 1 1 1 
1 1 1 1 1 1 1 1 1 
1 1 1 1 1 1 1 1 1 
1 1 1 1 1 1 1 1 1 
1 1 1 1 1 1 1 1 1 
1 1 1 1 1 1 1 1 1 
1 1 1 1 1 1 1 1 1 
1 1 1 1 1 1 1 1 1 
1 1 1 1 1 1 1 1 1 
1 1 1 1 1 1 1 1 1 
1 1 1 1 1 1 1 1 1 
1 1 1 1 1 1 1 1 1 
1 1 1 1 1 1 1 1 1 
1 1 1 1 1 1 1 1 1 
1 1 1 1 1 1 1 1 1 
1 1 1 1 1 1 1 1 1 
1 1 1 1 1 1 1 1 1 
1 1 1 1 1 1 1 1 1 
1 1 1 1 1 1 1 1 1 
1 1 1 1 1 1 1 1 1 
1 1 1 1 1 1 1 1 1 
1 1 1 1 1 1 1 1 1 
1 1 1 1 1 1 1 1 1 
1 1 1 1 1 1 1 1 1 
1 1 1 1 1 1 1 1 1 
1 1 1 1 1 1 1 1 1 
1 1 1 1 1 1 1 1 1 
1 1 1 1 1 1 1 1 1 
1 1 1 1 1 1 1 1 1 
1 1 1 1 1 1 1 1 1 
1 1 1 1 1 1 1 1 1 
1 1 1 1 1 1 1 1 1 
1 1 1 1 1 1 1 1 1 
1 1 1 1 1 1 1 1 1 
1 1 1 1 1 1 1 1 1 
1 1 1 1 1 1 1 1 1 
1 1 1 1 1 1 1 1 1 
1 1 1 1 1 1 1 1 1 
1 1 1 1 1 1 1 1 1 
1 1 1 1 1 1 1 1 1 
1 1 1 1 1 1 1 1 1 
1 1 1 1 1 1 1 1 1 
1 1 1 1 1 1 1 1 1 
1 1 1 1 1 1 1 1 1 
1 1 1 1 1 1 1 1 1 
1 1 1 1 1 1 1 1 1 
1 1 1 1 1 1 1 1 1 
1 1 1 1 1 1 1 1 1 
1 1 1 1 1 1 1 1 1 
1 1 1 1 1 1 1 1 1 
1 1 1 1 1 1 1 1 1 
1 1 1 1 1 1 1 1 1 
1 1 1 1 1 1 1 1 1 
1 1 1 1 1 1 1 1 1 
1 1 1 1 1 1 1 1 1 
1 1 1 1 1 1 1 1 1 
1 1 1 1 1 1 1 1 1 
1 1 1 1 1 1 1 1 1 
1 1 1 1 1 1 1 1 1 
1 1 1 1 1 1 1 1 1 
1 1 1 1 1 1 1 1 1 
1 1 1 1 1 1 1 1 1 
1 1 1 1 1 1 1 1 1 
1 1 1 1 1 1 1 1 1 
1 1 1 1 1 1 1 1 1 
1 1 1 1 1 1 1 1 1 
1 1 1 1 1 1 1 1 1 
1 1 1 1 1 1 1 1 1 
1 1 1 1 1 1 1 1 1 
1 1 1 1 1 1 1 1 1 
1 1 1 1 1 1 1 1 1 
1 1 1 1 1 1 1 1 1 
1 1 1 1 1 1 1 1 1 
1 1 1 1 1 1 1 1 1 
1 1 1 1 1 1 1 1 1 
1 1 1 1 1 1 1 1 1 
1 1 1 1 1 1 1 1 1 
1 1 1 1 1 1 1 1 1 
1 1 1 1 1 1 1 1 1 
1 1 1 1 1 1 1 1 1 
1 1 1 1 1 1 1 1 1 
1 1 1 1 1 1 1 1 1 
1 1 1 1 1 1 1 1 1 
1 1 1 1 1 1 1 1 1 
1 1 1 1 1 1 1 1 1 
1 1 1 1 1 1 1 1 1 
1 1 1 1 1 1 1 1 1 
1 1 1 1 1 1 1 1 1 
1 1 1 1 1 1 1 1 1 
1 1 1 1 1 1 1 1 1 
1 1 1 1 1 1 1 1 1 
1 1 1 1 1 1 1 1 1 
1 1 1 1 1 1 1 1 1 

Label 4 1116 double
1 1 1 1 1 1 1 1 1 
1 1 1 1 1 1 1 1 1 
1 1 1 1 1 1 1 1 1 
1 1 1 1 1 1 1 1 1 
1 1 1 1 1 1 1 1 1 
1 1 1 1 1 1 1 1 1 
1 1 1 1 1 1 1 1 1 
1 1 1 1 1 1 1 1 1 
1 1 1 1 1 1 1 1 1 
1 1 1 1 1 1 1 1 1 
1 1 1 1 1 1 1 1 1 
1 1 1 1 1 1 1 1 1 
1 1 1 1 1 1 1 1 1 
1 1 1 1 1 1 1 1 1 
1 1 1 1 1 1 1 1 1 
1 1 1 1 1 1 1 1 1 
1 1 1 1 1 1 1 1 1 
1 1 1 1 1 1 1 1 1 
1 1 1 1 1 1 1 1 1 
1 1 1 1 1 1 1 1 1 
1 1 1 1 1 1 1 1 1 
1 1 1 1 1 1 1 1 1 
1 1 1 1 1 1 1 1 1 
1 1 1 1 1 1 1 1 1 
1 1 1 1 1 1 1 1 1 
1 1 1 1 1 1 1 1 1 
1 1 1 1 1 1 1 1 1 
1 1 1 1 1 1 1 1 1 
1 1 1 1 1 1 1 1 1 
1 1 1 1 1 1 1 1 1 
1 1 1 1 1 1 1 1 1 
1 1 1 1 1 1 1 1 1 
1 1 1 1 1 1 1 1 1 
1 1 1 1 1 1 1 1 1 
1 1 1 1 1 1 1 1 1 
1 1 1 1 1 1 1 1 1 
1 1 1 1 1 1 1 1 1 
1 1 1 1 1 1 1 1 1 
1 1 1 1 1 1 1 1 1 
1 1 1 1 1 1 1 1 1 
1 1 1 1 1 1 1 1 1 
1 1 1 1 1 1 1 1 1 
1 1 1 1 1 1 1 1 1 
1 1 1 1 1 1 1 1 1 
1 1 1 1 1 1 1 1 1 
1 1 1 1 1 1 1 1 1 
1 1 1 1 1 1 1 1 1 
1 1 1 1 1 1 1 1 1 
1 1 1 1 1 1 1 1 1 
1 1 1 1 1 1 1 1 1 
1 1 1 1 1 1 1 1 1 
1 1 1 1 1 1 1 1 1 
1 1 1 1 1 1 1 1 1 
1 1 1 1 1 1 1 1 1 
1 1 1 1 1 1 1 1 1 
1 1 1 1 1 1 1 1 1 
1 1 1 1 1 1 1 1 1 
1 1 1 1 1 1 1 1 1 
1 1 1 1 1 1 1 1 1 
1 1 1 1 1 1 1 1 1 
1 1 1 1 1 1 1 1 1 
1 1 1 1 1 1 1 1 1 
1 1 1 1 1 1 1 1 1 
1 1 1 1 1 1 1 1 1 
1 1 1 1 1 1 1 1 1 
1 1 1 1 1 1 1 1 1 
1 1 1 1 1 1 1 1 1 
1 1 1 1 1 1 1 1 1 
1 1 1 1 1 1 1 1 1 
1 1 1 1 1 1 1 1 1 
1 1 1 1 1 1 1 1 1 
1 1 1 1 1 1 1 1 1 
1 1 1 1 1 1 1 1 1 
1 1 1 1 1 1 1 1 1 
1 1 1 1 1 1 1 1 1 
1 1 1 1 1 1 1 1 1 
1 1 1 1 1 1 1 1 1 
1 1 1 1 1 1 1 1 1 
1 1 1 1 1 1 1 1 1 
1 1 1 1 1 1 1 1 1 
1 1 1 1 1 1 1 1 1 
1 1 1 1 1 1 1 1 1 
1 1 1 1 1 1 1 1 1 
1 1 1 1 1 1 1 1 1 
1 1 1 1 1 1 1 1 1 
1 1 1 1 1 1 1 1 1 
1 1 1 1 1 1 1 1 1 
1 1 1 1 1 1 1 1 1 
1 1 1 1 1 1 1 1 1 
1 1 1 1 1 1 1 1 1 
1 1 1 1 1 1 1 1 1 
1 1 1 1 1 1 1 1 1 
1 1 1 1 1 1 1 1 1 
1 1 1 1 1 1 1 1 1 
1 1 1 1 1 1 1 1 1 
1 1 1 1 1 1 1 1 1 
1 1 1 1 1 1 1 1 1 
1 1 1 1 1 1 1 1 1 
1 1 1 1 1 1 1 1 1 
1 1 1 1 1 1 1 1 1 
1 1 1 1 1 1 1 1 1 
1 1 1 1 1 1 1 1 1 
1 1 1 1 1 1 1 1 1 
1 1 1 1 1 1 1 1 1 
1 1 1 1 1 1 1 1 1 
1 1 1 1 1 1 1 1 1 
1 1 1 1 1 1 1 1 1 
1 1 1 1 1 1 1 1 1 
1 1 1 1 1 1 1 1 1 
1 1 1 1 1 1 1 1 1 
1 1 1 1 1 1 1 1 1 
1 1 1 1 1 1 1 1 1 
1 1 1 1 1 1 1 1 1 
1 1 1 1 1 1 1 1 1 
1 1 1 1 1 1 1 1 1 
1 1 1 1 1 1 1 1 1 
1 1 1 1 1 1 1 1 1 
1 1 1 1 1 1 1 1 1 
1 1 1 1 1 1 1 1 1 
1 1 1 1 1 1 1 1 1 
1 1 1 1 1 1 1 1 1 
1 1 1 1 1 1 1 1 1 
1 1 1 1 1 1 1 1 1 
1 1 1 1 1 1 1 1 1 
1 1 1 1 1 1 1 1 1 
1 1 1 1 1 1 1 1 1 
1 1 1 1 1 1 1 1 1 
1 1 1 1 1 1 1 1 1 
1 1 1 1 1 1 1 1 1 
1 1 1 1 1 1 1 1 1 
1 1 1 1 1 1 1 1 1 
1 1 1 1 1 1 1 1 1 
1 1 1 1 1 1 1 1 1 
1 1 1 1 1 1 1 1 1 
1 1 1 1 1 1 1 1 1 
1 1 1 1 1 1 1 1 1 
1 1 1 1 1 1 1 1 1 
1 1 1 1 1 1 1 1 1 
1 1 1 1 1 1 1 1 1 
1 1 1 1 1 1 1 1 1 
1 1 1 1 1 1 1 1 1 
1 1 1 1 1 1 1 1 1 
1 1 1 1 1 1 1 1 1 
1 1 1 1 1 1 1 1 1 
1 1 1 1 1 1 1 1 1 
1 1 1 1 1 1 1 1 1 
1 1 1 1 1 1 1 1 1 
1 1 1 1 1 1 1 1 1 
1 1 1 1 1 1 1 1 1 
1 1 1 1 1 1 1 1 1 
1 1 1 1 1 1 1 1 1 
1 1 1 1 1 1 1 1 1 
1 1 1 1 1 1 1 1 1 
1 1 1 1 1 1 1 1 1 
1 1 1 1 1 1 1 1 1 
1 1 1 1 1 1 1 1 1 
1 1 1 1 1 1 1 1 1 
1 1 1 1 1 1 1 1 1 
1 1 1 1 1 1 1 1 1 
1 1 1 1 1 1 1 1 1 
1 1 1 1 1 1 1 1 1 
1 1 1 1 1 1 1 1 1 
1 1 1 1 1 1 1 1 1 
1 1 1 1 1 1 1 1 1 
1 1 1 1 1 1 1 1 1 
1 1 1 1 1 1 1 1 1 
1 1 1 1 1 1 1 1 1 
1 1 1 1 1 1 1 1 1 
1 1 1 1 1 1 1 1 1 
1 1 1 1 1 1 1 1 1 
1 1 1 1 1 1 1 1 1 
1 1 1 1 1 1 1 1 1 
1 1 1 1 1 1 1 1 1 
1 1 1 1 1 1 1 1 1 
1 1 1 1 1 1 1 1 1 
1 1 1 1 1 1 1 1 1 
1 1 1 1 1 1 1 1 1 
1 1 1 1 1 1 1 1 1 
1 1 1 1 1 1 1 1 1 
1 1 1 1 1 1 1 1 1 
1 1 1 1 1 1 1 1 1 
1 1 1 1 1 1 1 1 1 
1 1 1 1 1 1 1 1 1 
1 1 1 1 1 1 1 1 1 
1 1 1 1 1 1 1 1 1 
1 1 1 1 1 1 1 1 1 
1 1 1 1 1 1 1 1 1 
1 1 1 1 1 1 1 1 1 
1 1 1 1 1 1 1 1 1 
1 1 1 1 1 1 1 1 1 
1 1 1 1 1 1 1 1 1 
1 1 1 1 1 1 1 1 1 
1 1 1 1 1 1 1 1 1 
1 1 1 1 1 1 1 1 1 
1 1 1 1 1 1 1 1 1 
1 1 1 1 1 1 1 1 1 
1 1 1 1 1 1 1 1 1 
1 1 1 1 1 1 1 1 1 
1 1 1 1 1 1 1 1 1 
1 1 1 1 1 1 1 1 1 
1 1 1 1 1 1 1 1 1 
1 1 1 1 1 1 1 1 1 
1 1 1 1 1 1 1 1 1 
1 1 1 1 1 1 1 1 1 
1 1 1 1 1 1 1 1 1 
1 1 1 1 1 1 1 1 1 
1 1 1 1 1 1 1 1 1 
1 1 1 1 1 1 1 1 1 
1 1 1 1 1 1 1 1 1 
1 1 1 1 1 1 1 1 1 
1 1 1 1 1 1 1 1 1 
1 1 1 1 1 1 1 1 1 
1 1 1 1 1 1 1 1 1 
1 1 1 1 1 1 1 1 1 
1 1 1 1 1 1 1 1 1 
1 1 1 1 1 1 1 1 1 
1 1 1 1 1 1 1 1 1 
1 1 1 1 1 1 1 1 1 
1 1 1 1 1 1 1 1 1 
1 1 1 1 1 1 1 1 1 
1 1 1 1 1 1 1 1 1 
1 1 1 1 1 1 1 1 1 
1 1 1 1 1 1 1 1 1 
1 1 1 1 1 1 1 1 1 
1 1 1 1 1 1 1 1 1 
1 1 1 1 1 1 1 1 1 
1 1 1 1 1 1 1 1 1 
1 1 1 1 1 1 1 1 1 
1 1 1 1 1 1 1 1 1 
1 1 1 1 1 1 1 1 1 
1 1 1 1 1 1 1 1 1 
1 1 1 1 1 1 1 1 1 
1 1 1 1 1 1 1 1 1 
1 1 1 1 1 1 1 1 1 
1 1 1 1 1 1 1 1 1 
1 1 1 1 1 1 1 1 1 
1 1 1 1 1 1 1 1 1 
1 1 1 1 1 1 1 1 1 
1 1 1 1 1 1 1 1 1 
1 1 1 1 1 1 1 1 1 
1 1 1 1 1 1 1 1 1 
1 1 1 1 1 1 1 1 1 
1 1 1 1 1 1 1 1 1 
1 1 1 1 1 1 1 1 1 
1 1 1 1 1 1 1 1 1 
1 1 1 1 1 1 1 1 1 
1 1 1 1 1 1 1 1 1 
1 1 1 1 1 1 1 1 1 
1 1 1 1 1 1 1 1 1 
1 1 1 1 1 1 1 1 1 
1 1 1 1 1 1 1 1 1 
1 1 1 1 1 1 1 1 1 
1 1 1 1 1 1 1 1 1 
1 1 1 1 1 1 1 1 1 
1 1 1 1 1 1 1 1 1 
1 1 1 1 1 1 1 1 1 
1 1 1 1 1 1 1 1 1 
1 1 1 1 1 1 1 1 1 
1 1 1 1 1 1 1 1 1 
1 1 1 1 1 1 1 1 1 
1 1 1 1 1 1 1 1 1 
1 1 1 1 1 1 1 1 1 
1 1 1 1 1 1 1 1 1 
1 1 1 1 1 1 1 1 1 
1 1 1 1 1 1 1 1 1 
1 1 1 1 1 1 1 1 1 
1 1 1 1 1 1 1 1 1 
1 1 1 1 1 1 1 1 1 
1 1 1 1 1 1 1 1 1 
1 1 1 1 1 1 1 1 1 
1 1 1 1 1 1 1 1 1 
1 1 1 1 1 1 1 1 1 
1 1 1 1 1 1 1 1 1 
1 1 1 1 1 1 1 1 1 
1 1 1 1 1 1 1 1 1 
1 1 1 1 1 1 1 1 1 
1 1 1 1 1 1 1 1 1 
1 1 1 1 1 1 1 1 1 
1 1 1 1 1 1 1 1 1 
1 1 1 1 1 1 1 1 1 
1 1 1 1 1 1 1 1 1 
1 1 1 1 1 1 1 1 1 
1 1 1 1 1 1 1 1 1 
1 1 1 1 1 1 1 1 1 
1 1 1 1 1 1 1 1 1 
1 1 1 1 1 1 1 1 1 
1 1 1 1 1 1 1 1 1 
1 1 1 1 1 1 1 1 1 
1 1 1 1 1 1 1 1 1 
1 1 1 1 1 1 1 1 1 
1 1 1 1 1 1 1 1 1 
1 1 1 1 1 1 1 1 1 
1 1 1 1 1 1 1 1 1 
1 1 1 1 1 1 1 1 1 
1 1 1 1 1 1 1 1 1 
1 1 1 1 1 1 1 1 1 
1 1 1 1 1 1 1 1 1 
1 1 1 1 1 1 1 1 1 
1 1 1 1 1 1 1 1 1 
1 1 1 1 1 1 1 1 1 
1 1 1 1 1 1 1 1 1 
1 1 1 1 1 1 1 1 1 
1 1 1 1 1 1 1 1 1 
1 1 1 1 1 1 1 1 1 
1 1 1 1 1 1 1 1 1 
1 1 1 1 1 1 1 1 1 
1 1 1 1 1 1 1 1 1 
1 1 1 1 1 1 1 1 1 
1 1 1 1 1 1 1 1 1 
1 1 1 1 1 1 1 1 1 
1 1 1 1 1 1 1 1 1 
1 1 1 1 1 1 1 1 1 
1 1 1 1 1 1 1 1 1 
1 1 1 1 1 1 1 1 1 
1 1 1 1 1 1 1 1 1 
1 1 1 1 1 1 1 1 1 
1 1 1 1 1 1 1 1 1 
1 1 1 1 1 1 1 1 1 
1 1 1 1 1 1 1 1 1 
1 1 1 1 1 1 1 1 1 
1 1 1 1 1 1 1 1 1 
1 1 1 1 1 1 1 1 1 
1 1 1 1 1 1 1 1 1 
1 1 1 1 1 1 1 1 1 
1 1 1 1 1 1 1 1 1 
1 1 1 1 1 1 1 1 1 
1 1 1 1 1 1 1 1 1 
1 1 1 1 1 1 1 1 1 
1 1 1 1 1 1 1 1 1 
1 1 1 1 1 1 1 1 1 
1 1 1 1 1 1 1 1 1 
1 1 1 1 1 1 1 1 1 
1 1 1 1 1 1 1 1 1 
1 1 1 1 1 1 1 1 1 
1 1 1 1 1 1 1 1 1 
1 1 1 1 1 1 1 1 1 
1 1 1 1 1 1 1 1 1 
1 1 1 1 1 1 1 1 1 
1 1 1 1 1 1 1 1 1 
1 1 1 1 1 1 1 1 1 
1 1 1 1 1 1 1 1 1 
1 1 1 1 1 1 1 1 1 
1 1 1 1 1 1 1 1 1 
1 1 1 1 1 1 1 1 1 
1 1 1 1 1 1 1 1 1 
1 1 1 1 1 1 1 1 1 
1 1 1 1 1 1 1 1 1 
1 1 1 1 1 1 1 1 1 
1 1 1 1 1 1 1 1 1 
1 1 1 1 1 1 1 1 1 
1 1 1 1 1 1 1 1 1 
1 1 1 1 1 1 1 1 1 
1 1 1 1 1 1 1 1 1 
1 1 1 1 1 1 1 1 1 
1 1 1 1 1 1 1 1 1 
1 1 1 1 1 1 1 1 1 
1 1 1 1 1 1 1 1 1 
1 1 1 1 1 1 1 1 1 
1 1 1 1 1 1 1 1 1 
1 1 1 1 1 1 1 1 1 
1 1 1 1 1 1 1 1 1 
1 1 1 1 1 1 1 1 1 
1 1 1 1 1 1 1 1 1 
1 1 1 1 1 1 1 1 1 
1 1 1 1 1 1 1 1 1 
1 1 1 1 1 1 1 1 1 
1 1 1 1 1 1 1 1 1 
1 1 1 1 1 1 1 1 1 
1 1 1 1 1 1 1 1 1 
1 1 1 1 1 1 1 1 1 
1 1 1 1 1 1 1 1 1 
1 1 1 1 1 1 1 1 1 
1 1 1 1 1 1 1 1 1 
1 1 1 1 1 1 1 1 1 
1 1 1 1 1 1 1 1 1 
1 1 1 1 1 1 1 1 1 
1 1 1 1 1 1 1 1 1 
1 1 1 1 1 1 1 1 1 
1 1 1 1 1 1 1 1 1 
1 1 1 1 1 1 1 1 1 
1 1 1 1 1 1 1 1 1 
1 1 1 1 1 1 1 1 1 
1 1 1 1 1 1 1 1 1 
1 1 1 1 1 1 1 1 1 
1 1 1 1 1 1 1 1 1 
1 1 1 1 1 1 1 1 1 
1 1 1 1 1 1 1 1 1 
1 1 1 1 1 1 1 1 1 
1 1 1 1 1 1 1 1 1 
1 1 1 1 1 1 1 1 1 
1 1 1 1 1 1 1 1 1 
1 1 1 1 1 1 1 1 1 
1 1 1 1 1 1 1 1 1 
1 1 1 1 1 1 1 1 1 
1 1 1 1 1 1 1 1 1 
1 1 1 1 1 1 1 1 1 
1 1 1 1 1 1 1 1 1 
1 1 1 1 1 1 1 1 1 
1 1 1 1 1 1 1 1 1 
1 1 1 1 1 1 1 1 1 
1 1 1 1 1 1 1 1 1 
1 1 1 1 1 1 1 1 1 
1 1 1 1 1 1 1 1 1 
1 1 1 1 1 1 1 1 1 
1 1 1 1 1 1 1 1 1 
1 1 1 1 1 1 1 1 1 
1 1 1 1 1 1 1 1 1 
1 1 1 1 1 1 1 1 1 
1 1 1 1 1 1 1 1 1 
1 1 1 1 1 1 1 1 1 
1 1 1 1 1 1 1 1 1 
1 1 1 1 1 1 1 1 1 
1 1 1 1 1 1 1 1 1 
1 1 1 1 1 1 1 1 1 
1 1 1 1 1 1 1 1 1 
1 1 1 1 1 1 1 1 1 
1 1 1 1 1 1 1 1 1 
1 1 1 1 1 1 1 1 1 
1 1 1 1 1 1 1 1 1 
1 1 1 1 1 1 1 1 1 
1 1 1 1 1 1 1 1 1 
1 1 1 1 1 1 1 1 1 
1 1 1 1 1 1 1 1 1 
1 1 1 1 1 1 1 1 1 
1 1 1 1 1 1 1 1 1 
1 1 1 1 1 1 1 1 1 
1 1 1 1 1 1 1 1 1 
1 1 1 1 1 1 1 1 1 
1 1 1 1 1 1 1 1 1 
1 1 1 1 1 1 1 1 1 
1 1 1 1 1 1 1 1 1 
1 1 1 1 1 1 1 1 1 
1 1 1 1 1 1 1 1 1 
1 1 1 1 1 1 1 1 1 
1 1 1 1 1 1 1 1 1 
1 1 1 1 1 1 1 1 1 
1 1 1 1 1 1 1 1 1 
1 1 1 1 1 1 1 1 1 
1 1 1 1 1 1 1 1 1 
1 1 1 1 1 1 1 1 1 
1 1 1 1 1 1 1 1 1 
1 1 1 1 1 1 1 1 1 
1 1 1 1 1 1 1 1 1 
1 1 1 1 1 1 1 1 1 
1 1 1 1 1 1 1 1 1 
1 1 1 1 1 1 1 1 1 
1 1 1 1 1 1 1 1 1 
1 1 1 1 1 1 1 1 1 
1 1 1 1 1 1 1 1 1 
1 1 1 1 1 1 1 1 1 
1 1 1 1 1 1 1 1 1 
1 1 1 1 1 1 1 1 1 
1 1 1 1 1 1 1 1 1 
1 1 1 1 1 1 1 1 1 
1 1 1 1 1 1 1 1 1 
1 1 1 1 1 1 1 1 1 
1 1 1 1 1 1 1 1 1 
1 1 1 1 1 1 1 1 1 
1 1 1 1 1 1 1 1 1 
1 1 1 1 1 1 1 1 1 
1 1 1 1 1 1 1 1 1 
1 1 1 1 1 1 1 1 1 
1 1 1 1 1 1 1 1 1 
1 1 1 1 1 1 1 1 1 
1 1 1 1 1 1 1 1 1 
1 1 1 1 1 1 1 1 1 
1 1 1 1 1 1 1 1 1 
1 1 1 1 1 1 1 1 1 
1 1 1 1 1 1 1 1 1 
1 1 1 1 1 1 1 1 1 
1 1 1 1 1 1 1 1 1 
1 1 1 1 1 1 1 1 1 
1 1 1 1 1 1 1 1 1 
1 1 1 1 1 1 1 1 1 
1 1 1 1 1 1 1 1 1 
1 1 1 1 1 1 1 1 1 
1 1 1 1 1 1 1 1 1 
1 1 1 1 1 1 1 1 1 
1 1 1 1 1 1 1 1 1 
1 1 1 1 1 1 1 1 1 
1 1 1 1 1 1 1 1 1 
1 1 1 1 1 1 1 1 1 
1 1 1 1 1 1 1 1 1 
1 1 1 1 1 1 1 1 1 
1 1 1 1 1 1 1 1 1 
1 1 1 1 1 1 1 1 1 
1 1 1 1 1 1 1 1 1 
1 1 1 1 1 1 1 1 1 
1 1 1 1 1 1 1 1 1 
1 1 1 1 1 1 1 1 1 
1 1 1 1 1 1 1 1 1 
1 1 1 1 1 1 1 1 1 
1 1 1 1 1 1 1 1 1 
1 1 1 1 1 1 1 1 1 
1 1 1 1 1 1 1 1 1 
1 1 1 1 1 1 1 1 1 

Long_Strain_Pt 1 1116 double
0.99854279736 0.99879854749 0.99590288806 0.99695399876 0.99863200574 0.99596102604 0.9994995447 0.99740518521 0.99932009497 
0.99774757349 0.9981233204 0.99784361461 0.99828447314 0.99808199659 0.99871548296 0.99860512769 0.99940645072 0.99907386761 
0.99865377148 0.99611981349 0.99867395276 0.99234761918 0.99918272944 0.98848445321 0.99727711195 0.98728030569 0.99667219758 
0.9899195004 0.99629649357 0.99385305411 0.98643834598 0.99586762477 0.98186079516 0.99719355763 0.98933688586 0.99754608917 
0.99479370844 0.99749175853 0.99800674193 0.99694795445 0.99923464869 0.9955229 0.99969652603 0.99382052106 0.99982036856 
0.99242250008 0.99984921594 0.99266684742 0.99964914713 0.99268673722 0.99959372635 0.99394993575 0.99962840465 0.99535794242 
0.99899600759 0.99743460555 0.99696048723 0.99687589355 0.99340555778 0.99708014909 0.99484795614 0.99773092549 0.99657399103 
0.99827736471 0.99839802632 0.99863991996 0.99915354319 0.9989774835 0.99933945684 0.99923294689 0.99900035876 0.99953379371 
0.99911403341 0.99924519088 0.99937271941 0.99892710877 0.99981283963 0.99877127828 0.99980399226 0.9979738824 0.9995032025 
0.99701722333 0.9987721997 0.99655870245 0.99759800138 0.99729769286 0.99493859341 0.99782847355 0.99044011123 0.99744952232 
0.98647111888 0.99605106227 0.98182148607 0.99445001024 0.97625123281 0.99265206764 0.96858127839 0.99419041718 0.96394093699 
0.99467397372 0.96101154243 0.99617899187 0.97506726398 0.99625365591 0.98662233658 0.99735523268 0.99399175501 0.99779550626 
0.99411466403 0.99779876044 0.99462213615 0.99789983417 0.99994331228 0.99971768927 0.99611987059 0.99716970454 0.99932787688 
0.99600676508 0.99872801395 0.99776089222 0.99826627561 0.99868776473 0.99790651124 0.99933043994 0.99854737952 0.99914347398 
0.99912781239 0.99853491176 0.99948368108 0.99769237976 0.99974660708 0.99649285699 0.99973634813 0.993488667 0.99974498771 
0.99226792142 0.99980532045 0.99011760828 0.9998705008 0.98896152193 0.99994258629 0.98907738069 0.99954783179 0.98972629567 
0.99890775935 0.9910274058 0.99831069362 0.99442081246 0.99799822176 0.99738565722 0.99848370483 0.99839502694 0.99899480121 
0.99831294785 0.9995235027 0.99734686338 0.99969194541 0.99684043679 0.99963817105 0.99662138543 0.99922099535 0.99569051906 
0.99708077868 0.99397321937 0.99554060748 0.99279415792 0.99576511348 0.99467435966 0.99740738093 0.99690913795 0.99878403929 
0.99779864854 0.99966491623 0.99718579983 0.99821525331 0.99606835568 0.99743555879 0.99519648177 0.99772079441 0.99407222398 
0.99850295768 0.99454722792 0.99897456234 0.99413951009 0.99917679683 0.99291654268 0.99770576115 0.99441760357 0.9971915269 
0.99648315684 0.99816415785 0.99803940403 0.99884740774 0.99885190898 0.99934981457 0.99886393982 0.99967205272 0.99935944109 
0.99984950462 0.99951156538 0.99989805958 0.99888964354 0.99979967915 0.99826499936 0.99894302502 0.99858474513 0.99873723976 
0.99925573498 0.99911329273 0.99858301745 0.99957899639 0.99814026981 0.99982524414 0.997658013 0.99951187931 0.99758291687 
0.99934616302 0.99681027956 0.99928871528 0.99290759903 0.99952678334 0.99110291015 0.99978561888 0.99101305536 0.99985784874 
0.99383492974 0.99990926585 0.99658587196 0.99560270289 0.99633055924 0.99624663522 0.99851661369 0.9994550433 0.99974230123 
0.99813999746 0.99597122324 0.99305552224 0.99326299424 0.99591380668 0.99562461741 0.99604009411 0.99750427039 0.9977419842 
0.99759451315 0.9964589544 0.99508330091 0.9930549561 0.99261320902 0.99364817917 0.99723088379 0.99621739835 0.99695699495 
0.99778893927 0.99856757318 0.9981198666 0.99673934911 0.99607752589 0.9968483737 0.99806204488 0.99862351629 0.99867629489 
0.99865214557 0.99871461542 0.99890047874 0.9985946653 0.99896713105 0.99916246533 0.99897551412 0.99879212701 0.99899456575 
0.99929106644 0.99886218077 0.99963932644 0.99940667527 0.99915571698 0.99900762402 0.99885223535 0.99826177621 0.99755650353 
0.99602898273 0.99545867275 0.99639302662 0.99804141506 0.99608678854 0.99833943003 0.99777530781 0.99813445658 0.99826792389 
0.99844398651 0.99891543373 0.99929688696 0.99836269605 0.99715207756 0.99721600242 0.99660219693 0.99422605229 0.99283013378 
0.99035650163 0.99100098869 0.9916751608 0.99411307732 0.99548244001 0.99762656179 0.9984326484 0.99897928535 0.99812523693 
0.99795101681 0.99811959947 0.99673463149 0.99622524689 0.99703991372 0.99788783755 0.99912890296 0.99922262559 0.99863814247 
0.99841803605 0.99765383423 0.99655869996 0.99559234717 0.99472900474 0.99381371018 0.99358912966 0.9954406135 0.99787016794 
0.9979268864 0.99850147451 0.99898234244 0.99936145113 0.99951750567 0.99962924163 0.99974292927 0.99979936536 0.99970580623 
0.99913988236 0.99805064854 0.99678835721 0.99664383136 0.99619971507 0.99539790266 0.99672443307 0.99681530247 0.99704850048 
0.99174220989 0.99069878933 0.99554795063 0.99845542402 0.99933057153 0.99721220705 0.99441402703 0.9915322802 0.99427027222 
0.99694224743 0.99942527448 0.99872623714 0.99656838553 0.99595184008 0.99647373912 0.9966052309 0.99687586181 0.99742796121 
0.99832483841 0.99865344151 0.99863492881 0.99767074497 0.99836250243 0.9982369279 0.99891944457 0.9996484283 0.99953622239 
0.99901661246 0.99871435897 0.99850300061 0.99875680229 0.99876063505 0.99917629422 0.99894168536 0.9987688505 0.99885780606 
0.99928393148 0.99947180593 0.99853982698 0.99824187029 0.99825962202 0.99800572196 0.99875788792 0.9980942186 0.99807108043 
0.99754859347 0.99785281018 0.99835242916 0.99869594178 0.998380704 0.99736064692 0.99497477226 0.99331170835 0.99415735732 
0.99641183198 0.99133459726 0.99872996938 0.99823373712 0.99649651775 0.99656518921 0.99908827967 0.99942068461 0.9977729211 
0.99704597559 0.99584524545 0.99506701062 0.99618224637 0.99594309446 0.99567211338 0.99360256519 0.99446181632 0.99512989903 
0.99590251228 0.99623902703 0.99504750177 0.99541524544 0.99605342123 0.99822974769 0.99910190148 0.99959689777 0.99961308218 
0.9991446578 0.99857874408 0.99790014915 0.99703050765 0.99629764098 0.99797316451 0.99905953576 0.99964985021 0.99969984232 
0.9994034574 0.9987297475 0.99879832265 0.99860365659 0.99880925778 0.99801162814 0.99702925425 0.99794998018 0.99817217108 
0.99811104591 0.99793196322 0.99811519865 0.998413988 0.99862851911 0.99872070258 0.99902951853 0.99952453371 0.99954868962 
0.99949223678 0.99863195165 0.99783324065 0.99719798791 0.99753927306 0.99813350974 0.99826290259 0.99775188371 0.99844044612 
0.9990514431 0.99174482143 0.9930783544 0.99106075776 0.98760896231 0.98705542941 0.99209109114 0.99651101219 0.99778923587 
0.99777448045 0.99816626545 0.99866127416 0.997798139 0.9972945302 0.99539361673 0.99435924768 0.99350546468 0.99385648763 
0.99606558962 0.99816022067 0.99888507585 0.99844455772 0.99634092473 0.99771998897 0.99858190554 0.9993072602 0.99936167394 
0.99861022165 0.99719620903 0.99602704028 0.99479401914 0.9973082491 0.9991905906 0.99883825119 0.99887466652 0.99875984532 
0.99871410921 0.99841585751 0.99802977135 0.9958826276 0.99769724589 0.99771571999 0.99779965562 0.99834531047 0.99922381243 
0.99956127085 0.99970896179 0.99985569407 0.9996210433 0.99920073224 0.99887412038 0.99930572494 0.99981228816 0.99973849995 
0.99930821916 0.99869795603 0.99875635943 0.99899919001 0.99944289248 0.9993004804 0.99920239142 0.9990587051 0.99756082593 
0.99498674653 0.99496786521 0.99427944945 0.99739044599 0.99223259928 0.9985847629 0.99936365319 0.99749690103 0.99707963079 
0.99632799256 0.99542021914 0.99555399155 0.99715927979 0.9981460274 0.99776383758 0.99674112623 0.99400750368 0.99147340945 
0.99082902981 0.99067984351 0.99113953648 0.9958279288 0.99574303935 0.9961309041 0.9980026686 0.99901513505 0.9985551811 
0.99857094148 0.99873721003 0.99803204635 0.9984427698 0.99900525986 0.99943563416 0.99881602044 0.99897693928 0.9992578309 
0.99953338594 0.99947704166 0.99857352321 0.99799018323 0.99833697211 0.99906506979 0.99936330276 0.99920611458 0.99848541663 
0.9982293479 0.99866675441 0.99917746577 0.99912634341 0.99943574637 0.99955630197 0.99970983146 0.99963541641 0.99930005113 
0.99829686928 0.9975530923 0.99737371616 0.99868265037 0.99900207177 0.99908734413 0.99870812597 0.9991919198 0.9990925393 
0.99382153736 0.99348587049 0.99033852206 0.99207261812 0.99469183796 0.9960610715 0.99879776286 0.99883817532 0.99853666236 
0.99821413148 0.99677286183 0.99620243928 0.99743439401 0.99743448764 0.99713725669 0.99814464809 0.99792390934 0.99769959424 
0.99782158405 0.99824757372 0.99820047556 0.9987994264 0.99833788321 0.9975526398 0.99699364035 0.99720385805 0.99648043939 
0.99695578705 0.99754491696 0.99829667254 0.99886781734 0.99936353122 0.99959507185 0.99948604332 0.99923951701 0.99908171151 
0.99631836329 0.99553620319 0.99547853544 0.99706226815 0.99597708364 0.99704838297 0.99749726491 0.99751784234 0.9976591842 
0.99682993841 0.99729620257 0.99874659721 0.99933799569 0.99944470331 0.99913841445 0.99905212874 0.99905419265 0.9992201946 
0.99935586448 0.99928957014 0.99858860842 0.99850099985 0.99852523826 0.9989047744 0.99833595214 0.99772697283 0.99752481798 
0.99613950986 0.99642308456 0.99736929391 0.99752699793 0.99743260702 0.99661948169 0.99630340714 0.99839326085 0.99670873209 
0.99782495164 0.99384009704 0.99846545529 0.99800460495 0.99819949085 0.99811717289 0.99862900106 0.99904678748 0.99872885738 
0.99893516951 0.9994287214 0.99910792103 0.99908321443 0.99914395736 0.9983076694 0.99845386746 0.99866373334 0.9989496764 
0.99928783609 0.99925625771 0.99885749633 0.99894267076 0.99931002039 0.99938741256 0.99945733566 0.99902451138 0.99884436934 
0.99910598565 0.99940199135 0.99958042339 0.9989939896 0.99893280973 0.99904659423 0.99935978049 0.99943322253 0.99928255992 
0.99836457016 0.99703577648 0.99539422171 0.9960952732 0.99673977932 0.99792612708 0.99726696491 0.99675685802 0.99754182716 
0.99858647377 0.99914605425 0.99883571094 0.998214146 0.99634900383 0.99482873237 0.99550489405 0.99583602945 0.99575732589 
0.99419878471 0.99202494613 0.98997929815 0.98887025334 0.98948679125 0.99071024459 0.99261057276 0.99665325381 0.99619831092 
0.99867461907 0.99575942946 0.99875013999 0.99814912313 0.99765870501 0.99687183792 0.99639020092 0.99654721384 0.99745118192 
0.99813723433 0.99836991597 0.99767506973 0.99624242197 0.9975087878 0.99517724904 0.99690052257 0.99740329349 0.9986327098 
0.99848743413 0.99752299024 0.99724810242 0.99706266184 0.99723917075 0.99772691387 0.99890190491 0.99956759684 0.99440610211 
0.99625276952 0.99337445608 0.99447595754 0.99552072993 0.99663588538 0.99866334737 0.99924585848 0.99867507001 0.99837969635 
0.99748291495 0.99819718509 0.99810828562 0.99731546852 0.99649455378 0.99761379707 0.99504623863 0.99858346684 0.99931760487 
0.99933119639 0.99456118343 0.99546327612 0.99711801428 0.99516747493 0.9931563781 0.99223534421 0.99599389516 0.99882152622 
0.99902542273 0.99891277831 0.99850727928 0.99831700477 0.99853138705 0.99922036473 0.99938370771 0.99921034621 0.99883754645 
0.9983167883 0.99749399095 0.9970717029 0.99673879409 0.99722162134 0.99767406317 0.99730963785 0.9964189456 0.99597281043 
0.99677637374 0.99754221745 0.99651361801 0.99748186505 0.99830225269 0.99912038838 0.99856357377 0.99838677021 0.99804843781 
0.99811498675 0.99834854518 0.99815644812 0.9985670342 0.99890003159 0.99920807653 0.99890725031 0.99814234567 0.99932650913 
0.9993808603 0.99977097164 0.99968962684 0.99962751617 0.99956253914 0.99966665785 0.99986882223 0.99944133178 0.99654677733 
0.99800516808 0.99879473397 0.99926169643 0.99911289353 0.99868865077 0.99863279315 0.99900720402 0.99940740758 0.99942069428 
0.9993319925 0.99872652145 0.99700824984 0.99476172718 0.99263340598 0.99368962303 0.99522484282 0.9974895729 0.99838285023 
0.9988837532 0.99910274535 0.99723452375 0.99451560187 0.99461315811 0.99604674636 0.99623613458 0.99482549229 0.99510785917 
0.99429646949 0.99234499398 0.99081884877 0.99048808505 0.99128252271 0.9929593653 0.99697580008 0.99851047013 0.99927961174 
0.99969534071 0.99880420748 0.99797256484 0.99874159229 0.99848721224 0.99174732881 0.99312851027 0.99465463529 0.99577716158 
0.99475931718 0.99714771706 0.99772410739 0.99788239944 0.99811279089 0.99848939081 0.99933068979 0.99955846477 0.99940463826 
0.99918579696 0.99865550406 0.99761094425 0.99752899051 0.99679535143 0.99888031369 0.99669432823 0.99560768389 0.99473950997 
0.9959099436 0.99860219081 0.99933235658 0.99966247513 0.99926831812 0.99826855508 0.99711784834 0.99618648211 0.99461544657 
0.99515754348 0.99599617507 0.99706089266 0.99664303819 0.99857290891 0.9980871886 0.99723547786 0.99732302653 0.99810136218 
0.99937455954 0.99872026353 0.99759855007 0.997160531 0.9978769342 0.99717981379 0.99605351949 0.99649794687 0.99674503365 
0.99694260425 0.99789803785 0.99636737909 0.99929203465 0.99828750517 0.99882345602 0.99887285275 0.99840545227 0.99808627202 
0.9976436165 0.99740774673 0.99726513307 0.99707300558 0.99741303549 0.99653978341 0.99684022962 0.9977266678 0.99695347868 
0.99871932397 0.99868280282 0.9985747548 0.99808115637 0.99809086795 0.99853727805 0.99914264013 0.99942183062 0.99929868 
0.99838166905 0.99791075161 0.99728122943 0.99828079235 0.99775145652 0.99863046414 0.99872417314 0.99885094203 0.99900737773 
0.9992684822 0.99945903908 0.99942928677 0.9995602804 0.99904367082 0.9984760453 0.9966728902 0.99523779047 0.99384073394 
0.99792672423 0.99803447137 0.99870682725 0.99590408227 0.99627043204 0.99955580358 0.99942819887 0.99803186102 0.99758452806 
0.99795702025 0.99781977694 0.99741459753 0.99676401884 0.99693892373 0.99768815873 0.99770271931 0.99761834908 0.99728706255 
0.99808868994 0.99793158862 0.99811881285 0.99792799456 0.99886677517 0.99866361504 0.99873417193 0.99781844199 0.99866919488 
0.99870277873 0.9989765923 0.99783687321 0.99587722043 0.99568417199 0.9971573625 0.99585116489 0.99804410925 0.99774818522 
0.99822012787 0.99884453739 0.99918693877 0.99880050842 0.99786374034 0.99690632751 0.99826948722 0.99831119306 0.99868220456 
0.99888322191 0.99889065067 0.99881717255 0.99852771203 0.9983172087 0.99825775233 0.99858156146 0.99774324025 0.9975259725 
0.99774409898 0.99819086872 0.9984189644 0.99874202249 0.99811200566 0.99743935344 0.99709197034 0.99689728875 0.99478837704 
0.99303659507 0.99844385602 0.99876644979 0.99914718309 0.99800182972 0.9946332385 0.99748195083 0.99725235743 0.997729614 
0.99908351041 0.99910213897 0.99882213636 0.9984974547 0.99796681316 0.99779808985 0.99756616691 0.99701488304 0.9954851175 
0.99617943821 0.99697352056 0.99822888764 0.99847451727 0.99825460965 0.99683658153 0.9969550352 0.99739487219 0.99791739194 
0.99860673361 0.99692856829 0.99872272041 0.99933685189 0.99960023418 0.99936729126 0.99937266143 0.99954859676 0.99956894484 
0.99957036725 0.99955292714 0.99942291279 0.99913855376 0.99925150616 0.99870703759 0.99958825151 0.99973599009 0.99985825453 
0.99918103359 0.99851686238 0.99784612899 0.99734023582 0.99731760027 0.99695225915 0.99722399161 0.9972413344 0.99762088708 
0.99701315437 0.99705538993 0.99753400824 0.99774097305 0.99765930486 0.99948958709 0.99940143651 0.99940965457 0.99906006565 
0.99910190972 0.99945026145 0.99934446384 0.99916457515 0.99796404429 0.99900989997 0.99913733833 0.99946856521 0.9995496586 
0.99942537037 0.99906226734 0.99906671292 0.99875712116 0.99839900913 0.99572406491 0.99755387422 0.99835846814 0.99916196675 
0.99817568527 0.99824806843 0.99921110327 0.99881506885 0.99857343928 0.99830893806 0.9978893606 0.99844197055 0.99880843371 
0.99792512222 0.99742840026 0.99765737514 0.99797939644 0.99843529677 0.99883076528 0.99812689307 0.99943322308 0.99797572387 

Longtudinal 3 1116 double
0.94597279298 0.22719994595 -0.23110201395 0.92549763259 0.29447106128 -0.22802035827 0.92044214334 0.30583886772 -0.21708935418 
0.9549942365 0.18854368628 -0.22706139425 0.90489490096 0.36269251913 -0.22257010292 0.8920301695 0.40128879642 -0.19859921337 
0.89668309032 0.38022959656 -0.22620026369 0.86894154339 0.46334086539 -0.16201194117 0.89584466902 0.38272686544 -0.22555066074 
0.85838301991 0.49508330958 -0.13197528391 0.90217073028 0.37061044165 -0.22074255063 0.85281548198 0.51231231973 -0.099236889701 
0.88334891912 0.43256043687 -0.16996969501 0.85556153884 0.51231477648 -0.072103639367 0.87615861337 0.45798170178 -0.14940998444 
0.86424532462 0.49844744668 -0.065686576304 0.88279366539 0.44013822529 -0.1641557916 0.87601151051 0.47656241784 -0.073188701348 
0.88210835754 0.438708056 -0.17145183188 0.88447091252 0.45874684757 -0.084618886283 0.88441029619 0.4372543007 -0.16233461402 
0.87392112823 0.47173256713 0.007773769807 0.88911956342 0.43464742081 -0.14297388433 0.86702379229 0.47703751927 0.078730838006 
0.89262432955 0.41555342182 -0.17315731003 0.88177095567 0.44578346311 0.10589525503 0.90777934916 0.39204453502 -0.12769840372 
0.8973084999 0.41307203386 0.12663302726 0.9277120772 0.36766941647 -0.045631373069 0.91493786601 0.37220706729 0.15382842773 
0.90185789371 0.37421216523 -0.18056973459 0.92862839962 0.34033917243 0.14354019667 0.89187417065 0.37279892712 -0.24837095324 
0.94001550787 0.3183034465 0.10790584602 0.9181168154 0.35322512534 -0.16292300564 0.94105996776 0.32726968228 0.010271801699 
0.92396417453 0.35435505695 -0.13818940457 0.93449559686 0.34529199089 -0.071668045867 0.90714851116 0.37849075495 -0.18092093387 
0.91665310704 0.37603962695 -0.12818128762 0.91429992034 0.3591174355 -0.18410775357 0.92090521641 0.3619879922 -0.13889352811 
0.93019630774 0.32385104911 -0.17275893802 0.9372942441 0.3187564751 -0.12169937249 0.93302374758 0.31170580423 -0.1793368216 
0.96037722384 0.24839339647 -0.09299063156 0.9361684382 0.29904484193 -0.18458873592 0.96803421912 0.21169246965 -0.11475355009 
0.94007762941 0.28514112061 -0.1866453728 0.9757860431 0.17415699397 -0.12314113968 0.93557768356 0.28991698983 -0.20031364121 
0.98205459896 0.12602663809 -0.13180561125 0.9254838536 0.30727191361 -0.2214955529 0.98546508344 0.088573795943 -0.14236416074 
0.92860738013 0.30626217213 -0.20930310417 0.97361370054 0.12990945138 -0.17989743342 0.93878522747 0.26018992626 -0.21467960893 
0.95505941689 0.19763475946 -0.20452580278 0.95660203232 0.16532055805 -0.2390811187 0.93118904216 0.27733069544 -0.22967822088 
0.93252409963 0.24880657675 -0.25356840585 0.92270655695 0.29635331497 -0.24355798662 0.90550146152 0.3312015874 -0.25910366418 
0.91484367315 0.30618506724 -0.26201360016 0.87769973085 0.4044431252 -0.25696995915 0.90735746345 0.30742308877 -0.28562710111 
0.8770166464 0.38988102682 -0.2801132485 0.90187218934 0.29921777866 -0.31076666018 0.87561197011 0.37679485259 -0.30173670248 
0.89659828865 0.29345408483 -0.33096703071 0.87355850286 0.36491875757 -0.32203323022 0.89174058103 0.28082997046 -0.3539749752 
0.87520017385 0.32310499454 -0.35768614491 0.89087046709 0.28329273224 -0.3545090878 0.87573383506 0.29725785998 -0.38038068047 
0.88871605364 0.27925505927 -0.36167417959 0.87488118483 0.29138773317 -0.38686204735 0.88315521938 0.24213092292 -0.40086524813 
0.87660336437 0.26720341617 -0.39956268708 0.86950021748 0.2219244302 -0.43970864838 0.87568070865 0.2534515908 -0.41092949111 
0.84896708685 0.20426486162 -0.48597974735 0.86908317562 0.26426713496 -0.4181176206 0.81883927742 0.19802240945 -0.53469671034 
0.85247745469 0.27108147977 -0.44625132302 0.75873377112 0.21457511331 -0.61046449964 0.85164326573 0.28078188329 -0.44085771083 
0.70253524248 0.25466908079 -0.6629059169 0.87298974819 0.29493217578 -0.3883715531 0.66435443423 0.32386274384 -0.67321181513 
0.87210967514 0.3182521377 -0.37120953114 0.62960788674 0.40705816266 -0.65725275846 0.87930756614 0.3306624587 -0.34153482977 
0.61156566022 0.47108275817 -0.63163924478 0.89525369013 0.33008196579 -0.29665486916 0.60991788089 0.5257750641 -0.58920609641 
0.92436319759 0.30471579855 -0.22315649614 0.63449702871 0.56845070331 -0.52001532165 0.94347071376 0.27770827335 -0.17766173856 
0.65766327805 0.60075650792 -0.44772800688 0.9569296949 0.24977380595 -0.14798177209 0.68286176588 0.62993984172 -0.36870100847 
0.92985027728 0.32297750773 -0.16455509025 0.74876561147 0.58585130672 -0.29812767644 0.90162517403 0.3896288261 -0.1826123145 
0.80973078186 0.53040639504 -0.24191203061 0.87148239105 0.44531258699 -0.20315334113 0.86544183454 0.44742790315 -0.21146115148 
0.91636478014 0.31981429852 -0.2046548628 0.91400034702 0.34785664909 -0.19874593241 0.95304246803 0.2174137619 -0.21028744979 
0.9430290418 0.25812598221 -0.20358451229 0.89209596517 0.41236790992 -0.18451349752 0.88919414642 0.41054954409 -0.20150325299 
0.89660704128 0.38757041679 -0.19705306185 0.86810062195 0.45176153832 -0.20014725138 0.8771981789 0.42040535596 -0.22884982487 
0.93460208235 0.30621336419 -0.18076614147 0.85319445197 0.44507373753 -0.27049759507 0.93023074731 0.31505850186 -0.18800509879 
0.87658872014 0.40439619447 -0.2529127526 0.93279930622 0.31021230268 -0.18306667656 0.9109210993 0.34830880975 -0.21955430075 
0.93748941843 0.30104601725 -0.17442732413 0.93725129873 0.29843541019 -0.16545642135 0.94088140901 0.29291464463 -0.16929392564 
0.95676436898 0.26082440873 -0.12780117559 0.94387550559 0.28214389604 -0.16615174072 0.95094654209 0.26877768174 -0.15124300616 
0.95906298986 0.24606020311 -0.12307924572 0.94625155776 0.27039634875 -0.17606551134 0.97004842481 0.22006863991 -0.097388372997 
0.94485692624 0.25339581175 -0.20494621086 0.97216863988 0.21544880222 -0.090258932759 0.94208635686 0.24034940537 -0.23320656895 
0.96795041923 0.21525088814 -0.11193727572 0.9355521811 0.23811874257 -0.25977010557 0.95555743965 0.21764995122 -0.18589408114 
0.92974137887 0.23635811377 -0.28205844836 0.94498773137 0.21505732062 -0.24504978335 0.92496098453 0.23526702392 -0.29825700028 
0.93803762051 0.20446492772 -0.27840167265 0.9303249108 0.20412870187 -0.30205032867 0.93577005593 0.18608122842 -0.29884397588 
0.9410195369 0.15720097593 -0.29932488409 0.93262902678 0.17159634473 -0.31729243252 0.92466125133 0.11937365259 -0.35639271438 
0.91843643261 0.12551321172 -0.36984650635 0.9186020917 0.10042174955 -0.37756432448 0.91421479076 0.095009451608 -0.3900281258 
0.94526315054 0.13355414775 -0.28932792883 0.93359554331 0.099380100634 -0.34144815005 0.95628893855 0.11788580252 -0.26439594729 
0.94662177048 0.0826554981 -0.30776615845 0.95656795449 0.068674676193 -0.28297572305 0.95537567971 0.057362677711 -0.28419938428 
0.97038018833 0.07715561224 -0.2230556247 0.96996102377 0.099437432105 -0.20960148433 0.98157027459 0.089537455813 -0.16581624604 
0.97799287383 0.15138457637 -0.14325878064 0.98708972615 0.10430536033 -0.1194010814 0.97990133832 0.15304977765 -0.12747730904 
0.9883867732 0.047515285746 -0.13325781896 0.98126748791 0.084581641565 -0.13752914795 0.98181368317 0.058139073388 -0.14965241792 
0.98232297522 0.09785695861 -0.13806583536 0.96172111405 0.22322892099 -0.14926464751 0.97454293902 0.13527718886 -0.15428250655 
0.9705388068 0.12768762767 -0.18371794299 0.97672044459 0.11717740092 -0.17119614537 0.97470650265 0.087491829267 -0.2015265302 
0.9732657007 0.11522697904 -0.19301204436 0.96974027358 0.14673807477 -0.19426580251 0.96206526565 0.16045551175 -0.2134076601 
0.97233715225 0.1590205953 -0.1699505511 0.97235663508 0.13948109176 -0.16942496322 0.98150291607 0.12931975154 -0.11011079115 
0.97921789417 0.13967060394 -0.12340217144 0.99842611743 0.049917962256 -0.0062143913453 0.98862854182 0.12935256467 -0.068824795276 
0.99576431001 0.011877755872 0.0712909406 0.99279378948 0.10595689442 0.0017615127745 0.99203925199 0.034812182487 0.10830701495 
0.99240781666 0.10367934907 0.047337025922 0.98783941085 0.10771401776 0.11212042075 0.98788882892 0.1201689447 0.071166001611 
0.98336745463 0.1530312909 0.089411171973 0.98138282687 0.17883716599 0.0033609253727 0.97586442128 0.19764441357 0.024701633164 
0.97165603867 0.22598563952 -0.066873783305 0.96365110744 0.24116328954 -0.10527617082 0.96619214465 0.23794202416 -0.098139307344 
0.97058908791 0.22513215596 -0.07890423749 0.9583982445 0.24963576175 -0.1355912497 0.96697245748 0.23391373656 -0.086589214171 
0.9508045086 0.25854370247 -0.16997429798 0.94963567314 0.27647922378 -0.14741243205 0.94686391154 0.26300477996 -0.18504988274 
0.94166683011 0.30016790189 -0.15121340456 0.94382042378 0.27308014938 -0.18588009923 0.93198473976 0.32043403459 -0.16770593487 
0.93176814659 0.28529276246 -0.22092145226 0.92145478619 0.3361998454 -0.19452135311 0.9173211716 0.26676309645 -0.29405104392 
0.92215248602 0.32028697064 -0.21609022258 0.9164552537 0.28568779274 -0.27752301694 0.91778904691 0.34198593864 -0.19076280948 
0.91836302455 0.3177351664 -0.23429277781 0.90890124908 0.39730766848 -0.12351289477 0.9170514284 0.34705973178 -0.19528053512 
0.90039865242 0.42190300006 -0.10352539409 0.91577261655 0.34567882952 -0.20403237728 0.88973574023 0.44362023204 -0.10319439944 
0.91144442416 0.35182943786 -0.21084356103 0.87365311817 0.46371358638 -0.14308185293 0.90081164833 0.38538630594 -0.19677201937 
0.8771026366 0.44610860592 -0.17263452553 0.8786398928 0.43195660795 -0.18732610909 0.89487479221 0.40085997978 -0.19460885224 
0.87031607758 0.4548775351 -0.18316687202 0.8840638003 0.42695417278 -0.18644278744 0.83269744655 0.51411423147 -0.17915756296 
0.87126111644 0.45867974647 -0.17462399439 0.80010227205 0.56528452073 -0.17303915426 0.87662004158 0.44944581744 -0.17167594379 
0.79414128303 0.57524136562 -0.18447259991 0.88365752651 0.43364660898 -0.17533677833 0.82079534828 0.5323707652 -0.19772156207 
0.90799879968 0.35701591328 -0.19358284377 0.94336812714 0.23069735205 -0.22867890151 0.87422318648 0.46144073707 -0.14810391379 
0.85611528634 0.50430424622 -0.099252787692 0.84883630291 0.52437785163 -0.062630188515 0.8556743087 0.51501826723 -0.046250153995 
0.86609753406 0.49717750623 -0.041907189958 0.87639625201 0.47730953077 -0.033959342042 0.86883717973 0.48880380532 0.041439884416 
0.84305696045 0.49626119931 0.17493514748 0.81598914466 0.48797343445 0.30832360747 0.83482341827 0.44125027173 0.32678111814 
0.86514076982 0.39813160556 0.29679213849 0.90143461851 0.35659791487 0.23779448407 0.92497554964 0.34232912568 0.15843118414 
0.93936857754 0.32086285541 0.11743475818 0.94001554525 0.33056615345 0.053520421601 0.94399379078 0.31828451969 0.019601554173 
0.95821408583 0.26432498215 0.05217340011 0.97124827937 0.19255361774 0.062130676312 0.98658749071 0.097274600588 0.096562666887 
0.99363130201 -0.010668381914 0.094768657512 0.99791813751 -0.00051163336659 0.0076206878799 0.99652850875 0.017274150443 -0.054565312494 
0.99357254114 0.04250571006 -0.098724869607 0.99109924059 0.036242770832 -0.12550627056 0.98635887677 0.038832020846 -0.15488458117 
0.97690138318 0.053917059639 -0.19681046541 0.96383775887 0.0891086047 -0.23720247791 0.9482250364 0.16843770681 -0.26569121084 
0.93451284242 0.21987374843 -0.279483001 0.92067847465 0.2585660955 -0.29057832919 0.91297422596 0.26785170553 -0.30495378954 
0.90677363904 0.27334047999 -0.31634370008 0.9030493337 0.23487507604 -0.35623128599 0.89090549432 0.20399400249 -0.40175329062 
0.88945817562 0.20541108116 -0.40617058852 0.88446898003 0.20322200931 -0.41828227696 0.87766992627 0.20116341115 -0.43313420418 
0.86044696789 0.1725405452 -0.47820029341 0.81329733924 0.17115204096 -0.55335886233 0.76658519706 0.20111802589 -0.60744971232 
0.7144902848 0.24761994396 -0.65268129016 0.65175163883 0.33922842875 -0.67664876198 0.63186349577 0.43993263458 -0.63464421273 
0.62461435784 0.50830477928 -0.58961589935 0.60284934251 0.56809112852 -0.55807069491 0.62756293117 0.60023796968 -0.49225862991 
0.66431521659 0.61211336773 -0.4228035523 0.70296459509 0.61574539203 -0.35284665498 0.7262646865 0.61124367662 -0.31038765206 
0.77077949824 0.57901342345 -0.25610390766 0.85950612185 0.4578462758 -0.21039090941 0.9234594152 0.32552634911 -0.18979974571 
0.9547517751 0.22258283335 -0.19260555184 0.96087857945 0.16594621615 -0.22109339283 0.89673292927 0.37859936454 -0.22705336466 
0.86227933149 0.44513224589 -0.22899162474 0.91027272728 0.3465697357 -0.22286378835 0.91070453758 0.34483045689 -0.21941158018 
0.93134903187 0.31094197112 -0.18930068844 0.93911751404 0.2969630912 -0.17036034639 0.95011421921 0.27660409558 -0.14089792415 
0.96301869037 0.2416947365 -0.10863805205 0.97083118904 0.21643726487 -0.097665826086 0.96186418821 0.22484948249 -0.14811970058 
0.94553181457 0.22942513937 -0.21836579275 0.90922614234 0.21851842472 -0.34253270065 0.87887822919 0.19426179551 -0.43203276662 
0.85310276375 0.14934225538 -0.49671126928 0.82279481021 0.10340711807 -0.5552968354 0.82288039062 0.065715660123 -0.56197761655 
0.84176723104 0.043781162625 -0.53210532532 0.86164724284 0.021690583139 -0.49892422387 0.89934778652 0.03485669641 -0.42736503745 
0.92060205751 0.0052652462405 -0.38694518058 0.94828941601 0.017552312063 -0.31568692539 0.96433501206 0.023270574974 -0.26038189379 
0.97526294807 0.055181695398 -0.20371215102 0.98140351646 0.098177683932 -0.1567226357 0.98372434934 0.0024613740644 -0.1679540737 
0.98491392481 -0.014776986231 -0.1712227283 0.98221449053 -0.058964370062 -0.17616463369 0.9811262571 -0.01103004067 -0.18793242832 
0.97979092306 0.027613986327 -0.19301197831 0.98201338204 0.035868188037 -0.18116673431 0.99002160491 0.020940703402 -0.13557090089 
0.99504526363 0.025142638326 -0.080827361371 0.9987895096 0.028488438834 -0.017783062959 0.99516838182 0.0094792768968 0.070001867018 
0.98598268082 -0.0084500811665 0.15720721559 0.97757670751 0.0072486745897 0.2085300178 0.98281600923 0.096131422725 0.12366870033 
0.98111166693 0.15974124144 0.050492893672 0.97167298924 0.21544710228 -0.045867748963 0.96589674098 0.23673139249 -0.081673094665 
0.96051256276 0.25097220604 -0.11347029496 0.95785851563 0.26034636589 -0.12024133867 0.94735453111 0.27163771577 -0.16522100832 
0.9369824766 0.28362613974 -0.20291578033 0.92939809338 0.29697110068 -0.21698121162 0.92184015975 0.30832038236 -0.23327091472 
0.91370161574 0.32241737067 -0.24624224079 0.91052262155 0.34603994487 -0.22535874583 0.91070588213 0.3415566769 -0.23212544465 
0.9060540544 0.35770892785 -0.22464658315 0.89343124902 0.39823871704 -0.20444747159 0.87086705116 0.44811570188 -0.19004940072 
0.82888320218 0.53078937515 -0.16397514025 0.76513727965 0.61783827491 -0.15308299548 0.69205553848 0.70459894876 -0.15191127074 
0.71740700209 0.66761279975 -0.19409836528 0.76773316185 0.59881743783 -0.21755617019 0.81902910476 0.52495554003 -0.2301502306 
0.89492186474 0.41635266846 -0.15052262355 0.92761651839 0.26316015185 -0.20201938942 0.87712829597 0.4631764643 -0.10140998041 
0.87277503858 0.48162506469 -0.067572043304 0.8756572967 0.48055618349 -0.039962497826 0.88092654399 0.47255107847 -0.016795908303 
0.87041038018 0.47908438405 0.05220994601 0.8230509831 0.51494648624 0.21832841035 0.81453761349 0.49750918565 0.29449297322 
0.81403589963 0.46490206438 0.34664211836 0.82119914927 0.41880597741 0.38602499621 0.8466348526 0.37524995379 0.37248136818 
0.87644575634 0.3335592338 0.34457998986 0.90258331632 0.32283886941 0.25111085929 0.93845150506 0.33209703061 0.087213592329 
0.94319900809 0.32626588734 0.055691313496 0.95057552472 0.29929577267 0.060565096301 0.96388085728 0.22449441182 0.12410779495 
0.97397099478 0.14510725894 0.15839304291 0.98190652307 0.074451584092 0.15861287477 0.98965820869 0.051935060874 0.1219137934 
0.99392329291 -0.10451031586 0.014053880024 0.99349165411 -0.089430969968 0.059280808703 0.99538018686 -0.051392700773 -0.044517905048 
0.99430821783 -0.0085185875228 -0.1004745537 0.98862066909 0.0065162811683 -0.14692455022 0.9816348203 0.020836917965 -0.1865416743 
0.97413854091 0.034209819977 -0.22286436513 0.96123129691 0.074183923348 -0.26058379593 0.94880532956 0.11331754662 -0.28656553136 
0.93512420001 0.18976607009 -0.29336426343 0.92729056024 0.20796806976 -0.31024765161 0.92264508969 0.22212682704 -0.31388868234 
0.91517334512 0.21937985605 -0.33676245522 0.90359071918 0.19596753316 -0.37711038096 0.89239783584 0.15428972225 -0.4237840098 
0.88855934215 0.16013187056 -0.42958043965 0.88308255886 0.16572368145 -0.43842128897 0.87611047728 0.1805751862 -0.44592033588 
0.83674248932 0.17688035081 -0.51360992503 0.79847439351 0.20146814891 -0.5627926858 0.78073624127 0.24351641007 -0.57449251359 
0.76569078457 0.30551317502 -0.56211728764 0.58894285838 0.5548712561 -0.58391026867 0.58874710868 0.50231367878 -0.62934834462 
0.6040578809 0.60062941378 -0.52238215703 0.6849034242 0.58578916498 -0.42134389163 0.74033804787 0.57500520351 -0.34704180927 
0.74952920914 0.58147365897 -0.31501280556 0.77207921428 0.56568167943 -0.28537036303 0.80568753409 0.53613447304 -0.25138433914 
0.82229545246 0.52726745984 -0.21239356831 0.88199263375 0.4229912536 -0.18096849584 0.93568802901 0.2967448017 -0.17185771351 
0.95314238524 0.23388478374 -0.18636310682 0.95913479691 0.13427555317 -0.24091941257 0.99495351204 -0.034162135659 0.090226700653 
0.9934501383 0.093516653464 0.053544560884 0.68850990772 0.41834409257 -0.58623821882 0.77192642856 0.36732698095 -0.51598115174 
0.87041188159 0.40731666443 -0.27570698081 0.87771211022 0.40508600305 -0.25521062451 0.87639966955 0.3953838371 -0.27451158852 
0.89459721594 0.36511603957 -0.25242005849 0.91596691184 0.33015019783 -0.22067543249 0.93508989393 0.29718796587 -0.19219148729 
0.94607264686 0.26860244647 -0.17874241819 0.95220225614 0.24104369717 -0.17310637442 0.9260422735 0.24196503328 -0.25452342186 
0.91313588116 0.24276777857 -0.31346247776 0.87028672002 0.21917410355 -0.41684092342 0.83163571176 0.19326420835 -0.5123085355 
0.79059481326 0.13888636412 -0.58164289313 0.7564334173 0.085891863871 -0.64749302182 0.76461285016 0.044248704495 -0.6421470113 
0.80618236965 0.030006535174 -0.58544149082 0.8917314243 0.078086691127 -0.44075489102 0.91191505108 0.052716943326 -0.4064911436 
0.92951029484 0.039317717842 -0.36386664127 0.9473674436 0.032210258968 -0.31740759542 0.96139434391 0.033752133238 -0.27070850839 
0.97219485036 0.060698392423 -0.21946267937 0.97780760434 0.11327144097 -0.17188786916 0.97925178189 0.12199346029 -0.16045237151 
0.98072387255 0.088039015244 -0.16459292002 0.98305516532 0.012244227665 -0.18084856857 0.97998980066 -0.051848806316 -0.19147254605 
0.98190084582 -0.036071039455 -0.18540498432 0.98514012818 -0.023995101317 -0.16819567629 0.98981112242 -0.0040850129495 -0.14081025894 
0.99539768167 0.0068559902776 -0.079454884754 0.99842543742 0.013632450185 -0.017194204283 0.99251093368 -0.020285438731 0.082941813161 
0.98631213985 -0.037096283083 0.15652552138 0.98484028773 0.0076032906784 0.17125970695 0.98584450744 0.0675073752 0.14067781862 
0.98391333722 0.12653383407 0.097560126063 0.97736824086 0.19939659323 0.0058610995466 0.9727306186 0.22901225128 0.015172129081 
0.96755259044 0.24847724773 0.025992132047 0.960581411 0.27560046492 -0.026604542702 0.95210810817 0.28907805435 -0.074076256404 
0.94168339073 0.30294859057 -0.14136768693 0.92836480537 0.31373800632 -0.19427293644 0.91915501407 0.32308638286 -0.22276139959 
0.91131007158 0.33061435048 -0.24478129032 0.90254738412 0.36090490045 -0.23337782539 0.9015561163 0.36534969523 -0.23150094304 
0.90245820897 0.36179836389 -0.23368549253 0.88265012608 0.42138558779 -0.20009232809 0.85516107389 0.48569605258 -0.1687689944 
0.80800525392 0.567724005 -0.14004909014 0.79367994878 0.59021468573 -0.14545884694 0.75494608508 0.63314570825 -0.15803826729 
0.76218002414 0.6172363948 -0.17811756341 0.81442359836 0.54056971664 -0.20086812961 0.84498994498 0.48522995114 -0.22117917516 
0.86747075899 0.43559858144 -0.23702706437 0.72859385824 0.45249253507 -0.49860113907 0.81922177139 0.39135657742 -0.40848934405 
0.66284238518 0.51371405486 -0.53258330406 0.66497366061 0.55574261562 -0.48733893886 0.69947223791 0.57113316493 -0.41163363534 
0.79617245589 0.5291398522 -0.29104221552 0.79864829027 0.5330765305 -0.27706950514 0.82579794706 0.49815355575 -0.25665126837 
0.8459940647 0.47420389373 -0.2394344985 0.83683642375 0.4901907303 -0.2405139971 0.82296522696 0.52484389611 -0.21211358377 
0.83804119282 0.5174907573 -0.16977487579 0.88619462419 0.43786145638 -0.12397939768 0.93990047075 0.28586434144 -0.15491992115 
0.95577750487 0.22210422978 -0.18551414635 0.94676930334 0.2461494373 -0.20405188504 0.92588655399 0.32463957405 -0.17601005336 
0.90487602151 0.40649664405 -0.12217686127 0.89157226845 0.4448789752 -0.067447368745 0.88716349 0.45986133931 -0.025349123347 
0.87746591571 0.47147293683 0.040342372051 0.86728411481 0.48234754224 0.11116489294 0.84695322382 0.48354341754 0.21127479463 
0.82465883744 0.46932141893 0.30694092513 0.81972123096 0.43998423456 0.36446088882 0.82750536471 0.39944729248 0.39170384555 
0.84691487798 0.36142832621 0.38649953686 0.87603887614 0.32711560502 0.35179641733 0.90479028293 0.31764069433 0.26390370401 
0.93450181312 0.32148823394 0.14594568537 0.943479592 0.31177895513 0.10397892088 0.95226153355 0.29689623071 0.065357303554 
0.96657615641 0.23191091936 0.099361338334 0.97519306304 0.18557417143 0.10904211886 0.98214141285 0.14125777812 0.10594598806 
0.98791333645 0.13096483177 0.080068892639 0.98705743347 0.15197914466 0.027321501497 0.98928739778 0.13977087509 0.0063673977981 
0.96524553805 0.23894224181 -0.057684568587 0.99730944064 0.064377145926 0.026206672407 0.99702631019 -0.031310767851 0.028707008136 
0.99718107314 -0.052166234178 0.00412789398 0.99765658811 -0.0052272986147 -0.048183717861 0.99449691111 0.024176765479 -0.093878426905 
0.99034363703 0.022452303805 -0.13387168628 0.98453428756 0.023528820891 -0.16926799805 0.97707603778 0.027302002693 -0.21039148298 
0.96618838666 0.040538137643 -0.25196254717 0.95686567096 0.071498906583 -0.27817829578 0.95066581194 0.13587157026 -0.27631660187 
0.9405576292 0.19433228714 -0.27585475524 0.93293622534 0.23335613683 -0.27404819224 0.93042809842 0.22932626381 -0.28523455407 
0.9245478019 0.21745441556 -0.31034907809 0.91632248862 0.19163440587 -0.35076312104 0.90421424251 0.1662684339 -0.39046173888 
0.89062812778 0.15385675432 -0.42691758176 0.87541952988 0.15728542742 -0.45682730403 0.86283882467 0.18549924944 -0.46949220303 
0.8411770654 0.2145448762 -0.49400454725 0.80516570169 0.24497835423 -0.53791288808 0.79738363582 0.30003755219 -0.52246117016 
0.83696147509 0.33676688611 -0.42272999642 0.86903477431 0.37230260245 -0.3209681775 0.86986352355 0.39311559486 -0.28993318963 
0.89122794683 0.37027404867 -0.25938634929 0.83408660488 0.41043821325 -0.34753674827 0.8558279349 0.41555943483 -0.30662117522 
0.86034894579 0.41992473617 -0.28827496702 0.83875704888 0.42356637863 -0.3419912269 0.84855301174 0.39952500105 -0.34456707469 
0.85888916396 0.37259302074 -0.34755306038 0.85959500368 0.34665609747 -0.36758113995 0.87983644103 0.30834780048 -0.35862709558 
0.87545031258 0.28614692593 -0.38670412919 0.86480242114 0.26626071478 -0.42332101415 0.83887772519 0.24076535709 -0.48441563449 
0.82736875719 0.21675626785 -0.51669244059 0.82016986161 0.18017390437 -0.53727794703 0.81764817635 0.14787795968 -0.54710301343 
0.8583828455 0.14504716383 -0.48011076672 0.89751548529 0.15831669788 -0.40142823169 0.92560059388 0.19088097577 -0.32214042497 
0.93539202192 0.11387387773 -0.31783737188 0.92629268692 0.11498570263 -0.35056249866 0.94748650211 0.080628006195 -0.30005554453 
0.95812106744 0.069761337333 -0.2736372736 0.9683612372 0.076844952538 -0.23604162709 0.97452473541 0.059982604619 -0.2150267161 
0.97800683167 0.062742746032 -0.19684916508 0.98122492179 0.062870671616 -0.18119780256 0.97838032112 0.11037590337 -0.17373918123 
0.98099437708 0.042512166548 -0.179022365 0.98375753891 0.0071865967175 -0.17846597971 0.98530028767 0.012148551595 -0.16799387826 
0.99075253555 0.0091620158565 -0.13369003914 0.99596526639 -0.030387979602 -0.053342888511 0.9977318897 -0.042429757667 0.021161461968 
0.99419260133 -0.040453680577 0.086992056341 0.99053394394 -0.027709500197 0.12958213756 0.98748070023 -0.0063979035576 0.15623526737 
0.98871191913 0.056812816284 0.11748492748 0.98808248399 0.1349613342 0.047155222842 0.98053121011 0.19042198192 0.013811889768 
0.97358871076 0.22551679842 0.017931642176 0.96411230834 0.2621779787 0.027776527219 0.95655270034 0.28785816434 0.036888667467 
0.94923414033 0.30964542386 -0.013681005423 0.9401411165 0.32822825398 -0.086596038593 0.92784172091 0.35228841228 -0.11885077172 
0.91524237615 0.37722975875 -0.13861713151 0.90588589619 0.38511710597 -0.17495590081 0.90074147942 0.38548772671 -0.19917277277 
0.89833087892 0.38088193003 -0.21874339475 0.90121363912 0.37071136505 -0.22441532029 0.90275757107 0.37134422467 -0.21522498483 
0.89041412241 0.41178324329 -0.1882916831 0.87437224066 0.45008787807 -0.17138604367 0.84808436929 0.50507322243 -0.15835512829 
0.82717224581 0.53853670223 -0.15728146428 0.82087049465 0.54048426608 -0.18226156499 0.82536027525 0.52160148534 -0.20993818628 
0.86351463102 0.4507175951 -0.22205483195 0.88007929127 0.41342938085 -0.23234724514 0.87126324767 0.41650027841 -0.25869645868 
0.93291198217 0.16620438648 -0.31436846359 0.94121442506 0.26470536331 -0.18843505775 0.84474297567 0.43117915073 -0.30508349473 
0.84538197519 0.44909739804 -0.27791071247 0.851738929 0.4677588338 -0.23119106899 0.83609802621 0.48808931594 -0.24885533518 
0.8352339008 0.49108392161 -0.24640247712 0.85440343956 0.462294024 -0.23607560456 0.87628438628 0.42765739685 -0.21905517053 
0.89556263587 0.39562529543 -0.19797091679 0.88787055738 0.41907344045 -0.16910944665 0.88555680695 0.43211806218 -0.13963304454 
0.8650910572 0.49007664616 -0.10301068531 0.94318922571 0.30431583071 -0.13177654768 0.9378440733 0.32861834096 -0.1047980282 
0.94240577903 0.29425976421 -0.15838966969 0.93033678228 0.33317693941 -0.14254794744 0.91902773238 0.37149515714 -0.12445270972 
0.9094271469 0.40112747365 -0.085031565927 0.89318923925 0.44267751933 -0.0098316391198 0.87452060953 0.47512261003 0.082919881933 
0.86705152826 0.47623689618 0.1455069458 0.86680313102 0.45517289787 0.20181315101 0.84140797791 0.43982435847 0.30350064964 
0.82799974509 0.41671180381 0.37384784673 0.83822366262 0.38478474824 0.38517630471 0.86109665373 0.35416760231 0.36275374233 
0.88818731104 0.33306951969 0.31279872314 0.91283308823 0.31712456104 0.25000740028 0.93294280857 0.3029065029 0.18629864605 
0.94768394507 0.28361369363 0.14179204697 0.9615955288 0.254715687 0.10136110789 0.97174143002 0.21866038493 0.081421241941 
0.97757306664 0.19343950884 0.079942604893 0.97984065269 0.18051882405 0.078697293096 0.98498301215 0.16026946283 0.059787912547 
0.97453223912 0.21383339017 -0.034532547057 0.94230927932 0.30175201202 -0.13506292943 0.92050992035 0.35274119626 -0.15227915859 
0.88919429553 0.4011596645 -0.21401081987 0.97295710001 0.21706702351 -0.054782277847 0.99202527093 0.10945813679 -0.012640887862 
0.99810627586 0.037592023725 0.0086505099675 0.99809445874 0.036369208201 -0.011569396923 0.99672073171 0.047214214247 -0.048838469658 
0.99370279441 -0.015663863253 -0.070475785874 0.98846762017 -0.10849559468 -0.093174754722 0.98705109584 -0.010054603931 -0.14683194451 
0.98061945419 0.01549770303 -0.1943747195 0.97331399403 0.040119937355 -0.22329906297 0.96609078109 0.092850775376 -0.24007579642 
0.95950295731 0.11727068031 -0.25524222768 0.9503115003 0.17473779476 -0.2486249341 0.94054352005 0.24091520454 -0.23778791522 
0.93804145581 0.25164374256 -0.23620530331 0.93615950567 0.24114521595 -0.25425859875 0.93464237163 0.23046722144 -0.27048965172 
0.92434107995 0.2114697932 -0.31515558602 0.90762385683 0.19641318125 -0.36983292069 0.88569202388 0.18871835605 -0.42330751519 
0.8675419991 0.21645147759 -0.44530070842 0.84751663607 0.2297923311 -0.47544730534 0.82808922086 0.25679391326 -0.49479091562 
0.86190135247 0.28371592118 -0.41672990434 0.88846355411 0.33321342401 -0.3085618629 0.90999561558 0.34188604935 -0.23121961151 
0.91957667565 0.34885318599 -0.17845448832 0.90161220533 0.37024449664 -0.21815779891 0.9331847805 0.33446048934 -0.11635484318 
0.8879593043 0.39835422676 -0.22823863655 0.89975709643 0.42544507649 -0.073816063645 0.85362944495 0.51530122383 -0.068933164065 
0.9420127681 0.22908921333 -0.24007237216 0.94158465665 0.29486255312 -0.15239732655 0.94510795048 0.21123666415 -0.24795201259 
0.94990004194 0.21339217957 -0.22622452047 0.95493746172 0.18844167055 -0.22028534221 0.95921823846 0.14434798191 -0.23581735545 
0.9639752452 0.13572849963 -0.22535444455 0.96974122424 0.12878386965 -0.20702066215 0.97276693862 0.12844598092 -0.19238873609 
0.97594716956 0.13203933752 -0.16827037086 0.98081220786 0.10389185281 -0.16458572966 0.98017485919 0.1195163507 -0.15739559629 
0.98406905315 0.08613477843 -0.14924517272 0.98646120358 0.093816696412 -0.12929632227 0.99378094355 0.050371846019 -0.08993388833 
0.99787961478 0.0012133301222 -0.038919164932 0.9976035717 -0.031674833151 0.018895787406 0.99491531704 -0.052949015545 0.078228680686 
0.99398042793 -0.030461427581 0.10104484378 0.99302433188 -0.0018919926517 0.11585509293 0.99251219372 0.061184312512 0.068937855007 
0.99069607561 0.12361034351 0.041859265434 0.98278188946 0.16418611596 0.077414344524 0.9733418575 0.2089905988 0.083509196843 
0.95986911714 0.26149021103 0.098351100658 0.94638840739 0.30324926664 0.10684510851 0.93565424842 0.34157234316 0.064828356754 
0.93062006078 0.36512908861 -0.0076958815526 0.92282121569 0.37620805194 -0.067885092702 0.91264759456 0.39257825934 -0.1100483131 
0.90106627739 0.41613496952 -0.11931636395 0.89924584971 0.41064233392 -0.1454421961 0.90302062449 0.38675712621 -0.18539084254 
0.9067887008 0.36799107626 -0.20481275237 0.91338060845 0.35115558297 -0.20534406521 0.91765061502 0.34068703308 -0.20339841395 
0.91768072358 0.34679103663 -0.19075212162 0.90375408336 0.38195559714 -0.18169432612 0.88179260875 0.4343108732 -0.17468324407 
0.86158201963 0.46524549575 -0.18828609532 0.84498479667 0.49362127124 -0.20307331453 0.86526687538 0.45175697694 -0.21272631243 
0.84732135464 0.46412820972 -0.25203075821 0.82745720998 0.47915620343 -0.2902487712 0.85017795198 0.42984870224 -0.2978779609 
0.86567502223 0.3902523147 -0.3128691441 0.85279210312 0.38596428269 -0.35051503408 0.82731104112 0.39813019868 -0.39531267957 
0.80342997414 0.39633431366 -0.44401625262 0.78476586051 0.38589828935 -0.48275797688 0.77445187723 0.37168774316 -0.51005247159 
0.80810732227 0.33215225439 -0.48028432329 0.85439254112 0.29060309613 -0.4299360761 0.86961640725 0.26313920447 -0.41603020349 
0.89307225096 0.2435771201 -0.37134249343 0.90592114142 0.22818669707 -0.35076674771 0.91603678069 0.22372473431 -0.32152038784 
0.93035749922 0.22288182623 -0.28306519453 0.9383019131 0.24063573472 -0.23695725229 0.94301134978 0.28807995426 -0.15695578167 
0.93588052261 0.341507383 -0.063051669643 0.93012109143 0.34855090444 -0.031870265841 0.93592393736 0.32054613162 -0.11576536738 
0.92655983554 0.37336304638 -0.018634777376 0.94287439652 0.26372154909 -0.19949262704 0.88616639458 0.41550459967 -0.20379844808 
0.87457896577 0.43356665409 -0.21637650822 0.86694594298 0.4423860776 -0.22892584433 0.86972120689 0.43489505753 -0.22956647749 
0.9023432913 0.37468160897 -0.19576609954 0.92997852783 0.3212465718 -0.16298030217 0.94887528859 0.27906937932 -0.13184069421 
0.95528734787 0.27104353011 -0.11312518514 0.95348507915 0.28255241753 -0.098260785968 0.93894492767 0.33005586653 -0.088804738185 
0.90725354337 0.40212155546 -0.061388855732 0.8578527159 0.51209255501 -0.032370278622 0.88910131921 0.44782514556 -0.058411398445 
0.89652485655 0.43250769239 -0.054478184592 0.92989690617 0.35724787982 -0.083462582858 0.9352677594 0.33729424358 -0.10395789297 
0.93366849068 0.33802129198 -0.1104902804 0.9294756564 0.34507105769 -0.11675060433 0.92536979888 0.35606017181 -0.1268650793 
0.91571231156 0.38195989672 -0.085290799847 0.89598296287 0.42931695624 -0.00015002584351 0.876967451 0.47070445027 0.089547616511 
0.87203398913 0.4651468408 0.14389591183 0.87457226051 0.44967544289 0.18004065326 0.88148633382 0.39415602769 0.25272730394 
0.87812360092 0.40797444427 0.24815613578 0.89250424708 0.37652224487 0.2343567108 0.89721422204 0.35893651811 0.24002735209 
0.90212409821 0.34613185355 0.24015594015 0.92872141056 0.33979142544 0.14006875662 0.94048148297 0.31278957737 0.12583847462 
0.9461698933 0.29015762235 0.14209782261 0.95779769825 0.25038931856 0.13092144 0.98206923399 0.18280866226 0.034471901849 
0.98064881995 0.1853889537 0.044753271791 0.8843563696 0.41817227611 0.20467618206 0.89309732464 0.42004346775 0.15816761062 
0.97531256698 0.19542738413 0.088139392008 0.96679497324 0.2391164052 0.057826229537 0.926789223 0.31308245196 -0.20260797831 
0.96453639888 0.24410153767 -0.082055976424 0.90153589565 0.35684740811 -0.23907194471 0.88164961489 0.411033226 -0.22997292581 
0.88875231732 0.38098858671 -0.25310877727 0.88189096542 0.4277372346 -0.19740807362 0.94522527982 0.29705747933 -0.11871521139 
0.98455714638 0.16293880906 -0.056457209091 0.98743484725 0.14009074962 -0.066655329866 0.98237669145 0.1547254652 -0.096652683336 
0.98746271824 0.0089264943698 -0.10547775698 0.98855285645 -0.013566521397 -0.13709584992 0.98432909865 0.010769317559 -0.17418466083 
0.97912329675 0.029553005695 -0.1982641725 0.97318878274 0.066386729174 -0.21554106808 0.966894234 0.11739765431 -0.22428620519 
0.95780779589 0.1870374466 -0.20540126233 0.94598833691 0.27072543443 -0.17714716477 0.94372811091 0.27292467776 -0.18581574446 
0.94171688091 0.26265471791 -0.20587778421 0.94185396283 0.22931840979 -0.24430262184 0.93341717615 0.2152573964 -0.28418025024 
0.91996854343 0.21395244429 -0.32494054622 0.90100065474 0.23381855039 -0.36449600291 0.8906024518 0.28832419234 -0.3494911262 
0.87398014669 0.29249023069 -0.3862119405 0.90694713255 0.32810945214 -0.25232997029 0.92671619941 0.34192136883 -0.15186786904 
0.94283253281 0.32070458484 -0.073381061866 0.96165457515 0.26621664686 -0.0021213739206 0.9536794844 0.28556411695 -0.083106753532 
0.97791530695 0.2024387058 0.024159494713 0.91028218558 0.37109501808 -0.18188573338 0.94385593508 0.25941694337 -0.20141982827 
0.94522333263 0.25454445319 -0.2028328598 0.94901682246 0.24874630966 -0.19303719167 0.95355991773 0.23120269049 -0.19057925543 
0.95625854926 0.21145601549 -0.19784691393 0.96262916151 0.18310025141 -0.19208386091 0.96512921996 0.18773523443 -0.17601979481 
0.96858098845 0.19347846652 -0.15294302874 0.97667638876 0.16766795338 -0.13372996354 0.9786893851 0.16506952871 -0.11855446807 
0.98161858852 0.15678986062 -0.10653158949 0.98501572801 0.14588386457 -0.090014688506 0.99099671829 0.1137305735 -0.061873841551 
0.99893335323 -0.0010292721154 0.0045156816543 0.99957908128 -0.017940194071 -0.0023397559494 0.99928628419 -0.0097678659034 0.035141808544 
0.99920894126 0.0053871741348 0.036223183354 0.99858041484 0.016484874306 0.047125216183 0.99666150348 0.059954640285 0.041349624479 
0.99203088729 0.10414888041 0.054245227731 0.98356513325 0.1474044079 0.093689064311 0.97105624703 0.20432153513 0.11050778014 
0.9565439817 0.26827669613 0.11173842585 0.94337336604 0.31577010702 0.096792305141 0.92717298239 0.36824674921 0.039234010964 
0.92085149944 0.38632624268 -0.041343156736 0.91639558412 0.39172739448 -0.077646140153 0.91412077536 0.39185359392 -0.10244179652 
0.91306866399 0.38848141397 -0.12348722799 0.91284697523 0.36939122835 -0.16204705169 0.91678666254 0.34366084294 -0.20104070443 
0.92385629244 0.31698730092 -0.21424193149 0.92808947196 0.32546385499 -0.17902035353 0.92332812303 0.34641839316 -0.16548737135 
0.92706261035 0.3319134034 -0.17361350031 0.9374887176 0.30023175607 -0.17351129806 0.93844976383 0.29950946415 -0.17048882544 
0.9033676463 0.38384616821 -0.17949810736 0.83743740331 0.49133530618 -0.20867972811 0.8125417088 0.52843735595 -0.23595542117 
0.77885298904 0.56197281553 -0.27682938087 0.7816005958 0.53985816358 -0.30531951383 0.84206808007 0.43988919495 -0.3046037504 
0.85580054198 0.39619546728 -0.33031302688 0.84509643681 0.38594405454 -0.36920542553 0.81972049121 0.3915698069 -0.41378725262 
0.84002794488 0.34650316836 -0.40776000715 0.86036668433 0.31967380605 -0.39254905058 0.85890059154 0.32505195631 -0.38701827605 
0.86517191063 0.32342999301 -0.37108072511 0.89302009368 0.29697060123 -0.33431596823 0.91385783918 0.2851716346 -0.26577058365 
0.93770283878 0.26923712839 -0.20946152862 0.94217349302 0.27893900785 -0.12202155711 0.94922299613 0.2817703433 -0.066056505241 
0.94354844616 0.30347178045 -0.049692567806 0.9402873835 0.32828956089 -0.006931659813 0.93712803372 0.34655941891 0.011067253842 
0.92912979037 0.36461739686 0.036513544344 0.93106935908 0.36362597209 0.018840108344 0.93341806774 0.35783547016 -0.01378763705 
0.92719895647 0.37218188733 -0.039683691288 0.92946185779 0.36791681871 -0.0061435479982 0.93395899207 0.33795859486 -0.094089575354 
0.99762101591 0.030979057096 -0.018084980573 0.9940025377 0.10158297011 -0.037592784562 0.92130299839 0.33387582063 -0.14741008442 
0.92416505916 0.34378798297 -0.15068014635 0.97521895775 0.14524794585 -0.14666241727 0.96182757248 0.21760401985 -0.14337442805 
0.97963275836 0.12145352712 -0.15239828758 0.9750667014 0.13589337172 -0.16170336086 0.97348039704 0.12684240694 -0.18284874725 
0.97045810112 0.13619213561 -0.19535819782 0.9650602162 0.16978066662 -0.19598223364 0.95793845257 0.2162033947 -0.18732325705 
0.9513672151 0.24333925285 -0.18796506842 0.94711075947 0.2528997502 -0.19686562346 0.94340741102 0.2566979903 -0.2093439665 
0.93732351695 0.25433497698 -0.23692399032 0.9294213859 0.26586386508 -0.25472559446 0.92098922179 0.30097554582 -0.24612587441 
0.91369333341 0.33121138308 -0.23308009983 0.91090334179 0.34459693157 -0.22288772934 0.91595868041 0.36013565798 -0.17627558496 
0.92113722702 0.3527630563 -0.16228251398 0.9285086791 0.33220393014 -0.15667718808 0.93679126957 0.30593621349 -0.15116421755 
0.96113267986 0.24657596332 -0.11788546178 0.96972339488 0.22310028856 -0.096151221991 0.97062401658 0.225629153 -0.083125124716 
0.96595000851 0.24549491708 -0.079481676398 0.96121459517 0.26630613036 -0.070974446939 0.94962499605 0.30307591983 -0.069803630408 
0.93829475286 0.33863744615 -0.069572185948 0.95214289747 0.2929026583 -0.074694191127 0.91294762754 0.38504017587 -0.056535305313 
0.9675560785 0.22776637684 -0.10389156647 0.84747436382 0.52938832056 -0.012564522353 0.8736738119 0.47789740123 -0.020271411541 
0.92429028136 0.3754732667 -0.056799329837 0.92565512251 0.3681082063 -0.063589878426 0.91961352892 0.38439733538 -0.057858995531 
0.92190375634 0.37890734361 -0.076552797361 0.89996842156 0.4295678597 0.0047527408166 0.8890968459 0.45362534164 0.055627507092 
0.88818245546 0.44773596436 0.089799891831 0.88520494937 0.44513296018 0.12910000623 0.89410459672 0.42778615938 0.12555359236 
0.91624250776 0.38493940873 0.10716658005 0.92190688255 0.38278360535 0.054727887821 0.91760613816 0.37514890742 0.088435078976 
0.92265953765 0.37299852103 0.083333682504 0.92402028841 0.37131363819 0.088702157212 0.92740911968 0.36086627707 0.089212365466 
0.92871025643 0.35200212617 0.10612168607 0.91563368758 0.30748792921 -0.25654134666 0.94948331654 0.25266913018 -0.17659105594 
0.89380508309 0.34475076054 -0.28330040422 0.84578990303 0.46385596506 -0.25867714418 0.86936008034 0.407211366 -0.27760198026 
0.87431523318 0.44167577257 -0.19977771413 0.93928375068 0.31603827444 -0.1216202479 0.9445204355 0.29191019637 -0.14772157809 
0.94801688674 0.27569139947 -0.15826828459 0.94950966643 0.26987090805 -0.15767000833 0.94811539652 0.27870396334 -0.14673337183 
0.95037661544 0.27688517451 -0.13466932859 0.95474548993 0.26766156488 -0.11636633218 0.98719105049 0.11701839326 -0.083597232355 
0.99079851572 0.10535134259 -0.067700625754 0.98441241355 0.16303033592 -0.060982776658 0.98717109228 0.1506110586 -0.043855739663 
0.99924366014 0.0069220722441 0.0047529516374 0.99887400188 0.035638433233 -0.020032127637 0.99940334168 -0.0048242544906 0.01958909549 
0.99963235804 0.017933128564 0.01090336852 0.99699786028 0.056917308803 -0.00059476089014 0.99548572428 0.078241059398 0.019855002722 
0.99207283417 0.09717227417 0.063022260082 0.98261319407 0.14637086134 0.10088945003 0.97019086642 0.21201757627 0.10664169224 
0.95354581434 0.28090010151 0.098548312604 0.94258951251 0.31879866338 0.073948053816 0.93455484652 0.35063514225 -0.011221041752 
0.92323494345 0.35463666922 -0.13859362505 0.91778895539 0.36954371302 -0.13901451549 0.92680799969 0.34208095518 -0.15066601154 
0.92821805759 0.3232931799 -0.18233080369 0.92974368854 0.30592318509 -0.20325855733 0.93229291257 0.28558441498 -0.2208218001 
0.93494443969 0.29189661301 -0.19952460677 0.93588020126 0.30999587652 -0.16667437563 0.92289280922 0.36052774832 -0.13456888958 
0.92334913913 0.35668307119 -0.1417130697 0.9328250772 0.32774810407 -0.14286961375 0.94036723025 0.30084590893 -0.15475966614 
0.90661809042 0.38366830349 -0.16549922239 0.84728922288 0.47585950816 -0.19653547649 0.74912451361 0.6018971168 -0.24902874913 
0.78391685323 0.56041843462 -0.26105104551 0.91902588977 0.36965283864 -0.12686278557 0.91741890065 0.36793503695 -0.14979844948 
0.93911076504 0.3071972778 -0.14229410048 0.89571390063 0.40810697641 -0.17058600992 0.92645105032 0.34991898905 -0.13450823771 
0.93599765365 0.32282964638 -0.13584986624 0.86510892229 0.38859031588 -0.31426497609 0.86754563683 0.36436900555 -0.33554269572 
0.89707423624 0.30705533008 -0.30727046093 0.93630379234 0.23723332624 -0.2575833636 0.9409142201 0.24703179146 -0.22723250991 
0.93445120253 0.27199703158 -0.22301304328 0.92088279444 0.30065372507 -0.24108558677 0.92263684323 0.3071694548 -0.23095928315 
0.93763594622 0.29895300833 -0.16681489985 0.94999968656 0.29287642659 -0.10430613821 0.9500687666 0.30216787615 -0.021703837374 
0.94791704621 0.31120369416 0.058319395558 0.94152577457 0.32839905771 0.070740276252 0.93510299214 0.34446637224 0.07971837247 
0.9322848106 0.35238895358 0.066938050599 0.93395168655 0.35065058288 0.056528191371 0.94048554375 0.33825956282 -0.011526397181 
0.93502981745 0.35314807957 0.010965243187 0.91810675444 0.39461473755 0.017298390628 0.94195098397 0.31859707442 0.099738411891 
0.93590749876 0.34555272189 0.049060428597 0.94560473743 0.29988258445 0.12384914912 0.95156254057 0.28878673499 0.097946663223 
0.95279079771 0.29222371255 0.0045285942831 0.95622319524 0.26651399337 -0.10629889554 0.94548409167 0.29402124914 -0.13419545518 
0.95310399122 0.2545047398 -0.12082731001 0.99539150673 0.073542462379 -0.037223488235 0.99680699984 0.054137560627 -0.026991683626 
0.99285243276 0.10559908885 -0.03917106067 0.99343801535 0.10307792295 0.0038071020825 0.99125757395 0.11382790489 0.049044092752 
0.98231506809 0.14921004632 0.096799133772 0.96885460822 0.21477810223 0.099980206879 0.94292839894 0.3229123128 -0.025273822035 
0.92664232525 0.35219594061 -0.12605526457 0.9378884843 0.3139784128 -0.14446574195 0.94071258174 0.31609999759 -0.11740131979 
0.94448090557 0.31736618144 -0.080160014393 0.94536597739 0.31993720892 -0.023558648412 0.94600504523 0.32262427776 0.02805755473 
0.93986101559 0.3354612813 0.056871492683 0.93375016325 0.34843792793 0.081580866645 0.94638969044 0.3200471257 -0.035498229838 
0.93240582188 0.3577820318 0.027759838024 0.93761849414 0.34599490096 0.010312932051 0.94055025692 0.33925304518 -0.010114707605 
0.93847159969 0.34429435052 -0.022221527176 0.93568614682 0.35103807778 -0.015875398099 0.93399164867 0.35549063372 0.015369406602 
0.92237608678 0.38289925579 -0.03153684194 0.91871174085 0.38996210158 -0.04216873313 0.91916164318 0.38610281274 -0.05735857593 
0.91879689216 0.38427083993 -0.073405155289 0.91806956726 0.38345706814 -0.077119540245 0.92606530497 0.36348105032 -0.088539744473 
0.92048312254 0.38197727913 -0.073762202239 0.8922961022 0.45095649207 0.010612333312 0.8893925256 0.45299114027 0.046241839488 
0.88593285752 0.45572927679 0.084861815474 0.89899332875 0.42544978402 0.060440317437 0.86932496664 0.49189590634 -0.02329160653 
0.87415310695 0.48232411962 -0.01035052889 0.89025393352 0.45500489606 -0.0083250248228 0.90350095838 0.42545656258 -0.012804906392 
0.93981832635 0.34052817509 -0.016140023965 0.93897710343 0.34003722854 -0.036282398508 0.93884120535 0.33377747486 -0.077315357345 
0.93861391936 0.33475008554 -0.07469534652 0.93855400395 0.34050453084 -0.044332784587 0.94129689198 0.33081846891 0.00041365555076 
0.94637656849 0.31166332981 0.051604427198 0.94597217493 0.3187311595 -0.047342342357 0.97019547097 0.22828124707 -0.079872803244 
0.96700788324 0.23797871577 -0.067879509325 0.96434608538 0.24732789926 -0.059068961761 0.96333012978 0.2537177515 -0.064779867084 
0.99614670604 0.075950465557 -0.035354078293 0.98455114425 0.15106995452 -0.057725790665 0.97265001949 0.2140834123 -0.062070348526 
0.97083201949 0.21303759789 -0.099041935153 0.97015892369 0.2063753181 -0.12613125842 0.97511794647 0.19392047016 -0.10458766391 
0.97945626899 0.18065196154 -0.089300352918 0.9948955858 0.086866492211 -0.048550646366 0.96506051626 0.24955825294 -0.074927109994 
0.91734188147 0.35246573996 -0.18362829095 0.91909303862 0.3423078842 -0.19498030024 0.9241452981 0.33285029177 -0.18726031221 
0.92930452763 0.31827020822 -0.1866689673 0.9337909503 0.3023244872 -0.19099582135 0.93828425382 0.28023386317 -0.20080667757 
0.94321337738 0.25367966568 -0.21356606763 0.94249161534 0.27102805407 -0.1919878933 0.94230445187 0.2923346539 -0.16086523401 
0.94752007822 0.28116592314 -0.14919288196 0.94235013411 0.30659957205 -0.1321117534 0.95427800822 0.24803788653 -0.16428680023 
0.93351862851 0.33653854633 -0.12211772368 0.93108615036 0.34069592086 -0.12934421431 0.93045101156 0.33956271128 -0.13759532777 
0.93549504639 0.32468748092 -0.1372251474 0.9351767049 0.32027953882 -0.14257482693 0.89656352353 0.40646956845 -0.16150085886 
0.87216986359 0.45277821965 -0.18026979593 0.84829439323 0.48686332868 -0.20218223827 0.85188355931 0.47261467984 -0.21632816583 
0.88109221396 0.43687749536 -0.172411122 0.90747581638 0.38602994442 -0.15592953482 0.93924742 0.30708272849 -0.14288791337 
0.95799375409 0.24826182827 -0.14056536552 0.95578139281 0.25677853308 -0.13625545628 0.95312425749 0.26824478223 -0.13423849125 
0.95433228977 0.2531644181 -0.14667713238 0.9577302298 0.23374659562 -0.15751519453 0.95184201827 0.25342238056 -0.17157104763 
0.95437208777 0.23717796301 -0.18068418642 0.94895287359 0.25441203484 -0.18314588041 0.94654634137 0.2278527725 -0.22610318353 
0.93822274686 0.26586686328 -0.21398557519 0.93406820659 0.29790165228 -0.19528321336 0.92422923971 0.32688477261 -0.19553726889 
0.91901673549 0.34528781561 -0.18949515664 0.98834770551 0.14885569232 0.020527976922 0.93923996102 0.27436774893 -0.20495104173 
0.94302314974 0.26339555894 -0.20303510565 0.94570307839 0.26109180401 -0.19332830082 0.94765086437 0.26044565265 -0.183370505 
0.94807882718 0.26623063643 -0.17069694999 0.9378414383 0.32314449739 -0.12355647899 0.93990829677 0.31749982832 -0.12434354305 
0.94232957453 0.30728904562 -0.13001740797 0.94673122378 0.29133694247 -0.13570773005 0.908959936 0.41209178276 -0.049552065983 
0.90073447483 0.43242776029 -0.033000558716 0.91135062373 0.41091292226 -0.016599151328 0.90308630871 0.42933160463 -0.0086760943205 
0.91778559468 0.39613297193 -0.021401786067 0.94193570886 0.327797273 -0.069935031137 0.93953145598 0.33195209029 -0.08276950612 
0.94147286821 0.33134163053 -0.050929744168 0.9429712893 0.33240008585 -0.016960087066 0.9462552168 0.3213323389 -0.032668601508 
0.95611188008 0.24345405711 -0.15888262739 0.94862361936 0.2826720197 -0.13908352366 0.94420733979 0.30133475153 -0.12991086646 
0.99159870244 0.11162603749 -0.05261096958 0.99326859856 0.10073120978 -0.050339043993 0.98384030876 0.14313837688 -0.08284124108 
0.98820998535 0.13102185303 -0.058596527647 0.99128185133 0.12442950197 -0.02027816888 0.9918949236 0.1213952424 0.0054919400817 
0.8898862943 0.4556521273 -0.0058881839608 0.89003862387 0.36107304532 -0.27536268865 0.97958463418 0.1822830156 -0.05504455649 

Motion 1 1116 double
0 0 0 0 0 0 0 0 0 
0 0 0 0 0 0 0 0 0 
0 0 0 0 0 0 0 0 0 
0 0 0 0 0 0 0 0 0 
0 0 0 0 0 0 0 0 0 
0 0 0 0 0 0 0 0 0 
0 0 0 0 0 0 0 0 0 
0 0 0 0 0 0 0 0 0 
0 0 0 0 0 0 0 0 0 
0 0 0 0 0 0 0 0 0 
0 0 0 0 0 0 0 0 0 
0 0 0 0 0 0 0 0 0 
0 0 0 0 0 0 0 0 0 
0 0 0 0 0 0 0 0 0 
0 0 0 0 0 0 0 0 0 
0 0 0 0 0 0 0 0 0 
0 0 0 0 0 0 0 0 0 
0 0 0 0 0 0 0 0 0 
0 0 0 0 0 0 0 0 0 
0 0 0 0 0 0 0 0 0 
0 0 0 0 0 0 0 0 0 
0 0 0 0 0 0 0 0 0 
0 0 0 0 0 0 0 0 0 
0 0 0 0 0 0 0 0 0 
0 0 0 0 0 0 0 0 0 
0 0 0 0 0 0 0 0 0 
0 0 0 0 0 0 0 0 0 
0 0 0 0 0 0 0 0 0 
0 0 0 0 0 0 0 0 0 
0 0 0 0 0 0 0 0 0 
0 0 0 0 0 0 0 0 0 
0 0 0 0 0 0 0 0 0 
0 0 0 0 0 0 0 0 0 
0 0 0 0 0 0 0 0 0 
0 0 0 0 0 0 0 0 0 
0 0 0 0 0 0 0 0 0 
0 0 0 0 0 0 0 0 0 
0 0 0 0 0 0 0 0 0 
0 0 0 0 0 0 0 0 0 
0 0 0 0 0 0 0 0 0 
0 0 0 0 0 0 0 0 0 
0 0 0 0 0 0 0 0 0 
0 0 0 0 0 0 0 0 0 
0 0 0 0 0 0 0 0 0 
0 0 0 0 0 0 0 0 0 
0 0 0 0 0 0 0 0 0 
0 0 0 0 0 0 0 0 0 
0 0 0 0 0 0 0 0 0 
0 0 0 0 0 0 0 0 0 
0 0 0 0 0 0 0 0 0 
0 0 0 0 0 0 0 0 0 
0 0 0 0 0 0 0 0 0 
0 0 0 0 0 0 0 0 0 
0 0 0 0 0 0 0 0 0 
0 0 0 0 0 0 0 0 0 
0 0 0 0 0 0 0 0 0 
0 0 0 0 0 0 0 0 0 
0 0 0 0 0 0 0 0 0 
0 0 0 0 0 0 0 0 0 
0 0 0 0 0 0 0 0 0 
0 0 0 0 0 0 0 0 0 
0 0 0 0 0 0 0 0 0 
0 0 0 0 0 0 0 0 0 
0 0 0 0 0 0 0 0 0 
0 0 0 0 0 0 0 0 0 
0 0 0 0 0 0 0 0 0 
0 0 0 0 0 0 0 0 0 
0 0 0 0 0 0 0 0 0 
0 0 0 0 0 0 0 0 0 
0 0 0 0 0 0 0 0 0 
0 0 0 0 0 0 0 0 0 
0 0 0 0 0 0 0 0 0 
0 0 0 0 0 0 0 0 0 
0 0 0 0 0 0 0 0 0 
0 0 0 0 0 0 0 0 0 
0 0 0 0 0 0 0 0 0 
0 0 0 0 0 0 0 0 0 
0 0 0 0 0 0 0 0 0 
0 0 0 0 0 0 0 0 0 
0 0 0 0 0 0 0 0 0 
0 0 0 0 0 0 0 0 0 
0 0 0 0 0 0 0 0 0 
0 0 0 0 0 0 0 0 0 
0 0 0 0 0 0 0 0 0 
0 0 0 0 0 0 0 0 0 
0 0 0 0 0 0 0 0 0 
0 0 0 0 0 0 0 0 0 
0 0 0 0 0 0 0 0 0 
0 0 0 0 0 0 0 0 0 
0 0 0 0 0 0 0 0 0 
0 0 0 0 0 0 0 0 0 
0 0 0 0 0 0 0 0 0 
0 0 0 0 0 0 0 0 0 
0 0 0 0 0 0 0 0 0 
0 0 0 0 0 0 0 0 0 
0 0 0 0 0 0 0 0 0 
0 0 0 0 0 0 0 0 0 
0 0 0 0 0 0 0 0 0 
0 0 0 0 0 0 0 0 0 
0 0 0 0 0 0 0 0 0 
0 0 0 0 0 0 0 0 0 
0 0 0 0 0 0 0 0 0 
0 0 0 0 0 0 0 0 0 
0 0 0 0 0 0 0 0 0 
0 0 0 0 0 0 0 0 0 
0 0 0 0 0 0 0 0 0 
0 0 0 0 0 0 0 0 0 
0 0 0 0 0 0 0 0 0 
0 0 0 0 0 0 0 0 0 
0 0 0 0 0 0 0 0 0 
0 0 0 0 0 0 0 0 0 
0 0 0 0 0 0 0 0 0 
0 0 0 0 0 0 0 0 0 
0 0 0 0 0 0 0 0 0 
0 0 0 0 0 0 0 0 0 
0 0 0 0 0 0 0 0 0 
0 0 0 0 0 0 0 0 0 
0 0 0 0 0 0 0 0 0 
0 0 0 0 0 0 0 0 0 
0 0 0 0 0 0 0 0 0 
0 0 0 0 0 0 0 0 0 
0 0 0 0 0 0 0 0 0 
0 0 0 0 0 0 0 0 0 
0 0 0 0 0 0 0 0 0 

Normal 3 1116 float
-0.236738 0.965547 -0.0195108 -0.225269 0.941055 0.182692 -0.237366 0.945011 0.185936 
-0.226348 0.97152 0.0243656 -0.226018 0.902222 0.364897 -0.283131 0.897578 0.324402 
-0.230717 0.861712 0.446681 -0.31984 0.838879 0.433219 -0.218116 0.825316 0.518008 
-0.319552 0.792914 0.514018 -0.188705 0.792915 0.579176 -0.311764 0.747629 0.584526 
-0.208311 0.736834 0.640222 -0.299898 0.704702 0.641012 -0.201905 0.67159 0.708593 
-0.266182 0.639767 0.714723 -0.164808 0.596817 0.785177 -0.203917 0.53528 0.813755 
-0.0410419 0.418163 0.892757 -0.083638 0.351998 0.926021 0.0372721 0.282518 0.955209 
-0.0423275 0.231872 0.969348 0.0768768 0.187682 0.979188 -0.0390133 0.174531 0.982341 
0.0990012 0.174084 0.979594 -0.074597 0.159634 0.982228 0.0886876 0.137419 0.985437 
-0.0963512 0.100535 0.98741 0.0617117 0.0907008 0.993738 -0.125743 0.0333797 0.991281 
0.113951 0.126091 0.983919 -0.0967504 -0.0113009 0.994079 0.161146 0.110262 0.976261 
-0.0426417 -0.0723868 0.993161 0.196827 -0.0224781 0.973538 0.0502707 -0.152353 0.981248 
0.242852 -0.171608 0.943647 0.149544 -0.251747 0.947326 0.300371 -0.338951 0.883569 
0.255879 -0.376789 0.882308 0.331834 -0.455578 0.819989 0.306215 -0.472843 0.822048 
0.352674 -0.551955 0.755396 0.322156 -0.553332 0.766655 0.349701 -0.616592 0.701701 
0.300186 -0.630643 0.710263 0.346634 -0.686692 0.633212 0.303837 -0.704389 0.632715 
0.343337 -0.769958 0.529069 0.29529 -0.788035 0.533749 0.341504 -0.845451 0.38567 
0.258333 -0.868776 0.397281 0.340253 -0.914968 0.214808 0.215821 -0.945581 0.22222 
0.308611 -0.938869 0.00874143 0.178892 -0.976663 0.00637733 0.248553 -0.953558 -0.143314 
0.186779 -0.963358 -0.165155 0.157725 -0.958272 -0.236881 0.202739 -0.93721 -0.282233 
0.162009 -0.943857 -0.285773 0.218998 -0.917436 -0.32958 0.185858 -0.911833 -0.357285 
0.217471 -0.897413 -0.381123 0.223126 -0.862592 -0.452971 0.192187 -0.875996 -0.441408 
0.168564 -0.798775 -0.568686 0.125103 -0.829916 -0.536094 0.0988598 -0.732557 -0.666443 
0.048561 -0.771793 -0.627821 0.0151774 -0.664265 -0.747299 -0.036807 -0.702576 -0.708884 
-0.0608404 -0.624263 -0.775896 -0.0803253 -0.647926 -0.755244 -0.12911 -0.57675 -0.804339 
-0.12122 -0.597551 -0.791031 -0.187687 -0.519839 -0.832587 -0.178341 -0.545454 -0.817727 
-0.24403 -0.445808 -0.858024 -0.24245 -0.481568 -0.83911 -0.297466 -0.363369 -0.880357 
-0.312159 -0.412832 -0.85327 -0.346022 -0.269659 -0.89759 -0.406799 -0.335074 -0.848484 
-0.382974 -0.228952 -0.894274 -0.489332 -0.288933 -0.8197 -0.405523 -0.168381 -0.896133 
-0.564367 -0.230556 -0.789506 -0.411556 -0.0725945 -0.908381 -0.626229 -0.126685 -0.768736 
-0.434492 0.11262 -0.885232 -0.6732 0.0334937 -0.729652 -0.448377 0.295784 -0.832502 
-0.706797 0.197997 -0.664334 -0.446802 0.468329 -0.758544 -0.721144 0.34773 -0.585831 
-0.401736 0.600037 -0.68416 -0.723063 0.445518 -0.516492 -0.356113 0.685696 -0.631117 
-0.706047 0.514477 -0.475641 -0.310174 0.745349 -0.590125 -0.690878 0.565359 -0.448573 
-0.345074 0.759469 -0.549748 -0.634144 0.630762 -0.439723 -0.391712 0.770476 -0.499013 
-0.583702 0.693211 -0.417706 -0.457999 0.776272 -0.43094 -0.510175 0.777912 -0.364775 
-0.400721 0.835882 -0.363079 -0.420174 0.857044 -0.287041 -0.319749 0.903034 -0.243162 
-0.325689 0.921061 -0.156819 0.43815 -0.890494 0.118401 0.465399 -0.842762 0.248082 
0.436703 -0.848115 0.285649 0.492706 -0.85488 0.147615 0.484967 -0.781922 0.378144 
0.38586 -0.815995 0.419669 0.489992 -0.70693 0.504237 0.373491 -0.749005 0.54104 
0.430198 -0.664283 0.601871 0.356949 -0.684568 0.629767 0.356384 -0.629146 0.690205 
0.339876 -0.62301 0.703973 0.307209 -0.589229 0.743433 0.306374 -0.576653 0.75458 
0.268868 -0.532369 0.798476 0.270485 -0.526494 0.80433 0.270779 -0.412549 0.860258 
0.219497 -0.448587 0.860866 0.272546 -0.29598 0.912586 0.18514 -0.355813 0.914928 
0.27389 -0.188963 0.937127 0.214321 -0.245769 0.940208 0.278258 -0.0978642 0.954969 
0.24081 -0.155826 0.957076 0.290895 -0.0503048 0.954487 0.320185 -0.0864904 0.939514 
0.297036 0.00204497 0.953844 0.372727 -0.0146327 0.925827 0.293922 0.0612183 0.952971 
0.388875 0.0606127 0.916786 0.283735 0.18839 0.929981 0.387826 0.181639 0.894863 
0.269831 0.351293 0.895369 0.377535 0.339176 0.859503 0.230045 0.526427 0.800134 
0.315191 0.521694 0.771748 0.17772 0.680454 0.704851 0.240986 0.690296 0.67681 
0.0934577 0.773226 0.617577 0.169152 0.785715 0.585619 0.0502328 0.850191 0.51334 
0.117581 0.857421 0.491056 0.0352146 0.916289 0.397443 0.0795432 0.91749 0.386006 
-0.0116709 0.942109 0.328277 0.00456957 0.951075 0.297776 -0.0481467 0.966698 0.230548 
-0.0619583 0.969435 0.230228 -0.0638101 0.992249 0.0788773 -0.0827545 0.986549 0.124647 
-0.076136 0.996314 0.0143823 -0.0643807 0.995504 0.0267795 -0.10929 0.992635 -0.0231536 
-0.0352084 0.997248 -0.0486501 -0.183432 0.981874 -0.0404738 -0.0555625 0.995453 -0.0587015 
-0.148943 0.979975 -0.114958 -0.0965378 0.984978 -0.129312 -0.150671 0.954417 -0.227814 
-0.13209 0.954356 -0.243417 -0.210594 0.897746 -0.38319 -0.164571 0.905268 -0.387436 
-0.182188 0.812177 -0.538387 -0.142859 0.840457 -0.512695 -0.114288 0.757878 -0.63769 
-0.111405 0.790469 -0.601094 -0.00352965 0.746233 -0.665325 -0.0591111 0.785164 -0.616157 
0.0205989 0.806714 -0.586432 -0.0170449 0.826227 -0.560217 0.000286999 0.833775 -0.550574 
-0.00516442 0.831211 -0.554104 -0.0552556 0.831457 -0.552835 -0.0182293 0.805459 -0.590326 
-0.0943807 0.686451 -0.70188 -0.0732906 0.659496 -0.727116 -0.12774 0.502792 -0.836724 
-0.129859 0.473213 -0.85915 -0.15214 0.259066 -0.949497 -0.14429 0.248099 -0.951032 
-0.123118 0.129182 -0.979952 -0.150596 0.106538 -0.979112 -0.118075 0.0330422 -0.991176 
-0.153737 0.0172672 -0.987138 -0.144185 -0.0377553 -0.988464 -0.157196 -0.0338231 -0.986679 
-0.10497 -0.180357 -0.972708 -0.147921 -0.142633 -0.975857 -0.058185 -0.342673 -0.926563 
-0.119871 -0.317011 -0.934037 -0.00376333 -0.518675 -0.853627 -0.0880543 -0.490361 -0.864661 
0.0760423 -0.641222 -0.75331 -0.0252362 -0.606411 -0.78846 0.157023 -0.70278 -0.690765 
0.0685428 -0.701781 -0.70799 0.239056 -0.709818 -0.661987 0.127318 -0.740036 -0.659478 
0.288407 -0.744137 -0.598177 0.16283 -0.777943 -0.603164 0.326981 -0.782863 -0.525391 
0.201462 -0.81405 -0.543248 0.344715 -0.827622 -0.436648 0.275021 -0.833131 -0.473007 
0.349355 -0.858277 -0.373844 0.360261 -0.833628 -0.416328 0.344394 -0.878593 -0.330061 
0.453385 -0.805377 -0.377325 0.384562 -0.884042 -0.252428 0.523617 -0.789737 -0.303747 
0.426839 -0.887683 -0.167273 0.556617 -0.792369 -0.230354 0.433585 -0.895656 -0.0694449 
0.591009 -0.794838 -0.0665904 0.437182 -0.896183 0.0256278 0.559409 -0.821097 0.0712021 
-0.310366 0.903082 0.278939 -0.249104 0.951095 0.152148 -0.347894 0.846756 0.395696 
-0.38721 0.764312 0.512833 -0.374501 0.703418 0.602019 -0.343581 0.655943 0.670447 
-0.280597 0.565267 0.764726 -0.210383 0.427095 0.876121 -0.204183 0.289354 0.929729 
-0.252577 0.191543 0.944113 -0.321032 0.121025 0.93846 -0.291026 0.0707179 0.952653 
-0.247983 0.0198865 0.966315 -0.206115 -0.0314961 0.975793 -0.13193 -0.0919265 0.983351 
-0.0597283 -0.164899 0.982159 0.0525416 -0.253564 0.958464 0.136852 -0.3586 0.920486 
0.159308 -0.453823 0.871584 0.1399 -0.526903 0.832146 0.0809554 -0.585323 0.802186 
-0.0198575 -0.660105 0.747529 0.058952 -0.739966 0.661324 0.0912171 -0.823138 0.554157 
0.100037 -0.902064 0.401838 0.0822941 -0.967559 0.197768 0.0755787 -0.988952 -0.0296443 
0.0724947 -0.974547 -0.190701 0.0920798 -0.948308 -0.293504 0.125723 -0.931552 -0.335906 
0.147199 -0.912668 -0.378698 0.12264 -0.886663 -0.443295 0.0851186 -0.841213 -0.527448 
0.0112504 -0.783361 -0.618403 -0.0625831 -0.725667 -0.681771 -0.139744 -0.660705 -0.735902 
-0.174974 -0.613798 -0.769189 -0.229863 -0.571425 -0.785965 -0.287393 -0.51723 -0.805248 
-0.37718 -0.447673 -0.809416 -0.460908 -0.399017 -0.790424 -0.530473 -0.347482 -0.772174 
-0.592234 -0.278427 -0.752762 -0.656311 -0.167733 -0.732974 -0.733317 0.0477666 -0.672031 
-0.77256 0.214371 -0.587203 -0.789611 0.35418 -0.497835 -0.772697 0.446522 -0.445417 
-0.74994 0.519178 -0.406284 -0.720513 0.579135 -0.379177 -0.685111 0.6423 -0.337093 
-0.603101 0.732834 -0.303513 -0.502189 0.821893 -0.252385 -0.371291 0.901547 -0.198187 
-0.25122 0.961101 -0.0756893 -0.224177 0.972384 0.0578536 0.477813 -0.789682 0.379315 
0.525866 -0.797462 0.285924 0.452005 -0.751344 0.477695 0.424321 -0.669102 0.602163 
0.375928 -0.599372 0.705697 0.332281 -0.545737 0.766714 0.27718 -0.486024 0.827399 
0.249037 -0.431476 0.864678 0.241616 -0.374808 0.892924 0.241849 -0.309273 0.917159 
0.272887 -0.246583 0.926152 0.374219 -0.176752 0.90657 0.461929 -0.0999439 0.873999 
0.534281 -0.00350067 0.841936 0.560759 0.130426 0.809188 0.551354 0.2851 0.779332 
0.483587 0.481645 0.718607 0.353989 0.685991 0.62504 0.242007 0.799209 0.544762 
0.16316 0.867003 0.465771 0.0911243 0.928847 0.353804 0.0446463 0.961968 0.261171 
-0.00752019 0.980419 0.191279 -0.0551266 0.987837 0.142615 -0.0395638 0.995696 0.0570814 
-0.00963021 0.998668 -0.00912413 0.0221254 0.996165 -0.0834749 -0.00701133 0.987448 -0.149585 
-0.0508299 0.961788 -0.25989 -0.0756096 0.919611 -0.379576 -0.0780914 0.860985 -0.497134 
-0.0664771 0.81838 -0.569207 -0.0346072 0.811781 -0.579913 0.031792 0.845757 -0.53066 
0.0767319 0.846147 -0.525776 0.0979506 0.812023 -0.572132 0.067179 0.688362 -0.711771 
0.0164736 0.487689 -0.856993 -0.0460625 0.259335 -0.960751 -0.0773397 0.0853868 -0.991639 
-0.0713075 0.00811663 -0.996414 -0.0892426 -0.0613977 -0.993593 -0.0861667 -0.209758 -0.966036 
-0.070729 -0.363883 -0.923771 -0.0401776 -0.491792 -0.866341 0.00030111 -0.593164 -0.800654 
0.046798 -0.673062 -0.7359 0.096374 -0.724811 -0.68068 0.137387 -0.761596 -0.63197 
0.190822 -0.79147 -0.579331 0.266305 -0.803443 -0.526981 0.348063 -0.799457 -0.486218 
0.422207 -0.779272 -0.458531 0.502248 -0.757563 -0.404513 0.582181 -0.739978 -0.33464 
0.626877 -0.760794 -0.109734 0.611781 -0.779274 0.0796527 0.575185 -0.792542 0.193149 
-0.378625 0.84584 0.369898 -0.29746 0.911356 0.246008 -0.383815 0.7801 0.482271 
-0.372013 0.716247 0.586703 -0.353143 0.657425 0.6637 -0.308556 0.590795 0.740677 
-0.292198 0.498549 0.81125 -0.304612 0.369938 0.873798 -0.38423 0.259101 0.880851 
-0.423188 0.155969 0.890553 -0.419525 0.054263 0.90389 -0.361653 -0.0353162 0.92894 
-0.267938 -0.110657 0.954193 -0.159211 -0.175086 0.9687 -0.0214017 -0.225061 0.972246 
0.0306811 -0.300954 0.950652 0.050112 -0.378549 0.922689 -0.00765314 -0.465024 0.880496 
-0.0674191 -0.535451 0.839953 -0.0827308 -0.574384 0.812624 -0.0770163 -0.598069 0.794437 
-0.0250102 -0.869829 0.489294 -0.07613 -0.790672 0.600322 0.00105801 -0.938179 0.30199 
0.0157967 -0.98758 0.100428 -0.00836604 -0.98787 -0.0951279 -0.0204322 -0.973843 -0.214113 
-0.0255404 -0.954481 -0.296496 0.00662085 -0.940867 -0.335118 0.037645 -0.922309 -0.382 
0.0618337 -0.896479 -0.436673 0.0498036 -0.858005 -0.508647 0.00159881 -0.813936 -0.57793 
-0.0900585 -0.748618 -0.651708 -0.164919 -0.689965 -0.701881 -0.226142 -0.638261 -0.735376 
-0.258075 -0.594576 -0.760317 -0.296951 -0.541732 -0.785366 -0.338791 -0.502748 -0.7949 
-0.41276 -0.454667 -0.786901 -0.485161 -0.399776 -0.774713 -0.543887 -0.308895 -0.777802 
-0.53851 -0.249434 -0.799078 -0.767638 0.238884 -0.584418 -0.746702 0.10181 -0.651081 
-0.767717 0.392434 -0.502717 -0.732185 0.509605 -0.443012 -0.694713 0.595782 -0.399018 
-0.667524 0.647723 -0.3644 -0.632652 0.709986 -0.295521 -0.585733 0.784523 -0.198548 
-0.485686 0.86164 -0.119162 -0.358399 0.926427 -0.0423253 -0.244053 0.968289 0.0244782 
-0.194162 0.977758 0.0663133 -0.220284 0.96676 0.127073 -0.0979416 -0.697983 0.708178 
-0.0279271 -0.675393 0.73134 -0.661574 -0.060631 -0.739763 -0.532494 -0.144045 -0.828986 
0.485804 -0.715509 0.495038 0.481893 -0.777969 0.40028 0.485576 -0.624099 0.603694 
0.463913 -0.549285 0.692183 0.440728 -0.495301 0.744154 0.413267 -0.443991 0.793793 
0.367845 -0.404846 0.834046 0.34449 -0.358058 0.866361 0.365637 -0.32592 0.867932 
0.436918 -0.259603 0.859989 0.494199 -0.223661 0.837121 0.554526 -0.16005 0.813084 
0.58983 -0.057512 0.802875 0.598475 0.0878173 0.785143 0.558611 0.262447 0.780828 
0.454053 0.454691 0.741479 0.221894 0.722968 0.641545 0.189193 0.82576 0.528998 
0.14764 0.874495 0.45558 0.1005 0.9181 0.374522 0.0386874 0.960881 0.254618 
-0.0148959 0.983806 0.173474 -0.0532176 0.990112 0.127269 -0.0697431 0.992342 0.100206 
-0.0753267 0.994652 0.0528926 -0.0760276 0.996275 -0.0215308 -0.0252237 0.990756 -0.129097 
-0.0355843 0.962359 -0.254209 -0.0486559 0.924809 -0.370563 -0.0632149 0.87789 -0.472999 
-0.0401959 0.845516 -0.531253 0.00695761 0.852541 -0.521291 0.0567031 0.872036 -0.484111 
0.0928781 0.847629 -0.5181 0.0843195 0.776338 -0.620848 0.0559828 0.599602 -0.779734 
0.0145739 0.385751 -0.914596 -0.0206876 0.199894 -0.974368 -0.0121992 0.109819 -0.992411 
0.00608497 0.042555 -0.998176 0.0157661 -0.0456662 -0.997851 0.00450304 -0.167763 -0.982883 
0.00262063 -0.304369 -0.94743 0.0204173 -0.44951 -0.891278 0.0437195 -0.543328 -0.833887 
0.067286 -0.629401 -0.772757 0.105719 -0.69634 -0.708034 0.13811 -0.73723 -0.65973 
0.161216 -0.769007 -0.618536 0.21548 -0.776586 -0.589958 0.27451 -0.778872 -0.561114 
0.352249 -0.770084 -0.528309 0.441901 -0.772884 -0.444787 0.533906 -0.788504 -0.287393 
0.582125 -0.799417 -0.0394066 0.557558 -0.810416 0.159448 0.500881 -0.817771 0.277467 
0.484409 -0.803627 0.34269 -0.609803 0.0236563 -0.778311 -0.489103 -0.0318953 -0.864833 
-0.689536 0.0856937 -0.712839 -0.736247 0.229259 -0.615902 -0.744474 0.405556 -0.51403 
-0.675891 0.579086 -0.451281 -0.635123 0.652179 -0.407882 -0.597485 0.703734 -0.380705 
-0.576017 0.749087 -0.319019 -0.577024 0.787144 -0.213141 -0.555837 0.824106 -0.0584853 
-0.499019 0.860353 0.0731438 -0.381015 0.906187 0.168181 -0.260987 0.955248 0.112276 
-0.206086 0.972672 0.0956882 -0.222509 0.96133 0.153497 -0.280015 0.904981 0.285894 
-0.330132 0.826567 0.447732 -0.343505 0.743912 0.567423 -0.336262 0.671264 0.657546 
-0.352954 0.592888 0.721132 -0.377456 0.48619 0.786045 -0.434371 0.384734 0.810733 
-0.468975 0.269062 0.839803 -0.462439 0.155505 0.869505 -0.43586 0.0357327 0.896001 
-0.383086 -0.0813565 0.914327 -0.317401 -0.180869 0.927635 -0.224766 -0.242937 0.936072 
-0.0931943 -0.302805 0.948205 -0.0187881 -0.323553 0.944166 0.0305642 -0.339879 0.939642 
0.00587915 -0.396951 0.916691 -0.0204402 -0.458768 0.886157 -0.0431888 -0.524906 0.846495 
-0.019468 -0.56981 0.820147 0.0435567 -0.602026 0.792757 0.0588358 -0.701608 0.707365 
0.142648 -0.66899 0.722831 -0.0220686 -0.773011 0.626996 -0.0615357 -0.829751 0.542363 
-0.0569316 -0.885202 0.448836 -0.0166737 -0.951748 0.274986 0.00984025 -0.991247 0.0764778 
-0.00162274 -0.993103 -0.0813872 -0.0156162 -0.97606 -0.20134 -0.0297146 -0.956676 -0.288746 
-0.0425668 -0.941034 -0.332396 -0.03281 -0.920291 -0.387003 -0.00529068 -0.897216 -0.440311 
0.0151648 -0.867924 -0.493598 0.0211099 -0.834094 -0.550116 -0.00994528 -0.782832 -0.619555 
-0.0667954 -0.732759 -0.672983 -0.14254 -0.680404 -0.718316 -0.206796 -0.625502 -0.749436 
-0.258451 -0.576196 -0.774464 -0.292342 -0.535943 -0.791963 -0.330114 -0.500734 -0.7992 
-0.37394 -0.452862 -0.806617 -0.428787 -0.384741 -0.814549 -0.468919 -0.272979 -0.838246 
-0.427665 -0.207791 -0.872292 -0.37745 -0.0700311 -0.915929 -0.428052 0.068882 -0.888622 
-0.339807 0.117075 -0.927797 -0.516554 0.117741 -0.833249 0.511335 -0.595767 0.611893 
0.513144 -0.69699 0.492313 0.512244 -0.497038 0.699621 0.514028 -0.428299 0.739374 
0.51555 -0.359403 0.776314 0.522886 -0.310393 0.791878 0.512024 -0.288364 0.808741 
0.503965 -0.293833 0.811825 0.499076 -0.291347 0.814966 0.520143 -0.245542 0.816827 
0.510695 -0.198378 0.834444 0.475927 -0.0669954 0.865128 0.428967 0.0858313 0.891511 
0.334583 0.267572 0.885504 0.218825 0.429904 0.861236 0.0913393 0.548914 0.818425 
0.000493241 0.889013 0.446481 0.0246047 0.838125 0.537815 -0.0356328 0.936754 0.338423 
-0.0467916 0.970564 0.220602 -0.0580433 0.987557 0.14375 -0.0673724 0.990711 0.116891 
-0.0834068 0.992783 0.0782936 -0.0917951 0.99491 0.0354661 -0.0994227 0.994565 -0.0114234 
-0.0902254 0.984996 -0.131725 -0.090963 0.951741 -0.277554 -0.0865065 0.913949 -0.394731 
-0.0660101 0.872518 -0.481588 0.00953835 0.876858 -0.477655 0.0545118 0.886999 -0.458462 
0.0711078 0.882074 -0.465359 0.0911479 0.847075 -0.518619 0.0750703 0.742375 -0.656641 
0.0472441 0.551529 -0.818768 0.0111108 0.321644 -0.940432 0.00924944 0.182156 -0.980902 
0.024179 0.0895559 -0.994406 0.0492255 0.0344486 -0.996836 0.079477 -0.0493974 -0.993769 
0.0820617 -0.176274 -0.975569 0.0734275 -0.325196 -0.939881 0.0826667 -0.447668 -0.886575 
0.115605 -0.549925 -0.824782 0.143509 -0.635298 -0.758153 0.15808 -0.698126 -0.695735 
0.167317 -0.742058 -0.648525 0.177787 -0.764641 -0.619258 0.178064 -0.777536 -0.602525 
0.213919 -0.786057 -0.57857 0.257322 -0.795202 -0.545582 0.345823 -0.815866 -0.438331 
0.462221 -0.841168 -0.249016 0.516412 -0.835177 0.0153753 0.533756 -0.813276 0.226123 
0.520173 -0.800987 0.29421 0.493697 -0.797224 0.346277 0.508611 -0.769227 0.383185 
0.00880965 0.7378 0.659377 -0.0797681 0.684806 0.714737 -0.543935 0.214846 -0.802278 
-0.558043 0.379609 -0.717717 -0.559714 0.561348 -0.5996 -0.571178 0.645326 -0.494467 
-0.552866 0.710604 -0.434008 -0.531153 0.740301 -0.410897 -0.502946 0.781308 -0.36461 
-0.479121 0.823457 -0.30032 -0.475885 0.859421 -0.152723 -0.477391 0.870863 0.0216587 
-0.469844 0.851565 0.22858 -0.267874 0.956901 0.098876 -0.312705 0.939986 0.124378 
-0.277234 0.937384 0.207362 -0.291241 0.890015 0.324016 -0.307678 0.844254 0.427187 
-0.322063 0.78753 0.516704 -0.342659 0.715321 0.60257 -0.376739 0.636458 0.669077 
-0.405956 0.560986 0.720096 -0.465542 0.440426 0.764929 -0.476701 0.297184 0.820669 
-0.474028 0.157293 0.86255 -0.417592 0.0138156 0.901435 -0.349075 -0.120142 0.926328 
-0.234779 -0.234726 0.934847 -0.129185 -0.317566 0.936794 -0.0552609 -0.352149 0.931616 
-0.0130296 -0.363132 0.931296 -0.000106868 -0.364849 0.93105 0.00716632 -0.374898 0.926899 
0.000374553 -0.429646 0.900753 -0.000314272 -0.486176 0.871844 0.0228664 -0.507204 0.85959 
0.101476 -0.57758 0.808232 0.22001 -0.605214 0.757589 0.277374 -0.694467 0.654845 
0.38066 -0.655868 0.648908 0.153679 -0.772021 0.603385 0.0544677 -0.809197 0.575794 
-0.00279065 -0.843201 0.530143 0.0119571 -0.884276 0.445146 0.0336316 -0.945116 0.292915 
0.00404854 -0.985306 0.112209 -0.0316533 -0.996498 -0.0602997 -0.0400387 -0.973721 -0.20566 
-0.047767 -0.95167 -0.301248 -0.0390654 -0.925117 -0.373794 -0.0289729 -0.895094 -0.442874 
-0.00313773 -0.868252 -0.494095 0.0210046 -0.838219 -0.542878 0.0349522 -0.806598 -0.589962 
0.0248195 -0.77355 -0.631177 -0.0105103 -0.737927 -0.673593 -0.0791534 -0.690372 -0.716453 
-0.148512 -0.639996 -0.751509 -0.220367 -0.586568 -0.777502 -0.272617 -0.548724 -0.789314 
-0.315958 -0.502063 -0.803967 -0.364631 -0.433849 -0.822014 -0.407003 -0.366208 -0.831314 
-0.365818 -0.358028 -0.856829 -0.31527 -0.218906 -0.918383 -0.262652 -0.105164 -0.953335 
-0.22906 -0.00863091 -0.971277 -0.339873 0.224304 -0.904402 -0.238747 0.186231 -0.94528 
-0.414044 0.236999 -0.870861 -0.394192 0.886169 0.229311 -0.426309 0.857073 0.287527 
-0.101197 0.794292 0.590838 -0.175754 0.661485 0.719896 -0.0944866 0.850821 0.509858 
-0.113186 0.88929 0.434902 -0.12674 0.926596 0.345946 -0.126484 0.955109 0.25749 
-0.126126 0.973484 0.18208 -0.126858 0.983614 0.12333 -0.143167 0.98477 0.0944196 
-0.142258 0.987533 0.0538064 -0.13343 0.990537 0.00359715 -0.142508 0.983512 -0.0968512 
-0.147078 0.955436 -0.242048 -0.131758 0.919711 -0.365124 -0.0794576 0.897498 -0.432988 
-0.0347527 0.893113 -0.446658 -0.00424359 0.893445 -0.447264 0.0277819 0.897308 -0.439732 
0.0496571 0.837437 -0.53008 0.0546998 0.751803 -0.654311 0.0315471 0.543559 -0.817226 
0.0201677 0.351354 -0.930526 0.0392425 0.217297 -0.971487 0.0679238 0.13712 -0.987239 
0.0915919 0.0573157 -0.993501 0.117003 -0.0938207 -0.983725 0.127142 -0.232607 -0.959021 
0.120189 -0.381115 -0.916267 0.126199 -0.466158 -0.872497 0.144213 -0.54577 -0.824084 
0.165847 -0.625335 -0.76083 0.181229 -0.689658 -0.699501 0.172087 -0.746823 -0.641156 
0.163147 -0.773735 -0.611892 0.163814 -0.78842 -0.592663 0.176907 -0.799816 -0.573402 
0.183152 -0.814121 -0.550685 0.220641 -0.841815 -0.481655 0.280731 -0.879238 -0.377261 
0.392941 -0.885674 -0.091536 0.487777 -0.854544 0.144969 0.525114 -0.792172 0.307419 
0.55023 -0.771067 0.317376 0.576082 -0.742234 0.335515 0.547966 -0.703047 0.447627 
0.523156 -0.625797 0.568773 0.53146 -0.530993 0.65843 0.563467 -0.434653 0.698109 
0.591174 -0.333962 0.733736 0.565793 -0.289932 0.769321 0.542358 -0.253087 0.800645 
0.526561 -0.258108 0.809703 0.496654 -0.267337 0.823174 0.438421 -0.266063 0.856739 
0.365816 -0.246574 0.89155 0.313912 -0.150369 0.931839 0.232971 -0.0216069 0.961435 
0.142834 0.168789 0.960645 0.0316604 0.356613 0.924155 -0.07841 0.492337 0.85061 
-0.179179 0.501079 0.841244 -0.209698 0.589846 0.772309 -0.216208 0.707724 0.667988 
-0.232201 0.64314 0.72155 -0.178279 0.748032 0.631935 -0.423931 0.43333 -0.784946 
-0.474403 0.590205 -0.641797 -0.497129 0.685646 -0.522334 -0.501197 0.750846 -0.429013 
-0.45518 0.795169 -0.395152 -0.406282 0.836645 -0.362476 -0.360805 0.873818 -0.318977 
-0.339884 0.906773 -0.23775 -0.332426 0.927835 -0.134943 -0.353727 0.929222 0.00693971 
-0.409631 0.888223 0.1735 -0.44848 0.846508 0.283581 -0.45498 0.843287 0.272029 
-0.380308 0.902534 0.1754 -0.331243 0.93678 0.108974 -0.317379 0.940804 0.112484 
-0.296086 0.932647 0.174986 -0.300506 0.888641 0.327946 -0.329577 0.830027 0.440481 
-0.34639 0.803273 0.482455 -0.373292 0.749587 0.538291 -0.401774 0.686998 0.600062 
-0.420483 0.632586 0.646783 -0.429994 0.572818 0.695822 -0.407505 0.208083 0.87581 
-0.431107 0.36756 0.820051 -0.355894 0.0368128 0.929704 -0.283956 -0.100683 0.94219 
-0.221573 -0.206668 0.945558 -0.11005 -0.278436 0.950888 -0.0405937 -0.361805 0.930027 
-0.0237199 -0.394344 0.918501 -0.0233141 -0.391554 0.919798 0.0443143 -0.480807 0.871671 
0.0208281 -0.410534 0.911164 -0.413856 0.461193 0.781617 -0.398788 0.518992 0.753335 
-0.0124596 -0.38698 0.921668 0.0166023 -0.369229 0.927921 0.330714 -0.593221 0.731886 
0.12429 -0.500046 0.853042 0.388568 -0.605278 0.689066 0.444179 -0.665051 0.596705 
0.454976 -0.645438 0.611886 0.370459 -0.755037 0.526373 0.261519 -0.796595 0.539546 
0.0945458 -0.908488 0.396209 0.121885 -0.937892 0.30451 0.126838 -0.969318 0.144662 
-0.036273 -0.983395 -0.141738 -0.0510125 -0.95769 -0.267848 -0.0416194 -0.937304 -0.34425 
-0.0433582 -0.91679 -0.393361 -0.0414044 -0.891143 -0.448836 -0.0277199 -0.856059 -0.513526 
0.0157812 -0.816753 -0.574709 0.0655739 -0.78783 -0.610879 0.069937 -0.760796 -0.644755 
0.0382381 -0.742296 -0.667447 -0.0216412 -0.712483 -0.700584 -0.092915 -0.663305 -0.739524 
-0.16229 -0.60844 -0.775089 -0.204889 -0.55121 -0.808299 -0.221971 -0.449062 -0.862492 
-0.29906 -0.400752 -0.861371 -0.221948 -0.272431 -0.930456 -0.160938 -0.160967 -0.96969 
-0.132039 0.0150039 -0.982817 -0.110695 0.118832 -0.982395 -0.253698 0.371711 -0.885605 
-0.0935891 0.241545 -0.954524 -0.351576 0.354588 -0.859563 -0.178225 0.791038 0.571814 
-0.180007 0.848392 0.49095 -0.18785 0.89409 0.397551 -0.189771 0.934844 0.294122 
-0.203517 0.957454 0.19409 -0.20594 0.968664 0.131874 -0.214844 0.969728 0.107104 
-0.21532 0.971771 0.0869511 -0.187639 0.979592 0.05814 -0.145387 0.987242 -0.0519185 
-0.154519 0.967089 -0.178835 -0.156093 0.943365 -0.289401 -0.126422 0.924153 -0.358137 
0.00763689 0.907181 -0.420424 -0.0381115 0.911872 -0.408143 0.0176394 0.882608 -0.468827 
0.00767739 0.759356 -0.624709 0.00505235 0.610685 -0.788188 0.0214876 0.432686 -0.885222 
0.0419177 0.289046 -0.954538 0.068284 0.208818 -0.973408 0.0846249 0.144209 -0.984686 
0.0952577 0.0881459 -0.991376 0.104415 -0.0336313 -0.991013 0.0694426 -0.291447 -0.95026 
0.102073 -0.395554 -0.90982 0.111347 -0.471513 -0.872305 0.123775 -0.541475 -0.828099 
0.132533 -0.624369 -0.76828 0.140318 -0.705791 -0.689286 0.136362 -0.765993 -0.627977 
0.128402 -0.783503 -0.607696 0.162312 -0.768836 -0.618028 0.184675 -0.784546 -0.591094 
0.209562 -0.80808 -0.550126 0.206007 -0.848651 -0.480048 0.270288 -0.907412 -0.305446 
0.388321 -0.897987 -0.0678781 0.539085 -0.822226 0.160066 0.620927 -0.736853 0.254703 
0.632949 -0.708932 0.306345 0.603167 -0.69764 0.378075 0.545798 -0.665215 0.50313 
0.523627 -0.619251 0.58215 0.51795 -0.577414 0.630463 0.508603 -0.500618 0.69553 
0.44812 -0.422078 0.782899 0.421889 -0.350056 0.831634 0.420616 -0.289795 0.855367 
0.428582 -0.258087 0.863065 0.377127 -0.256081 0.889603 0.310733 -0.247013 0.914209 
0.247454 -0.226625 0.941805 0.149582 -0.161468 0.966909 0.0675795 -0.0690089 0.992429 
-0.0185611 0.0701235 0.984805 -0.101727 0.190949 0.972173 -0.157912 0.302673 0.927882 
-0.199315 0.44273 0.865259 -0.191832 0.49567 0.845263 -0.221059 0.559398 0.791564 
-0.256848 0.678482 0.68361 -0.293184 0.651692 0.690556 -0.231052 0.777953 0.575615 
-0.0727293 0.91704 -0.390941 -0.144917 0.920777 -0.358623 0.274404 -0.88246 0.354648 
0.324371 -0.908904 0.23768 0.0534826 -0.944734 -0.309203 0.124053 -0.957314 -0.236611 
0.0109228 -0.931005 -0.359308 -0.00172556 -0.90895 -0.413786 -0.011233 -0.86898 -0.489007 
-0.00227606 -0.825721 -0.560691 0.022226 -0.790914 -0.610005 0.0435554 -0.758763 -0.649551 
0.0792963 -0.766807 -0.636636 0.0681866 -0.759176 -0.646696 0.0381848 -0.739121 -0.671954 
-0.00558632 -0.696922 -0.713985 -0.053556 -0.639442 -0.764589 -0.0935475 -0.567413 -0.816623 
-0.0976805 -0.487636 -0.863982 -0.147808 -0.361403 -0.915229 -0.0654839 -0.352129 -0.928982 
-0.376856 0.494458 -0.768856 -0.398345 0.655846 -0.625149 -0.393899 0.779999 -0.476783 
-0.342711 0.848402 -0.39849 -0.28432 0.890468 -0.352787 -0.255731 0.913601 -0.31418 
-0.278522 0.928817 -0.236391 -0.294188 0.93851 -0.176664 -0.317041 0.939456 -0.0984939 
-0.335162 0.937782 -0.0276855 -0.329253 0.932384 0.0825903 -0.397989 0.889335 0.213379 
-0.280855 0.944326 0.148876 -0.472328 0.85509 0.205695 -0.435546 0.883236 0.157418 
-0.373638 0.921328 0.0947313 -0.361463 0.912916 0.180387 -0.340188 0.892176 0.279371 
-0.301657 0.887494 0.344199 -0.356666 0.827995 0.416154 -0.406999 0.753145 0.510272 
-0.431339 0.673204 0.593721 -0.42466 0.631984 0.643653 -0.397898 0.612316 0.678657 
-0.348216 0.503855 0.78825 -0.289272 0.533005 0.787281 -0.311261 0.425739 0.841482 
-0.273528 0.290426 0.9143 -0.207551 0.114677 0.956195 -0.151273 -0.0389581 0.984595 
-0.118602 -0.161643 0.971254 0.330607 -0.525833 0.779732 0.22794 -0.46931 0.848763 
0.425648 -0.600684 0.67476 0.508695 -0.708815 0.483722 0.480366 -0.656298 0.580064 
0.455054 -0.745838 0.475354 -0.25273 0.828032 0.490985 -0.270469 0.879015 0.379901 
-0.28521 0.915598 0.271065 -0.292634 0.934307 0.195476 -0.301175 0.941213 0.14445 
-0.296365 0.944995 0.130194 -0.257058 0.955741 0.132192 -0.186449 0.974803 -0.066397 
-0.17697 0.962862 -0.187837 -0.197992 0.941469 -0.264506 -0.218039 0.932614 -0.28157 
-0.0483747 0.890706 -0.44523 -0.0733484 0.908547 -0.405214 -0.0347208 0.855899 -0.50468 
-0.0465394 0.777441 -0.618702 -0.0423678 0.648424 -0.746468 -0.028265 0.490322 -0.860247 
0.0143667 0.354224 -0.930964 0.0547638 0.235206 -0.966863 0.0760754 0.125973 -0.987467 
0.0568848 0.0268871 -0.996389 0.0530616 -0.0730184 -0.989237 0.00933192 -0.133989 -0.985581 
0.0512371 -0.536649 -0.839915 0.0373767 -0.4626 -0.884947 0.0639678 -0.617742 -0.780552 
0.0770653 -0.704602 -0.701944 0.0911203 -0.7498 -0.653811 0.103116 -0.781267 -0.615272 
0.120219 -0.770996 -0.624552 0.126941 -0.756943 -0.640724 0.222868 -0.821915 -0.523519 
0.218206 -0.792269 -0.568413 0.239639 -0.859634 -0.441191 0.274442 -0.899725 -0.329725 
0.370445 -0.907301 -0.129813 0.48134 -0.864952 0.0329731 0.580205 -0.788225 0.17507 
0.572717 -0.742422 0.329322 0.0071177 -0.360604 -0.926276 -0.0443267 -0.330506 -0.939959 
0.22727 -0.958847 -0.0946429 0.377131 -0.904592 0.106194 0.178055 -0.757592 -0.627512 
0.132865 -0.745323 -0.652068 0.470496 -0.612035 0.631877 0.454014 -0.576329 0.677392 
0.417355 -0.532334 0.730986 0.359417 -0.464355 0.80857 0.318869 -0.40202 0.854224 
0.282252 -0.330614 0.899905 0.26426 -0.275602 0.922458 0.256961 -0.239319 0.934869 
0.189901 -0.208833 0.956069 0.121647 -0.168885 0.976056 0.0310924 -0.087819 0.989569 
-0.0563436 0.00298138 0.996473 -0.111877 0.126089 0.976419 -0.156856 0.242757 0.952225 
-0.182095 0.328287 0.922169 -0.165958 0.345038 0.917646 -0.15144 0.411733 0.894497 
-0.231772 0.514719 0.824639 -0.350634 0.661273 0.655283 -0.00275342 -0.327588 0.943674 
0.00467216 -0.242843 0.966797 -0.00076124 -0.365487 0.930109 0.0152824 -0.353303 0.935187 
0.0620126 -0.340378 0.936541 0.134189 -0.348464 0.926923 0.173512 -0.298209 0.936983 
0.156508 -0.386876 0.903866 -0.102484 0.725306 -0.667245 -0.116227 0.82158 -0.544245 
-0.0828444 0.598188 -0.790047 -0.0386806 0.474511 -0.869363 -0.0140564 0.380187 -0.91999 
0.00457337 0.290671 -0.949783 0.0070037 0.145301 -0.984582 -0.042505 -0.062157 -0.993132 
-0.0896596 -0.185292 -0.974232 0.196603 -0.255653 0.945576 0.175845 -0.203719 0.961138 
0.141783 -0.150276 0.97721 0.084394 -0.075913 0.988591 0.0251535 0.0037507 0.998825 
-0.0337692 0.104258 0.986515 -0.0965927 0.211778 0.971301 -0.126655 0.352563 0.921512 
-0.173175 0.394193 0.891485 -0.190479 0.364979 0.904459 -0.163061 0.287583 0.933519 
-0.113326 0.170985 0.966038 -0.0530676 0.0254724 0.99285 -0.0174913 -0.108893 0.987096 
-0.329444 0.769196 0.538617 -0.359674 0.823794 0.430285 -0.384582 0.860626 0.327942 
-0.390084 0.886222 0.235036 -0.392128 0.906317 0.152622 -0.399554 0.902521 0.154258 
-0.428998 0.887734 0.164859 -0.40287 0.841035 0.358242 -0.411402 0.817383 0.393558 
-0.421578 0.779806 0.462439 -0.405806 0.712027 0.564911 -0.467247 0.85691 0.212006 
-0.45672 0.877206 0.144416 -0.411697 0.897191 0.152299 -0.393597 0.892501 0.201896 
-0.0776469 0.274797 0.956466 -0.0295817 0.180317 0.975605 0.0199968 0.0658347 0.991626 
0.04518 -0.0455042 0.993201 0.0480532 -0.151515 0.98253 0.0446048 -0.24527 0.966258 
0.0312449 -0.306513 0.948957 0.0936776 -0.264857 0.958615 -0.288654 0.954295 0.0246261 
-0.283818 0.951412 -0.0743906 -0.275884 0.939773 -0.187782 -0.256734 0.932107 -0.251369 
-0.120956 0.91999 -0.370177 -0.192981 0.914951 -0.35211 -0.224683 0.531708 -0.805049 
-0.264855 0.714609 -0.636444 -0.241806 0.816402 -0.518944 -0.240506 0.87091 -0.421277 
-0.224666 0.903374 -0.364512 -0.156141 0.887334 -0.431993 -0.253115 0.924585 -0.280569 
-0.017325 -0.458943 -0.884818 0.00938102 -0.52203 -0.85217 0.0263557 -0.574425 -0.816065 
0.0453609 -0.630964 -0.771322 0.0654688 -0.676687 -0.731171 0.076004 -0.72585 -0.680648 
0.08343 -0.770862 -0.629802 0.0983198 -0.771243 -0.62856 0.105717 -0.751077 -0.651273 
0.0909217 -0.739884 -0.666115 0.130928 -0.764717 -0.628441 0.0621318 -0.757755 -0.64932 
0.170607 -0.77449 -0.608307 0.196831 -0.793468 -0.572875 0.22298 -0.81956 -0.527507 
0.226886 -0.854916 -0.461103 0.248592 -0.891828 -0.367131 0.335066 -0.914392 -0.207752 
0.431902 -0.890332 -0.0282579 0.470032 -0.868825 0.109801 0.466092 -0.832972 0.270453 
0.368763 -0.918954 -0.0466846 0.317691 -0.933441 -0.120063 0.240126 -0.927843 -0.249797 
0.160641 -0.916343 -0.362665 0.126728 -0.891039 -0.429169 0.106541 -0.865261 -0.485924 
0.0817577 -0.834583 -0.539926 0.0495845 -0.799274 -0.594352 0.0697386 -0.768056 -0.63643 
0.0652946 -0.759931 -0.646521 0.0609043 -0.759849 -0.646032 0.032313 -0.728762 -0.683087 
0.0204398 -0.674389 -0.735145 -0.0019424 -0.594672 -0.802633 -0.0177686 -0.528145 -0.846802 
-0.0318649 -0.473554 -0.878184 -0.092619 0.411723 -0.903337 0.050284 -0.733449 -0.675369 
0.065492 -0.757067 -0.649571 0.0866813 -0.765579 -0.63706 0.0938005 -0.763641 -0.638412 
0.0911258 -0.753304 -0.650675 0.188098 -0.857176 -0.477993 0.164459 -0.825455 -0.535629 
0.206584 -0.879651 -0.422296 0.216618 -0.898527 -0.377917 -0.446361 0.881923 0.149024 
-0.455837 0.878368 0.140907 -0.394323 0.796818 0.448139 -0.412937 0.849231 0.325725 
-0.37436 0.759878 0.526726 0.0974501 -0.178954 0.975913 0.0918362 -0.0864704 0.990306 
0.0532141 0.005342 0.993815 0.0105101 0.104505 0.992449 -0.0544311 0.224082 0.964382 
0.0478224 -0.767555 -0.638584 0.0913314 -0.766689 -0.633148 0.129038 -0.79222 -0.592462 
-0.17475 0.909236 -0.37614 -0.169026 0.899494 -0.400614 -0.179866 0.79073 -0.571753 
-0.163129 0.715466 -0.669728 -0.127723 0.607752 -0.771325 -0.0906784 0.538166 -0.824582 
-0.447868 0.874136 0.178529 0.457395 -0.629891 0.624827 -0.221865 0.921759 -0.315712 

Radius 1 1116 double
0.15 0.15 1.3837835335 1.2050487856 0.15 1.4716922249 0.15 1.4920706558 0.15 
1.516783637 0.15 1.5390522029 0.15 1.5965543033 0.15 1.5884270607 0.15 1.4912132428 
0.15 1.3898288955 0.15 1.3326461442 0.15 1.2898016053 0.15 1.3698200353 0.15 
1.4011537608 0.15 1.4497232058 0.15 1.4771134761 0.15 1.4803170086 0.15 1.3909136458 
0.15 1.3213239912 0.15 1.2723519444 0.15 1.2455979952 0.15 1.2198712447 0.15 
1.2577871264 0.15 1.2571357216 0.15 1.2708769781 0.15 1.3917645769 0.15 1.5461111587 
0.15 1.7509879135 0.15 1.8097876165 0.15 1.6899546803 0.15 1.5444426666 0.15 
1.4379375214 0.15 1.3894997568 0.15 1.3607214426 0.15 1.3198558027 0.15 1.2729693451 
0.15 1.2516963147 0.15 1.2429255021 0.15 1.2463077714 0.15 1.2568230454 0.15 
1.2477925752 0.15 1.1240957667 0.14999968179 1.1306899735 0.14999934307 1.1660866887 0.14999906194 1.2202262168 
0.14999924036 1.1771800526 0.14999974081 1.1458465728 0.15 1.1099568063 0.15 1.0339176984 0.15 
1.0188822222 0.15 1.0246920434 0.15 1.1173310866 0.15 1.2601280922 0.15 1.4862431447 
0.15 1.5269719483 0.15 1.4548178925 0.15 0.15 1.3110791708 1.1694345764 0.15 
1.4284102894 0.15 1.4545459421 0.15 1.5314804842 0.15 1.6237815694 0.15 1.6574046128 
0.15 1.6383804807 0.15 1.430761641 0.15 1.2626946964 0.15 1.1561910387 0.15 
1.0744385869 0.15 1.2075961252 0.15 1.2996968653 0.15 1.3433224417 0.15 1.3723757604 
0.15 1.4003459559 0.15 1.3082670987 0.15 1.2304864537 0.15 1.3081254611 0.15 
1.3910910607 0.15 1.4955397221 0.15 1.4548280864 0.15 1.499261799 0.15 1.6633534618 
0.15 1.5870852905 0.15 1.5108017992 0.15 1.3828164523 0.15 1.4365724137 0.15 
1.571917708 0.15 1.7675853898 0.15 1.8498716027 0.15000001557 1.7995083942 0.14999990124 1.6728394445 
0.14999996128 1.7269979743 0.15 1.8624713527 0.15 2.0646505916 0.15 2.1536209679 0.15 
2.1740000492 0.15 2.0474630387 0.15 1.9671678418 0.15 1.8584803317 0.15 1.7341000193 
0.15 1.6287705747 0.15 1.5448544805 0.15 1.4703554452 0.15 1.4564928598 0.15 
1.3782902522 0.15 1.2270431634 0.15 1.2898530725 0.15 1.3609217814 0.15 1.3653179121 
0.15 1.2729056381 0.15 1.134749743 0.15 0.99838572397 0.15 0.86033473226 0.15 
1.0741444424 0.15 1.2198049203 1.7766845 1.7110235683 1.8079727563 1.7304691228 1.7013922041 1.7285638516 
1.6502627387 1.5249342545 1.3810758208 1.3160700405 1.3148170252 1.3711686483 1.4054996411 1.4412536609 1.4863595923 
1.5273131771 1.53653957 1.5400587352 1.5304894514 1.5201050558 1.4991479505 1.5968195686 1.5473378575 1.4962386911 
1.5104739878 1.604895218 1.7919227521 1.8823552423 1.785845393 1.6259120989 1.5357741452 1.5163142908 1.4798450916 
1.4333932427 1.3643876073 1.3982090856 1.4032180223 1.3834638156 1.3555961269 1.3446607322 1.2676728451 1.2901282622 
1.3476242526 1.3674822746 1.2682280852 1.2638122471 1.2634548592 1.237906645 1.2167792347 1.1906859323 1.2174108817 
1.3346799356 1.6348269215 1.7972708549 1.7214998123 1.5418441013 1.7035336596 1.6502619093 1.7243675606 1.8190025536 
1.90156205 1.9403788666 1.935088479 1.6795913412 1.4352435955 1.3173322638 1.2360893693 1.3105726342 1.3798692684 
1.4320581958 1.4594746787 1.4814039828 1.4506708515 1.4350838047 1.3965584579 1.4625213933 1.5570865438 1.5258633438 
1.6162889293 1.8032210161 1.689536794 1.554934819 1.4386454293 1.5199022917 1.6901804937 1.825811414 1.9034125672 
1.8086044562 1.633695201 1.6972022587 1.9078224438 2.1688136782 2.2420336073 2.2180155119 2.1135365906 2.0113648658 
1.9175667308 1.7978199941 1.6806252726 1.5852731043 1.5265539662 1.5136097715 1.4705816606 1.3838165526 1.4671132517 
1.5048272456 1.4756196828 1.3719988342 1.1888200356 1.0367996671 0.8931758427 1.1702852723 1.4122150352 1.568851332 
2.0312237151 1.9557597425 1.9103646659 1.8215306201 1.7603021825 1.6251095762 1.4852089917 1.3996163998 1.4705853364 
1.5443626512 1.5516093607 1.5193300831 1.4180590373 1.4245847713 1.4720420824 1.4958485151 1.5213463667 1.5372786944 
1.5622511821 1.6296516547 1.7427327351 1.6124664473 1.6889262576 1.5871488072 1.6242407808 1.7863041568 1.8248034428 
1.809348627 1.6382563778 1.5224666553 1.4604473024 1.4113582536 1.4071375049 1.3603836955 1.380850659 1.4257737755 
1.4222830211 1.4042733244 1.3385913613 1.3002014339 1.3231752921 1.4497797528 1.4330953491 1.113390337 1.1490945268 
1.0959792318 1.1600149477 1.2102538557 1.2392049746 1.3120290926 1.3706488024 1.553779729 1.7215872407 1.7421589301 
1.7399306482 1.8728950647 1.8206697684 1.9248994045 1.2745674399 1.3778898871 1.9527079235 1.876897671 2.0298010343 
2.1039428017 2.1292824294 2.1005991547 1.7926462143 1.5086035699 1.2854616199 1.2122529817 1.3295783778 1.4057188572 
1.4558931045 1.4884750419 1.5016214899 1.5508357482 1.6444739413 1.4514523842 1.5285734701 1.6095458973 1.6037182438 
1.674455032 1.8312640045 1.720586273 1.5858035006 1.5108002323 1.5800393397 1.7041116662 1.809703847 1.8548640623 
1.7153427482 1.5911440706 1.7690090835 1.9159365657 2.1103074181 2.1288651022 2.0963145892 2.0056232556 1.9171229482 
1.8320168277 1.752365395 1.620169535 1.5205631154 1.5388211442 1.5403038678 1.5380832431 1.5841097216 1.5836867901 
1.5970380724 1.5294963985 1.4419007688 1.3350853084 1.2845210841 1.205089031 1.3715306084 1.5597432458 1.6946771562 
1.7929568185 1.1931757996 1.330104313 1.0572637161 1.0200699732 1.0239224106 1.1095903524 1.1679136305 1.2154140977 
1.3158225418 1.4579482988 1.4997585969 1.5909740382 1.6806731572 1.7822584724 1.8726336957 2.1110331013 2.121590005 
1.9526480395 1.833971527 1.7449565987 1.6627950581 1.5433655223 1.6337549056 1.6808035002 1.7214743373 1.6795270455 
1.5798850866 1.4388811555 1.417659387 1.440309861 1.463328543 1.5021786301 1.5431042879 1.6265974256 1.7036704425 
1.8296776084 1.9928650213 2.1086728887 2.1158511218 1.9328135081 1.810557375 1.7359279583 1.6728609943 1.6850321302 
1.7708278238 1.7696754144 1.7456702632 1.5923810541 1.4623737528 1.361703463 1.3388227022 1.3427768592 1.3241367225 
1.3571819861 1.4097495612 1.4100310256 1.3833149183 1.3186972258 1.3159146726 1.3512269847 1.4454588195 1.4734240132 
1.4534192731 1.4433506627 1.2831938528 1.4300940627 1.1925364615 2.1002288504 1.9866415283 2.194890392 2.1658848833 
2.1090290935 1.8762993406 1.6144786821 1.3726721314 1.1813356807 1.347610667 1.5203472502 1.6302685002 1.7209245683 
1.735498093 1.7931537992 1.8969044509 1.5632516606 1.6006345165 1.6065178157 1.6618982744 1.7664802217 1.8909140121 
1.7632549408 1.609985788 1.5253284326 1.5819384802 1.6817180625 1.753365231 1.7825822736 1.6469731399 1.6118455086 
1.7776974469 1.9261961985 1.9822561325 1.9800731355 1.9610999109 1.9110017999 1.833087706 1.7423928452 1.6695779142 
1.5634277588 1.4590753651 1.5045059649 1.5223470623 1.5417349855 1.6057118158 1.6297118713 1.6057155198 1.4771627832 
1.4048039043 1.4029981368 1.4648624143 1.5347487827 1.6792221072 1.7682135923 1.7391028982 1.7713207545 1.8563024429 
1.7602346414 1.8116601585 1.0972968363 1.0672356991 1.0694042484 1.1787533411 1.26634537 1.3551379902 1.44883436 
1.5438419883 1.5579167027 1.5367624813 1.51247593 1.9185066714 1.6959992809 2.1844077978 2.0818413067 1.9653863777 
1.8594260728 1.7510948375 1.6714360067 1.6791339281 1.9041984667 1.9072337834 1.8646183427 1.777018283 1.6431037137 
1.5121772351 1.4437683512 1.4128069251 1.4259132904 1.4778491205 1.6298907316 1.7203155465 1.7777127871 1.8761500684 
2.0024591497 2.1374718674 2.1358255971 2.1213888319 2.1136043764 1.9863638675 1.8796495875 1.8331252683 1.7554664656 
1.7261257264 1.7583923757 1.7634657163 1.7436222047 1.6268766819 1.4741940741 1.3317603545 1.2882680749 1.3078376109 
1.3844438254 1.3880189358 1.3871660668 1.4233010998 1.437309676 1.3918944283 1.3822438214 1.3768288907 1.42340329 
1.4890540649 1.5506650617 1.5796131396 1.5636154404 1.4082769142 1.5753766411 1.2191544914 1.6867925154 1.5803747131 
1.7910054452 1.8050409976 1.74053819 1.6782741679 1.6560057402 1.6589695446 1.7527153284 1.8903293901 1.7418090473 
1.5656473075 1.4383511128 1.480658365 1.5712427165 1.6263898861 1.6909831292 1.6132608649 1.6481739171 1.7513239117 
1.7847260531 1.7995797614 1.8307098969 1.8409107058 1.8343794769 1.7562933705 1.6581368957 1.5817608841 1.5002131535 
1.4118912365 1.4418636867 1.4669690021 1.4779510465 1.5321571412 1.5508640487 1.5071280949 1.3747220401 1.2806882133 
1.3460870264 1.4932531363 1.6936647678 1.7765765585 1.7386202652 1.5994167817 1.6754657555 1.7950498365 1.9436060452 
2.0345965802 2.0687139174 2.0637790383 2.0581351112 1.8792691022 1.695336793 1.4848509649 1.3121173525 1.4826497038 
1.635902477 1.791817328 1.9140164602 1.8996094888 1.8709095679 1.8510248394 1.8264983498 1.7821913666 1.7795871218 
1.7899117051 1.775862408 1.2006102959 1.1982295983 1.3209559736 1.4761441698 1.509811613 1.5491877454 1.6036563651 
1.5973690243 1.5310171818 1.4117198341 1.3961440965 1.468555057 1.4472934788 1.5507692329 1.7309608222 1.9583042482 
2.0334123937 2.0063687146 1.9592489905 1.9060510258 1.8286928577 1.7801147858 1.8706082139 1.9752413466 1.8769306825 
1.9812646899 1.7384332348 1.6320051672 1.5393588567 1.4443864687 1.4093695963 1.4292593306 1.4866178528 1.8462094356 
1.7815273136 1.9958353334 1.9880259807 1.6320466488 1.5268259263 2.1684901472 2.012986108 2.1193206357 2.0291685328 
2.0076651853 2.0692091786 2.0659635562 1.9593357055 1.8361273579 1.7982181407 1.8050635059 1.7743076799 1.7326378054 
1.6480566053 1.5319349315 1.3779747132 1.3122126073 1.2938109121 1.4116722133 1.4725893866 1.4577558781 1.4882965149 
1.4974270262 1.4896296049 1.5225342934 1.5025421072 1.5542885213 1.5369836778 1.5842288961 1.6197102675 1.5434755619 
1.5763349041 1.3766208178 1.7368211314 1.6831389886 1.6525740027 1.6457102681 1.739898432 1.8676668523 1.6959986627 
1.5399806345 1.4382481945 1.4287458461 1.5032301586 1.5766188614 1.6065633174 1.6718153656 1.6436597707 1.7547606212 
1.7167905256 1.6922488966 1.7164268908 1.7288527953 1.7245298016 1.6518907909 1.5429958442 1.4971594722 1.4556394285 
1.3918535887 1.382241922 1.3839241959 1.409815437 1.4461907354 1.4704778888 1.416923134 1.293964132 1.2448166918 
1.28617134 1.4774188317 1.7088554316 1.6929484238 1.633777681 1.4819922711 1.5525842269 1.7052740981 1.8678434574 
1.9949564876 2.0824587258 2.1053055108 2.0705647581 1.9141205794 1.7868726313 1.6380041908 1.474740498 1.5458898195 
1.6684390273 1.722835223 1.8076741265 1.8531106905 1.8585828732 1.8359607836 1.7966403392 1.7699238951 1.7751150011 
1.8006306947 1.8361161848 1.7313595375 1.6238488629 1.5840240988 1.9432994733 1.8935766344 1.7966412739 1.8517594431 
1.7197965738 1.6193750676 1.5018672342 1.3519889684 1.3045626057 1.3121756075 1.423478711 1.5052963343 1.5297508131 
1.5356952089 1.5390558288 1.5469043977 1.5575383375 1.5692768782 1.572412459 1.398262339 1.4649359422 1.6169689602 
1.6266994846 1.5880279809 1.5568913842 1.5439811236 1.4947604776 1.4412030802 1.3846498281 1.4477356569 1.4345034281 
1.5092637451 1.3625876086 1.49366325 1.7555344611 1.8841922359 1.8790442462 1.8853977623 1.8246464151 1.8247647044 
1.9110592187 2.0125100644 2.0314076123 1.891193707 1.9028749571 1.9240846686 1.9216457681 1.7957581232 1.6494235599 
1.5427159276 2.1803296315 1.9909659192 2.1326653492 1.8423308434 1.8616155038 1.9960947293 1.6562869709 1.5916414612 
1.5736607268 1.670953728 1.7848072625 1.6216165244 1.4878288912 1.4785099633 1.4839476331 1.5070351284 1.5135000455 
1.6781663725 1.6431197049 1.6876670768 1.6363743513 1.5997576842 1.6429813236 1.6641685799 1.6527047928 1.5770748727 
1.4665836846 1.4560223725 1.429616952 1.375500109 1.4145107519 1.3603348377 1.3919598923 1.4042427627 1.4029092285 
1.353835727 1.3007978293 1.2775736917 1.2456006555 1.4761604644 1.6910617691 1.6710275088 1.645388717 1.5750740518 
1.7185217391 1.452927091 1.4955976115 1.8790349885 1.9010863584 1.2395398918 1.261493881 1.9675715302 2.0951699189 
2.1002789833 2.0325332427 1.8816550838 1.7565679184 1.6467175578 1.5328936748 1.5680410466 1.5870549886 1.6432821306 
1.6986718274 1.7499008269 1.7947897706 1.8043567339 1.7844927097 1.7570558857 1.7727808381 1.9526918406 1.4241200035 
1.4197550304 1.4261358997 1.436943654 1.4823297503 1.6086163078 1.5272208843 1.7726053854 1.573793253 1.6370618931 
1.5604172041 1.6012367422 1.6276327984 1.6218121828 1.5681492008 1.4254656995 1.5161494509 1.4671973189 1.4824239389 
1.5078650557 1.5921212264 1.6723678033 1.7269512844 1.7767402144 1.7483615665 1.8079057768 1.8317668604 1.794304412 
1.6895848282 1.5782666862 1.4910926418 1.777928066 1.7116131041 1.6127797384 1.6066110233 1.6719889399 1.5377477713 
1.3856227756 1.8066403383 1.8496594058 1.9130644593 1.9832260241 1.4469007354 1.540648468 1.6839839408 1.7639656458 
1.7677840462 1.7223769967 1.6631554308 1.573162263 1.4644196459 1.4104282384 1.4196965282 1.4439155252 1.4727323491 
1.4516569155 1.4388222511 1.448956273 1.6110222491 1.5644088088 1.5123352075 1.5208039895 1.6545818764 1.6336696943 
1.5746078734 1.6650419447 1.4842402923 1.4952639436 1.455095824 1.4221020225 1.4110522168 1.4109549299 1.3831872475 
1.3398478949 1.3271269805 1.3117210085 1.2793482135 1.2144292695 1.2488356954 1.1922699751 1.245622226 1.3032694635 
1.5094356366 1.7263085703 1.7985881785 1.8158783178 1.8684120715 1.9208169354 1.8696262131 1.8356829006 1.7677670784 
1.7289657794 1.6229042459 1.5331376577 1.4115567946 1.292150952 1.3881047499 1.303736044 1.4589297281 1.5254508066 
1.4976961914 1.4794235542 1.516282255 1.5399704862 1.5877264678 1.4798134866 1.4597379348 1.407018904 1.3566551838 
1.322681755 1.3836704011 1.3131827412 1.5296674098 1.6545938205 1.5254144658 1.6223988315 1.8218945514 1.677739307 
1.880935086 1.4504583889 1.4847610077 1.5491235004 1.613967994 1.6876346148 1.2422125007 1.2114359919 1.2405491435 
1.6040050021 1.6302919646 1.6135757177 1.5454906028 1.5445546799 1.5918398087 1.636770328 2.0300186769 1.5193556902 

STJ 1 1116 double
0 0 0 0 0 0 0 0 0 
0 0 0 0 0 0 0 0 0 
0 0 0 0 0 0 0 0 0 
0 0 0 0 0 0 0 0 0 
0 0 0 0 0 0 0 0 0 
0 0 0 0 0 0 0 0 0 
0 0 0 0 0 0 0 0 0 
0 0 0 0 0 0 0 0 0 
0 0 0 0 0 0 0 0 0 
0 0 0 0 0 0 0 0 0 
0 0 0 0 0 0 0 0 0 
0 0 0 0 0 0 0 0 0 
0 0 0 0 1 1 0 0 1 
0 1 0 1 0 1 0 1 0 
1 0 1 0 1 0 1 0 1 
0 1 0 1 0 1 0 1 0 
1 0 1 0 1 0 1 0 1 
0 1 0 1 0 1 0 1 0 
1 0 1 0 1 0 1 0 1 
0 1 0 1 0 0.99999998425 0 1.0000000999 0 
1.0000000372 0 1 0 1 0 1 0 1 
0 1 0 1 0 1 0 1 0 
1 0 1 0 1 0 1 0 1 
0 1 0 1 0 1 0 1 0 
1 0 1 0 1 0 1 0 1 
0 1 0 0 0 0 0 0 0 
0 0 0 0 0 0 0 0 0 
0 0 0 0 0 0 0 0 0 
0 0 0 0 0 0 0 0 0 
0 0 0 0 0 0 0 0 0 
0 0 0 0 0 0 0 0 0 
0 0 0 0 0 0 0 0 0 
0 0 0 0 0 0 0 0 0 
0 0 0 0 0 0 0 0 0 
0 0 0 0 0 0 0 0 0 
0 0 0 0 0 0 0 0 0 
0 0 0 0 0 0 0 0 0 
0 0 0 0 0 0 0 0 0 
0 0 0 0 0 0 0 0 0 
0 0 0 0 0 0 0 0 0 
0 0 0 0 0 0 0 0 0 
0 0 0 0 0 0 0 0 0 
0 0 0 0 0 0 0 0 0 
0 0 0 0 0 0 0 0 0 
0 0 0 0 0 0 0 0 0 
0 0 0 0 0 0 0 0 0 
0 0 0 0 0 0 0 0 0 
0 0 0 0 0 0 0 0 0 
0 0 0 0 0 0 0 0 0 
0 0 0 0 0 0 0 0 0 
0 0 0 0 0 0 0 0 0 
0 0 0 0 0 0 0 0 0 
0 0 0 0 0 0 0 0 0 
0 0 0 0 0 0 0 0 0 
0 0 0 0 0 0 0 0 0 
0 0 0 0 0 0 0 0 0 
0 0 0 0 0 0 0 0 0 
0 0 0 0 0 0 0 0 0 
0 0 0 0 0 0 0 0 0 
0 0 0 0 0 0 0 0 0 
0 0 0 0 0 0 0 0 0 
0 0 0 0 0 0 0 0 0 
0 0 0 0 0 0 0 0 0 
0 0 0 0 0 0 0 0 0 
0 0 0 0 0 0 0 0 0 
0 0 0 0 0 0 0 0 0 
0 0 0 0 0 0 0 0 0 
0 0 0 0 0 0 0 0 0 
0 0 0 0 0 0 0 0 0 
0 0 0 0 0 0 0 0 0 
0 0 0 0 0 0 0 0 0 
0 0 0 0 0 0 0 0 0 
0 0 0 0 0 0 0 0 0 
0 0 0 0 0 0 0 0 0 
0 0 0 0 0 0 0 0 0 
0 0 0 0 0 0 0 0 0 
0 0 0 0 0 0 0 0 0 
0 0 0 0 0 0 0 0 0 
0 0 0 0 0 0 0 0 0 
0 0 0 0 0 0 0 0 0 
0 0 0 0 0 0 0 0 0 
0 0 0 0 0 0 0 0 0 
0 0 0 0 0 0 0 0 0 
0 0 0 0 0 0 0 0 0 
0 0 0 0 0 0 0 0 0 
0 0 0 0 0 0 0 0 0 
0 0 0 0 0 0 0 0 0 
0 0 0 0 0 0 0 0 0 
0 0 0 0 0 0 0 0 0 
0 0 0 0 0 0 0 0 0 
0 0 0 0 0 0 0 0 0 
0 0 0 0 0 0 0 0 0 
0 0 0 0 0 0 0 0 0 
0 0 0 0 0 0 0 0 0 
0 0 0 0 0 0 0 0 0 
0 0 0 0 0 0 0 0 0 
0 0 0 0 0 0 0 0 0 
0 0 0 0 0 0 0 0 0 
0 0 0 0 0 0 0 0 0 
0 0 0 0 0 0 0 0 0 
0 0 0 0 0 0 0 0 0 
0 0 0 0 0 0 0 0 0 
0 0 0 0 0 0 0 0 0 
0 0 0 0 0 0 0 0 0 
0 0 0 0 0 0 0 0 0 
0 0 0 0 0 0 0 0 0 
0 0 0 0 0 0 0 0 0 
0 0 0 0 0 0 0 0 0 
0 0 0 0 0 0 0 0 0 
0 0 0 0 0 0 0 0 0 
0 0 0 0 0 0 0 0 0 
0 0 0 0 0 0 0 0 0 
0 0 0 0 0 0 0 0 0 
0 0 0 0 0 0 0 0 0 
0 0 0 0 0 0 0 0 0 
0 0 0 0 0 0 0 0 0 
0 0 0 0 0 0 0 0 0 
0 0 0 0 0 0 0 0 0 
0 0 0 0 0 0 0 0 0 
0 0 0 0 0 0 0 0 0 
0 0 0 0 0 0 0 0 0 
0 0 0 0 0 0 0 0 0 
0 0 0 0 0 0 0 0 0 
0 0 0 0 0 0 0 0 0 

Thickness 1 1116 double
3.0670925725 3.0670925725 2.767567067 2.4100975711 3.0670925725 2.9433842124 3.0670925725 2.98414115 3.0670925725 
3.033567274 3.0670925725 3.0781044059 3.0670925725 3.1931086065 3.0670925725 3.1768537203 3.0670925725 2.9824256829 
3.0670925725 2.7796577579 3.0670925725 2.6652920329 3.0670925725 2.5796032105 3.0670925725 2.7396400706 3.0670925725 
2.8023070154 3.0670925725 2.8994454155 3.0670925725 2.9542265673 3.0670925725 2.9606338972 3.0670925725 2.7818266259 
3.0670925725 2.6426472334 3.0670925725 2.5447037124 3.0670925725 2.4911963603 3.0670925725 2.4397432863 3.0670925725 
2.5155741932 3.0670925725 2.5142713078 3.0670925725 2.5417538591 3.0670925725 2.7835287128 3.0670925725 3.0922217471 
3.0670925725 3.5019760417 3.0670925725 3.6195749864 3.0670925725 3.3799093422 3.0670925725 3.0888853333 3.0670925725 
2.8758747951 3.0670925725 2.7789987066 3.0670925725 2.7214426189 3.0670925725 2.6397113543 3.0670925725 2.5459378964 
3.0670925725 2.503392318 3.0670925725 2.4858509151 3.0670925725 2.4926154663 3.0670925725 2.5136460208 3.0670925725 
2.4955851504 3.0670925725 2.2481915333 3.0670931903 2.2613798825 3.0670939246 2.3321736073 3.0670945033 2.4404533883 
3.067093824 2.3543608619 3.0670929879 2.2916937323 3.0670925725 2.2199136125 3.0670925725 2.0678353969 3.0670925725 
2.0377643431 3.0670925725 2.0493840583 3.0670925725 2.234662216 3.0670925725 2.5202563889 3.0670925725 2.9724869928 
3.0670925725 3.0539435752 3.0670925725 2.9096352017 3.0670925725 3.0670925725 2.6221583415 2.3388691527 3.0670925725 
2.8568205788 3.0670925725 2.9090919006 3.0670925725 3.0629609683 3.0670925725 3.2475631387 3.0670925725 3.3148092255 
3.0670925725 3.2767608632 3.0670925725 2.8615226765 3.0670925725 2.5253885106 3.0670925725 2.3123822896 3.0670925725 
2.1488779362 3.0670925725 2.4151931947 3.0670925725 2.5993942859 3.0670925725 2.6866443013 3.0670925725 2.7447509614 
3.0670925725 2.8006918782 3.0670925725 2.6165336859 3.0670925725 2.4609720818 3.0670925725 2.6162506913 3.0670925725 
2.7821821215 3.0670925725 2.9910794443 3.0670925725 2.9096559845 3.0670925725 2.9985235284 3.0670925725 3.3267063518 
3.0670925725 3.1741703872 3.0670925725 3.0216043313 3.0670925725 2.7656329363 3.0670925725 2.8731443452 3.0670925725 
3.143835036 3.0670925725 3.535171561 3.0670925725 3.6997439541 3.06709256 3.5990174472 3.0670926513 3.3456789032 
3.067092598 3.4539959629 3.0670925725 3.7249427054 3.0670925725 4.1293011832 3.0670925725 4.3072420683 3.0670925725 
4.3480000985 3.0670925725 4.0949260774 3.0670925725 3.9343356836 3.0670925725 3.7169606635 3.0670925725 3.4682000386 
3.0670925725 3.257540522 3.0670925725 3.0897087157 3.0670925725 2.9407108903 3.0670925725 2.9129859611 3.0670925725 
2.7565811861 3.0670925725 2.454085542 3.0670925725 2.5797052848 3.0670925725 2.7218426895 3.0670925725 2.7306356815 
3.0670925725 2.5458122358 3.0670925725 2.2694997262 3.0670925725 1.9967716759 3.0670925725 1.7206697272 3.0670925725 
2.1482892236 3.0670925725 2.4396098406 3.553368212 3.4220468964 3.6159448643 3.4609382456 3.4027842227 3.457127472 
3.3005259389 3.0498692577 2.7621511386 2.6321399267 2.6296349375 2.7423375995 2.8109991504 2.8825070378 2.9727188001 
3.0546258888 3.0730789863 3.0801181567 3.0609791227 3.0402096862 2.9982955715 3.1936388592 3.0946754755 2.9924773017 
3.0209479756 3.2097908243 3.5838456091 3.7647104256 3.571691249 3.2518248064 3.0715487999 3.0326283534 2.9596901833 
2.8667864854 2.7287752145 2.7964181638 2.806435264 2.7669266312 2.711191276 2.689321213 2.5353456903 2.5802565244 
2.6952485052 2.7349645492 2.5364564451 2.5276242619 2.5269090702 2.4758133711 2.4335586024 2.3813715527 2.4348212974 
2.6693593377 3.2696536744 3.5945411412 3.4429991594 3.0836880497 3.4070675189 3.3005237846 3.4487358835 3.6380053384 
3.8031245842 3.8807581836 3.8701768668 3.3591822903 2.870486768 2.6346643867 2.4721787386 2.6211452684 2.7597385368 
2.8641163916 2.9189494006 2.9628085592 2.9013423441 2.8701679571 2.7931169159 2.9250427866 3.1141730438 3.0517262093 
3.2325775659 3.6064420322 3.3790735879 3.1098696381 2.8772902269 3.0398048356 3.3803610664 3.6516222856 3.8068245821 
3.6172084892 3.267390213 3.3944050391 3.8156451581 4.3376271007 4.4840675297 4.4360312499 4.2270733204 4.0227301645 
3.8351334616 3.5956399882 3.3612499689 3.1705456427 3.053108538 3.0272202858 2.9411639294 2.7676335206 2.9342270357 
3.0096537461 2.9512386943 2.7439977607 2.3776401677 2.0735992705 1.7863516868 2.3405705445 2.8244298197 3.137702664 
4.0624473054 3.9115193067 3.8207293318 3.6430609739 3.5206037303 3.2502194109 2.9704188267 2.7992329795 2.9411705037 
3.0887254334 3.1032194299 3.0386601219 2.8361175985 2.8491692009 2.9440839723 2.9916971046 3.0426933348 3.0745573411 
3.1245014085 3.2593026076 3.4854654701 3.224932989 3.3778533484 3.174297709 3.2484815616 3.5726083135 3.6496069358 
3.6186974004 3.2765130975 3.044933318 2.920894178 2.8227165073 2.8142750098 2.7207673911 2.7617011361 2.85154686 
2.8445654252 2.8085464502 2.6771831164 2.600403188 2.6463505565 2.8995586612 2.8661903376 2.2267801814 2.2981883572 
2.1919586064 2.3200294145 2.4205070442 2.4784099549 2.6240579022 2.7412966882 3.1075592505 3.4431749197 3.4843184279 
3.4798617609 3.7457902121 3.6413396108 3.8497990515 2.5491348798 2.7557801237 3.9054163059 3.7537955092 4.0596018337 
4.207885161 4.2585646762 4.2011982298 3.5852918491 3.017206493 2.5709232398 2.4245059634 2.6591567557 2.8114375874 
2.9117855589 2.9769493056 3.0032427656 3.1016719343 3.2889477158 2.9029046928 3.0571464076 3.2190910811 3.2074369627 
3.3489102905 3.6625272382 3.4411716819 3.1716060397 3.0215995039 3.1600776795 3.4082230123 3.6194076137 3.7097280071 
3.4306856926 3.1822880108 3.5380175947 3.8318725234 4.2206142455 4.2577300239 4.1926285821 4.0112462549 3.8342459131 
3.66403371 3.5047309259 3.2403385474 3.04112567 3.0776422772 3.0806076494 3.0761665326 3.1682196199 3.1673737198 
3.1940761449 3.0589927969 2.8838013561 2.6701698552 2.5690415049 2.410177963 2.7430606566 3.1194859271 3.3893533244 
3.5859131661 2.3863521045 2.6602087406 2.1145274906 2.0401394246 2.0478440134 2.2191800546 2.3358271895 2.4308289742 
2.6316458245 2.9158972815 2.9995174796 3.1819479515 3.3613454079 3.5645170285 3.745267835 4.2220664379 4.2431800101 
3.9052960791 3.667943054 3.4899131973 3.3255902372 3.0867318562 3.2675099706 3.3616065021 3.4429485153 3.3590535941 
3.1597699116 2.8777623109 2.835318774 2.8806198138 2.9266573955 3.0043580058 3.086208602 3.2531944655 3.4073404837 
3.659355532 3.985729724 4.2173450778 4.2317019782 3.8656272669 3.6211157499 3.4718569166 3.3457226683 3.3700643457 
3.5416552951 3.5393504713 3.4913407282 3.1847614885 2.92474666 2.7234060982 2.6776449656 2.6855537184 2.6482735929 
2.7143637859 2.8194990878 2.8200620513 2.7666297722 2.637394485 2.6318287667 2.7024532466 2.8909177959 2.9468480264 
2.9068378812 2.8867009911 2.5663868581 2.8601880774 2.3850729057 4.2004567009 3.9732828716 4.3897797839 4.3317692944 
4.2180582554 3.7525989647 3.2289574367 2.7453447482 2.3626721007 2.6952212859 3.0406935629 3.2605365718 3.4418491367 
3.4709965931 3.5863083488 3.7938097841 3.1265028061 3.2012693968 3.2130351843 3.3237958081 3.5329597607 3.7818279468 
3.5265092681 3.2199706215 3.0506565814 3.1638769605 3.3634363745 3.5067304777 3.5651639193 3.2939452799 3.2236902779 
3.555395157 3.8523930188 3.9645128532 3.960147271 3.9222004004 3.8220034231 3.6661758431 3.4847859977 3.3391553935 
3.1268552846 2.9181507302 3.0090117048 3.0446935149 3.0834699709 3.2114231257 3.2594232277 3.2114313444 2.9543260233 
2.8096082514 2.8059966153 2.9297250093 3.0694982752 3.3584445158 3.5364273543 3.4782065689 3.5426416601 3.7126050389 
3.520470233 3.6233204759 2.1945933195 2.1344709191 2.1388080178 2.3575071623 2.5326914032 2.7102762235 2.89766872 
3.0876839766 3.1158334055 3.0735249627 3.02495186 3.8370128248 3.3919982869 4.3688155752 4.1636824784 3.9307724396 
3.7188517361 3.502189478 3.3428720135 3.3582673599 3.8083959528 3.8144674526 3.7292371324 3.5540368751 3.2862081103 
3.0243552806 2.8875373347 2.825613616 2.8518260895 2.9556982213 3.2597814632 3.4406309452 3.5554256195 3.7523007866 
4.0049175626 4.274943493 4.2716513482 4.2427775025 4.2272090733 3.9727270909 3.759298979 3.6662501787 3.5109327411 
3.4522512937 3.5167846509 3.5269306084 3.4872442871 3.2537534084 2.9483880997 2.6635212717 2.5765370093 2.615676044 
2.7688877545 2.7760370461 2.7743316987 2.8466020105 2.874619105 2.7837897953 2.7644882115 2.7536583871 2.8468069307 
2.9781075537 3.1013304146 3.1592268226 3.1272308809 2.8165537057 3.1507538509 2.4383081652 3.3735850308 3.1607493965 
3.5820107696 3.6100812528 3.4810762642 3.3565481371 3.3120111728 3.3179385887 3.5054304109 3.7806590544 3.4836178207 
3.1312941667 2.876701341 2.9613166049 3.1424860314 3.2527803701 3.3819655282 3.2265212675 3.2963475291 3.5026476934 
3.5694526497 3.5991605228 3.6614202105 3.6818215767 3.6687590391 3.5125865443 3.3162727914 3.1635214415 3.000426307 
2.823782473 2.8837273734 2.9339380043 2.9559026294 3.0643147018 3.1017283155 3.0142564892 2.7494442375 2.5613766607 
2.692174449 2.9865065453 3.3873295356 3.553153117 3.4772403333 3.1988330865 3.3509308247 3.5900986928 3.8872111979 
4.0691923777 4.1374272442 4.1275580766 4.1162702766 3.7585383357 3.3906738181 2.9697019298 2.6242346758 2.965298888 
3.2718043625 3.5836346157 3.8280329204 3.7992189775 3.7418192121 3.7020495702 3.6529959176 3.5643823831 3.5591733412 
3.5798231347 3.5517240893 2.4012195917 2.3964581966 2.6419110636 2.9522873397 3.0196225413 3.0983749764 3.2073120811 
3.1947373399 3.0620337393 2.8234403018 2.7922879287 2.9371095049 2.894587646 3.1015379439 3.4619209803 3.9166083249 
4.0668247874 4.0127371748 3.9184971359 3.8121012689 3.6573853396 3.5602294407 3.7412157703 3.95048243 3.7538623649 
3.9625300821 3.4768674696 3.264010607 3.0787174132 2.8887723979 2.8187393343 2.8585193816 2.9732362346 3.6924186948 
3.5630550319 3.9916704561 3.9760519956 3.2640935752 3.0536521117 4.3369794234 4.0259723985 4.2386410914 4.0583367969 
4.0153303706 4.1384186914 4.13192798 3.9186713094 3.6722545787 3.5964366854 3.6101272569 3.5486153598 3.4652754176 
3.2961124928 3.063868863 2.7559487574 2.6244254265 2.5876218385 2.8233446784 2.9451791767 2.9155119629 2.976593447 
2.9948542753 2.9792593412 3.0450685391 3.0050838584 3.1085773072 3.0739673557 3.1684582122 3.2394208919 3.0869520255 
3.152669823 2.7532413933 3.4736418113 3.3662778879 3.3051483198 3.2914212123 3.4797965994 3.7353337962 3.3919976796 
3.079960934 2.8764956556 2.8574906923 3.0064604634 3.1532384054 3.2131262172 3.3436312302 3.2873205058 3.5095212453 
3.4335811779 3.384497736 3.4328537478 3.4577057064 3.449060152 3.3037820238 3.0859917138 2.994319753 2.9112786876 
2.7837067438 2.7644829846 2.7678476608 2.8196308601 2.8923817203 2.9409557776 2.8338462526 2.587928264 2.4896331528 
2.5723418789 2.9548370861 3.4177105323 3.3858968123 3.2675560021 2.9639845513 3.1051686428 3.4105486649 3.7356869149 
3.9899129753 4.1649174515 4.2106105676 4.1411290648 3.8282406959 3.5737446281 3.2760079825 2.949480996 3.091779639 
3.3368780546 3.445670446 3.615348253 3.706221381 3.7171657464 3.6719211247 3.5932801024 3.5398483729 3.5502298743 
3.6012612803 3.6722322963 3.4627183682 3.2476977707 3.1680475157 3.8865997339 3.7871532159 3.5932827089 3.7035195161 
3.4395928392 3.238749343 3.0037337678 2.703977972 2.6091259305 2.6243521715 2.8469569533 3.0105925606 3.0595026262 
3.0713903324 3.078110896 3.0938087636 3.1150759423 3.1385531528 3.1448246667 2.796524717 2.9298717451 3.2339373516 
3.253398524 3.1760557758 3.1137835324 3.0879627829 2.9895211332 2.8824061604 2.7692996257 2.8954707985 2.8690059689 
3.0185277471 2.7251752183 2.9873267799 3.5110695468 3.7683847695 3.7580884924 3.770795426 3.6492928301 3.6495298224 
3.8221192745 4.0250207366 4.0628155396 3.7823883502 3.8057509141 3.8481684123 3.8432912912 3.5915167358 3.2988480552 
3.0854320368 4.3606591271 3.9819318349 4.2653306983 3.6846616867 3.7232310075 3.992188554 3.3125735854 3.1832829224 
3.1473215765 3.341907258 3.5696146133 3.243233218 2.9756572162 2.9570201449 2.9678952662 3.0140702568 3.027000091 
3.3563331563 3.2862396762 3.3753347621 3.272749692 3.1995157539 3.2859620427 3.3283367129 3.3054095856 3.1541498867 
2.933168225 2.9120452458 2.8592336664 2.750999218 2.8290211285 2.7206690256 2.7839204448 2.8084857957 2.8058176606 
2.7076711584 2.6015963716 2.5551472192 2.4912004448 2.9523206459 3.3821231072 3.3420545688 3.2907771251 3.1501482744 
3.4370441703 2.9058538972 2.991195223 3.7580707084 3.8021724002 2.4790796326 2.5229879304 3.9351430604 4.1903398378 
4.2005579665 4.0650664554 3.7633101675 3.5131358367 3.2934351157 3.0657873496 3.1360820932 3.1741099771 3.2865642612 
3.3973436549 3.4998013299 3.5895787787 3.6087125064 3.5689852945 3.5141124047 3.5455611838 3.9053843181 2.8482399772 
2.8395095391 2.8522721615 2.8738875925 2.9646601914 3.21723272 3.0544417685 3.5452103143 3.1475867643 3.2741244904 
3.1208344082 3.2024734843 3.2552657314 3.2436249935 3.1362992077 2.8509317371 3.0322989018 2.9343947353 2.96484846 
3.0157309447 3.1842423619 3.344734737 3.4539021073 3.5534803226 3.4967230017 3.6158121633 3.6635334676 3.5886083957 
3.3791700048 3.1565340424 2.9821849977 3.5558561477 3.4232264379 3.2255596183 3.2132220466 3.3439782132 3.0754963968 
2.7712464581 3.6132807396 3.6993185181 3.8261279264 3.9664519312 2.8938005255 3.0812965452 3.3679680493 3.5279322023 
3.5355681283 3.4447537817 3.3263101178 3.1463238765 2.9288394802 2.8208571672 2.8393936396 2.8878313387 2.945464687 
2.9033138309 2.8776447513 2.8979134005 3.2220438649 3.1288174722 3.024670985 3.0416085639 3.3091638749 3.2673393887 
3.1492157468 3.3300847347 2.9684815845 2.9905276698 2.9101914759 2.8442036457 2.8221041269 2.8219097441 2.7663741718 
2.6796949452 2.654253868 2.6234423991 2.5586963401 2.4288586467 2.4976712798 2.3845399033 2.4912439475 2.6065379511 
3.0188714491 3.4526179636 3.5971764283 3.6317568433 3.7368248346 3.8416340688 3.7392526183 3.6713659626 3.5355349067 
3.4579320143 3.2458083319 3.0662752223 2.8231136752 2.5843023629 2.7762084999 2.6074711769 2.9178589841 3.0509022863 
2.99539291 2.9588471083 3.0325639432 3.079940118 3.1754529355 2.9596277891 2.9194765596 2.8140379992 2.7133102532 
2.6453632974 2.7673398692 2.6263650983 3.0593348202 3.3091883666 3.0508289514 3.2447970366 3.6437890644 3.3554778247 
3.7618703055 2.9009169425 2.9695219688 3.0982474143 3.2279368731 3.3752696183 2.4844259153 2.422872582 2.4810985244 
3.2080094347 3.2605839013 3.2271515678 3.0909812057 3.0891093597 3.1836796175 3.2735402325 4.0600373538 3.0387119016 

Total_Motion 1 1116 double
0 0 0 0 0 0 0 0 0 
0 0 0 0 0 0 0 0 0 
0 0 0 0 0 0 0 0 0 
0 0 0 0 0 0 0 0 0 
0 0 0 0 0 0 0 0 0 
0 0 0 0 0 0 0 0 0 
0 0 0 0 0 0 0 0 0 
0 0 0 0 0 0 0 0 0 
0 0 0 0 0 0 0 0 0 
0 0 0 0 0 0 0 0 0 
0 0 0 0 0 0 0 0 0 
0 0 0 0 0 0 0 0 0 
0 0 0 0 0 0 0 0 0 
0 0 0 0 0 0 0 0 0 
0 0 0 0 0 0 0 0 0 
0 0 0 0 0 0 0 0 0 
0 0 0 0 0 0 0 0 0 
0 0 0 0 0 0 0 0 0 
0 0 0 0 0 0 0 0 0 
0 0 0 0 0 0 0 0 0 
0 0 0 0 0 0 0 0 0 
0 0 0 0 0 0 0 0 0 
0 0 0 0 0 0 0 0 0 
0 0 0 0 0 0 0 0 0 
0 0 0 0 0 0 0 0 0 
0 0 0 0 0 0 0 0 0 
0 0 0 0 0 0 0 0 0 
0 0 0 0 0 0 0 0 0 
0 0 0 0 0 0 0 0 0 
0 0 0 0 0 0 0 0 0 
0 0 0 0 0 0 0 0 0 
0 0 0 0 0 0 0 0 0 
0 0 0 0 0 0 0 0 0 
0 0 0 0 0 0 0 0 0 
0 0 0 0 0 0 0 0 0 
0 0 0 0 0 0 0 0 0 
0 0 0 0 0 0 0 0 0 
0 0 0 0 0 0 0 0 0 
0 0 0 0 0 0 0 0 0 
0 0 0 0 0 0 0 0 0 
0 0 0 0 0 0 0 0 0 
0 0 0 0 0 0 0 0 0 
0 0 0 0 0 0 0 0 0 
0 0 0 0 0 0 0 0 0 
0 0 0 0 0 0 0 0 0 
0 0 0 0 0 0 0 0 0 
0 0 0 0 0 0 0 0 0 
0 0 0 0 0 0 0 0 0 
0 0 0 0 0 0 0 0 0 
0 0 0 0 0 0 0 0 0 
0 0 0 0 0 0 0 0 0 
0 0 0 0 0 0 0 0 0 
0 0 0 0 0 0 0 0 0 
0 0 0 0 0 0 0 0 0 
0 0 0 0 0 0 0 0 0 
0 0 0 0 0 0 0 0 0 
0 0 0 0 0 0 0 0 0 
0 0 0 0 0 0 0 0 0 
0 0 0 0 0 0 0 0 0 
0 0 0 0 0 0 0 0 0 
0 0 0 0 0 0 0 0 0 
0 0 0 0 0 0 0 0 0 
0 0 0 0 0 0 0 0 0 
0 0 0 0 0 0 0 0 0 
0 0 0 0 0 0 0 0 0 
0 0 0 0 0 0 0 0 0 
0 0 0 0 0 0 0 0 0 
0 0 0 0 0 0 0 0 0 
0 0 0 0 0 0 0 0 0 
0 0 0 0 0 0 0 0 0 
0 0 0 0 0 0 0 0 0 
0 0 0 0 0 0 0 0 0 
0 0 0 0 0 0 0 0 0 
0 0 0 0 0 0 0 0 0 
0 0 0 0 0 0 0 0 0 
0 0 0 0 0 0 0 0 0 
0 0 0 0 0 0 0 0 0 
0 0 0 0 0 0 0 0 0 
0 0 0 0 0 0 0 0 0 
0 0 0 0 0 0 0 0 0 
0 0 0 0 0 0 0 0 0 
0 0 0 0 0 0 0 0 0 
0 0 0 0 0 0 0 0 0 
0 0 0 0 0 0 0 0 0 
0 0 0 0 0 0 0 0 0 
0 0 0 0 0 0 0 0 0 
0 0 0 0 0 0 0 0 0 
0 0 0 0 0 0 0 0 0 
0 0 0 0 0 0 0 0 0 
0 0 0 0 0 0 0 0 0 
0 0 0 0 0 0 0 0 0 
0 0 0 0 0 0 0 0 0 
0 0 0 0 0 0 0 0 0 
0 0 0 0 0 0 0 0 0 
0 0 0 0 0 0 0 0 0 
0 0 0 0 0 0 0 0 0 
0 0 0 0 0 0 0 0 0 
0 0 0 0 0 0 0 0 0 
0 0 0 0 0 0 0 0 0 
0 0 0 0 0 0 0 0 0 
0 0 0 0 0 0 0 0 0 
0 0 0 0 0 0 0 0 0 
0 0 0 0 0 0 0 0 0 
0 0 0 0 0 0 0 0 0 
0 0 0 0 0 0 0 0 0 
0 0 0 0 0 0 0 0 0 
0 0 0 0 0 0 0 0 0 
0 0 0 0 0 0 0 0 0 
0 0 0 0 0 0 0 0 0 
0 0 0 0 0 0 0 0 0 
0 0 0 0 0 0 0 0 0 
0 0 0 0 0 0 0 0 0 
0 0 0 0 0 0 0 0 0 
0 0 0 0 0 0 0 0 0 
0 0 0 0 0 0 0 0 0 
0 0 0 0 0 0 0 0 0 
0 0 0 0 0 0 0 0 0 
0 0 0 0 0 0 0 0 0 
0 0 0 0 0 0 0 0 0 
0 0 0 0 0 0 0 0 0 
0 0 0 0 0 0 0 0 0 
0 0 0 0 0 0 0 0 0 
0 0 0 0 0 0 0 0 0 
0 0 0 0 0 0 0 0 0 

VAJ 1 1116 double
1 1 0 0 1 0 1 0 1 
0 1 0 1 0 1 0 1 0 
1 0 1 0 1 0 1 0 1 
0 1 0 1 0 1 0 1 0 
1 0 1 0 1 0 1 0 1 
0 1 0 1 0 1 0 1 0 
1 0 1 0 1 0 1 0 1 
0 1 0 1 0 1 0 1 0 
1 0 1 0 1 0 1 0 1 
0 1 0 1.0000004533 0 1.0000009635 0 1.0000013758 0 
1.0000010013 0 1.0000003375 0 1 0 1 0 1 
0 1 0 1 0 1 0 1 0 
1 0 1 0 0 0 0 0 0 
0 0 0 0 0 0 0 0 0 
0 0 0 0 0 0 0 0 0 
0 0 0 0 0 0 0 0 0 
0 0 0 0 0 0 0 0 0 
0 0 0 0 0 0 0 0 0 
0 0 0 0 0 0 0 0 0 
0 0 0 0 0 0 0 0 0 
0 0 0 0 0 0 0 0 0 
0 0 0 0 0 0 0 0 0 
0 0 0 0 0 0 0 0 0 
0 0 0 0 0 0 0 0 0 
0 0 0 0 0 0 0 0 0 
0 0 0 0 0 0 0 0 0 
0 0 0 0 0 0 0 0 0 
0 0 0 0 0 0 0 0 0 
0 0 0 0 0 0 0 0 0 
0 0 0 0 0 0 0 0 0 
0 0 0 0 0 0 0 0 0 
0 0 0 0 0 0 0 0 0 
0 0 0 0 0 0 0 0 0 
0 0 0 0 0 0 0 0 0 
0 0 0 0 0 0 0 0 0 
0 0 0 0 0 0 0 0 0 
0 0 0 0 0 0 0 0 0 
0 0 0 0 0 0 0 0 0 
0 0 0 0 0 0 0 0 0 
0 0 0 0 0 0 0 0 0 
0 0 0 0 0 0 0 0 0 
0 0 0 0 0 0 0 0 0 
0 0 0 0 0 0 0 0 0 
0 0 0 0 0 0 0 0 0 
0 0 0 0 0 0 0 0 0 
0 0 0 0 0 0 0 0 0 
0 0 0 0 0 0 0 0 0 
0 0 0 0 0 0 0 0 0 
0 0 0 0 0 0 0 0 0 
0 0 0 0 0 0 0 0 0 
0 0 0 0 0 0 0 0 0 
0 0 0 0 0 0 0 0 0 
0 0 0 0 0 0 0 0 0 
0 0 0 0 0 0 0 0 0 
0 0 0 0 0 0 0 0 0 
0 0 0 0 0 0 0 0 0 
0 0 0 0 0 0 0 0 0 
0 0 0 0 0 0 0 0 0 
0 0 0 0 0 0 0 0 0 
0 0 0 0 0 0 0 0 0 
0 0 0 0 0 0 0 0 0 
0 0 0 0 0 0 0 0 0 
0 0 0 0 0 0 0 0 0 
0 0 0 0 0 0 0 0 0 
0 0 0 0 0 0 0 0 0 
0 0 0 0 0 0 0 0 0 
0 0 0 0 0 0 0 0 0 
0 0 0 0 0 0 0 0 0 
0 0 0 0 0 0 0 0 0 
0 0 0 0 0 0 0 0 0 
0 0 0 0 0 0 0 0 0 
0 0 0 0 0 0 0 0 0 
0 0 0 0 0 0 0 0 0 
0 0 0 0 0 0 0 0 0 
0 0 0 0 0 0 0 0 0 
0 0 0 0 0 0 0 0 0 
0 0 0 0 0 0 0 0 0 
0 0 0 0 0 0 0 0 0 
0 0 0 0 0 0 0 0 0 
0 0 0 0 0 0 0 0 0 
0 0 0 0 0 0 0 0 0 
0 0 0 0 0 0 0 0 0 
0 0 0 0 0 0 0 0 0 
0 0 0 0 0 0 0 0 0 
0 0 0 0 0 0 0 0 0 
0 0 0 0 0 0 0 0 0 
0 0 0 0 0 0 0 0 0 
0 0 0 0 0 0 0 0 0 
0 0 0 0 0 0 0 0 0 
0 0 0 0 0 0 0 0 0 
0 0 0 0 0 0 0 0 0 
0 0 0 0 0 0 0 0 0 
0 0 0 0 0 0 0 0 0 
0 0 0 0 0 0 0 0 0 
0 0 0 0 0 0 0 0 0 
0 0 0 0 0 0 0 0 0 
0 0 0 0 0 0 0 0 0 
0 0 0 0 0 0 0 0 0 
0 0 0 0 0 0 0 0 0 
0 0 0 0 0 0 0 0 0 
0 0 0 0 0 0 0 0 0 
0 0 0 0 0 0 0 0 0 
0 0 0 0 0 0 0 0 0 
0 0 0 0 0 0 0 0 0 
0 0 0 0 0 0 0 0 0 
0 0 0 0 0 0 0 0 0 
0 0 0 0 0 0 0 0 0 
0 0 0 0 0 0 0 0 0 
0 0 0 0 0 0 0 0 0 
0 0 0 0 0 0 0 0 0 
0 0 0 0 0 0 0 0 0 
0 0 0 0 0 0 0 0 0 
0 0 0 0 0 0 0 0 0 
0 0 0 0 0 0 0 0 0 
0 0 0 0 0 0 0 0 0 
0 0 0 0 0 0 0 0 0 
0 0 0 0 0 0 0 0 0 
0 0 0 0 0 0 0 0 0 
0 0 0 0 0 0 0 0 0 
0 0 0 0 0 0 0 0 0 
0 0 0 0 0 0 0 0 0 
0 0 0 0 0 0 0 0 0 
0 0 0 0 0 0 0 0 0 
0 0 0 0 0 0 0 0 0 

vtkValidPointMask 1 1116 char
1 1 1 1 1 1 1 1 1 
1 1 1 1 1 1 1 1 1 
1 1 1 1 1 1 1 1 1 
1 1 1 1 1 1 1 1 1 
1 1 1 1 1 1 1 1 1 
1 1 1 1 1 1 1 1 1 
1 1 1 1 1 1 1 1 1 
1 1 1 1 1 1 1 1 1 
1 1 1 1 1 1 1 1 1 
1 1 1 1 1 1 1 1 1 
1 1 1 1 1 1 1 1 1 
1 1 1 1 1 1 1 1 1 
1 1 1 1 1 1 1 1 1 
1 1 1 1 1 1 1 1 1 
1 1 1 1 1 1 1 1 1 
1 1 1 1 1 1 1 1 1 
1 1 1 1 1 1 1 1 1 
1 1 1 1 1 1 1 1 1 
1 1 1 1 1 1 1 1 1 
1 1 1 1 1 1 1 1 1 
1 1 1 1 1 1 1 1 1 
1 1 1 1 1 1 1 1 1 
1 1 1 1 1 1 1 1 1 
1 1 1 1 1 1 1 1 1 
1 1 1 1 1 1 1 1 1 
1 1 1 1 1 1 1 1 1 
1 1 1 1 1 1 1 1 1 
1 1 1 1 1 1 1 1 1 
1 1 1 1 1 1 1 1 1 
1 1 1 1 1 1 1 1 1 
1 1 1 1 1 1 1 1 1 
1 1 1 1 1 1 1 1 1 
1 1 1 1 1 1 1 1 1 
1 1 1 1 1 1 1 1 1 
1 1 1 1 1 1 1 1 1 
1 1 1 1 1 1 1 1 1 
1 1 1 1 1 1 1 1 1 
1 1 1 1 1 1 1 1 1 
1 1 1 1 1 1 1 1 1 
1 1 1 1 1 1 1 1 1 
1 1 1 1 1 1 1 1 1 
1 1 1 1 1 1 1 1 1 
1 1 1 1 1 1 1 1 1 
1 1 1 1 1 1 1 1 1 
1 1 1 1 1 1 1 1 1 
1 1 1 1 1 1 1 1 1 
1 1 1 1 1 1 1 1 1 
1 1 1 1 1 1 1 1 1 
1 1 1 1 1 1 1 1 1 
1 1 1 1 1 1 1 1 1 
1 1 1 1 1 1 1 1 1 
1 1 1 1 1 1 1 1 1 
1 1 1 1 1 1 1 1 1 
1 1 1 1 1 1 1 1 1 
1 1 1 1 1 1 1 1 1 
1 1 1 1 1 1 1 1 1 
1 1 1 1 1 1 1 1 1 
1 1 1 1 1 1 1 1 1 
1 1 1 1 1 1 1 1 1 
1 1 1 1 1 1 1 1 1 
1 1 1 1 1 1 1 1 1 
1 1 1 1 1 1 1 1 1 
1 1 1 1 1 1 1 1 1 
1 1 1 1 1 1 1 1 1 
1 1 1 1 1 1 1 1 1 
1 1 1 1 1 1 1 1 1 
1 1 1 1 1 1 1 1 1 
1 1 1 1 1 1 1 1 1 
1 1 1 1 1 1 1 1 1 
1 1 1 1 1 1 1 1 1 
1 1 1 1 1 1 1 1 1 
1 1 1 1 1 1 1 1 1 
1 1 1 1 1 1 1 1 1 
1 1 1 1 1 1 1 1 1 
1 1 1 1 1 1 1 1 1 
1 1 1 1 1 1 1 1 1 
1 1 1 1 1 1 1 1 1 
1 1 1 1 1 1 1 1 1 
1 1 1 1 1 1 1 1 1 
1 1 1 1 1 1 1 1 1 
1 1 1 1 1 1 1 1 1 
1 1 1 1 1 1 1 1 1 
1 1 1 1 1 1 1 1 1 
1 1 1 1 1 1 1 1 1 
1 1 1 1 1 1 1 1 1 
1 1 1 1 1 1 1 1 1 
1 1 1 1 1 1 1 1 1 
1 1 1 1 1 1 1 1 1 
1 1 1 1 1 1 1 1 1 
1 1 1 1 1 1 1 1 1 
1 1 1 1 1 1 1 1 1 
1 1 1 1 1 1 1 1 1 
1 1 1 1 1 1 1 1 1 
1 1 1 1 1 1 1 1 1 
1 1 1 1 1 1 1 1 1 
1 1 1 1 1 1 1 1 1 
1 1 1 1 1 1 1 1 1 
1 1 1 1 1 1 1 1 1 
1 1 1 1 1 1 1 1 1 
1 1 1 1 1 1 1 1 1 
1 1 1 1 1 1 1 1 1 
1 1 1 1 1 1 1 1 1 
1 1 1 1 1 1 1 1 1 
1 1 1 1 1 1 1 1 1 
1 1 1 1 1 1 1 1 1 
1 1 1 1 1 1 1 1 1 
1 1 1 1 1 1 1 1 1 
1 1 1 1 1 1 1 1 1 
1 1 1 1 1 1 1 1 1 
1 1 1 1 1 1 1 1 1 
1 1 1 1 1 1 1 1 1 
1 1 1 1 1 1 1 1 1 
1 1 1 1 1 1 1 1 1 
1 1 1 1 1 1 1 1 1 
1 1 1 1 1 1 1 1 1 
1 1 1 1 1 1 1 1 1 
1 1 1 1 1 1 1 1 1 
1 1 1 1 1 1 1 1 1 
1 1 1 1 1 1 1 1 1 
1 1 1 1 1 1 1 1 1 
1 1 1 1 1 1 1 1 1 
1 1 1 1 1 1 1 1 1 
1 1 1 1 1 1 1 1 1 
1 1 1 1 1 1 1 1 1 

Stress_X_Pt 1 1116 double
-0.00098409099155 -0.00072466637357 -0.00059798656002 -0.00076350440213 -0.00037470288225 -0.00031798204145 -0.0001507204779 -0.00010186025338 1.6682553905e-05 
5.5382742175e-05 0.00012532622713 0.00015670056928 0.00023681357561 0.00023618307387 0.00036950300273 0.0003583931466 0.00042048376054 0.00045464323193 
0.0003545267391 0.00041775676073 0.00028563041997 0.00033976669511 0.00025905860821 0.00030378132942 0.00024250150454 0.00030353347029 0.00029252687091 
0.00036879420441 0.00036399102828 0.00044611657358 0.0002944268781 0.00041203683213 0.00013995502013 0.00028336975629 4.0418672143e-07 0.00012844087905 
-0.00010660819316 -1.1616214806e-05 -0.00013688109175 -8.827759234e-05 -8.2001075498e-05 -7.9070028733e-05 -3.0726860132e-06 -1.7289885136e-05 8.3469016317e-05 
5.6319574696e-05 0.00019979521312 0.0001597133587 0.00028819828003 0.00024721082445 0.00032882520463 0.00028243459747 0.00033529852226 0.00026422928931 
0.00025204691337 0.00015668294236 0.00012538298688 2.4219042643e-05 3.1871022657e-06 -8.545203309e-05 -0.00013765011317 -0.00018489581089 -0.00024576094438 
-0.00024865045634 -0.00030344630068 -0.00027795296774 -0.00034494692227 -0.00027725948166 -0.00031460201717 -0.00019999829243 -0.00019972256268 -7.2604554646e-05 
-0.00010494266826 2.6066531063e-05 -4.0302610387e-05 0.00011525513185 6.9471453799e-05 0.00026374446281 0.00024708543788 0.0004756864073 0.00054135191021 
0.00076046485628 0.00087894726312 0.0010316215921 0.0010508873384 0.0011112317152 0.0010407019872 0.00103415591 0.0010433861753 0.00095780716219 
0.0010837824666 0.00090313972032 0.0010053733713 0.00080646740389 0.00078933374607 0.00066789973062 0.00053829199169 0.00052288435836 0.00038649771886 
0.00044006880489 0.00036106695188 0.00044505044934 0.00036602960608 0.00046918600128 0.00027704342938 0.00040375608296 6.2790422817e-06 0.0001455856509 
-0.00036265492963 -0.00021679414567 -0.00077763042646 -0.00058131936021 0.00081081673852 0.00053313317767 0.00054872897454 0.00078810719424 0.00023538324604 
0.00030458083711 2.9887567507e-05 0.00014843182726 -0.00016687435709 -3.6034906316e-05 -0.00034871866228 -0.00023787349573 -0.00050015808665 -0.00039759976062 
-0.00058016928961 -0.00048482774582 -0.00057907015434 -0.00047948155407 -0.00051420697127 -0.00040284307033 -0.00038851096178 -0.00027187276828 -0.00025162814563 
-0.00012917884578 -0.00011161648399 -1.4193454263e-05 3.1269819374e-05 8.9691228823e-05 0.00017251440295 0.00019495196102 0.00034674852213 0.00032656714757 
0.00054669468955 0.00048078567488 0.00076813469059 0.0006593233702 0.00087576976512 0.00078975789074 0.00074042112101 0.00074492119893 0.00058004879975 
0.00063957227394 0.00047076279589 0.00055192279251 0.00030389579479 0.00040069261013 0.0001168680019 0.00019787406518 6.9959005486e-06 6.1753588852e-05 
7.3517857345e-05 0.00010240390247 0.0001935833061 0.00022046271988 0.00023254287953 0.00028468790697 0.00021927473426 0.00026210352371 0.00011687350343 
0.00016029455583 4.6978791943e-05 8.3608621935e-05 5.1636036005e-05 7.0268023592e-05 0.00016144463552 0.00015728747258 0.00034702643461 0.00032319599995 
0.00049023037718 0.00045082947327 0.00058192847064 0.0005381813753 0.00061616124003 0.00059718683769 0.00060156211839 0.00059734510432 0.00058255481417 
0.00057549355552 0.00057121258578 0.0005393231113 0.00051106062892 0.00044587704178 0.00044413431897 0.00036030624324 0.00038437820331 0.00032604797161 
0.00033610487299 0.00030606925429 0.0002551155485 0.00025625004855 0.00014141845531 0.00015650521709 2.0240235244e-05 2.5560792892e-05 -0.00013688097351 
-9.9247951766e-05 -0.00027925882023 -0.00019427018924 -0.00037258803786 -0.00025062584245 -0.0003452814708 -0.00018035321773 -0.00010836167712 7.3770775998e-05 
0.00026022225575 0.00045805941954 0.00065055214509 0.00087439669733 0.0011139104899 0.0012778527889 0.0013763816678 0.0013524141687 0.0011875938508 
0.0010566628043 0.00095453482936 0.00087765326316 -0.00020122495516 -0.00036485990495 -1.5568135495e-05 0.00012285219418 0.00020261708414 0.00024173505881 
0.00033250900015 0.00045619948651 0.00046923685295 0.0004061618165 0.00037557636097 0.00039610215026 0.00048201173922 0.00057529383048 0.00059050034906 
0.00050651409401 0.00034994782982 0.00018705121215 6.1563822555e-05 5.20199319e-06 2.8925654306e-05 8.1350204891e-05 0.00011581996387 0.00017628777277 
0.00019234412684 0.00013795202176 2.3068222617e-05 -9.3954023214e-05 -0.00017844924878 -0.00021623871362 -0.00020740993932 -0.00017519920584 -0.00010884152744 
2.1454444266e-05 0.00016443144335 0.00027454913652 0.00039872510388 0.00058342521515 0.00081267085625 0.0010402595944 0.0011775261664 0.0011352916772 
0.0009848162299 0.00077566399705 0.0006348758543 0.00052433753444 0.00047661543795 0.00046193856542 0.00047568980517 0.00051565865579 0.00055855297251 
0.00055023188179 0.0003597796167 5.1388627071e-05 -0.00023385713121 -0.00039610921158 0.00038628286711 0.00052721879911 0.0003058867951 0.00015720870715 
-4.8201144182e-05 -0.00021761984317 -0.00031484810825 -0.00030975936534 -0.00020157797167 -4.8915784419e-05 7.4741104072e-05 0.0001369642514 0.00018588724561 
0.00023376758327 0.00028705738077 0.00036279928463 0.00046636509796 0.00059661168052 0.00067281188967 0.00068042744533 0.0006498186267 0.00054541900317 
0.00033967081617 0.00016417327424 0.0001784797023 0.00030518380663 0.00039293543523 0.00036740292126 0.00026746279764 0.00018289650689 0.00014279131392 
0.00018705218281 0.00031327184115 0.00041968884761 0.00050565324636 0.00057479213865 0.00057482985721 0.00053409219254 0.00046309824393 0.00034433934343 
0.00025219161762 0.00024911719083 0.00027372968179 0.00027043396767 0.00019312731092 7.5976842709e-05 1.2043430615e-05 -2.6937721941e-05 -3.1679088806e-05 
9.9912826045e-05 0.00037171377335 0.0007414798747 0.0010738816636 0.0012290211307 0.0010731648945 0.0007909204287 0.00071336768451 0.00068216235377 
6.5637995249e-05 -8.4840222371e-05 0.00018144860405 0.00023555502776 0.00025748171902 0.00030467105535 0.00038199896517 0.0004082537489 0.00038599399704 
0.00038535064232 0.00042096618563 0.00051721959608 0.00064388789178 0.00069930680911 0.00064710821607 0.00052009871433 0.00038128062442 0.00027106121888 
0.00019729593259 0.00018211833958 0.00020019223484 9.7967686088e-05 0.00010397655569 8.6298100086e-05 3.9418971483e-05 -2.9420359169e-05 -9.9851658888e-05 
-0.00015129480562 -0.00014395146991 -8.43039561e-05 -2.4870596462e-06 0.00010070892586 0.0002386425067 0.00037974481165 0.00051253913261 0.00065698409162 
0.00081889932335 0.00099383216002 0.0011367672996 0.0011776742467 0.0010887382377 0.00093114534684 0.00075796035526 0.00035255996772 0.00043930736865 
0.00035215324169 0.00041214993689 0.00048469941976 0.00053838953318 0.00057240048773 0.00058889835782 0.00050977268984 0.00030849303312 4.6278291848e-05 
-0.00016755307388 -0.000202376792 0.00013525202121 0.00021343759363 0.00053306076734 0.00058106446522 0.00035472554009 0.00038614336518 0.00026278539372 
0.00010810691674 -4.062915059e-05 -0.00012791554082 -0.00013218350136 -2.6921755762e-05 0.00014766929985 0.00024507049238 0.0002511249586 0.00026018348217 
0.0002686538719 0.00025828854996 0.00026430418802 0.00030667454121 0.00038902043598 0.00054160378204 0.0006273540057 0.00065950067074 0.00061244161043 
0.00043808370538 0.00026367429382 0.00028072411806 0.00040502741467 0.00048701484047 0.00047851819545 0.00039165425551 0.00030791991594 0.00025874175117 
0.00027914516613 0.0003686760756 0.00045060852426 0.00051843257097 0.00054581678705 0.00050737346464 0.00045166561176 0.00038157405652 0.00028689705141 
0.00022390526647 0.00023355471058 0.00027788023726 0.00029587543395 0.00024478871637 0.00018263603124 0.00016353327192 0.00014102733758 0.00016104148153 
0.00031301392119 0.00057826739794 0.00085374833725 0.00097128395282 0.00085933096125 0.0006499246083 0.00053864473011 0.00054625789926 0.00053435490554 
0.00045085293823 0.00034885391869 0.00040569879638 0.00025731262576 0.00020518711244 0.00026518007144 0.00040132863069 0.0005326795872 0.00060945868609 
0.0006240055227 0.00062161790265 0.00061349580938 0.00054661179456 0.00029177284086 -5.392075127e-05 -9.0740165888e-05 2.3650197818e-05 0.0001384470952 
0.00023382635845 0.00027795907226 0.00027926167968 0.00028791238583 0.00030791241443 0.00031515072624 0.00031618524372 0.00033515712857 0.00038987387961 
0.00049411948567 0.00064555897552 0.00075538735837 0.00074952347495 0.00065951872966 0.00054531569185 0.00045506727474 0.00038376465818 0.00033672732388 
0.00032926053245 0.00031532073626 0.00020654376567 0.0002813466308 0.00013646496336 6.0606173975e-05 1.0169741927e-05 1.5055154563e-06 -1.0489577335e-05 
-4.3067565912e-05 -7.7842614701e-05 -7.9932632843e-05 -2.3826018378e-05 7.7832628449e-05 0.00019736334889 0.00032367037784 0.00045070887427 0.00057011614263 
0.00071846965875 0.00087768908998 0.0010011279956 0.0011037819204 0.001172367658 0.0011614599207 0.0010595506901 0.00090878810443 0.00075791649579 
0.00059686302848 0.00041595518269 0.00022577555865 0.00024299952565 0.00022043302306 0.00032338457822 0.00035784998181 0.00024312852474 0.0001600455912 
0.00011495825629 0.00011076962915 0.00016963679468 0.00030403917845 0.0003838101693 0.00035811365524 0.00032476496563 0.00029732423718 0.00024056684197 
0.00019735181195 0.00019434937713 0.00021283068418 0.00055696369964 0.00045804418187 0.00062320625875 0.00062126030389 0.00049833610683 0.00036700590135 
0.00039023727732 0.00048908852477 0.00055876992701 0.00056205091823 0.00050110464508 0.00043374080997 0.00039150306839 0.00040453825204 0.0004595097198 
0.00049518345622 0.00050534598267 0.00046696094068 0.00040503237688 0.00036676625314 0.00031455449061 0.00025403315522 0.00022419906963 0.00024505614783 
0.00029673155223 0.0003265594205 0.00031395401675 0.00031238144948 0.00032997745802 0.00032857134283 0.00035865989048 0.0004959840735 0.00072285669739 
0.00088110397337 0.00084318172594 0.00064006853063 0.00041658332339 0.00035488716821 0.00040697550867 0.00041186063754 0.00036510424979 0.00034814656829 
0.00034455664718 0.00023340438565 0.00014275036847 0.00012411979151 0.00021137227304 0.0003770443509 0.00054845016712 0.00064983592893 0.00066614586103 
0.00065151766466 0.00065145277767 0.00068329360511 0.00064376954106 3.324401905e-05 2.2756145881e-05 0.00011922503518 0.00019506490571 0.0002785138131 
0.00031449540256 0.00030554659315 0.00028771680809 0.00026859455102 0.00025655067875 0.00025606811687 0.00027068382769 0.00033688794065 0.00045160957961 
0.00059087963018 0.0007345580525 0.00080139824422 0.00076371841715 0.0006828802987 0.0005669035163 0.00048427405272 0.00042120169383 0.00042539649439 
0.00041219130071 0.00036624958011 0.00022540640202 0.00030405442158 0.00014675396778 6.70765221e-05 5.3449415039e-06 -3.5386324726e-05 -2.4035773208e-05 
-2.7384498139e-05 -5.2223029797e-05 -4.5435824063e-05 6.8657972179e-06 0.00010482619723 0.00024123571711 0.00039590852612 0.00053961676895 0.00063427473651 
0.00069985893788 0.00083371685469 0.00099884107476 0.0010931529105 0.0011322455539 0.0011261558975 0.0010641940462 0.00097299767367 0.00088929223906 
0.00076993691619 0.00060515348741 0.0004224661534 0.00025979935526 0.00011781181274 0.00013514394414 0.00010655194092 0.0002089206555 0.00051419435476 
0.00030600620084 0.0002358581005 0.00041080796655 0.00049356891395 0.0005640918971 0.00059600695386 0.00053168513114 0.00045724274969 0.00049317900994 
0.00056862478959 0.00061981177714 0.00062494842859 0.00058576755691 0.00054855594499 0.00054984066519 0.00052917186986 0.00053963450773 0.00051866001013 
0.0004570458841 0.0003660391958 0.00031904351636 0.00030303683161 0.00026240075749 0.00023697712822 0.00023439831784 0.00026166905081 0.00032022099913 
0.00037405556213 0.00041027377301 0.00046286132419 0.00051688195526 0.00053733571986 0.00056141023379 0.00065258666291 0.00080790223728 0.00088511158538 
0.00078357511666 0.00056226838933 0.00032890540751 0.00024141979884 0.00028668278901 0.00030108702413 0.00027565956043 0.0002983064478 0.00034218507062 
0.00034970442357 0.00033745283872 0.00033321636147 0.00034981872886 0.00036511770304 0.00038841972128 0.00043703641131 0.00046415880206 0.00042441973346 
0.00036604446359 0.00031280300755 0.00024199708423 0.00018148822346 0.0001488723392 0.00014697607912 0.00016517564654 0.00020281668913 0.00025445080246 
0.00024464728631 0.00028703867186 8.595280633e-05 0.00016544272876 0.00033489467387 0.00052131813572 0.00065267273749 0.00069901636743 0.00068729861232 
0.00067896320252 0.00071283661237 0.00075456839113 0.00071193622716 0.00046227714483 0.00064656912582 0.00023106350091 0.00013082309579 0.00015859859286 
0.00020803613734 0.00026848899142 0.00031692089397 0.00033686824463 0.00033165103378 0.00030547782808 0.00026974469074 0.00025356015976 0.00022197401995 
0.00021892151926 0.00028667777588 0.00042634078272 0.00054533993049 0.00063984724693 0.00079012259084 0.00081443313684 0.00079413823551 0.00051055157383 
0.00059937247715 0.00023917089857 0.00025202160032 0.00069502847327 0.0007731012447 0.00044281029113 0.00049747106823 0.00037146991963 0.00024010735797 
0.00032319670572 0.0001497251742 6.2058622461e-05 -1.1875701603e-05 -2.1461672645e-05 -4.7464581894e-05 -4.3561738948e-05 1.7345989022e-05 0.00010867100821 
0.00023037866049 0.0003859971257 0.00056314645917 0.00070553582918 0.00075141665002 0.00076626916416 0.00087458528287 0.0010294550011 0.0011016943026 
0.0010935845494 0.0010277484544 0.00087335308781 0.00081116675574 0.00062169364537 0.0004405192376 0.00028417248905 0.00016243546997 7.5308972555e-05 
0.0001065665947 6.7280451731e-05 0.00036268895201 0.00043664184341 0.00050715866382 0.00056189167663 0.00054294352594 0.00052019659779 0.00057497493981 
0.0006310454919 0.00065733192605 0.00066195476393 0.00064186223608 0.00063369415875 0.00065682851709 0.00057765029487 0.00061773360358 0.00050172066403 
0.00038737717841 0.00028647782892 0.0002587315721 0.00024839207254 0.0002230924656 0.00022569311477 0.0002420463461 0.00027586168289 0.00037029107334 
0.00046543109784 0.00054688628734 0.00063620232686 0.00070719410724 0.00073154397251 0.00073778365913 0.00077098413021 0.00087696412811 0.00089032870892 
0.00075738012674 0.00052123760543 0.00028452977858 0.00016689371114 0.00017370943897 0.00018796218683 0.00018464338609 0.00024407201272 0.00032364485378 
0.00036762645323 0.00039630196989 0.00044218740368 0.00050116918283 0.00053713277885 0.0005466290022 0.00054170764633 0.00051980523858 0.00046066968935 
0.00039016509982 0.0003267964712 0.00026073881236 0.00020065551871 0.00014732314412 0.00014259893032 0.0001622758391 0.00017818500783 0.00022001623438 
0.00028337116237 0.00025986699984 0.00031251064502 0.00065564773104 0.0007043856458 5.0244091199e-06 -3.4259335962e-05 0.00010104611238 1.7535770894e-05 
0.00020748815587 0.00034248600423 0.00050419780746 0.0006855394895 0.00081196241081 0.00083681419492 0.00082654494327 0.00090574997012 0.0010214651265 
0.0010719441925 0.0010370632372 0.00094039004762 0.00080160956713 0.00063659946318 0.00064341873804 0.00013032639345 0.00029238791467 0.00048137611884 
0.00064128127997 0.00071898460737 0.00072723254561 0.0007115474873 0.0007189145108 0.00073449737101 0.0007232586795 0.00069045649434 0.00064867756737 
0.00067538850708 0.00050259632553 0.00032018978527 0.00025084693698 0.00026851370058 0.00030586509456 0.00033807915315 0.00035676713742 0.0003345436271 
0.00029722137697 0.00027042338479 0.00025838978763 0.00024650933847 0.00024258385383 0.00022492008065 0.00019470903862 0.00021027058756 0.00027446895183 
0.00042790605221 0.00048612336832 0.00057099302066 0.00042100143037 0.0001867658284 0.00031006671634 7.2825896041e-05 0.00038322812179 0.00045405211131 
0.00051488424651 0.00052758744278 0.00054574137903 0.00062439031899 0.00067502820457 0.00066330154368 0.00066703930497 0.00068788284261 0.00071260372351 
0.00057265009673 0.00065477304452 0.00045496896928 0.00032831107819 0.00024352152832 0.00021083016691 0.00019345026521 0.00018531377282 0.00021122929684 
0.00025303973962 0.00028335836638 0.00034404915641 0.00070948098437 0.00061023810849 0.00080497277668 0.00087033514865 0.00088510505157 0.00086708976596 
0.00085828900046 0.00089227806893 0.00069813226582 0.00087064644322 0.00045831291936 0.00023736085132 0.00012895445798 8.6992330509e-05 6.7749466254e-05 
9.4309908491e-05 0.00052464916371 0.00047559568338 -4.3914203616e-05 -4.9428647344e-05 0.00095847387274 0.00095893221442 0.00037739163236 0.00042865047726 
0.00048774118477 0.00056063984812 0.0006202619843 0.00064370287873 0.00062835315475 0.00057867776195 0.00049812599173 0.00041406122909 0.0003392573999 
0.00027210955523 0.00021994488998 0.00015847279246 0.00013751637744 0.00015903685562 0.00018276159972 0.00021382332488 0.00028376264527 0.00074961790233 
0.00061309126613 0.00081330788089 0.00080265889119 0.0007746113406 0.00072582202847 0.00071588155697 0.00067083731119 0.00029269462539 0.00040308681491 
0.00022657478257 0.00017250065503 0.0001375143529 0.00014578130322 0.00019105373212 0.00030085736944 0.00045766387484 0.00064401891723 0.0005354230525 
0.00043138356705 0.00034356881952 0.00027262214644 0.00022085201272 0.00017064993881 0.00018507855712 0.00021363253836 0.00019066891764 0.00019413729751 
0.00023113431234 0.0002939846745 0.00043432471284 0.00033228182001 0.00040672672185 0.00046589806152 0.00048452564079 0.00053163142002 0.00062691514904 
0.00066684899502 0.00037664220145 0.00037375808461 0.00033301331132 0.00030261492793 0.00055160674674 0.00040954123688 0.00035370199475 0.00036767040001 
0.00017517267164 0.00021051196745 0.00025764394013 0.00031837270217 0.00043568068213 0.00058364201686 0.00071813371324 0.00069061040995 0.00066971776929 
0.00068612273026 0.00071356158878 0.00072832377919 0.00070568249794 0.00073601846816 0.00012852275322 0.00027207970197 0.00045226994553 0.00063268918893 
0.00071855426359 0.00053150012536 0.00073129328666 0.00067726953421 0.00075976853259 0.00086076105072 0.00094065107987 0.00098541993066 0.00097968171758 
0.00093927273701 0.00091515868553 0.00091715650342 0.0009213915182 0.00098759018874 0.00092908354418 0.00093926432601 0.00079875451047 0.00061263866519 
0.00040078377788 0.00019092871953 8.2381342963e-05 9.5099443769e-06 -1.2151695572e-05 1.763441378e-05 -3.367917634e-05 1.8759791601e-05 9.0345671651e-05 
0.00017058217418 0.00029160020495 0.0004392627161 0.0006032800884 0.00077065952064 0.00089958932949 0.00089989689877 0.00093970680609 0.001007028055 
0.0010249884333 0.00096963651595 0.00086605807883 0.00077794575676 0.00010267271136 0.0010264920226 0.0010042325011 0.00095559460169 0.00093286327319 
0.00093512671689 0.00052725688874 0.00069855272886 0.00035617699905 0.00022818309177 0.00057647681873 0.00048422798136 0.00036737785558 0.00041674706154 
0.00032794472645 0.00056247526663 0.00043600534264 0.00033838809031 0.00026975630681 0.00021731172455 0.00089509393729 0.00094837654615 0.00085381630925 
0.00070796571284 0.00064678674971 0.00036282504637 0.00027498536656 0.00018886052385 0.00013772215122 0.00042858377128 0.00037601952014 0.00073293388414 

Stress_Y_Pt 1 1116 double
-0.00066810310818 -0.00050939637003 -6.2646227889e-05 -0.00012742994295 -0.00026642402372 4.0933835407e-05 -0.00011310396985 0.00011283214826 -8.2169426605e-06 
0.00017445034609 0.00010659678264 0.00026545397213 0.00022477838502 0.00037428952783 0.00035943499824 0.00055299848464 0.00058753560006 0.00081216879335 
0.00076671483112 0.00098185740353 0.00074007388321 0.00097131212533 0.00057760487834 0.00083922479098 0.00041521436651 0.00068669843313 0.00031002960168 
0.00056514525204 0.00019499974587 0.00046192300579 7.8458528151e-05 0.00040076934238 4.520557377e-05 0.00041723213053 9.7828995422e-05 0.00047026290395 
0.0001680125788 0.00051303192231 0.00024464100716 0.00055548912496 0.00034839641012 0.00061693890166 0.00045478320681 0.00068040947372 0.00053309509531 
0.00067984325869 0.00059285276802 0.00063174606476 0.00063828963903 0.00057546317112 0.00068540748907 0.00055731248722 0.00069853471359 0.00056635764486 
0.00052195889293 0.00045996010886 0.00022586278283 0.00027412308737 -2.1759969968e-05 0.00013327393572 -0.00020508223679 4.8239475291e-05 -0.00029760121834 
1.6735568352e-05 -0.00034691339533 3.4754848457e-06 -0.00046512258996 -3.928438673e-05 -0.00054675640422 -6.4720516093e-05 -0.00048454478383 -3.3070580685e-05 
-0.00043512973934 1.002294448e-05 -0.00043191561417 6.8425048084e-05 -0.00037704665738 0.00017745153309 -0.00023599161068 0.00033256431925 2.9533555789e-05 
0.00054815465774 0.00036298752093 0.00080334124868 0.00072343257489 0.0010502130899 0.0011220893939 0.0012876675755 0.0015021691215 0.0015037368576 
0.001736770384 0.0016531352885 0.0017157096299 0.0016758164857 0.0014259061427 0.001532639988 0.0010040630877 0.0012496345007 0.00066359952325 
0.00094532981166 0.00043197111518 0.00069230108784 0.00025366280897 0.00048296263776 0.00012319927555 0.00032840316089 -2.7268761187e-06 0.00020700211826 
-0.0001755997182 9.6333578767e-05 -0.00047835984151 -4.5139320719e-05 0.00050847730017 0.00043504159839 0.00040243260446 0.00040085472574 0.00031407241477 
0.00038067053538 0.00022279335826 0.00038483578101 0.00010085766371 0.00033952969443 2.6157333195e-05 0.00028995982029 -2.8677319278e-05 0.0002548867169 
-8.4683328168e-05 0.0002327025577 -0.00010121447849 0.00025951107091 -4.8725151146e-05 0.00036292961966 6.7724276732e-05 0.0005360912827 0.00021918033599 
0.00072797476605 0.00039414926141 0.00087239583809 0.00057285412913 0.00097667399677 0.00076342720422 0.0010896126187 0.00096547976136 0.0012067763309 
0.0011946030427 0.0012975670979 0.0013426434598 0.0012810210756 0.0011964348378 0.0010754379473 0.00074188764847 0.0007175611172 0.00030259373307 
0.00040676824574 1.8214985175e-05 0.00022075983179 -0.0002498656504 6.0364409364e-05 -0.00045857283112 -7.3258379416e-05 -0.00052343026618 -0.00012842677097 
-0.00044652158977 -8.7444634119e-05 -0.00032788094541 -1.0245334124e-05 -0.0002719922195 4.6554712753e-05 -0.00032836761966 4.4782900659e-05 -0.00052970279648 
-4.370262468e-05 -0.00070284912363 -0.00014190631191 -0.00066929281456 -0.00015139488823 -0.00030162829285 1.5425332435e-05 -7.9851356759e-05 0.00018094928635 
2.4200562621e-05 0.00032018084312 0.00040831482329 0.0005911173721 0.00079919581185 0.00088298876653 0.00104702916 0.0010795144481 0.001072193787 
0.0011422812531 0.00094699469628 0.0011103867146 0.00085237500025 0.0010645198927 0.00082898978144 0.0010473007569 0.00076290080324 0.0010290886567 
0.00064726229175 0.00097598107823 0.00049141436466 0.0008666873473 0.00031179286452 0.00070238688568 0.00014550774358 0.00052490843518 -1.1702712072e-05 
0.00038934903387 -9.1290596174e-05 0.000318882172 -9.9564193079e-05 0.00027418217178 -9.5864455943e-05 0.00023555584448 -2.8102146644e-05 0.0002218230743 
7.4883951129e-05 0.0002210155285 0.00014501142141 0.00018535325944 0.00031245551509 0.00021870673663 0.00046796695096 0.00027595385836 0.0004212527565 
0.00021895595546 0.0004287478223 0.00026841180352 0.00035001405922 0.00034494633292 0.00036445318983 0.00040104701475 0.00048032682389 0.00060001779639 
0.00082118247519 0.0010890591511 0.0012496225536 0.0012754296476 0.0012112272379 0.0011053322814 0.0010146659624 0.0009689967992 0.00097228649247 
0.00099456196767 0.0009889693174 0.00096587232838 0.00094854399504 0.00094905933656 0.00094094160886 0.00081573057687 0.00066518284439 0.00054441517568 
0.00046949169337 0.0004296546831 0.00036327734415 0.00029266024285 0.00026677150527 0.00028611024754 0.00032647422631 0.00036450247717 0.00040763100696 
0.00047003173677 0.00053089275025 0.00059357520513 0.00069125405571 0.00083514681319 0.0010016435699 0.0011630632798 0.0013100973447 0.001405397139 
0.001438949781 0.0014471412404 0.0015781782276 0.0016537451593 0.0016497022589 0.0015066990745 0.0012513615366 0.00096748884243 0.00071012417902 
0.00052339008107 0.00039460677363 0.00033471456118 0.00033257580799 0.00034333281656 0.00043325976731 0.00035330966784 0.00052845646132 0.00055666640401 
0.00053788920923 0.00052485056221 0.00054729406838 0.00065372230893 0.0008702649211 0.0011517738167 0.0013925311796 0.001495509001 0.0015094054979 
0.0015029833012 0.0014638762514 0.0013544710528 0.0011579126294 0.00092320414842 0.0006949633098 0.00052034869441 0.00041943093674 0.00035145080619 
0.0002784124008 0.00021811374245 0.00022102466028 0.00026038621581 0.00031310394479 0.00036960476427 0.0004034421363 0.00040813540545 0.00039719285269 
0.00042179148295 0.00054805925174 0.00071126232797 0.00087090449233 0.0010334341932 0.0011526895396 0.001256547228 0.001353270316 0.0014166227193 
0.0014530269837 0.0014947743621 0.0015240563662 0.0014825250837 0.0013264563167 0.0011060436518 0.00092733574274 0.00078141776612 0.00064221168577 
0.00053571549506 0.00043481835019 0.00033010233165 0.00019442659504 0.00012383834655 0.00016626387514 0.00014066329732 0.00016491984115 0.00028773120721 
0.0004286511612 0.00037746430462 0.000485477045 0.00057084077707 0.00070768063597 0.00092213688185 0.0011618470598 0.0013128720457 0.001359736023 
0.0013504250383 0.0013222122216 0.0013245771115 0.0013581106323 0.0013625510619 0.0013037277386 0.0012146998197 0.0011519654072 0.0011158653942 
0.0010804045014 0.0010147374705 0.00089665461564 0.00052744802815 0.00059923972003 0.00046423616004 0.00038610301999 0.0002983342456 0.00024501322332 
0.00024000533085 0.00028356086841 0.00035260537697 0.00042179456068 0.00049685866543 0.00061166683736 0.00075609721534 0.00088060098642 0.00097474211361 
0.0010723044834 0.001194394601 0.0013251431519 0.0014210887311 0.0014381426154 0.0013860061881 0.0013012880518 0.0015622112551 0.0014688937517 
0.0015561274195 0.0014384909591 0.0012307232537 0.00097079775878 0.00071507322718 0.00051397675998 0.00036656472366 0.00030396433431 0.00028908671084 
0.0002745630627 0.00031143090018 0.00067155847501 0.0007582509279 0.0013210817706 0.0012266620179 0.00048065881856 0.00039768773422 0.00050767699577 
0.00050739065773 0.00051932818315 0.0005838949437 0.00074859186134 0.0010326201736 0.0013947214175 0.0016587915015 0.0017050006427 0.001639705355 
0.0015497748973 0.0014162285079 0.0012387156312 0.0010459382902 0.00082644813228 0.00065252558852 0.0005164785689 0.00041533147305 0.0003390376296 
0.00025199403535 0.00017982210557 0.00018145288777 0.00021756297792 0.00026779427208 0.00033031132625 0.00036857150553 0.00040274183993 0.00044706038898 
0.00054431689205 0.00068964842649 0.00082919216948 0.00097880602698 0.0011068086897 0.0012038535788 0.0013235037331 0.0014613772219 0.0015917559213 
0.0016978368512 0.0017819922359 0.0018491291557 0.0018381166738 0.0016807510692 0.00143435871 0.0011798783817 0.00092461983149 0.00070232841244 
0.00054804636602 0.00042987382039 0.00030174311541 0.00015820421686 0.00011852124589 0.00024496057449 0.00028028120141 0.00022537397308 0.00025438662851 
0.00031152935844 0.0012143845961 0.0012070463563 0.0012692566961 0.0013064558152 0.0012757877994 0.0011817331251 0.0010484970553 0.00087621108105 
0.00067540656892 0.00049896239943 0.00035844611557 0.00029081598041 0.00026200683496 0.00026797327882 0.00032139989344 0.00041075774061 0.00047459654888 
0.00053885228408 0.00062459880428 0.0007548143476 0.0009527689981 0.0011573907104 0.0012806401355 0.0013333926618 0.0013587719586 0.0013934838062 
0.0014600811992 0.0015301518142 0.0015267522831 0.0014377044863 0.0013400089811 0.0012872829975 0.0012497202842 0.0011823025998 0.0010840371542 
0.00097587989876 0.00085337727796 0.00063435312768 0.00071808559005 0.00055233386956 0.00047834109864 0.00042766446859 0.00039174193807 0.0003417816697 
0.00027219014373 0.000228115543 0.00024133008992 0.00030634782888 0.00040002633614 0.00050355765416 0.00061505337362 0.00074798878632 0.0009101057658 
0.0010826641374 0.0012084210466 0.0012754452473 0.001332454849 0.0014017758076 0.0014514170471 0.0014293664717 0.0013389929372 0.001257203141 
0.0012259762734 0.0012448811322 0.0012207647669 0.0012784377031 0.0011926492831 0.0004703769082 0.00043574021402 0.00050524317339 0.00057577558619 
0.00070345301356 0.00090764366905 0.001196211655 0.0015568344679 0.0018100508023 0.0017930114991 0.0016375898267 0.0014810700377 0.0013195604552 
0.0011634441034 0.0010064309754 0.0008669107774 0.00050641511189 0.00060875613417 0.00042324757669 0.00035540599492 0.00027454613883 0.0002099229132 
0.00020580061391 0.00022384827025 0.00026747110314 0.00032742332405 0.00036280163476 0.00039897550596 0.00045879546815 0.0005757859908 0.0007156150532 
0.0008295464213 0.00096562568797 0.001101258269 0.0012150500261 0.0013425544603 0.0014774906158 0.0016163878317 0.0017523727729 0.0018712964666 
0.0019640905666 0.0019735241658 0.0018354882777 0.0016124713584 0.0013651376648 0.0010920930072 0.0008365415415 0.00063086548471 0.00047767640353 
0.00031674038837 0.00015014173914 0.00011424270269 0.000228276298 0.00028655844653 0.00023786044403 0.00022425487259 0.00027469567067 0.00036196428846 
0.00070588458038 0.00079082022421 0.0011801512446 0.0011333125876 0.0010353744146 0.00090874401212 0.00080818260903 0.00071295195085 0.00058637124312 
0.00046665289847 0.00036148237268 0.00028951124841 0.00023807169418 0.00034002098982 0.00027601223701 0.00041894020978 0.00047951634042 0.00055393975344 
0.00064199946064 0.00076219788752 0.00092949529062 0.001085701253 0.0011451476021 0.0012212039728 0.0012758236262 0.0013506594987 0.0014378282358 
0.0015100447927 0.0015197408502 0.001464450761 0.0014110869379 0.0014061230933 0.0013161890092 0.0012100478634 0.0011230704064 0.0010592981271 
0.00095338183746 0.00081724621123 0.00058666551195 0.00067486926855 0.00051141304721 0.00045027119631 0.00040366998292 0.00036721483775 0.00035323698103 
0.00032086518331 0.00025573475796 0.00022255270233 0.00025597372587 0.00033275900205 0.00043861779704 0.00056397874869 0.00070633625728 0.00083898291632 
0.00096272004885 0.0011253637203 0.0012728441216 0.0013466763194 0.0013894468138 0.0014235996932 0.0014273723064 0.001388914272 0.0013312594189 
0.0012935943087 0.0012972452387 0.0013205456489 0.0013249005133 0.0012687759881 0.0012772439804 0.0012161870254 0.00022416797947 0.00018127415024 
0.00066369290289 0.00074314413359 0.00060697674053 0.00052777292149 0.00045614569535 0.00039233990537 0.00031086401941 0.00024580590252 0.00023086954025 
0.00022815437842 0.00025893115162 0.00031533519359 0.0003475111298 0.00037260752288 0.00043509333045 0.00055659539066 0.00067100887827 0.00077828370559 
0.0009238764178 0.0010782616155 0.001207451307 0.0013222040434 0.0014327076788 0.0015663309896 0.0017071547336 0.0018143694615 0.0018948481302 
0.0019226112054 0.0018300461234 0.0016624255513 0.0014630866353 0.0012235280592 0.00097715639276 0.0007358269504 0.00053218400717 0.00034890614552 
0.00018436635037 0.00015910807815 0.00023789861007 0.00027213378053 0.00024712345476 0.00022966717734 0.00026351640918 0.00034758328547 0.00042333234887 
0.00048019336828 0.00056791484531 0.00070889601193 0.00090650357015 0.0011483422713 0.0014239394804 0.0017098442186 0.0018885619065 0.0018371554033 
0.0016538520285 0.0014683973568 0.0012999648752 0.0011590142094 0.0010317488341 0.0009400867275 0.00089966726955 0.00086508259119 0.00071482489875 
0.00079710046703 0.00065247722281 0.0011530091288 0.0010097478953 0.00082640966866 0.00068862634362 0.00061076197017 0.00052936428983 0.00044154452917 
0.00036855702638 0.00031285754812 0.00028031520196 0.00022146325864 0.00019564747709 0.00017835765175 0.00026186141622 0.00031204315746 0.00037035208516 
0.00043044613267 0.00050337583525 0.00056867202511 0.00063039040833 0.00073615275323 0.00087650697969 0.00098708810401 0.00099803626654 0.0011323330982 
0.0010573611798 0.0012418992119 0.001359891874 0.0014431537517 0.001447709999 0.0014727230882 0.0014724377834 0.0015281033702 0.0011680417228 
0.0013171082828 0.00099785334896 0.00091825316485 0.0014850429434 0.0016413443955 0.0009054869879 0.0010688468901 0.00073601253098 0.00054880309472 
0.00062241415435 0.00047783629998 0.00041401252383 0.00037153102312 0.00035187456524 0.00027832567575 0.00021652751093 0.00020623090677 0.00026680021256 
0.00035653209488 0.00047402124619 0.00061118061421 0.00075458212814 0.0008787807601 0.00097236165311 0.0010952879093 0.0012420040439 0.0013364135521 
0.0013952080917 0.0014350205311 0.0014381433604 0.0013739911665 0.0014014831395 0.0014224554761 0.0013922409562 0.0012973304256 0.0011893931369 
0.0011920958641 0.0011952134373 0.00063298974419 0.00057114400261 0.00050702537555 0.00044510700536 0.00035677679261 0.00028419744922 0.00025971597643 
0.00023742240592 0.00024832953932 0.00030323334795 0.0003288570806 0.00034246121504 0.00038129979657 0.00062455466832 0.00053622644919 0.00074001707253 
0.00090310421365 0.0010617154767 0.001176519756 0.0012722635292 0.0013681837008 0.0014915268403 0.0016221799015 0.0017018379003 0.0017156359041 
0.0017663328908 0.0017252256512 0.001618633396 0.0014666991774 0.0012743852276 0.0010718593549 0.00086132035358 0.0006409572612 0.00039752915472 
0.00025652771001 0.00023469277949 0.00028442787152 0.00029493341572 0.00026827605689 0.0002398921788 0.00026471688398 0.00035883847886 0.00045540092833 
0.00054963654111 0.00067832309287 0.00086347210163 0.001096527878 0.001347796031 0.0015895804099 0.0018018713745 0.0019223117561 0.0018645147502 
0.0016972948506 0.0015221125504 0.0013567419373 0.0012118022714 0.0011027528963 0.0010519011266 0.0010234048095 0.00095721354592 0.00084636587417 
0.00072480342351 0.00075973969069 0.00068414042471 0.00047154507047 0.00043413236563 0.00035393149301 0.00027206379673 0.0002072315292 0.00020568825494 
0.00026871133741 0.00036301244836 0.00048532605433 0.00062977710331 0.00076127875946 0.00089055491844 0.00098328993772 0.0010832076077 0.001209972077 
0.0013200628164 0.0013964789687 0.0014436877973 0.0014653172693 0.001468225033 0.0014957775711 0.0010501345096 0.00085118427523 0.00067736131314 
0.00058464400354 0.00051665097999 0.00043828827911 0.00036834259663 0.00032937614014 0.00031664621929 0.00028358325289 0.00023340999542 0.0002188211256 
0.00022791240481 0.00026722521216 0.00031489194225 0.00035192140058 0.00041789987154 0.00049786137242 0.00058012796944 0.00069037935464 0.0008135054959 
0.00089153308363 0.00088370441517 0.00082890408521 0.00086772962823 0.00080747946049 0.00091386897839 0.00096044869861 0.0010549985745 0.0011869115406 
0.0013230474724 0.0009499098378 0.0012104733614 0.00077255396172 0.00041206720052 0.00053141965327 0.00037050685933 0.00062690484629 0.00057386449771 
0.00050885708333 0.00041141237307 0.00032456220652 0.00029329033714 0.00025942711363 0.00026823799271 0.00029619930865 0.00032283743349 0.00036232842831 
0.0006257318455 0.00055131872068 0.00073661954957 0.00089805982134 0.0010476424068 0.0011392240413 0.0012152786658 0.001304086094 0.00142786582 
0.0015602805361 0.0016318604272 0.0016030422994 0.0016066536773 0.0016284174053 0.001530649286 0.0014078698296 0.0012591528357 0.0011126281461 
0.00097532887594 0.00086223155085 0.0003133778373 0.00044301000162 0.00027411090559 0.00029786528467 0.00031900370232 0.00028826738708 0.00024759027656 
0.00028260568433 0.0015956832503 0.0015466006589 0.00021559126617 0.0002223615229 0.00062071361754 0.00080007189536 0.00063687362126 0.00076255676686 
0.00094564539904 0.001179990184 0.0014304519282 0.0016538836644 0.0018243966042 0.0019101703947 0.001865809114 0.0017371618305 0.0015888921334 
0.0014411196753 0.0013075636234 0.0011957896641 0.0011351971189 0.0011180783331 0.0010166776192 0.00088100844005 0.0007551888848 0.0015375440125 
0.0014922194532 0.0015382722098 0.0016225763829 0.0017501339898 0.0016937428154 0.001828818582 0.0014855929767 0.0008925369184 0.00074786991172 
0.0010303653544 0.0011043709819 0.0011511344637 0.0012343073031 0.0013587833091 0.0015012528282 0.0015020119899 0.0018758484221 0.0018343871925 
0.0017346295353 0.0016042984789 0.0014653060643 0.0013295676035 0.0012089213415 0.0010787720094 0.0009117139125 0.00094583469036 0.0010122547246 
0.0011243046029 0.0012594909349 0.0013908479305 0.00069232524838 0.00064835706144 0.00057738841861 0.00045680598851 0.00036301017099 0.00033427493327 
0.00029243298923 0.00061651578289 0.00073575961869 0.00080623886606 0.00079560441372 0.00032357870805 0.00034771133505 0.00040300822002 0.00050896778703 
0.0010257872636 0.0011258007435 0.0012586157536 0.0013980655058 0.0015321399842 0.0016233317438 0.0016566025442 0.0017860739899 0.00026157593432 
0.00028826454945 0.00031786310137 0.0003445134862 0.0005040856704 0.00047746919881 0.0010429651011 0.00086860237934 0.00069397080224 0.00057943530555 
0.00052107432566 0.00064271343581 0.00037002449001 0.0015232919541 0.0015374368522 0.0015090508969 0.0014404924004 0.0013539878419 0.0012469616486 
0.0011388657149 0.0010562825482 0.00099321026937 0.00093189910694 0.00077628456347 0.00085892833886 0.00062973301101 0.00047371373512 0.00035101739195 
0.00028629987355 0.00026276355202 0.00027233375658 0.00024513562312 0.00024506605405 0.00028460819885 0.00021575938445 0.00022909650943 0.00022551399161 
0.00022189923402 0.00027348266303 0.00036414853821 0.00048070876801 0.00062186951982 0.0010409848474 0.00099245444289 0.0011107554892 0.00119493698 
0.0013293919154 0.0014338538167 0.001475652447 0.0014871673969 0.0010980008228 0.001297066027 0.0012177044118 0.0011389236897 0.0010845296201 
0.0010491939029 0.00036634327989 0.00047999796516 0.0002843946495 0.00023849778518 0.00035742333663 0.00037493290438 0.00072336138692 0.00061949759256 
0.00073800395088 0.0017511572805 0.0016601898533 0.0015322347463 0.0013877836464 0.0012437523983 0.00075863453094 0.00074352919667 0.00062455736042 
0.00052934452348 0.0005738545151 0.00077199022053 0.00088189113012 0.00099969185248 0.0010615660188 0.0004534820182 0.00068040279439 0.00040301007539 

Stress_Z_Pt 1 1116 double
6.5714570155e-05 5.8416944739e-05 0.0005482865372 0.000601144965 4.4839184739e-05 0.00046391458682 3.8697457967e-05 0.00040782361657 7.2269194789e-05 
0.00039208454291 0.00013027223758 0.00041243409214 0.00022614598129 0.0004578199987 0.00037123844959 0.00055088674708 0.00052103688358 0.00065014023858 
0.00050430709962 0.00058190411073 0.00032637467666 0.00039080945862 0.0001704340284 0.00025394911972 7.0908514317e-05 0.00018040811847 6.9231380621e-05 
0.00016222800878 6.1047525378e-05 0.00015133248598 -9.0040222858e-05 0.00010021741036 -0.00025740490673 5.5411332141e-05 -0.00035281898454 3.0046496249e-05 
-0.00039068110345 1.6071157006e-05 -0.00032619973354 4.7011926654e-05 -0.0001216588862 0.00016791069356 0.00018141577311 0.00038659843995 0.00057777718757 
0.00067233678419 0.0010565864795 0.0010297130939 0.0014413257595 0.0013783285394 0.0015623610816 0.0015605812368 0.0013374160044 0.0014641296293 
0.00091457931558 0.0011677054281 0.00054756797908 0.00088489571499 0.00026453915052 0.00068039027974 1.9115275791e-05 0.00051295505364 -0.00017632753952 
0.00036314279532 -0.00036759550858 0.00022361594165 -0.00049067137297 0.00014363357332 -0.00041658613191 0.0001587252118 -0.00030990822415 0.00016610339662 
-0.00026573982905 0.00013934889284 -0.0002070927876 0.00013722379663 -0.0001161877808 0.0001633966931 -2.8773138183e-07 0.00018497439487 0.00013939599376 
0.0002062158037 0.00026281941973 0.00023589130069 0.00032598459802 0.00024254621894 0.00036433662171 0.00026592866561 0.00046507896332 0.0003706411735 
0.00061898157583 0.00049993209541 0.0007630463806 0.00059671818599 0.00081425986718 0.00065035324951 0.0007389607199 0.0006530364044 0.00064749905141 
0.00066436445923 0.00059084774693 0.00071182585089 0.00053665027372 0.00075425401155 0.00045545681496 0.00074556046457 0.00034157728078 0.00068037371966 
0.0002332340664 0.00061779771204 0.00013283298176 0.00060316985036 0.0014993044315 0.0010910943092 0.0011980825366 0.0014689178206 0.00057102166465 
0.00084285995399 0.00026026420528 0.00058502254251 5.9731340116e-05 0.00038598015408 -0.00011535160684 0.00022211132409 -0.00026811326825 0.00011069127868 
-0.00036794986227 5.2658244385e-05 -0.00042491707427 3.3159085433e-05 -0.00043114279106 3.4993623558e-05 -0.00036523470771 6.3297062297e-05 -0.00022031591652 
0.00011785845345 -4.9784900511e-05 0.00015803704218 7.8337291598e-05 0.00017374438312 0.00016491144925 0.00018758538135 0.00027203581703 0.00024776087594 
0.00044509505096 0.00037147582771 0.00069330746192 0.00054907838057 0.00091041135602 0.00071941172064 0.00092468684306 0.00078370279516 0.0008183538157 
0.00078857404878 0.00069552980131 0.00078174793452 0.00050055935571 0.00072162807191 0.00027924197639 0.00061566058503 0.00013776473861 0.00052761813822 
8.0371974036e-05 0.0005038985837 7.3803708801e-05 0.00054596251175 0.00011500812252 0.00062704832817 0.00017893016775 0.00067678096457 0.00022067406826 
0.00067260033757 0.00025618695508 0.00065719349004 0.00032336854201 0.00066714731656 0.00044060677465 0.00070439730916 0.00055924610933 0.00072839812492 
0.00070571037941 0.0007420933689 0.0008579424466 0.00076509435894 0.00093096919591 0.00078613430378 0.00094739501947 0.00079815689242 0.00096537920763 
0.00081496677012 0.00090383618954 0.00075643895252 0.00070543063339 0.00057055363141 0.00054384529358 0.00041890265857 0.00046981673222 0.00038455609319 
0.00042219797615 0.0003982021226 0.00032962788828 0.00039466447924 0.00017643035972 0.00032955497591 4.029660704e-05 0.00024437076172 -9.3071361334e-05 
0.000187711119 -0.00030434883956 0.00011410871957 -0.0004807143705 4.1942374082e-05 -0.00048956161481 4.9078444135e-05 -0.0003320176329 0.00016531188157 
-4.4772241381e-05 0.00041172937927 0.00040700972022 0.00080288902245 0.0010982879903 0.0013383995101 0.0016306906473 0.0017046440043 0.0016381293535 
0.0016643529816 0.0015516455169 0.0015482155723 0.0010476725729 0.0012092554971 0.00093959797232 0.00087709829677 0.00084131601034 0.00080384868488 
0.00079515192192 0.00078827199468 0.00065412848198 0.00044826737576 0.00030938216878 0.00023412806331 0.00020574565497 0.00021305312475 0.00026085263744 
0.00032911541348 0.00037195301411 0.00039963860763 0.00042709832633 0.00048617013817 0.00062507812981 0.00084488895955 0.0010924188828 0.001384901756 
0.0016051705461 0.0016339762951 0.0015067435743 0.0013668609899 0.0012887029734 0.001237128381 0.0011600340804 0.0010659889085 0.00098235908081 
0.00089213743922 0.00076580930909 0.00061461205769 0.00049267857685 0.00041312249959 0.00033602361509 0.00025451558395 0.00020564869919 0.00018619115872 
0.00020478016449 0.00029872925952 0.0004075233519 0.00046881492744 0.0005263465282 0.00060945058067 0.00075271568494 0.00093450355052 0.0011022890103 
0.0011899007368 0.0011767867254 0.0011775270104 0.0012629406701 0.0013157144422 0.0011955687078 0.0013465404336 0.0010134213226 0.00080895941937 
0.0006316909421 0.0005278358949 0.00048901102855 0.0004944339089 0.00049869457143 0.00046403281885 0.00039594723057 0.00030591522955 0.00022572092348 
0.00017860156731 0.00019825040727 0.00029216481562 0.00042754465539 0.00056528656569 0.00069228245411 0.00083036198339 0.00095126738597 0.0010345616465 
0.0010501177167 0.0010303595627 0.0010925539682 0.0012508669752 0.0013899323239 0.0014021644311 0.0013127596176 0.0012119809689 0.0011368487612 
0.0010811119719 0.000993581285 0.00084356316074 0.00070401406265 0.00063233927358 0.00061921941233 0.00062221603002 0.00056188940653 0.00040921781329 
0.00028696385561 0.00028697038215 0.00036237668974 0.0004520039729 0.000487168174 0.00048418989172 0.00051521242858 0.00056776631391 0.00061035084946 
0.00066294950375 0.00075418630149 0.00092781256535 0.0011794321181 0.0015041740553 0.0017472599866 0.0017122037243 0.0015596354206 0.0014542605786 
0.0011871533061 0.0012855296372 0.0011310213013 0.0010704708548 0.00098966430232 0.00091011017503 0.0008237066213 0.00066072439949 0.00045285928354 
0.00029305518183 0.00018842823192 0.00015615582743 0.00018839361655 0.0002404220686 0.00028803401801 0.00033154406992 0.00039080876013 0.00047009043192 
0.00056619114184 0.00069210630318 0.00081764362403 0.0014254442358 0.0011977092363 0.0015998625313 0.001655730448 0.00161794218 0.0015789475874 
0.0015828039905 0.0016119234788 0.0016049842816 0.0015257564373 0.0013904556981 0.0012346801523 0.0010545658151 0.00083626317792 0.00062185477145 
0.00045423865231 0.00034214173502 0.00027273780142 0.00023689329464 0.00022769451607 0.00023873231112 0.00025405870838 0.00047368784726 0.00039073645166 
0.00056478207989 0.00069071029429 0.00087834462465 0.001095907166 0.0012960828317 0.0014169309288 0.0014482185943 0.0014948178432 0.0015707509592 
0.0015674537572 0.0014415090263 0.0010000915208 0.00090032038861 0.00031065187068 0.00024799703169 0.0012077774736 0.0013579470979 0.0010088302806 
0.00080398203863 0.0006472224195 0.00056543757091 0.00053668767214 0.00051662938495 0.00046905218187 0.00036970497604 0.00025222300974 0.00017399771241 
0.00014645252304 0.00017487217337 0.00027785330894 0.00041646140016 0.00057594394893 0.00076896333485 0.00094220365281 0.0010888981924 0.0011906180007 
0.0012214783055 0.0012483822065 0.00139979698 0.0016396946157 0.0018039517454 0.001792758907 0.0016522418882 0.0014927810116 0.0013724036107 
0.0012798742682 0.0011413588654 0.00094124699535 0.00076315607294 0.00065090814314 0.00059662546846 0.00056044734083 0.00047485878895 0.0003444369213 
0.00025827097124 0.0002607236529 0.00033591035753 0.00042885691073 0.00048664874339 0.00054212732357 0.00060285287327 0.00064714434848 0.00071121059591 
0.00082124053733 0.00096344521444 0.0011223166366 0.001290741784 0.0015154446883 0.0017251135432 0.0017393259914 0.001627705351 0.0015391551715 
0.0014625946933 0.00026829490162 0.00022937799076 0.00033148545481 0.00044652113866 0.00060433050385 0.00078084082634 0.00098329673347 0.0011986247846 
0.0013870837283 0.0015313618642 0.0016418806626 0.0017333303986 0.0017488370882 0.0016308322374 0.0015012455406 0.0013611635077 0.001278750191 
0.0012509363587 0.0012081766035 0.00112192097 0.0010102055967 0.00086904369527 0.00068293855293 0.00048663729103 0.00032692392415 0.00021926948102 
0.00017031522293 0.00019046292073 0.00023640001746 0.00026763757705 0.00031969797419 0.00040903127228 0.00051966640603 0.00062972765591 0.00072346729576 
0.00080749696644 0.00087537693616 0.00096874707378 0.0009385021549 0.0010459615296 0.0011790400022 0.0013389891828 0.0014924976276 0.0016081335198 
0.0016606990248 0.0016791117087 0.0017224872136 0.0018043812888 0.0018670138088 0.0018447010661 0.0017194193788 0.0015289267467 0.0013134162873 
0.0010844317003 0.00084579223767 0.00062036711461 0.00044974475895 0.00035137688246 0.00030204854556 0.00026730409081 0.00024208645846 0.00023131418493 
0.00021531287348 0.00020523350395 0.00024366821162 0.00024163523995 0.00025407872454 0.0011614809337 0.0013387295476 0.00097180668672 0.00080502557103 
0.00069011547021 0.00061012373772 0.00053911804571 0.00048075121595 0.00039069796185 0.00025874960193 0.0001650975064 0.00014493600247 0.00017225065676 
0.00025498180548 0.00034952501301 0.00043868958892 0.0010200459365 0.00084311298269 0.0011863233522 0.0013085330429 0.0013697243994 0.0014487465378 
0.0016487003886 0.0019100355858 0.0020746139053 0.0020496959332 0.001892220258 0.0017040353268 0.0015439757262 0.0014018077927 0.0012128525123 
0.00098474144761 0.00079859727703 0.00068394027767 0.00060638951254 0.0005216302452 0.00040019221342 0.00028609081346 0.00023207669801 0.00024379097522 
0.00031835721893 0.00040618552885 0.00047816558072 0.00057839950023 0.00068104552338 0.00075231783558 0.00084093913028 0.00099243062141 0.0011910554022 
0.0013876385347 0.0015452408988 0.0016705243615 0.0017345024389 0.0017347579997 0.0017235202831 0.0016848224623 0.0016009502579 0.001484262757 
0.00067836478411 0.00054421738605 0.00032123665005 0.00048249866086 0.0006845445605 0.00087033638556 0.0010547810234 0.001247096312 0.0014312606945 
0.0015987756487 0.0017585833848 0.0019034746801 0.0019576928462 0.0014840551594 0.0016184226552 0.0013540121436 0.001293416688 0.0012935050763 
0.0012806311424 0.0012156368175 0.0010971368174 0.00093341952015 0.00071700019762 0.0005076193047 0.00035866715189 0.00025364961402 0.00019758882263 
0.00018458753402 0.00020088124802 0.00022981582515 0.00030610612885 0.00044629852637 0.00056871979905 0.00066329444235 0.00072143312233 0.00078107224545 
0.00085920386482 0.00092672664323 0.0010169216112 0.0010033265862 0.0010368113872 0.0010910449782 0.0011487552353 0.0012448753405 0.0013851373224 
0.0015225610405 0.0016262863646 0.0016873761197 0.0017517793167 0.0018542628968 0.0019596404454 0.0019937055185 0.001901431795 0.0016945646785 
0.0014334255829 0.0011990275234 0.00099382709595 0.0007766916533 0.00057778237533 0.00043220977386 0.00034575199243 0.00029208871274 0.00025420056287 
0.00023702848193 0.000214490894 0.00020062618205 0.000227612647 0.0003391414939 0.00029550832915 0.00034183280513 0.0017421495868 0.0019427014631 
0.00073980898014 0.0006389056507 0.0009010128415 0.001081365408 0.0012649453711 0.0014156718971 0.0015066878404 0.0016108689597 0.0018288028368 
0.0020951767801 0.0022524112137 0.0022181794047 0.0020558233082 0.0018598090974 0.0016456163954 0.0014255845163 0.0012164503278 0.00099476116884 
0.00081488722935 0.00069383565278 0.00060310674598 0.00048206310748 0.00034369707282 0.00025637917133 0.0002236102082 0.00023623694142 0.00030324947875 
0.00038796744047 0.00048493820213 0.00062763181631 0.00077477877494 0.00089209082944 0.0010070422722 0.0011744069343 0.001394188439 0.0016103267553 
0.0017475319037 0.0017716937 0.0017037218204 0.0016574033943 0.0017134090012 0.0017440998054 0.0016565979749 0.0015120872122 0.0013617514342 
0.001206987421 0.0010564125259 0.00092067112564 0.00080809606879 0.00070101021265 0.00058341166005 0.00047343174811 0.00037091171544 0.00025640537569 
0.00017144153026 0.00014967213428 0.00017349012342 0.00023146706008 0.00029666806222 0.00038010191201 0.00048017801601 0.00058897426061 0.0007447815442 
0.00069941220863 0.00077663530828 0.00051961107965 0.00072908886068 0.0009110874671 0.0010680519626 0.0012523124169 0.0014583136362 0.0016472429561 
0.0018198582402 0.0019854571729 0.0021174696158 0.002168736537 0.0020061063697 0.0022098096088 0.0017838673957 0.0016129554133 0.0014650151134 
0.0013553769968 0.0013156535279 0.0013119179833 0.0013048350811 0.0012614450534 0.0011615557305 0.0010074737365 0.00084297957073 0.00035230127833 
0.00047066654952 0.00025873525374 0.00021438154363 0.00019338297231 0.00019041498599 0.0002132315567 0.00029516927316 0.00039567417844 0.00073568218795 
0.00066881901876 0.00060192618548 0.00071079996997 0.00059059776686 0.00050664635637 0.0009046196501 0.00083226880815 0.00096717102861 0.0011154942913 
0.0010657962121 0.0011258069426 0.0011225200433 0.0011691539257 0.0012832941138 0.0013845220674 0.0015189932892 0.0016081546491 0.0017077255761 
0.0018282452074 0.0019583865651 0.0020342869102 0.0019627042057 0.0017258393636 0.0014216247073 0.0011865090055 0.0010226180311 0.00084717903519 
0.00066343715298 0.00050133365585 0.00036456743837 0.00027759326622 0.00024429645055 0.00021696053591 0.00021902365552 0.00025631235985 0.00042427375593 
0.00035300557647 0.00049614138698 0.00091130609508 0.0010993820906 0.001309111336 0.001499091275 0.0016179052764 0.0017398732307 0.0019667838933 
0.0022163473768 0.0023502616677 0.0023233920219 0.0021760025411 0.0019897207967 0.0018316470378 0.0011752136052 0.0013762928138 0.00098619345226 
0.00082862352428 0.00070279848296 0.00058373574575 0.00044465790415 0.00031768278859 0.00024793597549 0.0002192801112 0.00022761760556 0.00029979999235 
0.00040351368079 0.00052844048332 0.00070101050369 0.00086932974227 0.0010085361137 0.0011421401286 0.001312608103 0.0015580762643 0.0017494659696 
0.0018431631906 0.0017865014379 0.0016499287449 0.0015736169589 0.0016242283455 0.0016673289938 0.0015711496817 0.0014175707765 0.0012897896813 
0.0011721246119 0.0010556090856 0.00095323030837 0.00086480847676 0.00076285254909 0.00062517312472 0.00048021073599 0.00035628587648 0.00025041554181 
0.00018437430481 0.00017306135123 0.00020307354134 0.00025421847749 0.00030300097569 0.00038065596891 0.00047129757877 0.0005433648621 0.0006251809391 
0.00081134859647 0.00072881228698 0.00088123223395 0.0015573350538 0.001716017694 0.0012167355453 0.0013006165682 0.001540940284 0.0014525424631 
0.0016496830794 0.0017733450804 0.0019053354918 0.0019944741798 0.0019285229209 0.0016638935311 0.0013640090765 0.001138707361 0.00098264886765 
0.00084308149235 0.00069567287574 0.00054862846446 0.00043030623783 0.00029665457259 0.00035644938907 0.00069875142071 0.00087955154595 0.0010406979563 
0.0012426763424 0.0014672153047 0.001694865129 0.0018646080862 0.0020113986684 0.0021554685663 0.0022550410358 0.0023033708567 0.0023087716545 
0.0023629638366 0.0021178750321 0.0018470592331 0.0016189077578 0.0014749728143 0.0013851942786 0.0013314495736 0.001303122699 0.0012138709426 
0.0010655164369 0.00090758399165 0.00077909897664 0.00061108155933 0.00066262781911 0.00052206088003 0.00041689936188 0.00032996566733 0.00024595457944 
0.00020446395501 0.00088820971723 0.00079238227336 0.00095938328013 0.0012909249868 0.0011818514904 0.0012530876265 0.0010662092682 0.0013027690875 
0.00153559717 0.0016990570584 0.001844323735 0.0020834646421 0.0023121646955 0.0023203267483 0.0022200179519 0.0020863189711 0.0019629817107 
0.0011423368123 0.0013225666189 0.00097365380498 0.00083335481759 0.00070471064828 0.00056705171301 0.00043129325059 0.00031635988853 0.00025157066557 
0.00022680212714 0.00022420832829 0.00025643214758 0.00059705936292 0.00046506977378 0.00076339795487 0.00092273020709 0.0010666137678 0.0012091170356 
0.0013657040254 0.0015207943216 0.001857287687 0.0018358991656 0.0017532474594 0.0016119388747 0.0015546304639 0.0015656852047 0.0015612212592 
0.0014750449627 0.00037002351019 0.00030591324321 0.0013834898709 0.0013890876435 0.0017545502633 0.0016680131666 0.0010997539794 0.0010053635197 
0.00091768009588 0.00084150735347 0.00074781129661 0.000619254919 0.00047640718549 0.00034687257721 0.00024618405587 0.00019797431014 0.00020310595937 
0.00024511526499 0.00030774604238 0.00035010003921 0.00038647886443 0.00043769385957 0.00049332353228 0.00056392372062 0.00084903214884 0.00023152523136 
0.00019780050934 0.00028306478634 0.00033311722655 0.00040600228385 0.00059315460385 0.00046385116002 0.00069662698661 0.00083153495507 0.00095835776301 
0.00070421572309 0.00056141873938 0.00043051461398 0.00032097976509 0.00024849879264 0.00023604132293 0.00025845866912 0.00033787555003 0.00024310872686 
0.00020591257635 0.00021950853261 0.00026633145171 0.00033369137236 0.00038743902405 0.00041716781561 0.0005065834921 0.00044449006236 0.00038991700421 
0.0003161628556 0.00023538805908 0.00019631178293 0.00099106736016 0.0012621493661 0.0015235274914 0.0017316922604 0.001911449217 0.0021498054266 
0.0023271676037 0.0013858189632 0.0012935471023 0.0011335608724 0.00097827312129 0.0021493637469 0.0018702985253 0.0016460058978 0.0014966131712 
0.0003928009149 0.00036432986235 0.00029395462116 0.00022500887644 0.00020128078177 0.00021591335462 0.00026402935691 0.00030582598265 0.0022971518338 
0.0022348032217 0.0021350535681 0.0020207369525 0.0014843671233 0.0016069831036 0.00061541262548 0.00083285111759 0.0010206599138 0.0012433103402 
0.0014487642329 0.001107439457 0.0019104910704 0.00042727700929 0.00052870960644 0.00065658916719 0.00079904573795 0.00094584946055 0.0010851338156 
0.0012203048391 0.0013535922044 0.0014798585617 0.0016032009153 0.001811748516 0.0017477852525 0.0018600806652 0.0018699308566 0.0018279247743 
0.0017108983593 0.0015639533056 0.0015094646369 0.0014860532247 0.001469895069 0.0013878128666 0.001430182873 0.001440641965 0.0014728394162 
0.0015332149342 0.0016288494517 0.0017433614703 0.0018561206525 0.0019287305768 0.0013446852972 0.0015211405698 0.0011400390358 0.00097642338369 
0.00084053196479 0.00069188702037 0.00056153585319 0.00046954979189 0.00046587745601 0.00094319152413 0.0010400332976 0.001183440414 0.0013388473017 
0.0014558406547 0.0017710029206 0.0018524781917 0.001657834975 0.0015645838963 0.0021083516379 0.0019071435963 0.0012043416791 0.0014553283341 
0.0010460742633 0.00023252715982 0.00020346352176 0.00022222148618 0.00027429002876 0.00034290346957 0.0018890640349 0.0018945457026 0.0018984597991 
0.0014170227417 0.0012795760413 0.000932320836 0.00082532428496 0.00067306860001 0.0005528110972 0.0016986129922 0.0010322172893 0.0018424934533 

Stress_XY_Pt 1 1116 double
0.00062566710403 0.00051037430239 0.00032084992381 0.00038583701462 0.00032996486698 0.00020779513034 0.00022328163323 0.00013011201554 0.0001648026373 
8.938582414e-05 0.00013234885409 6.8107602957e-05 9.1856378276e-05 3.5639870831e-05 3.6380262372e-05 -1.1027645996e-07 7.136850536e-05 2.4206981152e-05 
0.0001600075484 5.6279782711e-05 0.00018343134434 2.5624509362e-05 0.00013576037236 -4.3193753299e-05 7.922390796e-05 -0.00010183430641 6.7507575295e-05 
-0.00012232694826 4.3711748731e-05 -0.00015088667351 -1.8152142729e-05 -0.000207153671 -7.1693688369e-05 -0.00025402818392 -0.00012409898045 -0.00029343345523 
-0.0001894193847 -0.00031978836341 -0.00021681658836 -0.00029606389944 -0.00018892532535 -0.00022175404592 -0.00013070798013 -0.00011528057348 -6.5116832047e-05 
-1.7267024305e-05 8.0016725406e-06 6.1715567426e-05 8.7512611572e-05 0.00013059831963 0.00012759200763 0.00016388104996 0.00010924783055 0.00015322188665 
2.2609414373e-05 8.1531362412e-05 -0.00010689121154 -3.6498011468e-05 -0.00020487570146 -0.00013724943801 -0.00024182726338 -0.00019054793847 -0.00024080957519 
-0.0002117484546 -0.00026001840888 -0.00023739659446 -0.00028079441108 -0.00026175899984 -0.00024638381728 -0.00025732177164 -0.00021816524531 -0.00026298350349 
-0.00025065191585 -0.00031581556323 -0.00032067697612 -0.00040187743434 -0.00041501069791 -0.00050949688011 -0.00052746044821 -0.000637725243 -0.00067860892159 
-0.00078694683907 -0.00083515237202 -0.00090769605595 -0.00087802176131 -0.00092053717526 -0.00082081666915 -0.00084101171524 -0.00075009916327 -0.0007199303509 
-0.00061563981581 -0.00052929021331 -0.00038820512418 -0.00027239466681 -0.00014838515563 -3.0526678074e-05 6.3620824221e-05 0.00014965288028 0.00023544592841 
0.00027155321732 0.00033971898665 0.00033923117735 0.00037205702392 0.00034699648677 0.0003502418549 0.00029568554964 0.00034437065187 0.00024766866045 
0.0004153092741 0.00027054136081 0.00055161917408 0.00034571075958 -4.3901252866e-05 -4.601200817e-05 -9.2553535978e-05 -3.4393566239e-05 -2.6692156553e-05 
-0.00012087734672 5.499565259e-05 -8.716310208e-05 0.00012146510926 -4.4783273552e-05 0.00014748153626 -1.9095743482e-05 0.00014820265642 -1.2183634681e-05 
0.00012057284403 -2.774668792e-05 7.579641715e-05 -5.3668270084e-05 7.2913369877e-05 -3.7433491343e-05 0.00013654750728 4.7808255658e-05 0.00023844791576 
0.00016210322337 0.00028933596332 0.00021622301938 0.00022949612321 0.00017577808285 0.00011137522233 8.4768450506e-05 -3.0709627026e-05 -2.7702480111e-05 
-0.00013038921315 -0.00012536478789 -0.00018609390827 -0.00021652120995 -0.00020181407308 -0.00028281067716 -0.0001655094602 -0.000275209135 -0.00013314665557 
-0.00022327712577 -0.00011902789265 -0.00017863444373 -0.00015823876311 -0.00018031648142 -0.00024139548623 -0.00022401595925 -0.00027925797622 -0.00024867580942 
-0.00024429982295 -0.00020572107678 -0.00017210243095 -0.00011835527175 -0.0001262313599 -6.3208545498e-05 -0.00015280451044 -8.938524411e-05 -0.00023164572485 
-0.00018019628078 -0.0003135818406 -0.00027588096054 -0.00029198049015 -0.00029886272023 -0.00024615225993 -0.00027752072856 -0.00022547172557 -0.00024394645516 
-0.00013085138198 -0.00017403749735 -7.5410625868e-06 -8.7758641712e-05 6.6742433773e-05 -2.5613177968e-05 5.7113975345e-05 -1.7579865016e-05 -1.2872162188e-05 
-5.6289421991e-05 -0.00011812934463 -0.00012007589248 -0.00015338108642 -0.0001421123161 -7.8207209299e-05 -8.989635171e-05 -2.7783607948e-06 -2.6647606319e-05 
1.8782030565e-05 -3.963331892e-06 1.0950220712e-06 -2.3571438078e-05 -3.4096210129e-05 -6.5466297883e-05 -1.7601628315e-05 -7.2174135767e-05 6.9629554673e-05 
-3.7811699713e-05 0.00014705854846 -1.7603371816e-05 0.00017025316629 -2.1044845198e-05 0.00015237255138 -4.2727857362e-05 0.00010598502195 -8.6996520622e-05 
2.6860204343e-05 -0.00014164805771 -4.061186246e-05 -0.00015564736486 -3.1175515346e-05 -5.0695748371e-05 -5.0134123398e-05 5.1855737354e-05 -0.0001211068884 
2.2700291083e-05 -9.9570392194e-05 -1.4599155293e-05 5.8414708974e-05 0.000103203045 1.6375416863e-05 -1.579054242e-06 -8.1703097834e-06 -2.7272630732e-05 
-4.0952778363e-05 -4.6422538162e-05 -0.00010616167174 -0.00021625551199 -0.00031449011294 -0.00038216411485 -0.00042156238487 -0.00045154291001 -0.00048035092186 
-0.00050245732564 -0.00051497979439 -0.00048297478497 -0.00038730155211 -0.00024732279053 -8.9641066211e-05 4.8169360798e-05 0.00011909257046 0.00014536616072 
0.0001573634454 0.00017098036005 0.0001526613305 7.535446548e-05 -1.7431624201e-05 -8.4439415787e-05 -0.00012714835157 -0.00016620712631 -0.00021053490491 
-0.0002582268462 -0.00032109370659 -0.00041370722465 -0.00053223577561 -0.00066275145218 -0.00079514013487 -0.00091513722145 -0.00098185625393 -0.00095810723724 
-0.00085678638425 -0.00067374550272 -0.0004455873277 -0.00017658433035 8.259973356e-05 0.00026107988742 0.00034889995004 0.00037635526678 0.00034932605195 
0.00026153945873 0.00016135117039 0.00011498947242 0.00011456381435 0.00012042170056 -0.00020706937721 -0.00013293279881 -0.00023767060702 -0.00023983192659 
-0.00022545343381 -0.00020898844014 -0.00019629589224 -0.00018005634774 -0.00013385590319 -2.9389163501e-05 8.4032252744e-05 0.00012585017066 0.000100479514 
4.1162108346e-05 -4.2700266249e-05 -0.00014970847042 -0.00027357142608 -0.00036807552533 -0.0003756204751 -0.00030678523035 -0.0002302394023 -0.00018130113676 
-0.00016466552734 -0.00016294451962 -0.00011677652265 -2.6805121706e-05 3.0078103237e-05 7.1887809554e-06 -8.0800695741e-05 -0.0001782560812 -0.00024587174266 
-0.00027347318974 -0.00027014821899 -0.00024964251497 -0.00020701929316 -0.00015511462698 -0.00012081464411 -0.00011505685688 -0.00012038312161 -0.00011857246318 
-0.00010119971375 -7.2419451499e-05 -5.5612208598e-05 -6.7228404987e-05 -0.00010538191782 -0.00014433522665 -0.00017921973995 -0.00022071601052 -0.00025180817465 
-0.0002750923959 -0.00030538708961 -0.00031711295014 -0.00025924291913 -8.6897313849e-05 8.4924536168e-05 0.000109320712 4.4962727316e-05 -3.6843627186e-05 
-9.8769278836e-06 2.4715821787e-05 -2.4519727504e-05 -2.7268779377e-05 -3.8944792323e-05 -5.6225705521e-05 -9.206539562e-05 -0.00018566461586 -0.00031426849455 
-0.00042413610936 -0.00050869543338 -0.00057320957421 -0.0006125565269 -0.00062062744109 -0.00061587319942 -0.00059751670051 -0.00052984365175 -0.00040227049612 
-0.00023939787934 -8.9985169893e-05 2.2496914198e-06 8.9995083727e-05 0.0001078553596 7.545167864e-05 0.00010620064586 0.00014500790166 0.00012419155064 
5.616433964e-05 -8.2393469256e-06 -5.5329568795e-05 -0.00010971739539 -0.00018639139307 -0.0002768466984 -0.0003739637832 -0.00048139642604 -0.00060545210727 
-0.0007358823932 -0.00084738599253 -0.00092636825866 -0.00095782999415 -0.0009171628044 -0.00080973988224 -0.00067290551669 -0.00015943369772 -0.0003962872579 
0.00010403742226 0.00030723500822 0.00040871403326 0.00042606953502 0.00038340893661 0.00029122534761 0.00018153653946 0.00010660620683 7.8860146459e-05 
7.6201504271e-05 6.170755023e-05 8.9361825303e-05 3.769077739e-05 -0.00052744580898 -0.00052698191575 -0.00024544020562 -0.00019055939993 -0.00027866695018 
-0.00028734205989 -0.00027195326766 -0.00023101039187 -0.00016894788496 -9.056477802e-05 4.2394362936e-06 7.8350974945e-05 9.0706387709e-05 5.7648273696e-05 
3.3303240343e-07 -8.5938703933e-05 -0.00018814412942 -0.0002820742302 -0.00033512353548 -0.00033519222052 -0.0002762697477 -0.0002005651404 -0.00013476947242 
-9.292325376e-05 -7.5487372669e-05 -3.800613149e-05 2.770637866e-05 6.6706735197e-05 5.0796365485e-05 -1.067625135e-05 -8.8585647063e-05 -0.00015652198454 
-0.00022244110733 -0.00028008136724 -0.00029404673114 -0.00025745523453 -0.00019943736697 -0.00015686566621 -0.00013878068057 -0.00012340510693 -0.00010660634689 
-0.00010039237168 -9.7133624877e-05 -9.1848161901e-05 -9.343693273e-05 -0.00011517039638 -0.00015879305647 -0.00021238469708 -0.00026569486363 -0.0003071168685 
-0.0003332557244 -0.00034285386209 -0.00031761961145 -0.00023020830486 -9.7225746686e-05 7.9920091594e-06 4.6218516218e-05 2.2796114195e-05 -3.8563858993e-05 
-0.00011554458069 -0.00039575558912 -0.00038962240069 -0.00029828887273 -9.8540526778e-05 0.00012781802161 0.00030903127117 0.00040498413728 0.00042024901632 
0.00037949781836 0.00030070256616 0.00020376187604 0.00012290196537 7.6640682528e-05 6.0089294493e-05 5.2292426517e-05 2.4047819984e-05 -1.1759655813e-05 
-3.1720438528e-05 -3.7657872781e-05 -4.9463616051e-05 -7.3486347901e-05 -0.00011744493713 -0.00020146429597 -0.00031909206882 -0.00043834977987 -0.00054095515225 
-0.00062702294963 -0.0006849472702 -0.00069789864938 -0.00068080527126 -0.00063121401763 -0.00052663325914 -0.00037944165524 -0.00023026669805 -0.00011692006501 
-4.9375903927e-05 -1.8210504095e-05 3.355720105e-05 -1.2531948641e-05 6.4898556047e-05 7.0072002927e-05 4.0796544283e-05 1.3544088517e-05 4.1507505557e-05 
0.00010356789426 0.00012053866521 7.521716816e-05 1.5209167714e-05 -4.0057673914e-05 -0.00011036057549 -0.00021205411394 -0.00033433784847 -0.00044891339348 
-0.00054179959261 -0.00063055320061 -0.00072654213 -0.000813439372 -0.00087074324256 -0.0008792978042 -0.00082703254884 -0.00072171000647 -0.00059393707488 
-0.00046679069055 -0.00035255719558 -0.00028405653575 -0.00026926262944 -0.00030507079403 -0.0002857362706 -0.00024035378738 -0.00031123429653 -0.00030131557287 
-0.00024676286193 -0.00016209314708 -6.2450083533e-05 2.0018735995e-05 4.8892274663e-05 3.0495322335e-05 -1.0772044106e-05 -6.7364732558e-05 -0.00014090802142 
-0.00020792655778 -0.00026255440753 -0.00029345034272 -0.00022499097395 -0.00028064774233 -0.00015171020641 -8.2534600097e-05 -3.919210053e-05 -2.3152765948e-05 
5.3911156783e-06 5.3328303693e-05 7.9930261563e-05 7.0076696829e-05 2.841853393e-05 -3.2963821013e-05 -0.00010395054051 -0.000190421968 -0.00027083392706 
-0.00029703150358 -0.00025906604787 -0.0001994296872 -0.00016852176122 -0.00015842443463 -0.00013612477596 -0.00011348082808 -0.00010796008974 -0.00010648862917 
-9.8924469057e-05 -9.7688127425e-05 -0.00011465187345 -0.00015298278959 -0.00020707267686 -0.00026427843841 -0.00031373460661 -0.00035259180731 -0.00035462873348 
-0.00029609899138 -0.00018884460769 -7.1641853879e-05 4.3611313458e-06 2.8139243796e-05 1.3390932622e-05 -3.0891812116e-05 -0.00010227366784 -0.00017956105876 
-0.00029960118263 -0.00029188326153 -0.00023183480153 -9.7054386515e-05 6.678739328e-05 0.00021186734921 0.00030727113699 0.00034410095395 0.00033112723759 
0.00028528174153 0.00021927946 0.00014881328207 0.00010450167247 5.7152694353e-05 6.0957953792e-05 2.8069816835e-05 -7.7629633779e-06 -2.8437580113e-05 
-3.7354960568e-05 -5.1369345783e-05 -7.578156783e-05 -0.00011410399202 -0.00019566888222 -0.00031731345371 -0.00043907815416 -0.00055437839183 -0.00064528203802 
-0.00069836276816 -0.00071122994996 -0.00068909484253 -0.00061942460889 -0.0004612406774 -0.00030945561593 -0.00019846284704 -0.00013610716511 -9.849748858e-05 
-6.8892451054e-05 -6.383271284e-05 -2.8660908129e-05 -7.4775723078e-05 3.0834401059e-06 2.25544768e-05 3.5216369118e-05 9.575496108e-06 -1.2104487894e-05 
6.2857714056e-06 6.3243248178e-05 8.89979965e-05 5.7457135426e-05 6.590423709e-06 -5.1054944379e-05 -0.00013229489377 -0.00025072362769 -0.00038098712685 
-0.00048924879957 -0.00055685201369 -0.00060377609043 -0.00065762041777 -0.0007104332617 -0.00074261669943 -0.00073440185224 -0.00069232341775 -0.00065078235154 
-0.00054759258637 -0.00042650364048 -0.00032169939368 -0.00025190439919 -0.00021782877229 -0.00020144342488 -0.00021729006767 6.1492709392e-05 8.0568470366e-05 
-0.0002643476073 -0.00028207591095 -0.00023781404161 -0.00017924567874 -0.00010616537929 -3.6335447021e-05 3.0627863907e-06 1.1042745541e-05 2.8975504733e-05 
6.8018125603e-05 9.3801347248e-05 8.8553762907e-05 6.1712562911e-05 1.9506909666e-05 -4.2201833185e-05 -0.00015376829833 -0.00023220634466 -0.00025572271625 
-0.00023247535137 -0.0002003623631 -0.00018783175619 -0.00017818421475 -0.0001499330574 -0.00012432335279 -0.0001154452566 -0.00010816787471 -8.8437672275e-05 
-8.406064353e-05 -0.00011126031313 -0.00015361784608 -0.00020467751892 -0.00025264268697 -0.00029595384694 -0.00034241783578 -0.00034236306965 -0.00027102002787 
-0.0001621569063 -4.9063143933e-05 1.1999435856e-05 1.0136269793e-05 -1.2882094552e-05 -4.38816312e-05 -0.00010585780637 -0.00017821999063 -0.00023183656594 
-0.00027339984808 -0.00029964026908 -0.00029301336326 -0.00024884297454 -0.00018257611737 -0.0001047020437 -4.5971650707e-05 -3.7277662614e-05 -6.6518973199e-05 
-0.0001099637293 -0.0001584209931 -0.00020681144451 -0.00024328208383 -0.00027779553784 -0.00029848992563 -0.00031397254497 -0.00032793537684 -0.0002610859483 
-0.00030268408591 -0.00024082603826 -0.00014175247179 -3.618322171e-05 6.9707878538e-05 0.00016400514596 0.00022803782122 0.00025159363213 0.00024630231928 
0.00021680497593 0.0001687926233 0.00013011455849 0.00010436722187 6.1038427702e-05 8.2210559412e-05 5.505752415e-05 6.510980802e-05 5.4537844335e-05 
1.9738491005e-05 -1.053171502e-05 -2.3692569812e-05 -2.9944642392e-05 -4.2806728743e-05 -6.3260787101e-05 -9.4242726846e-05 -0.00014216941599 -0.00046646177361 
-0.00036302689841 -0.00056818069424 -0.00065105382237 -0.00069059456776 -0.0006770161679 -0.00065379771695 -0.0005886934232 -0.00048907929158 -0.00015438777882 
-0.00022888679814 -0.00027900707573 -0.00022663035634 -0.00031634406696 -0.00038263176975 -0.00011086750783 -0.00012137672093 -0.00011917859956 -9.1889856776e-05 
-0.00013717269394 -4.8378151405e-05 -2.3459241675e-05 -9.6575236057e-06 -2.025593858e-05 -1.3399392174e-05 2.8722324828e-05 4.8374339258e-05 2.7647858246e-05 
-1.8791128582e-05 -7.5118956374e-05 -0.00015451119725 -0.00027451553979 -0.00039150414523 -0.0004743596437 -0.0005203116234 -0.00053971909801 -0.00056466671231 
-0.00059152768517 -0.00059579526715 -0.00053907713154 -0.00054176814592 -0.00040611141594 -0.00029272887332 -0.00021427618049 -0.00016797295757 -0.0001672684848 
-0.00015892303782 -0.00016611727187 -0.00020907977887 -0.00014626720804 -6.8150151264e-05 2.5322563033e-06 3.7113357848e-05 3.4906452584e-05 4.2500785639e-05 
7.6207897109e-05 9.8937651273e-05 0.00010391332034 9.6499936262e-05 7.4129080076e-05 5.5755417748e-05 -0.00016889810649 -0.00010454863605 -0.00019450583932 
-0.00020090351973 -0.00021189463951 -0.00021235959503 -0.00018954033294 -0.00015580721811 -0.00012620321286 -0.00010988235954 -0.00010276624562 -0.000101144582 
-9.5213142231e-05 -0.00013050769849 -0.00017480256429 -0.00021536221902 -0.00025092146461 -0.00028184236726 -0.00030625769432 -0.00031087354291 -0.00025552471561 
-0.00015784019342 -4.9235529559e-05 7.5672850244e-06 -4.4461036168e-06 -3.7262107753e-05 -6.4502060013e-05 -0.00010572405881 -0.000160851896 -0.00021051342264 
-0.00024694566673 -0.00026448882272 -0.00026028641514 -0.00023858173881 -0.00020923215925 -0.00017570119053 -0.00015112009169 -0.00015192140199 -0.00017920285609 
-0.00022184303816 -0.00026619404889 -0.00029874626125 -0.00031701861008 -0.00033703264489 -0.00035184161243 -0.00037272310874 -0.00038740356104 -0.00034777440305 
-0.00023092611445 -0.00025851191822 -0.00020911528554 -1.8630719183e-05 6.9938436923e-05 -2.9376235943e-05 -3.4607059206e-05 2.2576219408e-05 1.320852823e-05 
2.5464086093e-06 -4.4744225193e-05 -0.00010187322368 -0.00016798939032 -0.00026643617093 -0.00037815450924 -0.00045080338168 -0.00047359833115 -0.00047179692046 
-0.0004753610483 -0.00048533812515 -0.00047687183542 -0.00042818918155 -0.00038050614967 -0.00033356884524 -0.0001022150027 -2.8282602216e-05 5.3961657613e-05 
0.00012785472791 0.00017597603801 0.00018533948169 0.00019534411331 0.00017237357315 0.00014787895634 0.00012667510964 0.00010985348126 6.6304130087e-05 
9.2955725268e-05 6.2861997321e-05 7.3640771916e-05 7.2712844485e-05 4.5129921546e-05 9.0942131692e-06 -1.6964383008e-05 -2.6868593295e-05 -4.2400372877e-05 
-6.8303703301e-05 -0.00011358850315 -0.00018934488253 -0.00034291759948 -0.00029680670559 -0.00039414245839 -0.00045310614223 -0.00051877883379 -0.00058288786386 
-0.00063859598595 -0.00015512933533 -0.000178589602 -0.00016582549506 -0.00011394755857 -0.00017091015616 -5.6912561377e-05 -0.00012805855295 -3.9175534084e-05 
3.5822876043e-05 6.8557998929e-05 5.4192020798e-05 4.5351967856e-05 6.6502316258e-05 0.00012145189612 0.00012565713587 0.00011716956396 0.0001162298704 
-0.00010529484189 -5.0398261237e-05 -0.00014511090922 -0.0001789553462 -0.00021398769604 -0.00021981667669 -0.00018934443506 -0.00015274373072 -0.00012339235946 
-0.00010996052515 -0.00010748572822 -0.00013779494475 -0.00019897485254 -0.00017279970416 -0.00022649148741 -0.00024656427559 -0.00027037227846 -0.00029160664417 
-0.00029065590934 -0.00030555719422 -0.00014653220023 -0.00023817996771 -5.1118901979e-05 -4.4590892685e-06 -2.0480872422e-05 -5.3754418332e-05 -7.1221633334e-05 
-8.6998490588e-05 -0.00017885972193 -0.00021988080698 -1.3113561749e-05 -3.3588110455e-05 -0.00029765593354 -0.000326948968 -0.00020778958788 -0.00021724883482 
-0.00020797590696 -0.00020743991263 -0.00022059685216 -0.00023095392316 -0.00023749536558 -0.00025727062166 -0.00029763869316 -0.00034604565735 -0.00038657471305 
-0.00040718106902 -0.00041044041427 -0.00041021112702 -0.00040297545881 -0.00042924311128 -0.00044475333561 -0.000399054632 -0.00015968017397 -0.0005983660958 
-0.00061867987097 -0.00056764140027 -0.00050645638839 -0.00041925470578 -0.00029337566593 -0.00032580716652 -0.00024386686346 -0.00016649494501 -0.0001122341364 
-0.00020745485017 -0.00020759887411 -0.0001783200205 -0.00015045268447 -0.00013427172962 -0.00015942931204 -0.0002614031182 -0.00036002327397 -0.00040687921137 
-0.00045341302757 -0.00048320074711 -0.00049073585251 -0.00048438962403 -0.00046768519678 -0.00050234072842 -0.00045080421842 -0.00049992703862 -0.00053307827329 
-0.00056188864983 -0.00059089630668 -0.00061115197605 -0.00011570804418 -2.1454383614e-05 4.916390094e-05 8.5266738097e-05 6.7371644036e-05 4.7040485697e-05 
5.326956034e-05 7.9131018538e-07 -1.2739565364e-05 -4.1065923369e-05 -8.7419581178e-05 7.1296129136e-05 9.1439118478e-05 7.8118522651e-05 4.0617042487e-05 
-0.00053694273811 -0.0005523404252 -0.00057035648206 -0.0005788266717 -0.00057511252817 -0.00056022848003 -0.00053276825929 -0.00045401520038 0.00013193552149 
0.00013701165517 0.00014255370479 0.00015287396673 2.0043568611e-05 0.00010415797442 -0.00014190562069 -9.1798195172e-05 -2.7786866781e-05 5.760198755e-05 
0.00010448861303 -5.5610987062e-05 0.00016695238204 -0.0002899459796 -0.00028272176496 -0.00029528060622 -0.00030217451422 -0.00030419274117 -0.00031485555519 
-0.00032903183455 -0.00032702663157 -0.00033699229243 -0.00035778155143 -0.00030085654726 -0.00032965675928 -0.00026254568365 -0.00020109472462 -0.00011980373529 
-4.8414538696e-05 -1.8150217329e-06 -1.8451859546e-05 -4.4627706302e-05 -5.2291139582e-05 -5.5468819482e-05 -2.5061342361e-05 -7.2342542126e-06 1.5844554923e-05 
1.3187790273e-05 -1.9478052536e-05 -6.6816750405e-05 -0.00012560167488 -0.00018047898266 -0.00043464071496 -0.00040500670002 -0.00043145932432 -0.00041451288416 
-0.00038678962737 -0.00038904354733 -0.00038025865069 -0.00036780989224 -0.00016388413496 -0.00035222261795 -0.00036538588756 -0.00038050958392 -0.00038681553997 
-0.00038530569873 -9.0303282377e-05 -0.00015625886772 -3.907439941e-05 -2.9851350215e-06 6.5698724939e-05 8.3211612036e-05 -1.9753355446e-05 3.4886944923e-05 
-6.1224846528e-05 -0.00049319946993 -0.00052570723346 -0.00054405393894 -0.00054304471996 -0.00052867337945 -0.00025120144346 -0.00025337260255 -0.0002139389544 
4.5498370734e-05 2.2387192473e-06 -9.8460225369e-05 -0.00014125114467 -0.00017367641703 -0.00017930708418 8.4006713223e-05 -0.00017280437169 0.0001387192242 

Stress_YZ_Pt 1 1116 double
2.1154792194e-06 5.6202654378e-05 1.6109747094e-05 5.9307333231e-06 6.8138893766e-05 -2.6564612199e-06 4.552964856e-05 -5.2840404351e-05 9.9915691862e-06 
-0.00011498687741 -5.1701457323e-05 -0.00019192032846 -0.00012927312855 -0.00028150886465 -0.00020421874069 -0.00036349001311 -0.00032002539956 -0.00044371139666 
-0.00044775761489 -0.00049760580441 -0.0004550095473 -0.0004490297797 -0.00033023991273 -0.00031599262729 -0.00018470270152 -0.00018894344976 -7.0981571298e-05 
-9.3072941581e-05 4.731628087e-05 1.2405228063e-05 0.00014525841834 0.00011204397197 0.00020099530229 0.00018744245244 0.00025422316685 0.00026549332324 
0.00032484860276 0.00034890428651 0.00038894536556 0.00041640382551 0.0004228229518 0.0004580624518 0.00043834566895 0.00048871519539 0.00041725754272 
0.00049603510706 0.00029439701757 0.00041980861715 5.5307671573e-05 0.00023730300927 -0.00021291256053 -8.0051895566e-06 -0.00035784346983 -0.00019136399806 
-0.00036816747161 -0.00025675637153 -0.00038692991075 -0.00029192900183 -0.0004318018764 -0.00033212585549 -0.00043109249964 -0.00034934355062 -0.00036372826435 
-0.00032264617039 -0.00029933753831 -0.00028052070775 -0.00024240960192 -0.00023344635338 -0.0001194069846 -0.00015600266852 5.9719186538e-06 -8.3593206909e-05 
3.5633269363e-05 -6.3955306359e-05 -4.3946511141e-06 -8.1989383943e-05 -6.1244832978e-05 -0.00010665968057 -0.00012724724002 -0.00012504063125 -0.00019070856069 
-0.00012396809552 -0.00023317393061 -8.9945155651e-05 -0.00018558579177 6.3565385062e-06 -3.284016384e-05 0.00016250837598 0.00017394755014 0.00033508292563 
0.00040500401519 0.00050077968626 0.00058302623802 0.00063015057822 0.00061957995058 0.00068858638406 0.00053387980734 0.00067823100107 0.00041329454689 
0.0006131580958 0.00030092983798 0.00051771350991 0.00020533940551 0.00040767643441 0.00011714056382 0.00027794574453 5.3974219554e-05 0.00016031329233 
2.1114230094e-05 7.8452266052e-05 -1.1185513813e-05 2.2309481892e-05 0.00028716749512 0.00029898724461 0.00033828069718 0.00031482631312 0.00026869976136 
0.00033429766336 0.00019984954997 0.00028073438079 0.00011559320774 0.00020342852622 5.243038504e-05 0.0001330613859 2.2319668915e-05 8.5704701405e-05 
-1.067258836e-06 6.0611970412e-05 -2.9867743251e-05 5.5358694681e-05 -4.8308393161e-05 6.996866432e-05 -1.4396482584e-06 0.00010978696537 0.00010555086192 
0.00014511386689 0.00016000149481 0.00012237303054 0.00014159329294 5.5096970755e-05 8.3954344518e-05 -2.8655133974e-05 -4.2742467485e-06 -0.00013235731603 
-0.00013148628386 -0.00025745307084 -0.00029368992546 -0.00038082561514 -0.00038113919436 -0.00043969691615 -0.00031467295048 -0.00039618846131 -0.00014323432879 
-0.00026701865227 3.2211197322e-05 -0.00011834073212 0.00012628433979 -1.6013482309e-05 0.00013685731392 3.1193821997e-05 0.00016411950492 6.5589610585e-05 
0.0001933094245 9.472941565e-05 0.00014696970175 0.0001000478992 8.9784560259e-05 0.00011050558533 4.4249272833e-05 0.00012740925649 9.4279644145e-06 
0.00013671567126 3.0735669952e-05 0.00015116210238 1.6438418243e-05 0.00015340346363 6.7695687903e-05 0.00019875700127 0.00019884452195 0.00029714804623 
0.00024763634428 0.00036941830331 0.00028929584369 0.00041669606435 0.00031016662251 0.00041734853585 0.00025253419153 0.00035919074071 0.00015518670625 
0.00028358886811 0.00011153499509 0.00023900442829 9.2471800599e-05 0.0001834282757 8.5784486146e-06 6.5126304435e-05 -0.00010292980733 -7.3096524829e-05 
-0.00017900153762 -0.00018693514357 -0.00020257220604 -0.00025286321761 -0.00020124413277 -0.00027662280991 -0.00020398315974 -0.00028072528221 -0.00020721881447 
-0.00027048845732 -0.00018881430879 -0.0002384008003 -0.00015504899056 -0.00019566185074 -0.00011787541735 -0.00015393500507 -8.7868713308e-05 -0.000124638751 
-8.3451548562e-05 -0.00011865255328 -0.00010333213504 -0.00012527617037 -0.00012632802827 -0.00010764130366 -0.00012521772442 -5.1207281103e-05 -1.6783807951e-05 
7.6198262832e-05 0.00017706274957 0.00023653317839 -0.00016112302455 -9.493498851e-05 -0.00023978822355 -0.00033844376958 -0.00044102955144 -0.00054208646179 
-0.0006176289462 -0.00064050026413 -0.00060728758399 -0.00050936594926 -0.00037827294 -0.00026641889417 -0.00017328545255 -6.862016744e-05 5.1413098845e-05 
0.00017784826014 0.00030190016332 0.00040646072739 0.00048004912969 0.00053224281874 0.00058029012871 0.00061313996557 0.00057605341135 0.00046573185682 
0.00027092097207 6.6209547185e-05 -7.5439342254e-05 -0.00016501131722 -0.00022775269827 -0.00028732068313 -0.00033498262201 -0.00035755680074 -0.0003637355876 
-0.00036592841207 -0.00036274705781 -0.00034198399226 -0.00030901371792 -0.00027369815507 -0.0002248649962 -0.00014414549014 -2.6050636279e-05 0.00011370918492 
0.00025436569922 0.00038234952081 0.0005835646225 0.00069533551869 0.00078148441389 0.00083778800035 0.00083053974959 0.00076008783071 0.00063543392753 
0.00046132966236 0.00029075698694 0.00015798867389 6.0193705394e-05 -2.07108003e-05 0.00044860470371 0.00041978890658 0.00042691537237 0.00037333430373 
0.00030980980955 0.00025376883787 0.00023418520323 0.00026402139156 0.00031635202686 0.00033081760557 0.00026200381399 0.00013574063632 2.1196474336e-06 
-0.00012646168307 -0.00025639375599 -0.0003719891829 -0.00044206685561 -0.00047714248649 -0.00048112591321 -0.00041727505595 -0.000314021956 -0.0002159026044 
-0.00012816527124 -7.1478182235e-05 -2.8997585559e-05 4.8158466598e-05 0.00015959166376 0.00026465281553 0.00033117458952 0.00035770403338 0.00038952730392 
0.00044184587023 0.0005096272871 0.00058519571758 0.00060800754 0.00055842899019 0.00048998757848 0.00044467486441 0.00040282143163 0.00030290034556 
0.00013996182952 -3.9044091864e-05 -0.00021083228785 -0.00034950023837 -0.00043651091255 -0.00047055616596 -0.00045748942648 -0.00041512741882 -0.00035913405372 
-0.00030288221024 -0.0002593342906 -0.00022810656083 -0.00020053519256 -0.00013023476549 -5.0363933042e-06 0.00016615262757 0.00031811693771 0.00038004648377 
-0.00036710178392 -0.00029074417034 -0.00047547095164 -0.00058919782168 -0.00068728912447 -0.00074576822226 -0.00074268394383 -0.00068745961471 -0.00059686532768 
-0.00048972434888 -0.00038399286132 -0.00027147868968 -0.00013844591376 1.8906668629e-05 0.00018688423916 0.00034055069409 0.00045738351037 0.00053688860498 
0.00059673373471 0.00063872459577 0.00064737937646 0.00049983699137 0.000577415718 0.00035935979395 0.0001893399276 2.2024330974e-05 -0.00012124991918 
-0.000229074245 -0.00032921901584 -0.00043119813927 -0.00052205635438 -0.00059285487077 -0.00064256921178 -0.00066513683123 -0.00063592044171 -0.00056182944536 
-0.00047622180136 -0.00038893760939 -0.0002873129597 -0.00016161859548 -2.9262296721e-05 7.537071815e-05 0.00012236088514 0.00066496469663 0.00051469898608 
0.0007659492112 0.00081351149129 0.00080790089851 0.00075142613787 0.0006351347256 0.00047102776443 0.0003048663857 0.00015577084469 2.0895900889e-05 
-0.00010620949888 -0.00021686994842 0.00060437350476 0.00061858141271 0.00031391560333 0.00011849929024 0.00051598613936 0.00051516535314 0.00049438846327 
0.00046302761621 0.00042945039604 0.00041839925689 0.00045000947284 0.00049871129158 0.00049304775894 0.00038787860831 0.0002257095166 6.8529707278e-05 
-7.6754493421e-05 -0.00021356201069 -0.00032558304156 -0.00039117746201 -0.00044384087087 -0.00048230480752 -0.00045098064584 -0.0003780955376 -0.00029984963476 
-0.00021175776055 -0.00013413649685 -6.3106354901e-05 4.6885224037e-05 0.00019276260537 0.00032146278681 0.00040882625763 0.00047092087334 0.00053032936557 
0.00060345372185 0.00067429145565 0.00071467341331 0.0006910089578 0.00061088145594 0.00053597423539 0.00049234930339 0.00043791430653 0.00032024737811 
0.00014824682603 -4.2593520448e-05 -0.00023826885445 -0.00042093316006 -0.00056447323732 -0.00064078831929 -0.00064416653186 -0.0006025613111 -0.00053796506836 
-0.00047230632481 -0.00041353036795 -0.00034935222357 -0.0002775848443 -0.00016241279263 -1.0086094335e-05 0.00015812506535 0.00031722951826 0.00041423340735 
0.00047585259017 0.00026485890339 0.00013327825855 0.00042765497346 0.00057587266201 0.00068280521373 0.00072398805059 0.0007166294381 0.00067062875314 
0.00057285172807 0.00043701732648 0.0002849904231 0.0001236390126 -6.3628394855e-05 -0.00021290396398 -0.0003064282464 -0.00036517411354 -0.00043373790686 
-0.00052800562116 -0.0006363443099 -0.00073137303116 -0.00078435930482 -0.00076976322453 -0.00070046704786 -0.00061754330818 -0.00053455346642 -0.00043834418466 
-0.00031343014416 -0.00015752285435 2.0862056772e-05 0.00019854104539 0.00036098707642 0.00049398501869 0.00058360685944 0.00063872194733 0.00066408251587 
0.00066323395004 0.00064254096651 0.00057460949756 0.00061036935949 0.00054649132653 0.00052121815679 0.00046557485621 0.00036397079384 0.0002200586714 
4.6095990911e-05 -0.00011906122199 -0.00025742354046 -0.00038510200829 -0.0005214423727 -0.00065528569394 -0.00075971220213 -0.00082498074335 -0.00085301634681 
-0.00082720295177 -0.00074592571764 -0.00063688259979 -0.00052336699446 -0.00040753871144 -0.00027833502827 -0.00015074020348 -6.6894413067e-05 -3.7415735278e-05 
-1.5171870018e-05 5.2530222092e-05 0.00022050426196 0.00017643454339 0.00027061987688 0.00055944344786 0.00055479200091 0.00056438380852 0.0005629734369 
0.00056239576952 0.0005782705266 0.0005971109058 0.00057508298778 0.00046739942627 0.00029531335531 0.00012649344444 -1.9104069906e-05 -0.0001493593918 
-0.00026215182152 -0.00034197830973 -0.00040038362204 -0.00047249058116 -0.0004914285455 -0.00042154666153 -0.00035533215123 -0.00027127690555 -0.00018331049978 
-8.8723249519e-05 3.8375404529e-05 0.00018686335352 0.0003174895246 0.00041924571997 0.00050467666733 0.00058309404994 0.00066375022288 0.00072873684985 
0.00074467621744 0.00070448887709 0.00063545866578 0.00056463557121 0.00050145111163 0.00042051072523 0.00029031821759 0.00012395626663 -5.6207699799e-05 
-0.00025334123347 -0.00045555600809 -0.00062552410236 -0.0007289792411 -0.00075609442138 -0.00072379228368 -0.000655671407 -0.000587670409 -0.00052929303638 
-0.00044778912707 -0.00032627744804 -0.00014955124379 2.8941848086e-05 0.00015678642194 0.00028130910505 0.00040493678534 0.00049821505672 0.00054446476861 
-0.00047665080638 -0.00045097117982 0.00038530502934 0.00053249509801 0.00063597837288 0.00066448193684 0.00064481642039 0.00059728053748 0.00051962603175 
0.00041521454841 0.00029113953133 0.0001518328545 1.3724593316e-05 -0.00038338969898 -0.00030676999086 -0.00043384568562 -0.00048468202294 -0.00055104920466 
-0.00063970622432 -0.00072575930972 -0.00077621472883 -0.00075854930037 -0.00067086120835 -0.00059599103406 -0.00052541142213 -0.00043026194908 -0.00029842974982 
-0.0001402196549 3.3849270949e-05 0.00021060957442 0.0003812855357 0.00055137835443 0.0006384076114 0.00066809804412 0.00067538164634 0.00067824915459 
0.00066843202512 0.00064792016929 0.00057526613818 0.00062415718276 0.00053055140597 0.00050517561613 0.00049346700932 0.00044570730824 0.00035176691017 
0.0002170182197 3.9950704377e-05 -0.0001401282243 -0.00029940737659 -0.00044625774899 -0.00060346032842 -0.0007616266812 -0.00088600104209 -0.00095107949164 
-0.00095934972342 -0.0009276382043 -0.00085917301476 -0.00075974946958 -0.00064580865728 -0.00052127017989 -0.00038551830221 -0.00025383319735 -0.00016458347818 
-0.00015831526252 -0.00011561344127 -2.1471945388e-05 0.00011938753539 0.00033748485657 0.00027786877035 0.00036782961251 -0.00020643983589 -0.00010764804125 
-0.00050654158258 -0.0004943044114 -0.0005118620029 -0.00050643108261 -0.0004749359141 -0.00041761648754 -0.00033234618604 -0.00023605236856 -0.00013243192552 
-1.771019015e-06 0.00015241333494 0.00029342263952 0.00040344284935 0.00049378807307 0.00057799860369 0.00066114705987 0.00071086993557 0.00071781661245 
0.00068410149834 0.00063037197106 0.00055938317382 0.0004815234206 0.00038839497574 0.00025734318842 9.8209772091e-05 -7.1765623602e-05 -0.00026391734718 
-0.00047342144535 -0.00065754129901 -0.00078373630822 -0.00084250044893 -0.00083692376211 -0.00078191219654 -0.00071455247235 -0.00064996299625 -0.00054799699865 
-0.00038319995656 -0.00016560982431 2.9970246487e-05 0.00014888652913 0.00025573462699 0.00039000215475 0.00050472549628 0.00055879297724 0.00058193171571 
0.0006058854633 0.0006375398807 0.0006649599818 0.00068224003189 0.0006915992999 0.00067497666168 0.00061813874345 0.00049938634038 0.00032936704156 
0.00016028741447 1.3938441953e-05 -0.00011027455275 -0.00021417308744 -0.00029806430393 -0.00036667729728 -0.00043001689482 -0.00048264782527 -0.00053141923854 
-0.00052151939599 -0.00052729274224 0.00052439445426 0.00062976102345 0.00065984966932 0.00062762077141 0.00057054938225 0.00050708433992 0.00042785944242 
0.00033133709803 0.00022479185282 0.0001163129354 1.4309995947e-05 -0.00021998899501 -8.6641144662e-05 -0.00031398245483 -0.00039493768418 -0.0004628609604 
-0.00050639688561 -0.00054085101874 -0.00057079161828 -0.00063026875432 -0.00070229881385 -0.00074955410673 -0.00073612750566 -0.00067252754525 -0.00047202084534 
-0.00053961875528 -0.00037247026921 -0.00024227916219 -0.00012926672328 2.4396766048e-05 0.00023274193882 0.00038869361015 0.00051016939688 0.00068962720979 
0.00068983188248 -0.00058549613459 -0.00060428994766 0.00066320309998 0.00060185451002 0.00067331030732 0.00069161986175 0.00065422650368 0.00059501410578 
0.00064058879798 0.00053589696472 0.00048718662583 0.00045806980052 0.00037650336162 0.00021816163789 1.9124536266e-05 -0.00015939570767 -0.00032727577127 
-0.00048474987852 -0.00065427184745 -0.00082585815107 -0.00095853829407 -0.0010129349248 -0.00099324222538 -0.00094800362422 -0.00089378126722 -0.0008178648568 
-0.00071946934622 -0.00060012469476 -0.00044016033062 -0.00027781066456 -0.00022092033032 -0.00011212453921 4.2850171099e-05 0.00021085413391 0.00042335291073 
0.00035769734677 0.00049125626538 -0.00053675915115 -0.000544085211 -0.00052781535487 -0.00047983606055 -0.0003964812131 -0.00029756537333 -0.00019543749295 
-6.7080896315e-05 9.4632132914e-05 0.00024198210667 0.00035368716635 0.00044692279334 0.00051043072745 0.00067138724262 0.00063770252746 0.00067793024937 
0.00065877535962 0.00061175838346 0.00053911868599 0.00045836190111 0.00036286424438 0.00023479118681 7.9721834595e-05 -8.2187427211e-05 -0.00030160437746 
-0.00052007425256 -0.00069571651693 -0.00082444777945 -0.00089852156816 -0.00091715283634 -0.00088903386495 -0.00083700192044 -0.00079094020184 -0.00063235562993 
-0.00043863455357 -0.00021369595925 -2.3737497713e-05 0.00010252830657 0.00021852952341 0.00035409675183 0.00047751113743 0.00055797288951 0.00060719472822 
0.00064133064006 0.00067568330269 0.00071177445352 0.00073950894875 0.00074367420166 0.00070384336868 0.00061952478427 0.00048776554468 0.00032596604433 
0.00016843830963 2.5529704544e-05 -9.678544393e-05 -0.00019705247541 -0.00028252722404 -0.00034685180435 -0.00040952307609 -0.00047207377065 -0.00051059930411 
-0.00055187333783 -0.00054385980184 -0.00055484271434 0.00059275905369 0.00054055805958 0.00041831115232 0.00031251638575 -0.00017520339497 -1.4840290532e-05 
-0.00033531970985 -0.00049823772861 -0.00067515380215 -0.00085406370636 -0.00098779860127 -0.001035141293 -0.00099416162993 -0.00094229743991 -0.00089427815692 
-0.00083785103925 -0.00075554761861 -0.00064888037741 -0.00054039777751 -0.00033963607711 -0.00044655749662 0.00060178911372 0.00065068785625 0.00063114590012 
0.00057988635672 0.00052704803966 0.00047324979096 0.0003823408988 0.00030029883419 0.00021683359955 0.00013969571955 6.7537423092e-05 -0.00018295707196 
6.0566093453e-06 -0.00031327747638 -0.00041049419087 -0.00049249851872 -0.00055227394478 -0.00059074632009 -0.00061575035215 -0.0006895877159 -0.00072970762267 
-0.00071187432331 -0.00065520271892 -0.00059714709641 -0.00054246930813 -0.00054549901688 -0.00051691626868 -0.00047179233661 -0.0003959666501 -0.00028229035524 
-0.00014127993296 0.00068875162106 0.00071682047565 0.00066818135383 0.00054509671754 0.00062733660161 0.0004672136638 -0.00057301488414 -0.00057948789618 
-0.00054835349147 -0.00046855851542 -0.00037026069913 -0.00027531879095 -0.00015861802012 0.00018522342543 0.00028833675242 0.00038288824726 0.00044793066627 
0.00064251323056 0.00061944952176 0.00065097150218 0.00064118597948 0.00059689780755 0.00052757334197 0.00044723244355 0.00034525305091 0.00021073962671 
5.0949683327e-05 -7.3898211061e-05 -0.0001983413531 -0.00073786525172 -0.00059554925247 -0.00084831925051 -0.0009194342565 -0.00095555643202 -0.00095737265656 
-0.00093266877229 -0.00093096912315 -0.00047332319809 -0.00068359752186 -0.00025662176631 -7.8765481021e-05 5.2735767667e-05 0.00016628990124 0.00028888602537 
0.00042099054554 -0.00045752480946 -0.00034696761941 0.00012954021258 0.00021961203311 -0.00085246928211 -0.00096823339118 0.00065913300205 0.00067946099443 
0.00070766088902 0.0007397805748 0.00074118908378 0.00069065952266 0.00059464191145 0.00045921112178 0.00030445085213 0.00015147422073 7.5031666711e-06 
-0.00011762960276 -0.00021914954414 -0.00030376485665 -0.00034918061768 -0.0003851810543 -0.00043906857172 -0.00049450416554 -0.00058800753322 0.00027250279891 
0.00012120973309 0.00037407746034 0.00043386178004 0.00050387768715 0.00066364061786 0.00055996711308 0.00071863201447 0.00063122520805 0.00063857268833 
0.00058719346998 0.00052657157357 0.00044833085121 0.000334698183 0.00018721552442 -3.64169362e-05 -0.00023031918863 0.00042257441237 0.00026772507408 
0.00011015398195 -3.670629485e-05 -0.00016103441703 -0.00026006613189 -0.00033910122875 -0.00038766859216 -0.00047186525626 -0.0004511881707 -0.00040495396388 
-0.00031527538158 -0.00019184214034 -4.115899452e-05 -0.00059423436178 -0.00063079247775 -0.00062413759588 -0.0005471684708 -0.00044479526696 -0.00035899350769 
-0.00027257520924 -0.00067601533374 -0.00071656715591 -0.0006946917274 -0.00064144351927 -0.0003777088059 -0.00047761588939 -0.00057587679476 -0.00064205343369 
-0.00039734855333 -0.0003436573752 -0.00025012954939 -0.00012724898625 2.0580191631e-05 0.00017839126667 0.00032191814535 0.00037503666681 0.00016416817137 
0.00022598196301 0.00030563190012 0.0003770426265 0.00058713636827 0.00054551899666 0.00054856193019 0.00063318967295 0.00063153362134 0.00059421811602 
0.00055853021331 0.00062668620376 0.00041993757865 -0.00054228059162 -0.00065200394602 -0.00076427846216 -0.00085296759789 -0.00091582340247 -0.00096328010841 
-0.0009887208289 -0.00099095376208 -0.00099908260745 -0.0010299149144 -0.00098684335535 -0.001041208161 -0.00086878196453 -0.00069641818118 -0.00048922965652 
-0.0002867048388 -0.00010547206766 5.0676553656e-05 0.00014824854406 0.00024788980954 0.00036230880505 0.00016128594143 8.6350238689e-05 -4.5756826239e-05 
-0.0001883263285 -0.00033365192212 -0.00050166224537 -0.00068251816265 -0.00085795149789 -0.0010001314949 -0.0010336892447 -0.00095394795062 -0.00090538247605 
-0.00085621321341 -0.00077015902207 -0.00066992190841 -0.00058811000781 0.00047091075976 -0.00090457050828 -0.00093934799952 -0.00098068336956 -0.00100789321 
-0.0010223004889 -0.00049828176998 -0.00068941667269 -0.00031714281795 -0.00020067149308 -0.00041522708489 -0.00049138291797 -0.00067148722883 -0.00067999457242 
-0.00063540881577 0.00022380194423 6.4577133344e-05 -8.210791475e-05 -0.00020386865799 -0.00029899311266 -0.00098665370024 -0.00096736922084 -0.00086098439351 
0.00058251353524 0.00060530329938 0.00064014530896 0.00062899541808 0.00057723846112 0.00052963624087 -0.00059701879218 0.00066100183176 0.00047618016106 

Stress_XZ_Pt 1 1116 double
0.00012693471945 2.723511858e-05 -1.3541053221e-05 0.00012346164999 -2.5429612322e-05 -7.3320544487e-05 -6.0405040131e-05 -0.00010446690249 -7.6200853073e-05 
-0.0001222134797 -9.3129357992e-05 -0.00013293312259 -8.4660227003e-05 -0.00012177816461 -4.9307624067e-05 -9.9139710983e-05 -5.2870827858e-05 -8.9122523605e-05 
-3.2392668572e-05 -5.2446833138e-05 2.9903021868e-05 -1.4509045059e-06 6.9467972935e-05 2.2841691589e-05 9.2200356448e-05 3.1468089219e-05 6.9614970926e-05 
1.4557416762e-05 2.5714837193e-05 -1.84778944e-05 4.6889261739e-05 -1.3045173318e-05 0.00011528487084 3.5016539641e-05 0.00017569644115 9.0945409738e-05 
0.00021240287606 0.00014101525721 0.00021107517387 0.0001696987074 0.00017084256979 0.00016083763694 0.00011096413073 0.00012307161705 3.4847653296e-05 
6.6710459578e-05 -5.2765859436e-05 -1.9262010028e-05 -0.00011314274525 -0.00010222244964 -0.00011688662562 -0.00013426119949 -5.239271843e-05 -0.00010980107032 
-2.5473668757e-06 -7.1820784569e-05 -5.3109230407e-05 -8.7912531114e-05 -0.0001772286887 -0.00016390055134 -0.00029779599572 -0.00023885383416 -0.00035525063868 
-0.00026419980713 -0.00035232969094 -0.00023588475051 -0.00033663542126 -0.00017618454331 -0.00029406357498 -9.5417373814e-05 -0.00021845793526 -1.3388973457e-05 
-0.00016898252215 3.8080754166e-05 -0.00014030328748 7.0774553024e-05 -9.5147930551e-05 0.00010660397675 -2.4763970032e-05 0.00014470883571 3.421434576e-05 
0.00014956574478 5.8847683249e-05 9.2647122074e-05 5.4124415328e-05 3.6835772335e-06 2.3340059329e-05 -8.2427881978e-05 -1.9835724174e-05 -0.0001521043493 
-4.8124997193e-05 -0.00017999990541 -4.2403460611e-05 -0.00013963985202 -5.1884262575e-06 -4.1662191961e-05 7.6202483797e-05 8.5198460056e-05 0.00019632704789 
0.00021656313038 0.0003076914436 0.00033084384631 0.00037308012543 0.00041454080201 0.0003679018846 0.00043528591777 0.00031209994631 0.00039272312279 
0.00024271981965 0.00032258174906 0.00020137015963 0.00025176217241 -0.00028082137578 -0.00025266307784 -0.00033548230203 -0.00032181347342 -0.00023993706418 
-0.00030079238422 -0.00024480748107 -0.00025676198493 -0.00023831937142 -0.00021430038396 -0.00027780261735 -0.0002181066302 -0.00037113230792 -0.00027237281029 
-0.00044897323824 -0.00032688019928 -0.00045184131886 -0.00033045306554 -0.00038762783515 -0.00026962432457 -0.00032918942452 -0.00019523719857 -0.00029458233621 
-0.00014242504494 -0.00023421047081 -9.0248250672e-05 -0.00016234979557 -3.6925774111e-05 -7.4883884736e-05 2.137512729e-05 4.9105443395e-05 9.5096241239e-05 
0.00019590966622 0.00017859807667 0.00035703134199 0.00027936180777 0.00048099295236 0.0004100398437 0.000519233261 0.00052869580395 0.00049238662177 
0.00056660654809 0.00040471373359 0.00051913716015 0.0002899974279 0.00043119737165 0.00019521695503 0.00032635669777 0.00010729489077 0.00022826287568 
6.6886641434e-05 0.00017256973661 8.6723543063e-05 0.00013896558448 4.2983826006e-05 6.1828279968e-05 -4.096870498e-05 -3.2505962054e-05 -5.7967565226e-05 
-8.5372093963e-05 -9.679512732e-05 -0.00013658867829 -0.00011761003771 -0.00018360049398 -0.00017668001601 -0.00025977768564 -0.00026386833633 -0.00033122810419 
-0.00022252076451 -0.00030660425182 -0.00015414984955 -0.00024818320526 -0.00015161738702 -0.00022680635084 -0.00021002799622 -0.00024988366204 -0.00027641166525 
-0.00028508866671 -0.00031923191273 -0.00030736743065 -0.00030187454831 -0.00028991873842 -0.00024036982359 -0.0002407513166 -0.00018401214766 -0.00019357025667 
-0.00013476700042 -0.00015232246915 -5.811516553e-05 -8.7144513714e-05 7.0189001917e-05 2.5950647682e-05 0.00021361464314 0.00016340950879 0.00033785578853 
0.00029363377325 0.00041221399442 0.00039354700129 0.0004380641476 0.00045517684339 0.00044062067172 0.0004907764087 0.000398387725 0.00049817022227 
0.00034652621252 0.00050637728418 0.00033924907621 0.00055732427427 0.00037644908298 0.00056840195612 0.00035799237958 0.00038054740435 0.00014297038342 
6.5526960952e-05 -0.00015374107261 -0.00018907198 -8.0251897543e-05 -1.5469768869e-05 -0.00012009505917 -0.00015446853104 -0.00016757440244 -0.00016022287309 
-0.00014701875625 -0.00010273940779 -3.2908060803e-05 3.780392035e-07 -1.2511618479e-05 -3.774046445e-05 -5.8984032876e-05 -8.0929371506e-05 -9.4005254141e-05 
-8.1952435266e-05 -5.1361341775e-05 -1.1732084204e-05 3.1744132684e-05 6.5451432874e-05 8.5653963197e-05 9.8528547096e-05 7.1591080996e-05 -1.3029984984e-06 
-7.2128229476e-05 -0.00011731122595 -0.00012126029105 -0.00011139757407 -0.00012172940478 -0.0001280479155 -9.7001220183e-05 -2.1115528853e-05 8.6707825176e-05 
0.00019151857487 0.00026445486947 0.0003063279255 0.00033224886283 0.00034391430381 0.00032510588062 0.00025362442102 0.00011730825008 -3.6784233998e-05 
-0.00015507845274 -0.0002222099778 -0.00025153450042 -0.0001765066645 -3.653397016e-05 0.00011114502649 0.00023467334177 0.0003365528828 0.00042472517816 
0.0004734235481 0.00045519106789 0.00038097885408 0.00027189783214 0.00012009316538 -0.00035506759741 -0.00036525236646 -0.00029549943065 -0.00022639825693 
-0.00018081118469 -0.00016872702327 -0.00017428617139 -0.00016637780027 -0.00012155007607 -5.3855650549e-05 6.3201304101e-07 3.7608999889e-05 7.0917546509e-05 
9.9621653135e-05 0.00012643135415 0.00015907301713 0.00021298957654 0.00033698783227 0.00051580577565 0.00062341731973 0.00062906206585 0.00057834558538 
0.00047826547961 0.0003757986924 0.00029110079777 0.00018920157527 7.1649678368e-05 -3.8085535842e-05 -0.00012785421131 -0.0001947538185 -0.00026815489036 
-0.00036246352829 -0.00042419660895 -0.00042117344856 -0.00038009521086 -0.00033770076698 -0.00030913010414 -0.00028551019204 -0.00026120633629 -0.00023589546618 
-0.00020529214817 -0.00017326602756 -0.00014422392269 -0.00010482010839 -2.7127280418e-05 9.3962236633e-05 0.00023047134528 0.00035958721855 0.00046457524877 
0.0005416891654 0.00060931537882 0.00068288047623 0.00075757440936 0.00071984759415 0.00044288239587 9.3736452982e-05 -0.00013434263019 -0.00028501210545 
-7.0185446475e-05 -1.7166404177e-05 -0.0001166140828 -0.00014056504369 -0.00013922246762 -0.00011385971084 -4.361364563e-05 3.5240278976e-05 4.9784523071e-05 
9.7204118674e-06 -3.7284122413e-05 -7.2601945249e-05 -9.7851368992e-05 -0.000117524507 -0.00012816541494 -0.00013362665049 -0.00013278536971 -0.00010981767537 
-6.521493242e-05 -1.0942448625e-05 3.3953733464e-05 0.00011387879567 0.00014797543554 3.6626671317e-05 -3.3129150779e-05 -6.0098574522e-05 -5.9635884099e-05 
-5.236479717e-05 -2.8773810641e-05 3.3235261526e-05 0.00013422274833 0.00024693051091 0.00033543882819 0.00038561045221 0.00040440772136 0.00041011842404 
0.00040039588202 0.00035204227606 0.00025375866971 0.00011799834556 -9.923081052e-06 -9.2585871244e-05 -0.00012378562133 -7.1544763614e-05 -0.00015305239867 
4.6335668685e-05 0.00015565182002 0.00024113809923 0.00030666692328 0.00035885425314 0.00039806429413 0.00039851169277 0.00033278536284 0.00022419001471 
0.00012003416487 4.1400978716e-05 0.00012381424494 5.4925094219e-05 -0.00016324665921 -0.000106995446 -0.00032109620224 -0.00031678853702 -0.00028270205439 
-0.00022984796669 -0.00017948967798 -0.00013802115973 -0.00010003033276 -6.2607685322e-05 -3.3904338125e-05 -1.3987928298e-05 9.8345319088e-06 3.8769834646e-05 
6.7899112764e-05 0.00010102208944 0.00014193011339 0.00020021583987 0.00029923402763 0.00046136639867 0.00056555854098 0.00059481855715 0.00056908938859 
0.00049726253201 0.00039810463932 0.00028435863715 0.00016490736198 5.0676541143e-05 -4.9964728312e-05 -0.00013121577285 -0.00020284537095 -0.00028308313631 
-0.00038115348434 -0.00045181653695 -0.00045846881403 -0.00042571788072 -0.00038053997559 -0.00032710962114 -0.00025807375278 -0.00019295651146 -0.00015492026614 
-0.00013420563118 -0.00011044467283 -8.2487224972e-05 -6.1801106767e-05 -1.9637986725e-05 7.1887094009e-05 0.00019235799664 0.00032383199505 0.000449567131 
0.00054749255651 0.00062533099845 0.00068070528505 0.0006892215024 0.00064093281981 0.00050533336616 0.00027773741385 5.43084534e-05 -0.00011668546722 
-0.00024755219783 -9.6679757007e-05 -6.4207791638e-05 -7.6098713635e-05 -9.5039831649e-07 9.7337981515e-05 0.00017874194236 0.00023181487995 0.00026342757337 
0.00027973748729 0.0002945509259 0.00030241009154 0.00026700543458 0.00020123696595 0.00012746257744 6.0221077092e-05 8.0466109011e-06 -3.31454346e-05 
-6.8402918714e-05 -9.1751398941e-05 -8.5216265688e-05 -4.5296250846e-05 2.3774143756e-05 7.7516685451e-05 6.9870307016e-05 2.5787115078e-05 -1.7450859218e-05 
-5.3380414556e-05 -8.0122343206e-05 -0.00010799151096 -0.00014085784642 -0.00017350239796 -0.00019532904116 -0.00017913425472 -0.00013318382844 -8.7732467364e-05 
-5.0400861483e-05 -2.3108392497e-05 6.2456924752e-05 -7.0043006417e-06 0.00013154757471 0.0001620463263 0.00014465346248 0.00010090292744 5.8552290739e-05 
3.7474410874e-05 2.7966314519e-05 3.0919862752e-05 5.9153446841e-05 0.00012596789202 0.00022926805104 0.00034112386493 0.00042235960427 0.0004562461545 
0.00045407247671 0.00044175195944 0.00042135464901 0.00037083937059 0.00027246548052 0.00014100016961 3.0036291264e-05 -2.8827011647e-05 -4.3210301783e-05 
-3.1982962355e-05 -1.7068791223e-05 -3.631885329e-05 -1.9658372068e-05 -5.0834862729e-05 -0.00030928015622 -0.0003093792111 -0.00027644820148 -0.00022185724811 
-0.00016039659567 -0.00010285580356 -5.6988369579e-05 -3.9565085899e-05 -3.9349322378e-05 -1.9799727852e-05 1.7052595013e-05 5.2062864597e-05 8.3931685367e-05 
0.00011719950817 0.00016138080537 0.00020590236818 0.00048537649127 0.00041098354268 0.00052468749345 0.00052337430679 0.00047257501865 0.00037215377961 
0.00024302498787 0.00012291377971 2.7686040767e-05 -4.5020046173e-05 -0.00010553620632 -0.00017319726976 -0.00026115994842 -0.00036558215652 -0.00044051410077 
-0.00045442620467 -0.00042601605674 -0.00037373296072 -0.00029894186082 -0.0002090357375 -0.00013198066881 -9.0108685072e-05 -7.4533249972e-05 -5.1712096138e-05 
-1.703405951e-05 -6.4298274083e-07 1.9776672616e-05 7.9211150478e-05 0.00017262875917 0.00030245144808 0.00045164371841 0.00057138605916 0.00064502448367 
0.00067001310526 0.00064413463406 0.00060988128826 0.00054931694467 0.00039973667663 0.00020815399694 2.3356564725e-05 -0.00014486500504 -0.0002597711682 
0.00031228484295 0.00023357052851 -3.1442620184e-05 1.6152253465e-05 7.8881210356e-05 0.00013182705879 0.00016649351528 0.00018117990476 0.00018195018492 
0.00018355662905 0.00019130456349 0.00018880944117 0.00019399622397 5.5101696944e-05 0.00011895652642 1.7033932181e-05 -7.1254091836e-06 -3.1745006936e-05 
-4.2295698222e-05 -2.462335442e-05 1.9779974537e-05 7.4946989571e-05 0.00010541327501 7.8523933553e-05 4.106825827e-05 8.9661166385e-06 -1.3897066765e-05 
-3.8730951474e-05 -8.0333377809e-05 -0.00013947389198 -0.00019548177806 -0.00023837667541 -0.00021706482221 -0.00016948381744 -0.00012993455069 -0.00011710975377 
-9.0643487056e-05 -7.0275601502e-05 -5.1085817176e-06 -7.0459964263e-05 6.4584207394e-05 0.00013427652266 0.00016306691881 0.00016316270921 0.00016490471899 
0.00015432404143 0.00012907649761 0.00011546413407 0.00011970490232 0.00014557529903 0.00020478334773 0.00029861702205 0.00040139091288 0.00046915550047 
0.00047993749467 0.0004564852934 0.00043099997856 0.00040642829845 0.00036214941792 0.00027616215812 0.00016135945771 6.7305514222e-05 1.9636002132e-05 
2.2990038588e-05 2.7028182558e-05 1.9134739048e-05 -8.1686340963e-06 -3.669553098e-05 -4.0930981413e-05 -2.962079634e-05 0.00018467874543 0.00021637506507 
0.00030316302582 0.00024484202368 0.00036657715827 0.00041326830979 0.00044929089927 0.00045711873827 0.00041739985318 0.00032550338074 0.00020652863896 
9.9476260402e-05 2.2069422073e-05 -3.0872731998e-05 -7.5047416431e-05 -0.00012729602713 -0.00020442324458 -0.00033009967592 -0.0004007966636 -0.00041472652083 
-0.00039117193228 -0.00033840342803 -0.00025295289379 -0.00016000867436 -9.1015776889e-05 -5.2283226978e-05 -3.6064313917e-05 -1.0445121461e-05 3.0350588077e-05 
5.4047930917e-05 7.1364199357e-05 0.00011490619181 0.00019579095715 0.00031997294718 0.00046865682089 0.00058732884645 0.00066105388396 0.00069035656634 
0.00066933149355 0.00063371882425 0.00058295844065 0.00046642062807 0.00029598027322 0.00010709582648 -7.8210561242e-05 -0.00021593512065 -0.00028972140717 
-0.00031304578442 -0.00029907888529 -0.00025718993129 -0.00020412027516 -0.00015149625688 -0.00010362176454 -7.4898403909e-05 -6.6346811764e-05 -4.103715537e-05 
8.0289942161e-06 5.311408313e-05 8.20246496e-05 0.0001086311986 0.00014406339687 0.00017456878777 0.00020000602308 0.00021861162168 0.00024877452961 
0.00022624249686 0.00028112503545 -1.1016816643e-05 1.7759317871e-05 4.7826452828e-05 7.3434198839e-05 7.9315609582e-05 7.6665607139e-05 7.9948529219e-05 
9.739250163e-05 0.00012432033145 0.00015638787227 0.00019440480537 0.00020784619846 0.00020322734781 0.00014763791842 8.3404041106e-05 4.9683853831e-05 
2.6478459176e-05 5.570559324e-06 -1.205482719e-05 -5.7388901951e-06 1.8477171807e-05 5.9475413309e-05 0.00010145869419 0.00012964120106 7.2062854088e-05 
9.7319752967e-05 4.6134445711e-05 2.5761448342e-05 -4.7951774225e-07 -3.8782681889e-05 -0.00013147024765 -0.0001984467599 -0.00024835070144 -0.00017633001698 
-0.00023059336309 0.00012473101924 0.00014946724332 -0.00026469569275 -0.00026972835622 -0.00013181981558 -0.00015318382066 -0.00013167064753 -7.879910936e-05 
-0.00015036318655 5.0393282436e-06 8.9372461844e-05 0.00015281494052 0.00018494325559 0.00020000469522 0.00019471963606 0.00020125662559 0.00021370472314 
0.00023734126444 0.00028290213595 0.00035312648833 0.0004247866309 0.00046570276027 0.00046240677329 0.0004335584963 0.00040240502858 0.00037174337194 
0.00032843490771 0.00025921718407 0.00016028970567 8.0830632214e-05 7.4935132034e-05 5.2950927966e-05 1.1290380144e-05 -3.7499482232e-05 -7.1933018262e-05 
-7.9798274783e-05 -4.8239000535e-05 0.00030815791251 0.0003407635013 0.00036590504897 0.00037221780804 0.00034369218338 0.00027400986073 0.00018621651179 
0.00010848011061 4.6967105561e-05 2.6397767101e-06 -3.0614519801e-05 -6.5471778726e-05 -9.5879222499e-05 -0.00034298818355 -0.0002867741423 -0.00035265248152 
-0.00032912464667 -0.00028301555358 -0.00021280750661 -0.00013521551227 -7.6724373685e-05 -3.7241899463e-05 -1.1492430076e-05 1.3560618754e-05 7.1166954876e-05 
0.00010472584654 0.00013150966879 0.00017531213234 0.00024945560654 0.00035427670809 0.00047059225471 0.00057293211285 0.00063568241894 0.00069211055234 
0.00068388857471 0.00063231900276 0.000564969072 0.00047235180682 0.00034840984154 0.00017814193779 -1.5109908418e-05 -0.00016145122208 -0.00025027292941 
-0.00028918965108 -0.00028539557388 -0.00025589992219 -0.00022338830968 -0.00019381473248 -0.00015768956655 -0.00011981582793 -8.7524927949e-05 -4.7458798235e-05 
7.3603073361e-06 5.9754147514e-05 9.3443273727e-05 0.00011690553401 0.00014404838657 0.00016672243146 0.0001869206535 0.00020398869674 0.00020792817668 
0.00022286105377 0.00019722585421 0.00025721847123 -0.00019989715656 -0.00011233862278 0.00013353373288 0.00017693204427 0.00029022830495 0.00026729167075 
0.00030274617893 0.00032042317616 0.00035125347495 0.00039206684596 0.00041907709237 0.00042860861868 0.00043045653729 0.00042130739894 0.00038735871203 
0.00034164890531 0.0002928132235 0.00023735722061 0.00018180237385 0.00011500126493 0.00014410764015 -4.664468679e-05 -3.1088165088e-05 -1.6202684947e-05 
-1.475490717e-05 -1.8269255179e-05 -1.9744228121e-05 3.1843318538e-05 7.0935488111e-05 0.00010088078943 0.00013443611533 0.00014485325482 0.00017713102352 
0.00011070548644 0.00016799131481 0.00010277878391 5.7530145568e-05 4.8960121603e-05 3.4962979953e-05 1.5520011857e-05 3.9372233687e-05 7.5676694905e-05 
0.00011247131624 0.00013994997425 0.0001616187983 0.00016693826547 0.0001823441853 0.00014535532137 0.00012571276602 0.00010476143689 7.4994477473e-05 
3.536464363e-05 -0.00018921865922 -0.00021489054488 -0.00018938496578 -7.1664068673e-05 -0.00019208426602 5.0489676141e-05 0.00026643510864 0.00026750108373 
0.00026350964617 0.00024940490766 0.00021528884463 0.00016851802502 0.00013276263599 5.076221305e-05 2.0589340693e-05 -5.3367724036e-06 -3.2063026822e-05 
-0.00027629343458 -0.00023955980214 -0.0002814032523 -0.00025872250626 -0.00022309847918 -0.00018042477313 -0.00012889231402 -7.9972736785e-05 -3.2420713325e-05 
7.4492492956e-06 2.471529236e-05 6.3296818553e-05 0.00019105103638 0.00015239875756 0.00024043154554 0.00030381491888 0.00038239507558 0.0004605847862 
0.00053663158178 0.00056965609838 0.00064647856925 0.00065495842136 0.00057936365192 0.00049970487453 0.00042548870988 0.00034375365067 0.00021895725149 
6.6600723585e-05 0.00013197843691 0.00011404681572 0.00025085158995 0.00023733550552 0.00060263626801 0.00053812904662 -0.00024017557371 -0.00024340311211 
-0.000230589485 -0.00022495298617 -0.00022658306261 -0.00021182956334 -0.00017084640422 -0.00011639132208 -5.4015310525e-05 1.055159737e-05 6.6368251282e-05 
0.00010480927995 0.00012930129014 0.00014978434774 0.00016475987892 0.00017578153347 0.00019051260097 0.00019472471467 0.000173191871 -0.00013468618272 
-5.2662719661e-05 -0.00018928695742 -0.00021530084632 -0.00023035675258 -0.00025234978239 -0.00021270960133 -0.00025280619593 -0.00019802931274 -0.00020770744595 
-0.00017785655291 -0.00015902473024 -0.00012591035011 -8.3246130089e-05 -3.180206707e-05 3.2857875681e-05 8.6042054136e-05 -0.00014184213614 -6.1140001435e-05 
1.4761302282e-05 7.4597634011e-05 0.0001165295198 0.00014490141257 0.00016276687165 0.00017993936781 0.00018138171799 0.00017053994816 0.00015483412062 
0.00012684096691 8.7662201622e-05 2.7457076961e-05 0.00019705927407 0.0001802015031 0.0001585259979 0.00014948038915 0.00014637633103 0.00013783677241 
0.00014689626914 5.0473115152e-05 8.2764872786e-05 0.00012064519979 0.00014789618945 0.00012666162365 7.9282571278e-05 5.1345446082e-05 5.1415622693e-05 
0.00018306473794 0.00016917237372 0.00013871451301 9.3295113402e-05 2.247166276e-05 -6.3792081619e-05 -0.00014760789782 -0.00015316147619 9.0615888136e-05 
7.2805624768e-05 4.4571226397e-05 1.6361836231e-05 -0.00018158705643 -0.00010984555593 -9.5021098969e-05 -9.0448769697e-05 -0.00011179282446 -0.00010031855254 
-0.00010026821201 -0.00019761467411 -3.3413434721e-06 0.00016391991448 0.00019080892525 0.00023938452796 0.00029397511389 0.00034196014167 0.00039636497968 
0.00044989364687 0.00049415992544 0.00051522244758 0.00048442699335 0.00050019864284 0.00044452182919 0.00055507219804 0.00058551727852 0.00057507594465 
0.00051807265118 0.0004295134393 0.00035987141018 0.00029552823253 0.00022325364989 0.00013272434626 0.00027896434767 0.00030807931034 0.00034453253465 
0.00036747432023 0.00037940549373 0.00039737100451 0.00041553620395 0.00043413905223 0.00043149106932 0.0004432733549 0.00042156901327 0.0003807482135 
0.00032955065835 0.00026962577249 0.00021794256463 0.00018576007763 -0.00011784234448 0.0003540161415 0.00038679108548 0.00043250684394 0.00046100259351 
0.00047451991122 0.00048649123346 0.00049609437701 0.0004534284235 0.00042049275362 0.00010921191764 9.0822434686e-05 0.0001334863573 8.9133687288e-05 
0.00015448410704 -6.6191649239e-05 1.8725349037e-05 8.6571954853e-05 0.00013212930207 0.0001619625873 0.00043879329314 0.00048018391438 0.00049309336464 
-0.00015869969987 -0.0001785433451 -0.00015806836503 -0.00014276790716 -0.00013554519501 -0.0001428493609 7.6987660577e-05 -0.0001960103109 -4.551747179e-05 

Disp_X 1 1116 double
0 0 -0.00080647267168 -0.001062351279 0 -0.00064643914811 0 -0.000379197445 0 
-0.00013991446758 0 2.8333557566e-05 0 0.00019034967409 0 0.00029964948772 0 0.0002910233743 
0 0.0003712142352 0 0.00044296684791 0 0.00054816482589 0 0.00054622505559 0 
0.00055811309721 0 0.00054734497098 0 0.00052901578601 0 0.00043337588431 0 0.00029504223494 
0 0.00017287497758 0 0.00018963457842 0 0.00025115950848 0 0.00029390765121 0 
0.0003833862429 0 0.00041059427895 0 0.00046456625569 0 0.00053184729768 0 0.00052191875875 
0 0.00056860572658 0 0.00055999023607 0 0.00054237316363 0 0.00051569932839 0 
0.00044902652735 0 0.00028510738048 0 0.00017657414719 0 3.2356852898e-05 0 -1.9957795303e-05 
0 -8.0565303506e-05 0 -0.00020016074996 0 -0.00027065133327 0 -0.00026872620219 0 
-0.00028722692514 0 -0.00022267423628 0 -0.00012914297986 0 -8.761632489e-05 0 -1.7009557268e-05 
0 0.0001274561655 0 0.00014850289153 0 1.5999863535e-05 0 -0.00016884600336 0 
-0.00033159463783 0 -0.0003889760701 0 -0.00039334970643 0 -0.00050348113291 0 -0.00073172472185 
0 -0.00094070518389 0 -0.0010423155036 0 0 -9.4870429166e-06 -0.00015918712597 0 
0.00015123542107 0 0.00040319314576 0 0.00057197507704 0 0.00075808755355 0 0.00083479750901 
0 0.00090284930775 0 0.00079999899026 0 0.00076501991134 0 0.00050229963381 0 
0.00034841138404 0 0.00018773508782 0 6.5331129008e-05 0 -7.051765715e-05 0 -0.00024029421911 
0 -0.00029623837327 0 -0.00034760579001 0 -0.00025480071781 0 -0.00023928773589 0 
-0.00026422846713 0 -0.00019466875528 0 -0.00032695065602 0 -0.0003538854653 0 -0.00030687492108 
0 -0.00047873725998 0 -0.00076147896471 0 -0.00087872811127 0 -0.00082481600111 0 
-0.00074115389725 0 -0.00062976940535 0 -0.0008044365095 -0.00039894535439 -0.00086232373724 0 -0.00094636593712 
0 -0.00091454479843 0 -0.00087535544299 0 -0.00077887257794 0 -0.00073384155985 0 
-0.00070658465847 0 -0.00071847566869 0 -0.00082586397184 0 -0.00083373958478 0 -0.00079752475722 
0 -0.00070418533869 0 -0.0005764302914 0 -0.00036945447209 0 -0.00014012675092 0 
0.00016767023772 0 0.00039666425437 0 0.00061869865749 0 0.00082565186312 0 0.00075915607158 
0 0.00063356099417 0 0.00029891377199 0 3.0691342545e-05 0 -0.00023213186068 0 
-0.000358725345 0 -0.00030401008553 -0.0011601280421 -0.0014403038658 -0.00079166080104 -0.00038782021147 -4.4938340579e-05 0.00022635995992 
0.0004265960888 0.00053254555678 0.00065081560751 0.00075240735896 0.00082418485545 0.00086026097415 0.0008928598254 0.00084925984265 0.00076402910054 
0.00054581061704 0.00044151837938 0.00033326706034 0.00041493942263 0.00048120765132 0.00050480902428 0.00046998509788 0.00049261754612 0.00055703835096 
0.00066630030051 0.00074687373126 0.00085640698671 0.0009351320914 0.00097160594305 0.00094015314244 0.0008267944213 0.00060179748107 0.00039411574835 
0.00013283599401 5.4260266324e-07 -9.7751886642e-05 -0.00024396686058 -0.00042939561536 -0.00054428970907 -0.00055466202321 -0.00046993844444 -0.00039841225953 
-0.00035379474866 -0.00021877276595 6.7680994107e-05 0.00012568125385 -4.2718234909e-05 -0.00035450613359 -0.00064583233325 -0.00082471955102 -0.00088594300905 
-0.0010279385606 -0.0012400298147 -0.0014357782202 -0.0015661715297 -0.0015616798773 0.00017887569265 -9.280811355e-05 0.00051580311265 0.00083328457549 
0.0010851786938 0.0012387952302 0.0013083934318 0.0011829143623 0.0010164780542 0.00072830368299 0.00052965449868 0.00032100078533 0.00013351294911 
-0.00010147314606 -0.00029077305226 -0.00038129513268 -0.00037483204505 -0.00027013514773 -0.000253559876 -0.00026940667885 -0.00025124603417 -0.00040310851182 
-0.00049642060185 -0.000649637077 -0.00088642793708 -0.0010914694285 -0.0012332160259 -0.0012569510145 -0.0012175986776 -0.0011772461003 -0.0012161000632 
-0.001302403165 -0.0013953545131 -0.0013893279247 -0.0013046709355 -0.0011676533613 -0.001076935092 -0.0010302904993 -0.0010617336957 -0.00116698083 
-0.0012096660212 -0.0011551071657 -0.0010331314988 -0.00084255239926 -0.00060161366127 -0.00028510266566 0.00011902599363 0.00049339403631 0.00084774964489 
0.0011379654752 0.0011529052863 0.0010268149199 0.0007261367864 0.00026484302361 -0.00034185903496 -0.00063302996568 -0.00054009741871 -0.00035114146885 
-0.0011045039864 -0.0014533747453 -0.00063162081642 -0.0002050435869 0.00015083364269 0.00043537880993 0.00063011038583 0.00076426676242 0.00087218155386 
0.00095597095788 0.001012502471 0.0010372925317 0.00097434601048 0.00078919320367 0.00057617167477 0.00051671441179 0.00052430102369 0.00058805878507 
0.00060497055529 0.0005673947162 0.0004613858473 0.00039141575689 0.0003142534697 0.00054806418484 0.00075797457248 0.00096035853494 0.0011004958069 
0.0011613670504 0.0011532271747 0.0010492732981 0.0008513876237 0.00060398346977 0.00026188857737 3.5535122151e-06 -0.00019009308016 -0.00037944249925 
-0.00054072600324 -0.00066536775557 -0.00070774770575 -0.00063189427601 -0.00055415352108 -0.00051609560614 -0.00043205631664 5.7911929616e-05 1.2869320017e-05 
-0.00016042188508 -0.00057134428062 -0.00097797089256 -0.0012452680385 -0.0013888955582 -0.0015643700026 -0.0016768020578 -0.0018233975861 -0.001958104549 
-0.001889590756 -0.0018058151472 0.00026842564694 0.00034177213092 -0.00019575246552 -0.0003480494488 0.00061917182757 0.00019942007202 0.00098367966712 
0.0012776477961 0.0014244535705 0.0014778479235 0.0013495254098 0.0012000296265 0.00098950893153 0.00069589941995 0.00045097953989 0.0001739685249 
-0.00011571223149 -0.00034039502498 -0.00042172390386 -0.00035467551788 -0.00019600831729 -0.00019738027186 -0.00026220572181 -0.00033256274764 -0.00055191479623 
-0.00077954086009 -0.0010831324616 -0.0013348694192 -0.0014874455519 -0.0015455709072 -0.0015579240862 -0.00157857663 -0.0015804652357 -0.0015961347381 
-0.0016367874341 -0.001649271464 -0.0015624118969 -0.0014749998227 -0.0013638080563 -0.0012824964942 -0.0012198915938 -0.0012221595971 -0.0012417533435 
-0.0012340001995 -0.0011681832839 -0.001035228488 -0.00085377978394 -0.00063124438748 -0.00032152284984 9.8689357401e-05 0.00053760939045 0.00095743674319 
0.0013050433481 0.0014237711439 0.0013772584498 0.0010637375526 0.00049849203788 -0.00016996580234 -0.00068918796023 -0.0007136479835 -0.00050111825112 
-0.00017314626893 -0.00016098521883 -0.00024483169545 -5.0931004807e-05 -5.2932253311e-05 -0.00032879633363 -0.00081865891116 -0.0012821460841 -0.0016272239154 
-0.0018458223203 -0.0019921534695 -0.0020300995093 -0.0021112943068 -0.0023251320235 -0.0022018291056 -0.0019309689524 -0.0016701911809 -0.0013140753144 
-0.00085568905342 -0.00038232377847 2.2326186809e-05 0.00034420954762 0.00058328162413 0.00076161819743 0.00090763194021 0.0010059894994 0.0010540708899 
0.0010442988714 0.00092386762844 0.00072338653263 0.0005810878356 0.00061320833629 0.00070138130104 0.00075701234164 0.00070393341593 0.00065182335675 
0.00054938928224 0.0004685583699 0.00020088755991 0.00035708691576 0.00014509857283 0.00015354994684 0.00021215590823 0.00038497062633 0.00066525081638 
0.00095777405659 0.0011653320398 0.0012656250037 0.0012739874655 0.0011924769497 0.0010244384175 0.00071804726031 0.00030746206176 -3.7382011215e-05 
-0.00034128897823 -0.00055501289899 -0.00063996337121 -0.00071141333319 -0.0007234949735 -0.00069407053525 -0.00061277032364 -0.00054079625988 -0.00047423929209 
-0.00036694182199 -0.00028006368666 -0.00018032814842 -0.00023492547916 -0.00013914839656 0.0010889287805 0.00067170721013 0.0014031357132 0.001553056878 
0.001597139053 0.0014999146806 0.0013257606188 0.0010838556336 0.00077729148325 0.00044342444744 0.00010286934412 -0.00020602530276 -0.00042731457506 
-0.00046559239854 -0.00037364300806 -0.00023390784918 -0.00028953125002 -0.00018147216178 -0.00044696201803 -0.00073345762212 -0.0010647092713 -0.0014077872038 
-0.0016653914936 -0.0018043917371 -0.0018656211905 -0.0018134469865 -0.0018504047766 -0.0019077329198 -0.0019180109957 -0.0018679620698 -0.0017748415703 
-0.0016391560202 -0.0015294252662 -0.0014358104672 -0.0013641722035 -0.0012928701472 -0.0012382151326 -0.0011804149253 -0.0011137941619 -0.0010148329893 
-0.00088157341816 -0.00071226170985 -0.00051563116722 -0.00022740963323 0.00015207649267 0.00056060112547 0.0010060386267 0.0013675711816 0.0015553020639 
0.0015086950734 0.0011969412444 0.00069995160447 0.00011265159992 -0.00047898196499 -0.00068851280957 -0.00055593368597 -0.0002174264082 0.00020684742776 
-0.00012628445984 -0.00010232366913 -8.9047389338e-05 -0.0001377765293 -0.00045230094111 -0.0009649762651 -0.0014856967609 -0.0018992291298 -0.0021626071539 
-0.0023075724021 -0.002298673382 -0.0022926807869 -0.0024251432624 -0.0020283216145 -0.0022977078333 -0.0017680847086 -0.0013454431901 -0.00094779557548 
-0.0005628579529 -0.00016924660304 0.00016905798111 0.00043111859122 0.00065134675242 0.00086336507229 0.000962665712 0.00098269782029 0.0009228301933 
0.00077640177915 0.00058295601048 0.00052310235333 0.00064704270335 0.00091715401504 0.00093426270178 0.0008190292865 0.00072955532232 0.00071385293268 
0.00063247705111 0.0005555934622 0.0002329084964 0.00045455206418 9.3442977231e-05 5.2971347031e-05 6.7262066295e-05 8.447853179e-05 0.00021763016412 
0.00052080873866 0.0008912977064 0.0011736587621 0.0013223228743 0.0013592247851 0.001297400333 0.0011316571617 0.00082832411863 0.00040184537647 
-2.4570637834e-05 -0.00040678534424 -0.00063158001285 -0.00070823542774 -0.00072908279253 -0.00069402746158 -0.00064433831722 -0.00058244308457 -0.00052226398839 
-0.000460446754 -0.00034821292502 -0.0002808716672 -0.00029946712311 -0.00027608673554 -0.00039988849312 -0.00015151008847 -0.0024980746675 -0.0025151683949 
-7.8005541582e-05 -2.6256579076e-05 -0.00018896145048 -0.000362294144 -0.00062568834983 -0.00095208222046 -0.001326763304 -0.0016919351183 -0.0019433724228 
-0.0020662620664 -0.0020719149616 -0.0020376706962 -0.0020889427979 -0.0021798878442 -0.0022308616899 -0.0020342273638 -0.0018239880446 -0.0016516308533 
-0.0015277444618 -0.0014416967751 -0.0013721355936 -0.0012721159728 -0.0011623490136 -0.0010453253053 -0.00093119422672 -0.00080641749082 -0.00063887616852 
-0.00049106247025 -0.00034168877755 -0.00010603268311 0.0002247854718 0.00061576004373 0.0010410775431 0.0013724162709 0.0015651020221 0.0015042369487 
0.0012274289038 0.000845843344 0.00041357742157 -0.00015351343609 -0.00047905617976 -0.00048253225395 -0.00020148356271 0.00021492916858 0.00067509023938 
0.0010891446145 0.0013926300453 0.0015429659979 0.0015831586206 0.0015118175652 0.001349322265 0.0010930782882 0.00075430801371 0.00037629099097 
9.3528315119e-06 -0.00027594275889 -0.00047374240239 -0.00046966149239 -0.00038493063767 -0.00023664520995 -8.7607892056e-05 2.5554201784e-05 -2.019303065e-05 
7.7358192357e-05 -8.5858038801e-05 -0.00023502619297 -0.00050830672262 -0.0009940614691 -0.0015529224183 -0.002008987125 -0.0023240519222 -0.0024757168721 
-0.0024596422445 -0.0023985973094 -0.0023670666851 -0.0023862107191 -0.0025253663771 -0.0024193227291 -0.0024967209902 -0.0023075190838 -0.0020270594396 
-0.0016600040253 -0.0012781287078 -0.0010015765438 -0.00076709088171 -0.00042372167809 -8.303848881e-05 0.00017718409072 0.00036279537017 0.00085106235929 
0.00079524668399 0.00082348188153 0.00073891866487 0.00064296415076 0.00041583558777 0.00042289009434 0.00057455064962 0.00078020349611 0.00088584882906 
0.001034737099 0.0006564958021 0.00045924261212 0.0010815082351 0.00094641727628 0.00077407073695 0.00086381635629 0.00070939952275 0.00035227453918 
0.00063583342126 0.00010245123121 -2.1808034944e-05 -2.0102410417e-05 4.3839088903e-05 0.00034017700818 0.00088030938059 0.0011836474296 0.0013628402958 
0.001421099063 0.0013793720864 0.0012336930959 0.00094873813214 0.00055677583441 0.00012352064368 -0.00028350518551 -0.00055680033984 -0.00063538603717 
-0.00065570167499 -0.00061762152473 -0.00051045016153 -0.00047307350906 -0.00033678044565 -0.00027234334266 -0.00034532725113 -0.00050024694065 -0.0005459348904 
-0.00067028601188 -0.00038226920879 -0.00019252102356 -0.00039270537673 -0.00072431948502 -0.0011061275145 -0.0015264202375 -0.0019027278759 -0.0021576606669 
-0.0022416773718 -0.0022118717898 -0.002188770799 -0.0022436717991 -0.0023426879197 -0.0024385608267 -0.0018495861441 -0.002081452636 -0.0016455884324 
-0.0014975740341 -0.0013932720758 -0.0013074571034 -0.0011835914338 -0.0010452112183 -0.00089262006804 -0.00075034896145 -0.00061031716177 -0.00038788371603 
-0.00028946620296 -0.00017604201275 1.0547078091e-05 0.00027699157363 0.00059953023447 0.00097545486642 0.0012901766459 0.0015270391013 0.0015078269644 
0.001271106652 0.00097824516706 0.00065651559271 0.00013162502728 -0.00023284599592 -0.00034992257133 -0.00017635473341 0.00020191915974 0.00064882199513 
0.001026765327 0.0012895948021 0.0014354179148 0.001483098371 0.0014323189389 0.0012757724617 0.0010213615606 0.00067642115755 0.00031315526576 
-4.2593947001e-05 -0.00027684294037 -0.00042832337203 -0.00041013001464 -0.00033548439387 -0.00020463307737 -3.6217163142e-05 0.00012070858793 0.00020179530839 
6.1186938183e-06 0.00017053357442 -0.00012748817971 -0.0023103484418 -0.0024855148513 -5.8475121477e-05 3.0505587347e-05 0.0012284611585 0.0009268822032 
0.0014021886745 0.0014796907781 0.0014487899607 0.0013415681897 0.0011454146588 0.00084053265164 0.00035062764073 -6.1180580815e-05 -0.00036044829176 
-0.00047832701239 -0.00052024389151 -0.00049522292102 -0.0004184783902 -0.00032853073208 -0.0003205697576 -0.00061830977211 -0.0010292166844 -0.001550848363 
-0.0020282063633 -0.0023530898616 -0.0025372086093 -0.0025177723728 -0.0024418702815 -0.0023570866324 -0.0023071384057 -0.0023132194765 -0.0024172430858 
-0.0023056901991 -0.0024897684343 -0.0024141613394 -0.0021834126674 -0.0018319296651 -0.0014115269296 -0.0010566230631 -0.00072117889067 -0.00038172505447 
-0.00010038261098 0.00010804894555 0.00024898923584 0.00049550121184 0.000333408796 0.00062317447737 0.00070194317959 0.00070424104342 0.0006210982101 
0.00051683996571 0.0010290383361 0.0011189657962 0.00094295054441 0.00015061380691 0.00060460332315 -5.0572281907e-05 -0.00035549030872 -0.00072189659113 
-0.001151603763 -0.0016251502093 -0.002024926478 -0.0022837608121 -0.0023622545414 -0.002240738133 -0.002290498931 -0.0023924170528 -0.0024908448104 
-0.0018353329506 -0.0020745866932 -0.0016084314557 -0.0014301801566 -0.0012991647236 -0.0011968432227 -0.0010693044169 -0.00091649824753 -0.00074720045086 
-0.00058750674361 -0.00049613212468 -0.00034805078758 -0.00010885809752 -0.00020121457055 4.7344932682e-05 0.00026073495974 0.00051836832426 0.00082534283865 
0.0011093895882 0.0013259990374 0.0013486779062 0.0014761002967 0.0011302041821 0.00084800762124 0.00036778184585 -7.1371819104e-06 -0.00020770770789 
-0.00017999249394 -0.00025896108127 -0.00027556161513 0.00055038480787 0.00022261789127 0.0015336135402 0.0014070853358 0.0009315222851 0.001135298633 
0.0012687410926 0.0013231917983 0.0013094457099 0.0011493406491 0.00089755858062 0.0005678726593 0.00023604326998 -5.7648263464e-05 -0.00023044440604 
-0.00031480984762 -0.00027295885957 -0.00020468526054 -0.00013629140449 1.0387307157e-05 0.00020132877398 0.00032690487569 3.0504001188e-05 0.00037411681842 
0.0002733618312 0.00051165377954 0.00060303311329 0.00070309266448 0.0010345997289 0.00078288640361 0.0011814516038 -0.0013234209036 -0.0015226353426 
-0.0011757607572 -0.0010701646097 -0.00093581259716 -0.00078462355305 -0.00060408294667 -0.00039382028626 -0.00027443593717 0.00047828356037 0.00020230955852 
-2.0883046091e-05 -0.00011192633247 -0.00013948979904 -6.7551227403e-05 -9.5294890343e-06 0.00026117279776 0.00042726413812 0.0005170967197 0.00055280217202 
0.0005064032739 0.00040355947567 0.00031790530193 -0.00024129798112 -0.00066146982135 -0.0011353087611 -0.0016746389447 -0.0020845029503 -0.0023141526617 
-0.0024094989058 -0.0010765594197 -0.00071718811523 -0.00036982932943 -0.00012743970728 -0.0023957043886 -0.0022665208671 -0.0019629949238 -0.0015070703812 
0.0003949351667 0.00036101066507 0.00028067061794 0.00020545058942 0.00016513899027 0.00022732124489 0.00040646552225 0.00042639233288 -0.0022709034383 
-0.002297288971 -0.0023761810735 -0.0024648550898 -0.0022862406913 -0.0024452074431 -0.00078458932694 -0.0011032688199 -0.0015712925233 -0.0019947323017 
-0.0022847973742 -0.0017624342581 -0.0025133513846 -0.00028745798045 -0.00024081356241 -0.00016725836031 -1.1170703146e-05 0.00017616196419 0.0003887929779 
0.00064129778184 0.00089368631598 0.0010854495922 0.0011557491962 0.001409329474 0.0012263227254 0.0014857606729 0.0014666049974 0.0014167403569 
0.0012617962202 0.001025114092 0.00057547306642 0.00020592061628 -2.0265462808e-05 -0.00010670217307 0.00035081576789 0.00064064358594 0.00098407268524 
0.0012612143764 0.0014113999205 0.0015073205577 0.0014922337141 0.0014246313367 0.00052297359798 0.00084682705346 0.00020695023704 -6.1073733377e-05 
-0.00018483774329 -0.00033125854679 -0.00035207311157 -0.00035599747207 -0.00083267892478 7.9214754805e-05 0.00022451375844 0.00044538881048 0.00068397296127 
0.00087053416064 0.0014776680619 0.0014889014419 0.0013741266448 0.001247633365 -0.0022893617861 -0.0021232429426 -0.00059524230892 -0.0011169170029 
-0.00031323605799 0.00019343687745 4.9937494623e-05 3.4038166632e-05 7.0825750299e-05 0.00015654842719 0.0013269050978 0.0014092493802 0.0014566722093 
-0.0022062552162 -0.0020138730761 -0.0014123114524 -0.0012095887214 -0.0010314957472 -0.00096363818739 -0.0017528436147 0.00084483949468 -0.0025347059127 

Disp_Y 1 1116 double
0 0 0.0017675071722 0.0018777464284 0 0.0016460246406 0 0.0015600378392 0 
0.0014676209539 0 0.0013655372895 0 0.0012648014817 0 0.0011025274871 0 0.00098898389842 
0 0.0010969582945 0 0.0011283190688 0 0.0010450580157 0 0.00085072929505 0 
0.00061747501604 0 0.00040038244333 0 0.00018476109835 0 -7.3390699981e-05 0 -0.00033949853969 
0 -0.00058718922082 0 -0.00075401098002 0 -0.00087963143596 0 -0.00095151789719 0 
-0.00089218065841 0 -0.00066269328818 0 -0.00035035909968 0 -0.00015938631259 0 -0.00024457610562 
0 -0.00060684874188 0 -0.001046406338 0 -0.0014275953872 0 -0.0017034470802 0 
-0.0018980201567 0 -0.0020446362905 0 -0.0022040780168 0 -0.0022928023245 0 -0.0022680505645 
0 -0.0022572327871 0 -0.0021425483283 0 -0.0019251757767 0 -0.0016463864595 0 
-0.0013253572397 0 -0.0010740614962 0 -0.00081991724437 0 -0.00050935975742 0 -0.00022295166855 
0 -5.0219594414e-05 0 8.4616978711e-05 0 0.00032397708856 0 0.00074381520972 0 
0.0012322015828 0 0.0016036939342 0 0.0017814742168 0 0.0018052501837 0 0.001824107836 
0 0.0018862735014 0 0.0019076829776 0 0 -0.0011295247823 -0.0010158846853 0 
-0.0012976487633 0 -0.0014415126061 0 -0.0015708899591 0 -0.0015846909955 0 -0.0015357253142 
0 -0.001361164148 0 -0.0011452039471 0 -0.00087369873654 0 -0.00072028790601 0 
-0.00060456083156 0 -0.00046562429634 0 -0.00023442033853 0 2.3231039449e-05 0 0.00022163495305 
0 0.00034987210529 0 0.00034240362584 0 0.00032075142371 0 0.00052352726925 0 
0.00093136704527 0 0.0013204866555 0 0.0017951385817 0 0.0022238821257 0 0.0025381683372 
0 0.0027131687384 0 0.0027050143108 0 0.0025757537223 0 0.0025323547889 0 
0.0025782878511 0 0.002584469039 0 0.0025246539153 0.00069676188286 0.0022011655383 0 0.0019582514651 
0 0.0014619590947 0 0.00091872556368 0 0.0004350260715 0 0.00015103262558 0 
2.5171544621e-05 0 2.2046122467e-05 0 -1.0976818885e-05 0 -0.00013705300807 0 -0.00028586064582 
0 -0.0003727277508 0 -0.00041733280523 0 -0.00049814232625 0 -0.00074728304753 0 
-0.0011188738281 0 -0.0016159735387 0 -0.0020461573731 0 -0.0023946675938 0 -0.0026242637541 
0 -0.0026212753728 0 -0.0024370176252 0 -0.0019805303309 0 -0.001438065432 0 
-0.0011717537418 0 -0.0010430485709 0.0028500668705 0.0031313225627 0.0025494189467 0.0023113307543 0.002128506545 0.0019415356219 
0.0017118207179 0.001585966791 0.0016752054216 0.0016826660139 0.0015417737886 0.0012944163755 0.00098011095542 0.00065045437077 0.0002831822494 
-0.00014383764938 -0.00059199135285 -0.0010617527878 -0.0013869639952 -0.0016559970099 -0.0018316241913 -0.0018366422737 -0.0011421379168 -0.00060874980409 
-0.00030446524033 -0.00046833098168 -0.0010474123992 -0.0017359933117 -0.002342851134 -0.002834737068 -0.0032331869006 -0.0035871241707 -0.0038466290571 
-0.0040316609666 -0.0040859417059 -0.0039947708137 -0.0037061753683 -0.0032386293169 -0.0026580821723 -0.0020524589345 -0.0014968126779 -0.0010188336018 
-0.00056357501308 -0.00018210793496 1.6497302568e-05 0.00015575389261 0.00043461559108 0.00096441898495 0.0016537714982 0.0022275424562 0.0026292218827 
0.0028511311393 0.0031250014435 0.0034066371154 0.0034743121359 0.0033705085516 -0.0020759818144 -0.001799541642 -0.0023653402459 -0.0026253419928 
-0.0027386611328 -0.002674815245 -0.0024379130919 -0.0020880615339 -0.0016788304783 -0.0013169610174 -0.00094632979017 -0.00056566414423 -9.7031443147e-05 
0.0002736520546 0.00055159605108 0.00062550551957 0.0005545062595 0.00059742090525 0.00092548690736 0.0015048614005 0.0021942537278 0.0029715925921 
0.00373551948 0.004317455925 0.004574988503 0.0044948817231 0.0042577241547 0.0041392752901 0.0041691889055 0.0041944757104 0.0040229451843 
0.0036179691087 0.0029713141266 0.0021865754388 0.0013478012988 0.00066007277928 0.00022329270723 1.1408774299e-05 -1.5916924895e-05 -4.3450356316e-05 
-0.00022436668223 -0.0004438275937 -0.00057009997545 -0.00060746649979 -0.00078140973346 -0.0012959173182 -0.0020385710523 -0.0029009534046 -0.0037593946327 
-0.0043877330609 -0.0047013545409 -0.0045751524158 -0.0039969156496 -0.0030125612393 -0.0019744832534 -0.0015316655627 -0.0014653997496 -0.0015620291233 
0.0033805139828 0.0039681331255 0.0029466673732 0.002609542571 0.0023376299068 0.002074607648 0.0019172492903 0.0019206820289 0.0018645540113 
0.0017295037396 0.0015077575808 0.0012008656049 0.00086829083739 0.00045504723676 -0.00010616264626 -0.00080002757022 -0.0014949317556 -0.002039440209 
-0.0024022695143 -0.0026356533635 -0.0028056853916 -0.00075604533777 -0.0013934004819 -0.00041915787733 -0.00062268500915 -0.0013271913631 -0.002215445973 
-0.003054901259 -0.0037667264696 -0.0043767141178 -0.0049078380689 -0.0053203748539 -0.0055845552124 -0.0056390562095 -0.0054536010139 -0.0050040115602 
-0.0043204510584 -0.0034739717375 -0.0026029534638 -0.0018379993271 -0.0012194234878 -0.00072215113323 -0.00037151522702 0.00013146972924 2.1767000362e-05 
0.00041845638771 0.0010270433268 0.0018492154777 0.0026095390785 0.0032001803629 0.0036176093854 0.0041810250841 0.0047173462808 0.0050540463999 
0.0048971432261 0.004462249577 -0.0022001930047 -0.0029564050492 -3.0198363675e-05 -0.0001098768189 -0.0030059779529 -0.0025518063921 -0.0033998694271 
-0.0036183611955 -0.003596219467 -0.0033474161755 -0.0029359355103 -0.002352118725 -0.0017211545492 -0.001172546763 -0.00052187254187 0.00012287094432 
0.00061271054437 0.00084409775445 0.0008341538487 0.00067473563831 0.000724497193 0.0012110525277 0.0019603720866 0.002866552677 0.0039170235395 
0.0049536465667 0.0057167788036 0.0060319993645 0.005892383866 0.0055552707054 0.0053581367247 0.0053974525072 0.005433106795 0.0051977364346 
0.0045980610885 0.003663954325 0.0025250781327 0.0014729411341 0.0006715268828 0.00021230777202 2.6490504297e-06 -1.3882424355e-05 -8.3094550064e-05 
-0.00027149688685 -0.00048949220218 -0.00062420940958 -0.00068136240589 -0.0010286483448 -0.0018438094994 -0.0028998691123 -0.0041328775696 -0.0053372019902 
-0.0061809080653 -0.0064892428927 -0.0061195991002 -0.0051179011352 -0.0035968194716 -0.0020916678477 -0.0013706091559 -0.0014065540163 -0.0017066473374 
-0.0021189614199 3.275959898e-05 2.47527787e-05 3.0735904147e-05 5.9324516769e-05 0.00032715161797 0.0010259466944 0.0020188738126 0.0029206406325 
0.0036549500655 0.0042356201448 0.004895504564 0.0056511010043 0.0066467239521 0.0062870238908 0.0056046377867 0.0047974628396 0.004017857369 
0.0034173056483 0.0029719911981 0.0026164653245 0.0022820676677 0.002034279285 0.0019032572163 0.0018058068817 0.0017052876065 0.0015619412297 
0.0013403677149 0.0010897386819 0.00067636487074 -2.2642563636e-05 -0.00093533616746 -0.0019194323104 -0.0026317834854 -0.0030250067357 -0.0032165837474 
-0.0034629760776 -0.0035747440998 -0.0029310698155 -0.003574834438 -0.002204136923 -0.0015101466561 -0.00093545106938 -0.00059383217013 -0.00076351233292 
-0.0014934455976 -0.0025119602215 -0.0035419391934 -0.0044521088712 -0.0052620563656 -0.0059770923108 -0.006570823025 -0.0069554033689 -0.006968036294 
-0.0066000325605 -0.0059368549846 -0.0050459085032 -0.0039927186444 -0.00293318904 -0.0019744446035 -0.0012925098417 -0.00084638857516 -0.00045585774933 
-0.00020263287297 1.1095636182e-05 4.9226884585e-05 4.6673652832e-05 3.5562366975e-05 -0.0039130668156 -0.0034194404725 -0.0041963993572 -0.0042004412971 
-0.0039509311318 -0.0034886465874 -0.0028155334294 -0.0019888284151 -0.0011952740606 -0.00040821067523 0.00035733453115 0.00086125632515 0.0010928814299 
0.00099847617093 0.00081524759298 0.00074145564577 0.0023292696569 0.0015547788935 0.0033711872529 0.0045765321702 0.0057808887213 0.0066741537303 
0.0070494106039 0.0068943179213 0.0064848158509 0.0062058372423 0.0062271100469 0.0062800040469 0.0060146343894 0.0052079926245 0.0040194522589 
0.0026568835601 0.0014453479089 0.00057340285275 0.00014409449068 1.1429912774e-05 3.9702204049e-06 -0.0001257489057 -0.0003143947979 -0.00046874696272 
-0.00061603781069 -0.000738776871 -0.0012775822543 -0.0023159536067 -0.0036188950762 -0.0051632425748 -0.0066151930951 -0.0076268389821 -0.0078948633745 
-0.0072398977354 -0.0058056670241 -0.0038924780674 -0.0022025865037 -0.0012535050046 -0.0012038190616 -0.0016301154392 -0.0022135663312 -0.0028151026927 
0.0010442445055 0.00084428401897 7.8999555626e-06 -4.7640255616e-06 0.000226914417 0.0010528243147 0.0021655417513 0.0032277456485 0.0041282470338 
0.0048017147928 0.0054169986397 0.0060884896666 0.007004532963 0.0063220723532 0.0072359954938 0.0053423279896 0.0045127207413 0.0038111230824 
0.0033460673876 0.0029075671919 0.0024830503389 0.0020962085109 0.0017534650397 0.0016305705067 0.0015906725312 0.001538725337 0.0014339137124 
0.0012635533931 0.00091212353436 0.00014799172641 -0.00090006081155 -0.0022766375914 -0.0031832738314 -0.003506089095 -0.0035514163319 -0.0038428411353 
-0.0040768398903 -0.0040970323607 -0.0033299874049 -0.0039134337567 -0.0026629734784 -0.0020196347032 -0.0015795499785 -0.0011828325223 -0.00079419149552 
-0.00090071558952 -0.0016180264065 -0.002724719001 -0.0038616603706 -0.0049315379001 -0.0059284837916 -0.006851838436 -0.0076449327171 -0.0081701539457 
-0.0081402454525 -0.0075476756319 -0.0065977745689 -0.0054402253591 -0.0041623772122 -0.0029513381887 -0.0018997867592 -0.001201013336 -0.00087116315262 
-0.00055855698884 -0.00023996357049 -6.4424915763e-05 5.3527564887e-05 -2.10519338e-05 -1.9412167603e-05 -3.0823782708e-06 0.0078092725016 0.0079475883394 
0.0013178897789 0.0010664835572 0.0018368298188 0.002630509669 0.0037169626448 0.0049707181752 0.0062678731047 0.0072662932798 0.0077244867571 
0.0076063736342 0.0071505000815 0.006781571079 0.006744407583 0.0068019214086 0.0065297526307 0.0054297228344 0.0040209912695 0.0025442505721 
0.0012911694357 0.00043111399282 0.00012574977882 4.7195087973e-05 6.8293088589e-06 -0.00016209804744 -0.00031905586366 -0.00038429745473 -0.00050815957366 
-0.00078227458289 -0.0015577464364 -0.0027838700917 -0.0042139710858 -0.0059325029142 -0.0075751650147 -0.0087295239791 -0.0089387074113 -0.0079624811187 
-0.0061237551272 -0.0040109045804 -0.0023296282161 -0.0012576960726 -0.0010432463605 -0.0014732545242 -0.0021794072818 -0.0029439500067 -0.0036686738022 
-0.0042147939093 -0.0045234677382 -0.0045288898982 -0.0042672911659 -0.0037388831843 -0.0029622945003 -0.002046123147 -0.0011363888625 -0.00026001571678 
0.0004908721894 0.00096703553572 0.0012177998433 0.0010996517958 0.00093606492737 0.00079556944547 0.00079696479952 0.00096434250008 0.0013883374631 
0.0012529654196 0.0015440495918 -5.8942994656e-05 0.0001327728387 0.00095345726004 0.0021447755862 0.0034206255805 0.0045098881237 0.0053158085793 
0.0058726044372 0.0063368859701 0.0069339806214 0.0076769581065 0.0085502685979 0.0082719745114 0.0083339409903 0.0075931986794 0.0065898210742 
0.0055403942242 0.0046540196054 0.0040553850122 0.003725644201 0.0032687864732 0.0027532046661 0.0022841244936 0.0018582522171 0.0014905922581 
0.0014548915206 0.0015286603011 0.0014650672674 0.001326354919 0.0011723565403 0.00034264856367 -0.00058990967227 -0.0014749142574 -0.0039572604001 
-0.0037578328047 0.00146781886 0.001514613512 -0.0030640596524 -0.0021428870969 -0.0044635054655 -0.004347841721 -0.0043099420145 -0.0035108921584 
-0.0040886248462 -0.0028568631969 -0.0022084424272 -0.0015954640694 -0.0010836834554 -0.00095549959224 -0.0017922747647 -0.0029268786311 -0.0041246325709 
-0.0052803340368 -0.0064096818678 -0.007519621402 -0.0085519813001 -0.0092211393639 -0.0091148233041 -0.008295272477 -0.007060631644 -0.00565332314 
-0.0041664321907 -0.0027578689624 -0.0014265296049 -0.0008232035907 -0.00041024867096 -0.00013774682884 -3.6398254451e-05 -2.4843939173e-06 -0.00011151403305 
-6.8008892413e-05 -0.00011958333198 0.0019982256927 0.0027504211757 0.0038321705069 0.0050950129516 0.0064608799294 0.0075564379804 0.0081225680187 
0.0080984728411 0.0076406244189 0.007155219093 0.0069997822866 0.0069999955595 0.006835875567 0.0036810908932 0.0049898792058 0.0022458683234 
0.0010716886027 0.00027782353573 8.9415822004e-05 4.4436455937e-05 -1.3716340618e-05 -0.00017087472952 -0.00027706491528 -0.00028524480877 -0.00032894260949 
-0.00092293595662 -0.0019483794458 -0.0032573870849 -0.0047320956364 -0.0065568955615 -0.0082402871922 -0.0095174359158 -0.0098570268601 -0.0082505103201 
-0.006136124488 -0.0040397527628 -0.0024499774445 -0.0013646545121 -0.0010038734181 -0.0013253015932 -0.0020641076844 -0.003007150488 -0.0038171228953 
-0.0043761036359 -0.0046779555269 -0.0046765003353 -0.0043994816951 -0.0038112394977 -0.0029799989425 -0.0020277076401 -0.0010544426041 -0.00020969726029 
0.00053440552438 0.00094308995176 0.0011833069148 0.0010892710416 0.00097785273101 0.00085626146756 0.00082100182772 0.00090869271662 0.0011361747747 
0.0017253841506 0.0014740902698 0.0019180165837 0.0059736133553 0.0063806725666 -0.0015854232479 -0.0011295923032 -0.0031797934789 -0.0021172289271 
-0.0043412591331 -0.0055481228046 -0.0067535666749 -0.0079657649621 -0.0091624427587 -0.010105646215 -0.0097492802888 -0.0087360395119 -0.007322082296 
-0.0056847105734 -0.0040431884117 -0.0026928521693 -0.0016409587115 -0.00059508386767 -0.00086424488109 5.6526509979e-06 0.00071976071922 0.0019869310781 
0.0034670510795 0.0047221016139 0.0058507327922 0.0062573938631 0.0065866429359 0.006937768776 0.007355870679 0.0077962116338 0.0085907028988 
0.0080520370975 0.0087209483609 0.0083452975377 0.0074912090786 0.0063947071321 0.0053222267888 0.0043853917159 0.0038950077724 0.0032335321885 
0.0026293706615 0.0021048837807 0.0016654394567 0.0012372188503 0.0013091058936 0.001283184858 0.0013373033144 0.0014159423299 0.001514609321 
0.0014246650971 -0.0046584000811 -0.004363140557 -0.0045756986365 -0.0029579286929 -0.0039242054336 -0.0021808734164 0.0026921092067 0.0037643068936 
0.0050276708789 0.0064468993805 0.0076261344366 0.0082972720265 0.0084340842441 0.007367121987 0.0071005406789 0.0069998898543 0.0068285157904 
0.003118327586 0.0043316441588 0.0018749572337 0.00083618453937 0.00020727794617 5.6634511566e-05 1.2775929463e-05 -3.1480041798e-05 -0.00014101044508 
-0.00020588136977 -0.00022074778099 -0.00020737067098 -0.0025641887914 -0.001462459797 -0.0039065186866 -0.0053266058676 -0.0070229978301 -0.0086372019723 
-0.0098404567689 -0.010374105535 -0.0059751211666 -0.0079058902338 -0.0040906532668 -0.0025834990665 -0.0015104284976 -0.001054080436 -0.0011913382914 
-0.0018489062786 -0.00074308289913 -0.00037423163303 -0.0013356583659 -0.0010576059576 -0.0095216017216 -0.010336846113 -0.0044187135063 -0.004693523515 
-0.0047066300176 -0.0044075837359 -0.0037666098215 -0.002864764072 -0.001889073872 -0.00089174776804 -6.7397420935e-05 0.00058202364016 0.00093727285275 
0.001105775591 0.001039595576 0.0009600414196 0.00089381862199 0.000884620531 0.00092762138229 0.0010523801902 0.0019564640243 0.00032014821772 
0.00098214240279 -0.00031376586412 -0.00072740402538 -0.0011742500355 -0.0025912167039 -0.0015711002052 -0.0035570692271 0.00067956233397 0.0015402702847 
0.00016491988208 1.3226367628e-05 -3.5347016819e-05 -4.5826702262e-05 -6.5533829911e-05 -0.00012487790082 -0.00026473993785 -0.00063195859548 0.00011925087892 
0.00068412406836 0.00095138553297 0.0010843781056 0.0010186344152 0.00095713755582 0.00099904183298 0.0010796393035 0.0011614804389 0.0012358035892 
0.0013427581871 0.0014133461518 0.0013028843096 0.0025124994572 0.0036469760817 0.004942804575 0.0064567937516 0.0076325736009 0.008298214525 
0.008609472774 0.004718861077 0.0039375233464 0.003085765522 0.0024681345094 0.0085296798497 0.0080542862415 0.0071128979325 0.0058421166614 
0.0010910431156 0.0011502421694 0.0012488783104 0.0012447630288 0.0010946422117 0.00069328903919 1.9469700419e-05 -0.00028860860039 0.0074274283834 
0.0071804956533 0.0069662327878 0.0067569026724 0.0052373451181 0.0056756911799 -7.6463315054e-05 0.00055373623036 0.0019164897967 0.003520689439 
0.0047161164694 0.0025646248832 0.006522951182 -0.0013414238347 -0.0021220948547 -0.0032560133841 -0.0046148002148 -0.0058783655986 -0.0073608881794 
-0.0088318167254 -0.0099111618474 -0.010468881577 -0.010568838567 -0.0098550794646 -0.010182593949 -0.008925116621 -0.0074745416641 -0.0058231772855 
-0.0042348597199 -0.0027664559893 -0.0016209484311 -0.0011232709512 -0.001083778101 -0.0014569486957 -0.0012146254303 -0.0015919818543 -0.0024222871289 
-0.0034149712883 -0.0045010936446 -0.0057189273648 -0.0069763283245 -0.0082141095772 -0.0099214147776 -0.010418014601 -0.0089159142226 -0.0074568120763 
-0.0056237350218 -0.0038061025552 -0.0025988495909 -0.0018083715113 -9.2575122835e-05 -0.0063258921728 -0.007581224665 -0.0089122829959 -0.0098812822253 
-0.010332043283 -0.0057995668612 -0.0071637034416 -0.0045216977596 -0.0035793976858 0.0082224681973 0.007706402801 0.003564432729 0.0049219834618 
0.0028158284258 0.00040668054135 0.00087829091353 0.0010705391178 0.0011310519185 0.0010746518383 -0.0093360831961 -0.0092554148287 -0.0084122205153 
0.0046010222286 0.0037559224293 0.0012976252474 0.00057014182676 0.00010375654529 -8.5929259512e-06 0.0066397748888 -0.0043898099102 0.0064767808653 

Disp_Z 1 1116 double
0 0 0.00032510515302 0.00019848832744 0 0.00047435227316 0 0.00061249284772 0 
0.00070526835043 0 0.00077860779129 0 0.00083191005979 0 0.00085280154599 0 0.00081452488666 
0 0.00084362132475 0 0.0010370245436 0 0.0012864856981 0 0.0015194172738 0 
0.0016732799122 0 0.0017406187253 0 0.0018012833316 0 0.0017939782701 0 0.0017646572087 
0 0.0017025858397 0 0.0015557690058 0 0.0012971867109 0 0.00095138844335 0 
0.00049517577281 0 -4.4091655582e-05 0 -0.00035189121263 0 -0.00039658872993 0 -0.00019328734197 
0 -0.00014807932894 0 -0.00033929082565 0 -0.0006368861068 0 -0.00092636968475 0 
-0.0011677276343 0 -0.0013425825164 0 -0.001613684115 0 -0.001837410382 0 -0.0020427345298 
0 -0.002317824401 0 -0.0025217996445 0 -0.0026179451961 0 -0.0025803262834 0 
-0.0023947660811 0 -0.0021264785901 0 -0.0018011103384 0 -0.0014651210513 0 -0.0010782838799 
0 -0.00073190085823 0 -0.00065540865762 0 -0.00075361778727 0 -0.0008877859218 0 
-0.00087632134091 0 -0.00073631363921 0 -0.00056478165789 0 -0.00043834987446 0 -0.00033518808777 
0 -0.00015921190789 0 3.2617623219e-05 0 0 0.00035602966091 0.00032716232818 0 
0.0005894259084 0 0.00080439419253 0 0.0010898472974 0 0.0014136681566 0 0.0017808068078 
0 0.0020507494919 0 0.0022345087491 0 0.0022811363451 0 0.0022629790474 0 
0.0021651142742 0 0.0020157783292 0 0.001811621245 0 0.0014977175742 0 0.0011144382879 
0 0.00069218111457 0 0.0004166465078 0 0.00036870347685 0 0.00054989825003 0 
0.00063629238866 0 0.00068096455652 0 0.00069327990059 0 0.00060939660762 0 0.00038037038757 
0 8.3281935076e-05 0 -0.00012795488874 0 -0.00023234415858 0 -0.00027020770358 0 
-0.00034719306859 0 -0.00052908743965 0 -0.00071746099275 8.0617217463e-05 -0.00093364238273 0 -0.0010300796712 
0 -0.001049366896 0 -0.00096575479256 0 -0.00078531517647 0 -0.00055312202312 0 
-0.00038561644033 0 -0.00032207515324 0 -0.00038500907249 0 -0.00053079612553 0 -0.00065709021874 
0 -0.00078700773884 0 -0.00098427734338 0 -0.0013077328913 0 -0.0016762199812 0 
-0.0020348967519 0 -0.0023022482637 0 -0.0023546305019 0 -0.002188706072 0 -0.001794527634 
0 -0.0012944992632 0 -0.00076737144263 0 -0.0002291801793 0 -4.2413445044e-05 0 
1.945889926e-05 0 0.00025404198095 0.00090056430781 0.000607148977 0.001101782429 0.0011979484698 0.0012345534051 0.0012541377218 
0.0012443015585 0.0011597381672 0.0011785482056 0.0014512394555 0.0018272738671 0.0021821022965 0.0024566806387 0.0026383777149 0.0027764888946 
0.0028954644222 0.0030065171886 0.003004909493 0.002815579297 0.0024094041437 0.0018370683538 0.0010120519437 -1.0832215594e-05 -0.00046379247215 
-0.00044259478454 -0.00014568396728 -9.9808887171e-05 -0.00041734083788 -0.00090545974672 -0.0013989539584 -0.0018377398374 -0.0022248462774 -0.0026659250725 
-0.0030849971808 -0.0035252794623 -0.0039927731268 -0.0043645594269 -0.0045012524351 -0.0043723601848 -0.0040190750733 -0.0035063012037 -0.0029163872823 
-0.0023017651401 -0.0016294429079 -0.001033892855 -0.0009572384879 -0.0011096321978 -0.0012959515443 -0.0013115871698 -0.0011620416772 -0.00094392208848 
-0.00081345293438 -0.00067752454197 -0.00036393298069 1.7625874534e-05 0.00032540605753 0.00091049884213 0.00056465598755 0.0012618445326 0.001745178597 
0.0023569986224 0.0029752138071 0.0034812833183 0.0038264426403 0.0039319521748 0.0038333237171 0.003616562346 0.0033078775741 0.0028790810611 
0.0023065642454 0.0016451692209 0.0010482963407 0.00072240323061 0.00074953667354 0.00097745400853 0.0012017698027 0.0013733665692 0.0013891718118 
0.0012270838488 0.00080621603411 0.00026125911972 -0.00019801442977 -0.00042660627514 -0.00049501575995 -0.00065839989111 -0.00095655204495 -0.0013207513839 
-0.0016389760422 -0.0018222061917 -0.0018301863456 -0.0016808342189 -0.0013731191866 -0.0010011265986 -0.00070090848021 -0.000555126986 -0.00059960881481 
-0.00078052695608 -0.00096479005879 -0.0011826534756 -0.0015905313194 -0.0022535983007 -0.0030115700793 -0.0036754643079 -0.004104339052 -0.004150882829 
-0.0038079132792 -0.0031145862304 -0.0021581535693 -0.0011043102713 -6.3981628045e-05 0.00038117152872 0.00018946055206 0.00023101213446 0.00034347816836 
0.0015822515124 0.0013302072184 0.0016255100491 0.0015910593793 0.0015181722119 0.0014108155156 0.0012581365881 0.001233785064 0.0014697648585 
0.0018394537037 0.0022471759003 0.0026180534624 0.0029546453152 0.0033344726544 0.0037534434814 0.0041095814668 0.0041935984045 0.003956196364 
0.0034027560614 0.0027303178795 0.0020276547875 -0.000512999075 -0.00014921382535 -0.00042503883014 -8.8798740762e-05 -1.7456986825e-05 -0.00036388967419 
-0.00094888056628 -0.0016383931506 -0.0022894165013 -0.0029194194358 -0.0035969335586 -0.0042343446985 -0.0048579294235 -0.0054434798658 -0.0058713145554 
-0.0060103749856 -0.0057935360819 -0.0052519082092 -0.0044972905889 -0.0036797206849 -0.0029660083819 -0.0023423321545 -0.00093597598607 -0.00096973485779 
-0.0011738393223 -0.0014547462342 -0.0015510686208 -0.0014517221134 -0.0012428350747 -0.001132935402 -0.0010022724746 -0.00065724086016 -0.00013413131819 
0.00043055292917 0.00095452228561 0.00055032031378 0.0014395134058 -0.0013397471048 -0.0018436013488 0.0015598953469 0.0010912894504 0.0022602095269 
0.0030833822675 0.003943271935 0.0046389992349 0.0051227416843 0.0052937772125 0.0051427683793 0.0047634160146 0.004243739415 0.0035693233367 
0.0027496479452 0.0018933049869 0.0012010236969 0.00080525083467 0.00092341500567 0.0012910002843 0.0016456742305 0.0019244222203 0.0019751235377 
0.0017566545866 0.0011764012743 0.00043128870311 -0.00019577312924 -0.00054852257017 -0.00066086393781 -0.00085949973436 -0.0012789906468 -0.0017742598429 
-0.0021932485979 -0.0024031028152 -0.0024068448693 -0.0021251358557 -0.0016981475055 -0.0012040758738 -0.00082225090591 -0.00064037553966 -0.00067572743865 
-0.00084835168673 -0.0010800608434 -0.0014335261658 -0.0020995691884 -0.0031014413107 -0.0041752369143 -0.0051159975119 -0.0056927301921 -0.0057269302197 
-0.0051997308619 -0.0041682575829 -0.0027436809614 -0.0011982746655 0.00015273714962 0.00073492497904 0.00035705135087 0.00019060990599 0.00029674149118 
0.00063420896186 -0.0011113206856 -0.0013868426904 -0.00087421026547 -0.00090652704239 -0.0012458179845 -0.0016164814588 -0.0017638660502 -0.0017193767708 
-0.0015505775809 -0.0014125359012 -0.0012689295691 -0.0010496590985 -0.00043827283662 0.00062199862441 0.0013342273887 0.0017952028429 0.0019942785148 
0.0020115061197 0.0018901253352 0.0017176151741 0.001516251592 0.0012696388876 0.0011613334063 0.0013008102542 0.0016139200889 0.001996281324 
0.0024318278302 0.002918489743 0.0035654404201 0.0043183374219 0.0049230447039 0.005167086143 0.0048165796325 0.0041281082667 0.0034579711501 
0.0028759487905 0.0023305953946 0.00085791025776 0.0016936629545 0.00021232353174 -0.00025440464378 -0.00047659469419 -0.00035944927367 -4.984183397e-05 
5.5811735365e-05 -0.0002894270001 -0.00092063780176 -0.0017148896586 -0.0025280504487 -0.0033917201217 -0.0042810044251 -0.0051551149227 -0.0060021998361 
-0.0066873021424 -0.0070720994845 -0.0071300058626 -0.0067935059778 -0.0060891513713 -0.0051377373748 -0.004202476237 -0.0034484290518 -0.0028604725376 
-0.0022747674957 -0.0016593325417 -0.00099883950315 -0.0010691371281 -0.00095092691481 0.0025925713126 0.0017536034575 0.0035641700961 0.0045828879811 
0.0054090470076 0.0059803761542 0.0062079303898 0.0060311038978 0.0055140047334 0.0048113483936 0.0039612129331 0.002982523758 0.0020133994985 
0.0012807867024 0.00087434600573 0.00082867732272 0.0020138402469 0.0016410617391 0.0023588533513 0.0024409785401 0.0021776333451 0.0014977428364 
0.00062323425664 -0.00013307161862 -0.00058608420659 -0.00075948127778 -0.00096531910822 -0.0014448256698 -0.0020772460848 -0.0025800028816 -0.0028055035509 
-0.0027426593006 -0.0023636065889 -0.0018376223743 -0.0012339890236 -0.00080765812891 -0.00065271812491 -0.00071807118366 -0.00088960077846 -0.0011811341392 
-0.0017058424419 -0.0026361499913 -0.003914530389 -0.005229530856 -0.0063565624878 -0.0070104710758 -0.0070379469544 -0.0063392128795 -0.0049756830558 
-0.0031388991047 -0.0012414919911 0.00025992555311 0.00084632955259 0.00049931404646 0.00019217532827 0.0002182386088 0.0006078191218 0.0011702706106 
0.0012689854484 0.00099836848676 -0.00080285285367 -0.00085909100017 -0.0013223139104 -0.0017694472335 -0.0020199515857 -0.0020395354368 -0.0018726290436 
-0.0016690407647 -0.0014579324052 -0.0013092732988 -0.0011574454838 0.0018147621304 0.0011090419721 0.0021939296275 0.0022846378852 0.0022889513057 
0.0021660670172 0.001948071993 0.0016558277421 0.001346433186 0.00105555146 0.0010946715483 0.0013401976321 0.001708525233 0.0021937820129 
0.0027683342341 0.0035655871034 0.0045573664829 0.0054243733175 0.0060129449703 0.0054139206186 0.0045985337347 0.0039356872439 0.003691638587 
0.0032040325459 0.0026171901263 0.00105373119 0.0019332309021 0.00040108861867 -4.834025458e-05 -0.00029774257564 -0.00042704457883 -0.00031515583396 
-7.5855941759e-06 0.0001401923364 -0.00020254017727 -0.00084075774066 -0.0016872227425 -0.0025909421965 -0.0036096079275 -0.0047564483248 -0.0059122415259 
-0.0070047280751 -0.0078101120889 -0.0081310952082 -0.0080069378018 -0.0074720359407 -0.0065654572099 -0.0054473751225 -0.0043898164295 -0.0037267815787 
-0.0033159204759 -0.0026606174652 -0.0019128214335 -0.0011910516769 -0.0006512561813 -0.00066837010672 -0.00071496225428 0.00016669600154 -0.00069146533497 
0.0015351908514 0.0012666811235 0.0018697823398 0.0022580546793 0.0025852588005 0.0027411147021 0.0025001752656 0.001781210769 0.00084175501252 
-2.7809564926e-05 -0.00059750402579 -0.00080093723955 -0.0010007179808 -0.0014881790848 -0.0022942002397 -0.0028578434139 -0.0030831538606 -0.0029570208862 
-0.0024517856073 -0.001840630197 -0.001131033292 -0.00073299632641 -0.00064962456236 -0.00074787641643 -0.00093482917873 -0.0013051555725 -0.0020856775809 
-0.0032865870744 -0.0047374861315 -0.006175252609 -0.0073995310813 -0.0081247007474 -0.008140373975 -0.0073163625784 -0.0056404699571 -0.003443691181 
-0.0013694269583 0.00011476621876 0.00075984658906 0.00054367672419 0.00022537334007 0.00015170229017 0.00051235809224 0.0011337831384 0.0018435457023 
0.0028319673147 0.003900019452 0.0049798036925 0.0058453921229 0.0064474055544 0.0066868844442 0.0065014036372 0.0059212646447 0.0050886813551 
0.0041143754497 0.0030580940656 0.0020588941406 0.0013170355232 0.00086840399308 0.00075094861677 0.00081931921886 0.0010039056651 0.0015427068574 
0.0013033554424 0.0017010472948 -0.0007338100113 -0.0012168434914 -0.0018632099964 -0.0023300403263 -0.0024144924246 -0.0022471789271 -0.0019433080452 
-0.0015986239305 -0.0013898616889 -0.0013195420615 -0.001130438759 -1.5036926015e-05 -0.00068734958768 0.00085922656581 0.0017147429753 0.0022884351201 
0.0025055306032 0.0025479802862 0.0024575844873 0.0024364539422 0.0022580218501 0.0019478201866 0.001594342757 0.001280727447 0.0011425646953 
0.00093254668172 0.0015179036418 0.002060235478 0.0026465561241 0.0032733092085 0.0045703048818 0.0054795788601 0.006115025375 0.0046088187955 
0.0055882669985 0.00091155525297 0.0010649848264 0.0063129095361 0.0065034101717 0.0035306410864 0.0042401226237 0.002851548139 0.0013339474099 
0.0022468382958 0.00051573070232 -2.6766070732e-05 -0.0003265554551 -0.00029106391594 9.8733944469e-05 0.00031371397199 -8.2172788098e-05 -0.00075310695684 
-0.0015902045416 -0.0025513202418 -0.0036620320752 -0.0049676271155 -0.0065357186832 -0.0078834481537 -0.0087694907561 -0.0090080294758 -0.0086750080809 
-0.0079168956727 -0.0067818122916 -0.0052207950503 -0.0040006316267 -0.0031572573353 -0.0021971836686 -0.0013454180444 -0.00073470512871 -0.00049633637536 
-0.00051254988648 -0.00058568507666 0.0019669742323 0.0023642461747 0.0027192265261 0.0029387818649 0.0027444032021 0.0020501425024 0.0010732922237 
0.00013004157518 -0.00056984188268 -0.00085275515448 -0.0010117928032 -0.0013819563901 -0.001912518288 -0.0032021563966 -0.0030952305533 -0.0029835037421 
-0.0023833843879 -0.0016673530918 -0.00099412188865 -0.00066379946657 -0.00063813180896 -0.00077663065167 -0.0010067329276 -0.0014456609497 -0.0026080827229 
-0.004150596913 -0.005675544031 -0.007080859039 -0.008278472349 -0.0089587634429 -0.008989370428 -0.0081400498748 -0.0061991638504 -0.0034101039637 
-0.0014260949101 -0.00011914725474 0.00057191360975 0.00051670259563 0.00027708921698 0.00011491990881 0.00035344291246 0.00095750764012 0.001894779969 
0.0029484624974 0.0039931172505 0.0050718146376 0.0059554921463 0.0065938322805 0.006849469617 0.006657183636 0.0060432711616 0.0051250183024 
0.0040891510434 0.0029980859254 0.0020476719365 0.0013074107701 0.00087267532945 0.00069580791751 0.00068915536394 0.00081028102431 0.0010538912611 
0.0017043318367 0.001393724815 0.0018801738042 -0.0027462446596 -0.0023707903456 -0.00018004099547 -7.7121090726e-05 -2.195156776e-05 0.00033393476042 
-0.00063925993163 -0.0014423303073 -0.0024430954363 -0.0035707331263 -0.0050314231776 -0.0071249576285 -0.0086812768131 -0.0094825522974 -0.0096378680319 
-0.0091382171959 -0.0081717222929 -0.0069470428862 -0.0056660016999 -0.0038275949191 -0.0044705430046 -0.0010670882184 -0.0019111362053 -0.0025818429422 
-0.0027783233672 -0.0026195170358 -0.0022328794003 -0.0017143455334 -0.0014300302137 -0.0012468068162 -0.0011635727715 -0.00095632032026 -3.405390089e-05 
-0.0005915784277 0.00067715486512 0.0015170859406 0.0022562383674 0.0026839179918 0.0027447741013 0.0026436254848 0.0025256604422 0.0023029416334 
0.0019440815086 0.0016319582937 0.0013669385808 0.00086354190717 0.0010937561747 0.00076944328612 0.00081794412108 0.0010453680297 0.0014988471521 
0.0022121679503 0.004405322019 0.0054639917798 0.0035401191562 0.00074102368671 0.0019282220164 9.6340721939e-05 0.0023263678886 0.0027526509948 
0.0030583725311 0.0029243449681 0.0022747090552 0.0013374671107 0.00035308496444 -0.00097045931034 -0.001055578352 -0.0012805573642 -0.0016532884911 
-0.0031990772113 -0.0032047037967 -0.0028860012535 -0.00226347032 -0.0014916157816 -0.00088302738732 -0.00061286444543 -0.0006100407918 -0.00079807749717 
-0.0011255975114 -0.0015246744733 -0.0021630530246 -0.0066087408923 -0.0052643478848 -0.0079070758075 -0.0089391861111 -0.0095393210649 -0.0095406062901 
-0.0088969767094 -0.0076726977713 -0.0013369510416 -0.0029504904523 -0.00026630508364 0.00039661224582 0.0004660221166 0.00031514008879 0.0001126400457 
0.00011403225653 -0.0040221824311 -0.0032150633633 0.00036339322105 0.00018850591732 -0.0047505898401 -0.006317823194 0.0029442885425 0.0038724967744 
0.0049034617841 0.0058594872244 0.0065814931877 0.0068519106135 0.0066311163828 0.0059659141116 0.0049832947552 0.0038821431808 0.0027912016958 
0.0018709020223 0.0012025210308 0.00082462106366 0.00069101707777 0.0006221960648 0.00064783822745 0.00083499384345 0.0017382274382 0.0046487008221 
0.0035560536198 0.0053336326964 0.0057531413622 0.0061424807645 0.0067269932479 0.0064392513596 0.0064649516717 -0.0020583567675 -0.0026725102216 
-0.0013501447393 -0.00083641096717 -0.00058431457728 -0.00056492735166 -0.0008004581905 -0.0014691859251 -0.0025997944176 0.0057190456428 0.0046825679019 
0.0035447189584 0.0024773364421 0.0016015813453 0.0010106323753 0.00069296779111 0.00059351674281 0.00067800353281 0.00067570223473 0.00077411276288 
0.0010496348841 0.0016084951349 0.0024387796875 0.0021443297155 0.0026605618186 0.0030393532943 0.0029592840001 0.0023660319857 0.0016034467844 
0.00079537398415 0.0028158987407 0.0026216877159 0.0023326799273 0.0019718981348 0.0013434701832 0.002012091456 0.0026127966121 0.0029154829681 
0.00067116547143 0.00079373567132 0.0011563965818 0.0018323844997 0.0027637609746 0.003897793591 0.0049686571583 0.0053662438877 -0.0010305481264 
-0.0011066694278 -0.0012467085617 -0.0014870654559 -0.0029821549542 -0.0026558365207 -0.00088159384904 -0.0019001282053 -0.0027454283554 -0.002993010683 
-0.0028863842599 -0.0030785824638 -0.0017361154314 -0.0051368302666 -0.0062233540229 -0.0074893245474 -0.0086447754875 -0.0094166649505 -0.0098828105256 
-0.0098681002855 -0.0093290880322 -0.0084040146321 -0.0073594162241 -0.005143951159 -0.0060692634434 -0.0038701703306 -0.002565685194 -0.0013088502456 
-0.00043276738143 0.0002505768789 0.00045661491458 0.00033403953421 0.00013993805624 -3.7765159504e-05 0.00034591328586 0.00042429476161 0.00030467536999 
-8.1722519099e-06 -0.0006144818035 -0.0013335841941 -0.002330647083 -0.0034215187188 -0.0092373266816 -0.0082583008334 -0.0098648164421 -0.0099373525009 
-0.0093165896833 -0.0080889416859 -0.0068390746601 -0.0059004779905 -0.00061741250101 -0.0096816411242 -0.010027670301 -0.0099702505395 -0.0094625679776 
-0.0087696658447 -0.0013404082274 -0.0023491126485 -0.00060225051129 -9.1951529612e-05 0.0017919428647 0.0023257797584 0.0025747690815 0.0029751262628 
0.002266694326 0.0042957691476 0.0031493769493 0.002132555237 0.0013400946045 0.00083441031165 -0.0046526240185 -0.0043545169756 -0.0034381162841 
-0.0030513554811 -0.0031582682859 -0.0024435194209 -0.001914063585 -0.0012304831762 -0.00084210961359 0.0028631386813 0.0029327115044 -0.0020158246625 

Disp_FEB 3 1116 double
0 0 0 0 0 0 -0.00080647267168 0.0017675071722 0.00032510515302 
-0.001062351279 0.0018777464284 0.00019848832744 0 0 0 -0.00064643914811 0.0016460246406 0.00047435227316 
0 0 0 -0.000379197445 0.0015600378392 0.00061249284772 0 0 0 
-0.00013991446758 0.0014676209539 0.00070526835043 0 0 0 2.8333557566e-05 0.0013655372895 0.00077860779129 
0 0 0 0.00019034967409 0.0012648014817 0.00083191005979 0 0 0 
0.00029964948772 0.0011025274871 0.00085280154599 0 0 0 0.0002910233743 0.00098898389842 0.00081452488666 
0 0 0 0.0003712142352 0.0010969582945 0.00084362132475 0 0 0 
0.00044296684791 0.0011283190688 0.0010370245436 0 0 0 0.00054816482589 0.0010450580157 0.0012864856981 
0 0 0 0.00054622505559 0.00085072929505 0.0015194172738 0 0 0 
0.00055811309721 0.00061747501604 0.0016732799122 0 0 0 0.00054734497098 0.00040038244333 0.0017406187253 
0 0 0 0.00052901578601 0.00018476109835 0.0018012833316 0 0 0 
0.00043337588431 -7.3390699981e-05 0.0017939782701 0 0 0 0.00029504223494 -0.00033949853969 0.0017646572087 
0 0 0 0.00017287497758 -0.00058718922082 0.0017025858397 0 0 0 
0.00018963457842 -0.00075401098002 0.0015557690058 0 0 0 0.00025115950848 -0.00087963143596 0.0012971867109 
0 0 0 0.00029390765121 -0.00095151789719 0.00095138844335 0 0 0 
0.0003833862429 -0.00089218065841 0.00049517577281 0 0 0 0.00041059427895 -0.00066269328818 -4.4091655582e-05 
0 0 0 0.00046456625569 -0.00035035909968 -0.00035189121263 0 0 0 
0.00053184729768 -0.00015938631259 -0.00039658872993 0 0 0 0.00052191875875 -0.00024457610562 -0.00019328734197 
0 0 0 0.00056860572658 -0.00060684874188 -0.00014807932894 0 0 0 
0.00055999023607 -0.001046406338 -0.00033929082565 0 0 0 0.00054237316363 -0.0014275953872 -0.0006368861068 
0 0 0 0.00051569932839 -0.0017034470802 -0.00092636968475 0 0 0 
0.00044902652735 -0.0018980201567 -0.0011677276343 0 0 0 0.00028510738048 -0.0020446362905 -0.0013425825164 
0 0 0 0.00017657414719 -0.0022040780168 -0.001613684115 0 0 0 
3.2356852898e-05 -0.0022928023245 -0.001837410382 0 0 0 -1.9957795303e-05 -0.0022680505645 -0.0020427345298 
0 0 0 -8.0565303506e-05 -0.0022572327871 -0.002317824401 0 0 0 
-0.00020016074996 -0.0021425483283 -0.0025217996445 0 0 0 -0.00027065133327 -0.0019251757767 -0.0026179451961 
0 0 0 -0.00026872620219 -0.0016463864595 -0.0025803262834 0 0 0 
-0.00028722692514 -0.0013253572397 -0.0023947660811 0 0 0 -0.00022267423628 -0.0010740614962 -0.0021264785901 
0 0 0 -0.00012914297986 -0.00081991724437 -0.0018011103384 0 0 0 
-8.761632489e-05 -0.00050935975742 -0.0014651210513 0 0 0 -1.7009557268e-05 -0.00022295166855 -0.0010782838799 
0 0 0 0.0001274561655 -5.0219594414e-05 -0.00073190085823 0 0 0 
0.00014850289153 8.4616978711e-05 -0.00065540865762 0 0 0 1.5999863535e-05 0.00032397708856 -0.00075361778727 
0 0 0 -0.00016884600336 0.00074381520972 -0.0008877859218 0 0 0 
-0.00033159463783 0.0012322015828 -0.00087632134091 0 0 0 -0.0003889760701 0.0016036939342 -0.00073631363921 
0 0 0 -0.00039334970643 0.0017814742168 -0.00056478165789 0 0 0 
-0.00050348113291 0.0018052501837 -0.00043834987446 0 0 0 -0.00073172472185 0.001824107836 -0.00033518808777 
0 0 0 -0.00094070518389 0.0018862735014 -0.00015921190789 0 0 0 
-0.0010423155036 0.0019076829776 3.2617623219e-05 0 0 0 0 0 0 
-9.4870429166e-06 -0.0011295247823 0.00035602966091 -0.00015918712597 -0.0010158846853 0.00032716232818 0 0 0 
0.00015123542107 -0.0012976487633 0.0005894259084 0 0 0 0.00040319314576 -0.0014415126061 0.00080439419253 
0 0 0 0.00057197507704 -0.0015708899591 0.0010898472974 0 0 0 
0.00075808755355 -0.0015846909955 0.0014136681566 0 0 0 0.00083479750901 -0.0015357253142 0.0017808068078 
0 0 0 0.00090284930775 -0.001361164148 0.0020507494919 0 0 0 
0.00079999899026 -0.0011452039471 0.0022345087491 0 0 0 0.00076501991134 -0.00087369873654 0.0022811363451 
0 0 0 0.00050229963381 -0.00072028790601 0.0022629790474 0 0 0 
0.00034841138404 -0.00060456083156 0.0021651142742 0 0 0 0.00018773508782 -0.00046562429634 0.0020157783292 
0 0 0 6.5331129008e-05 -0.00023442033853 0.001811621245 0 0 0 
-7.051765715e-05 2.3231039449e-05 0.0014977175742 0 0 0 -0.00024029421911 0.00022163495305 0.0011144382879 
0 0 0 -0.00029623837327 0.00034987210529 0.00069218111457 0 0 0 
-0.00034760579001 0.00034240362584 0.0004166465078 0 0 0 -0.00025480071781 0.00032075142371 0.00036870347685 
0 0 0 -0.00023928773589 0.00052352726925 0.00054989825003 0 0 0 
-0.00026422846713 0.00093136704527 0.00063629238866 0 0 0 -0.00019466875528 0.0013204866555 0.00068096455652 
0 0 0 -0.00032695065602 0.0017951385817 0.00069327990059 0 0 0 
-0.0003538854653 0.0022238821257 0.00060939660762 0 0 0 -0.00030687492108 0.0025381683372 0.00038037038757 
0 0 0 -0.00047873725998 0.0027131687384 8.3281935076e-05 0 0 0 
-0.00076147896471 0.0027050143108 -0.00012795488874 0 0 0 -0.00087872811127 0.0025757537223 -0.00023234415858 
0 0 0 -0.00082481600111 0.0025323547889 -0.00027020770358 0 0 0 
-0.00074115389725 0.0025782878511 -0.00034719306859 0 0 0 -0.00062976940535 0.002584469039 -0.00052908743965 
0 0 0 -0.0008044365095 0.0025246539153 -0.00071746099275 -0.00039894535439 0.00069676188286 8.0617217463e-05 
-0.00086232373724 0.0022011655383 -0.00093364238273 0 0 0 -0.00094636593712 0.0019582514651 -0.0010300796712 
0 0 0 -0.00091454479843 0.0014619590947 -0.001049366896 0 0 0 
-0.00087535544299 0.00091872556368 -0.00096575479256 0 0 0 -0.00077887257794 0.0004350260715 -0.00078531517647 
0 0 0 -0.00073384155985 0.00015103262558 -0.00055312202312 0 0 0 
-0.00070658465847 2.5171544621e-05 -0.00038561644033 0 0 0 -0.00071847566869 2.2046122467e-05 -0.00032207515324 
0 0 0 -0.00082586397184 -1.0976818885e-05 -0.00038500907249 0 0 0 
-0.00083373958478 -0.00013705300807 -0.00053079612553 0 0 0 -0.00079752475722 -0.00028586064582 -0.00065709021874 
0 0 0 -0.00070418533869 -0.0003727277508 -0.00078700773884 0 0 0 
-0.0005764302914 -0.00041733280523 -0.00098427734338 0 0 0 -0.00036945447209 -0.00049814232625 -0.0013077328913 
0 0 0 -0.00014012675092 -0.00074728304753 -0.0016762199812 0 0 0 
0.00016767023772 -0.0011188738281 -0.0020348967519 0 0 0 0.00039666425437 -0.0016159735387 -0.0023022482637 
0 0 0 0.00061869865749 -0.0020461573731 -0.0023546305019 0 0 0 
0.00082565186312 -0.0023946675938 -0.002188706072 0 0 0 0.00075915607158 -0.0026242637541 -0.001794527634 
0 0 0 0.00063356099417 -0.0026212753728 -0.0012944992632 0 0 0 
0.00029891377199 -0.0024370176252 -0.00076737144263 0 0 0 3.0691342545e-05 -0.0019805303309 -0.0002291801793 
0 0 0 -0.00023213186068 -0.001438065432 -4.2413445044e-05 0 0 0 
-0.000358725345 -0.0011717537418 1.945889926e-05 0 0 0 -0.00030401008553 -0.0010430485709 0.00025404198095 
-0.0011601280421 0.0028500668705 0.00090056430781 -0.0014403038658 0.0031313225627 0.000607148977 -0.00079166080104 0.0025494189467 0.001101782429 
-0.00038782021147 0.0023113307543 0.0011979484698 -4.4938340579e-05 0.002128506545 0.0012345534051 0.00022635995992 0.0019415356219 0.0012541377218 
0.0004265960888 0.0017118207179 0.0012443015585 0.00053254555678 0.001585966791 0.0011597381672 0.00065081560751 0.0016752054216 0.0011785482056 
0.00075240735896 0.0016826660139 0.0014512394555 0.00082418485545 0.0015417737886 0.0018272738671 0.00086026097415 0.0012944163755 0.0021821022965 
0.0008928598254 0.00098011095542 0.0024566806387 0.00084925984265 0.00065045437077 0.0026383777149 0.00076402910054 0.0002831822494 0.0027764888946 
0.00054581061704 -0.00014383764938 0.0028954644222 0.00044151837938 -0.00059199135285 0.0030065171886 0.00033326706034 -0.0010617527878 0.003004909493 
0.00041493942263 -0.0013869639952 0.002815579297 0.00048120765132 -0.0016559970099 0.0024094041437 0.00050480902428 -0.0018316241913 0.0018370683538 
0.00046998509788 -0.0018366422737 0.0010120519437 0.00049261754612 -0.0011421379168 -1.0832215594e-05 0.00055703835096 -0.00060874980409 -0.00046379247215 
0.00066630030051 -0.00030446524033 -0.00044259478454 0.00074687373126 -0.00046833098168 -0.00014568396728 0.00085640698671 -0.0010474123992 -9.9808887171e-05 
0.0009351320914 -0.0017359933117 -0.00041734083788 0.00097160594305 -0.002342851134 -0.00090545974672 0.00094015314244 -0.002834737068 -0.0013989539584 
0.0008267944213 -0.0032331869006 -0.0018377398374 0.00060179748107 -0.0035871241707 -0.0022248462774 0.00039411574835 -0.0038466290571 -0.0026659250725 
0.00013283599401 -0.0040316609666 -0.0030849971808 5.4260266324e-07 -0.0040859417059 -0.0035252794623 -9.7751886642e-05 -0.0039947708137 -0.0039927731268 
-0.00024396686058 -0.0037061753683 -0.0043645594269 -0.00042939561536 -0.0032386293169 -0.0045012524351 -0.00054428970907 -0.0026580821723 -0.0043723601848 
-0.00055466202321 -0.0020524589345 -0.0040190750733 -0.00046993844444 -0.0014968126779 -0.0035063012037 -0.00039841225953 -0.0010188336018 -0.0029163872823 
-0.00035379474866 -0.00056357501308 -0.0023017651401 -0.00021877276595 -0.00018210793496 -0.0016294429079 6.7680994107e-05 1.6497302568e-05 -0.001033892855 
0.00012568125385 0.00015575389261 -0.0009572384879 -4.2718234909e-05 0.00043461559108 -0.0011096321978 -0.00035450613359 0.00096441898495 -0.0012959515443 
-0.00064583233325 0.0016537714982 -0.0013115871698 -0.00082471955102 0.0022275424562 -0.0011620416772 -0.00088594300905 0.0026292218827 -0.00094392208848 
-0.0010279385606 0.0028511311393 -0.00081345293438 -0.0012400298147 0.0031250014435 -0.00067752454197 -0.0014357782202 0.0034066371154 -0.00036393298069 
-0.0015661715297 0.0034743121359 1.7625874534e-05 -0.0015616798773 0.0033705085516 0.00032540605753 0.00017887569265 -0.0020759818144 0.00091049884213 
-9.280811355e-05 -0.001799541642 0.00056465598755 0.00051580311265 -0.0023653402459 0.0012618445326 0.00083328457549 -0.0026253419928 0.001745178597 
0.0010851786938 -0.0027386611328 0.0023569986224 0.0012387952302 -0.002674815245 0.0029752138071 0.0013083934318 -0.0024379130919 0.0034812833183 
0.0011829143623 -0.0020880615339 0.0038264426403 0.0010164780542 -0.0016788304783 0.0039319521748 0.00072830368299 -0.0013169610174 0.0038333237171 
0.00052965449868 -0.00094632979017 0.003616562346 0.00032100078533 -0.00056566414423 0.0033078775741 0.00013351294911 -9.7031443147e-05 0.0028790810611 
-0.00010147314606 0.0002736520546 0.0023065642454 -0.00029077305226 0.00055159605108 0.0016451692209 -0.00038129513268 0.00062550551957 0.0010482963407 
-0.00037483204505 0.0005545062595 0.00072240323061 -0.00027013514773 0.00059742090525 0.00074953667354 -0.000253559876 0.00092548690736 0.00097745400853 
-0.00026940667885 0.0015048614005 0.0012017698027 -0.00025124603417 0.0021942537278 0.0013733665692 -0.00040310851182 0.0029715925921 0.0013891718118 
-0.00049642060185 0.00373551948 0.0012270838488 -0.000649637077 0.004317455925 0.00080621603411 -0.00088642793708 0.004574988503 0.00026125911972 
-0.0010914694285 0.0044948817231 -0.00019801442977 -0.0012332160259 0.0042577241547 -0.00042660627514 -0.0012569510145 0.0041392752901 -0.00049501575995 
-0.0012175986776 0.0041691889055 -0.00065839989111 -0.0011772461003 0.0041944757104 -0.00095655204495 -0.0012161000632 0.0040229451843 -0.0013207513839 
-0.001302403165 0.0036179691087 -0.0016389760422 -0.0013953545131 0.0029713141266 -0.0018222061917 -0.0013893279247 0.0021865754388 -0.0018301863456 
-0.0013046709355 0.0013478012988 -0.0016808342189 -0.0011676533613 0.00066007277928 -0.0013731191866 -0.001076935092 0.00022329270723 -0.0010011265986 
-0.0010302904993 1.1408774299e-05 -0.00070090848021 -0.0010617336957 -1.5916924895e-05 -0.000555126986 -0.00116698083 -4.3450356316e-05 -0.00059960881481 
-0.0012096660212 -0.00022436668223 -0.00078052695608 -0.0011551071657 -0.0004438275937 -0.00096479005879 -0.0010331314988 -0.00057009997545 -0.0011826534756 
-0.00084255239926 -0.00060746649979 -0.0015905313194 -0.00060161366127 -0.00078140973346 -0.0022535983007 -0.00028510266566 -0.0012959173182 -0.0030115700793 
0.00011902599363 -0.0020385710523 -0.0036754643079 0.00049339403631 -0.0029009534046 -0.004104339052 0.00084774964489 -0.0037593946327 -0.004150882829 
0.0011379654752 -0.0043877330609 -0.0038079132792 0.0011529052863 -0.0047013545409 -0.0031145862304 0.0010268149199 -0.0045751524158 -0.0021581535693 
0.0007261367864 -0.0039969156496 -0.0011043102713 0.00026484302361 -0.0030125612393 -6.3981628045e-05 -0.00034185903496 -0.0019744832534 0.00038117152872 
-0.00063302996568 -0.0015316655627 0.00018946055206 -0.00054009741871 -0.0014653997496 0.00023101213446 -0.00035114146885 -0.0015620291233 0.00034347816836 
-0.0011045039864 0.0033805139828 0.0015822515124 -0.0014533747453 0.0039681331255 0.0013302072184 -0.00063162081642 0.0029466673732 0.0016255100491 
-0.0002050435869 0.002609542571 0.0015910593793 0.00015083364269 0.0023376299068 0.0015181722119 0.00043537880993 0.002074607648 0.0014108155156 
0.00063011038583 0.0019172492903 0.0012581365881 0.00076426676242 0.0019206820289 0.001233785064 0.00087218155386 0.0018645540113 0.0014697648585 
0.00095597095788 0.0017295037396 0.0018394537037 0.001012502471 0.0015077575808 0.0022471759003 0.0010372925317 0.0012008656049 0.0026180534624 
0.00097434601048 0.00086829083739 0.0029546453152 0.00078919320367 0.00045504723676 0.0033344726544 0.00057617167477 -0.00010616264626 0.0037534434814 
0.00051671441179 -0.00080002757022 0.0041095814668 0.00052430102369 -0.0014949317556 0.0041935984045 0.00058805878507 -0.002039440209 0.003956196364 
0.00060497055529 -0.0024022695143 0.0034027560614 0.0005673947162 -0.0026356533635 0.0027303178795 0.0004613858473 -0.0028056853916 0.0020276547875 
0.00039141575689 -0.00075604533777 -0.000512999075 0.0003142534697 -0.0013934004819 -0.00014921382535 0.00054806418484 -0.00041915787733 -0.00042503883014 
0.00075797457248 -0.00062268500915 -8.8798740762e-05 0.00096035853494 -0.0013271913631 -1.7456986825e-05 0.0011004958069 -0.002215445973 -0.00036388967419 
0.0011613670504 -0.003054901259 -0.00094888056628 0.0011532271747 -0.0037667264696 -0.0016383931506 0.0010492732981 -0.0043767141178 -0.0022894165013 
0.0008513876237 -0.0049078380689 -0.0029194194358 0.00060398346977 -0.0053203748539 -0.0035969335586 0.00026188857737 -0.0055845552124 -0.0042343446985 
3.5535122151e-06 -0.0056390562095 -0.0048579294235 -0.00019009308016 -0.0054536010139 -0.0054434798658 -0.00037944249925 -0.0050040115602 -0.0058713145554 
-0.00054072600324 -0.0043204510584 -0.0060103749856 -0.00066536775557 -0.0034739717375 -0.0057935360819 -0.00070774770575 -0.0026029534638 -0.0052519082092 
-0.00063189427601 -0.0018379993271 -0.0044972905889 -0.00055415352108 -0.0012194234878 -0.0036797206849 -0.00051609560614 -0.00072215113323 -0.0029660083819 
-0.00043205631664 -0.00037151522702 -0.0023423321545 5.7911929616e-05 0.00013146972924 -0.00093597598607 1.2869320017e-05 2.1767000362e-05 -0.00096973485779 
-0.00016042188508 0.00041845638771 -0.0011738393223 -0.00057134428062 0.0010270433268 -0.0014547462342 -0.00097797089256 0.0018492154777 -0.0015510686208 
-0.0012452680385 0.0026095390785 -0.0014517221134 -0.0013888955582 0.0032001803629 -0.0012428350747 -0.0015643700026 0.0036176093854 -0.001132935402 
-0.0016768020578 0.0041810250841 -0.0010022724746 -0.0018233975861 0.0047173462808 -0.00065724086016 -0.001958104549 0.0050540463999 -0.00013413131819 
-0.001889590756 0.0048971432261 0.00043055292917 -0.0018058151472 0.004462249577 0.00095452228561 0.00026842564694 -0.0022001930047 0.00055032031378 
0.00034177213092 -0.0029564050492 0.0014395134058 -0.00019575246552 -3.0198363675e-05 -0.0013397471048 -0.0003480494488 -0.0001098768189 -0.0018436013488 
0.00061917182757 -0.0030059779529 0.0015598953469 0.00019942007202 -0.0025518063921 0.0010912894504 0.00098367966712 -0.0033998694271 0.0022602095269 
0.0012776477961 -0.0036183611955 0.0030833822675 0.0014244535705 -0.003596219467 0.003943271935 0.0014778479235 -0.0033474161755 0.0046389992349 
0.0013495254098 -0.0029359355103 0.0051227416843 0.0012000296265 -0.002352118725 0.0052937772125 0.00098950893153 -0.0017211545492 0.0051427683793 
0.00069589941995 -0.001172546763 0.0047634160146 0.00045097953989 -0.00052187254187 0.004243739415 0.0001739685249 0.00012287094432 0.0035693233367 
-0.00011571223149 0.00061271054437 0.0027496479452 -0.00034039502498 0.00084409775445 0.0018933049869 -0.00042172390386 0.0008341538487 0.0012010236969 
-0.00035467551788 0.00067473563831 0.00080525083467 -0.00019600831729 0.000724497193 0.00092341500567 -0.00019738027186 0.0012110525277 0.0012910002843 
-0.00026220572181 0.0019603720866 0.0016456742305 -0.00033256274764 0.002866552677 0.0019244222203 -0.00055191479623 0.0039170235395 0.0019751235377 
-0.00077954086009 0.0049536465667 0.0017566545866 -0.0010831324616 0.0057167788036 0.0011764012743 -0.0013348694192 0.0060319993645 0.00043128870311 
-0.0014874455519 0.005892383866 -0.00019577312924 -0.0015455709072 0.0055552707054 -0.00054852257017 -0.0015579240862 0.0053581367247 -0.00066086393781 
-0.00157857663 0.0053974525072 -0.00085949973436 -0.0015804652357 0.005433106795 -0.0012789906468 -0.0015961347381 0.0051977364346 -0.0017742598429 
-0.0016367874341 0.0045980610885 -0.0021932485979 -0.001649271464 0.003663954325 -0.0024031028152 -0.0015624118969 0.0025250781327 -0.0024068448693 
-0.0014749998227 0.0014729411341 -0.0021251358557 -0.0013638080563 0.0006715268828 -0.0016981475055 -0.0012824964942 0.00021230777202 -0.0012040758738 
-0.0012198915938 2.6490504297e-06 -0.00082225090591 -0.0012221595971 -1.3882424355e-05 -0.00064037553966 -0.0012417533435 -8.3094550064e-05 -0.00067572743865 
-0.0012340001995 -0.00027149688685 -0.00084835168673 -0.0011681832839 -0.00048949220218 -0.0010800608434 -0.001035228488 -0.00062420940958 -0.0014335261658 
-0.00085377978394 -0.00068136240589 -0.0020995691884 -0.00063124438748 -0.0010286483448 -0.0031014413107 -0.00032152284984 -0.0018438094994 -0.0041752369143 
9.8689357401e-05 -0.0028998691123 -0.0051159975119 0.00053760939045 -0.0041328775696 -0.0056927301921 0.00095743674319 -0.0053372019902 -0.0057269302197 
0.0013050433481 -0.0061809080653 -0.0051997308619 0.0014237711439 -0.0064892428927 -0.0041682575829 0.0013772584498 -0.0061195991002 -0.0027436809614 
0.0010637375526 -0.0051179011352 -0.0011982746655 0.00049849203788 -0.0035968194716 0.00015273714962 -0.00016996580234 -0.0020916678477 0.00073492497904 
-0.00068918796023 -0.0013706091559 0.00035705135087 -0.0007136479835 -0.0014065540163 0.00019060990599 -0.00050111825112 -0.0017066473374 0.00029674149118 
-0.00017314626893 -0.0021189614199 0.00063420896186 -0.00016098521883 3.275959898e-05 -0.0011113206856 -0.00024483169545 2.47527787e-05 -0.0013868426904 
-5.0931004807e-05 3.0735904147e-05 -0.00087421026547 -5.2932253311e-05 5.9324516769e-05 -0.00090652704239 -0.00032879633363 0.00032715161797 -0.0012458179845 
-0.00081865891116 0.0010259466944 -0.0016164814588 -0.0012821460841 0.0020188738126 -0.0017638660502 -0.0016272239154 0.0029206406325 -0.0017193767708 
-0.0018458223203 0.0036549500655 -0.0015505775809 -0.0019921534695 0.0042356201448 -0.0014125359012 -0.0020300995093 0.004895504564 -0.0012689295691 
-0.0021112943068 0.0056511010043 -0.0010496590985 -0.0023251320235 0.0066467239521 -0.00043827283662 -0.0022018291056 0.0062870238908 0.00062199862441 
-0.0019309689524 0.0056046377867 0.0013342273887 -0.0016701911809 0.0047974628396 0.0017952028429 -0.0013140753144 0.004017857369 0.0019942785148 
-0.00085568905342 0.0034173056483 0.0020115061197 -0.00038232377847 0.0029719911981 0.0018901253352 2.2326186809e-05 0.0026164653245 0.0017176151741 
0.00034420954762 0.0022820676677 0.001516251592 0.00058328162413 0.002034279285 0.0012696388876 0.00076161819743 0.0019032572163 0.0011613334063 
0.00090763194021 0.0018058068817 0.0013008102542 0.0010059894994 0.0017052876065 0.0016139200889 0.0010540708899 0.0015619412297 0.001996281324 
0.0010442988714 0.0013403677149 0.0024318278302 0.00092386762844 0.0010897386819 0.002918489743 0.00072338653263 0.00067636487074 0.0035654404201 
0.0005810878356 -2.2642563636e-05 0.0043183374219 0.00061320833629 -0.00093533616746 0.0049230447039 0.00070138130104 -0.0019194323104 0.005167086143 
0.00075701234164 -0.0026317834854 0.0048165796325 0.00070393341593 -0.0030250067357 0.0041281082667 0.00065182335675 -0.0032165837474 0.0034579711501 
0.00054938928224 -0.0034629760776 0.0028759487905 0.0004685583699 -0.0035747440998 0.0023305953946 0.00020088755991 -0.0029310698155 0.00085791025776 
0.00035708691576 -0.003574834438 0.0016936629545 0.00014509857283 -0.002204136923 0.00021232353174 0.00015354994684 -0.0015101466561 -0.00025440464378 
0.00021215590823 -0.00093545106938 -0.00047659469419 0.00038497062633 -0.00059383217013 -0.00035944927367 0.00066525081638 -0.00076351233292 -4.984183397e-05 
0.00095777405659 -0.0014934455976 5.5811735365e-05 0.0011653320398 -0.0025119602215 -0.0002894270001 0.0012656250037 -0.0035419391934 -0.00092063780176 
0.0012739874655 -0.0044521088712 -0.0017148896586 0.0011924769497 -0.0052620563656 -0.0025280504487 0.0010244384175 -0.0059770923108 -0.0033917201217 
0.00071804726031 -0.006570823025 -0.0042810044251 0.00030746206176 -0.0069554033689 -0.0051551149227 -3.7382011215e-05 -0.006968036294 -0.0060021998361 
-0.00034128897823 -0.0066000325605 -0.0066873021424 -0.00055501289899 -0.0059368549846 -0.0070720994845 -0.00063996337121 -0.0050459085032 -0.0071300058626 
-0.00071141333319 -0.0039927186444 -0.0067935059778 -0.0007234949735 -0.00293318904 -0.0060891513713 -0.00069407053525 -0.0019744446035 -0.0051377373748 
-0.00061277032364 -0.0012925098417 -0.004202476237 -0.00054079625988 -0.00084638857516 -0.0034484290518 -0.00047423929209 -0.00045585774933 -0.0028604725376 
-0.00036694182199 -0.00020263287297 -0.0022747674957 -0.00028006368666 1.1095636182e-05 -0.0016593325417 -0.00018032814842 4.9226884585e-05 -0.00099883950315 
-0.00023492547916 4.6673652832e-05 -0.0010691371281 -0.00013914839656 3.5562366975e-05 -0.00095092691481 0.0010889287805 -0.0039130668156 0.0025925713126 
0.00067170721013 -0.0034194404725 0.0017536034575 0.0014031357132 -0.0041963993572 0.0035641700961 0.001553056878 -0.0042004412971 0.0045828879811 
0.001597139053 -0.0039509311318 0.0054090470076 0.0014999146806 -0.0034886465874 0.0059803761542 0.0013257606188 -0.0028155334294 0.0062079303898 
0.0010838556336 -0.0019888284151 0.0060311038978 0.00077729148325 -0.0011952740606 0.0055140047334 0.00044342444744 -0.00040821067523 0.0048113483936 
0.00010286934412 0.00035733453115 0.0039612129331 -0.00020602530276 0.00086125632515 0.002982523758 -0.00042731457506 0.0010928814299 0.0020133994985 
-0.00046559239854 0.00099847617093 0.0012807867024 -0.00037364300806 0.00081524759298 0.00087434600573 -0.00023390784918 0.00074145564577 0.00082867732272 
-0.00028953125002 0.0023292696569 0.0020138402469 -0.00018147216178 0.0015547788935 0.0016410617391 -0.00044696201803 0.0033711872529 0.0023588533513 
-0.00073345762212 0.0045765321702 0.0024409785401 -0.0010647092713 0.0057808887213 0.0021776333451 -0.0014077872038 0.0066741537303 0.0014977428364 
-0.0016653914936 0.0070494106039 0.00062323425664 -0.0018043917371 0.0068943179213 -0.00013307161862 -0.0018656211905 0.0064848158509 -0.00058608420659 
-0.0018134469865 0.0062058372423 -0.00075948127778 -0.0018504047766 0.0062271100469 -0.00096531910822 -0.0019077329198 0.0062800040469 -0.0014448256698 
-0.0019180109957 0.0060146343894 -0.0020772460848 -0.0018679620698 0.0052079926245 -0.0025800028816 -0.0017748415703 0.0040194522589 -0.0028055035509 
-0.0016391560202 0.0026568835601 -0.0027426593006 -0.0015294252662 0.0014453479089 -0.0023636065889 -0.0014358104672 0.00057340285275 -0.0018376223743 
-0.0013641722035 0.00014409449068 -0.0012339890236 -0.0012928701472 1.1429912774e-05 -0.00080765812891 -0.0012382151326 3.9702204049e-06 -0.00065271812491 
-0.0011804149253 -0.0001257489057 -0.00071807118366 -0.0011137941619 -0.0003143947979 -0.00088960077846 -0.0010148329893 -0.00046874696272 -0.0011811341392 
-0.00088157341816 -0.00061603781069 -0.0017058424419 -0.00071226170985 -0.000738776871 -0.0026361499913 -0.00051563116722 -0.0012775822543 -0.003914530389 
-0.00022740963323 -0.0023159536067 -0.005229530856 0.00015207649267 -0.0036188950762 -0.0063565624878 0.00056060112547 -0.0051632425748 -0.0070104710758 
0.0010060386267 -0.0066151930951 -0.0070379469544 0.0013675711816 -0.0076268389821 -0.0063392128795 0.0015553020639 -0.0078948633745 -0.0049756830558 
0.0015086950734 -0.0072398977354 -0.0031388991047 0.0011969412444 -0.0058056670241 -0.0012414919911 0.00069995160447 -0.0038924780674 0.00025992555311 
0.00011265159992 -0.0022025865037 0.00084632955259 -0.00047898196499 -0.0012535050046 0.00049931404646 -0.00068851280957 -0.0012038190616 0.00019217532827 
-0.00055593368597 -0.0016301154392 0.0002182386088 -0.0002174264082 -0.0022135663312 0.0006078191218 0.00020684742776 -0.0028151026927 0.0011702706106 
-0.00012628445984 0.0010442445055 0.0012689854484 -0.00010232366913 0.00084428401897 0.00099836848676 -8.9047389338e-05 7.8999555626e-06 -0.00080285285367 
-0.0001377765293 -4.7640255616e-06 -0.00085909100017 -0.00045230094111 0.000226914417 -0.0013223139104 -0.0009649762651 0.0010528243147 -0.0017694472335 
-0.0014856967609 0.0021655417513 -0.0020199515857 -0.0018992291298 0.0032277456485 -0.0020395354368 -0.0021626071539 0.0041282470338 -0.0018726290436 
-0.0023075724021 0.0048017147928 -0.0016690407647 -0.002298673382 0.0054169986397 -0.0014579324052 -0.0022926807869 0.0060884896666 -0.0013092732988 
-0.0024251432624 0.007004532963 -0.0011574454838 -0.0020283216145 0.0063220723532 0.0018147621304 -0.0022977078333 0.0072359954938 0.0011090419721 
-0.0017680847086 0.0053423279896 0.0021939296275 -0.0013454431901 0.0045127207413 0.0022846378852 -0.00094779557548 0.0038111230824 0.0022889513057 
-0.0005628579529 0.0033460673876 0.0021660670172 -0.00016924660304 0.0029075671919 0.001948071993 0.00016905798111 0.0024830503389 0.0016558277421 
0.00043111859122 0.0020962085109 0.001346433186 0.00065134675242 0.0017534650397 0.00105555146 0.00086336507229 0.0016305705067 0.0010946715483 
0.000962665712 0.0015906725312 0.0013401976321 0.00098269782029 0.001538725337 0.001708525233 0.0009228301933 0.0014339137124 0.0021937820129 
0.00077640177915 0.0012635533931 0.0027683342341 0.00058295601048 0.00091212353436 0.0035655871034 0.00052310235333 0.00014799172641 0.0045573664829 
0.00064704270335 -0.00090006081155 0.0054243733175 0.00091715401504 -0.0022766375914 0.0060129449703 0.00093426270178 -0.0031832738314 0.0054139206186 
0.0008190292865 -0.003506089095 0.0045985337347 0.00072955532232 -0.0035514163319 0.0039356872439 0.00071385293268 -0.0038428411353 0.003691638587 
0.00063247705111 -0.0040768398903 0.0032040325459 0.0005555934622 -0.0040970323607 0.0026171901263 0.0002329084964 -0.0033299874049 0.00105373119 
0.00045455206418 -0.0039134337567 0.0019332309021 9.3442977231e-05 -0.0026629734784 0.00040108861867 5.2971347031e-05 -0.0020196347032 -4.834025458e-05 
6.7262066295e-05 -0.0015795499785 -0.00029774257564 8.447853179e-05 -0.0011828325223 -0.00042704457883 0.00021763016412 -0.00079419149552 -0.00031515583396 
0.00052080873866 -0.00090071558952 -7.5855941759e-06 0.0008912977064 -0.0016180264065 0.0001401923364 0.0011736587621 -0.002724719001 -0.00020254017727 
0.0013223228743 -0.0038616603706 -0.00084075774066 0.0013592247851 -0.0049315379001 -0.0016872227425 0.001297400333 -0.0059284837916 -0.0025909421965 
0.0011316571617 -0.006851838436 -0.0036096079275 0.00082832411863 -0.0076449327171 -0.0047564483248 0.00040184537647 -0.0081701539457 -0.0059122415259 
-2.4570637834e-05 -0.0081402454525 -0.0070047280751 -0.00040678534424 -0.0075476756319 -0.0078101120889 -0.00063158001285 -0.0065977745689 -0.0081310952082 
-0.00070823542774 -0.0054402253591 -0.0080069378018 -0.00072908279253 -0.0041623772122 -0.0074720359407 -0.00069402746158 -0.0029513381887 -0.0065654572099 
-0.00064433831722 -0.0018997867592 -0.0054473751225 -0.00058244308457 -0.001201013336 -0.0043898164295 -0.00052226398839 -0.00087116315262 -0.0037267815787 
-0.000460446754 -0.00055855698884 -0.0033159204759 -0.00034821292502 -0.00023996357049 -0.0026606174652 -0.0002808716672 -6.4424915763e-05 -0.0019128214335 
-0.00029946712311 5.3527564887e-05 -0.0011910516769 -0.00027608673554 -2.10519338e-05 -0.0006512561813 -0.00039988849312 -1.9412167603e-05 -0.00066837010672 
-0.00015151008847 -3.0823782708e-06 -0.00071496225428 -0.0024980746675 0.0078092725016 0.00016669600154 -0.0025151683949 0.0079475883394 -0.00069146533497 
-7.8005541582e-05 0.0013178897789 0.0015351908514 -2.6256579076e-05 0.0010664835572 0.0012666811235 -0.00018896145048 0.0018368298188 0.0018697823398 
-0.000362294144 0.002630509669 0.0022580546793 -0.00062568834983 0.0037169626448 0.0025852588005 -0.00095208222046 0.0049707181752 0.0027411147021 
-0.001326763304 0.0062678731047 0.0025001752656 -0.0016919351183 0.0072662932798 0.001781210769 -0.0019433724228 0.0077244867571 0.00084175501252 
-0.0020662620664 0.0076063736342 -2.7809564926e-05 -0.0020719149616 0.0071505000815 -0.00059750402579 -0.0020376706962 0.006781571079 -0.00080093723955 
-0.0020889427979 0.006744407583 -0.0010007179808 -0.0021798878442 0.0068019214086 -0.0014881790848 -0.0022308616899 0.0065297526307 -0.0022942002397 
-0.0020342273638 0.0054297228344 -0.0028578434139 -0.0018239880446 0.0040209912695 -0.0030831538606 -0.0016516308533 0.0025442505721 -0.0029570208862 
-0.0015277444618 0.0012911694357 -0.0024517856073 -0.0014416967751 0.00043111399282 -0.001840630197 -0.0013721355936 0.00012574977882 -0.001131033292 
-0.0012721159728 4.7195087973e-05 -0.00073299632641 -0.0011623490136 6.8293088589e-06 -0.00064962456236 -0.0010453253053 -0.00016209804744 -0.00074787641643 
-0.00093119422672 -0.00031905586366 -0.00093482917873 -0.00080641749082 -0.00038429745473 -0.0013051555725 -0.00063887616852 -0.00050815957366 -0.0020856775809 
-0.00049106247025 -0.00078227458289 -0.0032865870744 -0.00034168877755 -0.0015577464364 -0.0047374861315 -0.00010603268311 -0.0027838700917 -0.006175252609 
0.0002247854718 -0.0042139710858 -0.0073995310813 0.00061576004373 -0.0059325029142 -0.0081247007474 0.0010410775431 -0.0075751650147 -0.008140373975 
0.0013724162709 -0.0087295239791 -0.0073163625784 0.0015651020221 -0.0089387074113 -0.0056404699571 0.0015042369487 -0.0079624811187 -0.003443691181 
0.0012274289038 -0.0061237551272 -0.0013694269583 0.000845843344 -0.0040109045804 0.00011476621876 0.00041357742157 -0.0023296282161 0.00075984658906 
-0.00015351343609 -0.0012576960726 0.00054367672419 -0.00047905617976 -0.0010432463605 0.00022537334007 -0.00048253225395 -0.0014732545242 0.00015170229017 
-0.00020148356271 -0.0021794072818 0.00051235809224 0.00021492916858 -0.0029439500067 0.0011337831384 0.00067509023938 -0.0036686738022 0.0018435457023 
0.0010891446145 -0.0042147939093 0.0028319673147 0.0013926300453 -0.0045234677382 0.003900019452 0.0015429659979 -0.0045288898982 0.0049798036925 
0.0015831586206 -0.0042672911659 0.0058453921229 0.0015118175652 -0.0037388831843 0.0064474055544 0.001349322265 -0.0029622945003 0.0066868844442 
0.0010930782882 -0.002046123147 0.0065014036372 0.00075430801371 -0.0011363888625 0.0059212646447 0.00037629099097 -0.00026001571678 0.0050886813551 
9.3528315119e-06 0.0004908721894 0.0041143754497 -0.00027594275889 0.00096703553572 0.0030580940656 -0.00047374240239 0.0012177998433 0.0020588941406 
-0.00046966149239 0.0010996517958 0.0013170355232 -0.00038493063767 0.00093606492737 0.00086840399308 -0.00023664520995 0.00079556944547 0.00075094861677 
-8.7607892056e-05 0.00079696479952 0.00081931921886 2.5554201784e-05 0.00096434250008 0.0010039056651 -2.019303065e-05 0.0013883374631 0.0015427068574 
7.7358192357e-05 0.0012529654196 0.0013033554424 -8.5858038801e-05 0.0015440495918 0.0017010472948 -0.00023502619297 -5.8942994656e-05 -0.0007338100113 
-0.00050830672262 0.0001327728387 -0.0012168434914 -0.0009940614691 0.00095345726004 -0.0018632099964 -0.0015529224183 0.0021447755862 -0.0023300403263 
-0.002008987125 0.0034206255805 -0.0024144924246 -0.0023240519222 0.0045098881237 -0.0022471789271 -0.0024757168721 0.0053158085793 -0.0019433080452 
-0.0024596422445 0.0058726044372 -0.0015986239305 -0.0023985973094 0.0063368859701 -0.0013898616889 -0.0023670666851 0.0069339806214 -0.0013195420615 
-0.0023862107191 0.0076769581065 -0.001130438759 -0.0025253663771 0.0085502685979 -1.5036926015e-05 -0.0024193227291 0.0082719745114 -0.00068734958768 
-0.0024967209902 0.0083339409903 0.00085922656581 -0.0023075190838 0.0075931986794 0.0017147429753 -0.0020270594396 0.0065898210742 0.0022884351201 
-0.0016600040253 0.0055403942242 0.0025055306032 -0.0012781287078 0.0046540196054 0.0025479802862 -0.0010015765438 0.0040553850122 0.0024575844873 
-0.00076709088171 0.003725644201 0.0024364539422 -0.00042372167809 0.0032687864732 0.0022580218501 -8.303848881e-05 0.0027532046661 0.0019478201866 
0.00017718409072 0.0022841244936 0.001594342757 0.00036279537017 0.0018582522171 0.001280727447 0.00085106235929 0.0014905922581 0.0011425646953 
0.00079524668399 0.0014548915206 0.00093254668172 0.00082348188153 0.0015286603011 0.0015179036418 0.00073891866487 0.0014650672674 0.002060235478 
0.00064296415076 0.001326354919 0.0026465561241 0.00041583558777 0.0011723565403 0.0032733092085 0.00042289009434 0.00034264856367 0.0045703048818 
0.00057455064962 -0.00058990967227 0.0054795788601 0.00078020349611 -0.0014749142574 0.006115025375 0.00088584882906 -0.0039572604001 0.0046088187955 
0.001034737099 -0.0037578328047 0.0055882669985 0.0006564958021 0.00146781886 0.00091155525297 0.00045924261212 0.001514613512 0.0010649848264 
0.0010815082351 -0.0030640596524 0.0063129095361 0.00094641727628 -0.0021428870969 0.0065034101717 0.00077407073695 -0.0044635054655 0.0035306410864 
0.00086381635629 -0.004347841721 0.0042401226237 0.00070939952275 -0.0043099420145 0.002851548139 0.00035227453918 -0.0035108921584 0.0013339474099 
0.00063583342126 -0.0040886248462 0.0022468382958 0.00010245123121 -0.0028568631969 0.00051573070232 -2.1808034944e-05 -0.0022084424272 -2.6766070732e-05 
-2.0102410417e-05 -0.0015954640694 -0.0003265554551 4.3839088903e-05 -0.0010836834554 -0.00029106391594 0.00034017700818 -0.00095549959224 9.8733944469e-05 
0.00088030938059 -0.0017922747647 0.00031371397199 0.0011836474296 -0.0029268786311 -8.2172788098e-05 0.0013628402958 -0.0041246325709 -0.00075310695684 
0.001421099063 -0.0052803340368 -0.0015902045416 0.0013793720864 -0.0064096818678 -0.0025513202418 0.0012336930959 -0.007519621402 -0.0036620320752 
0.00094873813214 -0.0085519813001 -0.0049676271155 0.00055677583441 -0.0092211393639 -0.0065357186832 0.00012352064368 -0.0091148233041 -0.0078834481537 
-0.00028350518551 -0.008295272477 -0.0087694907561 -0.00055680033984 -0.007060631644 -0.0090080294758 -0.00063538603717 -0.00565332314 -0.0086750080809 
-0.00065570167499 -0.0041664321907 -0.0079168956727 -0.00061762152473 -0.0027578689624 -0.0067818122916 -0.00051045016153 -0.0014265296049 -0.0052207950503 
-0.00047307350906 -0.0008232035907 -0.0040006316267 -0.00033678044565 -0.00041024867096 -0.0031572573353 -0.00027234334266 -0.00013774682884 -0.0021971836686 
-0.00034532725113 -3.6398254451e-05 -0.0013454180444 -0.00050024694065 -2.4843939173e-06 -0.00073470512871 -0.0005459348904 -0.00011151403305 -0.00049633637536 
-0.00067028601188 -6.8008892413e-05 -0.00051254988648 -0.00038226920879 -0.00011958333198 -0.00058568507666 -0.00019252102356 0.0019982256927 0.0019669742323 
-0.00039270537673 0.0027504211757 0.0023642461747 -0.00072431948502 0.0038321705069 0.0027192265261 -0.0011061275145 0.0050950129516 0.0029387818649 
-0.0015264202375 0.0064608799294 0.0027444032021 -0.0019027278759 0.0075564379804 0.0020501425024 -0.0021576606669 0.0081225680187 0.0010732922237 
-0.0022416773718 0.0080984728411 0.00013004157518 -0.0022118717898 0.0076406244189 -0.00056984188268 -0.002188770799 0.007155219093 -0.00085275515448 
-0.0022436717991 0.0069997822866 -0.0010117928032 -0.0023426879197 0.0069999955595 -0.0013819563901 -0.0024385608267 0.006835875567 -0.001912518288 
-0.0018495861441 0.0036810908932 -0.0032021563966 -0.002081452636 0.0049898792058 -0.0030952305533 -0.0016455884324 0.0022458683234 -0.0029835037421 
-0.0014975740341 0.0010716886027 -0.0023833843879 -0.0013932720758 0.00027782353573 -0.0016673530918 -0.0013074571034 8.9415822004e-05 -0.00099412188865 
-0.0011835914338 4.4436455937e-05 -0.00066379946657 -0.0010452112183 -1.3716340618e-05 -0.00063813180896 -0.00089262006804 -0.00017087472952 -0.00077663065167 
-0.00075034896145 -0.00027706491528 -0.0010067329276 -0.00061031716177 -0.00028524480877 -0.0014456609497 -0.00038788371603 -0.00032894260949 -0.0026080827229 
-0.00028946620296 -0.00092293595662 -0.004150596913 -0.00017604201275 -0.0019483794458 -0.005675544031 1.0547078091e-05 -0.0032573870849 -0.007080859039 
0.00027699157363 -0.0047320956364 -0.008278472349 0.00059953023447 -0.0065568955615 -0.0089587634429 0.00097545486642 -0.0082402871922 -0.008989370428 
0.0012901766459 -0.0095174359158 -0.0081400498748 0.0015270391013 -0.0098570268601 -0.0061991638504 0.0015078269644 -0.0082505103201 -0.0034101039637 
0.001271106652 -0.006136124488 -0.0014260949101 0.00097824516706 -0.0040397527628 -0.00011914725474 0.00065651559271 -0.0024499774445 0.00057191360975 
0.00013162502728 -0.0013646545121 0.00051670259563 -0.00023284599592 -0.0010038734181 0.00027708921698 -0.00034992257133 -0.0013253015932 0.00011491990881 
-0.00017635473341 -0.0020641076844 0.00035344291246 0.00020191915974 -0.003007150488 0.00095750764012 0.00064882199513 -0.0038171228953 0.001894779969 
0.001026765327 -0.0043761036359 0.0029484624974 0.0012895948021 -0.0046779555269 0.0039931172505 0.0014354179148 -0.0046765003353 0.0050718146376 
0.001483098371 -0.0043994816951 0.0059554921463 0.0014323189389 -0.0038112394977 0.0065938322805 0.0012757724617 -0.0029799989425 0.006849469617 
0.0010213615606 -0.0020277076401 0.006657183636 0.00067642115755 -0.0010544426041 0.0060432711616 0.00031315526576 -0.00020969726029 0.0051250183024 
-4.2593947001e-05 0.00053440552438 0.0040891510434 -0.00027684294037 0.00094308995176 0.0029980859254 -0.00042832337203 0.0011833069148 0.0020476719365 
-0.00041013001464 0.0010892710416 0.0013074107701 -0.00033548439387 0.00097785273101 0.00087267532945 -0.00020463307737 0.00085626146756 0.00069580791751 
-3.6217163142e-05 0.00082100182772 0.00068915536394 0.00012070858793 0.00090869271662 0.00081028102431 0.00020179530839 0.0011361747747 0.0010538912611 
6.1186938183e-06 0.0017253841506 0.0017043318367 0.00017053357442 0.0014740902698 0.001393724815 -0.00012748817971 0.0019180165837 0.0018801738042 
-0.0023103484418 0.0059736133553 -0.0027462446596 -0.0024855148513 0.0063806725666 -0.0023707903456 -5.8475121477e-05 -0.0015854232479 -0.00018004099547 
3.0505587347e-05 -0.0011295923032 -7.7121090726e-05 0.0012284611585 -0.0031797934789 -2.195156776e-05 0.0009268822032 -0.0021172289271 0.00033393476042 
0.0014021886745 -0.0043412591331 -0.00063925993163 0.0014796907781 -0.0055481228046 -0.0014423303073 0.0014487899607 -0.0067535666749 -0.0024430954363 
0.0013415681897 -0.0079657649621 -0.0035707331263 0.0011454146588 -0.0091624427587 -0.0050314231776 0.00084053265164 -0.010105646215 -0.0071249576285 
0.00035062764073 -0.0097492802888 -0.0086812768131 -6.1180580815e-05 -0.0087360395119 -0.0094825522974 -0.00036044829176 -0.007322082296 -0.0096378680319 
-0.00047832701239 -0.0056847105734 -0.0091382171959 -0.00052024389151 -0.0040431884117 -0.0081717222929 -0.00049522292102 -0.0026928521693 -0.0069470428862 
-0.0004184783902 -0.0016409587115 -0.0056660016999 -0.00032853073208 -0.00059508386767 -0.0038275949191 -0.0003205697576 -0.00086424488109 -0.0044705430046 
-0.00061830977211 5.6526509979e-06 -0.0010670882184 -0.0010292166844 0.00071976071922 -0.0019111362053 -0.001550848363 0.0019869310781 -0.0025818429422 
-0.0020282063633 0.0034670510795 -0.0027783233672 -0.0023530898616 0.0047221016139 -0.0026195170358 -0.0025372086093 0.0058507327922 -0.0022328794003 
-0.0025177723728 0.0062573938631 -0.0017143455334 -0.0024418702815 0.0065866429359 -0.0014300302137 -0.0023570866324 0.006937768776 -0.0012468068162 
-0.0023071384057 0.007355870679 -0.0011635727715 -0.0023132194765 0.0077962116338 -0.00095632032026 -0.0024172430858 0.0085907028988 -3.405390089e-05 
-0.0023056901991 0.0080520370975 -0.0005915784277 -0.0024897684343 0.0087209483609 0.00067715486512 -0.0024141613394 0.0083452975377 0.0015170859406 
-0.0021834126674 0.0074912090786 0.0022562383674 -0.0018319296651 0.0063947071321 0.0026839179918 -0.0014115269296 0.0053222267888 0.0027447741013 
-0.0010566230631 0.0043853917159 0.0026436254848 -0.00072117889067 0.0038950077724 0.0025256604422 -0.00038172505447 0.0032335321885 0.0023029416334 
-0.00010038261098 0.0026293706615 0.0019440815086 0.00010804894555 0.0021048837807 0.0016319582937 0.00024898923584 0.0016654394567 0.0013669385808 
0.00049550121184 0.0012372188503 0.00086354190717 0.000333408796 0.0013091058936 0.0010937561747 0.00062317447737 0.001283184858 0.00076944328612 
0.00070194317959 0.0013373033144 0.00081794412108 0.00070424104342 0.0014159423299 0.0010453680297 0.0006210982101 0.001514609321 0.0014988471521 
0.00051683996571 0.0014246650971 0.0022121679503 0.0010290383361 -0.0046584000811 0.004405322019 0.0011189657962 -0.004363140557 0.0054639917798 
0.00094295054441 -0.0045756986365 0.0035401191562 0.00015061380691 -0.0029579286929 0.00074102368671 0.00060460332315 -0.0039242054336 0.0019282220164 
-5.0572281907e-05 -0.0021808734164 9.6340721939e-05 -0.00035549030872 0.0026921092067 0.0023263678886 -0.00072189659113 0.0037643068936 0.0027526509948 
-0.001151603763 0.0050276708789 0.0030583725311 -0.0016251502093 0.0064468993805 0.0029243449681 -0.002024926478 0.0076261344366 0.0022747090552 
-0.0022837608121 0.0082972720265 0.0013374671107 -0.0023622545414 0.0084340842441 0.00035308496444 -0.002240738133 0.007367121987 -0.00097045931034 
-0.002290498931 0.0071005406789 -0.001055578352 -0.0023924170528 0.0069998898543 -0.0012805573642 -0.0024908448104 0.0068285157904 -0.0016532884911 
-0.0018353329506 0.003118327586 -0.0031990772113 -0.0020745866932 0.0043316441588 -0.0032047037967 -0.0016084314557 0.0018749572337 -0.0028860012535 
-0.0014301801566 0.00083618453937 -0.00226347032 -0.0012991647236 0.00020727794617 -0.0014916157816 -0.0011968432227 5.6634511566e-05 -0.00088302738732 
-0.0010693044169 1.2775929463e-05 -0.00061286444543 -0.00091649824753 -3.1480041798e-05 -0.0006100407918 -0.00074720045086 -0.00014101044508 -0.00079807749717 
-0.00058750674361 -0.00020588136977 -0.0011255975114 -0.00049613212468 -0.00022074778099 -0.0015246744733 -0.00034805078758 -0.00020737067098 -0.0021630530246 
-0.00010885809752 -0.0025641887914 -0.0066087408923 -0.00020121457055 -0.001462459797 -0.0052643478848 4.7344932682e-05 -0.0039065186866 -0.0079070758075 
0.00026073495974 -0.0053266058676 -0.0089391861111 0.00051836832426 -0.0070229978301 -0.0095393210649 0.00082534283865 -0.0086372019723 -0.0095406062901 
0.0011093895882 -0.0098404567689 -0.0088969767094 0.0013259990374 -0.010374105535 -0.0076726977713 0.0013486779062 -0.0059751211666 -0.0013369510416 
0.0014761002967 -0.0079058902338 -0.0029504904523 0.0011302041821 -0.0040906532668 -0.00026630508364 0.00084800762124 -0.0025834990665 0.00039661224582 
0.00036778184585 -0.0015104284976 0.0004660221166 -7.1371819104e-06 -0.001054080436 0.00031514008879 -0.00020770770789 -0.0011913382914 0.0001126400457 
-0.00017999249394 -0.0018489062786 0.00011403225653 -0.00025896108127 -0.00074308289913 -0.0040221824311 -0.00027556161513 -0.00037423163303 -0.0032150633633 
0.00055038480787 -0.0013356583659 0.00036339322105 0.00022261789127 -0.0010576059576 0.00018850591732 0.0015336135402 -0.0095216017216 -0.0047505898401 
0.0014070853358 -0.010336846113 -0.006317823194 0.0009315222851 -0.0044187135063 0.0029442885425 0.001135298633 -0.004693523515 0.0038724967744 
0.0012687410926 -0.0047066300176 0.0049034617841 0.0013231917983 -0.0044075837359 0.0058594872244 0.0013094457099 -0.0037666098215 0.0065814931877 
0.0011493406491 -0.002864764072 0.0068519106135 0.00089755858062 -0.001889073872 0.0066311163828 0.0005678726593 -0.00089174776804 0.0059659141116 
0.00023604326998 -6.7397420935e-05 0.0049832947552 -5.7648263464e-05 0.00058202364016 0.0038821431808 -0.00023044440604 0.00093727285275 0.0027912016958 
-0.00031480984762 0.001105775591 0.0018709020223 -0.00027295885957 0.001039595576 0.0012025210308 -0.00020468526054 0.0009600414196 0.00082462106366 
-0.00013629140449 0.00089381862199 0.00069101707777 1.0387307157e-05 0.000884620531 0.0006221960648 0.00020132877398 0.00092762138229 0.00064783822745 
0.00032690487569 0.0010523801902 0.00083499384345 3.0504001188e-05 0.0019564640243 0.0017382274382 0.00037411681842 0.00032014821772 0.0046487008221 
0.0002733618312 0.00098214240279 0.0035560536198 0.00051165377954 -0.00031376586412 0.0053336326964 0.00060303311329 -0.00072740402538 0.0057531413622 
0.00070309266448 -0.0011742500355 0.0061424807645 0.0010345997289 -0.0025912167039 0.0067269932479 0.00078288640361 -0.0015711002052 0.0064392513596 
0.0011814516038 -0.0035570692271 0.0064649516717 -0.0013234209036 0.00067956233397 -0.0020583567675 -0.0015226353426 0.0015402702847 -0.0026725102216 
-0.0011757607572 0.00016491988208 -0.0013501447393 -0.0010701646097 1.3226367628e-05 -0.00083641096717 -0.00093581259716 -3.5347016819e-05 -0.00058431457728 
-0.00078462355305 -4.5826702262e-05 -0.00056492735166 -0.00060408294667 -6.5533829911e-05 -0.0008004581905 -0.00039382028626 -0.00012487790082 -0.0014691859251 
-0.00027443593717 -0.00026473993785 -0.0025997944176 0.00047828356037 -0.00063195859548 0.0057190456428 0.00020230955852 0.00011925087892 0.0046825679019 
-2.0883046091e-05 0.00068412406836 0.0035447189584 -0.00011192633247 0.00095138553297 0.0024773364421 -0.00013948979904 0.0010843781056 0.0016015813453 
-6.7551227403e-05 0.0010186344152 0.0010106323753 -9.5294890343e-06 0.00095713755582 0.00069296779111 0.00026117279776 0.00099904183298 0.00059351674281 
0.00042726413812 0.0010796393035 0.00067800353281 0.0005170967197 0.0011614804389 0.00067570223473 0.00055280217202 0.0012358035892 0.00077411276288 
0.0005064032739 0.0013427581871 0.0010496348841 0.00040355947567 0.0014133461518 0.0016084951349 0.00031790530193 0.0013028843096 0.0024387796875 
-0.00024129798112 0.0025124994572 0.0021443297155 -0.00066146982135 0.0036469760817 0.0026605618186 -0.0011353087611 0.004942804575 0.0030393532943 
-0.0016746389447 0.0064567937516 0.0029592840001 -0.0020845029503 0.0076325736009 0.0023660319857 -0.0023141526617 0.008298214525 0.0016034467844 
-0.0024094989058 0.008609472774 0.00079537398415 -0.0010765594197 0.004718861077 0.0028158987407 -0.00071718811523 0.0039375233464 0.0026216877159 
-0.00036982932943 0.003085765522 0.0023326799273 -0.00012743970728 0.0024681345094 0.0019718981348 -0.0023957043886 0.0085296798497 0.0013434701832 
-0.0022665208671 0.0080542862415 0.002012091456 -0.0019629949238 0.0071128979325 0.0026127966121 -0.0015070703812 0.0058421166614 0.0029154829681 
0.0003949351667 0.0010910431156 0.00067116547143 0.00036101066507 0.0011502421694 0.00079373567132 0.00028067061794 0.0012488783104 0.0011563965818 
0.00020545058942 0.0012447630288 0.0018323844997 0.00016513899027 0.0010946422117 0.0027637609746 0.00022732124489 0.00069328903919 0.003897793591 
0.00040646552225 1.9469700419e-05 0.0049686571583 0.00042639233288 -0.00028860860039 0.0053662438877 -0.0022709034383 0.0074274283834 -0.0010305481264 
-0.002297288971 0.0071804956533 -0.0011066694278 -0.0023761810735 0.0069662327878 -0.0012467085617 -0.0024648550898 0.0067569026724 -0.0014870654559 
-0.0022862406913 0.0052373451181 -0.0029821549542 -0.0024452074431 0.0056756911799 -0.0026558365207 -0.00078458932694 -7.6463315054e-05 -0.00088159384904 
-0.0011032688199 0.00055373623036 -0.0019001282053 -0.0015712925233 0.0019164897967 -0.0027454283554 -0.0019947323017 0.003520689439 -0.002993010683 
-0.0022847973742 0.0047161164694 -0.0028863842599 -0.0017624342581 0.0025646248832 -0.0030785824638 -0.0025133513846 0.006522951182 -0.0017361154314 
-0.00028745798045 -0.0013414238347 -0.0051368302666 -0.00024081356241 -0.0021220948547 -0.0062233540229 -0.00016725836031 -0.0032560133841 -0.0074893245474 
-1.1170703146e-05 -0.0046148002148 -0.0086447754875 0.00017616196419 -0.0058783655986 -0.0094166649505 0.0003887929779 -0.0073608881794 -0.0098828105256 
0.00064129778184 -0.0088318167254 -0.0098681002855 0.00089368631598 -0.0099111618474 -0.0093290880322 0.0010854495922 -0.010468881577 -0.0084040146321 
0.0011557491962 -0.010568838567 -0.0073594162241 0.001409329474 -0.0098550794646 -0.005143951159 0.0012263227254 -0.010182593949 -0.0060692634434 
0.0014857606729 -0.008925116621 -0.0038701703306 0.0014666049974 -0.0074745416641 -0.002565685194 0.0014167403569 -0.0058231772855 -0.0013088502456 
0.0012617962202 -0.0042348597199 -0.00043276738143 0.001025114092 -0.0027664559893 0.0002505768789 0.00057547306642 -0.0016209484311 0.00045661491458 
0.00020592061628 -0.0011232709512 0.00033403953421 -2.0265462808e-05 -0.001083778101 0.00013993805624 -0.00010670217307 -0.0014569486957 -3.7765159504e-05 
0.00035081576789 -0.0012146254303 0.00034591328586 0.00064064358594 -0.0015919818543 0.00042429476161 0.00098407268524 -0.0024222871289 0.00030467536999 
0.0012612143764 -0.0034149712883 -8.1722519099e-06 0.0014113999205 -0.0045010936446 -0.0006144818035 0.0015073205577 -0.0057189273648 -0.0013335841941 
0.0014922337141 -0.0069763283245 -0.002330647083 0.0014246313367 -0.0082141095772 -0.0034215187188 0.00052297359798 -0.0099214147776 -0.0092373266816 
0.00084682705346 -0.010418014601 -0.0082583008334 0.00020695023704 -0.0089159142226 -0.0098648164421 -6.1073733377e-05 -0.0074568120763 -0.0099373525009 
-0.00018483774329 -0.0056237350218 -0.0093165896833 -0.00033125854679 -0.0038061025552 -0.0080889416859 -0.00035207311157 -0.0025988495909 -0.0068390746601 
-0.00035599747207 -0.0018083715113 -0.0059004779905 -0.00083267892478 -9.2575122835e-05 -0.00061741250101 7.9214754805e-05 -0.0063258921728 -0.0096816411242 
0.00022451375844 -0.007581224665 -0.010027670301 0.00044538881048 -0.0089122829959 -0.0099702505395 0.00068397296127 -0.0098812822253 -0.0094625679776 
0.00087053416064 -0.010332043283 -0.0087696658447 0.0014776680619 -0.0057995668612 -0.0013404082274 0.0014889014419 -0.0071637034416 -0.0023491126485 
0.0013741266448 -0.0045216977596 -0.00060225051129 0.001247633365 -0.0035793976858 -9.1951529612e-05 -0.0022893617861 0.0082224681973 0.0017919428647 
-0.0021232429426 0.007706402801 0.0023257797584 -0.00059524230892 0.003564432729 0.0025747690815 -0.0011169170029 0.0049219834618 0.0029751262628 
-0.00031323605799 0.0028158284258 0.002266694326 0.00019343687745 0.00040668054135 0.0042957691476 4.9937494623e-05 0.00087829091353 0.0031493769493 
3.4038166632e-05 0.0010705391178 0.002132555237 7.0825750299e-05 0.0011310519185 0.0013400946045 0.00015654842719 0.0010746518383 0.00083441031165 
0.0013269050978 -0.0093360831961 -0.0046526240185 0.0014092493802 -0.0092554148287 -0.0043545169756 0.0014566722093 -0.0084122205153 -0.0034381162841 
-0.0022062552162 0.0046010222286 -0.0030513554811 -0.0020138730761 0.0037559224293 -0.0031582682859 -0.0014123114524 0.0012976252474 -0.0024435194209 
-0.0012095887214 0.00057014182676 -0.001914063585 -0.0010314957472 0.00010375654529 -0.0012304831762 -0.00096363818739 -8.5929259512e-06 -0.00084210961359 
-0.0017528436147 0.0066397748888 0.0028631386813 0.00084483949468 -0.0043898099102 0.0029327115044 -0.0025347059127 0.0064767808653 -0.0020158246625 

