# vtk DataFile Version 5.1
vtk output
ASCII
DATASET POLYDATA
POINTS 1114 double
77.883888245 63.633712769 45.870170593 76.773333956 63.759042593 46.914537704 76.65212859 64.925041763 46.544442598 
77.750616978 64.853534064 45.520242658 76.052685314 63.742539141 48.241610567 75.810015367 64.991351171 47.801084573 
75.645244427 63.810728703 49.69871468 75.341683762 65.173899728 49.25141003 75.554734073 63.972231077 51.204890887 
75.231742779 65.431409692 50.880525284 75.706403021 64.097291744 52.717641114 75.485983432 65.513694014 52.587317628 
75.937207929 64.015878561 54.227555696 75.712302452 65.432651943 54.206497634 76.507160437 63.921378574 55.643157781 
76.145280917 65.379340445 55.706058979 77.041176383 63.9893319 57.069868407 76.705912183 65.392521195 57.187980011 
77.687672929 64.077753906 58.441439573 77.367284422 65.42255396 58.615012059 78.537834663 64.115911402 59.709814494 
78.248686271 65.474482877 59.914146521 79.524997629 64.209041705 60.864075682 79.318322358 65.553100232 61.055360895 
80.773618795 64.217482177 61.729630471 80.594578142 65.628149907 61.952220788 82.194266183 64.296340511 62.290326254 
82.012955141 65.720117846 62.623539679 83.653443003 64.357193878 62.714732344 83.532643835 65.819816915 63.000326814 
85.172110587 64.424088021 62.851153267 85.093141173 65.862822575 63.165600804 86.70059268 64.422940754 62.904962665 
86.656871273 65.867144347 63.157350616 88.211586248 64.415493907 62.757999455 88.193521347 65.851372633 63.013348193 
89.689888952 64.461040356 62.375866788 89.672089876 65.894598653 62.610206704 91.168900575 64.551039963 62.005494507 
91.109015759 65.960460809 62.073582645 92.647833129 64.648399989 61.675763489 92.519402883 65.981814457 61.547005488 
93.883115126 64.710640095 60.775793704 93.786653043 66.021718042 60.681104249 94.978504605 64.635316943 59.71793585 
94.949959109 66.034413065 59.667254115 95.836845387 64.56474155 58.477284646 95.917327042 66.040072778 58.480653399 
96.426778912 64.53703061 57.073815221 96.661894883 66.072471309 56.999695286 96.770356718 64.521312615 55.588570604 
96.982414397 65.85616885 55.398109559 96.496693872 64.095107748 54.145241427 96.732822345 65.560132277 53.906334131 
96.110096576 63.780277154 52.701914084 96.232427276 65.276762206 52.462420262 95.549691724 63.539747892 51.306576541 
95.609595645 65.033892715 51.08194464 94.839226187 63.344262843 49.966942103 94.900930259 64.829148722 49.754906524 
94.05979962 63.177045951 48.661964402 94.107462054 64.661523374 48.476557592 93.143121763 63.095765823 47.440147598 
93.197399297 64.54305482 47.2865555 92.012151216 62.974508533 46.431543568 92.101996849 64.456663967 46.256464261 
90.744721026 62.917566069 45.590515886 90.882290181 64.419059012 45.362068548 89.38377626 62.946203916 44.898867815 
89.520126742 64.452150618 44.684751151 87.94505292 62.988807811 44.381179575 88.097427226 64.520031886 44.123551683 
86.466563396 63.125891989 44.015371083 86.585970722 64.652934878 43.775711201 84.955811085 63.193054034 43.800198767 
85.022238181 64.792976535 43.621483729 83.433736043 63.293541137 43.753079774 83.441753264 64.896633486 43.557304403 
81.925030236 63.429659877 43.917356593 81.876662934 64.91406318 43.733751396 80.452650087 63.504456898 44.298166224 
80.364026307 64.871654069 44.088578666 79.066386115 63.503596276 44.908656401 78.945554258 64.80846025 44.621823514 
78.394554138 88.998214722 37.739414215 79.94793385 88.9803362 37.552772427 79.93683386 87.391216754 37.798728005 
78.378033372 87.376742982 37.890331196 81.499705556 88.957122121 37.472893773 81.492521525 87.399654179 37.770712126 
83.046802354 88.918396133 37.703404341 83.048531069 87.398229795 37.930358527 84.598482841 88.887464742 37.899217477 
84.596005959 87.386212122 38.12625265 86.154197192 88.863392968 38.064495226 86.132935466 87.367841789 38.374761404 
87.659142973 88.889521145 38.487304216 87.628010689 87.397589971 38.824282009 89.13084009 88.953344403 39.002014441 
89.089795361 87.456083435 39.359328831 90.553534205 89.073357615 39.642078197 90.501835643 87.543835453 40.00322593 
91.847936713 89.200396762 40.505951903 91.807970315 87.65833603 40.831342758 92.993838164 89.314410758 41.539355885 
93.053864495 87.779943534 41.731569364 93.94075645 89.406624836 42.78152562 94.153901548 87.891229022 42.809156594 
94.911466589 89.538733994 44.001449174 95.282776231 88.055291617 43.877682446 95.882878038 89.670725915 45.220903809 
96.312516412 88.199727671 45.051558738 96.827620898 89.79258893 46.457099595 97.236830064 88.301940299 46.333710537 
97.433851849 89.819700779 47.89928277 97.881067093 88.279785779 47.801202189 97.97745738 89.844231133 49.365391634 
98.476685562 88.304725145 49.318527316 98.43575501 89.880436479 50.856251488 98.972268442 88.45833592 50.849345196 
98.640201475 89.983774837 52.404045452 99.249977984 88.641826222 52.421109067 98.50148612 90.036561189 53.942683816 
99.151258461 88.738212344 54.017414316 98.143919913 90.062885822 55.460298182 98.719484761 88.748709464 55.525721439 
97.497419331 90.079046687 56.885050494 97.981148515 88.697403745 56.925272763 96.705091192 90.087544397 58.228603793 
97.137576864 88.64275814 58.264733832 95.8219156 90.096302196 59.519602595 96.194393462 88.484748734 59.572367159 
94.867565778 90.131937054 60.758993535 95.08258554 88.088521917 61.115981215 93.844097239 90.154501761 61.94015879 
93.893906617 88.695222605 62.251838644 92.769338267 90.167209308 63.074295007 92.888601427 88.738698322 63.275638183 
91.432639641 90.1261911 63.886512722 91.654858393 88.650289832 64.137114015 90.023403954 90.103145525 64.527880445 
90.307700848 88.631019159 64.891226357 88.509215585 90.10610426 64.922048122 88.851918683 88.66516433 65.516052982 
87.004487728 90.097138083 65.350343373 87.318964723 88.66168273 66.011006947 85.495272886 90.084592833 65.752417426 
85.731497985 88.654466435 66.416140644 83.940568464 90.072104894 65.928148866 84.103053848 88.663609394 66.703120512 
82.3812759 90.087486744 66.009991594 82.372202926 88.648919703 66.798416993 80.817298624 90.131324969 65.995969501 
80.681676978 88.826932573 66.64816197 79.473562931 90.09424758 65.259278453 79.308635127 88.728552117 65.780009492 
78.18652372 90.049858013 64.373636125 78.028483036 88.646492346 64.79800104 76.994954399 90.037799779 63.359653641 
76.820470602 88.564941335 63.754470631 75.789318922 89.983838333 62.364759111 75.653542344 88.465148217 62.687151724 
74.572542007 89.896257411 61.385008004 74.509136634 88.352708412 61.609631965 73.398589531 89.806672181 60.354496773 
73.371378301 88.257345178 60.526881456 72.344136051 89.673558394 59.224268978 72.361762278 88.121854922 59.357260888 
71.477897921 89.471885515 57.936983897 71.493700138 87.954851419 58.065800372 70.797122026 89.232386503 56.554993075 
70.787599554 87.765016239 56.678593243 70.192267869 88.999583484 55.133968582 70.128973528 87.636080135 55.247022388 
69.656665451 89.160854386 53.672713959 69.492980726 87.66014655 53.790483079 69.165587257 89.254693077 52.195101872 
68.898422237 87.709963769 52.31299437 68.771733841 89.201284246 50.681771005 68.477579838 87.714017506 50.790849702 
68.749895201 89.160779409 49.154829971 68.445310657 87.669826647 49.194139672 69.034997634 89.130921371 47.61665949 
68.701656235 87.63491525 47.62403707 69.549654092 89.075712353 46.145090127 69.241821252 87.573167709 46.116061538 
70.140680504 89.014648987 44.701212275 69.861736726 87.54070961 44.636691579 71.154967877 88.967733225 43.510765568 
70.830814017 87.479851127 43.380977572 72.171076557 88.934675772 42.3216402 71.839202013 87.448092684 42.149694099 
73.192309079 88.940605587 41.136232127 72.9343738 87.427924113 41.001319396 74.348433058 88.955000908 40.102087804 
74.142619329 87.407062119 39.976963694 75.641778882 88.978007986 39.221820469 75.428599233 87.387066255 39.051954562 
77.004904788 88.990172068 38.458408879 76.887398468 87.361799803 38.407924834 75.435751065 66.176655084 47.174325003 
76.378247219 66.108200983 46.024850702 74.796539096 66.439424871 48.622525469 74.496100352 67.030426398 50.478796313 
74.834863751 66.873000871 52.608130079 75.178929201 66.788333766 54.309327107 75.680880093 66.767824715 55.876226186 
76.260581904 66.769309041 57.379412864 76.95859206 66.783492926 58.841803949 77.82884098 66.81603248 60.224537764 
78.964610244 66.906118733 61.405251763 80.299423519 67.021144998 62.337570685 81.788863205 67.1740038 63.025382947 
83.371427564 67.280587318 63.50414152 85.014550649 67.278624395 63.719126144 86.656056158 67.234205058 63.745627814 
88.267311957 67.181497069 63.624377493 89.81424376 67.192784631 63.252377052 91.297046624 67.248252802 62.699333398 
92.717756345 67.308514498 62.022949403 94.043221235 67.372873763 61.149758492 95.28480745 67.405442887 60.15441689 
96.505741609 67.452957121 58.96254627 97.597929161 67.787367179 57.099703138 97.512645137 67.318294588 55.093676348 
97.089673855 66.992209272 53.520406129 96.522870586 66.711644826 52.101546479 95.855943586 66.462921243 50.738915184 
95.106577456 66.257922193 49.438555522 94.27731293 66.098206851 48.197676584 93.376835437 65.968472583 47.011593387 
92.276058001 65.903225809 45.99349026 91.058029994 65.886351163 45.101157836 89.725342389 65.925668953 44.360804726 
88.294103062 66.015951659 43.770945973 86.74854785 66.175790701 43.406507992 85.145536447 66.36343167 43.272796003 
83.421856813 66.508983667 43.206299504 81.774299431 66.429529909 43.502797961 80.159727312 66.257237329 43.8879456 
78.746305353 66.08177523 44.285866037 77.467798401 66.010564012 45.004260125 81.515993739 85.844428145 37.70624468 
79.920270411 85.805918985 37.672731253 83.088052212 85.861916271 37.884098556 84.62812864 85.857598473 38.195814745 
86.139215284 85.85563672 38.603221693 87.6365168 85.877201766 39.067792176 89.104144648 85.921661132 39.604848736 
90.537381907 85.997525546 40.227489592 91.880918596 86.109424609 41.010012136 93.233684154 86.252055856 41.786757038 
94.572393805 86.449171831 42.585506185 95.808105064 86.653463785 43.573102996 96.980619549 86.867373584 44.684480931 
97.947674292 86.964263695 45.997173035 98.685829264 86.939260494 47.501790326 99.358246628 86.91008728 49.145472243 
99.848509844 87.153771838 50.831659979 100.03160497 87.334635527 52.482999138 99.859767408 87.420576522 54.138265533 
99.384707381 87.427246761 55.661169324 98.660587043 87.393056686 57.069536908 97.822425397 87.32636264 58.373216601 
96.862067167 87.006307422 59.491401258 95.948393216 86.406182044 60.687286244 93.11303403 87.390516799 63.515926839 
93.826919626 87.608292224 62.683732191 92.013163231 87.225945116 64.460617783 90.742442008 87.209621406 65.450245821 
89.301253025 87.304213837 66.25728391 87.753992846 87.42285629 66.935545804 86.146969313 87.478362709 67.422712858 
84.418780719 87.453601974 67.815019241 82.302858015 87.206428858 68.152408453 80.278666102 87.531278757 67.442062104 
78.852450645 87.473600776 66.471423183 77.587739484 87.370664964 65.461877688 76.410344963 87.210318312 64.358843837 
75.240614702 87.091067854 63.266879341 74.146894236 86.937023137 62.108912281 73.022947388 86.827531801 60.980192024 
72.046850611 86.666937886 59.734504362 71.21146411 86.482946922 58.387644753 70.557716602 86.300190625 56.92526383 
69.955919581 86.174818498 55.424600876 69.246458027 86.152728128 53.957015258 68.600099355 86.164402559 52.444615072 
68.015835773 86.210897837 50.933853766 67.889808732 86.190874927 49.213630402 68.176262582 86.146985755 47.591614085 
68.787018707 86.076025353 46.035998503 69.508013155 86.03161325 44.546145451 70.445350322 85.980046462 43.216799746 
71.433442515 85.958032348 41.921446731 72.526217166 85.932382899 40.719216251 73.803246213 85.86248424 39.682942288 
75.16979675 85.791867846 38.778837908 76.721056567 85.715295783 38.176715941 78.314758651 85.764435549 37.736559959 
94.495517972 86.755767535 62.288546761 95.257097105 85.487468809 61.88795745 74.250054459 68.23276426 52.947425432 
73.88058536 68.461357559 51.313574624 74.653224425 68.160835668 54.546813104 75.15677853 68.139734641 56.098016228 
75.826813426 68.163231093 57.580886347 76.6092314 68.207005103 59.017580022 77.488141337 68.251111371 60.4206575 
78.603320487 68.325333558 61.680803625 79.911991293 68.447141833 62.701200782 81.432075204 68.629463255 63.484817789 
83.167072634 68.793356328 64.140764279 84.999372392 68.687031905 64.431579947 86.706131314 68.585792718 64.470682963 
88.39245531 68.493441685 64.350597941 90.005583579 68.466525999 64.011583373 91.548132993 68.499654263 63.457136774 
93.027306131 68.53309537 62.776949386 94.430682051 68.57678445 61.929777671 95.740428094 68.645091455 60.934423351 
96.987276579 68.791485719 59.877310734 98.033375707 69.356070496 58.4907846 97.465211776 68.412070258 53.016867171 
97.966471469 68.798882693 54.439062683 96.84844123 68.104138055 51.636998052 96.142551061 67.853681428 50.323411205 
95.351155271 67.656203769 49.072621536 94.509204683 67.499055217 47.859551035 93.59192908 67.377890908 46.698468697 
92.530132263 67.311928665 45.649306924 91.330923322 67.309205721 44.733843093 90.009638465 67.365507352 43.95809402 
88.579518325 67.4749349 43.333706613 87.06112104 67.631491059 42.87989216 85.39436827 67.870097999 42.566077341 
83.338434179 68.244476837 42.184679214 81.33780429 67.808354084 42.635790752 79.669992607 67.330103812 42.951958227 
78.21628546 67.048388056 43.45165452 76.939725712 66.92856516 44.197140545 75.914631262 67.144184435 45.261244242 
74.993246752 67.326374243 46.425356185 98.413044475 69.38652702 55.934948984 98.815274455 70.341108016 57.251206012 
93.650170104 86.07885945 63.428166407 94.360468674 84.58307051 63.089155897 92.552414414 85.649984321 64.713288003 
91.215823886 85.700592579 65.986291684 89.779187797 85.863777348 67.004243017 88.235167042 86.106051692 67.842170432 
86.633567717 86.255881891 68.395788938 85.03774367 86.264017453 68.834365777 83.497606519 85.949610879 69.307139486 
78.235930518 86.293254561 67.23207131 79.544509675 86.283835958 68.179435676 76.965530114 86.19986943 66.225497741 
75.743470213 86.087639121 65.167858501 74.685641004 85.819999627 63.960384519 73.634946211 85.602570518 62.736821162 
72.583652478 85.429810296 61.509250168 71.667716145 85.21539565 60.168777103 70.921636346 84.977157253 58.742892487 
70.455171929 84.749398511 57.14445741 69.915425468 84.632365487 55.558856831 69.210269299 84.592157097 54.037081776 
68.461301176 84.576355358 52.530750494 67.694045646 84.564347339 51.056783112 67.540696055 84.541658324 49.255538028 
67.802157492 84.518942829 47.5778403 68.440391483 84.506807845 45.981853901 69.164594187 84.481752991 44.45893977 
70.035658801 84.457570094 43.048410234 71.043097469 84.435467536 41.729379672 72.146383574 84.396185644 40.490774343 
73.449605446 84.290417541 39.411014867 74.838678525 84.172961517 38.445756819 76.536976714 84.019021921 37.797257495 
78.312895785 84.148416077 37.394645252 79.958061323 84.247621969 37.377733983 81.589515827 84.315651828 37.482495933 
83.175625996 84.341088719 37.732684965 84.721873204 84.337462241 38.083030397 86.23490258 84.323425711 38.541992256 
87.747055634 84.333212357 39.026028346 89.241310359 84.36760221 39.557447841 90.711304216 84.432299696 40.18038788 
92.181866871 84.565922777 40.814535025 93.624044582 84.752357213 41.516709144 95.046019019 85.006210682 42.253576822 
96.386197698 85.261260131 43.191480007 97.648296235 85.518969914 44.261159208 98.655266234 85.631790172 45.561324188 
99.50427343 85.561655523 47.102556441 100.38232508 85.194613549 48.972765671 100.74275098 85.745085388 50.950236902 
100.70417646 85.935787956 52.704009177 100.5243592 86.038926935 54.347517116 100.06947971 86.077848107 55.881679372 
99.297966259 86.058004537 57.262657125 98.494119892 86.056521721 58.502155468 97.54810832 85.795748057 59.411299041 
96.812519679 85.127246227 60.330109573 96.101253214 84.219878538 61.292428803 95.215658435 83.20596096 62.304135156 
93.05308467 83.543861109 64.664652549 94.261953981 82.047953385 63.375333046 81.004987503 85.934784403 69.059924223 
82.236280418 85.057511557 69.754165361 98.964660534 70.662662792 55.004631411 99.441744759 71.392545605 56.218149066 
98.531233033 70.109678147 53.670350214 97.935914431 69.74962189 52.366212152 97.291961929 69.416250147 51.064914969 
96.554745801 69.16400904 49.803445697 95.744311984 68.97313668 48.59919195 94.838399525 68.847311301 47.448691114 
93.894425148 68.744354376 46.320394568 92.84401309 68.697148471 45.275066732 91.649066309 68.724207635 44.365437631 
90.385366275 68.773444441 43.502342896 88.98611052 68.888900689 42.815653142 87.506761804 69.013591564 42.236413855 
86.025460422 69.17363413 41.693335339 84.531202617 69.452345723 41.042396478 78.965301536 67.981486975 41.779871062 
80.502321398 68.60947661 41.345649156 77.476640914 67.507952375 42.318979036 76.179566558 67.546560833 43.169611518 
75.143081207 67.896904367 44.291611352 74.276881831 68.226102227 45.496507802 73.865522002 69.602283976 53.244027425 
73.468017844 69.718285095 51.790743549 74.301783895 69.573685833 54.737571015 74.81139907 69.583528902 56.25136618 
75.487036817 69.625231138 57.704766736 76.321119596 69.675094789 59.099449835 77.254756797 69.720656081 60.457447418 
78.283771509 69.78293074 61.733309181 79.503541496 69.912599889 62.896531973 80.944947154 70.156040299 63.89536731 
82.872066308 70.569362146 65.001302024 85.102010086 70.130768171 65.271879268 86.922281177 69.928449784 65.281271842 
88.614107307 69.807516698 65.144955162 90.249158735 69.7724744 64.782678449 91.821442557 69.798965331 64.219613369 
93.322978128 69.830425952 63.521139954 94.764608196 69.868885095 62.703781922 96.047924227 69.957458445 61.718553422 
97.239549654 70.171912424 60.637066714 98.301204876 70.696282237 59.456591199 99.044237791 71.459718737 58.302618732 
99.757398248 72.327015546 57.293532513 100.20891115 72.252392518 55.331734231 100.47469628 73.136082358 56.339771581 
99.798990495 71.666164864 54.135453732 73.425088974 68.979560721 49.971576806 73.108527926 69.950738121 50.541017185 
72.90531685 69.587461711 49.046962174 72.7473162 70.079749643 49.737471209 82.072429481 69.104862292 40.783329564 
83.326558174 69.966814466 40.11231901 91.431353081 83.917911664 66.402248272 89.974871456 84.271684854 67.61000376 
88.53443908 84.635421631 68.573039375 87.0230716 84.943133377 69.189107432 85.505898346 85.033701848 69.591977448 
84.224598047 84.808674742 69.836992749 83.212013645 84.067552564 70.241680841 81.250589458 83.983073284 70.084540867 
82.299937869 83.07542044 70.439381534 80.058616649 84.767424443 69.612062026 78.818661949 85.087865591 68.834782155 
77.544899918 85.154187192 68.001655177 76.334133224 85.000523203 66.989892111 75.117226847 84.839325496 65.920000989 
74.095343847 84.543637904 64.685145257 73.080685918 84.279242523 63.410794218 72.063004495 84.052830923 62.118593378 
71.315540142 83.717551738 60.617688746 70.740473137 83.394634551 59.047094979 70.342123616 83.133181741 57.375708622 
69.914404016 83.043259026 55.688358036 69.244700954 83.010004857 54.09455393 68.503002475 82.980483723 52.541328955 
67.712866401 82.947100205 51.058958435 67.513703251 82.929428249 49.277193857 67.613282303 82.913827278 47.56784833 
68.199195891 82.902484172 45.934393423 68.867961719 82.895956062 44.380600108 69.671420167 82.900401649 42.918217572 
70.602912541 82.905133599 41.531375541 71.684501231 82.868397893 40.253810771 72.948464045 82.731310369 39.146751066 
74.374614994 82.514986217 38.075876368 76.338082206 81.979941997 37.0687633 78.478539559 82.472109983 36.90036939 
80.170025933 82.736798371 36.88937412 81.772988985 82.832267855 37.089548008 83.339758458 82.853513373 37.41988745 
84.874001936 82.83437709 37.826524616 86.401503419 82.811235472 38.265904221 87.92267997 82.801217206 38.761941266 
89.455258299 82.821793448 39.291418584 90.989748952 82.874221447 39.885626043 92.563674316 83.027326926 40.42362873 
94.096978197 83.2769652 41.071373723 95.588760449 83.576211104 41.802211273 96.985135646 83.855312449 42.734484228 
98.318311807 84.15324856 43.792483565 99.227317481 84.225165728 45.149233226 100.07633345 84.196764992 46.521587941 
100.71641807 83.794490504 47.804300436 101.34874761 84.527748614 53.015148211 101.52016628 84.310454872 51.459763476 
101.052634 84.564459123 54.618226506 100.55633734 84.577128602 56.155174659 99.729256986 84.653087543 57.56908887 
98.865946376 84.812778516 58.703286491 98.063345407 84.929886494 59.377176649 97.67322265 84.131037865 59.89243754 
97.024444608 83.112346585 60.583661296 96.190600807 82.007137836 61.431405084 95.259836264 80.858586355 62.30306188 
93.45012372 80.589805567 64.261807366 94.373659516 79.602925112 63.127287884 92.425475018 81.546568604 65.552800424 
91.207657416 82.106197538 67.010606661 89.895715478 82.532777092 68.159459919 88.465727422 83.001627596 69.082271111 
87.028332636 83.467183907 69.726890958 85.669044846 83.791359574 70.077239225 97.313973098 80.933569769 60.620110145 
98.269002716 82.172955564 59.852047453 96.338597833 79.770175889 61.434277667 95.390339739 78.555492578 62.199946191 
93.544464147 78.262076335 63.766855737 94.430059014 77.284615317 62.772772145 92.709919434 79.120986513 64.952522612 
91.851548389 79.858053323 66.242976485 90.776212374 80.382771208 67.535342892 89.626597192 80.797168269 68.781611982 
88.135020772 81.383630427 69.590142623 86.726908764 81.987393854 70.187229844 85.292637751 82.580532613 70.399021217 
101.41302186 83.697338123 49.913703495 101.36630121 82.78278695 48.635042997 99.34092008 71.156469251 52.868874508 
98.697637794 70.833147733 51.605107268 97.98312897 70.543347781 50.361862409 97.181174945 70.317472344 49.164443613 
96.289126782 70.172536545 48.027124514 95.345189132 70.078709618 46.916932463 94.321475833 70.043926866 45.855344729 
93.24979752 70.037504583 44.827778987 92.093897481 70.066040997 43.854272068 90.850681164 70.135095571 42.950704451 
89.482977216 70.252591134 42.19289279 88.055431956 70.347138741 41.541179635 86.658637833 70.444034072 40.909233493 
85.360942112 70.570430986 40.254382334 84.306740577 70.868292113 39.521539017 82.421130633 70.589504671 39.062793208 
83.559442123 71.507954747 38.683805205 81.147887448 69.71146977 39.524867534 79.728453876 68.995340284 39.963994178 
78.183634005 68.592211796 40.559454398 76.638205411 68.211426957 41.220519389 75.365685638 68.37258788 42.178100279 
74.262009514 68.707629509 43.316103123 73.377129108 69.076470667 44.602533131 73.574221204 68.514296704 46.761334136 
72.696171937 69.3963721 45.97277001 73.198982342 69.027413082 48.013487426 72.308370976 69.827549367 47.299277303 
72.158182272 70.326174295 48.520056005 72.171620922 70.724559933 49.632138995 72.537276996 70.894046737 50.738147306 
73.00774125 70.937040452 52.025312016 73.436314265 70.940168639 53.418728772 73.925113772 70.972481186 54.874497022 
74.475431181 71.027055638 56.339845576 75.140836669 71.091589187 57.783561912 75.98530215 71.14019557 59.149968779 
76.900687348 71.156757799 60.501289597 77.857543765 71.195457469 61.82864988 78.872453791 71.279046249 63.092705581 
80.055279334 71.538029957 64.235741324 81.31574466 71.939265794 65.434725496 87.237590783 71.288099664 66.051388617 
85.584278566 71.496326691 66.161520702 88.904524949 71.20802355 65.82689347 90.497868966 71.22742085 65.378926499 
92.034464948 71.241847895 64.778448009 93.512562035 71.271873702 64.043395595 94.937883129 71.329240055 63.227670931 
96.129360588 71.385580378 62.220062354 97.225273727 71.578130526 61.187589253 98.150740343 72.095016989 60.132921064 
98.896181058 72.796882215 59.049748901 99.770710885 73.545663094 58.131430126 100.57901877 74.275963599 57.162475103 
101.20907778 73.786802126 55.511794894 101.30882505 74.864568577 56.124016079 100.95843899 73.149231455 54.522793366 
100.67766355 72.605157513 53.351091793 83.875495512 71.941000738 66.254041715 82.35877299 72.692469826 66.61498081 
83.401147416 82.148859589 70.691302645 84.13035887 83.181037641 70.422766243 81.395028819 82.015423204 70.568116164 
82.48219165 81.018588219 70.710629069 80.402585081 82.932596465 70.27443536 79.465633779 83.594102203 69.755433936 
78.340450471 83.81199764 69.245612113 76.991163995 83.890885638 68.668402866 75.83110257 83.706027962 67.714935022 
74.611350885 83.504625237 66.653626283 73.596036084 83.195151286 65.401582615 72.579685144 82.910239881 64.094558085 
71.661347267 82.590916045 62.689426174 70.965651878 82.196105029 61.085026279 70.577821648 81.775046081 59.419840599 
70.374726496 81.430163333 57.590425881 69.993118713 81.423240262 55.734569237 69.335931351 81.426606516 54.113381142 
68.562570544 81.384617512 52.545440366 67.750065244 81.318572399 51.056225076 67.628025405 81.292124715 49.265133096 
67.595998814 81.273577896 47.509831749 68.091300309 81.264670601 45.899207187 68.589744478 81.290493388 44.292731728 
69.314992243 81.31169168 42.805504489 70.149978994 81.350012637 41.366664084 71.146894762 81.350228405 40.055666051 
72.306236583 81.250004289 38.851389063 73.517482823 80.990459711 37.739065272 74.957641308 80.359477258 36.81921744 
80.550832802 81.238091229 36.447510712 79.002542125 80.938579254 36.329676515 82.038058526 81.354134938 36.769709305 
83.549554883 81.381276277 37.112390254 85.047845716 81.340796682 37.527679265 86.54358707 81.275949514 38.008427955 
88.074884879 81.249424501 38.494953119 89.654113178 81.262101179 38.97079209 91.245117165 81.328505045 39.448553252 
92.954141213 81.463830399 39.943497566 94.637721847 81.793004778 40.596756999 96.118994706 82.093809196 41.41399387 
97.520233679 82.353746678 42.424397361 98.795212096 82.61873163 43.495907115 99.713162142 82.787670293 44.89050498 
100.46273808 82.920629177 46.153762298 100.81681454 82.916276207 47.154088292 101.21546147 82.014771081 47.521562563 
101.9320825 81.55505933 49.350171018 101.62292686 80.733663315 48.064243471 102.04166088 82.396846216 50.605473719 
102.02900229 83.01052837 51.895407082 101.86354072 83.122503944 53.275866863 101.53146476 83.121554404 54.812549411 
100.85288767 83.056273489 56.39701654 99.856735148 83.119866063 57.953115728 98.761459055 83.559149913 59.217997314 
77.49578858 80.284141607 36.139399512 76.183601358 79.234634416 36.110659827 84.634272954 81.319002517 70.622614013 
83.727959005 80.094436351 70.751758358 81.397346373 79.949273818 70.685377999 82.624599166 78.952230717 70.647955768 
80.368428927 81.062892985 70.597474719 79.548208772 82.051839558 70.278258912 79.015499951 82.787885784 69.97563265 
78.081531836 82.670095512 69.736127727 76.810966194 82.491998925 69.225258128 75.686767452 82.219108085 68.282419762 
74.497355017 81.920421334 67.224616262 73.449346089 81.621598888 65.978600871 72.41748565 81.325450891 64.637827231 
71.660612408 80.998840759 63.135511407 71.016461328 80.56783549 61.557038654 70.665654583 80.068358016 59.858168366 
70.503407289 79.368346076 57.777870302 70.065923521 79.775418132 55.685636386 69.524882674 79.873492202 53.983137004 
68.706667938 79.810480766 52.46093168 67.877027439 79.674740955 50.914192614 67.655468673 79.634158621 49.220393264 
67.599361145 79.619154329 47.487214506 67.958176713 79.611576786 45.857248795 68.394929243 79.634790961 44.24631894 
68.980549315 79.682816048 42.711837105 69.723597616 79.764519947 41.244692597 70.600492424 79.828596509 39.887950541 
71.640894799 79.764542572 38.646394039 72.723774164 79.489902966 37.525647396 74.028622794 78.846300883 36.668177672 
75.197468991 78.028446499 36.119497136 77.239847617 78.042536383 35.704597491 76.210827857 77.051284659 35.791882194 
78.354144295 78.938201017 35.845278367 79.618038002 79.507819797 36.025283542 80.969942834 79.797491267 36.220519715 
82.340091543 79.880852718 36.579563632 83.743926071 79.915454123 36.915450745 85.154394464 79.827565914 37.361215599 
86.611599453 79.713791747 37.829970087 88.132024086 79.667397054 38.298848483 89.67246168 79.635499576 38.801985888 
91.29651187 79.626787079 39.315041335 93.230641181 79.462149016 39.801159411 95.124544432 80.141954239 40.487930046 
96.600655415 80.486172305 41.376389297 97.92936256 80.747946279 42.453558675 99.200816388 80.992664704 43.589887798 
100.10011369 81.283008804 44.934020039 100.85019348 81.623578989 46.280707839 101.06228716 80.179245229 46.716416112 
101.95738638 79.34202242 48.728317323 101.23935067 78.688062449 47.319268554 102.36960363 80.206736936 50.19241206 
102.55049612 81.292446131 51.34046954 102.29410166 82.009563099 52.177163721 102.21294154 81.77429203 53.265122694 
101.92811062 81.590362184 54.800133687 101.14334521 81.399292958 56.425878027 99.754806343 81.162422378 58.42475872 
100.21253564 72.166751354 52.078958199 99.569922398 71.82745751 50.819316116 98.767862834 71.582602099 49.613554442 
97.915955164 71.35551368 48.456152527 96.964952025 71.235597551 47.363984743 96.000204174 71.174001112 46.276120689 
94.943065716 71.202700386 45.245559941 93.841275064 71.243767141 44.226015757 92.678290247 71.305489775 43.219199546 
91.390907245 71.466412852 42.330076487 90.013129437 71.627586953 41.523040445 88.567363396 71.712428321 40.829917431 
87.152933987 71.737747933 40.205729622 85.885767594 71.689845902 39.624162505 84.954645745 71.631857851 39.209879057 
84.648651018 72.324576779 38.521479585 82.811606698 72.299160264 37.783611966 84.057687537 73.353734559 37.674562813 
81.595909117 71.322429163 38.083857469 80.282678289 70.519746196 38.50146696 78.891477824 69.795528493 38.824180692 
77.355202151 69.380041665 39.379508318 75.815289362 69.120497253 40.157469292 74.500896987 69.232703818 41.164809107 
73.318560787 69.527673506 42.34532682 72.232205185 69.905753715 43.671794498 71.591881351 70.292606845 45.220724314 
71.262715876 70.704249433 46.780771996 71.229756108 71.192302572 48.163315438 71.400941985 71.59771821 49.501954834 
71.823673007 71.920672617 50.771886362 72.331800423 72.100125633 52.119655654 72.839979538 72.222468954 53.53186735 
73.351036585 72.313143572 54.996558083 73.843419485 72.389753111 56.49755646 74.452697444 72.454090834 57.987844016 
75.263775219 72.470993348 59.392074078 76.145891477 72.474150342 60.772487681 77.038702798 72.461340793 62.13618933 
77.963357661 72.471416652 63.47496494 78.996057677 72.624880753 64.716076526 80.030618985 72.956410285 65.944233942 
81.035845299 73.485111235 67.113410213 83.263924791 73.568850877 67.660369798 81.971452774 74.255650504 68.137013875 
84.617627358 73.030898434 67.233401331 86.100629421 72.791182766 66.944717741 87.623152028 72.697508514 66.682820931 
89.17989743 72.704683155 66.301438514 90.66442967 72.777338974 65.660372524 92.111156034 72.795874116 64.95999724 
93.486723993 72.839402918 64.167095358 94.81577649 72.966772632 63.285406299 96.015649399 72.879023163 62.305452462 
96.979791045 72.916724433 61.427523175 97.80436408 73.413589601 60.548944415 98.631494429 74.104966219 59.665694826 
99.522678661 74.861978339 58.769417326 100.43922099 75.603662913 57.801853545 101.23914968 76.215784834 56.601063869 
101.99844185 75.20767536 55.098942074 102.01779473 76.568567922 55.328174636 101.71908122 74.28605897 54.853714163 
101.67684663 73.998966441 53.946044799 101.584383 73.562559491 52.728784237 78.444707665 81.481072584 70.040768878 
77.038708293 81.060595923 69.670640932 75.933781585 80.66147743 68.662355634 74.770073527 80.34067277 67.573293236 
73.702610853 80.035814476 66.328486312 72.620036842 79.719580331 65.039211324 71.867077944 79.400044329 63.588372865 
71.210246669 78.997956715 62.052228243 71.022823997 78.462444521 60.537287916 71.018624643 77.672820884 59.029521981 
69.763829073 78.402252358 53.767710303 70.266331014 78.286980467 55.29037569 68.976655679 78.296859072 52.341832383 
68.326674723 78.161232834 50.805735822 67.91694434 78.05368118 49.182992571 67.662411622 77.975218439 47.470407834 
68.003027879 77.949044871 45.859041352 68.380880679 77.959600328 44.253635413 68.82958834 78.017219666 42.691192327 
69.423432833 78.127359036 41.176706241 70.250474567 78.261583578 39.856425389 71.192371425 78.242549543 38.616643679 
72.272713267 77.914447532 37.612338918 73.391509642 77.451391243 36.744656749 74.51202589 76.811543548 36.386155976 
75.474448619 75.983037203 36.155634626 77.201907317 76.023509933 35.78516917 76.361947926 75.035018907 36.037252434 
78.121265016 76.962123421 35.804636439 79.094369618 77.751996051 35.882601036 80.107168261 78.315361817 35.906908091 
81.264288485 78.460756863 36.119950328 82.587189018 78.432020932 36.438955735 83.873407499 78.533828376 36.772206181 
85.13458836 78.35428901 37.199710655 86.534081761 78.149505951 37.705832983 88.002403789 78.04060206 38.368464863 
89.502169238 78.030441201 38.972389795 90.986913269 78.012125481 39.423140721 92.345578865 77.814052501 39.840501334 
96.875453989 78.966330783 41.701152621 95.539476243 78.691405841 40.90205211 98.139528674 79.15595967 42.769516463 
99.382337093 79.35987722 43.944226134 100.30330032 79.730550382 45.31981507 70.704250307 77.856802975 56.701434808 
71.251011519 76.722761978 57.669246494 100.38601789 78.163869962 45.863887213 101.37096759 77.174120124 47.964387313 
100.502759 76.582735383 46.475904887 102.10712539 77.807110917 49.557525592 102.75580391 78.658996711 51.536708629 
102.57669964 80.45787433 52.685879713 101.08035599 73.251778123 51.351112991 100.40871616 72.888882508 50.030169078 
99.517984107 72.655767282 48.859033495 98.607867404 72.414384925 47.734652283 97.643820369 72.268711383 46.706003692 
96.702665528 72.241099806 45.639372847 95.658431141 72.303422806 44.615544985 94.530832837 72.39643982 43.606661882 
93.322405474 72.544241268 42.622888864 92.027926698 72.797022168 41.726023207 90.549047362 73.086074476 40.866830812 
88.971004235 73.171720561 40.157009785 87.440935796 73.084018908 39.434067831 85.943334287 72.873513943 38.832145885 
85.640186918 74.587446882 37.93312365 83.015702412 74.37813155 37.052331525 84.085720717 75.635226377 37.079725481 
81.931894144 73.225907394 37.024978795 80.746103624 72.16610686 37.191983796 79.480427741 71.385519179 37.567512707 
78.11167218 70.756735341 37.879140244 76.584537287 70.434333885 38.373233876 75.002480042 70.151767559 39.109506251 
73.685111694 70.23101649 40.121308304 72.412493902 70.511796505 41.285293295 70.953221235 71.212004463 42.58432819 
70.432840589 71.473894466 44.646843608 70.213579882 71.804138404 46.390181448 70.214951839 72.183558747 47.925595992 
70.43847708 72.560445725 49.401706192 70.91874875 72.907965392 50.805811674 71.481421688 73.169874407 52.204439689 
72.083437243 73.396530183 53.608281024 72.562172477 73.527623602 55.113664808 72.978153 73.636009038 56.636341258 
73.53646572 73.758461636 58.246633589 74.374351377 73.657509714 59.75910637 75.204295087 73.573663821 61.162121161 
76.007483594 73.47247263 62.576685762 76.885279503 73.477046917 63.937021252 77.827848019 73.580406622 65.239186509 
78.815566781 73.852684946 66.462259099 79.79921846 74.339678009 67.617455014 80.744635309 75.059160158 68.597236373 
82.911129977 75.163414998 68.97124074 81.663005331 75.945457207 69.467102219 84.130928618 74.46704334 68.515623435 
85.249112387 74.017870598 68.018220092 86.486797891 73.915139904 67.767770788 87.908644472 74.069926396 67.319961299 
89.40485926 74.233794239 66.715821568 90.81878814 74.354928468 65.879690108 92.131471865 74.280333767 64.961190978 
93.313402729 74.279125655 64.076981498 94.644924208 74.77557418 63.017905007 95.989840556 74.246638876 62.10518537 
96.792493848 73.904036604 61.522699483 97.327282737 74.543480916 60.953743058 98.192307435 75.337435206 60.291085641 
99.090325251 76.183666209 59.398531992 99.992736667 76.975712425 58.334725896 100.95610257 77.674064448 57.083184484 
101.8186939 78.1001444 55.628420135 102.49087206 76.670107761 53.704800772 102.5006641 78.388968646 53.876273097 
102.22183778 75.163564867 53.735594793 98.530390306 79.791112622 59.809942852 97.407835512 78.627786583 60.689769383 
96.396265017 77.490218926 61.447984815 95.492019362 76.265365583 62.183208613 93.689206105 76.136768598 63.502064022 
92.728035956 76.958363261 64.259292979 91.866689888 77.66681457 65.444510143 91.121743597 78.406937215 66.601320189 
90.200027379 78.750284355 67.833620476 88.967003922 79.031370295 69.171769263 87.466952068 79.784874063 70.021180487 
86.015539633 80.563723338 70.486304307 85.03252819 79.219392339 70.547356917 83.937110849 78.026949746 70.461883698 
81.461632695 77.888904446 70.409452876 82.754360322 76.955512397 70.081838731 80.13920773 78.924093573 70.494241208 
79.152438866 80.238330046 70.347376173 101.07638673 74.186945488 49.287054047 101.77089435 74.530202811 50.705294326 
100.08848966 73.882429703 48.121731179 99.13454113 73.541168175 47.03413982 98.215092017 73.294149003 46.137745154 
97.399052422 73.341930883 45.125640879 96.391786601 73.4678165 44.111143948 95.257225528 73.583041443 43.103033358 
94.069401037 73.79301675 42.149017454 92.776985725 74.160061183 41.213286237 91.230189143 74.883554083 40.255543075 
89.272001795 74.749027325 39.507730147 87.612766449 74.686055109 38.748272212 82.729630511 76.791872849 36.622391535 
83.839089384 77.416522705 36.841991861 84.848945783 76.962403699 37.238495725 81.880902353 75.358213852 36.547425714 
80.943115206 74.1973009 36.48884001 79.884046015 73.178728897 36.62854665 78.758977776 72.337757872 36.83978233 
77.524027525 71.795783106 37.122356686 75.908040172 71.963435073 37.385537522 74.311760061 71.45964534 38.264059333 
73.106600625 71.438419986 39.266988974 71.923867492 71.651022604 40.19981048 70.954271593 72.270924353 41.036464875 
69.275986522 73.192181231 46.146280362 69.471756385 73.033655682 44.459238272 69.250282122 73.420054341 47.738176409 
69.502477619 73.689286576 49.347162533 70.017885496 74.002095382 50.819266533 70.599412613 74.259610692 52.265910935 
71.271844474 74.537664446 53.650952822 71.756029754 74.727133311 55.101522399 72.093824087 74.925094911 56.651188584 
72.328044084 75.248716986 58.576310486 74.221557315 74.57196242 61.662863574 73.399459192 74.762552624 60.248333849 
74.990230311 74.474221776 63.051981852 75.835393165 74.511749681 64.403557411 76.686340626 74.570254805 65.736722158 
77.690158691 74.859966224 66.935715857 78.657563671 75.21770577 68.106403563 79.584024582 75.914283617 68.973987418 
80.329447771 76.833945095 69.819187752 69.740677258 73.04959994 42.768600569 70.174690614 73.485882625 41.271611059 
94.322730446 78.130985869 40.278073909 93.416902735 77.112180337 40.266484266 102.38113673 80.078919824 54.390239745 
101.51468535 79.723658013 56.041894324 100.47305414 79.278418915 57.651425122 99.358967319 78.386646074 58.973058499 
98.355136361 77.442453882 60.010842995 97.368609003 76.43232394 60.825706609 96.590264503 75.39171725 61.582160263 
77.750529496 79.540341868 69.949025207 76.367152772 79.083781224 68.964209932 75.17513199 78.747195253 67.85633508 
74.125769207 78.470878584 66.569959442 73.153160842 78.201295233 65.269419759 72.400007087 77.957023081 63.858459217 
71.791253904 77.606059996 62.48357661 71.627336911 77.236652365 61.1285488 71.763888605 76.427884983 59.932973465 
71.319271512 76.117721276 56.347812215 70.83972938 77.006309162 56.017572335 70.53279878 77.059337042 54.992762127 
70.048064529 77.01350233 53.655263467 69.285044548 76.831021865 52.31160617 68.588954502 76.613750244 50.828303818 
68.150273982 76.445371026 49.237911647 67.884222748 76.293629124 47.513045514 68.204341553 76.276151441 45.899969461 
68.545728932 76.272298728 44.296500312 68.965790669 76.369217724 42.7456038 69.498959042 76.511078307 41.273685768 
70.265388132 76.68089531 40.012406846 71.113480227 76.663867573 38.832400397 72.10283708 76.51559934 37.909932139 
73.02888344 76.198487093 37.092953616 74.01208408 75.805634052 36.67191327 74.797686105 75.049567694 36.524649701 
75.596284268 74.123642682 36.496592642 78.097024639 75.070621317 35.989054605 77.28006607 74.104114723 36.067296014 
78.958990185 76.010545309 35.983867853 79.788011326 76.824022861 35.999332077 80.397958802 77.451656733 36.013638837 
81.29108477 77.22506542 36.232130446 86.432776112 78.215891122 70.175578224 85.138610266 77.069799051 69.97016749 
83.982753385 76.05682602 69.676820821 84.971846267 75.359521662 69.028560389 85.616631302 74.795317008 68.517076746 
86.629529273 75.005854249 68.508082239 88.077499238 75.438906083 68.104759065 89.579326225 75.747835264 67.230416667 
90.977527659 76.128321126 65.975209049 92.171247157 75.691734932 64.761654097 93.033570326 75.374119839 64.093113032 
86.25823692 76.523271283 37.775539403 87.825879652 76.411949141 38.478602318 89.354392976 76.435896053 39.168763921 
90.828919074 76.533847834 39.65394938 91.911350423 76.786856035 39.955843321 92.6161317 76.010287468 40.331638404 
94.430052353 76.45717626 40.733149856 93.692374525 75.360127493 40.914690991 94.826031435 77.350906235 40.77017194 
95.693854293 77.44708726 41.318020462 96.872768156 77.521037189 42.099335162 98.074504665 77.606216862 43.151891548 
99.33567019 77.756775646 44.463220401 99.15457049 75.883741103 45.007144712 100.42376758 75.161102266 47.342349362 
99.421556113 74.690273177 46.288480184 101.36810577 75.645880071 48.639750656 102.08743098 76.115323181 50.143981248 
90.585693869 77.25407318 66.812999871 89.712891188 77.203301905 67.798756264 87.947659631 77.155248933 69.035993102 
78.737153899 77.844742256 69.865721201 71.052740397 75.908226421 55.019967384 70.553582779 75.732775425 53.651530573 
69.841794005 75.476611232 52.302878805 69.181809779 75.212214628 50.852316524 68.670290352 74.966787763 49.318310588 
68.398173596 74.747748363 47.617154985 68.584894658 74.683407263 45.980261499 68.872685661 74.654975706 44.362953988 
69.209591309 74.718494217 42.776385364 69.739581539 74.951044356 41.324396516 70.41293755 75.169467573 40.136836781 
71.152671647 75.256815882 39.027420097 74.097570425 74.306172209 36.904252509 73.653461043 75.062177209 36.888874626 
79.943218466 75.099813576 36.183908766 79.015887024 74.147451309 36.2503323 80.743742242 76.130768973 36.177484466 
77.04146949 77.53157795 68.90950495 75.845818103 77.23836886 67.768659497 74.795861442 76.987836415 66.513208807 
73.873205814 76.768312663 65.227756835 73.15180002 76.6461785 63.814988482 72.556519027 76.498836627 62.562144838 
72.175250683 76.407972744 61.577133133 72.617760112 75.705509686 60.965258549 73.302542677 75.508708312 62.189541504 
74.000235983 75.478849437 63.516912863 74.789150957 75.538922837 64.87543625 75.668209276 75.679635532 66.184077777 
76.666942988 75.92131701 67.412166353 77.676858544 76.228711672 68.493075438 78.629406897 76.601752271 69.237549272 
95.423590569 76.219473125 41.507723393 96.588350731 76.106978667 42.370100419 97.806777375 76.040734198 43.476641844 
78.099790399 73.278738976 36.392117828 77.334980669 72.684320009 36.56331626 76.479902587 73.21121081 36.529073653 
72.640898937 72.670907742 38.657220626 73.649778846 72.750104215 37.763567681 71.69969511 72.720290195 39.484244327 
71.095071699 72.9382952 40.221493276 70.715671947 73.867702713 40.196747199 94.822501245 74.989420504 41.774055818 
98.61808759 74.153023604 45.716300667 98.118540869 74.463152376 44.771291354 97.102501991 74.668070077 43.720098996 
86.147947533 76.038699762 69.309172736 95.988215808 74.802010622 42.689186577 72.299130697 73.934760591 38.368843101 
73.187693927 74.004266836 37.542617109 71.393217045 73.91558466 39.185922404 74.195633446 67.525835694 47.682936984 
73.792237341 68.112696075 48.987736763 84.679269406 83.938041631 70.129841789 102.3191696 74.825611261 52.171210413 
102.67258447 76.509615684 51.809117766 72.95697152 75.114559043 37.40256792 72.10608234 75.200200012 38.162588965 
74.766491818 73.215222601 36.991834773 
POLYGONS 1065 4256
OFFSETS vtktypeint64
0 4 8 12 16 20 24 28 32 
36 40 44 48 52 56 60 64 68 
72 76 80 84 88 92 96 100 104 
108 112 116 120 124 128 132 136 140 
144 148 152 156 160 164 168 172 176 
180 184 188 192 196 200 204 208 212 
216 220 224 228 232 236 240 244 248 
252 256 260 264 268 272 276 280 284 
288 292 296 300 304 308 312 316 320 
324 328 332 336 340 344 348 352 356 
360 364 368 372 376 380 384 388 392 
396 400 404 408 412 416 420 424 428 
432 436 440 444 448 452 456 460 464 
468 472 476 480 484 488 492 496 500 
504 508 512 516 520 524 528 532 536 
540 544 548 552 556 560 564 568 572 
576 580 584 588 592 596 600 604 608 
612 616 620 624 628 632 636 640 644 
648 652 656 660 664 668 672 676 680 
684 688 692 696 700 704 708 712 716 
720 724 728 732 736 740 744 748 752 
756 760 764 768 772 776 780 784 788 
792 796 800 804 808 812 816 820 824 
828 832 836 840 844 848 852 856 860 
864 868 872 876 880 884 888 892 896 
900 904 908 912 916 920 924 928 932 
936 940 944 948 952 956 960 964 968 
972 976 980 984 988 992 996 1000 1004 
1008 1012 1016 1020 1024 1028 1032 1036 1040 
1044 1048 1052 1056 1060 1064 1068 1072 1076 
1080 1084 1088 1092 1096 1100 1104 1108 1112 
1116 1120 1124 1128 1132 1136 1140 1144 1148 
1152 1156 1160 1164 1168 1172 1176 1180 1184 
1188 1192 1196 1200 1204 1208 1212 1216 1220 
1224 1228 1232 1236 1240 1244 1248 1252 1256 
1260 1264 1268 1272 1276 1280 1284 1288 1292 
1296 1300 1304 1308 1312 1316 1320 1324 1328 
1332 1336 1340 1344 1348 1352 1356 1360 1364 
1368 1372 1376 1380 1384 1388 1392 1396 1400 
1404 1408 1412 1416 1420 1424 1428 1432 1436 
1440 1444 1448 1452 1456 1460 1464 1468 1472 
1476 1480 1484 1488 1492 1496 1500 1504 1508 
1512 1516 1520 1524 1528 1532 1536 1540 1544 
1548 1552 1556 1560 1564 1568 1572 1576 1580 
1584 1588 1592 1596 1600 1604 1608 1612 1616 
1620 1624 1628 1632 1636 1640 1644 1648 1652 
1656 1660 1664 1668 1672 1676 1680 1684 1688 
1692 1696 1700 1704 1708 1712 1716 1720 1724 
1728 1732 1736 1740 1744 1748 1752 1756 1760 
1764 1768 1772 1776 1780 1784 1788 1792 1796 
1800 1804 1808 1812 1816 1820 1824 1828 1832 
1836 1840 1844 1848 1852 1856 1860 1864 1868 
1872 1876 1880 1884 1888 1892 1896 1900 1904 
1908 1912 1916 1920 1924 1928 1932 1936 1940 
1944 1948 1952 1956 1960 1964 1968 1972 1976 
1980 1984 1988 1992 1996 2000 2004 2008 2012 
2016 2020 2024 2028 2032 2036 2040 2044 2048 
2052 2056 2060 2064 2068 2072 2076 2080 2084 
2088 2092 2096 2100 2104 2108 2112 2116 2120 
2124 2128 2132 2136 2140 2144 2148 2152 2156 
2160 2164 2168 2172 2176 2180 2184 2188 2192 
2196 2200 2204 2208 2212 2216 2220 2224 2228 
2232 2236 2240 2244 2248 2252 2256 2260 2264 
2268 2272 2276 2280 2284 2288 2292 2296 2300 
2304 2308 2312 2316 2320 2324 2328 2332 2336 
2340 2344 2348 2352 2356 2360 2364 2368 2372 
2376 2380 2384 2388 2392 2396 2400 2404 2408 
2412 2416 2420 2424 2428 2432 2436 2440 2444 
2448 2452 2456 2460 2464 2468 2472 2476 2480 
2484 2488 2492 2496 2500 2504 2508 2512 2516 
2520 2524 2528 2532 2536 2540 2544 2548 2552 
2556 2560 2564 2568 2572 2576 2580 2584 2588 
2592 2596 2600 2604 2608 2612 2616 2620 2624 
2628 2632 2636 2640 2644 2648 2652 2656 2660 
2664 2668 2672 2676 2680 2684 2688 2692 2696 
2700 2704 2708 2712 2716 2720 2724 2728 2732 
2736 2740 2744 2748 2752 2756 2760 2764 2768 
2772 2776 2780 2784 2788 2792 2796 2800 2804 
2808 2812 2816 2820 2824 2828 2832 2836 2840 
2844 2848 2852 2856 2860 2864 2868 2872 2876 
2880 2884 2888 2892 2896 2900 2904 2908 2912 
2916 2920 2924 2928 2932 2936 2940 2944 2948 
2952 2956 2960 2964 2968 2972 2976 2980 2984 
2988 2992 2996 3000 3004 3008 3012 3016 3020 
3024 3028 3032 3036 3040 3044 3048 3052 3056 
3060 3064 3068 3072 3076 3080 3084 3088 3092 
3096 3100 3104 3108 3112 3116 3120 3124 3128 
3132 3136 3140 3144 3148 3152 3156 3160 3164 
3168 3172 3176 3180 3184 3188 3192 3196 3200 
3204 3208 3212 3216 3220 3224 3228 3232 3236 
3240 3244 3248 3252 3256 3260 3264 3268 3272 
3276 3280 3284 3288 3292 3296 3300 3304 3308 
3312 3316 3320 3324 3328 3332 3336 3340 3344 
3348 3352 3356 3360 3364 3368 3372 3376 3380 
3384 3388 3392 3396 3400 3404 3408 3412 3416 
3420 3424 3428 3432 3436 3440 3444 3448 3452 
3456 3460 3464 3468 3472 3476 3480 3484 3488 
3492 3496 3500 3504 3508 3512 3516 3520 3524 
3528 3532 3536 3540 3544 3548 3552 3556 3560 
3564 3568 3572 3576 3580 3584 3588 3592 3596 
3600 3604 3608 3612 3616 3620 3624 3628 3632 
3636 3640 3644 3648 3652 3656 3660 3664 3668 
3672 3676 3680 3684 3688 3692 3696 3700 3704 
3708 3712 3716 3720 3724 3728 3732 3736 3740 
3744 3748 3752 3756 3760 3764 3768 3772 3776 
3780 3784 3788 3792 3796 3800 3804 3808 3812 
3816 3820 3824 3828 3832 3836 3840 3844 3848 
3852 3856 3860 3864 3868 3872 3876 3880 3884 
3888 3892 3896 3900 3904 3908 3912 3916 3920 
3924 3928 3932 3936 3940 3944 3948 3952 3956 
3960 3964 3968 3972 3976 3980 3984 3988 3992 
3996 4000 4004 4008 4012 4016 4020 4024 4028 
4032 4036 4040 4044 4048 4052 4056 4060 4064 
4068 4072 4076 4080 4084 4088 4092 4096 4100 
4104 4108 4112 4116 4120 4124 4128 4132 4136 
4140 4144 4148 4152 4156 4160 4164 4168 4172 
4176 4180 4184 4188 4192 4196 4200 4204 4208 
4212 4216 4220 4224 4228 4232 4236 4240 4244 
4248 4252 4256 
CONNECTIVITY vtktypeint64
0 1 2 3 1 4 5 2 4 
6 7 5 6 8 9 7 8 10 
11 9 10 12 13 11 12 14 15 
13 14 16 17 15 16 18 19 17 
18 20 21 19 20 22 23 21 22 
24 25 23 24 26 27 25 26 28 
29 27 28 30 31 29 30 32 33 
31 32 34 35 33 34 36 37 35 
36 38 39 37 38 40 41 39 40 
42 43 41 42 44 45 43 44 46 
47 45 46 48 49 47 48 50 51 
49 50 52 53 51 52 54 55 53 
54 56 57 55 56 58 59 57 58 
60 61 59 60 62 63 61 62 64 
65 63 64 66 67 65 66 68 69 
67 68 70 71 69 70 72 73 71 
72 74 75 73 74 76 77 75 76 
78 79 77 78 80 81 79 80 82 
83 81 82 0 3 83 84 85 86 
87 85 88 89 86 88 90 91 89 
90 92 93 91 92 94 95 93 94 
96 97 95 96 98 99 97 98 100 
101 99 100 102 103 101 102 104 105 
103 104 106 107 105 106 108 109 107 
108 110 111 109 110 112 113 111 112 
114 115 113 114 116 117 115 116 118 
119 117 118 120 121 119 120 122 123 
121 122 124 125 123 124 126 127 125 
126 128 129 127 128 130 131 129 130 
132 133 131 132 134 135 133 134 136 
137 135 136 138 139 137 138 140 141 
139 140 142 143 141 142 144 145 143 
144 146 147 145 146 148 149 147 148 
150 151 149 150 152 153 151 152 154 
155 153 154 156 157 155 156 158 159 
157 158 160 161 159 160 162 163 161 
162 164 165 163 164 166 167 165 166 
168 169 167 168 170 171 169 170 172 
173 171 172 174 175 173 174 176 177 
175 176 178 179 177 178 180 181 179 
180 182 183 181 182 184 185 183 184 
186 187 185 186 188 189 187 188 190 
191 189 190 192 193 191 192 194 195 
193 194 196 197 195 196 198 199 197 
198 84 87 199 2 5 200 201 5 
7 202 200 7 9 203 202 9 11 
204 203 11 13 205 204 13 15 206 
205 15 17 207 206 17 19 208 207 
19 21 209 208 21 23 210 209 23 
25 211 210 25 27 212 211 27 29 
213 212 29 31 214 213 31 33 215 
214 33 35 216 215 35 37 217 216 
37 39 218 217 39 41 219 218 41 
43 220 219 43 45 221 220 45 47 
222 221 47 49 223 222 49 51 224 
223 51 53 225 224 53 55 226 225 
55 57 227 226 57 59 228 227 59 
61 229 228 61 63 230 229 63 65 
231 230 65 67 232 231 67 69 233 
232 69 71 234 233 71 73 235 234 
73 75 236 235 75 77 237 236 77 
79 238 237 79 81 239 238 81 83 
240 239 83 3 241 240 3 2 201 
241 86 89 242 243 89 91 244 242 
91 93 245 244 93 95 246 245 95 
97 247 246 97 99 248 247 99 101 
249 248 101 103 250 249 103 105 251 
250 105 107 252 251 107 109 253 252 
109 111 254 253 111 113 255 254 113 
115 256 255 115 117 257 256 117 119 
258 257 119 121 259 258 121 123 260 
259 123 125 261 260 125 127 262 261 
127 129 263 262 129 131 264 263 131 
133 265 264 135 137 266 267 137 139 
268 266 139 141 269 268 141 143 270 
269 143 145 271 270 145 147 272 271 
147 149 273 272 149 151 274 273 151 
153 275 274 153 155 276 275 155 157 
277 276 157 159 278 277 159 161 279 
278 161 163 280 279 163 165 281 280 
165 167 282 281 167 169 283 282 169 
171 284 283 171 173 285 284 173 175 
286 285 175 177 287 286 177 179 288 
287 179 181 289 288 181 183 290 289 
183 185 291 290 185 187 292 291 187 
189 293 292 189 191 294 293 191 193 
295 294 193 195 296 295 195 197 297 
296 197 199 298 297 199 87 299 298 
87 86 243 299 133 135 267 300 265 
133 300 301 203 204 302 303 204 205 
304 302 205 206 305 304 206 207 306 
305 207 208 307 306 208 209 308 307 
209 210 309 308 210 211 310 309 211 
212 311 310 212 213 312 311 213 214 
313 312 214 215 314 313 215 216 315 
314 216 217 316 315 217 218 317 316 
218 219 318 317 219 220 319 318 220 
221 320 319 221 222 321 320 222 223 
322 321 224 225 323 324 225 226 325 
323 226 227 326 325 227 228 327 326 
228 229 328 327 229 230 329 328 230 
231 330 329 231 232 331 330 232 233 
332 331 233 234 333 332 234 235 334 
333 235 236 335 334 236 237 336 335 
237 238 337 336 238 239 338 337 239 
240 339 338 240 241 340 339 241 201 
341 340 201 200 342 341 223 224 324 
343 322 223 343 344 301 300 345 346 
300 267 266 345 266 268 347 345 268 
269 348 347 269 270 349 348 270 271 
350 349 271 272 351 350 272 273 352 
351 273 274 353 352 275 276 354 355 
276 277 356 354 277 278 357 356 278 
279 358 357 279 280 359 358 280 281 
360 359 281 282 361 360 282 283 362 
361 283 284 363 362 284 285 364 363 
285 286 365 364 286 287 366 365 287 
288 367 366 288 289 368 367 289 290 
369 368 290 291 370 369 291 292 371 
370 292 293 372 371 293 294 373 372 
294 295 374 373 295 296 375 374 296 
297 376 375 297 298 377 376 298 299 
378 377 299 243 379 378 243 242 380 
379 242 244 381 380 244 245 382 381 
245 246 383 382 246 247 384 383 247 
248 385 384 248 249 386 385 249 250 
387 386 250 251 388 387 251 252 389 
388 252 253 390 389 253 254 391 390 
254 255 392 391 255 256 393 392 256 
257 394 393 257 258 395 394 258 259 
396 395 259 260 397 396 260 261 398 
397 261 262 399 398 262 263 400 399 
263 264 401 400 264 265 402 401 265 
301 403 402 301 346 404 403 346 405 
406 404 346 345 347 405 274 275 355 
407 353 274 407 408 344 343 409 410 
343 324 411 409 324 323 412 411 323 
325 413 412 325 326 414 413 326 327 
415 414 327 328 416 415 328 329 417 
416 329 330 418 417 330 331 419 418 
331 332 420 419 332 333 421 420 333 
334 422 421 334 335 423 422 335 336 
424 423 337 338 425 426 338 339 427 
425 339 340 428 427 340 341 429 428 
341 342 430 429 303 302 431 432 302 
304 433 431 304 305 434 433 305 306 
435 434 306 307 436 435 307 308 437 
436 308 309 438 437 309 310 439 438 
310 311 440 439 311 312 441 440 312 
313 442 441 313 314 443 442 314 315 
444 443 315 316 445 444 316 317 446 
445 317 318 447 446 318 319 448 447 
319 320 449 448 320 321 450 449 321 
322 451 450 322 344 452 451 344 410 
453 452 410 454 455 453 410 409 456 
454 457 303 432 458 459 457 458 460 
336 337 426 461 424 336 461 462 347 
348 463 405 348 349 464 463 349 350 
465 464 350 351 466 465 351 352 467 
466 352 353 468 467 353 408 469 468 
408 470 471 469 408 407 472 470 407 
355 473 472 355 354 474 473 354 356 
475 474 356 357 476 475 357 358 477 
476 358 359 478 477 359 360 479 478 
360 361 480 479 361 362 481 480 362 
363 482 481 363 364 483 482 364 365 
484 483 365 366 485 484 366 367 486 
485 367 368 487 486 368 369 488 487 
369 370 489 488 370 371 490 489 371 
372 491 490 372 373 492 491 373 374 
493 492 374 375 494 493 375 376 495 
494 376 377 496 495 377 378 497 496 
378 379 498 497 379 380 499 498 380 
381 500 499 381 382 501 500 382 383 
502 501 383 384 503 502 384 385 504 
503 385 386 505 504 386 387 506 505 
387 388 507 506 388 389 508 507 389 
390 509 508 390 391 510 509 391 392 
511 510 392 393 512 511 393 394 513 
512 395 396 514 515 396 397 516 514 
397 398 517 516 398 399 518 517 399 
400 519 518 400 401 520 519 401 402 
521 520 402 403 522 521 403 404 523 
522 404 406 524 523 406 525 526 524 
406 405 527 525 405 463 528 527 463 
464 529 528 464 465 530 529 465 466 
531 530 466 467 532 531 522 523 533 
534 523 524 535 533 524 526 536 535 
526 537 538 536 526 525 539 537 525 
527 540 539 527 528 541 540 528 529 
542 541 529 530 543 542 530 531 544 
543 531 532 545 544 394 395 515 546 
513 394 546 547 409 411 548 456 411 
412 549 548 412 413 550 549 413 414 
551 550 414 415 552 551 415 416 553 
552 416 417 554 553 417 418 555 554 
418 419 556 555 419 420 557 556 420 
421 558 557 421 422 559 558 422 423 
560 559 423 424 561 560 424 462 562 
561 462 563 564 562 462 461 565 563 
461 426 566 565 426 425 567 566 425 
427 568 567 427 428 569 568 428 429 
570 569 429 430 571 570 430 572 573 
571 572 574 575 573 574 459 576 575 
459 460 577 576 460 458 578 577 458 
432 579 578 432 431 580 579 431 433 
581 580 433 434 582 581 434 435 583 
582 435 436 584 583 436 437 585 584 
437 438 586 585 438 439 587 586 439 
440 588 587 440 441 589 588 442 443 
590 591 443 444 592 590 444 445 593 
592 445 446 594 593 446 447 595 594 
447 448 596 595 448 449 597 596 449 
450 598 597 450 451 599 598 451 452 
600 599 452 453 601 600 453 455 602 
601 455 603 604 602 455 454 605 603 
454 456 606 605 441 442 591 607 589 
441 607 608 469 471 609 610 471 611 
612 609 471 470 613 611 470 472 614 
613 472 473 615 614 473 474 616 615 
474 475 617 616 475 476 618 617 476 
477 619 618 477 478 620 619 478 479 
621 620 479 480 622 621 480 481 623 
622 481 482 624 623 482 483 625 624 
483 484 626 625 484 485 627 626 485 
486 628 627 486 487 629 628 487 488 
630 629 488 489 631 630 489 490 632 
631 490 491 633 632 491 492 634 633 
492 493 635 634 493 494 636 635 494 
495 637 636 495 496 638 637 497 498 
639 640 498 499 641 639 499 500 642 
641 500 501 643 642 501 502 644 643 
502 503 645 644 503 504 646 645 504 
505 647 646 505 506 648 647 506 507 
649 648 507 508 650 649 508 509 651 
650 509 510 652 651 510 511 653 652 
511 512 654 653 512 513 655 654 513 
547 656 655 547 657 658 656 547 546 
659 657 546 515 660 659 515 514 661 
660 514 516 662 661 516 517 663 662 
517 518 664 663 518 519 665 664 519 
520 521 665 496 497 640 666 638 496 
666 667 610 609 668 545 609 612 669 
668 612 670 671 669 612 611 672 670 
611 613 673 672 613 614 674 673 614 
615 675 674 615 616 676 675 616 617 
677 676 617 618 678 677 618 619 679 
678 619 620 680 679 620 621 681 680 
621 622 682 681 622 623 683 682 623 
624 684 683 624 625 685 684 625 626 
686 685 626 627 687 686 627 628 688 
687 628 629 689 688 629 630 690 689 
630 631 691 690 631 632 692 691 632 
633 693 692 633 634 694 693 634 635 
695 694 635 636 696 695 636 637 697 
696 637 638 698 697 638 667 699 698 
667 700 701 699 667 666 702 700 666 
640 703 702 640 639 704 703 639 641 
705 704 641 642 706 705 642 643 707 
706 643 644 708 707 644 645 709 708 
645 646 710 709 646 647 711 710 647 
648 712 711 648 649 713 712 649 650 
714 713 650 651 715 714 651 652 716 
715 652 653 717 716 653 654 718 717 
654 655 656 718 656 658 719 718 658 
720 721 719 658 657 722 720 657 659 
723 722 659 660 724 723 660 661 725 
724 661 662 726 725 662 663 727 726 
663 664 728 727 664 665 534 728 665 
521 522 534 456 548 729 606 548 549 
730 729 549 550 731 730 550 551 732 
731 551 552 733 732 552 553 734 733 
553 554 735 734 554 555 736 735 555 
556 737 736 556 557 738 737 557 558 
739 738 558 559 740 739 559 560 741 
740 560 561 742 741 561 562 743 742 
562 564 744 743 564 745 746 744 564 
563 747 745 563 565 748 747 565 566 
749 748 566 567 750 749 567 568 751 
750 568 569 752 751 569 570 753 752 
570 571 754 753 571 573 755 754 573 
575 756 755 575 576 757 756 576 577 
758 757 577 578 759 758 578 579 760 
759 579 580 761 760 580 581 762 761 
581 582 763 762 582 583 764 763 583 
584 765 764 584 585 766 765 585 586 
767 766 586 587 768 767 587 588 769 
768 588 589 770 769 589 608 771 770 
608 772 773 771 608 607 774 772 607 
591 775 774 591 590 776 775 590 592 
777 776 592 593 778 777 593 594 779 
778 594 595 780 779 595 596 781 780 
596 597 782 781 597 598 783 782 598 
599 784 783 599 600 785 784 600 601 
786 785 601 602 787 786 602 604 788 
787 604 789 790 788 604 603 791 789 
603 605 792 791 605 606 793 792 674 
675 794 673 675 676 795 794 676 677 
796 795 677 678 797 796 678 679 798 
797 679 680 799 798 680 681 800 799 
681 682 801 800 682 683 802 801 683 
684 803 802 685 686 804 805 686 687 
806 804 687 688 807 806 688 689 808 
807 689 690 809 808 690 691 810 809 
691 692 811 810 692 693 812 811 693 
694 813 812 694 695 814 813 695 696 
815 814 696 697 816 815 697 698 817 
816 698 699 818 817 699 701 819 818 
701 820 821 819 701 700 822 820 700 
702 823 822 702 703 824 823 703 704 
825 824 704 705 826 825 705 706 827 
826 706 707 828 827 707 708 829 828 
708 709 830 829 709 710 831 830 710 
711 832 831 711 712 833 832 713 714 
834 835 714 715 836 834 715 716 837 
836 716 717 838 837 717 718 719 838 
684 685 805 839 803 684 839 840 719 
721 841 838 721 842 843 841 721 720 
844 842 720 722 845 844 722 723 846 
845 723 724 725 846 606 729 847 793 
729 730 848 847 730 731 849 848 731 
732 850 849 732 733 851 850 733 734 
852 851 734 735 853 852 735 736 854 
853 736 737 855 854 737 738 856 855 
738 739 857 856 739 740 858 857 740 
741 859 858 741 742 860 859 744 746 
861 860 746 862 863 861 746 745 864 
862 745 747 865 864 747 748 866 865 
748 749 867 866 749 750 868 867 750 
751 869 868 751 752 870 869 752 753 
871 870 753 754 872 871 754 755 873 
872 755 756 874 873 756 757 875 874 
757 758 876 875 758 759 877 876 759 
760 878 877 760 761 879 878 761 762 
880 879 762 763 881 880 763 764 882 
881 764 765 883 882 765 766 884 883 
766 767 885 884 767 768 886 885 768 
769 887 886 769 770 888 887 770 771 
889 888 771 773 890 889 773 891 892 
890 773 772 893 891 772 774 894 893 
774 775 895 894 775 776 896 895 776 
777 897 896 777 778 898 897 778 779 
899 898 779 780 900 899 780 781 901 
900 781 782 902 901 782 783 903 902 
783 784 904 903 784 785 905 904 785 
786 906 905 786 787 907 906 787 788 
908 907 788 790 909 908 790 910 911 
909 791 792 912 789 534 533 913 728 
533 535 914 913 535 536 915 914 536 
538 916 915 538 917 901 916 538 537 
918 917 537 539 919 918 539 540 920 
919 540 541 921 920 541 542 922 921 
542 543 923 922 543 544 924 923 544 
545 668 924 668 669 925 924 669 671 
926 925 671 927 928 926 671 670 929 
927 670 672 930 929 672 673 794 930 
847 848 931 932 848 849 933 931 849 
850 934 933 850 851 935 934 851 852 
936 935 852 853 937 936 853 854 938 
937 854 855 939 938 855 856 940 939 
856 857 941 940 857 858 942 941 858 
859 943 942 859 860 861 943 863 944 
945 946 863 862 947 944 862 864 948 
947 864 865 949 948 865 866 950 949 
866 867 951 950 867 868 952 951 868 
869 953 952 869 870 954 953 870 871 
955 954 871 872 956 955 873 874 957 
958 874 875 959 957 875 876 960 959 
876 877 961 960 877 878 962 961 878 
879 963 962 879 880 964 963 880 881 
965 964 881 882 966 965 883 884 967 
968 884 885 969 967 885 886 970 969 
886 887 971 970 887 888 972 971 888 
889 973 972 889 890 974 973 890 892 
975 974 892 928 927 975 882 883 968 
966 872 873 958 976 956 872 976 977 
712 713 835 978 833 712 978 979 725 
726 980 846 726 727 981 980 727 728 
982 981 728 913 983 982 913 914 984 
983 914 915 985 984 915 916 986 985 
916 901 902 986 794 795 987 930 795 
796 988 987 796 797 989 988 797 798 
990 989 798 799 991 990 799 800 992 
991 800 801 993 992 801 802 994 993 
802 803 995 994 803 840 966 995 966 
840 996 965 840 839 997 996 839 805 
998 997 805 804 999 998 804 806 1000 
999 806 807 1001 1000 807 808 1002 1001 
808 809 1003 1002 809 810 1004 1003 810 
811 1005 1004 811 812 1006 1005 812 813 
1007 1006 813 814 1008 1007 814 815 1009 
1008 815 816 1010 1009 816 817 1011 1010 
817 818 1012 1011 818 819 1013 1012 819 
821 1014 1013 821 820 1015 1016 820 822 
1017 1015 822 823 1018 1017 823 824 1019 
1018 824 825 1020 1019 825 826 944 1020 
826 827 945 944 827 828 946 945 902 
903 904 986 924 925 1021 923 925 926 
1022 1021 926 928 1023 1022 928 892 891 
1023 891 893 1024 1023 893 894 1025 1024 
894 895 1026 1025 895 896 1027 1026 896 
897 1028 1027 897 898 1029 1028 898 899 
1030 1029 899 900 1031 1030 900 901 917 
1031 828 829 1032 946 829 830 1033 1032 
830 831 1034 1033 831 832 1035 1034 832 
833 1036 1035 833 979 1037 1036 979 1038 
1039 1037 979 978 1040 1038 978 835 1041 
1040 835 834 1042 1041 834 836 1043 1042 
836 837 1044 1043 837 838 841 1044 904 
905 985 986 917 918 1030 1031 841 843 
1045 1044 843 1046 1047 1045 843 842 1048 
1046 842 844 1049 1048 845 846 980 911 
980 981 909 911 981 982 908 909 982 
983 907 908 984 985 905 906 906 907 
983 984 918 919 1029 1030 919 920 1050 
1029 920 921 1051 1050 921 922 1052 1051 
922 923 1021 1052 927 929 1053 975 929 
930 987 1053 965 996 1054 964 998 999 
1055 1054 999 1000 1056 1055 1000 1001 1057 
1056 1001 1002 1058 1057 1002 1003 1059 1058 
1003 1004 1060 1059 1004 1005 1061 1060 1005 
1006 1062 1061 1006 1007 1063 1062 1007 1008 
1064 1063 1008 1009 1065 1064 1012 1013 1066 
1067 1015 1017 1068 1069 1017 1018 1070 1068 
1018 1019 1020 1070 1020 944 947 1070 987 
988 1071 1053 988 989 1072 1071 989 990 
1073 1072 990 991 1074 1073 991 992 1075 
1074 992 993 1076 1075 993 994 1077 1076 
994 995 1078 1077 995 966 968 1078 947 
948 1068 1070 968 967 1079 1078 967 969 
1080 1079 969 970 1081 1080 970 971 1082 
1081 971 972 1083 1082 972 973 1084 1083 
973 974 1085 1084 974 975 1053 1085 948 
949 1069 1068 1040 1041 1086 1038 1041 1042 
1087 1086 1042 1043 1088 1087 1043 1044 1045 
1088 949 950 1089 1069 950 951 1090 1089 
951 952 1091 1090 953 954 1092 1093 954 
955 1094 1092 955 956 1095 1094 956 977 
1096 1095 977 1063 1064 1096 977 976 1062 
1063 976 958 1061 1062 958 957 1060 1061 
957 959 1059 1060 959 960 1058 1059 960 
961 1057 1058 1032 1033 943 861 1033 1034 
942 943 1034 1035 941 942 1035 1036 1037 
941 1037 1039 940 941 789 912 910 790 
932 931 1048 1049 931 933 1046 1048 940 
1039 1097 939 1039 1038 1086 1097 961 962 
1056 1057 933 934 1047 1046 1045 1047 1098 
1099 1047 934 935 1098 935 936 1099 1098 
962 963 1055 1056 936 937 1100 1099 1023 
1024 1101 1022 1024 1025 1026 1101 1026 1027 
1052 1101 1027 1028 1051 1052 1028 1029 1050 
1051 937 938 1102 1100 939 1097 1102 938 
1086 1087 1102 1097 1021 1022 1101 1052 1053 
1071 1084 1085 1071 1072 1083 1084 1089 1090 
1091 1016 1093 1092 1103 1104 1092 1094 1105 
1103 1094 1095 1096 1105 1064 1065 1105 1096 
1072 1073 1082 1083 1073 1074 1081 1082 1074 
1075 1080 1081 1079 1080 1075 1076 1076 1077 
1078 1079 342 1106 572 430 1106 1107 574 
572 1107 457 459 574 1106 342 200 202 
1107 1106 202 203 457 1107 203 303 467 
468 1108 532 468 469 610 1108 1108 610 
545 532 743 744 860 742 861 863 946 
1032 792 793 1109 912 793 847 932 1109 
1109 932 1049 1110 912 1109 1110 910 910 
1110 845 911 1110 1049 844 845 1016 1015 
1069 1089 1016 1091 1014 821 1067 1111 1011 
1012 1111 1112 1010 1011 1112 1065 1009 1010 
1065 1112 1103 1105 1102 1087 1088 1100 1100 
1088 1045 1099 1054 1055 963 964 1054 996 
997 998 1104 1066 1113 1093 1066 1013 1014 
1113 1113 1014 1091 952 1093 1113 952 953 
1104 1103 1112 1111 1111 1067 1066 1104 
CELL_DATA 1064
FIELD FieldData 6
Stress_X 1 1064 double
0.054274033755 -0.026850409806 -0.0068677724339 0.033234123141 0.0043571549468 -0.06110073626 0.016789644957 0.031873870641 0.016955265775 
0.032849658281 0.054368060082 0.077653132379 0.094828046858 0.10871645063 0.11531003565 0.11823173612 0.1151509434 0.11302040517 
0.080662474036 0.068409428 0.079244844615 0.056154482067 0.040904317051 0.0204774905 0.007093091961 0.0076470454223 0.008756743744 
0.016258606687 0.021078424528 0.026949521154 0.036879457533 0.054059337825 0.068668052554 0.083869338036 0.09660539031 0.10494948179 
0.10627958924 0.10086683929 0.098737925291 0.092063948512 0.082007944584 0.070021122694 0.04576658085 0.043031577021 0.042409252375 
0.046058151871 0.058174304664 0.067805230618 0.073720604181 0.077174909413 0.071046717465 0.062533177435 0.047803256661 0.042845550925 
0.044768027961 0.047391265631 0.037732891738 0.028614923358 0.0253123492 0.021314879879 0.012543270364 0.01235021092 0.021527120844 
0.029189571738 0.035596393049 0.039277993143 0.046112239361 0.053470298648 0.067601323128 0.069281749427 0.057494416833 0.039806962013 
0.036089386791 0.038943182677 0.047279000282 0.059139169753 0.044149786234 0.033077374101 0.0091495830566 -0.011153823696 -0.046248149127 
-0.02947210893 -0.024886101484 -0.027787473053 -0.035667620599 -0.041222736239 -0.0041891657747 0.011431347579 0.0086676962674 0.0020100893453 
-0.0027909593191 -0.0038694790564 -1.2564525605e-05 0.0032095175702 0.0030660429038 0.010418371297 0.021492183208 0.028614204377 0.034164275974 
0.042244628072 0.041619438678 0.021524036303 0.023905882612 0.0099700707942 0.0072247614153 0.022092724219 0.028512775898 0.04281385988 
0.060042653233 0.072376951575 0.078569613397 0.079427875578 0.083921477199 0.093780867755 0.10181611776 0.1046718955 0.10210741311 
0.090799532831 0.06979598105 0.060192462057 0.043585672975 0.023993637413 0.017139159143 0.026225619018 0.024259477854 0.014594116248 
0.022625330836 0.036592595279 0.048031128943 0.062710091472 0.074160918593 0.087704963982 0.10417421162 0.11872146279 0.12444260716 
0.11672778428 0.1014726162 0.081471383572 0.073760859668 0.059997446835 0.053155515343 0.049249768257 0.050280816853 0.049264665693 
0.050168082118 0.057007104158 0.062450740486 0.060842689127 0.057283602655 0.051961045712 0.04488068074 0.037591923028 0.028639551252 
0.02634180896 0.02530262433 0.026269443333 0.024313859642 0.02071515657 0.020791340619 0.022200040519 0.021617684513 0.021820962429 
0.024560851976 0.029457211494 0.032941248268 0.04652408883 0.054602954537 0.060072429478 0.057087410241 0.05184892565 0.044813659042 
0.040410425514 0.040354534984 0.044122204185 0.043027270585 0.033467765898 0.026097184047 0.0201194603 0.022677110508 0.025590801612 
0.033694431186 0.03916009143 0.038357451558 0.0327023305 0.028245761991 0.02170150727 0.021500708535 0.025195198134 0.024520268664 
0.024303842336 0.025727374479 0.025825357065 0.02729109861 0.030342934653 0.033125005662 0.037406940013 0.04260539636 0.047840740532 
0.049417153001 0.035663403571 0.037666615099 0.01525730826 0.012020391412 0.015840090811 0.027477905154 0.038492981344 0.052712827921 
0.066500037909 0.069074630737 0.063585557044 0.063584558666 0.068134598434 0.074114196002 0.080243624747 0.078931078315 0.06999142468 
0.058359634131 0.044441279024 0.034301307052 0.023101935163 0.018415028229 0.022682003677 0.020725175738 0.024400848895 0.032562572509 
0.043377652764 0.054706446826 0.064357422292 0.073030754924 0.082008607686 0.087546139956 0.086385779083 0.077581129968 0.069005347788 
0.063415534794 0.055968299508 0.052874565125 0.044887330383 0.055770713836 0.049829043448 0.026004504412 0.014992644079 0.037497222424 
0.039118863642 0.039078827947 0.045390594751 0.054261323065 0.055517476052 0.052574634552 0.047361262143 0.043702468276 0.036844339222 
0.03405565396 0.031508810818 0.031832169741 0.035628195852 0.043008312583 0.052098408341 0.049446862191 0.036424059421 0.022226367146 
0.010828518309 0.0092017324641 0.011853566393 0.018021980301 0.022283095866 0.025407599285 0.028862863779 0.031131342053 0.032995861024 
0.036715563387 0.040072951466 0.044486615807 0.050262108445 0.051868341863 0.05163712427 0.053463436663 0.056944187731 0.060107897967 
0.062176030129 0.059850230813 0.054047871381 0.049383401871 0.044615134597 0.039908312261 0.036377832294 0.033097352833 0.029102703556 
0.028625655919 0.026843888685 0.024522073567 0.020393423736 0.018331613392 0.019374795258 0.018771508709 0.022947516292 0.028055492789 
0.032400593162 0.036596350372 0.042934451252 0.04238075763 0.039218954742 0.035414684564 0.036439489573 0.050946000963 0.0092971464619 
0.014965200797 0.018581103534 0.019831165671 0.02353291586 0.029932374135 0.037861827761 0.047231499106 0.055850200355 0.061515059322 
0.06646463275 0.070261500776 0.071629047394 0.067716233432 0.060582332313 0.04409564659 0.036070033908 0.040674302727 0.046848721802 
0.048494424671 0.011538649909 0.01171632763 0.016219014302 0.026518806815 0.03896868974 0.050359535962 0.058269992471 0.060837343335 
0.05651152879 0.054721731693 0.058871604502 0.062369775027 0.070083647966 0.072846233845 0.066710777581 0.054201535881 0.042497307062 
0.032393857837 0.024534810334 0.01219232101 0.0068318154663 0.0052249147557 0.0046443599276 0.0067238463089 0.017097534612 0.020742127672 
0.04788255319 0.058346185833 0.034111082554 0.039133172482 0.051410812885 0.055989529938 0.055197045207 0.055304061621 0.052744019777 
0.057401500642 0.05253393203 0.044147212058 0.038379818201 0.036619648337 0.036738846451 0.036783263087 0.03892436251 0.041954699904 
0.04567155987 0.042908061296 0.031075453386 0.017551127821 0.0047400835901 0.0017088975292 0.0045216307044 0.012258403003 0.017565185204 
0.022945173085 0.029852712527 0.03270323202 0.036874562502 0.040761500597 0.043993234634 0.048927992582 0.052865847945 0.053959593177 
0.053281664848 0.056529667228 0.063534155488 0.067676626146 0.066379994154 0.058848492801 0.050281494856 0.043871354312 0.041445091367 
0.038574971259 0.037458479404 0.035562574863 0.032282862812 0.028734497726 0.028250413015 0.023065047339 0.016780950129 0.015097452328 
0.013371370733 0.017711376771 0.027114832774 0.031597539783 0.03988981992 0.042964164168 0.040609531105 0.042235720903 0.044967785478 
0.043079499155 0.034348964691 0.037498120219 0.047636151314 0.056688934565 0.057050157338 0.03584029898 0.040027473122 0.042788617313 
0.044313929975 0.046202868223 0.041636943817 0.038030490279 0.04013326019 0.05091983825 0.05887247622 0.060303900391 0.016050308943 
0.018957609311 0.012724335305 0.015587162226 0.018478307873 0.022996420041 0.028481381014 0.035230465233 0.043175596744 0.050866991282 
0.054710380733 0.059456661344 0.065233781934 0.069068081677 0.073238283396 0.073550611734 0.063626274467 0.064119711518 0.049791425467 
0.045223418623 0.040749426931 0.034755375236 0.031184790656 0.032886780798 0.031140699983 0.031168686226 0.026822572574 0.022865289822 
0.019458476454 0.016319708899 0.013993372209 0.011242783628 0.012188954279 0.017361151055 0.026169158518 0.037840209901 0.049060553312 
0.057192333043 0.057925231755 0.053544979542 0.04906322062 0.061909146607 0.071520276368 0.07534468174 0.069094017148 0.056655030698 
0.044149652123 0.035183846951 0.02709290944 0.018039574847 0.013296218589 0.014639937319 0.015555761755 0.015700664371 0.0041418257169 
0.0037231657188 0.051982622594 0.055667284876 0.056192591786 0.057799804956 0.057051565498 0.054932009429 0.053261697292 0.049446042627 
0.042778894305 0.042048577219 0.037502124906 0.035652268678 0.029634658247 0.020508807153 0.02120032534 0.022721486166 0.013353269547 
0.0013701033313 -0.0038727996871 -6.5025684307e-05 0.010231628083 0.016223037615 0.020100500435 0.026286901906 0.030743533745 0.03591389209 
0.041006620973 0.044977687299 0.049984265119 0.050601933151 0.060112442821 0.065486378968 0.072688288987 0.074711970985 0.070734195411 
0.061929706484 0.05419607833 0.049517780542 0.045977380127 0.04196677357 0.038882050663 0.037011858076 0.029896782711 0.025279758498 
0.024190846831 0.018483476713 0.015095071867 0.012427540496 0.0099769858643 0.0080582732335 0.011214278638 0.010961693712 0.012366841547 
0.018045494333 0.029505673796 0.032398913056 0.057054985315 0.060293130577 0.058884304017 0.058449525386 0.059605594724 0.057383552194 
0.057554695755 0.060915887356 0.057626929134 0.051958650351 0.052314296365 0.042140029371 0.033479079604 0.024620629847 0.014809482731 
0.0030862437561 0.0017381861107 0.012317034416 0.010448592715 0.00032479161746 -0.0065232166089 -0.0039182906039 0.0034960387275 0.012725869194 
0.015553925186 0.020423732698 0.024561757222 0.030167367309 0.03517537564 0.041997488588 0.047280538827 0.054146710783 0.056924529374 
0.061753708869 0.062551259995 0.068306915462 0.069861412048 0.073771364987 0.078674934804 0.080821059644 0.077196232975 0.072521440685 
0.065939433873 0.060646671802 0.055990282446 0.053259599954 0.041315447539 0.033829841763 0.025918964297 0.022811964154 0.01874682866 
0.01409797091 0.01209420152 0.013226375915 0.0084062945098 0.0073378095403 0.0025628502481 0.0093413479626 0.011938958429 0.016716748476 
0.026200849563 0.027546286583 0.036070145667 0.0070799193345 0.01173636131 0.016220794991 0.022481983528 0.028538590297 0.035014417022 
0.041292503476 0.047386210412 0.051711603999 0.057600017637 0.064744859934 0.070676058531 0.076480276883 0.077862292528 0.076078988612 
0.075787574053 0.07754971087 0.067187950015 0.055624824017 0.048039097339 0.043975681067 0.039212435484 0.031689424068 0.026627907529 
0.023969164118 0.021759962663 0.018952367827 0.015435994603 0.013121542521 0.012237304822 0.011556682177 0.010722474195 0.01303083729 
0.019777676091 0.028858954087 0.038465995342 0.048367258161 0.05519996956 0.056449461728 0.052085082978 0.051407787949 0.050390310585 
0.050217483193 0.055739030242 0.065452098846 0.070937044919 0.078798107803 0.080109044909 0.069958090782 0.055548187345 0.043263677508 
0.034096330404 0.027821693569 0.02373675257 0.02277812548 0.029824296013 0.031468611211 0.026540754363 0.020394381136 0.010329262353 
0.0048143761232 0.0012202943908 0.058289784938 0.056961037219 0.053589571267 0.044439468533 0.033443111926 0.022223459557 0.010782270692 
-0.00062875251751 -0.0069309361279 0.0056084422395 -0.0038723438047 -0.0068848752417 -0.0036554923281 0.0032854564488 0.0069426964037 0.010477421805 
0.016461826861 0.017948305234 0.021877832711 0.028270918876 0.037294272333 0.048162925988 0.050917256624 0.055107597262 0.059014216065 
0.062279712409 0.064717702568 0.068171225488 0.072611913085 0.076025597751 0.080135263503 0.083169557154 0.085573323071 0.083543874323 
0.080018036067 0.076417975128 0.068547181785 0.066089749336 0.042601089925 0.028256606311 0.021944629028 0.018408970907 0.015327376314 
0.0076692085713 0.0095413634554 0.015609559603 0.012807562016 0.010094230063 0.0083169173449 -0.00038818002213 0.0083861462772 0.0014999234118 
0.0070738834329 0.015358150937 0.022962106392 0.028243212029 0.032738704234 0.038244090974 0.044109050184 0.051269475371 0.060796421021 
0.068879038095 0.075021862984 0.078266605735 0.080556772649 0.084459580481 0.08840829134 0.080175064504 0.071784764528 0.063021868467 
0.055575676262 0.04924171418 0.043520953506 0.033920057118 0.025967516005 0.021257946268 0.017598714679 0.013746289536 0.0093107214198 
0.0063268113881 0.0063905110583 0.0066964155994 0.0069525633007 0.010705273598 0.01998320967 0.0309125036 0.038051076233 0.044642478228 
0.048341777176 0.049504991621 0.047766759992 0.046356670558 0.045908082277 0.048704952002 0.052183415741 0.053872983903 0.05937654525 
0.067193858325 0.078219227493 0.083610668778 0.076799765229 0.063672877848 0.048871356994 0.039040461183 0.033788058907 0.029175098985 
0.025782674551 0.029610490426 0.034977681935 0.036340162158 0.031027609482 0.026248056442 0.020299183205 0.0054579358548 0.034091647714 
0.03758765012 0.041531451046 0.041483603418 0.040272347629 0.042823009193 0.045885603875 0.044133003801 0.039673205465 0.035415746272 
0.049633275717 0.060482289642 0.060517147183 0.061469893903 0.061109531671 0.062725670636 0.060274586082 0.058818601072 0.058780100197 
0.0075659127906 0.016704443842 0.023041829467 0.026760583743 0.029103752226 0.033543225378 0.040129862726 0.050740692765 0.065200448036 
0.078590244055 0.082246184349 0.085699804127 0.089499354362 0.082601219416 0.083452351391 0.078978233039 0.072216294706 0.067535862327 
0.060349464417 0.055360991508 0.049302436411 0.040285874158 0.030983077362 0.024225216359 0.0096302563325 0.0035761408508 0.00021558902517 
-0.00027422312996 -0.00032092083711 0.0016600436065 0.0079137561843 0.017068084329 0.028273511678 0.033240620047 0.035329211503 0.040157131851 
0.042062222958 0.043021149933 0.045839253813 0.048725027591 0.054189514369 0.057284660637 0.033335871994 0.011651803739 0.019944345579 
0.049188736826 0.070244602859 0.01571925357 0.024688690901 0.024188306183 0.030517630279 0.035442803055 0.040286794305 0.039977807552 
0.034100610763 0.059838037938 0.057470723987 0.046424753964 0.034306522459 0.02477196604 0.014795995317 -0.0029379492626 -0.0076720234938 
0.0046918755397 0.016758922487 0.022013394162 0.015884039924 0.0074351797812 -0.004497394897 -0.0060495617799 -0.0050237393007 0.00054994091624 
0.00052133004647 0.0062905130908 0.014091912657 0.015981355682 0.021266711876 0.030066007748 0.037821598351 0.042776055634 0.048843231052 
0.051694821566 0.054575178772 0.058173116297 0.064447678626 0.067454457283 0.07046712935 0.073292560875 0.076165221632 0.080007910728 
0.085654824972 0.086534842849 0.030135670677 0.057756420225 0.060527402908 0.061326228082 0.057782933116 0.057743702084 0.061272915453 
0.065416641533 0.071662396193 0.069636262953 0.062610462308 0.052829850465 0.045700453222 0.040821328759 0.086402349174 0.083161406219 
0.080091550946 0.078287780285 0.074019171298 0.075906895101 0.076585777104 0.060395780951 0.050712093711 0.036069128662 0.025313297287 
0.01747225225 0.012782050297 0.034552648664 0.045791883022 0.015375761315 0.012076065876 0.0089127495885 0.0078047649004 0.015984749421 
0.023365266621 0.026181712747 0.03171114251 0.036508034915 0.035813286901 0.046005960554 0.045100864023 0.042326722294 0.042656790465 
0.048577886075 0.06324391067 0.060440249741 0.018450245261 0.0006448085187 -0.0048892730847 -0.0044624661095 -0.006183761172 -0.0061796521768 
0.0013281858992 0.009477654472 0.016008082777 0.024071427062 0.031474795192 0.035151921213 0.048758879304 0.068769022822 0.073058471084 
0.0729797557 0.077761001885 0.058525811881 0.050168666989 0.038110192865 0.02809025906 0.017326567322 0.004820374772 -0.0013382921461 
0.0055136224255 0.023098485544 0.073566652834 0.022986078635 0.024363951758 0.030899219215 0.036973532289 0.041803456843 0.046686921269 
0.050890568644 0.051699832082 0.071786954999 0.054840032011 0.036663301289 0.02144411765 0.012187938206 0.066716730595 0.06240042299 
0.054454363883 0.045406270772 0.037311132997 0.028011178598 0.025054831058 0.028721975163 0.020524349064 0.011162432842 0.0061610471457 
0.00052985781804 -0.0041451528668 -0.0052559925243 0.088877588511 0.088685683906 0.08556099236 0.086988694966 0.07876867801 0.011889503337 
0.0070695956238 0.014678034931 0.064728312194 0.059386018664 -0.0042552840896 0.022169563919 0.01662623696 0.023769954219 0.022292776033 
-0.0020756572485 0.030353490263 0.060039319098 0.060610610992 0.059067118913 0.053773183376 0.050138860941 0.036410648376 0.047902327031 
0.044435087591 0.058602299541 0.054498825222 0.047018613666 0.062552951276 0.043090939522 0.036301784217 0.030594648793 0.032980222255 
0.041673131287 0.033513553441 0.022586205974 0.015094399452 0.011313597672 0.043990124017 0.036510236561 0.027502793819 0.040018409491 
0.031710922718 0.023304542527 0.055774845183 0.05757369101 0.058416564018 0.081855222583 0.086511142552 -0.00040064385394 -0.0017479337985 
-0.00067550857784 0.0020971936174 0.0077519500628 0.00077925896039 0.06592040509 0.059557393193 0.047455221415 0.043641537428 0.039166036993 
0.036023952067 0.026365175843 0.023497447371 0.0045211045071 0.012073486112 0.046441733837 0.051179569215 0.058555800468 0.047261439264 
0.041483495384 0.042387183756 
Stress_Y 1 1064 double
-0.10566776246 -0.072711519897 -0.049769468606 -0.16364309192 -0.11533679813 -0.021952295676 -0.077557817101 -0.14364758134 -0.12366737425 
-0.1266528517 -0.12749601901 -0.12164077908 -0.11551505327 -0.11473796517 -0.11529913545 -0.11669050902 -0.11689058691 -0.1307117641 
-0.078286938369 -0.067970395088 -0.11897968501 -0.10698992759 -0.10899803787 -0.1132837683 -0.13281038404 -0.12905712426 -0.10314001143 
-0.099124260247 -0.10022654384 -0.10056519508 -0.10375589132 -0.10566002131 -0.1063966006 -0.11090272665 -0.11560869962 -0.12019327283 
-0.11682112515 -0.10690245777 -0.10488279909 -0.1008926779 -0.083095178008 -0.06900241226 -0.052978370339 -0.044812507927 -0.0411616005 
-0.036967612803 -0.04938083142 -0.057197306305 -0.057331431657 -0.060360405594 -0.058150216937 -0.052409939468 -0.036985903978 -0.022984428331 
-0.023824790493 -0.035984717309 -0.038666214794 -0.036668531597 -0.047491233796 -0.059752799571 -0.061084073037 -0.060643956065 -0.061078801751 
-0.058821633458 -0.06159093976 -0.073303557932 -0.076656937599 -0.092486530542 -0.1016420275 -0.09740652144 -0.075764447451 -0.047776438296 
-0.044955693185 -0.047689504921 -0.053383931518 -0.080935291946 -0.075080215931 -0.027666566893 -0.01314802561 -0.011684774421 -0.0018976175925 
-0.016289558262 -0.039407212287 -0.058141645044 -0.067243985832 -0.073359437287 -0.08235552907 -0.083258055151 -0.094435371459 -0.10191846639 
-0.092544704676 -0.077863305807 -0.069887854159 -0.057575330138 -0.035436652601 -0.032877255231 -0.036959607154 -0.037729624659 -0.03877812624 
-0.051897179335 -0.11803325266 -0.11217749119 -0.14455533028 -0.14499630034 -0.12156334519 -0.1554441452 -0.19387194514 -0.20058399439 
-0.19319468737 -0.17949521542 -0.15464289486 -0.1285545826 -0.11863402277 -0.11992153525 -0.12330366671 -0.12663178146 -0.12154850364 
-0.10144994408 -0.094423428178 -0.096723549068 -0.09669212997 -0.10226348788 -0.11675496399 -0.13847230375 -0.1314509213 -0.1092113331 
-0.10761237144 -0.1161910519 -0.12661388516 -0.13699351251 -0.13949689269 -0.14017745852 -0.14728651941 -0.15472985804 -0.15556718409 
-0.13649307191 -0.11209561676 -0.091679759324 -0.079547911882 -0.071590669453 -0.086755283177 -0.11335472018 -0.047589298338 -0.045495901257 
-0.048310287297 -0.055444270372 -0.059597618878 -0.059855431318 -0.058180231601 -0.05393082276 -0.049099605531 -0.03854425624 -0.029567675665 
-0.029685487971 -0.032920304686 -0.036531485617 -0.041813660413 -0.048752933741 -0.05469622463 -0.060795612633 -0.063533402979 -0.065881222486 
-0.067482359707 -0.069696180522 -0.068588793278 -0.086865007877 -0.090934060514 -0.089766345918 -0.07629853487 -0.056726146489 -0.043775964528 
-0.041302811354 -0.044070571661 -0.052842609584 -0.045468859375 -0.02768259123 -0.019158640876 -0.016463562846 -0.018698051572 -0.023950178176 
-0.03898859024 -0.057062845677 -0.07131844759 -0.080349639058 -0.0832618922 -0.083724811673 -0.085487700999 -0.082900598645 -0.07652849704 
-0.069735117257 -0.061901863664 -0.054433416575 -0.046498604119 -0.042252708226 -0.041478678584 -0.043299183249 -0.046163357794 -0.049052532762 
-0.04965473339 -0.078140869737 -0.072638623416 -0.10594835132 -0.11910396814 -0.12968029082 -0.1472607851 -0.15646576881 -0.15125074983 
-0.14029073715 -0.12124376744 -0.096948049963 -0.086466014385 -0.088028885424 -0.090551137924 -0.095900475979 -0.094080269337 -0.091094896197 
-0.088932178915 -0.086640879512 -0.084822438657 -0.085526540875 -0.085915535688 -0.092889785767 -0.084016248584 -0.083025120199 -0.088993318379 
-0.096533998847 -0.10574408621 -0.11113151163 -0.11257885396 -0.11529839039 -0.11385415494 -0.10615574569 -0.092824719846 -0.07686085254 
-0.067182429135 -0.058578696102 -0.06031486392 -0.070231847465 -0.091127231717 -0.11088062078 -0.096865013242 -0.09381339699 -0.063430480659 
-0.073554374278 -0.072768323123 -0.071885883808 -0.064734436572 -0.052302423865 -0.039350874722 -0.036346130073 -0.035215947777 -0.031947553158 
-0.021612135693 -0.013732374646 -0.014204449952 -0.018910447136 -0.026488801464 -0.041482221335 -0.052228711545 -0.059145938605 -0.06333553791 
-0.064101427794 -0.066185712814 -0.06556095928 -0.065207473934 -0.063882641494 -0.060618039221 -0.056022197008 -0.049905087799 -0.045218382031 
-0.042940750718 -0.041503868997 -0.041869923472 -0.045507110655 -0.046076599509 -0.045710809529 -0.047788187861 -0.049079373479 -0.050736613572 
-0.05520439893 -0.057025853544 -0.054936971515 -0.053236037493 -0.049765512347 -0.042758621275 -0.035710100085 -0.030587602407 -0.028687037528 
-0.03028732352 -0.032231785357 -0.037528723478 -0.042652569711 -0.0474470146 -0.054879821837 -0.058039985597 -0.062876850367 -0.064451105893 
-0.063225708902 -0.063180476427 -0.062676340342 -0.05698114261 -0.05271781981 -0.059894647449 -0.034968476743 -0.050165574998 -0.070497892797 
-0.074257969856 -0.072539292276 -0.069353654981 -0.070275872946 -0.074136227369 -0.079306386411 -0.084763072431 -0.089158564806 -0.090581186116 
-0.089357338846 -0.085803739727 -0.079773239791 -0.070930242538 -0.060423113406 -0.047561470419 -0.039248391986 -0.040589760989 -0.066841326654 
-0.089804857969 -0.08741941303 -0.092313878238 -0.09803711623 -0.10736254603 -0.11345466971 -0.1136861816 -0.10820189118 -0.098437681794 
-0.079042650759 -0.066045098007 -0.064944349229 -0.068416915834 -0.07559363544 -0.078744463623 -0.078598089516 -0.079447135329 -0.079941615462 
-0.078144699335 -0.079084604979 -0.082104094326 -0.081477530301 -0.074986428022 -0.058046881109 -0.053614370525 -0.080475643277 -0.073690675199 
-0.047264315188 -0.048937872052 -0.054270360619 -0.049744792283 -0.044543642551 -0.034843672067 -0.029300697148 -0.032330852002 -0.03374055028 
-0.037105277181 -0.037040565163 -0.031654555351 -0.021719539538 -0.011130793951 -0.0096242269501 -0.011745730415 -0.017566172406 -0.023099631071 
-0.038921285421 -0.05109186098 -0.051445979625 -0.053329773247 -0.053618423641 -0.054907690734 -0.05479741469 -0.056004684418 -0.055633589625 
-0.053085483611 -0.051466919482 -0.047154869884 -0.043045729399 -0.041073348373 -0.039371617138 -0.039350546896 -0.041344814003 -0.037110272795 
-0.039631199092 -0.043279536068 -0.048749435693 -0.051962923259 -0.054662518203 -0.054469350725 -0.052425839007 -0.049322854728 -0.043996516615 
-0.035941958427 -0.030179586262 -0.028045509011 -0.026009092107 -0.028952058405 -0.03123367019 -0.027814144269 -0.043229997158 -0.049883536994 
-0.054127335548 -0.057704877108 -0.060384180397 -0.058045595884 -0.059251397848 -0.056930780411 -0.054370496422 -0.053001690656 -0.05118073523 
-0.05073717609 -0.040488105267 -0.039311494678 -0.035363018513 -0.030627219006 -0.02476041019 -0.051221936941 -0.053209319711 -0.051507193595 
-0.052592422813 -0.051356092095 -0.041112318635 -0.034068614244 -0.029131209478 -0.027939882129 -0.029702518135 -0.022614369169 -0.035926047713 
-0.039546448737 -0.054443657398 -0.056801274419 -0.058533284813 -0.062309138477 -0.066686138511 -0.07068348676 -0.07353695482 -0.075894646347 
-0.073389068246 -0.072169773281 -0.073005266488 -0.069755882025 -0.067267559469 -0.062701709569 -0.051209107041 -0.040894776583 -0.035623867065 
-0.034193087369 -0.026988595724 -0.022531667724 -0.027109568939 -0.046257469803 -0.063280448318 -0.068905435503 -0.064242050052 -0.062749549747 
-0.061737436801 -0.063847057521 -0.070661336184 -0.073716364801 -0.07669236511 -0.081820137799 -0.087660692632 -0.092339813709 -0.094023287296 
-0.09195560962 -0.082040548325 -0.067568838596 -0.049886595458 -0.057592526078 -0.066662050784 -0.071005508304 -0.071409419179 -0.071197725832 
-0.070438601077 -0.071373961866 -0.073293551803 -0.074924178421 -0.078951209784 -0.08056384325 -0.06788340956 -0.059047278017 -0.047453571111 
-0.039308048785 -0.045511413366 -0.045514006168 -0.026083720848 -0.026788003743 -0.029252428561 -0.027508534491 -0.026733377948 -0.011159102432 
-0.0025780512951 -0.0061923176982 -0.010122101754 -0.015473274514 -0.020743334666 -0.026586927474 -0.039563119411 -0.047416321933 -0.049044072628 
-0.047630209476 -0.047996878624 -0.046665009111 -0.049748688936 -0.050574041903 -0.047544430941 -0.047526527196 -0.043394658715 -0.041502866894 
-0.038399327546 -0.037836030126 -0.037289105356 -0.034765157849 -0.037671241909 -0.040887285024 -0.04657099396 -0.049372710288 -0.051556989551 
-0.051198985428 -0.049446772784 -0.045721940696 -0.039333824068 -0.030496980995 -0.024204690009 -0.027355181053 -0.025429463014 -0.026384992525 
-0.0270083379 -0.026733065024 -0.030326372012 -0.028965536505 -0.030548201874 -0.031970422715 -0.039417743683 -0.044910158962 -0.05197064206 
-0.055681671947 -0.055206470191 -0.052806969732 -0.031555183232 -0.038729153574 -0.025781618431 -0.023375988007 -0.02434334904 -0.022286064923 
-0.02144950442 -0.027221400291 -0.016208451241 -0.0018948675133 -0.00088099529967 -0.0029712661635 -0.0056758425198 -0.0096748266369 -0.016923680902 
-0.018211780116 -0.021088987589 -0.042236588895 -0.04339427501 -0.044344037771 -0.044290754944 -0.041973598301 -0.041814040393 -0.045045387 
-0.043531488627 -0.042782146484 -0.04046408087 -0.039293147624 -0.037634894252 -0.03570997715 -0.032749641687 -0.029048750177 -0.029218854383 
-0.027461329475 -0.024270672351 -0.031535323709 -0.033892203122 -0.03993370384 -0.043928988278 -0.046168688685 -0.049219090492 -0.048660136759 
-0.045742407441 -0.04232769087 -0.032201383263 -0.024353103712 -0.020261799917 -0.025707058609 -0.024216094986 -0.021986978129 -0.02371674031 
-0.02496509999 -0.026665534824 -0.026424709707 -0.027549386024 -0.028403514996 -0.026784863323 -0.037676855922 -0.043505631387 -0.048225846142 
-0.0541783683 -0.047852564603 -0.051648780704 -0.038626536727 -0.042120005935 -0.047464173287 -0.053792018443 -0.059251062572 -0.062338449061 
-0.063334591687 -0.062641851604 -0.060060914606 -0.062795005739 -0.067610427737 -0.068742826581 -0.067482307553 -0.063618682325 -0.055022604764 
-0.045607849956 -0.03780445084 -0.035563450307 -0.03068468906 -0.026461264119 -0.021749293432 -0.022167112678 -0.029044896364 -0.038577165455 
-0.047452412546 -0.0493549034 -0.047950319946 -0.044844120741 -0.047838710248 -0.05438074097 -0.061831075698 -0.066527187824 -0.070307865739 
-0.074195563793 -0.077425263822 -0.08080624789 -0.081413254142 -0.076087594032 -0.0655830428 -0.050633080304 -0.040106199682 -0.033937692642 
-0.029907284304 -0.032150600106 -0.040807779878 -0.052893579006 -0.064553618431 -0.069285832345 -0.066134691238 -0.062031138688 -0.060418382287 
-0.062454946339 -0.06374873966 -0.064914487302 -0.067777216434 -0.070404015481 -0.065048851073 -0.057233810425 -0.050169777125 -0.044584993273 
-0.038504719734 -0.031447704881 -0.011592650786 0.0011253573466 -0.0012770665344 -0.005617341958 -0.0071460884064 -0.010283171199 -0.015154848807 
-0.015243349597 -0.015157792717 -0.030490813777 -0.037553038448 -0.041839256883 -0.04050385952 -0.041043076664 -0.039282508194 -0.038220752031 
-0.039791159332 -0.036835130304 -0.034494534135 -0.033662125468 -0.03221726045 -0.030240492895 -0.025079160929 -0.025915816426 -0.02691619657 
-0.023472964764 -0.019366195425 -0.025526085868 -0.029943378642 -0.029778618366 -0.036219742149 -0.038393687457 -0.041340351105 -0.043360091746 
-0.043860435486 -0.044887237251 -0.0420707874 -0.03666805476 -0.028915109113 -0.025469047949 -0.022781781852 -0.021301638335 -0.024287046865 
-0.041671141982 -0.043955229223 -0.027288042009 -0.029608886689 -0.027452996001 -0.030440166593 -0.022129194811 -0.033575952053 -0.028800666332 
-0.03396178782 -0.042035479099 -0.049039203674 -0.052907969803 -0.054294850677 -0.05397984013 -0.051828753203 -0.051498740911 -0.056781098247 
-0.065288737416 -0.067620500922 -0.06444530189 -0.060308005661 -0.043042957783 -0.036964543164 -0.036601737142 -0.032276209444 -0.029603211209 
-0.022322831675 -0.020221652463 -0.027646133676 -0.030304627493 -0.034958913922 -0.039330322295 -0.042754247785 -0.039334814996 -0.037477567792 
-0.037503954023 -0.045326385647 -0.052792634815 -0.058851215988 -0.063188463449 -0.066952735186 -0.068794794381 -0.068372547626 -0.065140113235 
-0.057534873486 -0.046510495245 -0.035099700093 -0.027587976307 -0.024574540555 -0.025975350291 -0.026124017313 -0.026503009722 -0.028736744076 
-0.032697748393 -0.049319665879 -0.065216183662 -0.065091006458 -0.059767149389 -0.055473819375 -0.055186927319 -0.056574076414 -0.057213183492 
-0.057898879051 -0.057934612036 -0.058303534985 -0.058540415019 -0.052705470473 -0.049239914864 -0.042875424027 -0.035754993558 -0.05008046329 
-0.050872422755 -0.053019870073 -0.051371369511 -0.053202819079 -0.05075545609 -0.050471670926 -0.042323473841 -0.031973805279 -0.022857407108 
-0.025825820863 -0.02725950256 -0.024203348905 -0.026545763016 -0.024170193821 -0.028284775093 -0.021154180169 -0.019565412775 -0.017407376319 
-0.032222721726 -0.040762417018 -0.045928690583 -0.047852516174 -0.047483071685 -0.047618068755 -0.045684963465 -0.044635158032 -0.050916090608 
-0.061636202037 -0.063551150262 -0.055010944605 -0.051760546863 -0.034533377737 -0.032518897206 -0.030152710155 -0.025935215876 -0.026940880343 
-0.020389990881 -0.02148786746 -0.028604272753 -0.032499890774 -0.035276189446 -0.036276429892 -0.038046821952 -0.033243048936 -0.03276207298 
-0.039003770798 -0.046794410795 -0.054429095238 -0.060237698257 -0.060948941857 -0.059535510838 -0.04746844247 -0.040584657341 -0.035571757704 
-0.026470458135 -0.019422609359 -0.018141839653 -0.018929034472 -0.024117335677 -0.024662325159 -0.057536114007 -0.034340690821 -0.044085986912 
-0.0228728652 -0.032135766 -0.041472185403 -0.048370201141 -0.04985839501 -0.05057502538 -0.051121987402 -0.05346666649 -0.055162973702 
-0.053459174931 -0.0045122904703 -0.0022766182665 -0.0081640509889 -0.010124611668 -0.013768796809 -0.016276899725 -0.013647371903 -0.01336177066 
-0.027381852269 -0.048721373081 -0.056958157569 -0.054527327418 -0.042249854654 -0.040017522871 -0.041483033448 -0.038705255836 -0.038431584835 
-0.033561754972 -0.034697622061 -0.038650125265 -0.035084076226 -0.032727971673 -0.032222736627 -0.031193837523 -0.029879450798 -0.027105061337 
-0.023989036679 -0.027481349185 -0.027847561985 -0.015543153509 -0.023092592135 -0.026140350848 -0.025965070352 -0.029282128438 -0.03240923211 
-0.033269900829 -0.038357913494 -0.055616397411 -0.022422334179 -0.028145000339 -0.026072282344 -0.028587605804 -0.025731215253 -0.02473565191 
-0.027052955702 -0.042013175786 -0.055233180523 -0.059998463839 -0.051260009408 -0.051988925785 -0.05132099241 -0.039181061089 -0.041623864323 
-0.047998480499 -0.047630321234 -0.047067094594 -0.045955702662 -0.03354857862 -0.020192284137 -0.037147946656 -0.033020924777 -0.028727378696 
-0.025281338021 -0.023930920288 -0.055211316794 -0.051609184593 -0.029400736094 -0.0361270383 -0.029991446063 -0.028861992061 -0.039542544633 
-0.044871725142 -0.048558253795 -0.051465269178 -0.053090702742 -0.054592069238 -0.050458241254 -0.04731072858 -0.033842094243 -0.025581328198 
-0.030190128833 -0.022870820016 -0.012890395708 -0.060563955456 -0.047365903854 -0.044590748847 -0.040133714676 -0.034758336842 -0.029031317681 
-0.033390764147 -0.03769267723 -0.035081747919 -0.034038618207 -0.034104648978 -0.032925367355 -0.023256056011 -0.021911408752 -0.026278289035 
-0.026171388105 -0.030219968408 -0.0047478685156 -0.0078182537109 -0.012986921705 -0.018208002672 -0.020500712097 -0.016711000353 -0.014138719998 
-0.022765181959 -0.042382437736 -0.023853510618 -0.035047695041 -0.030940694734 -0.027960252017 -0.022807676345 -0.016174359247 -0.014055019245 
-0.014701066539 -0.0096611334011 -0.025626791641 -0.038969594985 -0.037019975483 -0.033194571733 -0.030479712412 -0.021876245737 -0.020220739767 
-0.012540304102 -0.035623110831 -0.035416074097 -0.035967215896 -0.039311785251 -0.037624128163 -0.034544996917 -0.035511333495 -0.037015981972 
-0.033210303634 -0.030210405588 -0.035635605454 -0.042690750211 -0.053346157074 -0.055478930473 -0.05959828198 -0.056975845248 -0.038715627044 
-0.028659310192 -0.03662706539 -0.046681083739 -0.036526661366 -0.043777894229 -0.042278163135 -0.029562927783 -0.042144730687 -0.041010376066 
-0.05084849149 -0.043485801667 -0.025813799351 -0.022859157994 -0.030583892018 -0.040800377727 -0.040760859847 -0.041233520955 -0.042038496584 
-0.040471304208 -0.025843547657 -0.01312746387 -0.0063885068521 -0.010131395422 -0.030933631584 -0.032798297703 -0.034076802433 -0.033846616745 
-0.01572644338 -0.021189063787 -0.024225424975 -0.024323541671 -0.021180443466 -0.095782771707 -0.09168921411 -0.081235520542 -0.11114688963 
-0.10271033645 -0.10010938346 -0.025166874751 -0.03116100654 -0.025257373229 -0.054728846997 -0.041488625109 -0.027754137293 -0.021604431793 
-0.021664010361 -0.026952233166 -0.030877454206 -0.02359858714 -0.019542954862 -0.019703364 -0.024919796735 -0.02843513526 -0.030227009207 
-0.03129792586 -0.034099206328 -0.036515079439 -0.054998926818 -0.05104310438 -0.024498576298 -0.024622045457 -0.032284844667 -0.025188589469 
-0.029992463067 -0.024579463527 
Stress_Z 1 1064 double
0.045059423894 0.093192242086 0.047031614929 0.11460959166 0.1027918905 0.083882451057 0.049578454345 0.094896547496 0.09151763469 
0.080785669386 0.06182365492 0.034011438489 0.011239781044 -0.003260437632 -0.0092203402892 -0.011133920401 -0.0088097415864 0.0069096679799 
-0.008560616523 -0.0068791620433 0.029989209026 0.0407326594 0.056426651776 0.080330178142 0.1123714149 0.10931274295 0.084846548736 
0.074205212295 0.070523321629 0.064811438322 0.057858150452 0.042378462851 0.027885511518 0.016159968451 0.0067686815746 0.0021080491133 
-0.0017225100892 -0.0041874055751 -0.0021394263022 0.0022707160097 -0.0041970629245 -0.0054649664089 0.0076443408616 0.002519230824 -0.00014265427308 
-0.007711367216 -0.0092255873606 -0.013075715862 -0.020029425621 -0.021149830893 -0.016387119889 -0.011379646137 -0.0079199308529 -0.013065245934 
-0.01300377585 -0.004647505004 0.0074186571874 0.015333559364 0.029385622591 0.045083556324 0.055123690516 0.054835248739 0.045788589865 
0.034896168858 0.028800431639 0.033923968673 0.027161300182 0.031868875027 0.026823507622 0.024646881968 0.021274250001 0.017020698637 
0.020717764273 0.021616248414 0.018391679972 0.030055923387 0.037096314132 0.0046583586372 0.017405631021 0.034665945917 0.055364843458 
0.049548111856 0.06473852694 0.083871863782 0.09982984513 0.1111401543 0.084466651082 0.070894084871 0.083400987089 0.096874810755 
0.093822173774 0.082563847303 0.072306938469 0.059442710131 0.040617261082 0.031301230192 0.023386206478 0.015830472112 0.0095012066886 
0.011527898721 0.066810548306 0.080122217536 0.11130609363 0.12832906842 0.10859496146 0.12410648167 0.15247052908 0.14346057177 
0.11871579289 0.093612372875 0.065167948604 0.041222658008 0.028704052791 0.02081043832 0.015774898231 0.015095528215 0.012470074929 
0.0044247764163 0.017635717988 0.028647366911 0.04478270188 0.068436518312 0.088936254382 0.099851250648 0.095368087292 0.086312055588 
0.078109204769 0.072380684316 0.070011399686 0.063601657748 0.053458925337 0.040199697018 0.030189286917 0.02257534489 0.018269628286 
0.0099851367995 0.0043959636241 0.0064699938521 0.0040333117358 0.0093421433121 0.029308320954 0.057248495519 0.0093401642516 0.0078345350921 
0.0092312004417 0.0080664651468 0.0051802792586 0.0062798131257 0.0081996675581 0.010602826253 0.015524100512 0.015757793561 0.018443431705 
0.021961936727 0.026164116338 0.028566151857 0.035686027259 0.045949853957 0.050698578358 0.053933918476 0.056261107326 0.057518586516 
0.055128596723 0.050450798124 0.043952085078 0.042728964239 0.04066875577 0.038053121418 0.032412737608 0.022309212014 0.019550176337 
0.023540159687 0.02827976644 0.03347421065 0.025092082098 0.015935430303 0.014358955435 0.016528487206 0.014077452943 0.014113034122 
0.018994374201 0.029398454353 0.042468965054 0.056050643325 0.063350133598 0.07040604949 0.07298823446 0.06747789681 0.062566645443 
0.056977409869 0.048890281469 0.043032925576 0.035580553114 0.029493946582 0.026285814121 0.023688036948 0.020391376689 0.016118617728 
0.013278779574 0.04678875953 0.043874457479 0.091797873378 0.10625968874 0.11108469218 0.11482372135 0.11138157547 0.091629303992 
0.06808116287 0.049165092409 0.033871363848 0.025904223323 0.023579366505 0.019306838512 0.016915805638 0.015126037411 0.020565476269 
0.029676614329 0.041130747646 0.049244824797 0.06010081619 0.06596146524 0.069101899862 0.062959745526 0.058692533523 0.055957764387 
0.051389236003 0.047304071486 0.041524577886 0.033712491393 0.027182977647 0.020607598126 0.015833234414 0.015555977821 0.014494784176 
0.014391002245 0.014120781794 0.018064830452 0.033740129322 0.041840940714 0.064874209464 0.070850081742 0.08341498673 0.037182152271 
0.042404491454 0.044596012682 0.041685763747 0.030573721975 0.021219743416 0.014385049231 0.018535697833 0.023667432368 0.027834618464 
0.018934085965 0.012574432418 0.01154186856 0.010864638723 0.0099434722215 0.01424669195 0.024600381032 0.040899615735 0.056463509798 
0.067988485098 0.072809726 0.071861080825 0.067036427557 0.062262833118 0.056328862906 0.048888277262 0.041965298355 0.037223313004 
0.032806847245 0.029182326049 0.02606902644 0.023985842243 0.021491946653 0.019287224859 0.017772221938 0.014168098569 0.011514473706 
0.01260856539 0.015474922024 0.018680367619 0.022402344272 0.025871196762 0.026362925768 0.025557681918 0.025572672486 0.028384143487 
0.030236287042 0.033253122121 0.040648728609 0.049544129521 0.054621294141 0.059065829962 0.061575185508 0.060781437904 0.055562436581 
0.047656167299 0.041111648083 0.033497013152 0.029010482132 0.029796017334 0.038858328015 0.032864224166 0.03504223749 0.075816676021 
0.071496337652 0.064538903534 0.059308968484 0.055858124048 0.05252141133 0.048799358308 0.043569710106 0.038040895015 0.033315598965 
0.027175517753 0.020650554448 0.015419197269 0.014547141269 0.017907405272 0.026469472796 0.024754125625 0.019511632621 0.038475692272 
0.05795770511 0.084398135543 0.086561813951 0.086187370121 0.084079146385 0.077242784202 0.066507436335 0.05471034348 0.045006833971 
0.03318290785 0.025112044066 0.020058041438 0.017505308613 0.014661341906 0.013120271266 0.0178697519 0.030456619337 0.042122911662 
0.049885760993 0.058309365064 0.075471229851 0.084647625685 0.086880832911 0.077369607985 0.069630824029 0.075897835195 0.070716172457 
0.022920586169 0.01659473218 0.03951253742 0.035759303719 0.022991869599 0.011922658421 0.0089813405648 0.013563554734 0.019675111398 
0.020945351571 0.025141380727 0.027734829113 0.022606190294 0.012993317097 0.010579268448 0.011514621787 0.013824586757 0.016181245446 
0.026833487675 0.037069961429 0.044189076871 0.056167338043 0.06869251281 0.075025908649 0.075721181929 0.071692556143 0.067156076431 
0.059599779546 0.051303192973 0.045538846403 0.039093665779 0.034981384873 0.031732909381 0.028868183494 0.028351122513 0.021506385878 
0.02152653411 0.01990987733 0.016821291298 0.014447281137 0.017003344372 0.022986188531 0.029043771327 0.033464759588 0.033143512905 
0.030714480206 0.028037866578 0.028917457908 0.030760334805 0.036526709795 0.038031987846 0.039584115148 0.059160038829 0.065401174128 
0.069945469499 0.067099176347 0.058047637343 0.048728078604 0.039047665894 0.032750032842 0.031985204667 0.029041850939 0.025228435174 
0.026927046478 0.029270719737 0.031106477603 0.022209938616 0.011692634784 0.0069151930511 0.038747552782 0.034885481 0.029297742993 
0.028077637777 0.025494748726 0.022415207699 0.02344994247 0.022211309522 0.015447455458 0.012194051407 0.0048702983186 0.054482504725 
0.057617168874 0.0634913221 0.062110729516 0.06003080681 0.058264359832 0.056322965771 0.052861250937 0.047150548548 0.041160479188 
0.034486267716 0.028518117964 0.024110483006 0.018811706454 0.015623516403 0.015617996454 0.018619067967 0.012230131775 0.018690537661 
0.020332491025 0.016229739413 0.015954328701 0.022864237428 0.04032145068 0.05882306397 0.063303403556 0.061807140708 0.06363645941 
0.065876021981 0.069499664009 0.075126603246 0.077374972403 0.076799407601 0.075220383704 0.071903251112 0.065740048885 0.058201175183 
0.050839837641 0.043130300939 0.035899303854 0.025665573776 0.014359807596 0.011056160554 0.009118149057 0.013903015293 0.024889556691 
0.035834293813 0.04496909678 0.054694015533 0.066995091736 0.079846203327 0.086087554693 0.078426256776 0.073890529573 0.073040284216 
0.064936198294 0.016288433224 0.018875841051 0.012712830678 0.013310625218 0.01628398709 0.016871735454 0.017391443253 0.0064490814693 
0.0044899769127 0.0078155072406 0.015256113373 0.021285992116 0.032808471471 0.046096995473 0.052205588669 0.052217252553 0.059463690966 
0.069892607629 0.078591786325 0.078103922307 0.073871709406 0.070159383118 0.063803218305 0.057590339333 0.05028809607 0.045048650354 
0.038731694221 0.036061324179 0.032890990376 0.031656887382 0.020025543869 0.015941914171 0.012900786474 0.012295269407 0.016750652343 
0.02358257398 0.029044674709 0.031312365085 0.031282156706 0.02938481234 0.027656672522 0.033017531037 0.038764905185 0.04347614944 
0.043560005724 0.048545647413 0.055837973952 0.05947887525 0.062015529722 0.064265884459 0.06652264297 0.070195928216 0.074066400528 
0.069403924048 0.054422087967 0.045467343181 0.020111605525 0.027645163238 0.010376356542 0.0098126009107 0.010628024116 0.011320430785 
0.010923284106 0.012804771774 0.0059856502339 -0.00039294938324 -0.0014799238415 0.0095896571875 0.019959710538 0.031927607954 0.048772346228 
0.059746459126 0.057591211051 0.060217957944 0.058895204216 0.070233955979 0.081115342677 0.081554524601 0.077298872173 0.072856098413 
0.069136820734 0.063335672021 0.058127008379 0.053089562804 0.048190072179 0.041133567691 0.035257421434 0.026538232341 0.024729251862 
0.019603582099 0.0139120901 0.012639665976 0.011202292517 0.011537292972 0.0093370266259 0.0082285171375 0.012977323495 0.015425600111 
0.01841516979 0.021276377141 0.019483860582 0.018245246261 0.027095306665 0.039371825755 0.045837335289 0.045853942633 0.049915160984 
0.054489992559 0.059683471918 0.05916877836 0.064450956881 0.065873965621 0.068392708898 0.070181980729 0.072078511119 0.070009082556 
0.063034594059 0.050978526473 0.040249824524 0.06080603227 0.059266924858 0.059572104365 0.058700494468 0.057478390634 0.053924776614 
0.048777144402 0.042070377618 0.035259302706 0.031925208867 0.029348798096 0.025291208178 0.02029887028 0.018004752696 0.013949257322 
0.0080472538248 0.0019405654166 0.008005653508 0.012702586129 0.014837420546 0.013360464945 0.017951698974 0.032003641129 0.046441722661 
0.057921685278 0.061085704714 0.060994848609 0.059781134129 0.063448436558 0.068856097758 0.074171103537 0.07662307471 0.075612358749 
0.071600966156 0.066090516746 0.06164085865 0.055711627007 0.047767996788 0.039347846061 0.031044824049 0.02329146117 0.019903151318 
0.017892295495 0.010276220739 0.0049005961046 0.0073007722385 0.0075547830202 0.0078602721915 0.01219553221 0.020779971033 0.030474152416 
0.040842086077 0.048181187361 0.055250734091 0.063166409731 0.063700482249 0.061715893447 0.062966696918 0.066096462309 0.069189332426 
0.067674078047 0.064774386585 0.0031836605631 -0.004855113104 0.0014884907287 0.013457005844 0.024886157364 0.038539078087 0.054158560932 
0.06363337487 0.064063355327 0.058928217739 0.069481655955 0.081159703434 0.081767454743 0.078933417797 0.075892791152 0.071815550327 
0.066829994321 0.063667058945 0.059389263391 0.053751789033 0.044801622629 0.033922567964 0.028106523678 0.025221709162 0.022560376674 
0.016854939982 0.0097048776224 0.0098659470677 0.0079510640353 0.0034747940954 0.0042592165992 0.0025037715677 0.0019162792014 0.0043213730678 
0.0065859770402 0.0095904460177 0.014923427254 0.01567697525 0.038408506662 0.048250161111 0.051183085889 0.052002225071 0.055747803301 
0.061043214053 0.063859000802 0.058704856783 0.063177257776 0.063225485384 0.068852499127 0.069686949253 0.069955013692 0.06250937283 
0.061869598925 0.061046715826 0.059533659369 0.057809326798 0.055196937174 0.050209816545 0.043019495904 0.036419197917 0.031997859478 
0.031241504475 0.026870796457 0.021520929411 0.017053075135 0.0011820677901 -0.0054382486269 0.0011651861714 0.0040420247242 0.0086618671194 
0.0081064002588 0.012180495076 0.025372704491 0.037228919566 0.048960696906 0.057728618383 0.063759841025 0.062198739499 0.06321465224 
0.064518459141 0.070082075894 0.074627935886 0.077650144696 0.075784079731 0.069520205259 0.061432369053 0.05619231984 0.050388805568 
0.043826188892 0.034900479019 0.027003245428 0.022187240422 0.020567942411 0.019798712805 0.017164392397 0.012772667222 0.0065310965292 
-0.00023622560548 0.0023419798817 0.0090104443952 0.011537088081 0.015743123367 0.023631993681 0.032023377717 0.038216620684 0.043275102973 
0.04914438352 0.049044400454 0.048395570368 0.051625527442 0.055955000222 0.061294872314 0.064920052886 0.067636236548 0.045559234917 
0.0391690135 0.034249559045 0.030237715691 0.031429599971 0.027354771271 0.026076249778 0.023373706266 0.02258232981 0.023859102279 
0.017298519611 0.010555529036 0.0079347183928 0.010104447603 0.0086811967194 0.011625880376 0.0086690913886 0.0097610121593 0.0081951422617 
0.064220383763 0.062756806612 0.060610864311 0.058927517384 0.0574041605 0.054523222148 0.047389641404 0.037626929581 0.029892362654 
0.024876808748 0.020744809881 0.0088854599744 0.0038444292732 0.0003373574873 -0.0029160163831 -0.0014291037805 0.00056364113698 0.0054480829276 
0.0062397215515 0.012523083948 0.025803675875 0.0377282314 0.048418693244 0.055628970265 0.068279802799 0.06832537055 0.069794669747 
0.074184350669 0.079218201339 0.081964872777 0.078896723688 0.069571748376 0.058732237667 0.04932269454 0.044820778072 0.038042150438 
0.028620408848 0.021773880348 0.018847635016 0.017024638131 0.016567485407 0.014041883871 0.054864618927 0.064758211374 0.068769596517 
0.026289524511 0.012819180265 0.069481641054 0.065098851919 0.063407018781 0.0536015369 0.04494073987 0.037911228836 0.036231890321 
0.037528153509 -0.0016063719522 0.00063115608646 0.016051564366 0.028664862737 0.040995493531 0.052532680333 0.065954364836 0.065952040255 
0.061078887433 0.064574226737 0.063409328461 0.066235050559 0.062534473836 0.073848500848 0.080793336034 0.081573672593 0.079196341336 
0.077479578555 0.073389880359 0.068795777857 0.06498645246 0.059748403728 0.052024658769 0.044555667788 0.039939355105 0.033112078905 
0.028190700337 0.027958409861 0.024154158309 0.0066195596009 0.0091399662197 0.0073690870777 0.0039848592132 0.0037413313985 0.0016333925305 
-0.0036973573733 -0.00045350557775 0.043589290231 0.0096131665632 0.012375433929 0.0094171911478 0.014788114466 0.0098427766934 0.002758505987 
-0.00070226500975 0.0061827455647 0.017914753407 0.024493284523 0.020703287795 0.024938795716 0.028149316087 -0.0009128631209 0.0026734001003 
0.0097298193723 0.011231776327 0.017419831827 0.018408047035 0.010406061076 0.016533467919 0.041948650032 0.051156770438 0.056372161955 
0.059249266982 0.060685623437 0.042135890573 0.024991776794 0.062138769776 0.069395206869 0.06588319689 0.065691262484 0.069783940911 
0.064491093159 0.061544459313 0.054710097611 0.042330931872 0.049061831087 0.026881141588 0.02882364206 0.023431219161 0.02092304267 
0.023844759911 0.0094185378402 0.0047262585722 0.069019302726 0.076210826635 0.082450389862 0.081675417721 0.081376127899 0.078564487398 
0.076152764261 0.07197483629 0.064736455679 0.058210674673 0.052574377507 0.049241788685 0.030333662406 0.0044535063207 0.004142371472 
0.0039928518236 0.0019443468191 0.0012045974145 0.012119984254 0.027781713754 0.042044322938 0.053676240146 0.060461178422 0.061521068215 
0.058483302593 0.054813500494 3.6094543248e-06 0.051803857088 0.050010211766 0.043144259602 0.03344168514 0.023198479787 0.017473641783 
0.014639437199 0.0084266364574 0.0029588651378 0.040344480425 0.054949395359 0.064634010196 0.068651892245 0.0043797055259 0.0080946357921 
0.0088813267648 0.039348211139 0.045830264688 0.055088736117 0.061339210719 0.057556148618 0.060908447951 0.068740919232 0.073192968965 
0.0744696334 0.074982389808 0.078867644072 -0.0021907172631 0.006263514515 0.011718600057 0.017420005053 0.026184976101 0.066915236413 
0.064329177141 0.063956774771 0.032825242728 0.032499235123 0.082988798618 0.061428487301 0.058438755572 0.059871222824 0.061978988349 
0.084536008537 0.058208219707 0.0084334667772 0.0027655020822 0.01126133278 0.023410415277 0.021107489243 0.051752835512 0.043601747602 
0.049050990492 0.010504849255 0.011897242628 0.012199999765 0.0015195352025 0.039676621556 0.046865038574 0.052776671946 0.051490150392 
0.025378078222 0.037965089083 0.050403296947 0.055615492165 0.054139148444 0.06606438756 0.068921975791 0.068823859096 0.072093591094 
0.072696886957 0.082882352173 0.0089685507119 0.014061218128 0.0088071599603 0.011670153588 0.0013638798846 0.067210823298 0.063391424716 
0.066267505288 0.067935585976 0.069323971868 0.069311894476 0.0061229327694 0.014475950971 0.033905237913 0.03933531791 0.043989263475 
0.047322776169 0.058437511325 0.061337005347 0.078994229436 0.066636182368 0.031899373978 0.027508107945 0.025178791955 0.028767334297 
0.041960012168 0.03774317354 
Stress_XY 1 1064 double
0.070081554353 0.064566195011 0.0096224686131 0.027656786144 0.020073022693 0.024321105331 0.04630433023 0.037597745657 0.034760884941 
0.031533043832 0.031848095357 0.034867525101 0.036378018558 0.035544268787 0.032120898366 0.02504093945 0.019400708377 0.015798117965 
-0.041313324124 0.040773704648 0.016508009285 -0.0084320465103 -0.023736432195 -0.031855627894 -0.034988757223 -0.025137256831 -0.0093954047188 
-0.0044095609337 -0.00029426321271 0.0037701677065 0.0046256352216 0.004205305595 0.0068725808524 0.011388887651 0.020692197606 0.028194326907 
0.038470230997 0.04502588883 0.053107880056 0.060453955084 0.062640570104 0.058736544102 0.010377832688 0.0083858575672 0.012752908282 
0.0014357616892 -0.0091012017801 -0.0029073476326 -0.0020182258449 -0.00055208709091 0.0056415293366 0.010757176206 0.019399845973 0.017349636182 
0.010356006213 0.0037841028534 0.0059046684764 0.0008565952885 -0.0028228773735 0.0017268020893 0.0060778730549 0.0043398155831 6.8287881732e-05 
-0.0020990695339 -0.0058825840242 -0.013274420984 -0.022025000304 -0.020781248808 -0.030735686421 -0.034585662186 -0.033875145018 -0.01297464408 
0.0068390928209 0.015437686816 0.025895526633 0.030805666 -0.0027180067264 -0.012433935888 -0.00056882534409 0.014220462181 0.033332981169 
0.060715999454 0.060304943472 0.058320134878 0.058569930494 0.071614474058 0.059538375586 0.035146038979 0.030369888991 0.026721240953 
0.024747539312 0.026363817975 0.030980654061 0.039781846106 0.029824199155 0.017451684922 0.010378464125 0.0028402658645 -0.0045171207748 
-0.0061759874225 0.069555073977 0.029557678849 0.011497545987 0.014667441137 0.03124704212 0.049189381301 0.044730152935 0.044188540429 
0.044664766639 0.041307289153 0.030520724133 0.028951447457 0.022323455662 0.024109309539 0.021368719637 0.018051238731 0.0027399547398 
-0.00049693445908 0.014322129078 0.016429670155 0.0097245788202 -0.0022422249895 -0.014282897115 -0.019275046885 -0.010756148957 -0.0028970211279 
-0.0004727091291 0.0030808418524 0.0074118138291 0.0099849589169 0.011913048103 0.014507589862 0.019710466266 0.024675479159 0.03321537748 
0.040966242552 0.039865396917 0.032836638391 0.040140293539 0.050026029348 0.057680334896 0.060163289309 0.0073910783976 0.0059732887894 
0.003118235385 0.00035753750126 0.0014371267753 0.0023600670975 0.003765265923 0.0069238399155 0.012352111749 0.018106276169 0.017446411774 
0.013088358566 0.0093846321106 0.0087110996246 0.0072892154567 0.0052432976663 0.0068185906857 0.0097841769457 0.0090593704954 0.0048114014789 
0.0011387396371 -0.0041701956652 -0.0095382193103 -0.019210385159 -0.023224025965 -0.017131373286 -0.0069808107801 0.0052930586971 0.011713974178 
0.014767633751 0.017280904576 0.014512471855 0.00176678563 0.0014739052858 0.0025139972568 0.0078898435459 0.015989324078 0.026602646336 
0.039559945464 0.048255689442 0.056587941945 0.062429349869 0.056983292103 0.041720494628 0.027360061184 0.016191171482 0.014057123102 
0.017415892333 0.020921045914 0.022834625095 0.019892767072 0.013324246742 0.007307743188 0.0031302622519 0.00087923562387 0.00072351965355 
0.0053541432135 -0.011831194162 -0.015147907659 0.020369641483 0.029749983922 0.036933831871 0.04048877582 0.035111390054 0.031444240361 
0.028959468007 0.025786003098 0.019870480523 0.016830250621 0.017155995592 0.014430454932 0.010609307326 0.0060768183321 0.0033599655144 
0.00076640525367 0.0026180087589 0.0024958408903 -0.0036625156645 -0.017035273835 -0.011051511392 -0.0057701724581 -0.0034858903382 -0.0031954518054 
-0.0009556048899 0.0023021074012 0.0071321888827 0.010800734162 0.014968636446 0.019568622112 0.026155564934 0.029545938596 0.02411619015 
0.030413066968 0.030567282811 0.030769888312 0.041149359196 0.053437955678 0.042383585125 -0.020028250292 -0.023277875036 -0.01043638587 
-0.015058971941 -0.014775470831 -0.012309205718 -0.0021436393727 0.0085385078564 0.014017639682 0.015993220732 0.011158493347 0.007869890891 
0.0044015678577 0.003404593328 0.0030479098205 0.0049952254631 0.010793045163 0.020469300449 0.036983396858 0.046533789486 0.047842904925 
0.044691707939 0.036820612848 0.026611115783 0.015090410598 0.011276574805 0.014002207667 0.014846469276 0.013510853052 0.010660103522 
0.0073224077933 0.0036750670988 0.0017432487803 0.0022529049311 0.0018450234784 0.004124165047 0.0058259093203 0.0059207249433 0.0057104788721 
0.0053740791045 0.0066313520074 0.0059465225786 0.0061757816002 0.0083949742839 0.013754662126 0.017914982513 0.017579168081 0.01564745605 
0.013474510983 0.011287632398 0.01028104499 0.0093168336898 0.01154057961 0.011528582312 0.0095663471147 0.0059632486664 0.0019428640371 
-0.0024060930591 -0.005815055687 -0.0076168747619 -0.0049497713335 -0.0034855420236 -0.007474116981 0.019008828327 0.016404559836 -0.021767569706 
-0.01792238839 -0.013326877728 -0.0092687970027 -0.0073951771483 -0.0068728234619 -0.0061441650614 -0.0038362424821 0.00032023168751 0.0051000681706 
0.010835956782 0.015571020544 0.017800483853 0.018192334101 0.020363572985 0.020238889381 0.025987913832 0.04107831046 0.057765316218 
0.046067830175 0.018180169165 0.020394582301 0.024660745636 0.028737476096 0.028902374208 0.026289302856 0.024029748514 0.022358700633 
0.01868689619 0.016457583755 0.0082310736179 0.0075048524886 0.006067391485 0.0048555866815 0.0044777840376 0.0047696274705 0.0042411969043 
0.0031876023859 0.002586961491 -0.005680016242 -0.013057508506 -0.019322626293 -0.024248914793 -0.024546323344 0.018699405715 0.023127939552 
0.017985336483 0.014669554308 -0.0058960136957 -0.0036174221896 0.0036758959759 0.010598340072 0.012259518728 0.0094847185537 0.012539643794 
0.011263217777 0.013780280948 0.014972979203 0.011483934708 0.0054033086635 0.0026104780845 0.003938856069 0.0025984246749 0.00645147264 
0.016258209944 0.031402889639 0.04135299474 0.042249742895 0.037508059293 0.030571473762 0.023517759517 0.016861835495 0.013799447566 
0.013683203608 0.011648626067 0.0087300771847 0.0054195192643 0.0024796940852 -0.00035586254671 -0.0011620653095 -0.0010687122121 0.0045917867683 
0.0049974289723 0.0060208668001 0.0076588466763 0.0097156632692 0.0091347042471 0.0081406543031 0.0065518962219 0.0070546939969 0.010043903254 
0.014134645462 0.016659740359 0.016870105639 0.012520605698 0.011691153981 0.011010457762 0.0097936587408 0.010271885432 0.010747728869 
0.0056628868915 0.00041234950186 -0.0024884201121 -0.0045819357038 -0.0045534325764 -0.0034946303349 -0.0013338068966 0.0022447495721 0.0032428354025 
0.0013154478511 -0.0048857494257 -0.0039992989041 0.0032079261728 0.0094070574269 0.011912314221 -0.0018202540232 0.0013219251996 0.0036710260902 
0.007922494784 0.0058129760437 0.004005973693 0.0021762209944 0.0010277599795 0.0052717169747 0.010758901015 0.011190158315 0.0085586067289 
0.0068601537496 -0.022170104086 -0.019801234826 -0.015880243853 -0.012559549883 -0.01082008332 -0.0095517495647 -0.0077905477956 -0.0042496048845 
0.0024695466273 0.0086835324764 0.012765162624 0.013786749914 0.012986443937 0.011996644549 0.01343447715 0.011785986833 0.012659456581 
0.011902876198 0.017580496147 0.026361143216 0.03978267312 0.044199712574 0.042373672128 0.037584125996 0.030384924263 0.026526128873 
0.025376845151 0.023694694042 0.019092554227 0.017344377935 0.017533920705 0.018759943545 0.020948242396 0.023796055466 0.025628611445 
0.025252955034 0.023553552106 0.019984833896 0.011137311347 0.00085201160982 0.0015072636306 0.0037439817097 0.0077553791925 0.010552261025 
0.011091793887 0.0097746774554 0.0082554928958 0.005074785091 0.0017101888079 -0.0045290500857 -0.01576634869 -0.018992023543 -0.023621279746 
-0.024517450482 0.0062396870926 0.008759887889 0.010514188558 0.0085885673761 0.0097000813112 0.01023985073 0.0084670502692 0.0038073861506 
0.0025489802938 0.0043403687887 0.0064207292162 0.005778611172 0.0089087337255 0.01933240518 0.029221555218 0.034535940737 0.036401458085 
0.033657051623 0.026165349409 0.021258261055 0.016631253064 0.016159767285 0.013815619051 0.010214066133 0.0072676222771 0.0034938852768 
-0.00065609253943 -0.0026368154213 -0.0017057936639 0.0043089417741 0.0077151735313 0.0089755803347 0.0096058333293 0.011114615016 0.010581820272 
0.00871865917 0.0072862226516 0.0077534173615 0.011187114753 0.012960306369 0.015963725746 0.013250203803 0.0068060695194 0.0060222493485 
0.010069197975 0.0090423328802 0.0054692137055 0.0033055674285 0.005725139752 0.01076928433 0.010372013785 0.0095081012696 0.0034631353337 
-0.0038355272263 -0.0043869186193 -0.0040366305038 0.00028230680618 0.004577470012 0.011313722469 0.0092844786122 0.0086676217616 0.0073568816297 
0.0059603173286 0.0051170331426 0.0042082197033 -0.0010980727384 0.00033682328649 0.0050176400691 0.0084400624037 0.0083796577528 0.0097976122051 
0.015394791029 0.016432367265 0.021700439975 0.027709569782 0.026298267767 0.021447880194 0.019334450364 0.017746144906 0.016144521534 
0.012487935834 0.010495483875 0.0079345582053 0.0040253275074 0.00065078947227 -0.00054364692187 0.00099626323208 0.0022134261671 0.0035088262521 
0.0032046569977 0.0046745487489 0.0053307199851 0.0057618133724 0.0097217205912 0.01048604399 0.012732318603 0.011311133392 0.0092570744455 
0.0098308892921 0.013391153887 0.011029290967 0.019425988197 0.016049833968 0.010352236219 0.0045707738027 0.0030026363675 0.0070329923183 
0.007179800421 0.003990732599 0.0026437898632 0.0023642538581 0.00862268731 0.0088153574616 0.011695798486 0.0071508949623 0.0015160260955 
-0.0060585532337 -0.0024640634656 -0.0025936136954 -0.022669896483 -0.020509071648 -0.017129074782 -0.01447902061 -0.012804165483 -0.01131337788 
-0.0095245223492 -0.0061566820368 -0.00014277279843 0.0071902498603 0.011961675249 0.013284784742 0.013088782318 0.013328869827 0.01224669721 
0.012758453377 0.016165431589 0.011301422492 0.011356621049 0.012469786219 0.013408878818 0.018345277756 0.026624210179 0.029225016013 
0.029380060732 0.028213331476 0.026482595131 0.024842584506 0.025907712057 0.02467854321 0.021426143125 0.019055463374 0.018153060228 
0.01794718951 0.018564550206 0.021668266505 0.026472631842 0.028670689091 0.026712045074 0.02038763836 0.013122452423 0.0096427667886 
0.0082541555166 0.0076321787201 0.0033693506848 -0.0033075565007 -0.00039187105722 0.0058420207351 0.011644216254 0.014777071774 0.014201348647 
0.012237293646 0.010068343952 0.010169052519 0.007462923415 0.00066368898842 -0.0037366987672 -0.011775663123 -0.015348865651 -0.018376724795 
-0.024231776595 -0.021343247965 0.00093381514307 0.0018160725012 -0.00037630146835 0.0025569903664 0.0044089956209 0.005717094522 0.0086509231478 
0.010803069919 0.01415285375 0.014518082142 0.026330636814 0.021307062358 0.019301734865 0.019709436223 0.015214893036 0.012002591044 
0.010172910988 0.0071432869881 0.0035158274695 0.0024603975471 0.0017933971249 0.0017725992948 0.0016834479757 0.0017422150122 0.0013820546446 
0.003496135585 0.003971580416 0.0060045323335 0.0048515759408 0.0072386930697 0.0084168026224 0.012335042469 0.012784501538 0.012674683705 
0.015211397782 0.014422502369 0.012911530212 0.02087514475 0.013213442639 0.0088641708717 0.0046252771281 0.0023647085764 0.0040926001966 
0.025637114421 0.015400785953 0.0027594952844 0.0022969176061 0.0018550948007 0.0011617373675 0.01158254873 0.012976701371 -0.018173979595 
-0.014315578155 -0.01047393959 -0.010229184292 -0.0095426412299 -0.0077450145036 -0.0061512845568 -0.0044787866063 -4.8378413339e-05 0.0074653280899 
0.012195206247 0.013303962536 0.014077087864 0.018095485866 0.021583013237 0.01583446376 0.018195865676 0.012343616225 0.0088058421388 
0.0097539750859 0.014491405338 0.01178119611 0.01478760317 0.016770005226 0.014505111612 0.015612176619 0.017792811617 0.020799353719 
0.023601820692 0.023477353156 0.021450549364 0.01962852478 0.018683843315 0.016967950389 0.019618006423 0.024309691042 0.028056005016 
0.028658531606 0.026675373316 0.021756241098 0.014884070493 0.010905265808 0.0097493175417 0.0082498760894 0.0086728241295 0.0071362154558 
0.0044376836158 0.00042227038648 0.00048105878523 0.0092720407993 0.013778964058 0.013884363696 0.013478631154 0.01142297592 0.0095549011603 
0.0081171896309 0.0081400768831 -0.00097184139304 -0.0024214491714 -0.005331912078 -0.0092194695026 -0.013769334182 -0.022104732692 -0.0029808294494 
-0.00085141143063 0.0027548684739 0.0070179076865 0.011067491025 0.0089188944548 0.0085678389296 0.007734191604 0.0055145695806 0.003616621485 
0.0068297716789 0.011134484783 0.011043386534 0.010566083714 0.0098455483094 0.010132709518 0.0085130175576 0.0069751269184 0.003316184273 
-0.0069218245335 -0.0029585917946 -0.0047188736498 -0.0040782489814 -0.0015585582005 -0.00021206861129 -0.00043215302867 0.0024130258244 0.0079940212891 
0.011422549374 0.016399728134 0.01631343551 0.01684628427 0.014069997706 0.013826735318 0.014052729122 0.013239639811 0.0097322687507 
0.0026880081277 0.0068359179422 0.010033670813 0.010326017626 0.0091832596809 0.011429416947 0.01136759948 0.016307109967 0.019359149039 
0.019548548386 0.018456220627 0.01656899415 0.014966201968 0.016222180799 0.018019871786 0.023191297427 0.022480953485 0.022014711052 
0.01880270429 0.014921214432 0.010545818135 0.0083645824343 0.0087521616369 0.009384910576 0.021456688643 0.0073960176669 -0.00080020306632 
0.021100351587 0.017632870004 0.0041008321568 -0.0046496465802 -0.0038294366095 -0.0087172687054 -0.0023679647129 0.00082624575589 0.0035622203723 
0.01026869379 0.0026259883307 0.003790717572 0.0045750155114 0.0055885235779 0.0052272919565 0.0080039706081 0.0076073617674 0.0059146191925 
0.005269872956 0.0072298874147 0.012557029724 0.016187276691 0.018603747711 0.018607011065 0.019905043766 0.020298352465 0.020289169624 
0.016693167388 0.012932161801 0.010259302333 0.0058383671567 0.0031098786276 0.002224390395 0.0023953637574 0.0028957112227 0.0023657707497 
0.00010231958004 0.0019698950928 0.0045007243752 0.0055534630083 0.0047799376771 0.0058345645666 0.0069197090343 0.0088355895132 0.010627646931 
0.011370575987 0.015410277061 0.0085033038631 0.011031184345 0.010371766053 0.010356601328 0.0091471746564 0.0087124574929 0.0068533318117 
0.004703884013 0.0045508858748 0.010431511328 0.011124975979 0.011522090062 0.012945654802 0.011604201049 0.015576845966 0.015021633357 
0.014200522564 0.013072371483 0.0178867504 0.019801683724 0.014844950289 0.016420571133 0.013480717316 0.011409444734 0.0082241408527 
0.0047814976424 0.0026547880843 0.0037320165429 0.010542878881 0.0055613815784 0.0041489205323 3.1792333175e-05 -0.0045350911096 -0.0022652519401 
-0.0045872163028 -0.0043728831224 -0.0044852420688 -0.00098460342269 -0.0054095326923 0.010981335305 0.010012070648 0.0076138358563 0.0083854580298 
0.01049467735 0.011021713726 0.0034759130795 0.012633495964 0.0126668429 0.016615983099 0.017818786204 0.018326262012 0.017458871007 
0.014042147435 0.010575844906 0.0072488011792 0.0044469474815 0.002455445705 0.0018331549363 0.00016791415692 0.0087301274762 0.0086122620851 
0.008088038303 0.010842097923 0.0075191245414 0.0065373308025 0.0050679971464 0.0035826067906 0.0058487444185 0.0084017505869 0.0057949703187 
0.0070602060296 0.014009526931 0.011142718606 0.014287712052 0.015530924313 0.014729719609 0.013461959548 0.011489398777 0.0089799528942 
0.0065444014035 0.0069387569092 0.011787241325 0.01400079485 0.013052811846 0.012044897303 0.0083085242659 0.010596605949 0.005991326645 
0.0091715259477 0.0069773248397 0.0064739091322 0.0057397335768 0.0013807850191 0.00031716114609 0.0029027601704 0.0066241011955 0.0091952672228 
0.014121536165 0.017902517691 0.01834715344 0.017790107056 0.018255667761 0.014631589875 0.016759214923 0.018213350326 -0.019720003009 
-0.004278678447 0.00058450910728 0.010830985382 0.015022801235 0.016295073554 0.0009107158985 0.0035116230138 0.00013316521654 0.0043858685531 
0.014336654916 0.0042416621 0.011201402172 0.0082980524749 0.0088910385966 0.0081796590239 0.011224584654 0.0033369699959 0.0068245818838 
0.011326296255 0.008749964647 0.006053771358 0.0082541564479 0.0083780903369 0.0038892456796 0.0033384610433 0.0028323545121 0.00084541359683 
0.0083150183782 0.0073023084551 0.0084327114746 0.011365494691 0.0075914226472 0.037388406694 0.027780987322 0.021980635822 0.039445564151 
0.025851869956 0.023066813126 0.010886861011 0.012762268074 0.011508353986 0.015690231696 0.018895383924 -0.019490562379 -0.012104267254 
-0.0080966036767 -0.01466411259 -0.0076167667285 -0.0059497989714 0.007085617166 0.0073047881015 0.0018260901561 0.0039762696251 0.002692951588 
0.0022362237796 0.0082296682522 0.0044582183473 0.012764514424 0.010885250755 0.0021582373884 0.0021774021443 0.0049286996946 0.0021987804212 
0.0034875089768 0.0029196781106 
Stress_YZ 1 1064 double
0.033161547035 -0.0043866159394 0.059810161591 0.053064189851 -0.035321131349 0.018415147439 0.088544353843 0.048091810197 0.026526425034 
0.015920212492 0.007720138412 0.004609755706 -0.00091557746055 -0.0081633664668 -0.012378127314 -0.015153138898 -0.018629144877 -0.014494145289 
-0.0099259773269 -0.030512090772 -0.0056942091323 -0.005536257755 -0.0025177716743 0.0093498481438 0.021017294377 0.02298092097 0.023644333705 
0.026120653376 0.024981146678 0.026043253019 0.026222903281 0.024152263999 0.024872042239 0.02600027062 0.026473065838 0.023699562997 
0.022281493992 0.02389003709 0.027776109055 0.033419866115 0.03741299361 0.034093372524 0.02294093743 0.024494716898 0.025943528861 
0.023001709953 0.029020093381 0.036101251841 0.037445478141 0.040731851012 0.044366236776 0.04761562869 0.050550237298 0.039386034012 
0.02661392279 0.016000811011 0.022136734799 0.014398080297 0.0080747976899 0.010414269753 0.014634229243 0.010373030789 0.0056227720343 
-0.0051717218012 -0.020188624039 -0.033074207604 -0.036294966936 -0.042965002358 -0.034596074373 -0.026035165414 -0.008579434827 -0.0019777100533 
-0.0039259642363 -0.0046003740281 -0.003168199677 -0.00088741921354 -0.019804084674 -0.021300259978 0.0061192866415 0.012507465668 0.012070869096 
0.029023492709 0.03739991039 0.039521686733 0.040099449456 0.034690249711 0.017195913941 0.019117264077 0.020513379946 0.0041686599143 
-0.01213676203 -0.020311666653 -0.017917044461 -0.027137700468 -0.01918688044 -0.0049349162728 0.0034737866372 0.0081586875021 0.012072233483 
0.021487766877 0.0015265682014 0.033410660923 0.032178871334 -0.004058200866 0.03117402643 0.077701307833 0.055216539651 0.035149715841 
0.020103447139 0.011079435237 0.0057810191065 0.0057857953943 -0.00052672618767 -0.006543406751 -0.012295259163 -0.01646509394 -0.016413833946 
-0.01404268574 -0.011145345867 0.0012134646531 0.0054496582597 0.0037185528781 -0.00043260032544 0.0096441619098 0.027038889006 0.022763786837 
0.019069306552 0.020204665139 0.021850209683 0.023972874507 0.024836556986 0.024524325505 0.027467643842 0.028983917087 0.026053085923 
0.016859443858 0.013066358864 0.011934730224 0.0099794454873 0.011117035523 0.017604505643 0.021550148726 0.020511435345 0.021098168567 
0.022442406043 0.028133809566 0.035345550627 0.039421238005 0.042115047574 0.042659450322 0.040624525398 0.033898338675 0.02342155762 
0.016621783376 0.014574540779 0.014952111058 0.013634460047 0.0077166231349 0.0067638223991 0.00844493974 0.011038823985 0.010682384484 
0.0045016855001 -0.005488273222 -0.011903351173 -0.031905956566 -0.029271475971 -0.021121399477 -0.0059175225906 0.0042627421208 0.0078663649037 
0.0086193578318 0.0099060144275 0.010616066866 0.0046793008223 0.0036802678369 0.0061620450579 0.008925549686 0.012298076414 0.019110541791 
0.026563493535 0.029021427035 0.02881571278 0.031101094559 0.02716977708 0.02179742232 0.014113878831 0.0031279125251 -0.0063829910941 
-0.011349977925 -0.012583470903 -0.013702219352 -0.012276828289 -0.0060810442083 -0.00027098480496 0.0034370098729 0.0066907829605 0.012273600325 
0.017637582496 -0.027027864009 -0.018748847768 0.018293578178 0.025538193062 0.037326030433 0.040206063539 0.03280871734 0.02308858186 
0.011432325467 0.0030822861008 -0.0019292720826 -0.006241156254 -0.011504362337 -0.016316821799 -0.021637028083 -0.024218501523 -0.021746786311 
-0.013588942587 -0.0076700923964 -0.0055073853582 -0.010339598171 -0.0090735955164 0.015836812556 0.015046935529 0.013979190029 0.013425344601 
0.014538790099 0.017170498148 0.02133343555 0.02238637954 0.024110928178 0.025044726208 0.023598708212 0.015699930489 0.010360273533 
0.0065936464816 0.0034119561315 0.0098505793139 0.024043193087 0.023618118837 0.016674682498 0.0049866805784 -0.0080352192745 -0.015539951622 
-0.02064252831 -0.024099424481 -0.021993584931 -0.012559261173 -0.00055918871658 0.0076100546867 0.011369213462 0.0091632576659 0.014342027716 
0.012350407429 0.0092643164098 0.0085518537089 0.011429791339 0.014156849124 0.014173701406 0.015731219202 0.018875190988 0.023158377036 
0.022373255342 0.017289705575 0.011873935349 0.004909621086 -0.0010319381254 -0.0067430767231 -0.0080931195989 -0.0085787447169 -0.0080857034773 
-0.006267528981 -0.003973305691 -0.0011340841884 0.00087168818573 0.0042865755968 0.010204964317 0.013773520477 0.015571283177 0.016823291779 
0.021132841706 0.026904813945 0.030429298058 0.031773708761 0.030373295769 0.025551322848 0.020005963743 0.015181235038 0.013553770259 
0.014570694417 0.012842623517 0.011958932504 0.013888168149 0.01181733422 0.012446203269 0.012297657318 0.011010412127 0.0062388270162 
0.0007257515681 -0.0051197889261 -0.011812689714 -0.01099183131 -0.0069157094695 -0.012281334028 0.012503051199 0.0046114725992 -0.0033570292871 
0.0032927198336 0.009065062739 0.012178066187 0.011940435506 0.01242484618 0.013023842126 0.015550845303 0.019723286852 0.021777782589 
0.023917956278 0.023897999898 0.023284727708 0.024209652096 0.0225775484 0.023581149057 0.031283084303 0.041421167552 0.03470871225 
0.024940285832 0.019134730101 0.020085556433 0.023707676679 0.026939760894 0.025943906978 0.021008204669 0.011762869544 0.0021559000015 
-0.0051197623834 -0.011290981434 -0.01630420424 -0.018994171172 -0.021831668913 -0.020669674501 -0.016157982871 -0.011025598273 -0.0064628380351 
-0.0029289580416 -0.0064134970307 -0.0047304085456 -0.0064574591815 -0.0059303171001 -0.001807208173 -0.0013112716842 0.014393680729 0.012614109553 
0.02062327601 0.025132985786 -0.018421562389 -0.01307637617 -0.006984340027 0.0022514488082 0.0069017037749 0.007046146784 8.9998633484e-05 
-0.0038523462135 -0.0022420105524 0.0051171048544 0.015520343557 0.011788510717 0.0076571884565 0.0078835245222 0.01079627499 0.012924790382 
0.010090211406 0.0062192962505 0.013897198252 0.017059911042 0.019125536084 0.015380064957 0.011052339338 0.0057889344171 0.0019528041594 
-0.0026133118663 -0.0042294636369 -0.0051918388344 -0.0054201073945 -0.0059578903019 -0.0060181636363 -0.0045521892607 -0.0021333906334 -0.0024663549848 
0.0031886796933 0.0086306650192 0.012195476331 0.014390425757 0.018832050264 0.023283833638 0.024453204125 0.023072678596 0.019581761211 
0.014381013811 0.011441797018 0.011516265571 0.012775502168 0.014724085107 0.012473577634 0.018184801564 0.015833754092 0.015811489895 
0.014377544634 0.011057960801 0.0058101592585 0.0020653754473 -1.853268077e-05 -0.0041712285019 -0.0046783909202 -0.0024242002983 -0.0017665214837 
-0.0095152761787 -0.011054053903 -0.01816813089 -0.0081040570512 0.0015020275023 0.0056380867027 0.00021132425172 0.00079121853923 0.0013387373183 
0.0046194647439 0.00021810030739 -0.0026224341709 -0.009086035192 -0.016094312072 -0.01034562476 -0.00032475750777 0.0063083874993 0.011717536487 
0.014924665913 0.0035930201411 0.0092326644808 0.01237173751 0.013964772224 0.014549842104 0.015044157393 0.01647817716 0.019288061187 
0.023012688383 0.023902978748 0.022251568735 0.020079588518 0.019189896062 0.019615475088 0.020124975592 0.017120515928 0.021028684452 
0.025888249278 0.029831312597 0.037935532629 0.040925055742 0.038039706647 0.030625768006 0.026087118313 0.018677020445 0.014043637551 
0.011974683031 0.012568932958 0.012660671026 0.014121334068 0.015644969419 0.017187643796 0.019559433684 0.021411407739 0.018606984988 
0.0098481709138 -0.0016133165918 -0.010195116512 -0.017202692106 -0.02199264802 -0.017923770472 -0.011293761432 -0.0048447982408 -0.00073701568181 
0.0025391660165 0.0047976579517 0.0045601995662 0.0046027940698 0.0026723039337 0.0033274013549 0.0082617681473 0.0080976616591 0.0020829646382 
0.0025370216463 -0.019931273535 -0.022519648075 -0.0017677558353 -0.0024396539666 -0.0064255446196 -0.0049775145017 0.0082130050287 0.011044533923 
0.0063835224137 0.0079471636564 0.007979594171 0.013175205328 0.014879745431 0.013914694078 0.0076782205142 0.0081088682637 0.014231693931 
0.017282860354 0.014730547555 0.011338454671 0.006613814272 0.0034565452952 0.000510806276 -0.0011504292488 -0.0024882182479 -0.0032595067751 
-0.0050185769796 -0.006063924171 -0.0046684611589 -0.0058087855577 0.0036680686753 0.0087968828157 0.013101570308 0.015786524862 0.019384870306 
0.02146518603 0.022331783548 0.022310132161 0.017411265522 0.0098393838853 0.0080513833091 0.010989834554 0.014049512334 0.014402220026 
0.01476906985 0.016982166097 0.015711441636 0.012760217302 0.010976675898 0.011793724261 0.015508787706 0.016669915989 0.015009421855 
0.0084613766521 0.0046079559252 0.0028667380102 -0.0004460765922 0.0012413354125 0.0044694487005 0.00076875078958 -0.00095065293135 -0.0016698625404 
-0.0023831718136 0.0012899817666 0.0078244777396 0.0065231979825 0.0069452770986 0.0089934915304 0.010960584506 0.015965936705 0.017819838598 
0.015491836704 0.010765463114 0.0076678884216 0.012344262563 0.017736280337 0.014573080465 0.011398013681 0.0075490665622 0.0052359732799 
0.0031495192088 0.00033178296871 0.00049783883151 -0.0016975932522 -0.0033609734382 -0.005011910107 -0.0041151661426 -0.0052727353759 -0.0010572257452 
0.00078497128561 0.0018117146101 0.0027964690235 0.0054117497057 0.012121253647 0.015650985762 0.017927659675 0.020033445209 0.023268137127 
0.026628246531 0.022998183966 0.013463064097 0.0078041683882 0.0049288747832 0.011045398191 0.014877825044 0.015297227539 0.014150014147 
0.015288121998 0.012979979627 0.011467445642 0.012634709477 0.0094180833548 0.011935823597 0.01553431619 0.014520049095 0.012829021551 
0.0072718979791 0.0060480344109 0.0028308632318 0.0058689792641 0.010694942437 0.014120456763 0.01669375971 0.016992507502 0.017880167812 
0.020037699491 0.022865591571 0.02517493628 0.024241585284 0.020374992862 0.015666816384 0.014438153245 0.014803810045 0.015243698843 
0.011611696333 0.0076273879968 0.010702668689 0.014733247459 0.019694138318 0.022235319018 0.028116760775 0.032124388963 0.029475359246 
0.025869803503 0.023303149268 0.019276993349 0.015071313828 0.011844074354 0.010584114119 0.01098898612 0.010998588987 0.011999394745 
0.013133216649 0.013887497596 0.015526348725 0.013982569799 0.0058998507448 -0.0059990552254 -0.013383237645 -0.015971429646 -0.017752131447 
-0.017521182075 -0.021184695885 -0.023192897439 -0.021551005542 -0.012507313862 -0.00065684027504 0.0050229365006 0.0063511948101 0.0066961171106 
0.007103391923 0.007466295734 0.0071645081043 0.0087287547067 0.01097095944 0.013669343665 0.014285849407 0.013588035479 0.0096024954692 
0.0061825681478 0.00302410312 0.0091624977067 0.0084880171344 0.0081524848938 0.010374562815 0.013142536394 0.016296222806 0.01664615795 
0.01380449906 0.0096510481089 0.009285332635 0.012570952065 0.01346500963 0.010653349571 0.01020613499 0.0071425251663 0.00334652327 
0.0026214981917 0.001451433287 -0.00034301661071 -0.0025046446826 -0.0018935918342 -0.0026645327453 -0.0020230850205 -0.0039524743333 -0.0018187195528 
0.00062381022144 -0.00029720220482 0.0036166645586 0.004560359288 0.0099051687866 0.014239300974 0.016590410843 0.016547642648 0.019666874781 
0.021672740579 0.021205449477 0.02318867296 0.01536444854 0.008895913139 0.011519413441 0.015104135498 0.015096429735 0.014190129004 
0.012342315167 0.0094961198047 0.013054585084 0.011526609771 0.010678848252 0.0093072904274 0.009960164316 0.012469774112 0.0067822276615 
0.012147055008 0.013695662841 0.015015623532 0.015972575173 0.018197616562 0.021540315822 0.02462894097 0.026285298169 0.023842990398 
0.017865065485 0.012794032693 0.010097909719 0.010360545479 0.0086306082085 0.0069690942764 0.0056278249249 0.0053401524201 0.0080510191619 
0.012557750568 0.014948041178 0.019423564896 0.021693909541 0.021866457537 0.019500335678 0.01823865436 0.016779152676 0.014233574271 
0.012259049341 0.0095073711127 0.0094156870618 0.0087322164327 0.0081066349521 0.0092645231634 0.010700180195 0.011871504597 0.010623878799 
0.003277446609 -0.0058855558746 -0.010340577923 -0.011456066743 -0.01153240446 -0.012240566313 -0.0097379926592 -0.015043869615 -0.018833698705 
-0.022796446458 -0.021364059299 -0.0079237511382 0.0069514103234 0.012115140446 0.0083975279704 0.0058217733167 0.0066494671628 0.0058928527869 
0.0073264227249 0.0088525535539 0.0090646464378 0.010610145517 0.014050211757 0.013489745557 0.012506881729 0.0089543955401 0.0030779179651 
0.0037835049443 0.003850673791 0.0048108841293 0.0070501384325 0.005412064027 0.0042674839497 0.000579891901 -0.0072733708657 -0.011096896604 
-0.011185676791 -0.0018204530934 0.0028205269482 0.0011649122462 -0.00025618777727 -0.00035013424349 -0.00064164953073 0.0013705899473 0.0051472801715 
0.0080840894952 0.0097580365837 0.012125436217 0.013202026486 0.016037562862 0.02017300576 0.023628927767 0.025058886036 0.022426143289 
0.010546671227 0.0089168427512 0.0078495284542 0.0051558907144 0.0069538149983 0.012172442861 0.0075962892734 0.0044399667531 0.0061960378662 
0.007460527122 0.011438503861 0.010844049975 0.011916134506 0.014661122113 0.011405233294 0.014232438058 0.012759714387 0.0097672874108 
0.0088019659743 0.0089693013579 0.0098016532138 0.0089937215671 0.0095226857811 0.015018212609 0.0091182468459 0.0037458157167 -0.0025844066404 
-0.0064081852324 -0.0071536591277 -0.0054858340882 -0.0054581104778 -0.005614280235 -0.00057781091891 0.013508870266 0.014495495707 0.013267012313 
0.00040147796972 0.006320359651 0.013394893147 0.0098508391529 0.009266635403 0.0055874930695 0.0051790135913 0.0046098581515 0.0032047543209 
0.0047180084512 0.00657910062 0.006547558587 0.0067774788477 0.0095210326836 0.012738829479 0.012365079485 0.0094688767567 0.0085438312963 
0.0082758469507 0.015036523342 0.014668543823 0.012688724324 0.012559873052 0.013082632795 0.015799665824 0.013050996698 0.009433391504 
0.0070239179768 0.0048071383499 0.0039310934953 0.0017227544449 0.00081249157665 0.0006593852886 0.00067619321635 0.00077329820488 -1.7740712792e-05 
-0.0026467884891 -0.00029256468406 0.0034905080684 0.0040509374812 0.0048361364752 0.0075894915499 0.006691897288 0.0072028217837 0.012588843703 
0.010199278593 0.0093499599025 0.006812246982 -0.0016852146946 -0.0054391403683 -0.0037931897677 -0.007017981261 -0.010543840937 -0.018643520772 
-0.019837716594 -0.018677864224 -0.0090083517134 0.0090193459764 0.0095221670344 0.0078239375725 0.0079567246139 0.013610702939 0.014225218445 
0.016863541678 0.017495101318 0.01320692338 0.0073820622638 0.013370343484 0.0033873212524 0.0061695119366 0.012611323968 0.014268458821 
0.015600943938 0.015395932831 0.0060102236457 0.0053002713248 0.010304280557 0.013188109733 0.0090126926079 0.010269550607 0.014928721823 
0.012684399262 0.012133236974 0.010179408826 0.00505398307 0.007106134668 0.0057829823345 0.0037294288632 0.0009735673666 -0.011255919933 
-0.010253093205 0.00067713402677 0.0076442048885 0.013414617628 0.016076261178 0.017276896164 0.01549277734 0.01068924088 0.007017610129 
0.007977171801 0.0046804738231 0.0038483811077 0.0032925314736 0.0028117224574 0.0027537562419 0.0017800551141 0.0095095308498 0.0085148373619 
0.0097722252831 0.0090340599418 0.0039864559658 0.0054170163348 0.007792995777 0.0105064651 0.010038813576 0.0071352324449 0.013554564677 
0.010661122389 0.01478938479 0.0082742581144 0.0094855073839 0.0050887637772 0.0019937625621 -0.0015327928122 -0.0024434649386 -0.002572368132 
0.00089953030692 0.0023067186121 0.0076834918 0.015241920948 0.015692135319 0.01597222127 0.016539940611 0.0073829777539 0.0063512297347 
0.0069040618837 0.0065459623002 0.0072271930985 0.0079524833709 0.0085807563737 0.0049730264582 0.0063497442752 0.010270247236 0.0093614012003 
0.010682334192 0.0088756345212 0.010043229908 0.0067980708554 0.0042001237161 0.0028583731037 0.00074166443665 0.010534948669 0.010508614592 
0.0073876054958 0.0066367345862 0.017939442769 0.015883423388 0.011643534526 0.010774363764 0.014203219675 0.013140999712 0.014163454063 
0.014223097824 0.016560517251 -0.014290142804 -0.016499899328 -0.019981630147 -0.0058725234121 -0.0027228645049 0.021046841517 0.02389014326 
0.021350344643 -0.010190131143 0.0019518143963 0.0012263517128 0.0048396349885 0.0071745780297 0.0060924654827 0.005423925817 0.0042633442208 
0.0027110339142 0.0051826993003 0.0063633471727 0.0067242193036 0.013019150123 0.023376462981 0.015334811993 0.012308165431 0.011562929489 
0.010983891785 0.017491718754 0.0054091969505 0.0032524697017 0.0071362545714 0.010810532607 0.0046118586324 0.0071256007068 0.0070172878914 
0.0094523793086 0.0096518788487 0.010130166076 0.011732704006 0.009104590863 0.0055230311118 0.002642280655 0.0039460170083 0.0029327173252 
0.0048050926998 0.020575698465 0.015097610652 0.014096051455 0.014576863497 0.0070882053114 0.0031168281566 0.0071107503027 0.0074683940038 
0.0061419750564 0.0053133876063 
Stress_XZ 1 1064 double
-0.035147737712 -0.036038778722 -0.052189532667 -0.0041504432447 0.03293357417 0.034962307662 0.0059696477838 0.05432061851 0.072862870991 
0.07600788027 0.071915253997 0.061384972185 0.045476384461 0.024615537375 0.0055163428187 -0.010299965739 -0.020629709587 -0.028177637607 
-0.038948062807 -0.023663468659 -0.036733277142 -0.046370815486 -0.050054702908 -0.045784302056 -0.014469393529 0.027416879311 0.043157637119 
0.046947378665 0.049184236676 0.052299443632 0.054995175451 0.057920817286 0.058625567704 0.057700756937 0.054964262992 0.051791779697 
0.042460627854 0.035378292203 0.025623107329 0.015868633986 5.6193191995e-05 -0.022761676461 0.0086859492585 0.012936051004 0.018793193623 
0.021134307608 0.022105168551 0.023627121001 0.02335472405 0.020343329757 0.019689815119 0.017988974229 0.01580750756 0.0085259368643 
0.003712961683 0.0049346517771 0.0066888155416 0.010236368515 0.014355580322 0.016404926777 0.0054167876951 -0.0092536937445 -0.019233811647 
-0.025715524331 -0.030917689204 -0.034953773022 -0.044316474348 -0.051022242755 -0.048793196678 -0.038791220635 -0.023527592421 -0.010672770441 
-0.0017859806539 0.0033404037822 0.0045507559553 0.0088607324287 0.011250576004 -0.013247181661 -0.0068929353729 -0.013022065163 -0.023193288594 
0.00054680620087 0.0069642076269 0.0086320862174 0.012007103302 0.027373742312 0.054253123701 0.037500906736 0.022072127089 0.01330684498 
0.0045087914914 -0.0017716800794 -0.0042199948803 -0.0079745380208 -0.0079721212387 -0.0054679112509 -0.0047164256684 -0.0038769312669 -0.0020598792471 
0.0011973766377 -0.055403973907 -0.03232171014 -0.029356917366 -0.026307115331 0.0051891743205 0.033140007406 0.030721871182 0.04586391151 
0.0542101264 0.053816411644 0.047165058553 0.035250592977 0.026819240302 0.017225801945 0.0077538685873 -0.0041418005712 -0.012129591778 
-0.013422095217 -0.033175770193 -0.041061274707 -0.043616838753 -0.037619415671 -0.022524058819 -0.0029861791991 0.0042870552279 0.01844201982 
0.032371759415 0.0410213992 0.04589574039 0.049218777567 0.049578346312 0.046526137739 0.040828365833 0.032078769058 0.020613288507 
0.0097064776346 -0.0026204863098 -0.011115564965 -0.022843295708 -0.040559794754 -0.058758281171 -0.068336084485 0.00047909261775 0.0049020163715 
0.0096393637359 0.015585441142 0.01767007634 0.019576171413 0.019998578355 0.018976837397 0.015899185091 0.0090194819495 0.0054074577056 
0.0045117922127 0.0029733041301 0.0030709006824 0.0015864493325 -0.001056701527 -0.0036803788971 -0.0051991539076 -0.0077148787677 -0.010807439685 
-0.013776732609 -0.015718894079 -0.016109552234 -0.016092645004 -0.01239726413 -0.0050790309906 -0.00041198093095 0.0029994931538 0.0032540066168 
0.0011521866545 -0.0010344967013 0.0041558900848 -0.0036423157435 -0.0016013189452 -0.0026458776556 -0.0042422618717 -0.0049801864661 -0.0044118678197 
0.003488862887 0.01019678358 0.014789977111 0.016263155267 0.016551507637 0.0080238720402 -0.0022144082468 -0.00641939044 -0.0073882318102 
-0.010728592984 -0.013320746832 -0.012611736543 -0.011110107414 -0.0089854383841 -0.0084720691666 -0.0086141312495 -0.0074853193946 -0.0047363177873 
-0.0042849555612 -0.016222508624 -0.017019052058 -0.01305215247 0.0034559196793 0.020753445104 0.037877243012 0.045404810458 0.048522114754 
0.043437436223 0.032625868917 0.02482961677 0.020182535052 0.0157812424 0.010657600127 0.0051407329738 -0.0015296989586 -0.0096251536161 
-0.012365384027 -0.013857244514 -0.013721640222 -0.011467520148 -0.0022084128577 0.0097172670066 0.016703184694 0.023630063981 0.03133424744 
0.037419829518 0.039600532502 0.039231169969 0.037227701396 0.032937683165 0.026061367244 0.016803797334 0.0074045364745 -0.00054394343169 
-0.017645003274 -0.030182391405 -0.046874623746 -0.061618223786 -0.061291478574 -0.052732858807 0.00091989105567 0.0050198361278 -0.019601149485 
-0.017181474715 -0.015256081708 -0.014483846724 -0.012041127309 -0.0087035540491 -0.0044647362083 -0.0016840087483 0.0025449434761 0.0062332563102 
0.0076618464664 0.0076156212017 0.0078933583573 0.0090270657092 0.013187238947 0.019268041477 0.022013790905 0.02117247507 0.019667126238 
0.014091005549 0.0069889486767 -0.0013965184335 -0.0089386329055 -0.01309711393 -0.015790292993 -0.017044428736 -0.01747485064 -0.017596991733 
-0.016747999936 -0.015800619498 -0.015125383623 -0.012152064592 -0.0070945774205 -0.0037360957358 -0.0027764760889 0.00075471302262 0.0073516187258 
0.013005841523 0.01712677069 0.017582863569 0.017775803804 0.01564823091 0.011794384569 0.0099155753851 0.010454080068 0.008808686398 
0.0064934520051 0.0050552515313 0.00651738327 0.0039767329581 0.0020773699507 -0.0015509750228 -0.0076503939927 -0.014257763512 -0.019004186615 
-0.022144190967 -0.024492394179 -0.024585489184 -0.024222776294 -0.022800028324 -0.021089740098 0.00732510956 0.0041045756079 0.0084143076092 
0.0079307509586 0.0097060054541 0.014380034991 0.019441282377 0.025274775922 0.031321268529 0.035247694701 0.034480530769 0.032828964293 
0.028733210638 0.022068263963 0.012507189997 0.00076236703899 -0.018846908584 -0.033191759139 -0.037732813507 -0.039920967072 -0.045216258615 
-0.041080389172 -0.0024405522272 0.0084981797263 0.021686773747 0.03428228572 0.042676959187 0.044030819088 0.038325980306 0.030928475782 
0.024557251483 0.022955249995 0.016971023753 0.018294902518 0.015748761594 0.007653886918 -0.0026688037906 -0.010000916198 -0.011035416275 
-0.010002661496 -0.0098882103339 -0.007687874604 0.0049998359755 0.0050845476799 -0.0021281105001 0.0037982016802 -0.010021167807 -0.012195117772 
-0.022405136377 -0.019683472812 -0.024068376049 -0.026447810233 -0.021550487727 -0.014940671623 -0.0079406565055 -0.0037702394184 0.0024825134315 
0.0043025203049 0.0061953472905 0.013216936961 0.016439268366 0.017166463658 0.019859524444 0.019885877147 0.02059674263 0.026161339134 
0.031151166186 0.028199100867 0.02298822999 0.018171165138 0.011836587451 0.0074108541012 0.00098513613921 -0.0060479664244 -0.014021118172 
-0.018693750724 -0.020905610174 -0.022229157388 -0.023282853886 -0.021590933204 -0.019946420565 -0.020215064287 -0.018877943978 -0.014539205469 
-0.011554939672 -0.0075747733936 -0.0022269985639 0.0051779984497 0.012888651341 0.018198858947 0.020233687013 0.020848158747 0.020492613316 
0.020487077534 0.018781373277 0.016891410574 0.015257496387 0.011381870136 0.0095377862453 0.0091461613774 0.0041284738109 -0.0009524578345 
-0.0075689284131 -0.01670806855 -0.023561952636 -0.027512021363 -0.028489474207 -0.029078004882 -0.028197428212 -0.027787467465 -0.025917869061 
-0.02362369746 -0.022061422467 -0.027670279145 -0.027636660263 -0.020733900368 -0.011812191457 -0.031204072759 -0.030768793076 -0.029133336619 
-0.025581110269 -0.024546131492 -0.023751677945 -0.025492833927 -0.029486494139 -0.028418440372 -0.02040476352 -0.012102378532 0.0066001387313 
0.0087436456233 0.005453791935 0.0051602944732 0.0078470874578 0.011839345098 0.017946438864 0.024884002283 0.031586002558 0.034295886755 
0.032760582864 0.028222605586 0.020852603018 0.0094491019845 -0.0044195312075 -0.014492415823 -0.01850117743 -0.014779661782 -0.01681696251 
-0.019430315122 -0.021382991225 -0.029443372041 -0.032996334136 -0.030882144347 -0.024652294815 -0.016892699525 -0.013384519145 -0.011111231521 
-0.010840220377 -0.010054416955 -0.0053903046064 0.0019840118475 0.010256710462 0.01984956488 0.02972070314 0.037959240377 0.043074712157 
0.040214665234 0.031103283167 0.025654282421 0.021076774225 0.022447483614 0.020734729245 0.011025362648 -0.0035052513704 -0.01430215966 
-0.018886700273 -0.018502475694 -0.017634781078 -0.015685230494 -0.010826203972 -0.015222384594 -0.021637285128 -0.017063273117 -0.0047518527135 
0.00066835654434 0.021397309378 0.019300343469 0.0016005681828 0.00086021493189 0.0015665914398 0.0083847884089 0.013956330717 0.018586043268 
0.023815488443 0.026390444487 0.027471497655 0.027314351872 0.031419306993 0.030066406354 0.021236227825 0.020464001223 0.017613124102 
0.012859164737 0.0073544373736 -0.00076460419223 -0.0075123375282 -0.012357439846 -0.018219122663 -0.020370028913 -0.024440210313 -0.026810890064 
-0.026382442564 -0.024372456595 -0.022885708138 -0.025521622971 -0.0157172326 -0.012047770433 -0.0036786710843 0.006454733666 0.015536501072 
0.021216489375 0.023122981191 0.025997593999 0.030361413956 0.03301903978 0.030690178275 0.026326544583 0.02385093458 0.018892016262 
0.014136283658 0.012551623397 0.0089079421014 0.009046446532 0.0047760070302 0.0047533623874 0.0025603696704 -0.0024780416861 -0.01192590408 
-0.020492924377 -0.029079636559 -0.031709939241 -0.018512213603 -0.023625036702 -0.003816481214 -0.0033605124336 -0.0025602895766 -0.00089556124294 
0.00082089036005 0.004315327853 0.0088657084852 0.018935518339 0.025359734893 0.030307156965 0.032516099513 0.030205408111 0.027972273529 
0.023196550086 0.017480090261 0.014622273855 0.016954103485 0.014809166081 0.010154496878 0.0023989130277 -0.010060764849 -0.014511232264 
-0.015360753983 -0.018744440749 -0.025124382228 -0.028394268826 -0.029109982774 -0.028389463201 -0.029183426872 -0.02798509039 -0.027086455375 
-0.027803797275 -0.026346514001 -0.020239908248 -0.015169854276 -0.0090160602704 -0.00150974188 0.0082971872762 0.016026847064 0.020519046113 
0.027028076351 0.033403687179 0.041201971471 0.042342264205 0.040813848376 0.034762755036 0.030643347651 0.025232505053 0.018869342282 
0.012583505362 0.013684986159 0.01411671564 0.0071727605537 0.0030247361865 -0.0017638204154 -0.00072689820081 -0.007740393281 -0.019375644624 
-0.028812037781 -0.032943833619 -0.032252233475 0.001551489695 0.0020997584797 0.0034661320969 0.0062765134498 0.011105142534 0.01851323992 
0.026164697483 0.032467119396 0.034611526877 0.030787741765 0.021841995418 0.010757821612 -0.00029202809674 -0.0079956222326 -0.011498623528 
-0.010555356741 -0.0049109798856 -0.012140013278 -0.015661722049 -0.016520397738 -0.021092932671 -0.027953516692 -0.031136274338 -0.026811974123 
-0.019308717921 -0.010864879936 -0.0076500643045 -0.0072686253116 -0.0080159660429 -0.0070374892093 -0.0042480574921 0.0012226204854 0.008392018266 
0.01500203833 0.02067739144 0.026552760974 0.033966861665 0.036274146289 0.030746331438 0.025007046759 0.021230235696 0.015110877343 
0.010285607539 0.014468241483 0.017176141962 0.019764650613 0.017447769642 0.0047493330203 -0.010383543558 -0.021470874548 -0.02734596096 
-0.027042452246 -0.023535044864 -0.023238608614 -0.025889361277 -0.030965317041 -0.03425610438 -0.028690943494 -0.022523779422 -0.015191666782 
-0.0057532261126 5.984937161e-05 0.0053341388702 0.015244440176 0.022968132049 0.026761922985 0.029300920665 0.028316758573 0.024782573804 
0.023107109591 0.015976971015 0.0099080931395 0.016515877098 0.011365418322 0.0018706839764 -0.0048019676469 -0.012236900628 -0.014696691185 
-0.019985232502 -0.025040078908 -0.029504382983 -0.031034918502 -0.031615529209 -0.03101394698 -0.032687988132 -0.030358683318 -0.028880741447 
-0.029407231137 -0.027667101473 -0.023002458736 -0.018846584484 -0.01190622244 -0.0047077024356 0.0043225917034 0.010238106363 0.015702804551 
0.022394027561 0.025495506823 0.030755775049 0.034166477621 0.042995344847 0.038487937301 0.03265061602 0.0268699117 0.019372954965 
0.013972949237 0.014928407036 0.016374412924 0.015350478701 0.0093245645985 0.0042723561637 -0.0033613315318 -0.004915419966 0.0022140678484 
0.0020304978825 0.0037717744708 0.0068697384559 0.010355704464 0.017159257084 0.024896074086 0.032123178244 0.038488503546 0.035760100931 
0.024417374283 0.013341423124 0.007296808064 0.0015842674766 0.0068329395726 0.0014727003872 -0.0027520498261 -0.011214030907 -0.018118401989 
-0.020748214796 -0.02266863361 -0.029121045023 -0.029862556607 -0.025381153449 -0.019179167226 -0.010656241328 -0.0082455826923 -0.00620869454 
-0.0058955526911 -0.0053744087927 -0.0034682920668 0.00056664686417 0.0053265322931 0.0092052221298 0.015120294876 0.018418869004 0.02571060881 
0.031104948372 0.028292730451 0.023235706612 0.019136238843 0.015090486035 0.011923898011 0.0069137704559 0.0056517389603 0.0047984858975 
0.0062949419953 0.0056323530152 0.0026301145554 -0.0060410518199 -0.018727418035 -0.025234205648 -0.029220346361 -0.02846080251 -0.024150963873 
-0.02567060478 -0.030651140958 -0.034888681024 -0.034739941359 -0.034209541976 -0.025846419856 -0.0178482458 -0.0086263893172 -0.035643279552 
-0.032596953213 -0.030478015542 -0.026384476572 -0.026636393741 -0.022045096382 -0.021285388619 -0.021758111194 -0.026080023497 -0.031940665096 
-0.02990430221 -0.021449366584 -0.011036500335 -0.011803164147 -0.0089269671589 -0.0038578759413 -0.001044658944 0.0010574574117 0.0024856987875 
0.0067808856256 0.008311862126 0.010598046705 0.013864224777 0.019652221352 0.026874860749 0.034535739571 0.04200894013 0.041458766907 
0.029596431181 0.020757753402 0.015339942649 0.012900548056 0.0050234403461 -0.0024686998222 -0.0067748920992 -0.011582483537 -0.018824469298 
-0.026296623051 -0.029715966433 -0.0290411897 -0.028819398955 -0.025583045557 -0.022829482332 -0.010156254284 -0.0064256656915 -0.0054545863532 
-0.0037814842071 -0.002054171171 0.0022143253591 0.0066852350719 0.012437201105 0.014511319809 0.022792778909 0.026858175173 0.025962598622 
0.022531008348 0.020303385332 0.018414195627 0.014131837524 0.011032123119 0.0047172983177 0.017395021394 -0.015470283106 -0.020804332569 
0.045957747847 0.03621359542 -0.013915011659 -0.025421056896 -0.029606597498 -0.034597050399 -0.03508688882 -0.031141331419 -0.028577066958 
-0.027837036178 0.0091578522697 0.021143306047 0.025833588094 0.028213009238 0.028658699244 0.028377747163 0.024144677445 0.018584655598 
0.014470357448 0.013559534214 0.015470361337 0.01623789221 0.0170048289 0.017099943012 0.014457245357 0.0046816351824 -0.001205143868 
-0.007826924324 -0.015653176233 -0.02112099342 -0.027097517624 -0.032116565853 -0.034062951803 -0.033354301006 -0.032867889851 -0.032600127161 
-0.032081753016 -0.031097488478 -0.029434951022 -0.026414172724 -0.023815594614 -0.020933248103 -0.016217412427 -0.0061997021548 -0.0023169415072 
-0.00019437482115 0.0078367572278 -0.0265766792 -0.02338334918 -0.019243363291 -0.0083997724578 0.0014340390917 -0.0026934721973 -0.0038162120618 
-0.0072725117207 -0.010216425173 -0.017353866249 -0.020383149385 -0.020782493055 -0.023362124339 -0.025599034503 0.011960025877 0.01774581708 
0.018107928336 0.01960933581 0.025032257661 0.02622519061 0.037445697933 0.044290788472 0.045338228345 0.043993994594 0.039183005691 
0.031196871772 0.022577755153 -0.030630618334 -0.021295851097 0.02293073386 0.019719293341 0.015595698729 0.0093885762617 -0.01811676845 
-0.02221583575 -0.027628004551 -0.034201055765 -0.033229835331 -0.034940972924 -0.019886678085 -0.021293254569 -0.024265799671 -0.031985383481 
-0.032311741263 0.0053982255049 0.0084641510621 0.015172142535 0.018135515973 0.015374142677 0.010520025156 0.0011750010308 -0.0065110446885 
-0.013597506098 -0.019647488371 -0.028893748298 -0.032978154719 -0.032826602459 -0.031691022217 -0.034098669887 -0.018526040018 -0.017183065414 
-0.0098252296448 -0.0084258541465 0.019157078117 0.025814265013 0.0282133203 0.028344620019 0.026736073196 0.025958109647 0.02109226957 
0.017392514274 0.018250091001 -0.01103170868 0.021991001442 0.024566486478 0.024793157354 0.02350012958 0.023077506572 0.021794578061 
0.0180524569 0.012942230329 -0.01407183893 0.045302908868 0.045689594001 0.040506895632 0.030401390046 -0.017588676885 -0.021645437926 
-0.027518957853 -0.029113182798 -0.028159899637 -0.028418293223 -0.026339313015 -0.028750345111 -0.028675587848 -0.023067640141 -0.01496253442 
-0.0077526476234 -0.0041571292095 -0.0016133611789 0.01254695002 0.017441842705 0.020724559203 0.02275050804 0.035881429911 -0.016184803098 
0.010863518342 0.012687440962 0.045745704323 0.051643162966 0.0030041497666 0.014020513743 0.02524779737 0.019093036652 0.022823728621 
0.0091736009344 0.028394693509 -0.013541072607 -0.014158097096 -0.025374056771 -0.02682957612 -0.022774394602 0.037223063409 0.045180987567 
0.047272339463 -0.025465911254 0.022032575682 0.025901082903 -0.023717159405 -0.03225697577 -0.03102426976 -0.029619768262 -0.030135622248 
0.025484357029 0.025647332892 0.02469497174 0.024517616257 0.024253347889 -0.029390618205 -0.022372400388 -0.016503062099 -0.037849795073 
-0.024299332872 -0.017253560945 -0.0034238346852 -0.00051537388936 -0.0039141443558 -0.0051733041182 0.010650145821 -0.0027719570789 0.0042103598826 
0.0053207944147 -0.0069901812822 -0.0097764898092 7.0952846727e-05 -0.018347619101 -0.028634671122 -0.035812191665 -0.032232686877 -0.031701501459 
-0.031458877027 0.042561471462 0.033692505211 0.013653013855 0.016297478229 -0.034888472408 -0.033028502017 -0.030823567882 -0.033975925297 
-0.032089840621 -0.035220533609 
POINT_DATA 1114
FIELD FieldData 31
Circ_Strain_Pt 1 1114 double
0.99358354428 0.99290596474 0.99452946128 0.99629850886 0.99427481408 0.99356834447 0.99572080831 0.99445519741 0.99680417272 
0.99704096947 0.99692763093 0.99771850398 0.99380526928 0.99673054365 0.9948752671 0.99865582841 0.9964202821 0.99905121133 
0.99774618996 0.9983889683 0.99837983962 0.99780591086 0.99791643168 0.99679691285 0.99500112479 0.99686605591 0.99607630361 
0.99852876821 0.99921445349 0.99924047503 0.99877370877 0.9995172325 0.99756394331 0.9975350489 0.9979686664 0.99734010388 
0.99713485739 0.99821560664 0.99121904679 0.99502657411 0.98352467793 0.99073393912 0.99303798736 0.99634036402 0.99522082983 
0.99702959638 0.99611064399 0.99671614947 0.99481302195 0.9964986769 0.98653421059 0.99243782048 0.99142950922 0.99637103839 
0.99655790975 0.99868521934 0.99886406769 0.99890050531 0.99891094904 0.99922992893 0.99983409433 0.99884579692 0.99746979278 
0.99667221064 0.99604759284 0.99646484222 0.99665495284 0.99807882734 0.99865013562 0.99895827775 0.99854572304 0.99854985504 
0.99937740778 0.99797838366 0.99958705067 0.99811854533 0.99829840362 0.99675721579 0.99796788963 0.99667744046 0.99594557977 
0.99598702264 0.99089299288 0.99472825551 0.99235054341 0.99487005032 0.99790633524 0.99689813274 0.99680737591 0.99871162845 
0.99705214341 0.99830999465 0.99721624705 0.99825968014 0.99730936267 0.99850599674 0.99817522851 0.99897119318 0.99825161467 
0.99904242002 0.99699407349 0.99849741391 0.99518587987 0.99711766674 0.99511110994 0.99626236494 0.99784612277 0.99762438516 
0.99678969035 0.99745735655 0.99524442254 0.99685281563 0.99388900393 0.99645711718 0.99760584275 0.9975816705 0.99835877527 
0.99773588214 0.99717291796 0.99147226446 0.99469253002 0.98917948032 0.99472542466 0.99137782448 0.99609083351 0.9982773042 
0.9980564512 0.99744908361 0.99918856161 0.99724143023 0.99955900187 0.99833537505 0.99804827542 0.99897656454 0.9968609488 
0.99836736904 0.99590835213 0.9977359961 0.99604216756 0.99687739104 0.99667167376 0.9963978768 0.99801838678 0.9984361564 
0.99862319701 0.99899524329 0.99899285316 0.99884633262 0.99928864098 0.99533324847 0.98536365352 0.98980880308 0.95691858135 
0.98120366718 0.97313627581 0.99033977506 0.99368111805 0.99847597931 0.99783151473 0.9991908247 0.99883403796 0.99885369753 
0.99731343268 0.99743639906 0.99638549058 0.99643681176 0.99646081975 0.99644934391 0.9981163384 0.99771679374 0.99900404041 
0.99832692719 0.9994140768 0.99856031576 0.99653125731 0.99579116506 0.99374628977 0.99224141339 0.99117499541 0.98984093851 
0.99221326322 0.98968378675 0.99622970005 0.99316843308 0.99499274382 0.99623186792 0.99262422929 0.99491978611 0.99511400011 
0.99724668907 0.99682082456 0.9986083124 0.99632500355 0.99718794777 0.99588473345 0.99666857611 0.99550097396 0.99661740519 
0.9941160334 0.99662646839 0.99352262214 0.99656212231 0.99156752497 0.99845945232 0.99905549439 0.99919488843 0.99876405315 
0.99819546999 0.99775886713 0.9972727229 0.99676800861 0.99797651257 0.99838421552 0.99861926836 0.99947052306 0.99833049994 
0.99802778762 0.999015323 0.99957875609 0.99863111825 0.99820448653 0.99700840617 0.99250419984 0.98815654245 0.9961744583 
0.99806145853 0.99895576526 0.99909269181 0.99922801158 0.99921737749 0.99759846253 0.99714155617 0.99829423184 0.99885437345 
0.99851482604 0.99786544938 0.9981543064 0.99636393296 0.99489897323 0.98968222754 0.99081872952 0.99496540322 0.99802943416 
0.99738002521 0.99854977565 0.99845073863 0.99834611957 0.99923438713 0.99929797513 0.9991885924 0.99907432631 0.99803793538 
0.99677207392 0.9964047741 0.99601292798 0.99543473649 0.99618556546 0.9974484165 0.9965625984 0.99153045791 0.99297956397 
0.9949856626 0.99523502843 0.99347823408 0.99322740331 0.99652715016 0.99888454051 0.99885896129 0.99881219214 0.99837143934 
0.99684794994 0.9971788877 0.99814495923 0.99734086903 0.99502096654 0.99143235795 0.99431436219 0.99672205119 0.99818716627 
0.99861977247 0.9978610177 0.99631291325 0.99579828456 0.99600661427 0.99605399782 0.99662246862 0.99745012603 0.99418059582 
0.97853645013 0.96880306371 0.9877985765 0.99574849955 0.9979271705 0.99863086739 0.99820682827 0.9974954114 0.99648631476 
0.99581126095 0.99595106634 0.99621112369 0.99886085483 0.99749156957 0.9993628531 0.99908336627 0.99921241373 0.99891660629 
0.99853799926 0.9980766993 0.99805181032 0.99771540865 0.99820039098 0.99786971037 0.99818811893 0.99905308239 0.99911603603 
0.99875165038 0.999063104 0.99924202024 0.99870983578 0.99824418425 0.99621132375 0.98950093391 0.98857946543 0.9981219175 
0.99436204633 0.99896219834 0.99903748775 0.99923273474 0.99876525657 0.99809257089 0.99809545742 0.99840897454 0.99816594753 
0.99848331102 0.99861505356 0.99858689592 0.9973555903 0.98368468168 0.97605888123 0.9831032998 0.98832397189 0.99156669895 
0.99281060224 0.99490797511 0.99102601227 0.99890562894 0.99906363299 0.99873596111 0.99785792449 0.99557202725 0.99451814668 
0.9959826536 0.99678059189 0.99696899168 0.99470749031 0.9928141791 0.9968791052 0.99820820509 0.99805752353 0.99742164845 
0.99600241637 0.99451833541 0.99312549115 0.99277756332 0.9961579491 0.99779098426 0.98868693691 0.96993375233 0.96203232186 
0.96159989359 0.98156412057 0.99777003791 0.99861404568 0.99794593576 0.99692531112 0.99644101064 0.99682675327 0.99642981158 
0.99648652673 0.99666103874 0.99760530855 0.99844151721 0.99898848032 0.99938716641 0.99936621647 0.99945076228 0.99953014335 
0.99948723524 0.99903724371 0.99868120752 0.99777665462 0.99668164796 0.99454290037 0.99503203852 0.99542128233 0.99461589399 
0.99483913101 0.99554055417 0.99630168537 0.99476014476 0.99204029675 0.9917687315 0.99176086934 0.99740532884 0.99859968684 
0.99875180055 0.99913385544 0.99349555021 0.99614501968 0.99665749646 0.99698398053 0.99864221532 0.99901038693 0.99863513984 
0.99865924328 0.99892843358 0.99919520023 0.99915605269 0.99897862335 0.99800713899 0.99791892937 0.99870202087 0.998755658 
0.99853541739 0.99898969265 0.97315781454 0.97744375417 0.97522516216 0.98601699401 0.99206058423 0.99247980543 0.99928596266 
0.99882661508 0.99911865114 0.99907085395 0.99936703023 0.99935673691 0.99885513749 0.99761686716 0.99769950877 0.99762438959 
0.99855396344 0.9985311571 0.99913285192 0.99902939436 0.99882400475 0.9992057518 0.99889306287 0.99838172481 0.99831988745 
0.99374367447 0.99469834783 0.99630293921 0.99705603073 0.9977400862 0.9968339949 0.99699645673 0.99877247576 0.99743386576 
0.99648880745 0.99627580807 0.99598808179 0.9989917886 0.99448874701 0.99397167813 0.99308783185 0.99264872172 0.99415904517 
0.99511809335 0.9966600214 0.99672406315 0.99673378572 0.99463579105 0.9931962884 0.99705805696 0.99787332802 0.9974909443 
0.99713365996 0.99477116054 0.99182913894 0.99079654657 0.99330905077 0.99429343447 0.99550829813 0.9926248898 0.98362819211 
0.9764619502 0.98091885781 0.99296448546 0.99691549559 0.99856837515 0.99806831071 0.9975983347 0.99746160302 0.99723276186 
0.99686394348 0.99596192938 0.99557443532 0.99688618921 0.9981560168 0.99941332097 0.99982121425 0.99993275957 0.99974600003 
0.99952413931 0.99918917123 0.99862926913 0.99828380262 0.99770761847 0.99578785595 0.99431396728 0.99388003699 0.99509136632 
0.99675089847 0.99425742837 0.99321565929 0.99530535694 0.99561955633 0.99407636245 0.99206961344 0.99180279797 0.99400154577 
0.9927311269 0.99579795979 0.99851535352 0.99837217311 0.99823262849 0.99778766052 0.99662462858 0.99422914131 0.99177526473 
0.99232521582 0.99341770494 0.99442438126 0.99163749315 0.99575604248 0.99814033206 0.99820131864 0.99874989146 0.99869491106 
0.99808772135 0.99369014035 0.98711774016 0.98926341772 0.99269275086 0.9946263766 0.99518910983 0.99617451821 0.99747698571 
0.99825463388 0.99894259934 0.99878289433 0.99889013027 0.99905454494 0.99908873609 0.99941643442 0.99927300003 0.99910435765 
0.99957062951 0.99954089967 0.99940257875 0.99943926699 0.99932739618 0.99902248985 0.99901737407 0.99692081614 0.9959855775 
0.97883785 0.97561026111 0.98760019129 0.99526180666 0.99640257887 0.99336412851 0.99467138186 0.99499133709 0.99505541399 
0.99636973549 0.99723651433 0.99744140341 0.99783925661 0.99910201677 0.99939381878 0.99899303841 0.99866382302 0.99899270003 
0.99924037924 0.99869503551 0.99808649685 0.99845455558 0.998819074 0.99881499012 0.9987705555 0.99860194592 0.99890983314 
0.9993088026 0.99896037435 0.99848749214 0.99856169288 0.99807199452 0.99720452189 0.99705417697 0.99797686876 0.99836611396 
0.99620832382 0.99561990981 0.99602980861 0.99626739217 0.99835562455 0.99839840285 0.99745266533 0.99727341733 0.99812256505 
0.99799826141 0.99110664411 0.99027669775 0.98931135634 0.98917177013 0.99308886329 0.99832301169 0.99734398257 0.99467553907 
0.99280831966 0.99168443227 0.99085680739 0.98942421242 0.99292466644 0.99293876444 0.98506097904 0.97782285214 0.98434956368 
0.99288310643 0.99616445615 0.99791883666 0.99861264624 0.99801350444 0.99724930258 0.99625894958 0.99496746764 0.99328585784 
0.99758092392 0.99699864848 0.99832051037 0.99887181943 0.99947904349 0.99954198673 0.99948083853 0.99949734112 0.99821949316 
0.99734962191 0.99704282652 0.99709577005 0.996248404 0.99540311917 0.99600472009 0.99704829362 0.99739681703 0.9974985647 
0.99558627975 0.99831772173 0.99191037278 0.99181903581 0.99272809248 0.99492779384 0.99586289377 0.99425965064 0.99216442175 
0.99489625655 0.98971693217 0.99626826161 0.99718683037 0.99593150744 0.99508588375 0.99550460782 0.99439228531 0.98850493666 
0.98786572621 0.98795814391 0.99070388566 0.99366761657 0.99576139808 0.99686401734 0.99465583804 0.99394296501 0.99479631927 
0.99532011736 0.99090433495 0.985352669 0.98347142312 0.98332891019 0.98535537022 0.9899769671 0.99413593017 0.99673017392 
0.99702752078 0.99722768029 0.99796283005 0.9956148598 0.99287657049 0.98958791495 0.99018954136 0.99240697662 0.98861357018 
0.99424770692 0.99529292816 0.99713236071 0.99813443491 0.9988233013 0.99933269161 0.99949761082 0.99929474565 0.99897724786 
0.99831221116 0.99424968468 0.99453853887 0.99656408805 0.99679354894 0.99642493713 0.99681518294 0.9974452381 0.99868949972 
0.99574286862 0.99864932703 0.99237081779 0.99115440184 0.99061677959 0.99120244758 0.9931950862 0.9958622519 0.99473470009 
0.99675276585 0.9976203888 0.99871714679 0.99936332625 0.99940958391 0.99939690946 0.99929245649 0.99930914406 0.99923264631 
0.9994504849 0.99957129121 0.9996098616 0.99956201959 0.9993656622 0.99920553866 0.99884786966 0.99844153698 0.99933888662 
0.99822595111 0.99825393336 0.99462476875 0.99167918138 0.99003279804 0.99475008218 0.99791347214 0.9977494144 0.9962359284 
0.99528710135 0.99504479402 0.99577495304 0.99680965275 0.99736663793 0.9976487493 0.99806405951 0.99904966308 0.99902632725 
0.99781720586 0.99767263281 0.9979546533 0.99713542852 0.99731696119 0.99828456486 0.99828678719 0.99838731734 0.99879364062 
0.99792340591 0.9981426027 0.99807689033 0.99803922365 0.99801757732 0.99838866357 0.99902622901 0.99959722132 0.99935454868 
0.9993246242 0.99885061474 0.99888583482 0.99827027757 0.9961557801 0.99531165955 0.99198765753 0.99338766572 0.99571852818 
0.99417466042 0.99362222873 0.98934797203 0.98750845853 0.99203307846 0.99672836783 0.99610531721 0.99481353518 0.99402036915 
0.99402165438 0.99585763857 0.99670218715 0.99134146468 0.99509413511 0.98724500247 0.98624940532 0.9863224803 0.98752771217 
0.99245847433 0.99561900714 0.99468101164 0.99414962389 0.99443668876 0.99337621776 0.99108191172 0.98992685381 0.99084082427 
0.98908327775 0.99062420527 0.9913987956 0.99036811137 0.99400892206 0.9980329741 0.99921646964 0.9994965461 0.9996390072 
0.99913505893 0.99853981352 0.99840770519 0.9985754746 0.99735914723 0.99550363905 0.99769344093 0.9951817421 0.99766423682 
0.99735170051 0.99834142882 0.99663415154 0.9969424042 0.99782700893 0.99718704824 0.99887567958 0.99599377335 0.99057346047 
0.99019388578 0.99568404559 0.99776874347 0.9983446538 0.99885595767 0.99902749011 0.99918641243 0.99933512959 0.9994080812 
0.99932944349 0.99948597415 0.99946308228 0.99951423724 0.99955412365 0.99940825376 0.99926325204 0.99793552896 0.99942072313 
0.99825817386 0.99730471723 0.99527966646 0.99564128293 0.99334672355 0.99256053775 0.99382230248 0.99591668061 0.99664092434 
0.99646578082 0.99661864458 0.9965681743 0.99689116965 0.9970163628 0.99684853179 0.99629418521 0.99696689428 0.99824196167 
0.99899066264 0.9985438741 0.9983867101 0.99833192895 0.99787420551 0.99736626806 0.99745283839 0.99764780569 0.99698908333 
0.99779298705 0.99827847378 0.99847871729 0.99807239854 0.99753426379 0.99741412119 0.99701930406 0.99565626214 0.99740028636 
0.99909245384 0.99898994965 0.99881329259 0.99882117204 0.99833881134 0.99829304013 0.99832942827 0.99830743363 0.99605572448 
0.99252821661 0.99040916887 0.98986308479 0.99047950593 0.99521345366 0.99730111058 0.99754446655 0.99885256532 0.99812229409 
0.99690467763 0.99733012846 0.98963327187 0.98827830266 0.98756953795 0.99170929611 0.99590354328 0.99348963419 0.9961643697 
0.99605314174 0.99790258583 0.99742782015 0.99061810571 0.9950491905 0.99319337715 0.99781140148 0.99929360086 0.99928905097 
0.99916634667 0.99929893778 0.99916354941 0.99854056197 0.99776402268 0.99906925466 0.99930058963 0.99934194154 0.9980332158 
0.99941715537 0.99914741684 0.99913984082 0.99549430164 0.99521082343 0.9952558415 0.99311086856 0.99206704036 0.99164476703 
0.99392220316 0.99550622757 0.99465907987 0.99469609642 0.99552275169 0.99298818302 0.99307144898 0.99462888616 0.99569053624 
0.99520670779 0.99664139752 0.99866498596 0.99919648491 0.99902195444 0.99929330214 0.99844765476 0.99809090932 0.99756565751 
0.99622807093 0.99598209478 0.99583998743 0.99675689967 0.99446253553 0.99460807768 0.99252164567 0.9926672054 0.99435960227 
0.99665362524 0.99779782026 0.9970366567 0.99708312565 0.99849788546 0.9981695609 0.98967365516 0.99133022342 0.99405570081 
0.99648029167 0.99690526737 0.99476999463 0.99328290792 0.99422373819 0.99703759433 0.99776555617 0.99665336074 0.99467625286 
0.99248118245 0.99199330905 0.99026491 0.98687285114 0.98631400766 0.98980812103 0.99325972194 0.99499462151 0.99512148147 
0.99629720413 0.99653103996 0.99482699074 0.99278260797 0.99047451865 0.99048276839 0.98985732479 0.99359410882 0.99068893584 
0.99316441824 0.9921315784 0.99477804636 0.99539081861 0.99129212897 0.99457729258 0.99703702455 0.99700147141 0.9969257631 
0.99587254215 0.99627440879 0.99484498629 0.99530581132 0.99707553954 0.99890273561 0.99887644282 0.99829334377 0.99849640757 
0.99713967685 0.99545906827 0.9939096466 0.99322133651 0.99458100935 0.99320858668 0.99503281507 0.99774449782 0.99795445895 
0.99757015799 0.99840435544 0.99848731649 0.99832563012 0.99895179653 0.99392635428 0.99499156709 0.99325344564 0.99256054935 
0.99288795077 0.99490418953 0.99160247798 0.99212349858 0.99177894758 0.98986018122 0.98953926989 0.9924865844 0.99508163934 
0.99428406633 0.99384025662 0.99389326758 0.99427510644 0.99038666354 0.98956706959 0.9968068569 0.99279267012 0.99662517434 
0.99289748799 0.99627826149 0.99776874529 0.99670118162 0.99576152013 0.99581438561 0.99645717278 0.99694483263 0.99682654096 
0.9977457358 0.99801228057 0.99776325863 0.99637148776 0.99513475219 0.99536315372 0.99580225761 0.9985733784 0.99873229602 
0.99230103122 0.99285332001 0.99032990165 0.99388161174 0.99230592466 0.99529341269 0.99522625518 0.99517960132 0.99666912096 
0.99873702059 0.99876771127 0.99877879374 0.99604896274 0.99828465624 0.99383392815 0.9921681937 0.99528833197 0.9915248011 
0.99536109953 0.99442497378 0.99156040234 0.98917433062 0.99084472619 0.99250768909 0.99138247586 
Circumferential 3 1114 double
0.77068548795 -0.11374937576 -0.6269808276 0.66815654169 -0.11631377087 -0.73208397675 0.62567536663 -0.1043101038 -0.76662680478 
0.76912057792 -0.06251265603 -0.63342185909 0.45368833814 -0.1547466196 -0.8627329323 0.44162697115 -0.14905594526 -0.87320757067 
0.21608241773 -0.15809624011 -0.95291150266 0.20555980837 -0.21121596981 -0.94906963664 0.014045367535 -0.1346817035 -0.9864873195 
0.0084522776711 -0.23541443789 -0.97036039448 -0.12691262368 -0.1162319599 -0.98438990506 -0.083051068184 -0.2109315322 -0.97326375037 
-0.20542314204 -0.10171064929 -0.97330866798 -0.17231596789 -0.15084151522 -0.97199972024 -0.29673040179 -0.12826709017 -0.94455813242 
-0.26302758165 -0.12104024164 -0.95644574191 -0.36528774129 -0.11306527756 -0.92301496977 -0.35661929647 -0.10590066202 -0.92636485343 
-0.45568643927 -0.075925478031 -0.88256277895 -0.47617794778 -0.082421243938 -0.87354098327 -0.58586371992 -0.043575592474 -0.80591734404 
-0.61294569943 -0.079971160289 -0.78247293408 -0.71583345733 -0.026067539896 -0.69034382957 -0.76044429962 -0.067942956994 -0.642967567 
-0.86457301934 -0.0094300426752 -0.49800719869 -0.87401661202 -0.036071175864 -0.48152572691 -0.93651967276 0.019492809453 -0.34239036479 
-0.94500637769 -0.015566669875 -0.32261091397 -0.9803734821 0.042055316886 -0.17839436451 -0.98635068632 0.0074922096745 -0.15731710385 
-0.99485234101 0.07316041403 -0.056351892036 -0.99683702216 0.059710295296 -0.026732239006 -0.99263808191 0.10937083055 0.026726987917 
-0.98683958136 0.12720010802 0.070695407209 -0.97481826744 0.12233969954 0.16357853751 -0.9580432648 0.15309174541 0.22573672944 
-0.96184523332 0.11353140469 0.24865191465 -0.91578333665 0.17862755579 0.3549386202 -0.95576464433 0.074070616317 0.2791497984 
-0.88525071768 0.20875200023 0.40901423128 -0.93370884763 0.01501699596 0.34815127195 -0.85650568263 0.21535373891 0.46426082096 
-0.80677057172 0.048019267425 0.57651511193 -0.77575478864 0.19290689507 0.59205378852 -0.67844823412 0.061138350043 0.72336980619 
-0.66472366428 0.19649892284 0.71257232541 -0.51745538041 0.061649898809 0.84241305251 -0.50532969133 0.17811428117 0.83289782857 
-0.32144385551 0.057764543777 0.93875665181 -0.29125600222 0.12512037796 0.94101245306 -0.10968764541 0.061667058894 0.99105709717 
-0.012849311601 0.054308208918 0.99507015132 0.13121403991 0.058289310179 0.98235342645 0.198693706 0.038828910198 0.9762472479 
0.28993625409 0.072749727137 0.95056112159 0.3339752877 0.043212523321 0.93897239005 0.39705168335 0.079545209496 0.91259781002 
0.432392792 0.051384424782 0.89896062917 0.47707196708 0.077748170516 0.8744043108 0.50427067034 0.067615231909 0.86010081657 
0.54822539782 0.084150991202 0.83164938036 0.57516453773 0.071962618116 0.81451513105 0.64617162474 0.061394400139 0.75822262121 
0.67302617229 0.063798044047 0.73371578115 0.75209729566 0.056554846329 0.64863478654 0.77418102729 0.042036163292 0.6257795347 
0.84501915394 0.036399436802 0.52464636745 0.85906006618 0.018864836268 0.50796375841 0.91382200914 6.6464774295e-05 0.40376222072 
0.91765051444 -0.0023616199832 0.39471399707 0.94993636412 -0.0091398399435 0.31166097989 0.95666674074 -0.012494925231 0.28862598913 
0.97819643124 0.018308168003 0.20040006058 0.98570196195 -0.031877996003 0.15593643635 0.99308843538 -0.020664677478 0.098567067628 
0.99698404777 -0.025777524904 0.056328063994 0.99714442251 -0.034642960474 -0.013176043866 0.99599448221 -0.027532822209 -0.047555994561 
0.98463720146 -0.037312935807 -0.14745883932 0.98098153346 -0.034415321576 -0.18069652452 0.94810517284 -0.056180279681 -0.29857437618 
0.94125775131 -0.029559485434 -0.31392444724 0.88074984197 -0.085649133972 -0.45671496904 0.8645334027 -0.032921727375 -0.49455488376 
0.97278029927 -0.064601926632 -0.22254231155 0.98774418434 -0.027885807521 -0.067794871409 0.99300047898 -0.031158726852 -0.039607210556 
0.98433717002 -0.075258358764 -0.15595329828 0.99793423102 -0.0032142177248 0.058236430069 0.9971930486 0.0061353028516 0.064837815638 
0.99424544198 -0.01355932307 0.10078217168 0.99205938945 0.0069255464057 0.11855825974 0.98626860394 -0.013241714787 0.15637737906 
0.98298320289 0.01439405167 0.17634165585 0.9745180793 -0.0035404125375 0.22345673556 0.96938871029 0.032644545644 0.24278450569 
0.94609237074 0.0034846992508 0.31513349268 0.94294660069 0.028120581034 0.32521072516 0.90739503346 0.015126115339 0.41258555139 
0.90974926434 0.034062442598 0.40877080642 0.8536443744 0.034408712422 0.51719056646 0.86527754496 0.058049010389 0.49633020518 
0.75417546933 0.083097433913 0.63926918053 0.8061360623 0.083421117012 0.5795923789 0.6706865715 0.12616211295 0.72965685844 
0.75277654658 0.11566614981 0.64657738277 0.62276571873 0.15354212952 0.76691392916 0.7147090587 0.14066339912 0.68327289614 
0.60516581313 0.15586246059 0.78058343691 0.64019819059 0.17651667192 0.74403438874 0.53588238487 0.17514997026 0.82006713947 
0.54099280878 0.19261771357 0.81388006583 0.41790156445 0.20942020996 0.8835734429 0.40950837578 0.18651204675 0.89146797595 
0.33360932641 0.20517465255 0.91835440222 0.31096129621 0.18915689003 0.92920068397 0.24405786831 0.20615556833 0.94504052879 
0.23722834715 0.20475158354 0.94767851385 0.1310325163 0.20323527236 0.96483116272 0.15451095371 0.20428579126 0.96610746998 
-0.086620444306 0.16520755107 0.97291156038 -0.053042399558 0.15476910531 0.97463770081 -0.2569615351 0.12118773778 0.95126696215 
-0.2560836013 0.11191966792 0.95004783143 -0.39691103886 0.086267519538 0.9122383692 -0.43694902809 0.085870662859 0.89413580049 
-0.49579961171 0.11875954771 0.85700332965 -0.53674227101 0.074622125204 0.83629834746 -0.56290396132 0.11603452919 0.81698503954 
-0.6039096992 0.079352565585 0.79234588718 -0.6119791339 0.098159251694 0.78433128913 -0.63221268817 0.10065763042 0.76747245438 
-0.65631691768 0.1043875299 0.7462399266 -0.65297191158 0.12134283823 0.74699518417 -0.72771994996 0.0954731007 0.67144883481 
-0.7227081221 0.1030017226 0.67860116572 -0.81497833325 0.077078825036 0.57294254887 -0.79417873013 0.087868237241 0.60075352048 
-0.89276656831 0.047849024721 0.42857139423 -0.85613389766 0.070269955634 0.50234195658 -0.94387928339 0.013256115744 0.32738496893 
-0.91066358793 0.0436466918 0.40624456003 -0.95639562683 -0.029096587052 0.28868181908 -0.94550956025 0.039017546944 0.31687394254 
-0.97036670193 -0.0253469691 0.23482831823 -0.96693541815 0.02516327488 0.24853517262 -0.984139915 -0.01049365024 0.17265177694 
-0.98142660272 0.0060563178116 0.1879041317 -0.99397061541 -0.012815213976 0.087126937629 -0.99277033405 0.0031147971709 0.089944979131 
-0.99898555801 0.0021807797983 0.026055773993 -0.9865411925 -0.038949103057 -0.055478983706 -0.99908338391 0.034858819559 -0.010047029209 
-0.93070273696 -0.12176801038 -0.32862000644 -0.89798874715 -0.081796683944 -0.2943734554 -0.85164639008 -0.15840636315 -0.4812277142 
-0.79684820595 -0.19522810083 -0.57135214368 -0.78362152513 -0.17585029963 -0.59544355822 -0.78151134894 -0.16562109537 -0.60065472519 
-0.76174495045 -0.16324464092 -0.62640187794 -0.76754671117 -0.14538907739 -0.62398951223 -0.74376166264 -0.14578854594 -0.65188092858 
-0.75445542777 -0.13268544177 -0.64274434657 -0.72774644832 -0.12737863425 -0.67357752731 -0.67268876204 -0.12245035236 -0.72406511151 
-0.65831392631 -0.12551712127 -0.73845494443 -0.58241046257 -0.12076206105 -0.79917454949 -0.57317196812 -0.12252750212 -0.80601428865 
-0.47872602429 -0.13253529375 -0.86450091712 -0.48167806707 -0.11380045987 -0.86630678172 -0.41763580053 -0.12891280898 -0.89845565132 
-0.43681216266 -0.10200924242 -0.89326846474 -0.37318250132 -0.11902439045 -0.91997812037 -0.41598725005 -0.087761492588 -0.90468744652 
-0.32991762412 -0.10405953578 -0.93733511076 -0.37248653859 -0.074581126377 -0.92392812547 -0.24342599601 -0.094378848518 -0.95739449787 
-0.29620921671 -0.065960844973 -0.94762400419 -0.062542800801 -0.09623686892 -0.98335494058 -0.1065483573 -0.083140251097 -0.97975752773 
0.10214425877 -0.10231904298 -0.98160319573 0.082254804381 -0.10155827209 -0.98396407346 0.25346824906 -0.11188647176 -0.95698674471 
0.24174896911 -0.10156178905 -0.96143490031 0.39629998304 -0.14178149224 -0.89611034826 0.37851874283 -0.10745216333 -0.91227125363 
0.53360518821 -0.17426304309 -0.82734925874 0.51132267718 -0.12208828745 -0.85001778022 0.5914903838 -0.14564793007 -0.79036349473 
0.58166350362 -0.13131950362 -0.79985890694 0.65184535714 -0.12530411615 -0.7455494475 0.64277548975 -0.13232028785 -0.75261166823 
0.71914850076 -0.12822976214 -0.67871226695 0.71664273123 -0.12511183171 -0.68155765341 0.7837390423 -0.13275489607 -0.60049106357 
0.79208148 -0.12369347476 -0.59057865878 0.84557011878 -0.13890715075 -0.51068916659 0.86541541681 -0.12415489483 -0.47882425933 
0.90889190018 -0.10867029781 -0.37528286729 0.93182494657 -0.10131448483 -0.31406548937 0.50613269123 -0.087603069754 -0.85028869665 
0.68761250121 -0.022528992868 -0.72106849538 0.23323504753 -0.1946270344 -0.94655847538 0.010553658286 -0.19054916629 -0.97991530907 
-0.088305462896 -0.14123458854 -0.98570200385 -0.18753183922 -0.13236296702 -0.9724923686 -0.29380528843 -0.13060619875 -0.94620445827 
-0.36988028668 -0.10326093986 -0.92185980336 -0.47169382081 -0.08047036542 -0.87503759316 -0.60307302119 -0.078439143423 -0.78807388694 
-0.74541095798 -0.077011770851 -0.65721879964 -0.85790046689 -0.068598056516 -0.50503677436 -0.93334899148 -0.046721411024 -0.34987455591 
-0.97647750978 -0.0085067199003 -0.20354145563 -0.99561275864 0.048807502109 -0.054148848117 -0.98956177447 0.10918749948 0.069086210738 
-0.96180034725 0.13084027084 0.23150652324 -0.90824812515 0.13187904169 0.39443117929 -0.85239164097 0.17378507703 0.49299164126 
-0.77993313312 0.1888632401 0.59362233987 -0.70273539624 0.20063343956 0.67919611421 -0.61794765492 0.2064839998 0.75382168768 
-0.46791833408 0.15897926716 0.86210123305 -0.17903612354 0.061047287063 0.97345392698 0.10382403135 0.019872015063 0.99249695929 
0.25903102696 0.01987980337 0.96473249193 0.36030246298 0.037783213639 0.93062447166 0.43738109792 0.053283110782 0.89646556407 
0.50830999969 0.065086347755 0.85757356292 0.57191912381 0.077395376055 0.8160130783 0.65420511567 0.074326548322 0.75160032773 
0.7547203822 0.047987837552 0.64906943957 0.84503427545 0.023315531902 0.52880101242 0.90932937327 -0.00051416322597 0.41398954236 
0.9544788188 -0.020390203606 0.29348673205 0.98604977557 -0.036160024167 0.15001914504 0.99841476579 -0.013296255806 0.041573562293 
0.99674452945 0.0052769590489 -0.058999004474 0.98232261792 0.017149662338 -0.18163925828 0.95589416115 0.10852410841 -0.25818182241 
0.89079943988 0.11915687046 -0.41464020132 0.79929394053 0.030550844493 -0.59822352635 0.99579093544 -0.046061404509 0.05308625749 
0.99249866876 -0.069571564034 -0.053761775474 0.98914864065 -0.029882107622 0.13739798987 0.97666564618 0.00030130519584 0.20828434666 
0.96436679566 0.031022154547 0.26217764186 0.94821773217 0.035782903207 0.31441600985 0.92563641389 0.042166879656 0.37267483297 
0.89933443043 0.056019251039 0.43325859773 0.8670582786 0.081132446726 0.48836509989 0.8362304132 0.13087226832 0.52681698661 
0.78439982135 0.18887203989 0.58830683127 0.69275655786 0.2192296911 0.67733217699 0.56354221926 0.21402370901 0.79320107944 
0.40878941716 0.17095265733 0.89061700536 0.29986111093 0.16832977282 0.93712818171 0.22517460822 0.19444165041 0.95351437752 
0.12461930263 0.20911013145 0.96811642192 -0.034615253713 0.17195940271 0.98041454436 -0.2244430361 0.11872673293 0.9586340548 
-0.39757040458 0.067206401852 0.91166007839 -0.52241970366 0.040703199965 0.84699293836 -0.63010682031 0.025936552181 0.77317360395 
-0.68335486705 0.060244613399 0.72541041563 -0.685953884 0.097759288586 0.72083459004 -0.73676341165 0.11878366621 0.66525998129 
-0.70167386465 0.12500111606 0.69929095724 -0.78733485333 0.11429301946 0.60055592258 -0.84316582517 0.11139426844 0.52335004653 
-0.89413432675 0.114327395 0.42237543032 -0.94512378424 0.092772670564 0.30292054325 -0.97763290069 0.069153903973 0.19302361472 
-0.99191246343 0.040116224135 0.073249231727 -0.98007496967 -0.052460363359 -0.1209134011 -0.94488291135 -0.12927529352 -0.28390116009 
-0.86276185304 -0.19493207693 -0.45481138938 -0.80983082897 -0.20112178107 -0.54776745712 -0.76494311916 -0.1893484643 -0.61352379128 
-0.7375495609 -0.17292188793 -0.65071986055 -0.70737535446 -0.13797041811 -0.69251714164 -0.65986445742 -0.12484022366 -0.7391093462 
-0.57375737206 -0.12181212942 -0.80544960202 -0.47362569832 -0.12324913695 -0.86962334972 -0.42213067653 -0.11597438282 -0.8976133529 
-0.39623630256 -0.099589460547 -0.91248793951 -0.39851595833 -0.058676236059 -0.9140305404 -0.35798468382 -0.063816058888 -0.92412585201 
-0.30096716171 -0.0048660714976 -0.94364950658 -0.16157740697 0.010328631883 -0.93839059112 0.22777886221 -0.10078746584 -0.95214465203 
0.37805413085 -0.1077584125 -0.91601445455 0.47326582087 -0.09715333749 -0.8740119519 0.55548443989 -0.10067926936 -0.82288849834 
0.62333183203 -0.10273786106 -0.77267346958 0.68838557091 -0.11277865043 -0.71434610507 0.77143897611 -0.11795295283 -0.61543658689 
0.8536067103 -0.12006158858 -0.50385920903 0.92431058034 -0.10711108675 -0.34545329521 0.97415218913 -0.09080640871 -0.19379212812 
-0.69147579082 0.11965422517 0.71169004004 -0.68379192048 0.11485475585 0.72040821942 -0.15328943562 -0.087777800452 -0.98301190962 
-0.085229979184 -0.13223733999 -0.98637362388 -0.23542346446 -0.077672157019 -0.96732785661 -0.32349257033 -0.088737331108 -0.94145366544 
-0.39391262714 -0.096867685354 -0.91243372511 -0.47520422465 -0.09593701843 -0.87230196551 -0.58428625358 -0.093619061185 -0.80364970403 
-0.72333648206 -0.089939209164 -0.6811102072 -0.83308149653 -0.079235700704 -0.54254116446 -0.91405197557 -0.054853018337 -0.39691162357 
-0.96067802643 0.010548831901 -0.26846604181 -0.99047003937 0.056136759752 -0.1015691998 -0.99182789998 0.10338145294 0.0398429303 
-0.97282837635 0.13708718692 0.17593616723 -0.92862759656 0.13136165867 0.34535945471 -0.87121527819 0.14335874202 0.46604111069 
-0.80250270333 0.15422205738 0.57047377966 -0.72370990442 0.15345033108 0.66883390211 -0.64305769983 0.16604511425 0.74584783791 
-0.50138187389 0.12844205576 0.85039659878 -0.31123589999 0.081729063067 0.93467451299 0.27136590699 0.0092804230547 0.96119636232 
0.1589199975 0.0094675591589 0.98366549121 0.36784014142 0.02023279391 0.92892262246 0.46028304055 0.036143389789 0.88554071082 
0.54301089412 0.052060564072 0.83676400533 0.60022872099 0.073747125147 0.7959689406 0.67909522593 0.066042872597 0.72854522495 
0.76486350154 0.048145062201 0.63714069452 0.84358363281 0.036283393226 0.53245134176 0.89904198423 0.024410066243 0.43503154323 
0.94336176183 0.015626708396 0.32828197188 0.97760751322 -0.0033812551278 0.20259943438 0.99395701625 0.032851603384 0.07825635349 
0.98509026966 0.13326822858 -0.064788939576 0.92874822277 0.20356460073 -0.26473740077 0.90104362338 0.25410127086 -0.31807034747 
0.8148678657 0.16593556737 -0.53325010303 0.73116836189 -0.010642937785 -0.67756414304 0.62233884373 -0.065143588187 -0.77187855873 
0.4992074006 -0.086557130733 -0.85302386701 0.047542758996 0.00091135944974 0.99393498104 -0.17402340021 0.057244511468 0.97868305447 
-0.71403958457 0.12379390541 0.68807034468 -0.68810140463 0.11798302414 0.71577981539 -0.73332205455 0.12976743632 0.66661435936 
-0.78163477979 0.13666933248 0.60575197712 -0.82917206394 0.14632715399 0.53224024956 -0.88760107838 0.14399000682 0.42349297947 
-0.94612566281 0.12257518973 0.28075912249 -0.98044182882 0.073067238676 0.15305512693 -0.99685764308 0.0068387774878 0.022071048901 
-0.87477594418 -0.18087137342 -0.44460832879 -0.93603950807 -0.12202706099 -0.30549456042 -0.8182069507 -0.20083436834 -0.5332573508 
-0.76618254629 -0.2134674964 -0.60557056692 -0.70488545066 -0.18942965878 -0.67838587588 -0.65520865642 -0.15865953331 -0.7374013155 
-0.61211230262 -0.13433420133 -0.77684996439 -0.5169884201 -0.13219405635 -0.83796909659 -0.39116666272 -0.14361169135 -0.90551318606 
-0.33957124412 -0.14061872138 -0.92879493448 -0.37692178486 -0.12455340884 -0.91687038793 -0.41131859371 -0.12979684116 -0.90201802775 
-0.42744627307 -0.096068277713 -0.89692253159 -0.44229000018 -0.030928369495 -0.89442184681 -0.16275161392 -0.03766529785 -0.93181694396 
0.20413713793 -0.074081572581 -0.97354385492 0.33596991069 -0.074725884716 -0.93241565607 0.45575456282 -0.079000333515 -0.88522276423 
0.5354629838 -0.082562015786 -0.83944856421 0.61640829471 -0.087351940195 -0.77939002465 0.70157216891 -0.10072564044 -0.70174370035 
0.78641727624 -0.11237289587 -0.60001108274 0.86558902907 -0.1215775626 -0.4811449698 0.92554245054 -0.10713532897 -0.34194359826 
0.97541113145 -0.095429287627 -0.17656636722 0.99280957137 -0.084552392176 -0.037215259787 0.99259313607 -0.054055741195 0.077703451392 
0.98173544028 -0.023544467049 0.17902611401 0.96828361149 -0.0070421823815 0.24672976577 0.95552729301 0.016833332611 0.29421452578 
0.94429823816 0.04357103225 0.32508752414 0.93043722026 0.052919539782 0.36148013498 0.91393696123 0.068749216535 0.39932874612 
0.90005267618 0.11888964154 0.41672090201 0.8731922176 0.16938867566 0.45208827224 0.83074405689 0.22443718141 0.50671718939 
0.74364779591 0.24364319413 0.61118968511 0.63369821236 0.24201077643 0.7285787654 0.47919022397 0.19674597493 0.84811742603 
0.33816672858 0.16135019243 0.92240679313 0.21977585717 0.15557878921 0.96211511219 0.12920510457 0.1821184343 0.97409420391 
-0.048264850888 0.14372148179 0.98055851958 -0.22121452697 0.10127400259 0.96372418199 -0.37362302636 0.065882020581 0.92189630681 
-0.52286542023 0.034507652561 0.84226524236 -0.65130361256 0.0049857584155 0.75773087177 -0.69990436927 0.020948972725 0.71065109965 
-0.74201480784 0.047912030958 0.66845542736 -0.70998727407 0.10264788644 0.69613101753 -0.69361559463 0.10845087758 0.71180347507 
-0.67721675218 0.093747417322 0.72968339551 -0.67249318393 0.098013012621 0.73314349807 -0.97207836141 -0.078712713948 -0.19185271459 
-0.99345245235 -0.031918072467 -0.065176035068 0.045168457326 0.02765959905 0.99748630874 -0.065893849378 0.053526363397 0.99323384177 
0.16324112556 0.0027509950333 0.98485820711 0.28073252829 -0.020666148224 0.9577605462 0.37117892935 -0.018201561529 0.92787193806 
0.46232131725 0.0043526154389 0.88351063618 0.54551434313 0.026439965254 0.83515716663 0.61775384521 0.047428300657 0.78380935259 
0.67619157522 0.068011889764 0.73184386814 0.76275894554 0.055366491074 0.64192019745 0.83475857649 0.056689893129 0.54443612181 
0.8922971075 0.042721790063 0.44873305078 0.93736048804 0.029682440999 0.33972918662 0.96608095069 0.047468228764 0.24509970943 
0.97894253527 0.098589210677 0.15980530288 0.97641554558 0.19141477492 0.084812196296 0.8510554845 0.31490381445 -0.41240341373 
0.89034180254 0.31119042864 -0.31710728928 0.80482447333 0.18113315625 -0.53734955607 0.69338592235 -0.032160625441 -0.71053295245 
0.56090203826 -0.11934030311 -0.81694503037 0.45324316013 -0.14068907858 -0.87729184004 -0.23435848931 -0.067861178339 -0.96890392607 
-0.19368642711 -0.092004519408 -0.9760644816 -0.28992292329 -0.068422638433 -0.95364947212 -0.36198635284 -0.076946325389 -0.92839855612 
-0.45518298904 -0.10153775267 -0.88311281319 -0.5219562213 -0.10758237948 -0.84509514966 -0.59197365674 -0.1044071716 -0.79717760649 
-0.67600758428 -0.092708308886 -0.72672485309 -0.78949083112 -0.06785510994 -0.60721887071 -0.88561306046 -0.033258576934 -0.46157835753 
-0.9476449696 0.03052236572 -0.30928251898 -0.99162162154 0.041591843633 -0.096961373183 -0.99431141521 0.07350960873 0.051818535335 
-0.97667416821 0.088342101687 0.19083467613 -0.94673364666 0.090338831502 0.30573270018 -0.90435902427 0.096210257271 0.40969777078 
-0.85274158018 0.10198067366 0.50723959855 -0.78676581227 0.10593046607 0.60382478348 -0.70324970244 0.10548598746 0.70008935841 
-0.59491739732 0.085263242325 0.79168935792 -0.40779239221 0.054919259353 0.9054767653 -0.33969943201 0.098416002415 0.92788125088 
-0.31810790168 0.1472382497 0.93132585952 -0.078357403262 0.12584073221 0.98697660733 -0.23519659706 0.14619821444 0.95061071261 
0.063558471735 0.051326580407 0.99357016332 -0.05968711969 -0.19352552631 -0.97762170323 -0.13843924624 -0.17559287333 -0.96915770737 
-0.018997912892 -0.23528457469 -0.96808932293 -0.085892202113 -0.21868908871 -0.96831315473 0.95328473013 0.26190905942 -0.13207248048 
0.95337474095 0.27913400168 0.029763021259 -0.731575656 0.093894856226 0.67498301742 -0.79857297441 0.11023096935 0.58283718923 
-0.86731792401 0.11492954925 0.47367730019 -0.93180871795 0.092433337693 0.33287034738 -0.97303999993 0.053590049074 0.1977325079 
-0.98940558541 0.012716329975 0.10563874897 -0.99837373866 -0.033819449237 0.022913627813 -0.98656226288 -0.059919798156 -0.12557940896 
-0.99176606774 -0.068165133097 -0.067322264885 -0.96441861746 -0.084800536944 -0.23899251042 -0.91377001158 -0.14287967346 -0.36943672352 
-0.85961021773 -0.20656881338 -0.46472520496 -0.78757632882 -0.22259945794 -0.56400551125 -0.71371417812 -0.22915466069 -0.66086641091 
-0.6611387711 -0.20856298478 -0.71741813454 -0.61016725957 -0.18054467461 -0.76829239435 -0.50726486484 -0.1878041093 -0.83511156839 
-0.37031435517 -0.19097254585 -0.9004607918 -0.25470211158 -0.15649093507 -0.9510905503 -0.26860497378 -0.13932304358 -0.95221216681 
-0.32235225172 -0.13064935694 -0.93659373739 -0.40062296023 -0.1429393086 -0.90363535512 -0.32909120082 -0.14222055613 -0.92101477024 
-0.19899930276 -0.13075617182 -0.9625260648 0.0019101644483 -0.10614260632 -0.98409516271 0.20132442324 -0.080738543364 -0.97279837989 
0.3348491402 -0.068374684692 -0.93633387163 0.440403077 -0.058422404667 -0.89532174918 0.52638058363 -0.062870659325 -0.84454232006 
0.61308441886 -0.074704181791 -0.78121479251 0.7027527987 -0.096472923548 -0.69921338984 0.78772334443 -0.11760849537 -0.59272040432 
0.86928960141 -0.14134895225 -0.46944594247 0.9209967258 -0.1499267316 -0.34695699773 0.98197124398 -0.11433733248 -0.11632849179 
0.98765503059 -0.11969581624 0.021890439417 0.98277575828 -0.10016904885 0.13043054106 0.97188822909 -0.060684078837 0.21861627837 
0.96272416655 -0.028235638367 0.2662393154 0.95410743342 0.002526120955 0.29920107702 0.943770535 0.025152202523 0.3283359388 
0.93568276315 0.060038296513 0.34573973913 0.93018746096 0.10368397688 0.35172268203 0.91015057924 0.15566787702 0.3800442267 
0.8797868809 0.1924648883 0.43144144186 0.82937926567 0.21267088105 0.51287075717 0.75020129272 0.21842710285 0.61611972705 
0.63555965494 0.20227216801 0.74257404051 0.50315776173 0.16474267797 0.84182360689 0.3794022469 0.13389486263 0.91249906559 
0.3072477952 0.13498424736 0.93859927101 -0.14792285517 0.084766314566 0.97679340849 0.026641711207 0.11235834111 0.99057646214 
-0.3051244915 0.067190856176 0.94498519001 -0.44156776432 0.035757452473 0.89107695235 -0.58566132044 0.015152989255 0.79759227233 
-0.69630976799 0.011416964114 0.71303757385 -0.72127673602 0.024348132761 0.69052474664 -0.73048175768 0.054501374769 0.67884993728 
-0.76506075529 0.083008291596 0.63634537523 -0.7537992145 0.11220475011 0.64527456361 -0.71419010799 0.099648495419 0.69008802492 
-0.63917256866 0.046099798699 0.76673128734 -0.7181963707 0.073082368078 0.69031917393 -0.64377633762 0.056460353049 0.76193123005 
-0.69059607449 0.073363570393 0.71647160588 -0.77769178749 0.068317505856 0.61425661944 -0.86753777008 0.046219424092 0.48090140794 
-0.93267736863 0.029819810617 0.33215840853 -0.97262655904 0.0078104193973 0.20954458924 -0.77410620163 0.091215426237 0.62524545675 
-0.76093126802 0.077718249612 0.64354926936 -0.79168606289 0.086512169545 0.60402346254 -0.7596153716 0.06988586123 0.64397301242 
-0.69368743885 0.031923856387 0.71694981057 -0.79815278978 0.069053175929 0.5982379842 -0.64895624181 0.0021070020361 0.76053592497 
-0.65008587043 -0.019871037231 0.75912363968 -0.69255342123 -0.0039557511088 0.71676300008 -0.75221629775 0.024647464505 0.65610397553 
-0.84738123818 0.0018315541693 0.50455323026 -0.93471030937 -0.026488211429 0.34512199941 -0.97754287509 -0.026166559377 0.18363617249 
0.1835310972 0.13690966083 0.97052496362 0.25616370706 0.12206046659 0.95876198144 0.15715568491 0.025572051208 0.98666140978 
0.25299435318 0.0083967638563 0.96423608461 0.35090980523 -0.004573735585 0.93304095256 0.46818451106 -0.012655341107 0.88181740945 
0.56647709926 -0.0080873693732 0.820535434 0.64479735355 0.0081609546745 0.76308114553 0.71165753355 0.03812879319 0.6988495242 
0.76701690833 0.06115986147 0.6359656778 0.82052793041 0.07269356968 0.56510063956 0.87314014789 0.064256002283 0.48185259554 
0.92181302425 0.064016754582 0.37970179033 0.94463264006 0.086773587416 0.31126564031 0.95325085871 0.14317971674 0.26501099215 
0.9548378887 0.20902846103 0.19187562533 0.94948145523 0.26962325516 0.15573016425 0.947349469 0.30939324882 0.034501578233 
0.94040040655 0.29062763684 0.15006628433 0.9433867016 0.30216372396 -0.08354774246 0.92121086435 0.30385552065 -0.23281819027 
0.87494584228 0.25169239894 -0.39651198613 0.80451904753 0.11570729985 -0.5621331644 0.66657664492 -0.040337036046 -0.73079278754 
0.54628507245 -0.12426543703 -0.82173838305 0.43770392845 -0.15875428366 -0.88193585777 0.26067632197 -0.21561441147 -0.93506023234 
0.29980787158 -0.18450267496 -0.93170311554 0.10275133134 -0.23496499178 -0.95787626932 0.12721856861 -0.24375992892 -0.95270624587 
-0.022834305145 -0.28516039549 -0.95244041279 -0.12604041445 -0.28647455624 -0.94411933068 -0.18459978781 -0.22998316762 -0.94928701423 
-0.2354246206 -0.16488668553 -0.9556299917 -0.26805408734 -0.11171999714 -0.95463271407 -0.31813003932 -0.092188126886 -0.9429122569 
-0.37297089156 -0.098116603072 -0.92213446155 -0.43552304421 -0.11436417336 -0.89211167999 -0.49469870803 -0.11475407514 -0.8602857657 
-0.55049116701 -0.07704125477 -0.82932673892 -0.61630822594 -0.023791982942 -0.78389696546 -0.70321000297 0.021564174144 -0.70978404391 
-0.81754956113 0.037797638849 -0.56882751633 -0.90894506088 0.020625779901 -0.40495052871 -0.99358999262 0.039634069445 0.09173763599 
-0.99648906729 0.026160140911 -0.030356963838 -0.97259201471 0.028461004827 0.2262845361 -0.93877941105 0.012644895034 0.34033322839 
-0.91331571179 0.0026504469021 0.40471463075 -0.87361175214 0.0011421923687 0.4822652878 -0.82600161576 -0.010154326877 0.56230881289 
-0.7585630862 -0.01158490929 0.64734365212 -0.68832460398 -0.0063736636487 0.72025101025 -0.60965256757 0.022413370693 0.79053261548 
-0.51040134337 0.085372790438 0.84543557145 -0.49819980768 0.13880633092 0.84886221135 -0.49338486306 0.17934291327 0.84387200044 
-0.22092646842 0.16666898845 0.9545838526 -0.38745435645 0.16385071758 0.896502031 -0.058268853851 0.13230599566 0.98490456023 
0.041052434715 0.11300545861 0.9885210659 -0.98536903868 -0.0026752941704 -0.14705856799 -0.95787129446 -0.00042879338536 -0.27528378796 
-0.99672436643 -0.051098157265 0.047846648768 -0.99058803325 -0.048028060166 0.060456375179 -0.99256515495 -0.059962831913 -0.070939081068 
-0.99470216826 -0.068463799285 -0.025171671129 -0.97735183625 -0.08065426916 -0.18739582157 -0.95454906642 -0.095267619643 -0.26211557553 
-0.91695699598 -0.12231547995 -0.35843889168 -0.85677435648 -0.15499242978 -0.48593908595 -0.77624861912 -0.18741406084 -0.59111744787 
-0.68756216661 -0.21718147174 -0.69137787951 -0.62167081451 -0.21273725137 -0.75035233505 -0.55152365341 -0.20655249827 -0.80650532474 
-0.43443642652 -0.19084280488 -0.87293711689 -0.29974708438 -0.17600360319 -0.93296874044 -0.18852004458 -0.1615533486 -0.96664126119 
-0.19132222749 -0.14121488577 -0.97115690672 -0.27609182876 -0.13317588553 -0.94851516166 -0.36056036803 -0.14613787473 -0.91915945473 
-0.35896551746 -0.14355506601 -0.92123407894 -0.29777585964 -0.12825520539 -0.94392614469 -0.052753024832 -0.097833584017 -0.97946046046 
0.14799006887 -0.077565021257 -0.98471688096 0.26831382048 -0.061363450702 -0.95580929563 0.36840942899 -0.043151495361 -0.92705614779 
0.44901137587 -0.034857406086 -0.88934140802 0.53680088134 -0.042999472377 -0.8388171682 0.62405917651 -0.068349537686 -0.77438381475 
0.7138618128 -0.10110103997 -0.6842881428 0.80983344523 -0.14858756664 -0.55782860278 0.90175875826 -0.17110379129 -0.3637364087 
0.98841587294 -0.10699071516 0.084303249755 0.97972383356 -0.14694296468 -0.014314222111 0.98092514676 -0.078052533706 0.1624861798 
0.9707609488 -0.045763718098 0.23229123897 0.95975166235 -0.019495598325 0.27798406668 0.95319298361 0.019748885633 0.30108966968 
0.95054764677 0.050311618407 0.30626595266 0.94789829353 0.079576075561 0.30603223109 0.94723237565 0.11674824867 0.29713065472 
0.91830779581 0.15222095552 0.35715015401 0.87369104787 0.17555497689 0.44861026599 0.81709026213 0.17467545449 0.54420122275 
0.72861872082 0.16018114669 0.65426120815 0.62947159294 0.13803297934 0.7623158453 0.49752746064 0.12101600028 0.84949061822 
0.38489169984 0.11314484061 0.91479802991 0.32791055477 0.11560847261 0.93512104346 0.33240097031 0.11543695555 0.93450348532 
0.24471482078 0.11815624907 0.95896911909 0.34660676073 0.11599352412 0.92834717584 0.075304422738 0.097475723253 0.98488327554 
-0.0017245403828 0.10198641373 0.98845234552 -0.15128415181 0.070773461896 0.98003966921 -0.31520091371 0.044679748981 0.94273725034 
-0.4591474051 0.045531697516 0.88306320476 -0.58560869876 0.042678401551 0.80227922401 -0.69118738281 0.039822588543 0.71941839114 
0.97216776863 -0.16568833228 -0.13108363519 0.95264440074 -0.11441370453 -0.26507483097 -0.98339422834 -0.047859503544 0.14007798684 
-0.99479364166 -0.078783255878 0.02940653013 -0.9883707567 -0.078461707913 -0.10218002345 -0.99307999544 -0.087278412954 -0.00074437774258 
-0.98570019325 -0.068593097621 -0.14872167928 -0.97080095572 -0.075399081651 -0.19895075335 -0.95032616758 -0.093413591412 -0.28108364024 
-0.92533749693 -0.10546985014 -0.34791826684 -0.875505021 -0.12269350648 -0.45134679359 -0.79057692353 -0.1374770646 -0.57190726955 
-0.69883643026 -0.15213309143 -0.69748413196 -0.62986987836 -0.15191296468 -0.75686179596 -0.55195000339 -0.1498779853 -0.81716871447 
-0.44592908201 -0.1428430143 -0.87698796546 -0.31984919415 -0.13373507683 -0.93273162022 -0.18328488291 -0.12904501098 -0.97105083973 
-0.1187517965 -0.12280659638 -0.98483591918 -0.2695340246 -0.14329268006 -0.94834406989 -0.3734165592 -0.17415960238 -0.90953612403 
-0.34212335169 -0.17900154717 -0.91883230052 -0.26082435941 -0.16667538954 -0.94661976209 -0.11406464083 -0.1018952023 -0.98009394225 
0.041047443871 -0.067022538398 -0.99231668785 0.18332523176 -0.055889617395 -0.9744447666 0.29974027844 -0.041338739895 -0.95137750527 
0.37695459088 -0.027646979224 -0.92410554674 0.47466602485 -0.025154197802 -0.87527742547 0.58053489938 -0.029600616683 -0.81183438453 
0.67593654595 -0.065866482143 -0.72273193045 0.7592257504 -0.10574314099 -0.62881590879 0.88016159062 -0.10268317104 -0.43997091504 
0.94504089728 -0.10636059012 -0.24164614942 0.98352509929 -0.12696547083 -0.046539611992 0.9717747853 -0.0059576894247 -0.20668164599 
0.98637362558 -0.13172966213 -0.0084929675193 0.98756015184 -0.1009345982 0.027362356091 0.98793782642 -0.083132731354 0.11596186547 
0.97600550333 -0.062131523443 0.19193636504 0.96465057297 -0.03447832525 0.26059888822 0.95616173173 -0.014217832753 0.29044047182 
0.94970882585 0.01718559691 0.31221199239 0.94821867628 0.04660905085 0.31301374747 0.95051288107 0.071168570979 0.30165812059 
0.95905488058 0.081379615134 0.27069860813 0.94132732439 0.11304653628 0.30706268456 0.89011545794 0.12090293034 0.42558262656 
0.82962059252 0.10305169759 0.54599473382 0.75857330779 0.10254296442 0.6361927217 0.68087274033 0.099928693675 0.72368247663 
0.56854157697 0.10602035696 0.80593438683 0.44018331557 0.10911070552 0.8885913091 0.41885945631 0.096051425813 0.9004226427 
0.34070882951 0.10339407698 0.93347992702 0.44990683714 0.087186122804 0.88623983319 0.1954370638 0.10529592271 0.96610913254 
0.11152607146 0.10475010696 0.98696953459 -0.05844797183 0.082078810523 0.98807683097 -0.16313524173 0.067895687007 0.97590927564 
-0.31426697086 0.047156563038 0.94269438614 -0.47101285928 0.048062702817 0.87457574079 -0.62693455797 0.071247486409 0.76880652328 
0.16747351675 0.066981312656 0.97689084666 0.30754944223 0.0021803095914 0.94837303673 0.42068158851 -0.03098313249 0.90220818238 
0.51213349265 -0.045831821139 0.85641485857 0.59349390972 -0.036373964879 0.79978847904 0.67079625015 -0.022802830158 0.73971281123 
0.7305943385 0.0021643248156 0.68008214216 0.78675172375 0.019171576021 0.61369785007 0.83988965021 0.035024256483 0.5407514249 
0.88386854949 0.049146402936 0.46139735363 0.91443462782 0.072501707278 0.39530978358 0.93217531262 0.10886821796 0.34317071226 
0.93417630223 0.1719068199 0.31006727794 0.93406321907 0.22697893689 0.26594394781 0.93526246822 0.26445689669 0.22482953493 
0.93797757092 0.23569995166 0.24630158227 0.95373390707 0.22963593309 0.18693656899 0.93741318296 0.15731372641 0.30980263719 
0.94826248272 0.30949447622 0.019472189621 0.94136649444 0.3174768596 -0.075295082056 0.93601705429 0.26908137078 -0.21952478328 
0.86564914859 0.16049079588 -0.42952157272 0.7753740392 0.052606971118 -0.6198462636 0.64999360122 -0.043525829841 -0.74709254627 
0.5213982446 -0.11592295481 -0.83781869781 0.3929089423 -0.16130056859 -0.90340300957 0.23600678202 -0.20359484829 -0.94028265575 
0.095159033438 -0.25810317287 -0.95512722683 -0.015447159047 -0.30208337374 -0.94759176316 -0.11600873802 -0.30677131269 -0.94257951532 
-0.18438732479 -0.29285783643 -0.9357171971 -0.24469919298 -0.23568163323 -0.93803471739 -0.29104703957 -0.15283551573 -0.94192934775 
-0.29575014313 -0.11611332289 -0.94782766058 -0.31526737531 -0.09477269063 -0.94346647778 -0.39285243753 -0.087513405039 -0.91517031451 
-0.47434153749 -0.071369628117 -0.8756267613 -0.5239934941 -0.0202006895 -0.8480275165 -0.59743092746 0.040135233387 -0.79997739862 
-0.70103173857 0.041521645848 -0.70686730647 -0.79387659226 0.033814503211 -0.59900671131 -0.87113124394 0.030558445973 -0.48428653129 
-0.93217387362 -0.010603617701 -0.35153289056 -0.98476014993 -0.050450384966 -0.13711569231 -0.97122898476 -0.075128657391 -0.21309717207 
-0.99511416867 -0.015700042621 -0.065807908161 -0.99569625669 -0.010561103739 0.047051165518 -0.98361075736 -0.0055897233205 0.16098059691 
-0.94764785535 -0.017667123721 0.30868398094 -0.90009182202 -0.01915043875 0.43254811242 -0.8701693605 -0.034510573792 0.49043139773 
-0.84383735616 -0.053322162417 0.53172332015 -0.79635525011 -0.058123946781 0.6016845957 -0.74887310698 -0.028189982396 0.65932389723 
-0.70068707168 0.004275073425 0.71143367055 -0.67699836176 0.060594713421 0.72922044032 -0.66644861532 0.12594561425 0.73323403733 
-0.61035011887 0.10929155484 0.77834040244 -0.56042048449 0.10555947118 0.81928404636 -0.49848822437 0.10595593862 0.85581808688 
-0.27458860995 0.15280555348 0.94743239379 -0.40066538215 0.1075588061 0.90562840047 -0.23114755139 0.18784095007 0.94761406964 
-0.077270337824 0.15502557752 0.97563592284 0.10348800593 0.095657295215 0.9859447352 -0.94195970385 -0.092574091257 -0.3030919274 
-0.84016835227 -0.11239631718 -0.52465641031 -0.75177955446 -0.11831739501 -0.63691660291 -0.67328571215 -0.12117730395 -0.72888162902 
-0.60265497718 -0.11973213858 -0.7841873994 -0.52591052524 -0.11962098189 -0.8409754218 -0.39156240351 -0.11170832759 -0.90365393587 
-0.26617088069 -0.099184893505 -0.95772295511 -0.19374023347 -0.069070338384 -0.97546003147 -0.15007372581 -0.036826634711 -0.98746131238 
-0.34058574866 -0.16865334071 -0.92393062375 -0.22535469258 -0.13005808793 -0.96113792146 -0.34355468007 -0.18716003748 -0.91898437428 
-0.25455361882 -0.19167189015 -0.94300461736 -0.08269130628 -0.12574123128 -0.97253500317 0.084632870304 -0.071824118333 -0.99130586957 
0.19086020453 -0.068247078415 -0.97420396317 0.29019862749 -0.060673074977 -0.95270797071 0.37947330232 -0.044227799235 -0.91964465121 
0.48288071859 -0.033916142537 -0.86963387572 0.59132374083 -0.042997421016 -0.79596484843 0.70123695138 -0.05607347636 -0.69801999908 
0.79763431991 -0.048340311078 -0.57530403109 0.86982828493 -0.026631878711 -0.47685049725 0.8868158511 0.018140361059 -0.41317914647 
0.94643041869 0.062724533094 -0.27357731077 0.98757832244 0.076581418793 -0.078838888033 0.97236642805 0.12652763875 -0.12298529707 
0.98519416387 0.019573483512 -0.050419798858 0.98436658882 -0.052025664681 0.069972377392 0.98101452409 -0.075983930824 0.15403714926 
0.97474268091 -0.063241868832 0.20772112369 0.96450421998 -0.041190079118 0.25351891481 0.95591076635 -0.020940975086 0.29261684887 
0.94409693876 0.004084997525 0.32664129328 0.93246274366 0.036042068791 0.3586439385 0.93346295266 0.055182862724 0.35280651224 
0.9439639398 0.064127221285 0.32150991483 0.95871427475 0.04768196329 0.27745525435 0.95559780167 0.035289139188 0.28813987167 
0.79515035601 0.064222106519 0.60192394408 0.85633128526 0.05551481289 0.50510326188 0.71253412177 0.063932710206 0.69091688681 
0.61254690695 0.067318744694 0.78641781462 0.50583481665 0.079456365287 0.85379797201 -0.14649267242 -0.090207431133 -0.98449045828 
-0.16417968191 -0.03668796091 -0.98529233597 0.55274489127 0.074671204773 0.82684985229 0.42657163595 0.095995981323 0.89596233477 
0.52758155612 0.077882429883 0.84462853795 0.33345868599 0.10115207014 0.93276359567 0.13330280287 0.10694739766 0.98163173931 
-0.093834369165 0.082905683912 0.98329560291 0.27601078765 0.030529598324 0.95085071893 0.39463252253 -0.014017279969 0.91770375967 
0.46848969898 -0.016365978839 0.88051741578 0.53460207755 -0.013677459495 0.84393682758 0.60400391531 -0.0090424133472 0.79237686018 
0.67531050466 -0.0032335960022 0.73573700085 0.73454631285 0.0022448481326 0.67535622007 0.79203542309 0.0083826318882 0.60757343707 
0.847058788 0.014528208178 0.52957174808 0.89831349095 0.022658400466 0.43455879998 0.92232999191 0.061328318719 0.37986581518 
0.92727560673 0.11019155227 0.35765333533 0.92131799083 0.15599250119 0.3543342835 0.92555852696 0.18698744624 0.32818720413 
0.93565278221 0.11816186326 0.32938941675 0.96052823994 0.12138578435 0.24235103989 0.94833612932 0.049516696698 0.31242808361 
0.96402836129 0.16413038292 0.1999265105 0.96444017132 0.23113295584 0.068476512379 0.95043388428 0.2595339911 -0.12075972086 
0.93759062868 0.26644321117 -0.2105318367 0.89742119385 0.20934038333 -0.36184737182 0.82473341531 0.14252893092 -0.5280725143 
0.70277031843 0.054045574189 -0.69198298976 0.56343999454 -0.021590535477 -0.81619779222 0.36188703914 -0.10290035979 -0.92320209607 
0.17305256933 -0.16712502817 -0.96236162221 0.030137398499 -0.22568485869 -0.9698322524 -0.071313716014 -0.28523368382 -0.950502206 
-0.15858524113 -0.31060681394 -0.93570541969 -0.22222288583 -0.29996704489 -0.92589604316 -0.26785991683 -0.26217639137 -0.92513792206 
-0.29273359287 -0.18980820299 -0.93529240743 -0.28571760348 -0.11942333626 -0.94916160554 -0.28383802337 -0.064453328165 -0.95616426203 
-0.35268786633 -0.051841439265 -0.9331892091 -0.43551311745 -0.02001148625 -0.89770205575 -0.49840378346 0.031167934846 -0.86401594186 
-0.56298467611 0.076557833161 -0.82206444946 -0.65813465321 0.075968471537 -0.74326596301 -0.7529325402 0.053543947776 -0.64956618602 
-0.84248445562 0.013899392996 -0.52963156393 -0.91051094868 -0.040894628316 -0.39553271901 -0.94519759519 -0.051464791405 -0.30935490014 
-0.98221000201 -0.072531878699 -0.1385819097 -0.97894289463 -0.094390196357 -0.16716340979 -0.99469446663 -0.090032026709 -0.035405418627 
-0.98460088107 -0.10322710551 0.076445107582 -0.97223664965 -0.1103670386 0.19548929292 -0.93600739805 -0.095503898307 0.32108944115 
-0.89124884327 -0.071900101883 0.44321463509 -0.82600441833 -0.046335610546 0.55807686256 -0.80881736512 -0.030728449235 0.58382592602 
-0.81069964995 -0.024891628084 0.58364936477 -0.80885169438 -0.0243493531 0.58712899097 -0.77923404806 -0.011599332066 0.62551966091 
-0.75647608566 0.0062989149461 0.6519771597 -0.73946282802 0.022869090288 0.66432312404 -0.71376466939 0.034609574098 0.69472022895 
-0.7036688281 0.066123409366 0.70312299808 -0.65379325953 0.086221450054 0.74702428176 -0.55641811444 0.089589547143 0.82295893228 
-0.40543289197 0.09031242819 0.8994791837 -0.20427554379 0.11167687804 0.95551867535 -0.16827010816 0.093314035372 0.96385316455 
-0.091823654942 0.1279822919 0.97092651209 -0.73694072474 0.10914994488 0.66475735318 -0.78035592886 0.090842971198 0.61669817979 
-0.80915807543 0.087929526634 0.58088562338 -0.81043909784 0.016950902678 0.58508055279 -0.77450293388 0.010060436355 0.63055059497 
-0.71705478334 -0.00014296996905 0.69639073459 -0.67141141968 -0.063998616283 0.73616082961 -0.67241536057 -0.11943132069 0.72895018759 
-0.73219499193 -0.11551140331 0.66034323153 -0.81938864379 -0.071459361866 0.55150948359 -0.92259627645 -0.039521115411 0.34305510953 
-0.97453095423 -0.050116669791 0.20489145828 -0.97693086384 -0.075569817351 0.15824823206 -0.99321300066 -0.09118830775 0.034962897003 
-0.98165113516 -0.085137504085 -0.14091728163 -0.98849462243 -0.099334869158 -0.059498017195 -0.98086921296 -0.083204220342 -0.15155539837 
-0.93813652163 -0.084832722816 -0.29452705476 0.41819369994 0.056757738866 0.90398855414 0.29417073185 0.081548370861 0.94330884137 
0.50827739164 0.0066767411556 0.85735545435 0.58780673269 -0.0047606078559 0.80760481617 0.64796756104 -0.019752559747 0.75776215285 
0.70216486297 -0.02297737283 0.71032805232 0.75325128849 -0.018419325143 0.65374414475 0.80405731403 -0.014798248854 0.59191304258 
0.84791404932 -0.005663687692 0.52737659883 0.89592998616 0.011529025417 0.43878723866 0.93715569648 0.036469347752 0.34656343247 
0.91943826373 0.082674831979 0.38391169699 0.92157327271 0.10514591229 0.37273108931 0.96955595456 0.063176700651 0.23113046286 
0.96016979612 0.042708949271 0.27306178361 0.95040792002 0.070465494467 0.29938505652 0.96827182412 0.062620930671 0.23476293895 
0.9806760127 0.10914808092 0.15561976327 0.97408702546 0.16800544941 0.06716915803 0.96343546139 0.2325470275 -0.049311797436 
0.94454956933 0.22678546789 -0.21843114762 0.90450752417 0.20064703233 -0.34497105112 0.8116546486 0.11719110044 -0.5615545886 
0.70365444108 0.056959620613 -0.69314135294 0.60266448722 0.01499164706 -0.79207694824 0.53034166544 0.011182564413 -0.83422795861 
0.09133076682 -0.13792155386 -0.98126332148 0.19202894153 -0.093180790552 -0.97274201266 -0.0024688584907 -0.20171910912 -0.97454697607 
-0.12759059067 -0.24573322483 -0.95538904526 -0.2401265206 -0.2710312366 -0.92974141003 -0.30249804063 -0.26552501887 -0.91345311287 
-0.30318643651 -0.18926865597 -0.93212370931 -0.26902736489 -0.11600199382 -0.95438321342 -0.23039203011 -0.056896804183 -0.97110929527 
-0.27633432759 -0.0062374291034 -0.95977343875 -0.47901087104 0.050206814277 -0.87442258337 -0.39587186421 0.030669528142 -0.91483788363 
-0.55272167956 0.059433054684 -0.8296411374 -0.63074658515 0.05550571244 -0.76934994795 -0.72006200714 0.04108387453 -0.69208650743 
-0.79666055567 0.020467009968 -0.59475100806 -0.86751628373 -0.00083200011562 -0.49227655758 -0.93090934465 -0.065229455911 -0.34708206713 
-0.96325358242 -0.093839122802 -0.23473832181 0.3254139436 -0.048046312191 -0.93820767499 0.41805079438 -0.016075085448 -0.89748401616 
0.9252320394 0.037337183139 0.37362155212 0.94330943221 0.030246182366 0.32820030934 -0.35511444395 0.034053461429 0.92946140237 
-0.50120205761 0.061541365064 0.8543854596 -0.61268213174 0.092141171789 0.78287119654 -0.67467392982 0.10066234557 0.7280245032 
-0.73644082852 0.09116758767 0.66749657581 -0.79314788041 0.041151661029 0.60497338606 -0.7921168892 -0.025508797415 0.60817646325 
-0.91682120874 -0.087649938637 -0.37829927244 -0.82338108971 -0.091946128709 -0.53161340152 -0.71340011389 -0.093564288265 -0.69028163455 
-0.64104363819 -0.078267636642 -0.75928244117 -0.56434571708 -0.068836284708 -0.82070928132 -0.46747989265 -0.061043711682 -0.87563456119 
-0.3721901433 -0.042081525922 -0.92568406836 -0.28990437955 -0.013390960917 -0.95269328761 -0.23222448991 0.0049274291908 -0.97064839185 
-0.17928609338 -0.065533582071 -0.98033826214 -0.20178829557 -0.097848840378 -0.97242284831 -0.26764008473 -0.1337189592 -0.95021261135 
-0.34187127624 -0.16077096728 -0.92451463481 -0.37298354849 -0.15780087443 -0.91302356706 -0.35317915207 -0.15315491859 -0.91666772928 
-0.20650375756 -0.12818571079 -0.96071662981 -0.023535326969 -0.094704584174 -0.9871014284 0.15100393172 -0.07658796567 -0.97867118519 
0.25114016562 -0.06152690431 -0.964255096 0.31831950408 -0.054991882298 -0.94398387189 0.41582911497 -0.036090184139 -0.90259156408 
0.51658029554 -0.020275038289 -0.8459528749 0.62460837004 -0.0028712738159 -0.77469392763 0.71707937593 0.018070562693 -0.68009017579 
0.81013315019 0.047260599254 -0.57696802246 0.8818735614 0.07307757058 -0.4384618068 0.92527705835 0.12100981738 -0.29631796812 
0.93177031775 0.1243592836 -0.30622325356 0.98752435441 0.11308751395 0.022172065945 0.97907199294 0.12918931971 -0.12853516765 
0.98803903436 0.089495825782 0.065812883897 0.98737899022 0.0585398893 0.085468252324 0.98528929317 0.010535871443 0.14760211176 
0.98066624349 0.038517449039 0.17745341738 -0.95582879033 -0.095745485456 0.26293972408 -0.98135267382 -0.11436943321 0.11405633084 
-0.99292457295 -0.10774327732 0.017577579204 -0.98794065513 -0.10064644287 0.049792332625 -0.98449730275 -0.10387263357 0.087386395213 
-0.97755007639 -0.11358164467 0.17155366049 -0.9075795696 -0.12842446314 0.39093878778 -0.79493647768 -0.16409859575 0.57891357342 
-0.71432823402 -0.071613890741 0.69428189751 -0.75091214791 -0.0066204713743 0.65860872666 -0.78865244809 0.0019849522567 0.61399154081 
0.93094260828 0.074317602807 0.35632652787 0.92145409525 0.074971178441 0.38104050646 0.93187774895 0.070600149604 0.35445128585 
0.95031853084 0.043228027196 0.30505315402 0.95589847211 0.031298396274 0.29066657143 0.93332703886 0.03344795935 0.34627942452 
0.88568420989 0.028852904567 0.46180424704 0.91438105065 -0.0053028261507 0.40035180642 0.89841154144 0.025398055828 0.42652436406 
0.85278564517 0.029340229766 0.5118813766 0.79435662715 0.034416736988 0.60497414757 0.72948409119 0.034609354882 0.67968292072 
0.64174651196 0.051586968949 0.76064664359 0.65262405287 0.043789385582 0.75293741424 0.54674614694 0.051382515833 0.83369022219 
0.59645757125 0.033517776703 0.79948758981 0.46987001158 0.079502322046 0.87758344225 0.31526043215 0.10275685306 0.93740369249 
-0.70617585861 -0.11961369887 0.69332439499 -0.78090757638 -0.14662768177 0.59881910581 -0.89649489055 -0.14269448417 0.38690076238 
-0.89739266529 -0.062815979759 -0.40352631228 -0.28162623649 -0.13688328581 -0.94554213836 -0.36142739269 -0.20339944028 -0.90976533163 
-0.33510653539 -0.23342047092 -0.91142861139 -0.28847261462 -0.23819322155 -0.92347856862 -0.17968448623 -0.19720315092 -0.95561029578 
-0.014416695147 -0.14561881089 -0.98275174504 0.12189043362 -0.094458930751 -0.98511318432 0.22634980712 -0.072467521844 -0.9689802135 
0.33510683968 -0.047777898469 -0.93643536259 0.47313763795 -0.016790962141 -0.87715966614 0.58556446012 0.0074487421989 -0.79949426162 
0.67342961627 0.027143214813 -0.73645704338 0.87603427021 0.11529946319 -0.44985502917 0.88870317515 0.11115529322 -0.43874803894 
0.98213794193 0.080792074839 0.13828794493 0.98272935931 0.12368043194 0.017806583036 0.98174824244 0.057024466157 0.17840668368 
-0.81491346396 -0.040745961869 -0.57121063064 -0.72993399139 -0.032511291261 -0.67508029848 -0.64585692828 -0.024301767282 -0.75931384409 
-0.5664202853 -0.023324434738 -0.82059918113 -0.48645702596 -0.015619721743 -0.87133701079 -0.39895238731 0.0090390028537 -0.91337334715 
-0.33255188529 0.016902739437 -0.94260888838 -0.37548577818 0.019045854961 -0.92464530757 -0.45798974665 0.040316173204 -0.88525130621 
-0.52919252737 0.045622768807 -0.84368981464 -0.60615871169 0.035393758585 -0.78905466735 -0.68909583748 0.0198240331 -0.71958196479 
-0.77410719509 -0.0079873657608 -0.62411717804 -0.85979002356 -0.039453940769 -0.49665738148 -0.91713042296 -0.076920481627 -0.37483108351 
0.8396639523 0.02627500396 0.53441429967 0.78896345618 0.024164890913 0.61323293554 0.73361048904 0.03261423534 0.67594546566 
0.97198198443 0.16531352019 -0.093528290872 0.96192031274 0.21094106937 -0.15479829121 0.94666691176 0.14706482784 -0.2527025255 
0.72509662445 0.079582185188 -0.67401134027 0.80479055066 0.12034142265 -0.56802619578 0.64336568209 0.052205381224 -0.76127543651 
0.56223954757 0.023366896294 -0.81826203171 0.5263394406 0.010356227044 -0.84094650203 0.85860041907 -0.0054047617352 0.50483270246 
0.62995542033 0.017013349122 0.77392718362 0.67138897091 0.023445062013 0.74017435034 0.74298875286 0.014980270622 0.66574733057 
-0.95293016262 -0.14033977604 0.23897721057 0.80010761022 0.004686040172 0.59861261796 0.70979221795 0.061240535233 -0.68735310244 
0.79539174651 0.09035249716 -0.58731271198 0.62644136618 0.035158407526 -0.77471553294 0.31877961797 -0.12657736159 -0.93446157597 
0.098633001789 -0.1505304736 -0.97584633334 -0.98587591581 -0.013021881566 0.13499423116 0.12915621261 0.11829786145 0.98082690363 
0.069973440431 0.11008803458 0.98464593476 0.83394693399 0.092447134323 -0.52275562734 0.75794761947 0.060014178034 -0.62573098039 
0.86376212473 0.12359937176 -0.45504873056 
Curv_Gaussian 1 1114 double
3.3874326106 3.1074392041 -0.021263488883 -0.013500142011 3.6674648114 -0.024310686717 3.9391627745 -0.026457416561 3.6809948848 
-0.020024737748 3.3169729293 -5.2662567051e-06 3.5710889441 -0.014855439775 3.9886677001 -0.0065150975263 3.9806010754 -0.0033926145268 
3.859304098 -0.0073253418616 3.838246221 -0.0073975564838 3.8665851256 -0.019087192096 4.3699574314 -0.014853056495 4.4454069704 
-0.0069627503765 4.7431566741 -0.010014330367 4.7492297503 -0.0092239675595 4.8078599084 -0.008339524424 5.3057824123 -0.022901453123 
5.6551409017 -0.01220168731 5.7296955802 -0.015991192145 5.8277243952 -0.061626242045 5.8156047601 -0.034995355409 5.7630797197 
-0.04346821758 5.5054298432 -0.04675545692 4.9100987419 -0.030924990692 3.8975295283 -0.034984486761 3.8968626831 -0.014667906574 
3.7136929869 -0.0084370704134 3.4039117305 -0.0072551410389 3.1453380589 -0.0051847384123 3.1893330054 -0.0046473952514 3.3054860754 
-0.0093827020933 3.5331973393 -0.0091256373538 3.7518797434 -0.0024856225482 3.9142879189 -0.004814555741 4.0348158043 -0.0049473270306 
3.7896775995 -0.0053823630505 3.7350681741 -0.0033121157207 3.4672557442 -0.0075898338843 2.9987382415 0.00077111483732 2.8343852999 
-0.010105770806 3.1926948148 -0.021374151307 5.2514021496 5.1310807401 -0.012531010848 -0.014364890307 4.9971607416 -0.010897841565 
4.8237059773 -0.0081204195733 4.8818544473 -0.0052494306246 5.1438247536 -0.0039694738883 5.1910061325 -0.0037067455223 5.2779381078 
-0.0046983023247 5.4471806656 -0.0080368857096 5.8866851671 -0.017520639462 6.2184326706 -0.022375992265 6.3193798642 -0.0072850548703 
6.8487050145 -0.0089251432419 7.4101025896 -0.014284052417 7.8594417464 -0.021437997038 6.8298726968 -0.010890601997 6.1587946911 
-0.0032542537218 5.8128382623 -0.010741927504 6.0863421738 -0.0048675089026 6.0588395698 -0.0035563153692 5.8610417087 -0.0074212455845 
5.5313286416 -0.011137820462 5.5016908021 -0.010462720094 5.6377899672 -0.0017325144093 5.7913877667 -0.00094999260683 5.6057904518 
-0.0054826968082 5.215189838 -0.011092134663 4.7764590229 -0.013606299619 4.6699472119 -0.016198615324 5.0441176203 -0.011041159047 
5.552174297 -0.0078100991455 6.0070130063 -0.0058264035221 5.8818570731 -0.011172616417 5.6463549958 -0.020293950406 5.2981842818 
-0.023259255886 5.5850934213 -0.015641586552 5.9685067042 -0.0081627676646 6.2932008682 -0.0048505323726 6.2386318635 -0.0026498729592 
5.8793031724 -0.00035674071762 5.3599641181 -0.01216017492 4.8472158035 -0.017832970018 4.3448481483 -0.011736451659 4.0752530786 
-0.0063509344355 3.9507346962 -0.0014861692273 4.8293935155 -0.0051815746919 5.4398257775 -0.0076676759328 5.4645483912 -0.020557825042 
5.7815119155 -0.02136279698 6.3395968793 -0.01092120478 5.9085429355 -0.0091339772033 5.2253398696 -0.0085045322124 4.5341168222 
-0.0046696465002 4.0227604718 -0.0026679987831 4.0174190589 -0.00780928604 4.1674012124 -0.0086285022886 4.4753903076 -0.0063137356149 
4.8506175934 -0.010514844285 -0.0068287716209 -0.024570266264 -0.017023927917 -0.005027210146 -0.00088717049948 -0.00041860036192 -0.0031443821556 
-0.0014028141014 0.0015992049517 0.0098073796158 0.0038882170508 -4.8347112278e-05 -0.0022484443113 -0.0040146369245 -0.0034202625443 -0.0063335210824 
-0.0054781017111 -0.0038315746419 -0.0039790841158 -0.0097689634153 -0.0085191627874 -0.0056309575628 -0.0068640420636 -0.0016277644552 -0.0046400813264 
-0.0040668946977 -0.0028565637043 -0.0026673150882 -0.0025382328417 -0.0019003875885 -0.0028496590697 -0.005311907191 -0.0045155485457 -0.0037174139477 
-0.0053281763636 -0.0066297886614 -0.0048284858271 -0.014602099286 -0.0088028135815 -0.019099216976 -0.054112515505 -0.041958151779 -0.0048011773809 
-0.0052186481827 -0.0041004457809 -0.0044738333247 -0.005369089319 -0.005119959342 -0.0063614010069 -0.0066052091173 -0.007041077647 -0.0095521364182 
-0.010087364463 -0.0041559832162 -0.00049526360051 -0.00097461624891 0.00091010407271 -0.00021887960105 0.00080037103666 -0.00010235446286 0.0012147385947 
-0.00091731014285 -0.0012402244698 -0.00013082827181 -0.00059317390338 0.00038591479393 -0.0014913178408 -0.0011892630335 -0.0046686949627 -0.0060729652096 
-0.0043448967623 0.0016592408506 -0.00017455208711 0.00048124202099 0.0010657511039 -0.014202537004 -0.004147860497 -0.0032333385007 -0.0026105637805 
-0.0047333966473 -0.002340157913 -0.0051506966083 -0.0068370679631 -0.0039427552395 -0.0042894940584 -0.0052763360919 0.0052053908719 -0.0003078505365 
0.0077999378136 0.017643625133 0.0061275079804 0.0036416199319 0.00074926359876 0.00035439234853 0.0017222028794 0.0047332636772 0.0007356403822 
-0.0046994915991 -0.0046849281698 -0.0072935669295 -0.00057325821617 0.0015143711662 0.0027561547373 -0.0029054323031 0.0047801091694 0.0050146842111 
0.0024516730098 0.0004321161248 0.0081714813421 0.0053606023759 0.0032104219086 -0.0012236585198 -0.0036492202465 -0.0028492262426 -0.0022796969766 
-0.0033466118925 -0.0012068875926 0.00012343196201 0.00096031419834 0.002240438487 5.9246423739e-05 0.0077919770849 0.0054175382918 -0.002681025138 
-0.0032574346758 -0.004593059164 -0.0056495395487 -0.0038068475532 -0.0023229395027 -0.0035300151563 -0.0017139892495 -0.0029570761741 -0.0039402186614 
-0.005310840227 -0.005861379958 -0.0073650787148 -0.013383354853 0.0096059618737 0.0077310436374 -0.049332873742 -0.046716499879 -0.02814671408 
-0.012521067276 0.00083432520165 -0.0097443685703 -0.0011263702404 0.00024125527829 0.00021956227485 0.0031823277775 0.002103869888 0.0013113239572 
0.0015161796066 0.0066673688579 0.011188976858 -0.0027805580038 0.0079559677149 0.00095899865815 0.0047018722043 -4.0580190228e-05 -0.0019533842279 
-0.0044507504479 -0.005272931958 -0.0024335138744 -1.256259361e-06 -0.0014793441027 -0.0011716101946 0.0084691357226 0.028045360602 0.02026588282 
0.0028776347 0.0026033652744 0.00094314052128 -0.0013399698345 -0.0022321709804 -0.0031592605905 -0.0035444040663 -0.0030802262709 -0.0021272499511 
-0.0039979867273 -0.0060042628275 -0.0057239029602 -0.0047506061498 -0.0024441892621 -0.00042197458845 -0.0018595930351 -0.0027112463304 -0.0019902181788 
-0.003993134547 -0.004981871974 -0.0065986902879 -0.0064944188722 -0.0049890116839 0.0037313568585 0.0045359993482 0.00046556481444 0.0040755149917 
0.00088948587249 0.0036606450779 0.010547434418 0.0068064239465 0.0062048047438 -0.00027815745483 -0.0058386235936 -0.0025361977993 -0.0016776842112 
-0.0010302501799 -0.00098783947024 0.013222970946 0.012259678165 -0.0099028431914 -0.0081167739153 -0.011197518461 -0.010006313331 -0.0093611927438 
-0.0092706367914 -0.0073686893493 -0.0051160182843 -0.0068384413498 -0.0033738126864 -0.0060187853888 -0.0057438385042 -0.0067968377848 -0.0081356489189 
-0.0090273846346 -0.004796318971 -0.000861852409 -0.0041403684456 0.0099726277364 0.0083076770712 -0.001738120979 -0.0072205852044 -0.0013809679837 
-0.0028830289469 -0.0011538723777 0.00045950029747 0.00034867291698 -0.0007101275007 -0.00078171212678 -0.0057655991078 -0.011776242703 -0.010906495995 
-0.0068638174412 -0.0017711250111 0.0019400758771 0.0037537625389 0.0064680903908 0.0056503966971 0.0065691844972 0.011283148445 0.010826533168 
0.018072192329 0.013231025113 -0.003900483817 -0.008866556276 -0.0056878184975 -0.001232378442 -0.0013883745272 -0.008420818188 -0.0080142772581 
-0.0094129452016 -0.006986500643 -0.0086924784994 -0.0024024972797 -0.002381293847 0.0043830179086 0.010453292392 0.014265446242 0.012629931186 
0.007878664084 0.0055521163835 0.012416314263 0.0039417596771 0.014264798137 0.0078100998905 0.0035985382967 0.0032327027932 0.0015938135984 
-0.00019853871149 0.00038738920634 0.0019649040148 -0.0025785725406 -0.0053552672842 -0.0046895791244 -0.0031681140783 -0.001064581793 -0.0012715459867 
-0.0018448682906 -0.0016130281955 0.0043258454127 0.0015625169853 -0.0017448492429 -0.00043055920655 -0.00049874609589 -0.0022615127421 -0.0047814406227 
-0.0083238249926 0.0007943141049 -0.0087247130146 0.00096624750111 0.0034471558279 0.00032026687219 -0.00029733557306 -0.00024476420317 -0.0011854998228 
-0.0015129073418 -0.00048962739797 -0.00037763665026 -0.00091864972541 0.0019693950836 0.010004236836 0.012935715286 0.0063808523114 0.0075868166848 
0.0042346291677 0.0031163168171 0.0071837554764 0.00070455208124 0.0090952471209 0.011620678345 0.0063802847693 0.0015944782006 0.00041228234516 
-0.0022822725304 -0.0014057637121 -0.00094446937746 -0.0014977647795 -0.0046198626675 -0.00015315042199 0.0040926817959 0.005831182979 0.0055633447501 
0.011710690485 0.012271958768 0.0021064228163 0.003424079478 -0.00097995891791 -0.0029239678438 -0.0010798999945 0.0090851248747 -0.001038821349 
0.0038990635324 0.0056444898791 0.0054862387337 0.0042346486422 0.0050001795684 0.0094241176923 0.0048510474903 0.0011359969334 -0.0043277860131 
-0.0038371495011 -0.005063365264 -0.0056417012954 -0.005879339161 -0.004685141264 -0.0060761713903 -0.0054404211876 -0.0045041577109 -0.003852247331 
-0.00094196165881 -0.0015977425183 -0.0027715599464 -0.0016800745791 -0.000118430629 0.00030845545876 0.0014471764846 0.0065901948654 0.011809094387 
0.006774342612 0.013574527905 0.0026672275611 0.00039014951577 -0.0033093230431 -0.016063694195 -0.0093015714317 -0.014330171898 -0.007045084438 
-0.0055088322389 -0.0066634179716 -0.0039969443374 -0.0014209175256 -0.0011950013986 -0.0033839881713 -0.008741213097 -0.0091276112716 -0.0054813065793 
-0.0055799856491 -0.012877871924 -0.024181857252 -0.014809894598 -0.007151130583 -0.0012870246766 -0.004653100938 0.004953750186 0.0061350492663 
0.012270596675 0.011648498459 0.015723892382 0.014819390827 0.014987071622 0.0090312286479 -0.0097725134437 -0.0028513707964 0.0041125366354 
0.0084523568965 0.014834977194 0.00063048207443 0.00056248306588 -0.0085421240737 -0.004803153282 0.0064085436107 0.0078203383469 0.0054343639669 
0.0044826878593 -0.0015347067085 0.0004847787772 0.00318569908 0.014343720119 0.015608888321 0.012587204885 0.0068373723428 0.0029429164312 
0.010680878243 0.01090902155 0.0029147051837 0.00035637146302 -0.0015497187065 -0.003190330223 -0.0006274296536 0.0055870946026 0.0060712754403 
-0.00019686952299 -0.00084310916139 0.0013661828188 0.0014910671162 -0.00025552216755 -0.00080007744398 0.0013899083362 0.0025577759248 0.003516082922 
0.0012502560376 0.0054812551449 0.0012753533077 0.0010616273747 0.00096640859379 0.00063329412437 -0.00032437767465 -0.0004113822923 -0.0030050993832 
0.0015227214195 0.0060043686104 0.0071192264104 0.01008662774 0.012027580294 0.0089206379846 0.0072395292288 0.0053561447615 0.0051206327652 
0.005491160402 0.0034415565928 0.0022457822542 0.0047500113011 0.0032861475587 0.0050690220494 0.0005933115824 0.0035072971027 0.005943013693 
0.0063895313106 -0.00060764274114 0.0066271524519 0.0035632700279 0.005978655174 0.003269410812 0.006053925562 0.0072282409079 0.0062513919564 
0.014109456035 0.020329352749 0.013226964367 0.0066488529367 0.0083555414627 0.0091159546601 0.0036504276668 0.0052067130754 0.007695329587 
-0.0025676682756 -0.0077569339772 -0.0041255678367 0.0011014499694 0.0085377557257 0.0025718849838 -0.0031926808146 0.00027692698458 0.0020560474067 
-0.00059413652237 -1.9231931607e-05 0.0043781202786 0.010057119536 0.019834446051 0.014833650954 0.018133077574 0.01728285356 0.011194389873 
0.012504322125 0.0039619631542 0.0026710015536 0.0011464852181 0.00027871999053 -1.3909405034e-06 -0.00043643026287 -0.0025533693861 -0.0034505928658 
-0.0026675316721 0.011121665724 0.016188893935 0.0095559712395 0.0089233516878 0.0097031816767 0.011230692651 0.010445866292 0.0025980100848 
0.0038559020559 0.0001974478333 0.010371369879 0.014210587743 0.0035080065616 0.002609190295 0.0047153496344 0.0055259248673 0.0033543706166 
0.0010593771597 0.0019257948006 0.0014992870555 0.00011035104417 -0.00068726826225 -0.0018617135271 -0.0024483670916 -0.0016818568544 -0.00045004948884 
7.6801860006e-05 0.00014075832275 -0.00034413101458 -0.00090220209831 -0.00025860600469 0.00047589948533 0.0029146103601 0.0086509249109 0.0047383211623 
0.0026174573356 0.0030111628819 0.007582252904 0.0051800741958 0.00096480732272 0.0023976719645 0.0036207651068 0.0039322661777 0.0074361121895 
0.0047816910403 -0.0015336491933 -0.0019956128314 -0.0002951263485 0.00058976873437 -0.003502033881 -0.0017549873021 -0.0035518980718 -0.006114726855 
-0.0040504633897 -0.00021139930183 -0.0044088365704 -0.0085094700856 -0.0086703180187 -0.0037983735803 0.0013311669208 0.00045695099581 0.0037794695053 
-0.0043549250876 -0.0070388152588 -0.0091030311435 -0.0098112404845 -0.0067563988338 0.0011508337761 0.0063401058703 0.0050253189212 0.0021442236569 
-0.0012804832792 -0.0051096990753 -0.0063552189653 0.0048276743961 0.0056602713584 0.0058000127423 0.019058999071 0.008543906325 0.018196158487 
0.012675447824 0.014799079205 0.015673679342 0.015702504026 0.0075555889618 0.00049771256474 0.0045552304806 0.010148157784 0.013696302068 
0.015093590586 0.010387760906 0.0035988589854 -0.002495506991 -0.0024665526062 -0.0039608760803 -0.0099316315413 -0.0016967018007 0.0051204153503 
0.0014135021043 0.0011277579631 0.0090325002837 0.014897703782 0.015460340432 0.01687791314 0.015618842028 0.013272524842 0.0092232021008 
0.0076081133749 0.0060784227736 0.0057729498341 0.0064871421083 0.0089632737631 0.0082261338477 0.0067277077657 0.0059713750359 0.004661216246 
0.0030482018509 0.00066497926491 2.0299877902e-05 -0.0013839675631 -0.00085588357781 -0.00024110642954 0.0047117319942 0.0083100620192 0.0067763383283 
0.0099527538137 0.004912528726 -0.0053756632723 -0.00247503857 -0.00018678128003 0.0043993633726 0.0064224405623 0.0015220266868 0.0043213308291 
0.0094070680954 0.011882503726 0.0057264443288 0.0043371769357 0.0027939482381 0.0030287465353 0.0028918663237 0.0023537577744 0.0010281544052 
-0.00064421038331 0.00046438664576 0.00038806470278 -0.0010984835278 7.9273983871e-05 0.0016175324552 0.0014951976022 0.0016494134451 0.0033286666597 
0.010828565771 0.011489374854 0.0056939043748 0.0061514283829 0.012056888415 0.015407165728 0.012259275349 0.01230450038 0.012921679011 
0.0091264914901 0.0032198960973 0.0037479089465 0.0031923466089 -0.00092992001855 -0.0021785190607 5.6085588759e-05 0.00095605346395 -0.00017159107729 
-0.0041892619343 -0.0023050255738 -0.00051438150987 -0.0017696239873 -0.00026927029988 0.0005954619542 0.0026165155199 0.0066058289334 0.0028873061187 
0.0016639890644 0.0061176910354 0.0031699339472 -0.00040710795916 -0.0068224883367 -0.0075144300143 -0.0084801400341 -0.013019902823 -0.0088325635516 
-0.003020490417 -0.0010439022031 -0.0023189735918 -0.0033556408337 -0.0033012432969 0.0049297608975 0.0034151047287 0.0015206287365 0.0012963034606 
0.0018118932467 0.011178097581 0.0019368195626 0.020982504786 0.0004768521414 -0.0011845246037 -0.0014086106685 -0.00043788418477 -0.0017628580899 
0.0061312279021 -0.00037991044953 -0.0043778556184 0.0060626729409 0.023633166273 0.018868452695 0.0075879251965 0.0086352245537 0.0064712027666 
0.01066739135 0.0091726359443 0.0081155618826 0.010934913859 0.014813488544 0.022726418511 0.0035364123148 0.0032551253338 0.0026425634627 
0.0023545725481 0.0021656391086 0.0013143999931 9.7139063339e-05 0.00085543136151 -0.0031552676733 -0.0035068708634 -0.00015816429318 -7.1933743916e-05 
0.0010865918997 -8.1647233335e-05 0.0024791665539 0.0030856219443 0.0091505060245 0.012691964145 0.0084731276665 0.0082782796549 0.011115482583 
0.012496863973 0.013525178073 0.014061467992 0.0044443059836 0.0096006496174 0.00221996998 0.0049018864446 0.0044972559426 0.00091607537747 
-0.0028968887865 -0.0042253075831 -0.0032553412754 -0.00036688028287 -0.0007687160059 -0.0022263633889 0.00058132995956 0.00088219709085 0.0025187392873 
0.0046095515836 0.0059642772858 0.0091466218168 0.010903868945 0.014198790444 0.013551084308 0.0042354912894 -0.0012332917712 0.010486299482 
0.0051172133147 -0.0003240318563 -0.0016415301751 -0.001414395873 -0.00017420844307 -0.00050820641511 0.016549975641 0.014886154072 0.010334157006 
0.0069479947084 0.0057876035221 0.0085015299513 0.012210319249 0.00849243083 0.0063608789857 -0.0048978682782 -0.0050154044132 -0.0065093690518 
-0.0052625152608 0.0038618745487 0.011866045215 0.016711138696 0.017053981402 0.0070276152537 0.0019273060121 0.0027435413013 0.0036275453257 
0.0029275859422 0.0032118344255 0.0052131165276 0.0069045342855 0.0068224009866 0.0052428073482 0.011687615298 0.0042545247788 0.011380696681 
0.0020642233216 0.0010006434669 0.0025194703885 0.0007066934612 0.013592873037 0.0070580476976 0.0085943670313 0.0030503651529 0.0012776629265 
4.7798332418e-05 0.0026253738155 -0.011476841366 -0.0036110052991 -0.003379819313 -0.000799537399 0.001411540286 0.0027798180799 -0.0018810755599 
-0.0019000024263 -0.0013161071034 0.0032271755246 0.013659631142 0.0082289442675 0.0039727718826 0.0041239864626 0.0020034391604 0.0020711891365 
0.0013209360146 0.006534380237 0.0041882846743 0.0035574991777 0.0062480757885 0.013411440683 -0.0027299741596 0.0037314123574 0.0076843400803 
0.016514378168 -0.0070373563395 -0.0060437286384 0.00096727616672 0.0080207693882 0.013961868508 0.013676722543 0.0044425794766 0.0033053006799 
0.0072630565696 0.0061658811609 0.0049298559546 0.0048969753333 0.011714869537 0.0056573596601 0.0031133028662 0.0064722110429 0.001025001471 
0.017096044023 0.011624118007 0.01001674876 0.01086332306 0.006943626625 0.010716155365 0.013996729527 0.0034345624066 0.0011520823294 
0.0038823034336 0.0061357116076 0.0062590112796 0.008514510564 0.01263753539 0.014640218432 0.0098484114992 0.0050066489963 0.0074756124327 
0.011566561888 0.013207422177 0.013073165054 0.014814973625 0.015408268009 0.010429541524 0.012179520685 0.010143727641 0.0048958055387 
0.0038630982986 0.0049954137845 0.005799436616 0.012233992523 0.0031649173872 0.013916601512 0.015930800261 0.0097110716876 -0.014920427639 
-0.0039427351597 0.0085365986108 0.026376176722 0.015863438976 0.0054731691946 0.0053190538709 0.017848731303 
Curv_Mean 1 1114 double
0.042169759009 -0.088198221201 0.0061241090743 0.049539292462 -0.12899911233 -0.029609069787 -0.13997406467 0.0042743183327 -0.11067437852 
0.041074399961 -0.048382833272 0.12826743122 -0.035814879106 0.061672259132 0.082338284703 -0.0018101174779 0.020492107309 0.020044784506 
-0.04650081064 -0.013364255502 -0.042953089998 -0.0038276707712 -0.14155006225 -0.00021787686467 -0.12557205446 0.012657676245 0.003491892494 
-0.054133886813 -0.16434005514 0.023922147282 -0.024009864801 0.036331734823 -0.10043501581 0.062098720267 -0.13914366298 0.039507321316 
-0.055559061912 0.083526760975 -0.13166579179 0.14102597146 -0.35347081469 0.16920197325 -0.046808402328 0.15184114509 -0.066327056668 
0.12276302536 -0.098769438438 0.093096386045 -0.072721844803 0.06050364268 -0.048762695768 -0.0048321413692 0.015308854586 -0.019790723956 
-0.10417248661 0.0086176538051 -0.099101903152 0.041023027504 0.0032294439237 0.013080344636 -0.07533949307 0.016076607707 -0.11222196725 
0.0030267798906 -0.031352950504 -0.00517310979 -0.02668121675 -0.047305400072 -0.10145098489 0.0086425350761 0.004617465305 -0.015980567224 
-0.057329467665 -0.015122648251 -0.088027520885 0.02493026725 -0.062504105993 -0.013190825466 -0.042338691747 -0.017099692954 -0.067214009404 
-0.041076128211 -0.084603388186 -0.031840531955 0.048560813496 -0.13684215917 0.042917153053 0.011227390218 -0.22856336383 0.066757134376 
-0.04792640284 0.052918164445 0.032208467303 0.027287768088 0.023896728423 0.0038892267128 -0.047428206703 0.0036063476903 -0.064261780729 
0.0076664879152 0.011808143661 0.021768120803 -0.20015177251 0.03028430783 -0.38911948483 0.035200728668 -0.47405665174 0.088102854245 
-0.047585293326 0.059275722 0.12707304597 0.038866779381 0.033906751684 0.057166727174 0.04327478694 0.085820391388 -0.21296557037 
0.084040053898 -0.47664152305 0.057471240103 -0.0068376938056 -0.042034147143 0.22612770248 -0.06375429004 0.28710544113 -0.0058590192381 
0.031220760779 0.014048502728 -0.044113002418 0.024166424551 -0.017611571999 0.011405549995 0.032273689753 -0.0036398855603 -0.03957849327 
0.0098189098901 -0.1814278679 0.0069760115003 -0.24573535837 0.021705531762 -0.16890520378 0.03884736598 0.11213469081 0.04341738992 
-0.13512690589 0.068840289755 -0.43421550229 0.1042896442 -0.068715294577 0.082973895015 0.10757675621 0.067367950906 0.090678322156 
-0.041951717353 0.078376755024 0.027380364314 0.080154745352 0.095269685565 0.14823215467 0.063836876032 0.16871393523 0.067318139267 
0.1506580504 0.10984651364 0.024321427049 0.080361819397 -0.065099865704 0.063945789646 -0.096378143688 0.055155548533 -0.15827314897 
0.048308302604 -0.22554951683 0.028743270944 -0.17263669734 0.029538457914 -0.16065122524 0.016892624722 -0.23803625576 0.010325936463 
-0.22431169701 0.012437401936 -0.13541465381 0.023902246523 -0.074621244877 0.013074597496 -0.021933039293 -0.013211350337 0.0083134602928 
-0.008949585515 0.0027638056764 -0.0076046976279 -0.10349036525 0.023328607277 -0.014561346574 0.017959353963 0.27292285326 -0.029537327374 
0.22456810966 -0.014826008052 -0.042674989164 0.048071158111 -0.034509103575 -0.00098461036903 -0.0094858801429 -0.05253531913 0.012264281433 
-0.015501899049 -0.056818890905 -0.10496575923 -0.074208418723 -0.055266890612 -0.016452017598 -0.024365392219 -0.0003845561177 0.016136014197 
-0.021539319734 -0.015792062117 0.017835035329 0.027634930801 0.049436861902 0.037640379641 -0.039389468887 -0.08526614645 -0.068334452342 
-0.0089076156166 -0.0044442721517 -0.0033120382871 -0.00048983620959 0.0009736582041 -0.037545386705 -0.020420874267 -0.020541531972 -0.012731246019 
-0.025143709925 -0.01336149672 0.054815939845 0.034474638503 0.10632466745 0.12713033809 0.090050661861 0.058664119012 0.01403354902 
0.0018041234544 0.0088335439837 0.018753190431 0.057197716683 0.058368686741 0.042332296819 0.042558325071 0.067700686825 0.049701225596 
-0.0026411491313 -0.030343772769 -0.052292494601 -0.044893247274 -0.0258620666 -0.02710246742 -0.053742555753 -0.078500903971 -0.069204272406 
-0.037591343511 -0.039781823805 -0.040023036586 0.012811968988 0.028568598423 -0.021361576828 -0.014021096001 -0.015216645924 -0.01326582977 
-0.041693231569 -0.046370181193 -0.012752139265 -0.038835763274 -0.058885183085 -0.020372229267 -0.015802306962 0.038857306621 0.088293987193 
0.042304145005 0.04524670037 0.015110567735 -0.0034692719094 -0.011302809954 -0.022699266081 -0.024519443834 -0.066083670083 -0.068435094587 
-0.10388717605 -0.12484340453 -0.077448856795 -0.064697123557 -0.041955268095 -0.037782547355 -0.044389899311 -0.065530052204 -0.049425194764 
-0.020963665991 -0.027049757681 -0.010928314515 -0.011103919635 -0.03625533463 -0.058971970617 -0.0082234670193 -0.076582473171 -0.073839941063 
-0.055079998452 -0.046995339353 -0.091678439931 -0.084697481364 -0.086104944049 -0.025580251175 -0.021065712991 -0.017408768174 -0.0061197623911 
-0.02183432523 -0.028331535295 -0.028479757655 -0.041764943881 -0.044506942759 -0.037634239679 -0.10300457489 -0.096995764313 -0.0068584058324 
-0.022210616974 0.017265702135 0.018790092686 0.015776169906 0.0098864166199 -0.017848087334 -0.044680348098 -0.030500413107 -0.0080186041036 
-0.0077195672674 -0.0076785654125 0.04693057599 0.060651928573 0.15396975329 0.064641392625 0.071623105278 0.038353993608 0.057594178948 
0.0051771754965 -0.037433913168 -0.021332372207 -0.03028405993 -0.043985083508 -0.051868092573 -0.079961229355 -0.076636330132 -0.073460114091 
-0.073208960407 -0.091772506286 -0.11155946693 -0.011462317017 -0.080913779559 -0.033895221585 -0.072421136375 -0.02410140727 0.0095633734101 
-0.004238641169 -0.033420950645 -0.065878610469 -0.033760665698 0.018450613404 -0.001289515376 -0.059922994884 -0.1512381535 -0.13941149724 
-0.078035350664 -0.061159179056 -0.040116331597 -0.028376370813 -0.015318016861 -0.015969887314 -0.019820038705 -0.025665025147 -0.034075399761 
-0.02076800253 0.0057290186632 0.020483425648 0.014954118139 0.0032904401348 0.048633627544 0.040207250525 0.032084817081 0.047427027616 
0.044185043884 0.036536367686 0.020012986322 -0.0042474176177 -0.029075175118 -0.07618593151 -0.05711464323 -0.031910220297 -0.071657716656 
-0.060912354438 -0.073053785152 -0.10535095068 -0.085046197857 -0.085517473312 -0.052798360309 -0.022092334518 -0.012849560667 -0.0037111954319 
-0.017268378587 0.002504788009 -0.11981356964 -0.11621802541 0.050275078306 -0.0053708891312 0.041631993513 0.067306623476 0.069864545336 
0.045093313338 0.034713416431 0.048635662512 0.021183735392 -0.024364883623 0.029083392733 -0.0087874272772 -0.0061834361435 0.010941298438 
0.016664942347 -0.017426458976 -0.033413186855 0.087147137502 -0.14826560032 -0.11381861085 -0.012070971512 0.022382236823 -0.017094993123 
-0.0044705831339 -0.020271633859 -0.03484727417 -0.037647370749 -0.0137087999 -0.0093154580429 -0.020651743923 -0.006667754497 0.034561370151 
0.0061540410365 -0.029815856988 -0.047427542092 -0.067462519125 -0.081163165646 -0.083108924702 -0.088311433667 -0.11323717216 -0.11838399463 
-0.14306567577 -0.13937794219 -0.094647092747 -0.087493008401 -0.061546552804 -0.08653413292 -0.013397876116 0.020954044408 0.042016311529 
0.023484946772 0.031264995151 -0.014739343986 -0.035228388436 -0.025342511773 -0.070215659561 -0.10669787312 -0.12354359009 -0.11490008215 
-0.090892774453 -0.077929469831 -0.11286092837 -0.069695734992 -0.12659080186 -0.10563014407 -0.072369701018 -0.059899541795 -0.045531871666 
-0.029117763755 -0.027329221379 -0.072409541038 -0.06913908681 -0.007290072242 0.0099940633814 0.01103640006 0.0087988608765 -0.012972424003 
-0.065596855652 -0.070361579306 -0.076680383652 -0.047137903849 -0.018337377916 -0.032879872365 -0.037794912508 -0.030557167508 -0.013533072295 
0.014443141427 -0.046468778697 0.0056871785546 -0.05278476059 -0.056832182382 -0.016098605131 -0.0038252829125 -0.0010104820162 0.0039257769846 
0.012901007525 0.041153721745 0.015435536357 -0.0035774554197 -0.042256620134 -0.095272779983 -0.11516602931 -0.083037337028 -0.08796765282 
-0.07329174016 -0.072440346912 -0.092381881629 -0.058886626672 -0.095781507793 -0.10861369741 -0.083334282819 -0.059439729489 -0.034844932651 
-0.015318188752 0.022029328969 0.028250160149 -0.0035269672406 0.0092323236427 -0.029619309938 -0.072027848395 -0.081339300144 -0.075927108861 
-0.10749809829 -0.1112152474 -0.012379048992 -0.057844123471 0.0033233673859 0.0039242286917 0.023385738531 0.11447135292 -0.044950656659 
-0.079234040149 -0.094647992506 -0.088821604143 -0.076496044813 -0.076232463759 -0.097719139328 -0.076347801206 -0.036450957775 -0.017159359295 
-0.0090665276746 0.0040347137343 0.017482466484 0.011959000452 0.036658436453 0.041090154465 0.02051782729 0.020411903142 -0.010440318012 
-0.012004556102 -0.013482444497 -0.020377776673 -0.02867790704 -0.041677799309 -0.03552873903 -0.0504944899 -0.1174446425 -0.17296451857 
-0.084976422551 -0.12764622281 -0.065646093796 -0.047794609922 -0.0065784420969 -0.009163700336 -0.025677582471 0.004024115096 -0.018252492551 
-0.0016178519195 0.0099331855831 0.044288373971 0.068708117551 0.047402744183 0.034286584299 0.031972620607 0.053329490096 0.068614944145 
0.091747641277 0.09827947368 0.05706410333 0.055299701815 0.0018550019599 -0.045087946959 -0.016917034768 -0.087748529587 -0.11522239476 
-0.14152102645 -0.13241496511 -0.14944908459 -0.14629578019 -0.14306766867 -0.099303230623 -0.043902281345 -0.065455868004 -0.078506882352 
-0.11635219415 -0.15071716439 -0.051387244823 -0.059622754354 0.0020944491341 -0.017192696052 -0.082457444447 -0.089111012788 -0.077093118057 
-0.070246030213 -0.042820871335 -0.062828896674 -0.083643766868 -0.12859649066 -0.12781268047 -0.13011932166 -0.10697512543 -0.097904991707 
-0.11924976729 -0.10455613422 -0.062282346157 0.019855274729 0.034241819361 -0.011852865378 -0.047365350587 -0.090204873335 -0.084095423621 
-0.050905653941 -0.038872254548 -0.05190849967 -0.052290472646 -0.040323105016 -0.041745413332 -0.05672993765 -0.067636965912 -0.073835058596 
-0.048820902551 -0.075947516727 -0.042897094167 -0.038754657791 -0.0585345221 -0.026377498828 -0.0051209373186 -0.045661504063 -0.066795137814 
-0.082573701974 -0.087372511331 -0.096860643721 -0.10911913757 -0.10960745788 -0.094824616179 -0.087649865508 -0.074685628641 -0.079291968523 
-0.075100708322 -0.081197414739 -0.060507494878 -0.080845982445 -0.071385325337 -0.076010720474 -0.050790204405 -0.068285236191 -0.081156458754 
-0.084744015618 -0.041489423463 -0.084664450329 -0.064126935527 -0.078670236191 -0.06339689256 -0.080366725546 -0.083359360364 -0.076863447937 
-0.11212620655 -0.14234244015 -0.11883647368 -0.096030102595 -0.10244826226 -0.10502494371 -0.076557879711 -0.079203010183 -0.094775729545 
-0.053298597153 -0.010969188685 0.013316190353 -0.042835008764 -0.10099920721 -0.079301926795 -0.051901917386 -0.050003320834 -0.053149356216 
-0.046759600151 -0.049001320671 -0.071359304462 -0.098136474628 -0.13993673915 -0.11654779844 -0.14280159823 -0.13807555081 -0.10647157976 
-0.11596335062 -0.068143927988 -0.055810388922 -0.033141238457 -0.02331538184 -0.035738213769 -0.022264589282 -0.061799712431 -0.059943753095 
-0.031736171359 -0.12054848428 -0.13713238606 -0.11001884605 -0.10238198307 -0.1007445424 -0.11199503563 -0.1109531527 -0.063111207061 
-0.065153279315 -0.032346982979 -0.10250364769 -0.11631883789 -0.077502512698 -0.071057012381 -0.077083833161 -0.077784190842 -0.063777083167 
-0.058714610135 -0.052037076802 -0.047856199899 -0.030348605037 -0.019721384655 -0.0063850136815 0.015588992928 0.0024878817561 -0.036262344717 
-0.031218524972 -0.028179650556 -0.017884555818 0.00075659148174 -0.021297663133 -0.041579871549 -0.065620425472 -0.10735546507 -0.095497989422 
-0.050958490434 -0.055432621095 -0.091466645022 -0.091697624201 -0.074353322877 -0.066195475847 -0.065718146391 -0.067382062564 -0.087973309092 
-0.073918149016 -0.034099526224 -0.0056556036229 0.030649151665 0.057109253035 0.037800792779 0.064856826372 0.038719133645 0.010189803697 
0.066142934265 0.089130316605 0.06864111765 0.030710902795 0.016818413125 -0.0086600644601 -0.05726839004 -0.045001678854 -0.067573351687 
-0.007501588872 0.012779248752 -0.0031222981606 -0.040578667896 -0.017282931181 -0.057239665333 -0.09490497574 -0.076647029075 -0.055480010737 
-0.026217791706 -0.0034412613236 0.015351200513 -0.07958551305 -0.08313837546 -0.083725912827 -0.15814860915 -0.098078936017 -0.17261765112 
-0.11896200794 -0.12197340516 -0.12131178689 -0.12899633277 -0.07898842149 -0.032531809133 -0.062746034389 -0.10341531346 -0.11990653579 
-0.12791403582 -0.11663198887 -0.073807032804 0.021842012578 0.021792163348 -0.03237181246 0.0075594465318 -0.044096291394 -0.083031187269 
-0.049760906228 -0.041192239115 -0.090887176436 -0.12760807368 -0.13282883039 -0.13919432541 -0.12884859794 -0.11499466477 -0.097928206506 
-0.091356274721 -0.078570917773 -0.082687606533 -0.070259247878 -0.086605163939 -0.1038434891 -0.10097936225 -0.10262158975 -0.0946439248 
-0.092317363709 -0.073128833446 -0.02181245663 0.017938105622 -0.0044290826471 -0.020788283251 -0.069586048722 -0.081391218681 -0.085390941485 
-0.099334067326 -0.070185021604 -0.024328828061 -0.028392350844 -0.031676353226 -0.069078467009 -0.089921507603 -0.04771821411 -0.090762902548 
-0.099014145446 -0.10999336575 -0.07834529896 -0.068183253235 -0.056856207271 -0.057133046714 -0.055057596566 -0.051167915472 -0.042430473212 
-0.031686219782 -0.038316611788 -0.036241019182 -0.0062772236936 -0.03710173363 -0.054726701176 -0.057575533996 -0.045326689546 -0.069721236755 
-0.11631840084 -0.12350161804 -0.081074024758 -0.079250442261 -0.10755199159 -0.12451095965 -0.11360557149 -0.11565389737 -0.11758576733 
-0.10034534277 -0.070048408008 -0.066201194058 -0.052230903244 -0.034959550262 -0.0058526117359 0.032956918901 0.006532418397 -0.02755038289 
0.010780144686 0.021070260281 0.019934848217 -0.015307255479 -0.035578707346 -0.040831007713 -0.052991773237 -0.08962667952 -0.056709947215 
-0.048455122428 -0.084285844678 -0.067122502274 -0.076028307498 -0.072892277165 -0.043945025438 -0.024025499702 -0.047215119047 0.0040602235946 
-0.0013217261813 0.018086383402 -0.0053265519965 -0.012852433956 -0.023927628002 -0.082877490704 -0.066304386646 -0.048491726317 -0.040695746289 
-0.057937804429 -0.11138023361 -0.0752857837 -0.14700821867 -0.037432413227 -0.021301725496 0.027263279598 0.02599374158 0.038731005241 
0.11834727441 0.016737757723 0.0076614086101 -0.059353946198 -0.1553192275 -0.13686564943 -0.090742088602 -0.08879730153 -0.089622808868 
-0.11280830003 -0.10705378345 -0.090016412692 -0.10433068411 -0.12939702935 -0.15695517092 -0.06698390345 -0.061484798991 -0.05305662807 
-0.049044750497 -0.048956598952 -0.042269494093 -0.031902695682 -0.041470673074 -0.048042454712 -0.063544981959 -0.066888936868 -0.014933051318 
-0.033258552248 -0.014563163966 -0.055095703814 -0.059443225723 -0.1014758076 -0.12324790919 -0.095007028757 -0.093876651269 -0.10655876772 
-0.11326504528 -0.11824728338 -0.11904329524 -0.087906960426 -0.10272091458 -0.084011255171 -0.08083766451 -0.059725923252 -0.039301863464 
0.00021069325265 0.012421787048 -0.010512290152 -0.040369525407 -0.0084449180959 -0.01151442696 -0.02208117708 -0.035750830235 -0.053161776527 
-0.07067760878 -0.082157823044 -0.089856250418 -0.11352280771 -0.12062804532 -0.11759714623 -0.076865627844 -0.047543323351 -0.10600625353 
-0.064697856197 -0.026529750084 -0.02260373223 -0.018883439838 -0.007856775536 -0.037880076231 -0.12671540771 -0.1263414768 -0.11578862989 
-0.094836184476 -0.087102395987 -0.099714778918 -0.11829545941 -0.083196262181 -0.12352713454 -0.02808699896 0.001026200708 0.0053571553438 
-0.013422853885 -0.066927781355 -0.11284671129 -0.12937504814 -0.12882864267 -0.086083521167 -0.055233511584 -0.05717580754 -0.064933490235 
-0.058909249273 -0.060127946144 -0.074865448916 -0.088195229195 -0.088990058042 -0.081950365537 -0.10983389836 -0.071445286004 -0.10685833885 
-0.045007952023 -0.027067634103 -0.045141675009 -0.02618743765 -0.11498895008 -0.094286191247 -0.098422573919 -0.063345407683 -0.056022124642 
-0.049032674013 -0.061773994395 -0.040835753856 0.03594018145 0.047084356967 0.028872644759 -0.039118329065 -0.02135687472 0.0024498555331 
0.00011258063503 -0.004418317615 -0.066468195049 -0.11530844229 -0.10757105879 -0.067971801663 -0.055712600978 -0.046599226826 -0.056578893555 
-0.047369831507 -0.08624162378 -0.075439068507 -0.068045188408 -0.090873539838 -0.10719786887 0.0013825276054 -0.055661177671 -0.095205749607 
-0.13317076407 -0.0083822771322 -0.021310117666 -0.062258788216 -0.098451220584 -0.12110790212 -0.12172895498 -0.080123324254 -0.060703593799 
-0.080268887795 -0.08101493287 -0.072184712199 -0.0711839706 -0.10924636059 -0.084972114936 -0.059668347724 -0.080497020178 -0.03398570044 
-0.13535468584 -0.11789341915 -0.11524254442 -0.12284664936 -0.10048829992 -0.12008401071 -0.13355873 -0.067501216766 -0.054602285848 
-0.064782663624 -0.079035927568 -0.08307119391 -0.10287595953 -0.11529679557 -0.12488470461 -0.099871239992 -0.078264444 -0.093777660034 
-0.10792589244 -0.11928523263 -0.11529466859 -0.12006887132 -0.12255523236 -0.10326248874 -0.11170091349 -0.10254799833 -0.07570131342 
-0.066471167574 -0.073339739709 -0.079364337645 -0.11999049184 -0.060221277302 -0.1147144641 -0.12335519289 -0.099200024946 -0.059647242503 
-0.050977049608 -0.093042046855 -0.16404453539 -0.12706748036 -0.082006142124 -0.07749656947 -0.13325817319 
Displacement_Root 3 1114 double
0 0 0 0 0 0 0 0 0 
0 0 0 0 0 0 0 0 0 
0 0 0 0 0 0 0 0 0 
0 0 0 0 0 0 0 0 0 
0 0 0 0 0 0 0 0 0 
0 0 0 0 0 0 0 0 0 
0 0 0 0 0 0 0 0 0 
0 0 0 0 0 0 0 0 0 
0 0 0 0 0 0 0 0 0 
0 0 0 0 0 0 0 0 0 
0 0 0 0 0 0 0 0 0 
0 0 0 0 0 0 0 0 0 
0 0 0 0 0 0 0 0 0 
0 0 0 0 0 0 0 0 0 
0 0 0 0 0 0 0 0 0 
0 0 0 0 0 0 0 0 0 
0 0 0 0 0 0 0 0 0 
0 0 0 0 0 0 0 0 0 
0 0 0 0 0 0 0 0 0 
0 0 0 0 0 0 0 0 0 
0 0 0 0 0 0 0 0 0 
0 0 0 0 0 0 0 0 0 
0 0 0 0 0 0 0 0 0 
0 0 0 0 0 0 0 0 0 
0 0 0 0 0 0 0 0 0 
0 0 0 0 0 0 0 0 0 
0 0 0 0 0 0 0 0 0 
0 0 0 0 0 0 0 0 0 
0 0 0 0 0 0 0 0 0 
0 0 0 0 0 0 0 0 0 
0 0 0 0 0 0 0 0 0 
0 0 0 0 0 0 0 0 0 
0 0 0 0 0 0 0 0 0 
0 0 0 0 0 0 0 0 0 
0 0 0 0 0 0 0 0 0 
0 0 0 0 0 0 0 0 0 
0 0 0 0 0 0 0 0 0 
0 0 0 0 0 0 0 0 0 
0 0 0 0 0 0 0 0 0 
0 0 0 0 0 0 0 0 0 
0 0 0 0 0 0 0 0 0 
0 0 0 0 0 0 0 0 0 
0 0 0 0 0 0 0 0 0 
0 0 0 0 0 0 0 0 0 
0 0 0 0 0 0 0 0 0 
0 0 0 0 0 0 0 0 0 
0 0 0 0 0 0 0 0 0 
0 0 0 0 0 0 0 0 0 
0 0 0 0 0 0 0 0 0 
0 0 0 0 0 0 0 0 0 
0 0 0 0 0 0 0 0 0 
0 0 0 0 0 0 0 0 0 
0 0 0 0 0 0 0 0 0 
0 0 0 0 0 0 0 0 0 
0 0 0 0 0 0 0 0 0 
0 0 0 0 0 0 0 0 0 
0 0 0 0 0 0 0 0 0 
0 0 0 0 0 0 0 0 0 
0 0 0 0 0 0 0 0 0 
0 0 0 0 0 0 0 0 0 
0 0 0 0 0 0 0 0 0 
0 0 0 0 0 0 0 0 0 
0 0 0 0 0 0 0 0 0 
0 0 0 0 0 0 0 0 0 
0 0 0 0 0 0 0 0 0 
0 0 0 0 0 0 0 0 0 
0 0 0 0 0 0 0 0 0 
0 0 0 0 0 0 0 0 0 
0 0 0 0 0 0 0 0 0 
0 0 0 0 0 0 0 0 0 
0 0 0 0 0 0 0 0 0 
0 0 0 0 0 0 0 0 0 
0 0 0 0 0 0 0 0 0 
0 0 0 0 0 0 0 0 0 
0 0 0 0 0 0 0 0 0 
0 0 0 0 0 0 0 0 0 
0 0 0 0 0 0 0 0 0 
0 0 0 0 0 0 0 0 0 
0 0 0 0 0 0 0 0 0 
0 0 0 0 0 0 0 0 0 
0 0 0 0 0 0 0 0 0 
0 0 0 0 0 0 0 0 0 
0 0 0 0 0 0 0 0 0 
0 0 0 0 0 0 0 0 0 
0 0 0 0 0 0 0 0 0 
0 0 0 0 0 0 0 0 0 
0 0 0 0 0 0 0 0 0 
0 0 0 0 0 0 0 0 0 
0 0 0 0 0 0 0 0 0 
0 0 0 0 0 0 0 0 0 
0 0 0 0 0 0 0 0 0 
0 0 0 0 0 0 0 0 0 
0 0 0 0 0 0 0 0 0 
0 0 0 0 0 0 0 0 0 
0 0 0 0 0 0 0 0 0 
0 0 0 0 0 0 0 0 0 
0 0 0 0 0 0 0 0 0 
0 0 0 0 0 0 0 0 0 
0 0 0 0 0 0 0 0 0 
0 0 0 0 0 0 0 0 0 
0 0 0 0 0 0 0 0 0 
0 0 0 0 0 0 0 0 0 
0 0 0 0 0 0 0 0 0 
0 0 0 0 0 0 0 0 0 
0 0 0 0 0 0 0 0 0 
0 0 0 0 0 0 0 0 0 
0 0 0 0 0 0 0 0 0 
0 0 0 0 0 0 0 0 0 
0 0 0 0 0 0 0 0 0 
0 0 0 0 0 0 0 0 0 
0 0 0 0 0 0 0 0 0 
0 0 0 0 0 0 0 0 0 
0 0 0 0 0 0 0 0 0 
0 0 0 0 0 0 0 0 0 
0 0 0 0 0 0 0 0 0 
0 0 0 0 0 0 0 0 0 
0 0 0 0 0 0 0 0 0 
0 0 0 0 0 0 0 0 0 
0 0 0 0 0 0 0 0 0 
0 0 0 0 0 0 0 0 0 
0 0 0 0 0 0 0 0 0 
0 0 0 0 0 0 0 0 0 
0 0 0 0 0 0 0 0 0 
0 0 0 0 0 0 0 0 0 
0 0 0 0 0 0 0 0 0 
0 0 0 0 0 0 0 0 0 
0 0 0 0 0 0 0 0 0 
0 0 0 0 0 0 0 0 0 
0 0 0 0 0 0 0 0 0 
0 0 0 0 0 0 0 0 0 
0 0 0 0 0 0 0 0 0 
0 0 0 0 0 0 0 0 0 
0 0 0 0 0 0 0 0 0 
0 0 0 0 0 0 0 0 0 
0 0 0 0 0 0 0 0 0 
0 0 0 0 0 0 0 0 0 
0 0 0 0 0 0 0 0 0 
0 0 0 0 0 0 0 0 0 
0 0 0 0 0 0 0 0 0 
0 0 0 0 0 0 0 0 0 
0 0 0 0 0 0 0 0 0 
0 0 0 0 0 0 0 0 0 
0 0 0 0 0 0 0 0 0 
0 0 0 0 0 0 0 0 0 
0 0 0 0 0 0 0 0 0 
0 0 0 0 0 0 0 0 0 
0 0 0 0 0 0 0 0 0 
0 0 0 0 0 0 0 0 0 
0 0 0 0 0 0 0 0 0 
0 0 0 0 0 0 0 0 0 
0 0 0 0 0 0 0 0 0 
0 0 0 0 0 0 0 0 0 
0 0 0 0 0 0 0 0 0 
0 0 0 0 0 0 0 0 0 
0 0 0 0 0 0 0 0 0 
0 0 0 0 0 0 0 0 0 
0 0 0 0 0 0 0 0 0 
0 0 0 0 0 0 0 0 0 
0 0 0 0 0 0 0 0 0 
0 0 0 0 0 0 0 0 0 
0 0 0 0 0 0 0 0 0 
0 0 0 0 0 0 0 0 0 
0 0 0 0 0 0 0 0 0 
0 0 0 0 0 0 0 0 0 
0 0 0 0 0 0 0 0 0 
0 0 0 0 0 0 0 0 0 
0 0 0 0 0 0 0 0 0 
0 0 0 0 0 0 0 0 0 
0 0 0 0 0 0 0 0 0 
0 0 0 0 0 0 0 0 0 
0 0 0 0 0 0 0 0 0 
0 0 0 0 0 0 0 0 0 
0 0 0 0 0 0 0 0 0 
0 0 0 0 0 0 0 0 0 
0 0 0 0 0 0 0 0 0 
0 0 0 0 0 0 0 0 0 
0 0 0 0 0 0 0 0 0 
0 0 0 0 0 0 0 0 0 
0 0 0 0 0 0 0 0 0 
0 0 0 0 0 0 0 0 0 
0 0 0 0 0 0 0 0 0 
0 0 0 0 0 0 0 0 0 
0 0 0 0 0 0 0 0 0 
0 0 0 0 0 0 0 0 0 
0 0 0 0 0 0 0 0 0 
0 0 0 0 0 0 0 0 0 
0 0 0 0 0 0 0 0 0 
0 0 0 0 0 0 0 0 0 
0 0 0 0 0 0 0 0 0 
0 0 0 0 0 0 0 0 0 
0 0 0 0 0 0 0 0 0 
0 0 0 0 0 0 0 0 0 
0 0 0 0 0 0 0 0 0 
0 0 0 0 0 0 0 0 0 
0 0 0 0 0 0 0 0 0 
0 0 0 0 0 0 0 0 0 
0 0 0 0 0 0 0 0 0 
0 0 0 0 0 0 0 0 0 
0 0 0 0 0 0 0 0 0 
0 0 0 0 0 0 0 0 0 
0 0 0 0 0 0 0 0 0 
0 0 0 0 0 0 0 0 0 
0 0 0 0 0 0 0 0 0 
0 0 0 0 0 0 0 0 0 
0 0 0 0 0 0 0 0 0 
0 0 0 0 0 0 0 0 0 
0 0 0 0 0 0 0 0 0 
0 0 0 0 0 0 0 0 0 
0 0 0 0 0 0 0 0 0 
0 0 0 0 0 0 0 0 0 
0 0 0 0 0 0 0 0 0 
0 0 0 0 0 0 0 0 0 
0 0 0 0 0 0 0 0 0 
0 0 0 0 0 0 0 0 0 
0 0 0 0 0 0 0 0 0 
0 0 0 0 0 0 0 0 0 
0 0 0 0 0 0 0 0 0 
0 0 0 0 0 0 0 0 0 
0 0 0 0 0 0 0 0 0 
0 0 0 0 0 0 0 0 0 
0 0 0 0 0 0 0 0 0 
0 0 0 0 0 0 0 0 0 
0 0 0 0 0 0 0 0 0 
0 0 0 0 0 0 0 0 0 
0 0 0 0 0 0 0 0 0 
0 0 0 0 0 0 0 0 0 
0 0 0 0 0 0 0 0 0 
0 0 0 0 0 0 0 0 0 
0 0 0 0 0 0 0 0 0 
0 0 0 0 0 0 0 0 0 
0 0 0 0 0 0 0 0 0 
0 0 0 0 0 0 0 0 0 
0 0 0 0 0 0 0 0 0 
0 0 0 0 0 0 0 0 0 
0 0 0 0 0 0 0 0 0 
0 0 0 0 0 0 0 0 0 
0 0 0 0 0 0 0 0 0 
0 0 0 0 0 0 0 0 0 
0 0 0 0 0 0 0 0 0 
0 0 0 0 0 0 0 0 0 
0 0 0 0 0 0 0 0 0 
0 0 0 0 0 0 0 0 0 
0 0 0 0 0 0 0 0 0 
0 0 0 0 0 0 0 0 0 
0 0 0 0 0 0 0 0 0 
0 0 0 0 0 0 0 0 0 
0 0 0 0 0 0 0 0 0 
0 0 0 0 0 0 0 0 0 
0 0 0 0 0 0 0 0 0 
0 0 0 0 0 0 0 0 0 
0 0 0 0 0 0 0 0 0 
0 0 0 0 0 0 0 0 0 
0 0 0 0 0 0 0 0 0 
0 0 0 0 0 0 0 0 0 
0 0 0 0 0 0 0 0 0 
0 0 0 0 0 0 0 0 0 
0 0 0 0 0 0 0 0 0 
0 0 0 0 0 0 0 0 0 
0 0 0 0 0 0 0 0 0 
0 0 0 0 0 0 0 0 0 
0 0 0 0 0 0 0 0 0 
0 0 0 0 0 0 0 0 0 
0 0 0 0 0 0 0 0 0 
0 0 0 0 0 0 0 0 0 
0 0 0 0 0 0 0 0 0 
0 0 0 0 0 0 0 0 0 
0 0 0 0 0 0 0 0 0 
0 0 0 0 0 0 0 0 0 
0 0 0 0 0 0 0 0 0 
0 0 0 0 0 0 0 0 0 
0 0 0 0 0 0 0 0 0 
0 0 0 0 0 0 0 0 0 
0 0 0 0 0 0 0 0 0 
0 0 0 0 0 0 0 0 0 
0 0 0 0 0 0 0 0 0 
0 0 0 0 0 0 0 0 0 
0 0 0 0 0 0 0 0 0 
0 0 0 0 0 0 0 0 0 
0 0 0 0 0 0 0 0 0 
0 0 0 0 0 0 0 0 0 
0 0 0 0 0 0 0 0 0 
0 0 0 0 0 0 0 0 0 
0 0 0 0 0 0 0 0 0 
0 0 0 0 0 0 0 0 0 
0 0 0 0 0 0 0 0 0 
0 0 0 0 0 0 0 0 0 
0 0 0 0 0 0 0 0 0 
0 0 0 0 0 0 0 0 0 
0 0 0 0 0 0 0 0 0 
0 0 0 0 0 0 0 0 0 
0 0 0 0 0 0 0 0 0 
0 0 0 0 0 0 0 0 0 
0 0 0 0 0 0 0 0 0 
0 0 0 0 0 0 0 0 0 
0 0 0 0 0 0 0 0 0 
0 0 0 0 0 0 0 0 0 
0 0 0 0 0 0 0 0 0 
0 0 0 0 0 0 0 0 0 
0 0 0 0 0 0 0 0 0 
0 0 0 0 0 0 0 0 0 
0 0 0 0 0 0 0 0 0 
0 0 0 0 0 0 0 0 0 
0 0 0 0 0 0 0 0 0 
0 0 0 0 0 0 0 0 0 
0 0 0 0 0 0 0 0 0 
0 0 0 0 0 0 0 0 0 
0 0 0 0 0 0 0 0 0 
0 0 0 0 0 0 0 0 0 
0 0 0 0 0 0 0 0 0 
0 0 0 0 0 0 0 0 0 
0 0 0 0 0 0 0 0 0 
0 0 0 0 0 0 0 0 0 
0 0 0 0 0 0 0 0 0 
0 0 0 0 0 0 0 0 0 
0 0 0 0 0 0 0 0 0 
0 0 0 0 0 0 0 0 0 
0 0 0 0 0 0 0 0 0 
0 0 0 0 0 0 0 0 0 
0 0 0 0 0 0 0 0 0 
0 0 0 0 0 0 0 0 0 
0 0 0 0 0 0 0 0 0 
0 0 0 0 0 0 0 0 0 
0 0 0 0 0 0 0 0 0 
0 0 0 0 0 0 0 0 0 
0 0 0 0 0 0 0 0 0 
0 0 0 0 0 0 0 0 0 
0 0 0 0 0 0 0 0 0 
0 0 0 0 0 0 0 0 0 
0 0 0 0 0 0 0 0 0 
0 0 0 0 0 0 0 0 0 
0 0 0 0 0 0 0 0 0 
0 0 0 0 0 0 0 0 0 
0 0 0 0 0 0 0 0 0 
0 0 0 0 0 0 0 0 0 
0 0 0 0 0 0 0 0 0 
0 0 0 0 0 0 0 0 0 
0 0 0 0 0 0 0 0 0 
0 0 0 0 0 0 0 0 0 
0 0 0 0 0 0 0 0 0 
0 0 0 0 0 0 0 0 0 
0 0 0 0 0 0 0 0 0 
0 0 0 0 0 0 0 0 0 
0 0 0 0 0 0 0 0 0 
0 0 0 0 0 0 0 0 0 
0 0 0 0 0 0 0 0 0 
0 0 0 0 0 0 0 0 0 
0 0 0 0 0 0 0 0 0 
0 0 0 0 0 0 0 0 0 
0 0 0 0 0 0 0 0 0 
0 0 0 0 0 0 0 0 0 
0 0 0 0 0 0 0 0 0 
0 0 0 0 0 0 0 0 0 
0 0 0 0 0 0 0 0 0 
0 0 0 0 0 0 0 0 0 
0 0 0 0 0 0 0 0 0 
0 0 0 0 0 0 0 0 0 
0 0 0 0 0 0 0 0 0 
0 0 0 0 0 0 0 0 0 
0 0 0 0 0 0 0 0 0 
0 0 0 0 0 0 0 0 0 
0 0 0 0 0 0 0 0 0 
0 0 0 0 0 0 0 0 0 
0 0 0 0 0 0 0 0 0 
0 0 0 0 0 0 0 0 0 
0 0 0 0 0 0 0 0 0 
0 0 0 0 0 0 0 0 0 
0 0 0 0 0 0 0 0 0 
0 0 0 0 0 0 0 0 0 
0 0 0 0 0 0 0 0 0 
0 0 0 0 0 0 0 0 0 
0 0 0 0 0 0 0 0 0 
0 0 0 
Displacement_Total 3 1114 double
0 0 0 0 0 0 0 0 0 
0 0 0 0 0 0 0 0 0 
0 0 0 0 0 0 0 0 0 
0 0 0 0 0 0 0 0 0 
0 0 0 0 0 0 0 0 0 
0 0 0 0 0 0 0 0 0 
0 0 0 0 0 0 0 0 0 
0 0 0 0 0 0 0 0 0 
0 0 0 0 0 0 0 0 0 
0 0 0 0 0 0 0 0 0 
0 0 0 0 0 0 0 0 0 
0 0 0 0 0 0 0 0 0 
0 0 0 0 0 0 0 0 0 
0 0 0 0 0 0 0 0 0 
0 0 0 0 0 0 0 0 0 
0 0 0 0 0 0 0 0 0 
0 0 0 0 0 0 0 0 0 
0 0 0 0 0 0 0 0 0 
0 0 0 0 0 0 0 0 0 
0 0 0 0 0 0 0 0 0 
0 0 0 0 0 0 0 0 0 
0 0 0 0 0 0 0 0 0 
0 0 0 0 0 0 0 0 0 
0 0 0 0 0 0 0 0 0 
0 0 0 0 0 0 0 0 0 
0 0 0 0 0 0 0 0 0 
0 0 0 0 0 0 0 0 0 
0 0 0 0 0 0 0 0 0 
0 0 0 0 0 0 0 0 0 
0 0 0 0 0 0 0 0 0 
0 0 0 0 0 0 0 0 0 
0 0 0 0 0 0 0 0 0 
0 0 0 0 0 0 0 0 0 
0 0 0 0 0 0 0 0 0 
0 0 0 0 0 0 0 0 0 
0 0 0 0 0 0 0 0 0 
0 0 0 0 0 0 0 0 0 
0 0 0 0 0 0 0 0 0 
0 0 0 0 0 0 0 0 0 
0 0 0 0 0 0 0 0 0 
0 0 0 0 0 0 0 0 0 
0 0 0 0 0 0 0 0 0 
0 0 0 0 0 0 0 0 0 
0 0 0 0 0 0 0 0 0 
0 0 0 0 0 0 0 0 0 
0 0 0 0 0 0 0 0 0 
0 0 0 0 0 0 0 0 0 
0 0 0 0 0 0 0 0 0 
0 0 0 0 0 0 0 0 0 
0 0 0 0 0 0 0 0 0 
0 0 0 0 0 0 0 0 0 
0 0 0 0 0 0 0 0 0 
0 0 0 0 0 0 0 0 0 
0 0 0 0 0 0 0 0 0 
0 0 0 0 0 0 0 0 0 
0 0 0 0 0 0 0 0 0 
0 0 0 0 0 0 0 0 0 
0 0 0 0 0 0 0 0 0 
0 0 0 0 0 0 0 0 0 
0 0 0 0 0 0 0 0 0 
0 0 0 0 0 0 0 0 0 
0 0 0 0 0 0 0 0 0 
0 0 0 0 0 0 0 0 0 
0 0 0 0 0 0 0 0 0 
0 0 0 0 0 0 0 0 0 
0 0 0 0 0 0 0 0 0 
0 0 0 0 0 0 0 0 0 
0 0 0 0 0 0 0 0 0 
0 0 0 0 0 0 0 0 0 
0 0 0 0 0 0 0 0 0 
0 0 0 0 0 0 0 0 0 
0 0 0 0 0 0 0 0 0 
0 0 0 0 0 0 0 0 0 
0 0 0 0 0 0 0 0 0 
0 0 0 0 0 0 0 0 0 
0 0 0 0 0 0 0 0 0 
0 0 0 0 0 0 0 0 0 
0 0 0 0 0 0 0 0 0 
0 0 0 0 0 0 0 0 0 
0 0 0 0 0 0 0 0 0 
0 0 0 0 0 0 0 0 0 
0 0 0 0 0 0 0 0 0 
0 0 0 0 0 0 0 0 0 
0 0 0 0 0 0 0 0 0 
0 0 0 0 0 0 0 0 0 
0 0 0 0 0 0 0 0 0 
0 0 0 0 0 0 0 0 0 
0 0 0 0 0 0 0 0 0 
0 0 0 0 0 0 0 0 0 
0 0 0 0 0 0 0 0 0 
0 0 0 0 0 0 0 0 0 
0 0 0 0 0 0 0 0 0 
0 0 0 0 0 0 0 0 0 
0 0 0 0 0 0 0 0 0 
0 0 0 0 0 0 0 0 0 
0 0 0 0 0 0 0 0 0 
0 0 0 0 0 0 0 0 0 
0 0 0 0 0 0 0 0 0 
0 0 0 0 0 0 0 0 0 
0 0 0 0 0 0 0 0 0 
0 0 0 0 0 0 0 0 0 
0 0 0 0 0 0 0 0 0 
0 0 0 0 0 0 0 0 0 
0 0 0 0 0 0 0 0 0 
0 0 0 0 0 0 0 0 0 
0 0 0 0 0 0 0 0 0 
0 0 0 0 0 0 0 0 0 
0 0 0 0 0 0 0 0 0 
0 0 0 0 0 0 0 0 0 
0 0 0 0 0 0 0 0 0 
0 0 0 0 0 0 0 0 0 
0 0 0 0 0 0 0 0 0 
0 0 0 0 0 0 0 0 0 
0 0 0 0 0 0 0 0 0 
0 0 0 0 0 0 0 0 0 
0 0 0 0 0 0 0 0 0 
0 0 0 0 0 0 0 0 0 
0 0 0 0 0 0 0 0 0 
0 0 0 0 0 0 0 0 0 
0 0 0 0 0 0 0 0 0 
0 0 0 0 0 0 0 0 0 
0 0 0 0 0 0 0 0 0 
0 0 0 0 0 0 0 0 0 
0 0 0 0 0 0 0 0 0 
0 0 0 0 0 0 0 0 0 
0 0 0 0 0 0 0 0 0 
0 0 0 0 0 0 0 0 0 
0 0 0 0 0 0 0 0 0 
0 0 0 0 0 0 0 0 0 
0 0 0 0 0 0 0 0 0 
0 0 0 0 0 0 0 0 0 
0 0 0 0 0 0 0 0 0 
0 0 0 0 0 0 0 0 0 
0 0 0 0 0 0 0 0 0 
0 0 0 0 0 0 0 0 0 
0 0 0 0 0 0 0 0 0 
0 0 0 0 0 0 0 0 0 
0 0 0 0 0 0 0 0 0 
0 0 0 0 0 0 0 0 0 
0 0 0 0 0 0 0 0 0 
0 0 0 0 0 0 0 0 0 
0 0 0 0 0 0 0 0 0 
0 0 0 0 0 0 0 0 0 
0 0 0 0 0 0 0 0 0 
0 0 0 0 0 0 0 0 0 
0 0 0 0 0 0 0 0 0 
0 0 0 0 0 0 0 0 0 
0 0 0 0 0 0 0 0 0 
0 0 0 0 0 0 0 0 0 
0 0 0 0 0 0 0 0 0 
0 0 0 0 0 0 0 0 0 
0 0 0 0 0 0 0 0 0 
0 0 0 0 0 0 0 0 0 
0 0 0 0 0 0 0 0 0 
0 0 0 0 0 0 0 0 0 
0 0 0 0 0 0 0 0 0 
0 0 0 0 0 0 0 0 0 
0 0 0 0 0 0 0 0 0 
0 0 0 0 0 0 0 0 0 
0 0 0 0 0 0 0 0 0 
0 0 0 0 0 0 0 0 0 
0 0 0 0 0 0 0 0 0 
0 0 0 0 0 0 0 0 0 
0 0 0 0 0 0 0 0 0 
0 0 0 0 0 0 0 0 0 
0 0 0 0 0 0 0 0 0 
0 0 0 0 0 0 0 0 0 
0 0 0 0 0 0 0 0 0 
0 0 0 0 0 0 0 0 0 
0 0 0 0 0 0 0 0 0 
0 0 0 0 0 0 0 0 0 
0 0 0 0 0 0 0 0 0 
0 0 0 0 0 0 0 0 0 
0 0 0 0 0 0 0 0 0 
0 0 0 0 0 0 0 0 0 
0 0 0 0 0 0 0 0 0 
0 0 0 0 0 0 0 0 0 
0 0 0 0 0 0 0 0 0 
0 0 0 0 0 0 0 0 0 
0 0 0 0 0 0 0 0 0 
0 0 0 0 0 0 0 0 0 
0 0 0 0 0 0 0 0 0 
0 0 0 0 0 0 0 0 0 
0 0 0 0 0 0 0 0 0 
0 0 0 0 0 0 0 0 0 
0 0 0 0 0 0 0 0 0 
0 0 0 0 0 0 0 0 0 
0 0 0 0 0 0 0 0 0 
0 0 0 0 0 0 0 0 0 
0 0 0 0 0 0 0 0 0 
0 0 0 0 0 0 0 0 0 
0 0 0 0 0 0 0 0 0 
0 0 0 0 0 0 0 0 0 
0 0 0 0 0 0 0 0 0 
0 0 0 0 0 0 0 0 0 
0 0 0 0 0 0 0 0 0 
0 0 0 0 0 0 0 0 0 
0 0 0 0 0 0 0 0 0 
0 0 0 0 0 0 0 0 0 
0 0 0 0 0 0 0 0 0 
0 0 0 0 0 0 0 0 0 
0 0 0 0 0 0 0 0 0 
0 0 0 0 0 0 0 0 0 
0 0 0 0 0 0 0 0 0 
0 0 0 0 0 0 0 0 0 
0 0 0 0 0 0 0 0 0 
0 0 0 0 0 0 0 0 0 
0 0 0 0 0 0 0 0 0 
0 0 0 0 0 0 0 0 0 
0 0 0 0 0 0 0 0 0 
0 0 0 0 0 0 0 0 0 
0 0 0 0 0 0 0 0 0 
0 0 0 0 0 0 0 0 0 
0 0 0 0 0 0 0 0 0 
0 0 0 0 0 0 0 0 0 
0 0 0 0 0 0 0 0 0 
0 0 0 0 0 0 0 0 0 
0 0 0 0 0 0 0 0 0 
0 0 0 0 0 0 0 0 0 
0 0 0 0 0 0 0 0 0 
0 0 0 0 0 0 0 0 0 
0 0 0 0 0 0 0 0 0 
0 0 0 0 0 0 0 0 0 
0 0 0 0 0 0 0 0 0 
0 0 0 0 0 0 0 0 0 
0 0 0 0 0 0 0 0 0 
0 0 0 0 0 0 0 0 0 
0 0 0 0 0 0 0 0 0 
0 0 0 0 0 0 0 0 0 
0 0 0 0 0 0 0 0 0 
0 0 0 0 0 0 0 0 0 
0 0 0 0 0 0 0 0 0 
0 0 0 0 0 0 0 0 0 
0 0 0 0 0 0 0 0 0 
0 0 0 0 0 0 0 0 0 
0 0 0 0 0 0 0 0 0 
0 0 0 0 0 0 0 0 0 
0 0 0 0 0 0 0 0 0 
0 0 0 0 0 0 0 0 0 
0 0 0 0 0 0 0 0 0 
0 0 0 0 0 0 0 0 0 
0 0 0 0 0 0 0 0 0 
0 0 0 0 0 0 0 0 0 
0 0 0 0 0 0 0 0 0 
0 0 0 0 0 0 0 0 0 
0 0 0 0 0 0 0 0 0 
0 0 0 0 0 0 0 0 0 
0 0 0 0 0 0 0 0 0 
0 0 0 0 0 0 0 0 0 
0 0 0 0 0 0 0 0 0 
0 0 0 0 0 0 0 0 0 
0 0 0 0 0 0 0 0 0 
0 0 0 0 0 0 0 0 0 
0 0 0 0 0 0 0 0 0 
0 0 0 0 0 0 0 0 0 
0 0 0 0 0 0 0 0 0 
0 0 0 0 0 0 0 0 0 
0 0 0 0 0 0 0 0 0 
0 0 0 0 0 0 0 0 0 
0 0 0 0 0 0 0 0 0 
0 0 0 0 0 0 0 0 0 
0 0 0 0 0 0 0 0 0 
0 0 0 0 0 0 0 0 0 
0 0 0 0 0 0 0 0 0 
0 0 0 0 0 0 0 0 0 
0 0 0 0 0 0 0 0 0 
0 0 0 0 0 0 0 0 0 
0 0 0 0 0 0 0 0 0 
0 0 0 0 0 0 0 0 0 
0 0 0 0 0 0 0 0 0 
0 0 0 0 0 0 0 0 0 
0 0 0 0 0 0 0 0 0 
0 0 0 0 0 0 0 0 0 
0 0 0 0 0 0 0 0 0 
0 0 0 0 0 0 0 0 0 
0 0 0 0 0 0 0 0 0 
0 0 0 0 0 0 0 0 0 
0 0 0 0 0 0 0 0 0 
0 0 0 0 0 0 0 0 0 
0 0 0 0 0 0 0 0 0 
0 0 0 0 0 0 0 0 0 
0 0 0 0 0 0 0 0 0 
0 0 0 0 0 0 0 0 0 
0 0 0 0 0 0 0 0 0 
0 0 0 0 0 0 0 0 0 
0 0 0 0 0 0 0 0 0 
0 0 0 0 0 0 0 0 0 
0 0 0 0 0 0 0 0 0 
0 0 0 0 0 0 0 0 0 
0 0 0 0 0 0 0 0 0 
0 0 0 0 0 0 0 0 0 
0 0 0 0 0 0 0 0 0 
0 0 0 0 0 0 0 0 0 
0 0 0 0 0 0 0 0 0 
0 0 0 0 0 0 0 0 0 
0 0 0 0 0 0 0 0 0 
0 0 0 0 0 0 0 0 0 
0 0 0 0 0 0 0 0 0 
0 0 0 0 0 0 0 0 0 
0 0 0 0 0 0 0 0 0 
0 0 0 0 0 0 0 0 0 
0 0 0 0 0 0 0 0 0 
0 0 0 0 0 0 0 0 0 
0 0 0 0 0 0 0 0 0 
0 0 0 0 0 0 0 0 0 
0 0 0 0 0 0 0 0 0 
0 0 0 0 0 0 0 0 0 
0 0 0 0 0 0 0 0 0 
0 0 0 0 0 0 0 0 0 
0 0 0 0 0 0 0 0 0 
0 0 0 0 0 0 0 0 0 
0 0 0 0 0 0 0 0 0 
0 0 0 0 0 0 0 0 0 
0 0 0 0 0 0 0 0 0 
0 0 0 0 0 0 0 0 0 
0 0 0 0 0 0 0 0 0 
0 0 0 0 0 0 0 0 0 
0 0 0 0 0 0 0 0 0 
0 0 0 0 0 0 0 0 0 
0 0 0 0 0 0 0 0 0 
0 0 0 0 0 0 0 0 0 
0 0 0 0 0 0 0 0 0 
0 0 0 0 0 0 0 0 0 
0 0 0 0 0 0 0 0 0 
0 0 0 0 0 0 0 0 0 
0 0 0 0 0 0 0 0 0 
0 0 0 0 0 0 0 0 0 
0 0 0 0 0 0 0 0 0 
0 0 0 0 0 0 0 0 0 
0 0 0 0 0 0 0 0 0 
0 0 0 0 0 0 0 0 0 
0 0 0 0 0 0 0 0 0 
0 0 0 0 0 0 0 0 0 
0 0 0 0 0 0 0 0 0 
0 0 0 0 0 0 0 0 0 
0 0 0 0 0 0 0 0 0 
0 0 0 0 0 0 0 0 0 
0 0 0 0 0 0 0 0 0 
0 0 0 0 0 0 0 0 0 
0 0 0 0 0 0 0 0 0 
0 0 0 0 0 0 0 0 0 
0 0 0 0 0 0 0 0 0 
0 0 0 0 0 0 0 0 0 
0 0 0 0 0 0 0 0 0 
0 0 0 0 0 0 0 0 0 
0 0 0 0 0 0 0 0 0 
0 0 0 0 0 0 0 0 0 
0 0 0 0 0 0 0 0 0 
0 0 0 0 0 0 0 0 0 
0 0 0 0 0 0 0 0 0 
0 0 0 0 0 0 0 0 0 
0 0 0 0 0 0 0 0 0 
0 0 0 0 0 0 0 0 0 
0 0 0 0 0 0 0 0 0 
0 0 0 0 0 0 0 0 0 
0 0 0 0 0 0 0 0 0 
0 0 0 0 0 0 0 0 0 
0 0 0 0 0 0 0 0 0 
0 0 0 0 0 0 0 0 0 
0 0 0 0 0 0 0 0 0 
0 0 0 0 0 0 0 0 0 
0 0 0 0 0 0 0 0 0 
0 0 0 0 0 0 0 0 0 
0 0 0 0 0 0 0 0 0 
0 0 0 0 0 0 0 0 0 
0 0 0 0 0 0 0 0 0 
0 0 0 0 0 0 0 0 0 
0 0 0 0 0 0 0 0 0 
0 0 0 0 0 0 0 0 0 
0 0 0 0 0 0 0 0 0 
0 0 0 0 0 0 0 0 0 
0 0 0 
Displacement_Wall 3 1114 double
0 0 0 0 0 0 0 0 0 
0 0 0 0 0 0 0 0 0 
0 0 0 0 0 0 0 0 0 
0 0 0 0 0 0 0 0 0 
0 0 0 0 0 0 0 0 0 
0 0 0 0 0 0 0 0 0 
0 0 0 0 0 0 0 0 0 
0 0 0 0 0 0 0 0 0 
0 0 0 0 0 0 0 0 0 
0 0 0 0 0 0 0 0 0 
0 0 0 0 0 0 0 0 0 
0 0 0 0 0 0 0 0 0 
0 0 0 0 0 0 0 0 0 
0 0 0 0 0 0 0 0 0 
0 0 0 0 0 0 0 0 0 
0 0 0 0 0 0 0 0 0 
0 0 0 0 0 0 0 0 0 
0 0 0 0 0 0 0 0 0 
0 0 0 0 0 0 0 0 0 
0 0 0 0 0 0 0 0 0 
0 0 0 0 0 0 0 0 0 
0 0 0 0 0 0 0 0 0 
0 0 0 0 0 0 0 0 0 
0 0 0 0 0 0 0 0 0 
0 0 0 0 0 0 0 0 0 
0 0 0 0 0 0 0 0 0 
0 0 0 0 0 0 0 0 0 
0 0 0 0 0 0 0 0 0 
0 0 0 0 0 0 0 0 0 
0 0 0 0 0 0 0 0 0 
0 0 0 0 0 0 0 0 0 
0 0 0 0 0 0 0 0 0 
0 0 0 0 0 0 0 0 0 
0 0 0 0 0 0 0 0 0 
0 0 0 0 0 0 0 0 0 
0 0 0 0 0 0 0 0 0 
0 0 0 0 0 0 0 0 0 
0 0 0 0 0 0 0 0 0 
0 0 0 0 0 0 0 0 0 
0 0 0 0 0 0 0 0 0 
0 0 0 0 0 0 0 0 0 
0 0 0 0 0 0 0 0 0 
0 0 0 0 0 0 0 0 0 
0 0 0 0 0 0 0 0 0 
0 0 0 0 0 0 0 0 0 
0 0 0 0 0 0 0 0 0 
0 0 0 0 0 0 0 0 0 
0 0 0 0 0 0 0 0 0 
0 0 0 0 0 0 0 0 0 
0 0 0 0 0 0 0 0 0 
0 0 0 0 0 0 0 0 0 
0 0 0 0 0 0 0 0 0 
0 0 0 0 0 0 0 0 0 
0 0 0 0 0 0 0 0 0 
0 0 0 0 0 0 0 0 0 
0 0 0 0 0 0 0 0 0 
0 0 0 0 0 0 0 0 0 
0 0 0 0 0 0 0 0 0 
0 0 0 0 0 0 0 0 0 
0 0 0 0 0 0 0 0 0 
0 0 0 0 0 0 0 0 0 
0 0 0 0 0 0 0 0 0 
0 0 0 0 0 0 0 0 0 
0 0 0 0 0 0 0 0 0 
0 0 0 0 0 0 0 0 0 
0 0 0 0 0 0 0 0 0 
0 0 0 0 0 0 0 0 0 
0 0 0 0 0 0 0 0 0 
0 0 0 0 0 0 0 0 0 
0 0 0 0 0 0 0 0 0 
0 0 0 0 0 0 0 0 0 
0 0 0 0 0 0 0 0 0 
0 0 0 0 0 0 0 0 0 
0 0 0 0 0 0 0 0 0 
0 0 0 0 0 0 0 0 0 
0 0 0 0 0 0 0 0 0 
0 0 0 0 0 0 0 0 0 
0 0 0 0 0 0 0 0 0 
0 0 0 0 0 0 0 0 0 
0 0 0 0 0 0 0 0 0 
0 0 0 0 0 0 0 0 0 
0 0 0 0 0 0 0 0 0 
0 0 0 0 0 0 0 0 0 
0 0 0 0 0 0 0 0 0 
0 0 0 0 0 0 0 0 0 
0 0 0 0 0 0 0 0 0 
0 0 0 0 0 0 0 0 0 
0 0 0 0 0 0 0 0 0 
0 0 0 0 0 0 0 0 0 
0 0 0 0 0 0 0 0 0 
0 0 0 0 0 0 0 0 0 
0 0 0 0 0 0 0 0 0 
0 0 0 0 0 0 0 0 0 
0 0 0 0 0 0 0 0 0 
0 0 0 0 0 0 0 0 0 
0 0 0 0 0 0 0 0 0 
0 0 0 0 0 0 0 0 0 
0 0 0 0 0 0 0 0 0 
0 0 0 0 0 0 0 0 0 
0 0 0 0 0 0 0 0 0 
0 0 0 0 0 0 0 0 0 
0 0 0 0 0 0 0 0 0 
0 0 0 0 0 0 0 0 0 
0 0 0 0 0 0 0 0 0 
0 0 0 0 0 0 0 0 0 
0 0 0 0 0 0 0 0 0 
0 0 0 0 0 0 0 0 0 
0 0 0 0 0 0 0 0 0 
0 0 0 0 0 0 0 0 0 
0 0 0 0 0 0 0 0 0 
0 0 0 0 0 0 0 0 0 
0 0 0 0 0 0 0 0 0 
0 0 0 0 0 0 0 0 0 
0 0 0 0 0 0 0 0 0 
0 0 0 0 0 0 0 0 0 
0 0 0 0 0 0 0 0 0 
0 0 0 0 0 0 0 0 0 
0 0 0 0 0 0 0 0 0 
0 0 0 0 0 0 0 0 0 
0 0 0 0 0 0 0 0 0 
0 0 0 0 0 0 0 0 0 
0 0 0 0 0 0 0 0 0 
0 0 0 0 0 0 0 0 0 
0 0 0 0 0 0 0 0 0 
0 0 0 0 0 0 0 0 0 
0 0 0 0 0 0 0 0 0 
0 0 0 0 0 0 0 0 0 
0 0 0 0 0 0 0 0 0 
0 0 0 0 0 0 0 0 0 
0 0 0 0 0 0 0 0 0 
0 0 0 0 0 0 0 0 0 
0 0 0 0 0 0 0 0 0 
0 0 0 0 0 0 0 0 0 
0 0 0 0 0 0 0 0 0 
0 0 0 0 0 0 0 0 0 
0 0 0 0 0 0 0 0 0 
0 0 0 0 0 0 0 0 0 
0 0 0 0 0 0 0 0 0 
0 0 0 0 0 0 0 0 0 
0 0 0 0 0 0 0 0 0 
0 0 0 0 0 0 0 0 0 
0 0 0 0 0 0 0 0 0 
0 0 0 0 0 0 0 0 0 
0 0 0 0 0 0 0 0 0 
0 0 0 0 0 0 0 0 0 
0 0 0 0 0 0 0 0 0 
0 0 0 0 0 0 0 0 0 
0 0 0 0 0 0 0 0 0 
0 0 0 0 0 0 0 0 0 
0 0 0 0 0 0 0 0 0 
0 0 0 0 0 0 0 0 0 
0 0 0 0 0 0 0 0 0 
0 0 0 0 0 0 0 0 0 
0 0 0 0 0 0 0 0 0 
0 0 0 0 0 0 0 0 0 
0 0 0 0 0 0 0 0 0 
0 0 0 0 0 0 0 0 0 
0 0 0 0 0 0 0 0 0 
0 0 0 0 0 0 0 0 0 
0 0 0 0 0 0 0 0 0 
0 0 0 0 0 0 0 0 0 
0 0 0 0 0 0 0 0 0 
0 0 0 0 0 0 0 0 0 
0 0 0 0 0 0 0 0 0 
0 0 0 0 0 0 0 0 0 
0 0 0 0 0 0 0 0 0 
0 0 0 0 0 0 0 0 0 
0 0 0 0 0 0 0 0 0 
0 0 0 0 0 0 0 0 0 
0 0 0 0 0 0 0 0 0 
0 0 0 0 0 0 0 0 0 
0 0 0 0 0 0 0 0 0 
0 0 0 0 0 0 0 0 0 
0 0 0 0 0 0 0 0 0 
0 0 0 0 0 0 0 0 0 
0 0 0 0 0 0 0 0 0 
0 0 0 0 0 0 0 0 0 
0 0 0 0 0 0 0 0 0 
0 0 0 0 0 0 0 0 0 
0 0 0 0 0 0 0 0 0 
0 0 0 0 0 0 0 0 0 
0 0 0 0 0 0 0 0 0 
0 0 0 0 0 0 0 0 0 
0 0 0 0 0 0 0 0 0 
0 0 0 0 0 0 0 0 0 
0 0 0 0 0 0 0 0 0 
0 0 0 0 0 0 0 0 0 
0 0 0 0 0 0 0 0 0 
0 0 0 0 0 0 0 0 0 
0 0 0 0 0 0 0 0 0 
0 0 0 0 0 0 0 0 0 
0 0 0 0 0 0 0 0 0 
0 0 0 0 0 0 0 0 0 
0 0 0 0 0 0 0 0 0 
0 0 0 0 0 0 0 0 0 
0 0 0 0 0 0 0 0 0 
0 0 0 0 0 0 0 0 0 
0 0 0 0 0 0 0 0 0 
0 0 0 0 0 0 0 0 0 
0 0 0 0 0 0 0 0 0 
0 0 0 0 0 0 0 0 0 
0 0 0 0 0 0 0 0 0 
0 0 0 0 0 0 0 0 0 
0 0 0 0 0 0 0 0 0 
0 0 0 0 0 0 0 0 0 
0 0 0 0 0 0 0 0 0 
0 0 0 0 0 0 0 0 0 
0 0 0 0 0 0 0 0 0 
0 0 0 0 0 0 0 0 0 
0 0 0 0 0 0 0 0 0 
0 0 0 0 0 0 0 0 0 
0 0 0 0 0 0 0 0 0 
0 0 0 0 0 0 0 0 0 
0 0 0 0 0 0 0 0 0 
0 0 0 0 0 0 0 0 0 
0 0 0 0 0 0 0 0 0 
0 0 0 0 0 0 0 0 0 
0 0 0 0 0 0 0 0 0 
0 0 0 0 0 0 0 0 0 
0 0 0 0 0 0 0 0 0 
0 0 0 0 0 0 0 0 0 
0 0 0 0 0 0 0 0 0 
0 0 0 0 0 0 0 0 0 
0 0 0 0 0 0 0 0 0 
0 0 0 0 0 0 0 0 0 
0 0 0 0 0 0 0 0 0 
0 0 0 0 0 0 0 0 0 
0 0 0 0 0 0 0 0 0 
0 0 0 0 0 0 0 0 0 
0 0 0 0 0 0 0 0 0 
0 0 0 0 0 0 0 0 0 
0 0 0 0 0 0 0 0 0 
0 0 0 0 0 0 0 0 0 
0 0 0 0 0 0 0 0 0 
0 0 0 0 0 0 0 0 0 
0 0 0 0 0 0 0 0 0 
0 0 0 0 0 0 0 0 0 
0 0 0 0 0 0 0 0 0 
0 0 0 0 0 0 0 0 0 
0 0 0 0 0 0 0 0 0 
0 0 0 0 0 0 0 0 0 
0 0 0 0 0 0 0 0 0 
0 0 0 0 0 0 0 0 0 
0 0 0 0 0 0 0 0 0 
0 0 0 0 0 0 0 0 0 
0 0 0 0 0 0 0 0 0 
0 0 0 0 0 0 0 0 0 
0 0 0 0 0 0 0 0 0 
0 0 0 0 0 0 0 0 0 
0 0 0 0 0 0 0 0 0 
0 0 0 0 0 0 0 0 0 
0 0 0 0 0 0 0 0 0 
0 0 0 0 0 0 0 0 0 
0 0 0 0 0 0 0 0 0 
0 0 0 0 0 0 0 0 0 
0 0 0 0 0 0 0 0 0 
0 0 0 0 0 0 0 0 0 
0 0 0 0 0 0 0 0 0 
0 0 0 0 0 0 0 0 0 
0 0 0 0 0 0 0 0 0 
0 0 0 0 0 0 0 0 0 
0 0 0 0 0 0 0 0 0 
0 0 0 0 0 0 0 0 0 
0 0 0 0 0 0 0 0 0 
0 0 0 0 0 0 0 0 0 
0 0 0 0 0 0 0 0 0 
0 0 0 0 0 0 0 0 0 
0 0 0 0 0 0 0 0 0 
0 0 0 0 0 0 0 0 0 
0 0 0 0 0 0 0 0 0 
0 0 0 0 0 0 0 0 0 
0 0 0 0 0 0 0 0 0 
0 0 0 0 0 0 0 0 0 
0 0 0 0 0 0 0 0 0 
0 0 0 0 0 0 0 0 0 
0 0 0 0 0 0 0 0 0 
0 0 0 0 0 0 0 0 0 
0 0 0 0 0 0 0 0 0 
0 0 0 0 0 0 0 0 0 
0 0 0 0 0 0 0 0 0 
0 0 0 0 0 0 0 0 0 
0 0 0 0 0 0 0 0 0 
0 0 0 0 0 0 0 0 0 
0 0 0 0 0 0 0 0 0 
0 0 0 0 0 0 0 0 0 
0 0 0 0 0 0 0 0 0 
0 0 0 0 0 0 0 0 0 
0 0 0 0 0 0 0 0 0 
0 0 0 0 0 0 0 0 0 
0 0 0 0 0 0 0 0 0 
0 0 0 0 0 0 0 0 0 
0 0 0 0 0 0 0 0 0 
0 0 0 0 0 0 0 0 0 
0 0 0 0 0 0 0 0 0 
0 0 0 0 0 0 0 0 0 
0 0 0 0 0 0 0 0 0 
0 0 0 0 0 0 0 0 0 
0 0 0 0 0 0 0 0 0 
0 0 0 0 0 0 0 0 0 
0 0 0 0 0 0 0 0 0 
0 0 0 0 0 0 0 0 0 
0 0 0 0 0 0 0 0 0 
0 0 0 0 0 0 0 0 0 
0 0 0 0 0 0 0 0 0 
0 0 0 0 0 0 0 0 0 
0 0 0 0 0 0 0 0 0 
0 0 0 0 0 0 0 0 0 
0 0 0 0 0 0 0 0 0 
0 0 0 0 0 0 0 0 0 
0 0 0 0 0 0 0 0 0 
0 0 0 0 0 0 0 0 0 
0 0 0 0 0 0 0 0 0 
0 0 0 0 0 0 0 0 0 
0 0 0 0 0 0 0 0 0 
0 0 0 0 0 0 0 0 0 
0 0 0 0 0 0 0 0 0 
0 0 0 0 0 0 0 0 0 
0 0 0 0 0 0 0 0 0 
0 0 0 0 0 0 0 0 0 
0 0 0 0 0 0 0 0 0 
0 0 0 0 0 0 0 0 0 
0 0 0 0 0 0 0 0 0 
0 0 0 0 0 0 0 0 0 
0 0 0 0 0 0 0 0 0 
0 0 0 0 0 0 0 0 0 
0 0 0 0 0 0 0 0 0 
0 0 0 0 0 0 0 0 0 
0 0 0 0 0 0 0 0 0 
0 0 0 0 0 0 0 0 0 
0 0 0 0 0 0 0 0 0 
0 0 0 0 0 0 0 0 0 
0 0 0 0 0 0 0 0 0 
0 0 0 0 0 0 0 0 0 
0 0 0 0 0 0 0 0 0 
0 0 0 0 0 0 0 0 0 
0 0 0 0 0 0 0 0 0 
0 0 0 0 0 0 0 0 0 
0 0 0 0 0 0 0 0 0 
0 0 0 0 0 0 0 0 0 
0 0 0 0 0 0 0 0 0 
0 0 0 0 0 0 0 0 0 
0 0 0 0 0 0 0 0 0 
0 0 0 0 0 0 0 0 0 
0 0 0 0 0 0 0 0 0 
0 0 0 0 0 0 0 0 0 
0 0 0 0 0 0 0 0 0 
0 0 0 0 0 0 0 0 0 
0 0 0 0 0 0 0 0 0 
0 0 0 0 0 0 0 0 0 
0 0 0 0 0 0 0 0 0 
0 0 0 0 0 0 0 0 0 
0 0 0 0 0 0 0 0 0 
0 0 0 0 0 0 0 0 0 
0 0 0 0 0 0 0 0 0 
0 0 0 0 0 0 0 0 0 
0 0 0 0 0 0 0 0 0 
0 0 0 0 0 0 0 0 0 
0 0 0 0 0 0 0 0 0 
0 0 0 0 0 0 0 0 0 
0 0 0 0 0 0 0 0 0 
0 0 0 0 0 0 0 0 0 
0 0 0 0 0 0 0 0 0 
0 0 0 0 0 0 0 0 0 
0 0 0 0 0 0 0 0 0 
0 0 0 0 0 0 0 0 0 
0 0 0 0 0 0 0 0 0 
0 0 0 0 0 0 0 0 0 
0 0 0 0 0 0 0 0 0 
0 0 0 0 0 0 0 0 0 
0 0 0 0 0 0 0 0 0 
0 0 0 0 0 0 0 0 0 
0 0 0 
I1_Pt 1 1114 double
2 2 2 2 2 2 2 2 2 
2 2 2 2 2 2 2 2 2 
2 2 2 2 2 2 2 2 2 
2 2 2 2 2 2 2 2 2 
2 2 2 2 2 2 2 2 2 
2 2 2 2 2 2 2 2 2 
2 2 2 2 2 2 2 2 2 
2 2 2 2 2 2 2 2 2 
2 2 2 2 2 2 2 2 2 
2 2 2 2 2 2 2 2 2 
2 2 2 2 2 2 2 2 2 
2 2 2 2 2 2 2 2 2 
2 2 2 2 2 2 2 2 2 
2 2 2 2 2 2 2 2 2 
2 2 2 2 2 2 2 2 2 
2 2 2 2 2 2 2 2 2 
2 2 2 2 2 2 2 2 2 
2 2 2 2 2 2 2 2 2 
2 2 2 2 2 2 2 2 2 
2 2 2 2 2 2 2 2 2 
2 2 2 2 2 2 2 2 2 
2 2 2 2 2 2 2 2 2 
2 2 2 2 2 2 2 2 2 
2 2 2 2 2 2 2 2 2 
2 2 2 2 2 2 2 2 2 
2 2 2 2 2 2 2 2 2 
2 2 2 2 2 2 2 2 2 
2 2 2 2 2 2 2 2 2 
2 2 2 2 2 2 2 2 2 
2 2 2 2 2 2 2 2 2 
2 2 2 2 2 2 2 2 2 
2 2 2 2 2 2 2 2 2 
2 2 2 2 2 2 2 2 2 
2 2 2 2 2 2 2 2 2 
2 2 2 2 2 2 2 2 2 
2 2 2 2 2 2 2 2 2 
2 2 2 2 2 2 2 2 2 
2 2 2 2 2 2 2 2 2 
2 2 2 2 2 2 2 2 2 
2 2 2 2 2 2 2 2 2 
2 2 2 2 2 2 2 2 2 
2 2 2 2 2 2 2 2 2 
2 2 2 2 2 2 2 2 2 
2 2 2 2 2 2 2 2 2 
2 2 2 2 2 2 2 2 2 
2 2 2 2 2 2 2 2 2 
2 2 2 2 2 2 2 2 2 
2 2 2 2 2 2 2 2 2 
2 2 2 2 2 2 2 2 2 
2 2 2 2 2 2 2 2 2 
2 2 2 2 2 2 2 2 2 
2 2 2 2 2 2 2 2 2 
2 2 2 2 2 2 2 2 2 
2 2 2 2 2 2 2 2 2 
2 2 2 2 2 2 2 2 2 
2 2 2 2 2 2 2 2 2 
2 2 2 2 2 2 2 2 2 
2 2 2 2 2 2 2 2 2 
2 2 2 2 2 2 2 2 2 
2 2 2 2 2 2 2 2 2 
2 2 2 2 2 2 2 2 2 
2 2 2 2 2 2 2 2 2 
2 2 2 2 2 2 2 2 2 
2 2 2 2 2 2 2 2 2 
2 2 2 2 2 2 2 2 2 
2 2 2 2 2 2 2 2 2 
2 2 2 2 2 2 2 2 2 
2 2 2 2 2 2 2 2 2 
2 2 2 2 2 2 2 2 2 
2 2 2 2 2 2 2 2 2 
2 2 2 2 2 2 2 2 2 
2 2 2 2 2 2 2 2 2 
2 2 2 2 2 2 2 2 2 
2 2 2 2 2 2 2 2 2 
2 2 2 2 2 2 2 2 2 
2 2 2 2 2 2 2 2 2 
2 2 2 2 2 2 2 2 2 
2 2 2 2 2 2 2 2 2 
2 2 2 2 2 2 2 2 2 
2 2 2 2 2 2 2 2 2 
2 2 2 2 2 2 2 2 2 
2 2 2 2 2 2 2 2 2 
2 2 2 2 2 2 2 2 2 
2 2 2 2 2 2 2 2 2 
2 2 2 2 2 2 2 2 2 
2 2 2 2 2 2 2 2 2 
2 2 2 2 2 2 2 2 2 
2 2 2 2 2 2 2 2 2 
2 2 2 2 2 2 2 2 2 
2 2 2 2 2 2 2 2 2 
2 2 2 2 2 2 2 2 2 
2 2 2 2 2 2 2 2 2 
2 2 2 2 2 2 2 2 2 
2 2 2 2 2 2 2 2 2 
2 2 2 2 2 2 2 2 2 
2 2 2 2 2 2 2 2 2 
2 2 2 2 2 2 2 2 2 
2 2 2 2 2 2 2 2 2 
2 2 2 2 2 2 2 2 2 
2 2 2 2 2 2 2 2 2 
2 2 2 2 2 2 2 2 2 
2 2 2 2 2 2 2 2 2 
2 2 2 2 2 2 2 2 2 
2 2 2 2 2 2 2 2 2 
2 2 2 2 2 2 2 2 2 
2 2 2 2 2 2 2 2 2 
2 2 2 2 2 2 2 2 2 
2 2 2 2 2 2 2 2 2 
2 2 2 2 2 2 2 2 2 
2 2 2 2 2 2 2 2 2 
2 2 2 2 2 2 2 2 2 
2 2 2 2 2 2 2 2 2 
2 2 2 2 2 2 2 2 2 
2 2 2 2 2 2 2 2 2 
2 2 2 2 2 2 2 2 2 
2 2 2 2 2 2 2 2 2 
2 2 2 2 2 2 2 2 2 
2 2 2 2 2 2 2 2 2 
2 2 2 2 2 2 2 2 2 
2 2 2 2 2 2 2 2 2 
2 2 2 2 2 2 2 2 2 
2 2 2 2 2 2 2 2 2 
2 2 2 2 2 2 2 2 2 
2 2 2 2 2 2 2 
IAS 1 1114 double
0 0 0 0 0 0 0 0 0 
0 0 0 0 0 0 0 0 0 
0 0 0 0 0 0 0 0 0 
0 0 0 0 0 0 0 0 0 
0 0 0 0 0 0 0 0 0 
0 0 0 0 0 0 0 0 0 
0 0 0 0 0 0 0 0 0 
0 0 0 0 0 0 0 0 0 
0 0 0 0 0 0 0 0 0.32755940185 
0.37673244617 0.83372257104 0.80254588229 0 0 0 0 0 0 
0 0 0 0 0 0 0 0 0 
0 0 0 0 0 0 0 0 0 
0 0 0 0 0 0 0 0 0 
0 0 0 0 0 0 0 0 0 
0 0 0 0 0 0 0 0 0 
0 0 0 0 0 0 0 0 0 
0 0 0 0 0 0 0 0 0 
0 0 0 0 0 0 0 0 0 
0 0 0 0 0 0 0 0 0 
0 0 0 0 0 0 0 0 0 
0 0 0 0 0 0 0 0 0 
0 0 0 0 0 0.27988748432 0.31868372145 0.84449779884 0.88133860667 
0.57984967559 0.54000354987 0 0 0 0 0 0 0 
0 0 0 0 0 0 0 0 0 
0 0 0 0 0 0 0 0 0 
0 0 0 0 0 0 0 0 0 
0 0 0 0 0 0.47670195137 0.76166709793 0.0053127446635 0 
0 0 0 0 0 0 0 0 0 
0 0 0 0 0 0 0 0 0 
0 0 0 0 0 0 0 0 0 
0 0 0 0 0 0 0 0 0 
0 0 0 0 0 0 0 0 0 
0 0 0 0 0 0 0 0 0.35770613159 
0.92198963493 0.49517221571 0 0 0 0 0 0 0 
0 0 0 0 0 0 0 0 0 
0 0 0 0 0 0 0 0 0 
0 0 0 0 0 0 0 0 0 
0 0 0 0 0 0.46308131328 0.77865949758 0.056545912367 0 
0 0 0 0 0 0 0 0 0 
0 0 0 0 0 0 0 0 0 
0 0 0 0 0 0 0 0 0 
0 0 0 0 0 0 0.37340774694 0.94414606877 0.45585463877 
0 0 0 0 0 0 0 0 0 
0 0 0 0 0 0 0 0 0 
0 0 0 0 0 0 0 0 0 
0 0 0 0 0 0 0 0 0 
0 0 0 0 0 0 0 0 0 
0 0 0.52159097096 0 0.79072761137 0.10880313871 0 0 0 
0 0 0 0 0 0 0 0 0 
0 0 0 0 0 0 0 0 0 
0 0 0 0 0 0 0 0 0 
0 0 0 0 0 0 0 0 0 
0 0 0 0 0 0 0 0 0 
0 0 0 0 0 0 0 0 0 
0 0 0 0 0 0 0 0 0.35681208106 
0.94275017229 0.35347943363 0 0 0 0 0 0 0 
0 0 0 0 0 0 0 0 0 
0 0 0 0 0 0 0 0 0 
0 0 0 0 0 0 0 0 0 
0 0 0 0 0 0 0 0 0 
0 0 0 0 0 0 0 0 0 
0 0 0 0 0 0 0 0 0 
0 0 0 0 0 0 0 0 0 
0.50427113156 0.80836684708 0.16699383459 0 0 0 0 0 0 
0 0 0 0 0 0 0 0 0 
0 0 0 0 0 0 0 0 0 
0 0 0 0 0 0 0 0 0 
0 0 0 0 0 0 0 0 0 
0 0 0 0 0 0 0 0 0 
0 0 0 0 0 0 0 0 0 
0 0 0 0 0 0 0.31899731159 0.85125048055 0.61407210548 
0 0 0 0 0 0 0 0 0 
0 0 0 0 0 0 0 0 0 
0 0 0 0 0 0 0 0 0 
0 0.18182188362 0 0 0 0 0 0 0 
0 0 0 0 0 0 0 0 0 
0 0 0 0 0 0 0 0 0 
0 0 0 0.24578503044 0.74535516339 0.77172429306 0.40928692653 0 0.1274938114 
0 0 0 0 0 0 0 0 0 
0 0 0 0 0 0 0 0 0 
0 0 0 0 0 0 0 0 0 
0 0 0 0 0 0 0 0 0 
0 0 0 0 0 0 0 0 0 
0 0 0 0.54314227475 0.80491676657 0.2043686296 0 0 0 
0 0 0 0 0 0 0 0 0 
0 0 0 0 0 0 0 0 0 
0 0 0 0 0 0 0 0 0 
0 0 0 0 0 0 0 0 0 
0 0 0 0 0 0 0 0 0 
0 0 0 0 0 0 0 0 0 
0 0 0 0 0 0.17934219681 0.63755607253 0.93007572918 0.61911771528 
0.37836423659 0 0.15863644705 0 0 0 0 0 0 
0 0 0 0 0 0 0 0 0 
0 0 0 0 0 0 0 0 0 
0 0 0 0 0 0 0 0 0 
0 0 0 0 0 0 0 0 0 
0 0 0 0.040623260938 0.57410078941 0.84062175567 0.27588549808 0 0 
0 0 0 0 0 0 0 0 0 
0 0 0 0 0 0 0 0 0 
0 0 0 0 0 0 0 0 0 
0 0 0 0 0 0 0 0 0 
0 0 0 0 0 0 0 0 0 
0 0 0 0 0 0 0 0 0 
0 0 0 0 0 0 0 0 0 
0 0 0 0 0 0 0 0 0 
0 0 0 0 0 0 0.075885976699 0.54400133436 0.86389587769 
0.36694692418 0 0 0 0 0 0 0 0 
0 0 0 0 0 0 0 0 0 
0 0 0 0 0 0 0 0 0 
0 0 0 0 0 0 0 0 0 
0 0 0 0 0 0 0 0 0 
0 0 0 0 0 0 0 0 0 
0 0.1116023419 0.52770435655 0.90234288873 0.80581507398 0.61193820759 0.42707922595 0 0 
0 0 0 0 0 0 0 0 0 
0 0 0 0 0 0 0 0 0 
0 0 0 0 0 0 0 0 0 
0 0 0 0 0 0 0 0 0 
0 0 0 0 0 0 0 0 0 
0 0 0 0.06268747158 0.85810204688 0.94418749261 0 0 0 
0 0 0 0 0 0 0 0 0 
0 0 0 0 0 0 0 0 0 
0 0.031921481784 0.24411326154 0.40688405791 0.8270297802 0.027235326445 0 0 0 
0 0 0 0 0 0.42536339553 0.79532999486 0.054456021045 0 
0 0 0 0 0.79731551626 0.45295929481 0.74429733009 
J_Pt 1 1114 double
1 1 1 1 1 1 1 1 1 
1 1 1 1 1 1 1 1 1 
1 1 1 1 1 1 1 1 1 
1 1 1 1 1 1 1 1 1 
1 1 1 1 1 1 1 1 1 
1 1 1 1 1 1 1 1 1 
1 1 1 1 1 1 1 1 1 
1 1 1 1 1 1 1 1 1 
1 1 1 1 1 1 1 1 1 
1 1 1 1 1 1 1 1 1 
1 1 1 1 1 1 1 1 1 
1 1 1 1 1 1 1 1 1 
1 1 1 1 1 1 1 1 1 
1 1 1 1 1 1 1 1 1 
1 1 1 1 1 1 1 1 1 
1 1 1 1 1 1 1 1 1 
1 1 1 1 1 1 1 1 1 
1 1 1 1 1 1 1 1 1 
1 1 1 1 1 1 1 1 1 
1 1 1 1 1 1 1 1 1 
1 1 1 1 1 1 1 1 1 
1 1 1 1 1 1 1 1 1 
1 1 1 1 1 1 1 1 1 
1 1 1 1 1 1 1 1 1 
1 1 1 1 1 1 1 1 1 
1 1 1 1 1 1 1 1 1 
1 1 1 1 1 1 1 1 1 
1 1 1 1 1 1 1 1 1 
1 1 1 1 1 1 1 1 1 
1 1 1 1 1 1 1 1 1 
1 1 1 1 1 1 1 1 1 
1 1 1 1 1 1 1 1 1 
1 1 1 1 1 1 1 1 1 
1 1 1 1 1 1 1 1 1 
1 1 1 1 1 1 1 1 1 
1 1 1 1 1 1 1 1 1 
1 1 1 1 1 1 1 1 1 
1 1 1 1 1 1 1 1 1 
1 1 1 1 1 1 1 1 1 
1 1 1 1 1 1 1 1 1 
1 1 1 1 1 1 1 1 1 
1 1 1 1 1 1 1 1 1 
1 1 1 1 1 1 1 1 1 
1 1 1 1 1 1 1 1 1 
1 1 1 1 1 1 1 1 1 
1 1 1 1 1 1 1 1 1 
1 1 1 1 1 1 1 1 1 
1 1 1 1 1 1 1 1 1 
1 1 1 1 1 1 1 1 1 
1 1 1 1 1 1 1 1 1 
1 1 1 1 1 1 1 1 1 
1 1 1 1 1 1 1 1 1 
1 1 1 1 1 1 1 1 1 
1 1 1 1 1 1 1 1 1 
1 1 1 1 1 1 1 1 1 
1 1 1 1 1 1 1 1 1 
1 1 1 1 1 1 1 1 1 
1 1 1 1 1 1 1 1 1 
1 1 1 1 1 1 1 1 1 
1 1 1 1 1 1 1 1 1 
1 1 1 1 1 1 1 1 1 
1 1 1 1 1 1 1 1 1 
1 1 1 1 1 1 1 1 1 
1 1 1 1 1 1 1 1 1 
1 1 1 1 1 1 1 1 1 
1 1 1 1 1 1 1 1 1 
1 1 1 1 1 1 1 1 1 
1 1 1 1 1 1 1 1 1 
1 1 1 1 1 1 1 1 1 
1 1 1 1 1 1 1 1 1 
1 1 1 1 1 1 1 1 1 
1 1 1 1 1 1 1 1 1 
1 1 1 1 1 1 1 1 1 
1 1 1 1 1 1 1 1 1 
1 1 1 1 1 1 1 1 1 
1 1 1 1 1 1 1 1 1 
1 1 1 1 1 1 1 1 1 
1 1 1 1 1 1 1 1 1 
1 1 1 1 1 1 1 1 1 
1 1 1 1 1 1 1 1 1 
1 1 1 1 1 1 1 1 1 
1 1 1 1 1 1 1 1 1 
1 1 1 1 1 1 1 1 1 
1 1 1 1 1 1 1 1 1 
1 1 1 1 1 1 1 1 1 
1 1 1 1 1 1 1 1 1 
1 1 1 1 1 1 1 1 1 
1 1 1 1 1 1 1 1 1 
1 1 1 1 1 1 1 1 1 
1 1 1 1 1 1 1 1 1 
1 1 1 1 1 1 1 1 1 
1 1 1 1 1 1 1 1 1 
1 1 1 1 1 1 1 1 1 
1 1 1 1 1 1 1 1 1 
1 1 1 1 1 1 1 1 1 
1 1 1 1 1 1 1 1 1 
1 1 1 1 1 1 1 1 1 
1 1 1 1 1 1 1 1 1 
1 1 1 1 1 1 1 1 1 
1 1 1 1 1 1 1 1 1 
1 1 1 1 1 1 1 1 1 
1 1 1 1 1 1 1 1 1 
1 1 1 1 1 1 1 1 1 
1 1 1 1 1 1 1 1 1 
1 1 1 1 1 1 1 1 1 
1 1 1 1 1 1 1 1 1 
1 1 1 1 1 1 1 1 1 
1 1 1 1 1 1 1 1 1 
1 1 1 1 1 1 1 1 1 
1 1 1 1 1 1 1 1 1 
1 1 1 1 1 1 1 1 1 
1 1 1 1 1 1 1 1 1 
1 1 1 1 1 1 1 1 1 
1 1 1 1 1 1 1 1 1 
1 1 1 1 1 1 1 1 1 
1 1 1 1 1 1 1 1 1 
1 1 1 1 1 1 1 1 1 
1 1 1 1 1 1 1 1 1 
1 1 1 1 1 1 1 1 1 
1 1 1 1 1 1 1 1 1 
1 1 1 1 1 1 1 1 1 
1 1 1 1 1 1 1 1 1 
1 1 1 1 1 1 1 1 1 
1 1 1 1 1 1 1 
Label 4 1114 double
1 1 1 1 1 1 1 1 1 
1 1 1 1 1 1 1 1 1 
1 1 1 1 1 1 1 1 1 
1 1 1 1 1 1 1 1 1 
1 1 1 1 1 1 1 1 1 
1 1 1 1 1 1 1 1 1 
1 1 1 1 1 1 1 1 1 
1 1 1 1 1 1 1 1 1 
1 1 1 1 1 1 1 1 1 
1 1 1 1 1 1 1 1 1 
1 1 1 1 1 1 1 1 1 
1 1 1 1 1 1 1 1 1 
1 1 1 1 1 1 1 1 1 
1 1 1 1 1 1 1 1 1 
1 1 1 1 1 1 1 1 1 
1 1 1 1 1 1 1 1 1 
1 1 1 1 1 1 1 1 1 
1 1 1 1 1 1 1 1 1 
1 1 1 1 1 1 1 1 1 
1 1 1 1 1 1 1 1 1 
1 1 1 1 1 1 1 1 1 
1 1 1 1 1 1 1 1 1 
1 1 1 1 1 1 1 1 1 
1 1 1 1 1 1 1 1 1 
1 1 1 1 1 1 1 1 1 
1 1 1 1 1 1 1 1 1 
1 1 1 1 1 1 1 1 1 
1 1 1 1 1 1 1 1 1 
1 1 1 1 1 1 1 1 1 
1 1 1 1 1 1 1 1 1 
1 1 1 1 1 1 1 1 1 
1 1 1 1 1 1 1 1 1 
1 1 1 1 1 1 1 1 1 
1 1 1 1 1 1 1 1 1 
1 1 1 1 1 1 1 1 1 
1 1 1 1 1 1 1 1 1 
1 1 1 1 1 1 1 1 1 
1 1 1 1 1 1 1 1 1 
1 1 1 1 1 1 1 1 1 
1 1 1 1 1 1 1 1 1 
1 1 1 1 1 1 1 1 1 
1 1 1 1 1 1 1 1 1 
1 1 1 1 1 1 1 1 1 
1 1 1 1 1 1 1 1 1 
1 1 1 1 1 1 1 1 1 
1 1 1 1 1 1 1 1 1 
1 1 1 1 1 1 1 1 1 
1 1 1 1 1 1 1 1 1 
1 1 1 1 1 1 1 1 1 
1 1 1 1 1 1 1 1 1 
1 1 1 1 1 1 1 1 1 
1 1 1 1 1 1 1 1 1 
1 1 1 1 1 1 1 1 1 
1 1 1 1 1 1 1 1 1 
1 1 1 1 1 1 1 1 1 
1 1 1 1 1 1 1 1 1 
1 1 1 1 1 1 1 1 1 
1 1 1 1 1 1 1 1 1 
1 1 1 1 1 1 1 1 1 
1 1 1 1 1 1 1 1 1 
1 1 1 1 1 1 1 1 1 
1 1 1 1 1 1 1 1 1 
1 1 1 1 1 1 1 1 1 
1 1 1 1 1 1 1 1 1 
1 1 1 1 1 1 1 1 1 
1 1 1 1 1 1 1 1 1 
1 1 1 1 1 1 1 1 1 
1 1 1 1 1 1 1 1 1 
1 1 1 1 1 1 1 1 1 
1 1 1 1 1 1 1 1 1 
1 1 1 1 1 1 1 1 1 
1 1 1 1 1 1 1 1 1 
1 1 1 1 1 1 1 1 1 
1 1 1 1 1 1 1 1 1 
1 1 1 1 1 1 1 1 1 
1 1 1 1 1 1 1 1 1 
1 1 1 1 1 1 1 1 1 
1 1 1 1 1 1 1 1 1 
1 1 1 1 1 1 1 1 1 
1 1 1 1 1 1 1 1 1 
1 1 1 1 1 1 1 1 1 
1 1 1 1 1 1 1 1 1 
1 1 1 1 1 1 1 1 1 
1 1 1 1 1 1 1 1 1 
1 1 1 1 1 1 1 1 1 
1 1 1 1 1 1 1 1 1 
1 1 1 1 1 1 1 1 1 
1 1 1 1 1 1 1 1 1 
1 1 1 1 1 1 1 1 1 
1 1 1 1 1 1 1 1 1 
1 1 1 1 1 1 1 1 1 
1 1 1 1 1 1 1 1 1 
1 1 1 1 1 1 1 1 1 
1 1 1 1 1 1 1 1 1 
1 1 1 1 1 1 1 1 1 
1 1 1 1 1 1 1 1 1 
1 1 1 1 1 1 1 1 1 
1 1 1 1 1 1 1 1 1 
1 1 1 1 1 1 1 1 1 
1 1 1 1 1 1 1 1 1 
1 1 1 1 1 1 1 1 1 
1 1 1 1 1 1 1 1 1 
1 1 1 1 1 1 1 1 1 
1 1 1 1 1 1 1 1 1 
1 1 1 1 1 1 1 1 1 
1 1 1 1 1 1 1 1 1 
1 1 1 1 1 1 1 1 1 
1 1 1 1 1 1 1 1 1 
1 1 1 1 1 1 1 1 1 
1 1 1 1 1 1 1 1 1 
1 1 1 1 1 1 1 1 1 
1 1 1 1 1 1 1 1 1 
1 1 1 1 1 1 1 1 1 
1 1 1 1 1 1 1 1 1 
1 1 1 1 1 1 1 1 1 
1 1 1 1 1 1 1 1 1 
1 1 1 1 1 1 1 1 1 
1 1 1 1 1 1 1 1 1 
1 1 1 1 1 1 1 1 1 
1 1 1 1 1 1 1 1 1 
1 1 1 1 1 1 1 1 1 
1 1 1 1 1 1 1 1 1 
1 1 1 1 1 1 1 1 1 
1 1 1 1 1 1 1 1 1 
1 1 1 1 1 1 1 1 1 
1 1 1 1 1 1 1 1 1 
1 1 1 1 1 1 1 1 1 
1 1 1 1 1 1 1 1 1 
1 1 1 1 1 1 1 1 1 
1 1 1 1 1 1 1 1 1 
1 1 1 1 1 1 1 1 1 
1 1 1 1 1 1 1 1 1 
1 1 1 1 1 1 1 1 1 
1 1 1 1 1 1 1 1 1 
1 1 1 1 1 1 1 1 1 
1 1 1 1 1 1 1 1 1 
1 1 1 1 1 1 1 1 1 
1 1 1 1 1 1 1 1 1 
1 1 1 1 1 1 1 1 1 
1 1 1 1 1 1 1 1 1 
1 1 1 1 1 1 1 1 1 
1 1 1 1 1 1 1 1 1 
1 1 1 1 1 1 1 1 1 
1 1 1 1 1 1 1 1 1 
1 1 1 1 1 1 1 1 1 
1 1 1 1 1 1 1 1 1 
1 1 1 1 1 1 1 1 1 
1 1 1 1 1 1 1 1 1 
1 1 1 1 1 1 1 1 1 
1 1 1 1 1 1 1 1 1 
1 1 1 1 1 1 1 1 1 
1 1 1 1 1 1 1 1 1 
1 1 1 1 1 1 1 1 1 
1 1 1 1 1 1 1 1 1 
1 1 1 1 1 1 1 1 1 
1 1 1 1 1 1 1 1 1 
1 1 1 1 1 1 1 1 1 
1 1 1 1 1 1 1 1 1 
1 1 1 1 1 1 1 1 1 
1 1 1 1 1 1 1 1 1 
1 1 1 1 1 1 1 1 1 
1 1 1 1 1 1 1 1 1 
1 1 1 1 1 1 1 1 1 
1 1 1 1 1 1 1 1 1 
1 1 1 1 1 1 1 1 1 
1 1 1 1 1 1 1 1 1 
1 1 1 1 1 1 1 1 1 
1 1 1 1 1 1 1 1 1 
1 1 1 1 1 1 1 1 1 
1 1 1 1 1 1 1 1 1 
1 1 1 1 1 1 1 1 1 
1 1 1 1 1 1 1 1 1 
1 1 1 1 1 1 1 1 1 
1 1 1 1 1 1 1 1 1 
1 1 1 1 1 1 1 1 1 
1 1 1 1 1 1 1 1 1 
1 1 1 1 1 1 1 1 1 
1 1 1 1 1 1 1 1 1 
1 1 1 1 1 1 1 1 1 
1 1 1 1 1 1 1 1 1 
1 1 1 1 1 1 1 1 1 
1 1 1 1 1 1 1 1 1 
1 1 1 1 1 1 1 1 1 
1 1 1 1 1 1 1 1 1 
1 1 1 1 1 1 1 1 1 
1 1 1 1 1 1 1 1 1 
1 1 1 1 1 1 1 1 1 
1 1 1 1 1 1 1 1 1 
1 1 1 1 1 1 1 1 1 
1 1 1 1 1 1 1 1 1 
1 1 1 1 1 1 1 1 1 
1 1 1 1 1 1 1 1 1 
1 1 1 1 1 1 1 1 1 
1 1 1 1 1 1 1 1 1 
1 1 1 1 1 1 1 1 1 
1 1 1 1 1 1 1 1 1 
1 1 1 1 1 1 1 1 1 
1 1 1 1 1 1 1 1 1 
1 1 1 1 1 1 1 1 1 
1 1 1 1 1 1 1 1 1 
1 1 1 1 1 1 1 1 1 
1 1 1 1 1 1 1 1 1 
1 1 1 1 1 1 1 1 1 
1 1 1 1 1 1 1 1 1 
1 1 1 1 1 1 1 1 1 
1 1 1 1 1 1 1 1 1 
1 1 1 1 1 1 1 1 1 
1 1 1 1 1 1 1 1 1 
1 1 1 1 1 1 1 1 1 
1 1 1 1 1 1 1 1 1 
1 1 1 1 1 1 1 1 1 
1 1 1 1 1 1 1 1 1 
1 1 1 1 1 1 1 1 1 
1 1 1 1 1 1 1 1 1 
1 1 1 1 1 1 1 1 1 
1 1 1 1 1 1 1 1 1 
1 1 1 1 1 1 1 1 1 
1 1 1 1 1 1 1 1 1 
1 1 1 1 1 1 1 1 1 
1 1 1 1 1 1 1 1 1 
1 1 1 1 1 1 1 1 1 
1 1 1 1 1 1 1 1 1 
1 1 1 1 1 1 1 1 1 
1 1 1 1 1 1 1 1 1 
1 1 1 1 1 1 1 1 1 
1 1 1 1 1 1 1 1 1 
1 1 1 1 1 1 1 1 1 
1 1 1 1 1 1 1 1 1 
1 1 1 1 1 1 1 1 1 
1 1 1 1 1 1 1 1 1 
1 1 1 1 1 1 1 1 1 
1 1 1 1 1 1 1 1 1 
1 1 1 1 1 1 1 1 1 
1 1 1 1 1 1 1 1 1 
1 1 1 1 1 1 1 1 1 
1 1 1 1 1 1 1 1 1 
1 1 1 1 1 1 1 1 1 
1 1 1 1 1 1 1 1 1 
1 1 1 1 1 1 1 1 1 
1 1 1 1 1 1 1 1 1 
1 1 1 1 1 1 1 1 1 
1 1 1 1 1 1 1 1 1 
1 1 1 1 1 1 1 1 1 
1 1 1 1 1 1 1 1 1 
1 1 1 1 1 1 1 1 1 
1 1 1 1 1 1 1 1 1 
1 1 1 1 1 1 1 1 1 
1 1 1 1 1 1 1 1 1 
1 1 1 1 1 1 1 1 1 
1 1 1 1 1 1 1 1 1 
1 1 1 1 1 1 1 1 1 
1 1 1 1 1 1 1 1 1 
1 1 1 1 1 1 1 1 1 
1 1 1 1 1 1 1 1 1 
1 1 1 1 1 1 1 1 1 
1 1 1 1 1 1 1 1 1 
1 1 1 1 1 1 1 1 1 
1 1 1 1 1 1 1 1 1 
1 1 1 1 1 1 1 1 1 
1 1 1 1 1 1 1 1 1 
1 1 1 1 1 1 1 1 1 
1 1 1 1 1 1 1 1 1 
1 1 1 1 1 1 1 1 1 
1 1 1 1 1 1 1 1 1 
1 1 1 1 1 1 1 1 1 
1 1 1 1 1 1 1 1 1 
1 1 1 1 1 1 1 1 1 
1 1 1 1 1 1 1 1 1 
1 1 1 1 1 1 1 1 1 
1 1 1 1 1 1 1 1 1 
1 1 1 1 1 1 1 1 1 
1 1 1 1 1 1 1 1 1 
1 1 1 1 1 1 1 1 1 
1 1 1 1 1 1 1 1 1 
1 1 1 1 1 1 1 1 1 
1 1 1 1 1 1 1 1 1 
1 1 1 1 1 1 1 1 1 
1 1 1 1 1 1 1 1 1 
1 1 1 1 1 1 1 1 1 
1 1 1 1 1 1 1 1 1 
1 1 1 1 1 1 1 1 1 
1 1 1 1 1 1 1 1 1 
1 1 1 1 1 1 1 1 1 
1 1 1 1 1 1 1 1 1 
1 1 1 1 1 1 1 1 1 
1 1 1 1 1 1 1 1 1 
1 1 1 1 1 1 1 1 1 
1 1 1 1 1 1 1 1 1 
1 1 1 1 1 1 1 1 1 
1 1 1 1 1 1 1 1 1 
1 1 1 1 1 1 1 1 1 
1 1 1 1 1 1 1 1 1 
1 1 1 1 1 1 1 1 1 
1 1 1 1 1 1 1 1 1 
1 1 1 1 1 1 1 1 1 
1 1 1 1 1 1 1 1 1 
1 1 1 1 1 1 1 1 1 
1 1 1 1 1 1 1 1 1 
1 1 1 1 1 1 1 1 1 
1 1 1 1 1 1 1 1 1 
1 1 1 1 1 1 1 1 1 
1 1 1 1 1 1 1 1 1 
1 1 1 1 1 1 1 1 1 
1 1 1 1 1 1 1 1 1 
1 1 1 1 1 1 1 1 1 
1 1 1 1 1 1 1 1 1 
1 1 1 1 1 1 1 1 1 
1 1 1 1 1 1 1 1 1 
1 1 1 1 1 1 1 1 1 
1 1 1 1 1 1 1 1 1 
1 1 1 1 1 1 1 1 1 
1 1 1 1 1 1 1 1 1 
1 1 1 1 1 1 1 1 1 
1 1 1 1 1 1 1 1 1 
1 1 1 1 1 1 1 1 1 
1 1 1 1 1 1 1 1 1 
1 1 1 1 1 1 1 1 1 
1 1 1 1 1 1 1 1 1 
1 1 1 1 1 1 1 1 1 
1 1 1 1 1 1 1 1 1 
1 1 1 1 1 1 1 1 1 
1 1 1 1 1 1 1 1 1 
1 1 1 1 1 1 1 1 1 
1 1 1 1 1 1 1 1 1 
1 1 1 1 1 1 1 1 1 
1 1 1 1 1 1 1 1 1 
1 1 1 1 1 1 1 1 1 
1 1 1 1 1 1 1 1 1 
1 1 1 1 1 1 1 1 1 
1 1 1 1 1 1 1 1 1 
1 1 1 1 1 1 1 1 1 
1 1 1 1 1 1 1 1 1 
1 1 1 1 1 1 1 1 1 
1 1 1 1 1 1 1 1 1 
1 1 1 1 1 1 1 1 1 
1 1 1 1 1 1 1 1 1 
1 1 1 1 1 1 1 1 1 
1 1 1 1 1 1 1 1 1 
1 1 1 1 1 1 1 1 1 
1 1 1 1 1 1 1 1 1 
1 1 1 1 1 1 1 1 1 
1 1 1 1 1 1 1 1 1 
1 1 1 1 1 1 1 1 1 
1 1 1 1 1 1 1 1 1 
1 1 1 1 1 1 1 1 1 
1 1 1 1 1 1 1 1 1 
1 1 1 1 1 1 1 1 1 
1 1 1 1 1 1 1 1 1 
1 1 1 1 1 1 1 1 1 
1 1 1 1 1 1 1 1 1 
1 1 1 1 1 1 1 1 1 
1 1 1 1 1 1 1 1 1 
1 1 1 1 1 1 1 1 1 
1 1 1 1 1 1 1 1 1 
1 1 1 1 1 1 1 1 1 
1 1 1 1 1 1 1 1 1 
1 1 1 1 1 1 1 1 1 
1 1 1 1 1 1 1 1 1 
1 1 1 1 1 1 1 1 1 
1 1 1 1 1 1 1 1 1 
1 1 1 1 1 1 1 1 1 
1 1 1 1 1 1 1 1 1 
1 1 1 1 1 1 1 1 1 
1 1 1 1 1 1 1 1 1 
1 1 1 1 1 1 1 1 1 
1 1 1 1 1 1 1 1 1 
1 1 1 1 1 1 1 1 1 
1 1 1 1 1 1 1 1 1 
1 1 1 1 1 1 1 1 1 
1 1 1 1 1 1 1 1 1 
1 1 1 1 1 1 1 1 1 
1 1 1 1 1 1 1 1 1 
1 1 1 1 1 1 1 1 1 
1 1 1 1 1 1 1 1 1 
1 1 1 1 1 1 1 1 1 
1 1 1 1 1 1 1 1 1 
1 1 1 1 1 1 1 1 1 
1 1 1 1 1 1 1 1 1 
1 1 1 1 1 1 1 1 1 
1 1 1 1 1 1 1 1 1 
1 1 1 1 1 1 1 1 1 
1 1 1 1 1 1 1 1 1 
1 1 1 1 1 1 1 1 1 
1 1 1 1 1 1 1 1 1 
1 1 1 1 1 1 1 1 1 
1 1 1 1 1 1 1 1 1 
1 1 1 1 1 1 1 1 1 
1 1 1 1 1 1 1 1 1 
1 1 1 1 1 1 1 1 1 
1 1 1 1 1 1 1 1 1 
1 1 1 1 1 1 1 1 1 
1 1 1 1 1 1 1 1 1 
1 1 1 1 1 1 1 1 1 
1 1 1 1 1 1 1 1 1 
1 1 1 1 1 1 1 1 1 
1 1 1 1 1 1 1 1 1 
1 1 1 1 1 1 1 1 1 
1 1 1 1 1 1 1 1 1 
1 1 1 1 1 1 1 1 1 
1 1 1 1 1 1 1 1 1 
1 1 1 1 1 1 1 1 1 
1 1 1 1 1 1 1 1 1 
1 1 1 1 1 1 1 1 1 
1 1 1 1 1 1 1 1 1 
1 1 1 1 1 1 1 1 1 
1 1 1 1 1 1 1 1 1 
1 1 1 1 1 1 1 1 1 
1 1 1 1 1 1 1 1 1 
1 1 1 1 1 1 1 1 1 
1 1 1 1 1 1 1 1 1 
1 1 1 1 1 1 1 1 1 
1 1 1 1 1 1 1 1 1 
1 1 1 1 1 1 1 1 1 
1 1 1 1 1 1 1 1 1 
1 1 1 1 1 1 1 1 1 
1 1 1 1 1 1 1 1 1 
1 1 1 1 1 1 1 1 1 
1 1 1 1 1 1 1 1 1 
1 1 1 1 1 1 1 1 1 
1 1 1 1 1 1 1 1 1 
1 1 1 1 1 1 1 1 1 
1 1 1 1 1 1 1 1 1 
1 1 1 1 1 1 1 1 1 
1 1 1 1 1 1 1 1 1 
1 1 1 1 1 1 1 1 1 
1 1 1 1 1 1 1 1 1 
1 1 1 1 1 1 1 1 1 
1 1 1 1 1 1 1 1 1 
1 1 1 1 1 1 1 1 1 
1 1 1 1 1 1 1 1 1 
1 1 1 1 1 1 1 1 1 
1 1 1 1 1 1 1 1 1 
1 1 1 1 1 1 1 1 1 
1 1 1 1 1 1 1 1 1 
1 1 1 1 1 1 1 1 1 
1 1 1 1 1 1 1 1 1 
1 1 1 1 1 1 1 1 1 
1 1 1 1 1 1 1 1 1 
1 1 1 1 1 1 1 1 1 
1 1 1 1 1 1 1 1 1 
1 1 1 1 1 1 1 1 1 
1 1 1 1 1 1 1 1 1 
1 1 1 1 1 1 1 1 1 
1 1 1 1 1 1 1 1 1 
1 1 1 1 1 1 1 1 1 
1 1 1 1 1 1 1 1 1 
1 1 1 1 1 1 1 1 1 
1 1 1 1 1 1 1 1 1 
1 1 1 1 1 1 1 1 1 
1 1 1 1 1 1 1 1 1 
1 1 1 1 1 1 1 1 1 
1 1 1 1 1 1 1 1 1 
1 1 1 1 1 1 1 1 1 
1 1 1 1 1 1 1 1 1 
1 1 1 1 1 1 1 1 1 
1 1 1 1 1 1 1 1 1 
1 1 1 1 1 1 1 1 1 
1 1 1 1 1 1 1 1 1 
1 1 1 1 1 1 1 1 1 
1 1 1 1 1 1 1 1 1 
1 1 1 1 1 1 1 1 1 
1 1 1 1 1 1 1 1 1 
1 1 1 1 1 1 1 1 1 
1 1 1 1 1 1 1 1 1 
1 1 1 1 1 1 1 1 1 
1 1 1 1 1 1 1 1 1 
1 1 1 1 1 1 1 1 1 
1 1 1 1 1 1 1 1 1 
1 1 1 1 1 1 1 1 1 
1 1 1 1 1 1 1 1 1 
1 1 1 1 1 1 1 1 1 
1 1 1 1 1 1 1 1 1 
1 1 1 1 1 1 1 1 1 
1 1 1 1 1 1 1 1 1 
1 1 1 1 1 1 1 1 1 
1 1 1 1 1 1 1 1 1 
1 1 1 1 1 1 1 1 1 
1 1 1 1 1 1 1 1 1 
1 1 1 1 1 1 1 1 1 
1 1 1 1 1 1 1 1 1 
1 1 1 1 1 1 1 1 1 
1 1 1 1 1 1 1 1 1 
1 1 1 1 1 1 1 1 1 
1 1 1 1 1 1 1 1 1 
1 1 1 1 1 1 1 1 1 
1 1 1 1 1 1 1 1 1 
1 1 1 1 1 1 1 1 1 
1 1 1 1 1 1 1 1 1 
1 1 1 1 1 1 1 1 1 
1 1 1 1 1 1 1 1 1 
1 1 1 1 1 1 1 1 1 
1 1 1 1 1 1 1 1 1 
1 1 1 1 1 1 1 1 1 
1 1 1 1 1 1 1 1 1 
1 1 1 1 1 1 1 1 1 
1 
Long_Strain_Pt 1 1114 double
0.99694743565 0.9953125402 0.9898108447 0.9839548565 0.99114102924 0.99017725357 0.98428652213 0.99138898907 0.97739448071 
0.98943647856 0.97491941197 0.98650560141 0.98228871179 0.99128390427 0.9914832523 0.99519783905 0.99470780852 0.99822006928 
0.99495962509 0.99674570884 0.9944215276 0.9955512312 0.99108681876 0.99366498781 0.98869953902 0.99493444993 0.993716746 
0.99723474462 0.99009911486 0.99486366336 0.98779846252 0.99356853373 0.98539672618 0.99142925103 0.98290909734 0.99017528577 
0.98346496884 0.99068396576 0.98599844115 0.98494288879 0.98942470568 0.96920915849 0.99638393037 0.96258134536 0.99646104942 
0.96662542502 0.98900425173 0.97331240471 0.97863436592 0.98439878553 0.97571185565 0.99174849868 0.98648167224 0.99442137323 
0.98758756478 0.99458910664 0.98924507456 0.99435375482 0.9934814973 0.99659099639 0.99563935298 0.99646263366 0.99293330153 
0.9966421438 0.99484098492 0.99687732402 0.99662043916 0.99779111263 0.99686383334 0.99802850687 0.99767610206 0.99858509302 
0.99832570196 0.99701707952 0.99807017033 0.99406840116 0.99878980891 0.98979154809 0.99947316319 0.98272683822 0.99933215843 
0.9768961588 0.99859526627 0.9747261028 0.99691659501 0.99780334607 0.99449968382 0.99534734237 0.99859633918 0.99375327565 
0.99911675262 0.99428208463 0.99950480884 0.99545654403 0.99977638442 0.99740561532 0.99980994731 0.99740166604 0.99980309589 
0.9970733023 0.99975186366 0.99601810191 0.99885352785 0.99018896129 0.99699535769 0.98543009028 0.99385531799 0.98413758382 
0.9956291849 0.98793935464 0.99766655258 0.99092066751 0.99948313105 0.99097745933 0.9996997361 0.9890726291 0.99752539491 
0.98841743074 0.99472374478 0.99145021981 0.99566235386 0.99648206215 0.99584039903 0.99890866961 0.99592044279 0.9982433496 
0.99753055583 0.99660481093 0.99891491354 0.99622903253 0.99998482521 0.99756078307 0.99988746802 0.99878345042 0.99977864281 
0.99642876946 0.99963733807 0.9940511216 0.99881750943 0.99094507471 0.99835407264 0.98892011372 0.99840629338 0.98769776659 
0.9971171465 0.98788478013 0.99582097749 0.98823383103 0.99698487813 0.9877663004 0.99778383372 0.98975404965 0.99821016313 
0.99461594937 0.99864509985 0.99303227119 0.99902780946 0.9913380337 0.99914277116 0.99290639446 0.99910970249 0.99239657329 
0.99895976997 0.99024298246 0.99937741325 0.99088952446 0.99968840683 0.99179112773 0.99983142319 0.99389471699 0.99914458448 
0.9953763148 0.99820639263 0.99714240346 0.99858445786 0.99584596646 0.99893363986 0.99435606192 0.99921975134 0.99305367036 
0.99945070367 0.99358149542 0.99963614541 0.99466093534 0.99975164671 0.99583803073 0.9998465696 0.99694733502 0.99987602838 
0.99547078499 0.99986206528 0.99516050082 0.99972594436 0.99635851069 0.99830941488 0.99686949384 0.99559035645 0.9972856632 
0.99571334414 0.99643238048 0.98773825238 0.97648951792 0.99431972601 0.99777939091 0.99714761647 0.99674098488 0.99758499677 
0.99826654461 0.99750485941 0.99685144584 0.99706243651 0.99725776292 0.99837746676 0.99896038025 0.9985697704 0.99791660191 
0.9983685393 0.99918510059 0.99769894933 0.99572028892 0.99510003083 0.99473553753 0.99636603142 0.99409875427 0.99681709888 
0.99743335882 0.99754498356 0.997810809 0.99817011627 0.9984301014 0.99878870011 0.99850145458 0.99856937948 0.99844202889 
0.99815385285 0.99604716517 0.99164762725 0.98224825354 0.96427979693 0.95155090503 0.94869373147 0.95613787693 0.99466931977 
0.99534533411 0.99313506673 0.99339585019 0.99342134993 0.99402501162 0.99444824145 0.99424072657 0.99291772535 0.9917216338 
0.99291678633 0.99573918763 0.99639158714 0.99670449909 0.99611809891 0.99619391258 0.99419044394 0.99675566154 0.99777660052 
0.99899457122 0.99700695741 0.99588136597 0.996678242 0.99914133447 0.99880172154 0.99914415294 0.99653774235 0.99467066966 
0.99424872681 0.99530145064 0.99658709411 0.99576531213 0.99845398778 0.9951333784 0.99354239807 0.99054196524 0.98689995406 
0.98685796638 0.9911166353 0.99302463669 0.99326339289 0.99300285633 0.99277600895 0.99278781106 0.99183893559 0.99090895699 
0.99278860075 0.99660302323 0.99735481933 0.99806719805 0.99785734515 0.99822172244 0.99790034187 0.99685508188 0.99695975028 
0.99689420963 0.99703135338 0.99665782608 0.99950461288 0.99796886357 0.99804157556 0.9972400802 0.99747017375 0.99602144788 
0.99640689917 0.99757037258 0.99716342271 0.99685341313 0.99620463795 0.99600212105 0.9973658505 0.99902376399 0.99953036044 
0.99956235007 0.99918512426 0.9989701101 0.99846175936 0.99757756935 0.99610573273 0.99513452862 0.99382330914 0.99564642512 
0.99524239345 0.99325476405 0.99477720441 0.99557113245 0.99646702126 0.99763248985 0.99724342375 0.99759369656 0.99738546562 
0.9976177851 0.99472880771 0.99080275481 0.9830378981 0.97529587489 0.97386731825 0.97165391712 0.97659338833 0.98207987278 
0.98813479179 0.99375519872 0.99196239978 0.99798816639 0.99661553436 0.9957747962 0.99380554929 0.99153783812 0.99167281563 
0.99512083102 0.99606129205 0.99378401896 0.99762055252 0.997349389 0.99631234474 0.9948046672 0.99488368422 0.99642900706 
0.99546481783 0.99429870035 0.99271780416 0.99552926999 0.99431276349 0.99476748981 0.99351956276 0.99065516433 0.99015836613 
0.99141276466 0.9953101277 0.9983305372 0.99851772168 0.99884015039 0.99924284944 0.99927463957 0.99875815408 0.99890329499 
0.99822696128 0.9964955664 0.99670451721 0.99695566491 0.99669540264 0.99500849263 0.99534240508 0.99575393585 0.99537239823 
0.99449704963 0.99528447408 0.99717597236 0.99820038056 0.99875419614 0.99883322747 0.99855681597 0.99839941947 0.99882110732 
0.99770230955 0.99782737414 0.99839930271 0.9983867833 0.99779332694 0.99767769874 0.9976079566 0.99564060677 0.996349265 
0.99793767527 0.99768189228 0.99449606629 0.98842026511 0.99034779314 0.99507260556 0.99245352106 0.99268041226 0.99210429224 
0.99296403464 0.99361660546 0.99329439448 0.99405921107 0.99255530935 0.99375983935 0.99767931146 0.99824823129 0.99736634016 
0.99618053964 0.99694984937 0.98505241838 0.98122113692 0.99247819291 0.99546469879 0.99621954529 0.99426639272 0.99671099558 
0.99533445095 0.99714801813 0.99572380346 0.99489295691 0.99332067074 0.99238355217 0.99056002296 0.99151273372 0.99279454361 
0.99684163079 0.99953698283 0.99932964122 0.99846166513 0.99523275468 0.9940149642 0.99282998162 0.99151675104 0.98926742846 
0.99057253456 0.99586275206 0.99401484759 0.99229920949 0.99526046205 0.98859463693 0.99749186948 0.9940174275 0.99373881808 
0.99508946939 0.99636351319 0.98991295064 0.99523795138 0.99545376267 0.99428959843 0.99346729128 0.99273381574 0.99237079861 
0.99178358866 0.99229733951 0.98714349556 0.99377127299 0.98652091887 0.99133328309 0.99629203801 0.99845276102 0.9986689722 
0.99874619304 0.99807748466 0.9951742739 0.99313288561 0.99274306494 0.99540126582 0.99783521284 0.9974760933 0.99615782044 
0.9944522273 0.99465717608 0.99747463477 0.99774342184 0.99851972407 0.9985689919 0.99820071237 0.99725474556 0.99651882325 
0.99590802433 0.99624523246 0.99676934582 0.99744778664 0.99823918268 0.99918200407 0.99930732275 0.99921482603 0.99841225124 
0.99758870813 0.99651884589 0.99679925725 0.99725038638 0.99822970885 0.99740720334 0.99646829493 0.9959574981 0.995845891 
0.99628928175 0.9964665176 0.9977206075 0.99481197398 0.99422741277 0.99484357372 0.99643191496 0.99698118075 0.99588712592 
0.9973893241 0.99817059599 0.99899493427 0.99815490147 0.99832669017 0.99648854842 0.99444797263 0.99272618953 0.99250630627 
0.99272221064 0.99263993654 0.99833145075 0.99728209662 0.99900360004 0.99663205952 0.99362203434 0.98993179844 0.99529557491 
0.99065821504 0.98902005806 0.98908524824 0.9929009981 0.99620122407 0.99438143263 0.99724152982 0.99760924426 0.99715864239 
0.99822936431 0.99809018877 0.99735816484 0.99715360355 0.99585315583 0.99476550813 0.99570177877 0.99772910006 0.99897463949 
0.99936054605 0.99914086249 0.99820725536 0.99686753924 0.99716942052 0.99597145502 0.99448665553 0.98995487297 0.97913303658 
0.98154908252 0.99205937624 0.99728147979 0.9977796385 0.99682122923 0.99093083002 0.99720624016 0.99225383494 0.99752418923 
0.99664723765 0.99460772004 0.99302793758 0.992302098 0.99291746954 0.99286051326 0.99270107067 0.99245851944 0.98618968643 
0.98007506411 0.97740510992 0.97823534651 0.9884198696 0.99642260332 0.99755060412 0.99687709662 0.99628837029 0.99367720951 
0.99064762485 0.98774388336 0.98492931644 0.98747137917 0.98949924381 0.99331319962 0.99190705584 0.99241078263 0.99380636559 
0.98689454581 0.99025288199 0.98897260818 0.99439878463 0.9955130723 0.99698972641 0.99433013997 0.99494641979 0.99376557179 
0.99407418258 0.99010225042 0.98763824894 0.98808513192 0.99016641466 0.99269910136 0.99019257977 0.9900553927 0.98952731034 
0.98943658885 0.99065269663 0.99460752942 0.99668339618 0.99768495215 0.99781729838 0.99771988026 0.99725245808 0.99605772108 
0.99733388088 0.99701744024 0.9968453205 0.99799882171 0.99858006542 0.99830157576 0.99793198942 0.99771093474 0.99739246452 
0.9984555661 0.99795683982 0.99898127438 0.99887612974 0.99728906604 0.99608058754 0.99640685704 0.99680143799 0.9950189325 
0.99547975587 0.99602367363 0.99352382527 0.99257633035 0.99305039546 0.99483581334 0.99683646102 0.99709980753 0.9951709853 
0.9949544923 0.99177646664 0.99789566637 0.9978911366 0.99808225775 0.99677139241 0.99568007966 0.99655108171 0.99726569993 
0.99699195128 0.99372875022 0.99517866001 0.99420097335 0.99411859444 0.99246732585 0.99331956304 0.99243092994 0.99044816596 
0.99132837873 0.9911211366 0.98709956399 0.98381057304 0.98649299138 0.98869728136 0.98994126582 0.9907960707 0.99227266 
0.99491820273 0.99572594049 0.99575202568 0.99444944066 0.99346806757 0.99299518409 0.99349420086 0.99516451647 0.99562785004 
0.9950668305 0.99578272162 0.99652405026 0.99586356793 0.99426701882 0.99089840389 0.98806809703 0.98896523304 0.99193061054 
0.99269478938 0.9967111113 0.99836783274 0.99886188095 0.99866930931 0.99836985191 0.99767433627 0.99531420663 0.99246943363 
0.98991414413 0.98909144199 0.98817510222 0.98860764098 0.98988773157 0.99092921524 0.98992071309 0.99124275893 0.99168932018 
0.99520555118 0.99626434515 0.99530149011 0.99653637061 0.9976203144 0.99756333901 0.99706094904 0.99669041936 0.9970558958 
0.99751658167 0.99816292247 0.9989351136 0.99919502171 0.9991031164 0.99864878653 0.99820278063 0.99854794598 0.99899757791 
0.99914864908 0.99920992255 0.99922145008 0.99929596034 0.99798213646 0.99721848917 0.99059199416 0.98800727063 0.99133115259 
0.99197733743 0.99606959821 0.99611682216 0.99626116393 0.99668859943 0.99601559802 0.99525613839 0.99423848035 0.99495750464 
0.99617682225 0.99711683768 0.99673484077 0.99746312373 0.99632906804 0.99582353314 0.99573687659 0.99615305197 0.99329996458 
0.99390532369 0.99193237153 0.99461875177 0.99571113171 0.99600818844 0.99719172077 0.99722901393 0.99791276993 0.99749435027 
0.99726191459 0.99600474197 0.99542905565 0.99483206751 0.99514865118 0.99523119383 0.99625102158 0.99754958528 0.99762075759 
0.99767276394 0.99516688196 0.99348195267 0.99386893372 0.99485422693 0.99666575871 0.98908190491 0.99671665801 0.98674232564 
0.98486169037 0.98810280066 0.99290162246 0.99293067313 0.99187893188 0.99099324673 0.99087304141 0.99045932127 0.98744714761 
0.98558004642 0.98626542524 0.98905912094 0.99684161605 0.99623262625 0.99520430915 0.99472507363 0.99622700335 0.99741765896 
0.99660154348 0.99549228422 0.99328436719 0.99060855375 0.98786797025 0.98593453509 0.98691799862 0.98892569732 0.99178404095 
0.99486721934 0.99539993477 0.9972137313 0.99258871936 0.99028903412 0.9892701865 0.99013754176 0.99132192603 0.99315984983 
0.99248548602 0.99295735955 0.99369783441 0.99341088548 0.99305126272 0.9941623328 0.99160720207 0.99074236182 0.99136127043 
0.99185036959 0.99159071618 0.99504829573 0.99378387817 0.99722773638 0.99742286561 0.99519284881 0.99812869712 0.99724142194 
0.99666369934 0.99175834071 0.99444029955 0.99600630424 0.99778665596 0.99803217415 0.99808628773 0.99798833799 0.9982660079 
0.99876332084 0.99926989258 0.99795820964 0.99677612969 0.99430908716 0.99265271343 0.99507615307 0.9971386359 0.99577895515 
0.99005952922 0.98675233348 0.99214123057 0.99600617266 0.99567878342 0.99497940257 0.99330723101 0.99127242382 0.99088612954 
0.99341469827 0.99539121217 0.99604843792 0.99654042022 0.99671245509 0.99720730601 0.99795967129 0.99836519015 0.99848120203 
0.99766090024 0.99806097441 0.99803381514 0.9983464448 0.99941511518 0.99830988308 0.99672787657 0.99627961665 0.99380254361 
0.99396484712 0.98894294846 0.99674166581 0.99697905447 0.99563165001 0.99458508287 0.99359111526 0.99243108963 0.9938089204 
0.99651735105 0.99786478873 0.99722684885 0.99677966191 0.99415165436 0.99389212423 0.99679285259 0.99912451908 0.99916612143 
0.99865164435 0.99676362652 0.99802882975 0.98721865856 0.99868529591 0.99849694374 0.99778209336 0.99411961103 0.99231113249 
0.9883685598 0.99291925944 0.99012648689 0.98803847397 0.98626460594 0.99218059663 0.99642271226 0.9908378795 0.99250556381 
0.99045095001 0.99016717522 0.99396939795 0.99313566288 0.98770999004 0.98648869378 0.9933744389 0.99718607116 0.99788957559 
0.99784153493 0.99805292923 0.99782536212 0.99672941305 0.99536948671 0.99528187309 0.99391550336 0.99401344651 0.99493698848 
0.99426968342 0.99540038957 0.99712834062 0.99659713251 0.99115269184 0.98669084606 0.99178158914 0.98961762624 0.99217214045 
0.99185930681 0.99028771769 0.99041001262 0.99167709851 0.99350716945 0.99125883553 0.99193289307 0.99358662146 0.99556726109 
0.99753526401 0.99650443166 0.99401924282 0.98946573043 0.99694352792 0.99533132587 0.99729803533 0.99599399663 0.99441912723 
0.99435542309 0.99290971876 0.98981147548 0.98682161066 0.99248456646 0.99328101887 0.99300065524 0.99567743286 0.99668359845 
0.99734146099 0.99817962015 0.9990814066 0.99900137028 0.99740001068 0.99497934623 0.99219448506 0.99176458929 0.99144411561 
0.9916570187 0.99067036741 0.99033740024 0.98938516351 0.98886710977 0.98824153844 0.99586698029 0.99589428896 0.9959129672 
0.99552399617 0.99350367855 0.99199492371 0.99172820155 0.99254684828 0.99401904166 0.99554974376 0.99611586275 0.995444706 
0.9931331995 0.99169069948 0.9921900139 0.99316864275 0.99462535307 0.99727803854 0.99344682068 0.99760485696 0.99354226835 
0.99556075109 0.9931090817 0.99148570456 0.99264186656 0.98729382829 0.99150471477 0.99147878146 0.99303567152 0.99450133161 
0.99302257194 0.99320863483 0.99127425873 0.99436649207 0.99317922457 0.99488303293 0.99602706377 0.99669181206 0.99686315826 
0.99604150275 0.99572445266 0.99470528718 0.99423732057 0.9928683798 0.99531604554 0.99533493095 0.99559803071 0.99513506799 
0.99617279323 0.99370345778 0.99191265228 0.99311947376 0.99257211126 0.99362450346 0.99278429927 0.99347686136 0.99360557643 
0.98752142669 0.99566479295 0.99538010458 0.99370820499 0.99138545131 0.9892698775 0.98982763987 0.99174589099 0.99471468167 
0.99662383504 0.99770483935 0.99816352903 0.99718915726 0.99415588959 0.99667960013 0.99739307314 0.99551059914 0.99556980828 
0.98646343826 0.98620990371 0.98612511748 0.98495456087 0.9840854971 0.98316325411 0.9830762933 0.98539411372 0.98758494983 
0.98965987927 0.98911163217 0.98758831459 0.98773040211 0.98779441102 0.98642176452 0.99404195944 0.99400170632 0.99421751696 
0.99092786645 0.98788304801 0.99027467943 0.98998879815 0.98920848466 0.99130038488 0.99193537135 0.99448332321 0.99308426684 
0.99519366107 0.99481516271 0.99530564664 0.99268021164 0.99441146848 0.99331930628 0.99281534614 0.99442808907 0.99482232424 
0.99535538215 0.99230862139 0.98520943619 0.99580002074 0.996687068 0.99688903878 0.9899334906 
Longtudinal 3 1114 double
-0.067733340393 0.9637400034 -0.25810346849 -0.11770598115 0.95859321866 -0.25839033989 -0.26160270901 0.90046446139 -0.33828540332 
-0.24507675502 0.8762988275 -0.39396620804 -0.12181340859 0.96327423667 -0.23883266818 -0.33244066817 0.88753461002 -0.31074084983 
-0.10400628901 0.975531615 -0.1888354873 -0.39208025858 0.87454788786 -0.27958993329 -0.076101478688 0.9872488533 -0.13751660061 
-0.41875958844 0.88002040033 -0.21591325838 -0.060270524715 0.99198411904 -0.10857205354 -0.44256058884 0.88183160452 -0.15381097601 
-0.1037096224 0.99122716596 -0.081620644059 -0.36788871615 0.91930163477 -0.082634672541 -0.18578399743 0.97877039472 -0.071667560645 
-0.33818093302 0.93962408609 -0.025093850682 -0.2114172583 0.97627641161 -0.035605860432 -0.34760842667 0.93611702784 0.026815590532 
-0.20689849211 0.97718007908 0.024300299505 -0.32801137002 0.93903271717 0.091418728726 -0.18811728636 0.97830109804 0.082601025282 
-0.33166763879 0.92830319651 0.16332748396 -0.13080713503 0.98638655118 0.095147239664 -0.28244252092 0.92909703552 0.23700820022 
-0.075056830415 0.98769775639 0.11948710366 -0.18044891275 0.94930033517 0.25494425428 -0.060329176246 0.97375085922 0.20594025022 
-0.11316910915 0.95002928967 0.28912133459 0.021612042613 0.99313085987 0.11388892985 -0.046860962696 0.93732088519 0.34269205151 
0.066319766692 0.99060244789 0.11683845151 0.046178554506 0.92603891786 0.37172617213 0.10923283122 0.99033182624 0.071673963624 
0.14681569518 0.90315938793 0.39865851256 0.12187761177 0.99211643692 0.00016709332852 0.23108655519 0.89953887507 0.36019358686 
0.10445527699 0.99293583354 -0.048661500258 0.3059527729 0.8857751542 0.33920932685 0.039964002924 0.98782938843 -0.11650508953 
0.34729888885 0.88723055434 0.28675031996 -0.059450497365 0.97674480977 -0.20532739845 0.32314093562 0.91272586695 0.17220790097 
-0.048052177246 0.98656062073 -0.15426920906 0.32805922495 0.92312232482 0.11317274622 -0.052634797428 0.98961673436 -0.1333701359 
0.38233881065 0.90018833647 0.098828064761 -0.062009042734 0.99165918305 -0.11127418142 0.44247419748 0.87685941799 0.078152019532 
-0.045276634477 0.99437688341 -0.082393431586 0.44507355709 0.88417668032 0.03090628159 0.046512531071 0.99722016211 -0.057332870053 
0.34688023451 0.93616626822 -0.04435565185 0.097969964914 0.99197836879 -0.075109042447 0.26579814842 0.95903156318 -0.089966617907 
0.027972693531 0.99432248038 -0.079178074639 0.2339255038 0.96343881843 -0.12673617674 0.002664388753 0.995366877 -0.090004174374 
0.20414619177 0.96638033051 -0.15342888504 0.029608407892 0.99399645273 -0.1037248618 0.16131620799 0.97165880286 -0.17150075314 
-0.0044765709475 0.99519741898 -0.097596805063 0.12948210691 0.97508054133 -0.17733257591 -0.011114351958 0.99735921118 -0.070416481048 
0.11799702118 0.97380193832 -0.19305668055 0.023257868284 0.9906416784 -0.12204511764 0.11065729251 0.97212543069 -0.20146469229 
0.04422088017 0.98935471894 -0.13376807613 0.090635128574 0.97558775418 -0.19287050505 0.041496059268 0.99417789908 -0.096616915257 
0.10115525596 0.96764689708 -0.22966004499 0.057578670135 0.98736373669 -0.14724111549 0.086760476185 0.96526171707 -0.24398086878 
0.0093654410251 0.99076197758 -0.13332505666 0.068571770295 0.96831082071 -0.23814003277 0.031150638716 0.99465666762 -0.093123148501 
0.037559982286 0.96783094185 -0.23339784983 0.031194414085 0.9929189901 -0.11050230714 0.015538547873 0.97492765021 -0.20231730745 
0.015120139285 0.98949904208 -0.14325554441 0.0046931410102 0.97901047668 -0.16416502758 0.0038717723301 0.98576523574 -0.16686769847 
-0.028852113498 0.96712802529 -0.16615744395 -0.014593846346 0.97808109635 -0.20487849787 -0.13396986134 0.91996479997 -0.29128187947 
0.032684739217 0.9890047369 -0.14422669034 0.02049476838 0.97998338686 -0.19304882121 0.030812357321 0.98656549039 -0.13802851955 
0.063900261286 0.99408865979 -0.077946920297 0.01423218852 0.97645842883 -0.20984430178 0.0040412785274 0.98072369936 -0.18520791674 
0.025202132854 0.9889129648 -0.13352967229 0.010075862848 0.98758361401 -0.15305182834 0.030171190538 0.99413797378 -0.10351012339 
0.018320623114 0.98418066965 -0.16783111161 0.029859183214 0.99300065596 -0.11423244223 0.028417731246 0.96953576224 -0.24258631675 
0.045818635472 0.98839515238 -0.14247315728 0.055374227333 0.96811694359 -0.24307736182 0.052085017716 0.98668623687 -0.15341745774 
0.073209503032 0.96695235301 -0.24297365343 0.041389492824 0.98992599109 -0.13508656188 0.080525716227 0.96401965584 -0.25213981457 
0.04053539612 0.98393542292 -0.17081555543 0.045661267427 0.9751135694 -0.20834781457 0.0051219798415 0.98168865868 -0.17811652974 
-0.043938483784 0.9758023898 -0.12279705404 -0.08603977366 0.98742268825 -0.12862854947 -0.18354654966 0.9768922059 -0.0055990322975 
-0.23209922292 0.96384573122 -0.014665241349 -0.30219115988 0.94335337724 0.031350390814 -0.30162578085 0.95144641598 -0.0022366347781 
-0.38099685511 0.92091141816 0.031460288203 -0.29288464316 0.95210951607 -0.08674074963 -0.35137313286 0.92765868231 -0.029395981761 
-0.2621471225 0.95750736189 -0.11714105273 -0.35636765302 0.92338651997 -0.073462390004 -0.24026154332 0.95936854067 -0.14600450641 
-0.37581188076 0.91256084963 -0.10818957006 -0.25457979742 0.947096072 -0.17401978851 -0.42841769745 0.89502729629 -0.12078272802 
-0.42811424141 0.87290216811 -0.20216645209 -0.4418538991 0.88086139612 -0.16592885398 -0.43019145266 0.8730093167 -0.21946048052 
-0.40482232851 0.88795209306 -0.20546393837 -0.33709827224 0.91007395085 -0.22951923475 -0.30983756275 0.91985291913 -0.23857193395 
-0.17913782615 0.95122183461 -0.22867935783 -0.24950880178 0.93673154814 -0.24022158718 -0.12770008297 0.96587184977 -0.22527491278 
-0.17302452712 0.9565773025 -0.22612980528 -0.13161996472 0.96571166811 -0.22359395113 -0.086197296177 0.97569380691 -0.19875019023 
-0.12060571873 0.96294228681 -0.2408605662 -0.068456050005 0.97313635567 -0.2178583105 -0.09868549686 0.96520250917 -0.24099551986 
-0.026066685917 0.98360385207 -0.17562191707 -0.071383623834 0.9698915298 -0.23263986196 -0.0096937333667 0.98743595758 -0.15676273109 
-0.074585315394 0.95910597214 -0.27122468479 -0.034391038188 0.97670201304 -0.2051101232 -0.096320738688 0.93919949449 -0.32304050597 
-0.068881801324 0.95697515331 -0.26929101573 -0.14487231395 0.90609610756 -0.39400004132 -0.094648264174 0.90055123439 -0.41231639955 
-0.11659869242 0.91802988081 -0.37412926031 -0.095945452774 0.88056723343 -0.45926778769 -0.06925031765 0.93128481178 -0.35142443755 
-0.080921976956 0.88225191463 -0.45238547771 -0.046977531024 0.86867395473 -0.48067300025 -0.039611873824 0.86123171727 -0.49066167817 
-0.012250135988 0.84896821921 -0.52589384455 -0.0055055209641 0.8800528887 -0.47210551319 0.035194003802 0.87307064379 -0.4853184107 
0.033837574341 0.9010817928 -0.4319584112 0.025655970559 0.90792071706 -0.41145948521 0.045639708036 0.91656375328 -0.39155109266 
0.01081425513 0.94109084277 -0.33701360558 0.050835156484 0.93726463954 -0.34338707097 0.017971311491 0.95674640428 -0.28793809926 
0.058333497529 0.94548738765 -0.31761936231 0.0060865710702 0.97086398826 -0.23478937539 0.042517091043 0.95948801872 -0.26388491029 
-0.021083419091 0.98372480113 -0.17838407047 0.0010446535342 0.97873063804 -0.18477745665 -0.051498634072 0.98961691729 -0.12523453518 
-0.012118040305 0.98481076262 -0.15771864366 -0.076074242253 0.99247207039 -0.09524477349 -0.018978221306 0.98987725639 -0.1348953034 
-0.091452253147 0.99054389405 -0.10173251416 -0.0075102843737 0.9916329913 -0.12506051419 -0.07757100409 0.99119249792 -0.10525503395 
0.020244532332 0.99084306285 -0.1233770332 -0.048972524611 0.99256390845 -0.10816668247 0.059585625476 0.98846448632 -0.12408754092 
0.040967545111 0.98878691093 -0.12106806286 0.11829505413 0.98471731964 -0.12636925106 0.11568042508 0.98510887795 -0.12321167914 
0.17037610213 0.97441418362 -0.11639339919 0.157142638 0.98164694768 -0.10186423514 0.19398475091 0.97228910344 -0.1036545758 
0.19905030502 0.97611284457 -0.07620903464 0.21046036528 0.97125016982 -0.077520537213 0.24132550627 0.96886903797 -0.046999600592 
0.22070071439 0.97099203534 -0.047848089322 0.26196724191 0.96434225992 -0.0342823238 0.20324592866 0.97771061757 -0.028338840973 
0.27472507352 0.96110264604 -0.025380323829 0.20986281472 0.9765506897 -0.013460751692 0.23138502679 0.97191898163 -0.0074330288144 
0.26671214808 0.9596735527 0.042705127089 0.19527737101 0.98068129204 0.0052734669327 0.28537326862 0.9537321693 0.072583010063 
0.17951643821 0.98366505957 0.0032361398571 0.22004030903 0.97242809388 0.048078868705 0.17843227954 0.98328330353 0.019779091303 
0.19180348175 0.97985261226 0.053333390706 0.19227845144 0.979477881 0.055223314805 0.18086983826 0.98063765924 0.073617900073 
0.12743632615 0.98287286909 -0.022915250064 0.12300337925 0.98699516871 0.00095548440194 -0.45384798785 0.79713032373 -0.366171214 
-0.44133257205 0.76058233761 -0.4511868576 -0.47564367072 0.8241347237 -0.29334904685 -0.47924680706 0.85850165213 -0.17313605079 
-0.43774103566 0.89397439315 -0.088139886771 -0.42246805223 0.90441495763 -0.042618122473 -0.4188623015 0.90769728304 0.0050011394393 
-0.35434945263 0.93283951527 0.035926383337 -0.31201344125 0.94423245958 0.082287242049 -0.2460053893 0.95971597714 0.097292024634 
-0.24542671556 0.9509220131 0.17102725711 -0.2192074116 0.94369747797 0.24138143236 -0.16292879555 0.93377317512 0.31250524012 
-0.086363481149 0.92130440386 0.37548285001 0.018915120753 0.89421501454 0.44244144762 0.12830298127 0.87242747863 0.46710342251 
0.22391014374 0.86549194057 0.44479131549 0.31100833192 0.84518917863 0.433045898 0.40198297619 0.82076888068 0.40570880131 
0.46728777256 0.80772394019 0.35716702163 0.51754373457 0.80023407965 0.29921974309 0.54939318191 0.80150266067 0.23194397649 
0.55528832222 0.8129756228 0.15976157378 0.49508394452 0.8606507327 0.046544074254 0.3600174809 0.92912667786 -0.053496117702 
0.32073215536 0.93910231853 -0.10795767128 0.28258934505 0.94571284029 -0.14711307752 0.24743585566 0.9513154356 -0.17627427071 
0.21518343901 0.95474511772 -0.1999364368 0.17576409084 0.96043499941 -0.21455791648 0.14915637319 0.96265012005 -0.22374492127 
0.14512654101 0.95965612775 -0.24030724119 0.14000997719 0.9538089201 -0.26381226433 0.12958881195 0.94901383533 -0.28435380766 
0.11392682119 0.94442178636 -0.30656763974 0.083764951424 0.93734473835 -0.33024009702 0.029008588282 0.91823836485 -0.38702564673 
-0.027853562748 0.89489495598 -0.42368417319 -0.09582831137 0.88019335287 -0.44345392422 -0.22455588552 0.81084835405 -0.51190452729 
-0.36351269451 0.6876634606 -0.57801879433 -0.44585729996 0.69159201328 -0.55273444239 0.042866517415 0.99649807305 0.053032816628 
0.077875008785 0.99122758904 0.072140864451 0.025973196642 0.99768389602 0.040400270904 0.011176529158 0.99351209883 -0.038516049566 
0.0064515767897 0.98743654112 -0.14340468575 0.012854424499 0.98563786144 -0.14747761559 0.0083369066344 0.9878417635 -0.13219691315 
-0.0027545622438 0.98997218678 -0.12055315374 -0.046107504681 0.99476022664 -0.080332326011 -0.1746711863 0.97387840609 0.028397142175 
-0.32964653381 0.93163871197 0.13794446946 -0.43442359109 0.88490696547 0.15223841958 -0.51257140966 0.84537704649 0.13890709936 
-0.55939966535 0.82058966072 0.097114566978 -0.57994561958 0.81080191509 0.041113216343 -0.58986751491 0.80546842394 -0.024687133459 
-0.58251957916 0.8063165137 -0.098896695055 -0.50052469105 0.84638264932 -0.16047360862 -0.42855949487 0.87886066379 -0.20649129557 
-0.401631844 0.88316746641 -0.24044659974 -0.36755662272 0.88947165976 -0.26701891707 -0.30260110929 0.9080281021 -0.27573169184 
-0.17241055225 0.94634854429 -0.24238866049 -0.12744509337 0.95904884457 -0.25164796098 -0.078215119342 0.96277670659 -0.2584952836 
-0.073756156566 0.96607092657 -0.24731726458 -0.10350021427 0.93832366788 -0.32269771322 -0.13742093076 0.89624697981 -0.415984259 
-0.15152597048 0.81532728202 -0.55400782679 -0.12610224294 0.76483500403 -0.63046742357 -0.08261145908 0.72484808119 -0.68248629677 
-0.024095827935 0.70694030069 -0.70524452238 0.043446754868 0.71713883305 -0.69402446746 0.073219009008 0.80022123738 -0.59011921789 
0.13161201467 0.79092054242 -0.59486822641 0.15272688523 0.82578525202 -0.53478697692 0.17096551816 0.85250088032 -0.47643708576 
0.20528921039 0.85062165169 -0.45792403766 0.19082822902 0.90529379536 -0.37441768506 0.19192859377 0.92148930789 -0.3281190293 
0.19015014754 0.93951484007 -0.27863231978 0.1857227199 0.952367358 -0.23600620129 0.14700112925 0.96756619675 -0.19432844569 
0.10584379584 0.981431272 -0.15332487803 0.16733888243 0.96915786109 -0.13661925497 0.16661538709 0.96761571944 -0.1198824288 
0.28565697935 0.9439775584 -0.086786447959 0.34679381312 0.93626328532 -0.047868074411 0.32967237426 0.94343416683 -0.022839829646 
0.2836681063 0.95802760541 0.0029566451007 0.24996428575 0.9670178344 0.028428077265 0.27940525819 0.95502106351 0.076058631786 
0.30043063928 0.94552672454 0.11873610249 0.31049774771 0.93669833866 0.15480219831 0.26871530921 0.95003124439 0.14600695928 
0.21163987597 0.96858298824 0.12831818252 0.16265044694 0.97681607122 0.11453966745 0.1101312343 0.98796413913 0.095365306427 
-0.088361605086 0.96463803577 -0.2480986605 -0.10629403194 0.96106442683 -0.25425776054 -0.34142620408 0.93790198184 -0.031970222817 
-0.42812623492 0.89500102557 -0.082706237838 -0.30295253172 0.95261048644 -0.0022507495815 -0.29294821125 0.95443087533 0.0091168592747 
-0.26255185604 0.96251550605 0.0081677025893 -0.21600658261 0.97364468418 0.0059234715276 -0.17765282056 0.9837391796 0.015060277046 
-0.19945172582 0.97505510074 0.086989163494 -0.20779848036 0.96006992258 0.18298633673 -0.19089446347 0.92646846204 0.31775972515 
-0.10632944967 0.89945290328 0.42020098573 -0.0014822252775 0.86551883366 0.49768066094 0.10893970231 0.84743282085 0.51735407093 
0.20830238475 0.83903288569 0.50126375483 0.29043078363 0.83800816569 0.46155844785 0.3623084608 0.82921432103 0.42308790858 
0.42512170772 0.82127197814 0.37570663635 0.47349422069 0.81635840625 0.32474092433 0.51433923707 0.81542268802 0.2621840326 
0.48723978126 0.85592692563 0.16268361449 0.40819113256 0.90540760231 0.07054103859 0.39078519753 0.91202478719 -0.11988286918 
0.38473981161 0.91897682231 -0.072471041588 0.38539616077 0.905026673 -0.17218150266 0.35478393731 0.903895168 -0.22343987967 
0.29172797373 0.92220007456 -0.24831429625 0.22880656855 0.93635625549 -0.25982414603 0.18758324623 0.94627914134 -0.25907991608 
0.15557546854 0.95245125343 -0.26067535843 0.15425573926 0.93684871195 -0.31151573438 0.14504328361 0.92468906322 -0.35083912713 
0.12070675625 0.91123746061 -0.39167362501 0.093832875591 0.8844809397 -0.45049674875 0.018610731072 0.79994708329 -0.58337622111 
-0.13702256474 0.64198217204 -0.74757317027 -0.30822334618 0.47586042853 -0.77099589313 -0.40642673447 0.50920708046 -0.73068036502 
-0.54657353398 0.35778422017 -0.74829144094 -0.60380146787 0.43825821167 -0.66273806453 -0.5980564168 0.57203060695 -0.54220265178 
-0.57379421919 0.70057317318 -0.41301326301 0.40086765712 0.91372528856 -0.024866113313 0.4112077224 0.9055535827 0.011503323798 
-0.081582041146 0.96212911226 -0.2585387181 -0.042679175501 0.97689579258 -0.20242469355 -0.086879203047 0.95364239482 -0.28331027721 
-0.1361800922 0.90931336016 -0.38677780144 -0.13973145716 0.86760001772 -0.4679249162 -0.12945619657 0.81128498079 -0.56265465343 
-0.090391987114 0.74324404032 -0.65478863426 -0.05134339951 0.73354494776 -0.67587837397 -0.011039258868 0.77608991996 -0.62716197302 
0.18195467866 0.73283866843 -0.65393088568 0.12658525042 0.72510385896 -0.67491250002 0.24618314534 0.71979048201 -0.64368265678 
0.31686939798 0.69330669166 -0.64482294174 0.32519942512 0.75946400314 -0.55449050129 0.31239977496 0.83043425178 -0.45606795659 
0.28563950266 0.87821890574 -0.37804220511 0.23190164323 0.92005320373 -0.30022648898 0.16131206783 0.95862872772 -0.22557345165 
0.12019689934 0.96328366216 -0.19548062058 -0.001023174367 0.99070486871 -0.13406059723 -0.034636152953 0.99048844561 -0.12626507433 
0.015996532167 0.98706350959 -0.11513330896 0.13105105847 0.98037335514 -0.10043811357 0.18498889126 0.97664268497 -0.067337471392 
0.21429789065 0.97408343669 -0.024817182992 0.23354727047 0.97179978257 0.0069999662571 0.23194757567 0.97163808973 0.033640165243 
0.26022194983 0.96111777181 0.073456023676 0.26419532469 0.95885714206 0.10136061906 0.25468509789 0.95965245962 0.11767615674 
0.24149604984 0.96028834894 0.13737062166 0.22724590973 0.95897549906 0.16841002105 0.18681546026 0.9576427475 0.2128389011 
0.13555495548 0.9646396366 0.22077614509 0.088357694273 0.97029466409 0.21913298737 0.042580013226 0.98166770798 0.17264593965 
0.002313609616 0.99250038814 0.11816514308 -0.025519307685 0.99104543757 0.12348782297 -0.039000791932 0.99270083166 0.070637956294 
-0.064736566857 0.99435839135 0.052066615321 -0.081069685187 0.99212042504 0.063006644641 -0.10300731898 0.98963795948 0.068589913073 
-0.18378379985 0.96723585395 0.12307120859 -0.27057342693 0.94435387947 0.16796316859 -0.36068180203 0.91282597877 0.18560597455 
-0.43366178463 0.88196593958 0.17295353295 -0.49888993654 0.85300379039 0.14821322026 -0.55559576849 0.82074870276 0.12294730835 
-0.54889342615 0.83191607193 0.058721170516 -0.52990934333 0.84725537018 -0.015564781398 -0.52496178221 0.8457739498 -0.087528788108 
-0.4501064009 0.87638213436 -0.13983015318 -0.40036933602 0.8959882274 -0.18816295325 -0.41291751797 0.88095390473 -0.22986882711 
-0.35728477166 0.89683232141 -0.25080061319 -0.30399744015 0.91328189133 -0.26802102762 -0.24799817746 0.92693433287 -0.26839035949 
-0.16882986697 0.951782104 -0.25561745182 -0.060820285114 0.97609304715 -0.20551406389 0.024139991671 0.98863567501 -0.12834635501 
-0.032189244651 0.98694071138 -0.15686111958 0.049151978401 0.9939249348 -0.086625103549 0.067754929216 0.76264651108 -0.63866888121 
0.0037347524926 0.85132792729 -0.51705946964 0.60719829987 0.78917646929 -0.049957953238 0.54927876899 0.82457308994 -0.01648801859 
0.60613223236 0.77708623824 -0.10201976559 0.61183178753 0.77082621384 -0.16424273781 0.58832044034 0.77325321478 -0.22030014314 
0.51531974526 0.80595161213 -0.27267030765 0.4358090363 0.83717018146 -0.30973129853 0.36636423748 0.85884220214 -0.34345458639 
0.286179428 0.88558557509 -0.34718735625 0.21938017474 0.91031191716 -0.33178473909 0.20112739183 0.88871948497 -0.40017169717 
0.16926884505 0.89068566325 -0.42092222104 0.14137943985 0.87081674174 -0.46966455053 0.095967864348 0.82818726917 -0.54626959209 
0.028799170486 0.76290069133 -0.63914672121 -0.068840719286 0.67105207663 -0.73700807409 -0.49298255513 0.28810798491 -0.81234840868 
-0.39980759484 0.26555079399 -0.86739912678 -0.55196043153 0.42876284056 -0.70823850537 -0.59402851589 0.52375121352 -0.60835670752 
-0.6165587736 0.59621410557 -0.51120540521 -0.66740163559 0.58324083175 -0.43958765819 -0.30779160204 0.95027507449 0.0069079148384 
-0.38136226506 0.92286206286 -0.0099141387509 -0.26451295411 0.96404963958 0.011576654626 -0.24970546898 0.96665245212 0.018317382506 
-0.22816311223 0.97157245116 0.005431336772 -0.21516286526 0.97602583187 0.0096964512642 -0.21954328716 0.97425479617 0.034485931523 
-0.23171496764 0.96695747339 0.093121062225 -0.27166630469 0.9270312221 0.24797830266 -0.24746352464 0.87529279308 0.40966946791 
-0.14935579944 0.82867336449 0.53311852254 -0.015067395101 0.85745599865 0.51110426357 0.08763466341 0.86892989262 0.48435332941 
0.16750330855 0.87542089524 0.45063578212 0.21553618553 0.88608636151 0.407651455 0.25208343421 0.90180749802 0.34544943844 
0.28626435292 0.90809838739 0.29815760194 0.30267809161 0.9189643191 0.23534515651 0.3102365545 0.92944001231 0.17155528382 
0.26631295816 0.95617039611 0.092320765569 0.22830523706 0.96987897158 0.036356121292 0.33431907769 0.93752370981 0.016073936473 
0.39757540769 0.91129029513 -0.016643728746 0.59575668071 0.79974348621 -0.056647772954 0.43722306443 0.88411916251 -0.047508181713 
0.66651607617 0.73816397858 -0.083421585795 -0.53598214152 0.82713311569 -0.13098214698 -0.53077108078 0.83448304107 -0.079041959794 
-0.64180925871 0.74380848232 -0.16887947738 -0.62250447366 0.76362328245 -0.12007147787 -0.25319504842 0.49878209415 -0.82755553311 
-0.16322313059 0.62373341901 -0.75212709978 -0.078414659046 0.97199773347 -0.22070924256 -0.1044685553 0.93026597503 -0.33456130601 
-0.11587082769 0.88979172136 -0.43700200221 -0.095149459689 0.8461398965 -0.51834979982 -0.069340801336 0.83076888943 -0.54206771932 
-0.049597755525 0.86738437459 -0.48220720568 -0.041779588176 0.92290882794 -0.37785392348 0.001102858502 0.91377127588 -0.39725562919 
-0.047774813453 0.95627848442 -0.28693832937 0.057855646938 0.85409267317 -0.5082991707 0.13406161664 0.77271013744 -0.61666180877 
0.19002018906 0.71899501453 -0.66761899814 0.234427453 0.74166852271 -0.62394907262 0.27637522366 0.77529753422 -0.56741503211 
0.30503170015 0.79908553197 -0.51440594975 0.32242170025 0.82797444178 -0.45455777455 0.31066357083 0.86468833911 -0.38778465812 
0.25342912751 0.90298492575 -0.31253106939 0.086653826858 0.97097035585 -0.19059144462 0.015278035693 0.9880066353 -0.14700514858 
-0.03051502743 0.99118861312 -0.12693902236 -0.076143587378 0.98939640305 -0.12166712265 -0.087120838175 0.98889818833 -0.11983597169 
-0.073223704661 0.99016852815 -0.11867806516 -0.0099690554705 0.99192376149 -0.095955315194 0.10416241412 0.99147294266 -0.05624309732 
0.15916024164 0.98660732421 -0.013389112243 0.18018965924 0.98262387933 0.025252456535 0.23535330257 0.96641045641 0.080121556864 
0.27416165008 0.95269406868 0.12721602028 0.28994795253 0.94198100532 0.16524527423 0.28794907125 0.93625132259 0.19869138063 
0.27805872673 0.93107271446 0.23445445415 0.26683781647 0.90072866446 0.33417247517 0.14268146449 0.95213923968 0.26739825025 
0.10469035198 0.9424906334 0.31390650447 0.059318373168 0.9483901502 0.30316896143 0.007878932333 0.96892285437 0.24104820631 
-0.031500513059 0.97497941262 0.21747764474 -0.066803506551 0.97621629963 0.20502003728 -0.091845194288 0.97719725427 0.18981380144 
-0.13329662272 0.97002822598 0.19381861275 -0.18465241189 0.95987067445 0.20659260416 -0.26349312138 0.92668539253 0.2508027717 
-0.32638945601 0.90738223591 0.26228676064 -0.38181812159 0.88919472294 0.24645431771 -0.4335614341 0.87168036248 0.22246065947 
-0.48816878349 0.8512288204 0.18430622492 -0.46240212584 0.87298135284 0.11612280214 -0.45977556555 0.88271105647 0.060335136115 
-0.44252968587 0.89470146592 0.017056636996 -0.39931721618 0.90443948503 -0.13198336187 -0.44495801333 0.88982352145 -0.088575959775 
-0.32721472127 0.92667832629 -0.16522688147 -0.28622949005 0.93826401946 -0.17724183917 -0.25759044132 0.94302751709 -0.20048397072 
-0.2199076081 0.94778538707 -0.22660311195 -0.19816613369 0.94974863097 -0.23876703548 -0.11916487347 0.96809397138 -0.20560384852 
-0.042579014944 0.98026512787 -0.17602074349 0.046779070993 0.99045325153 -0.12034604489 0.073240461703 0.99460770353 -0.069056801444 
0.055142441285 0.99776407639 -0.013905976682 0.075926107313 0.99625747345 -0.027495911198 -0.0040241470991 0.99271952158 -0.080743616403 
-0.05847017278 0.9819673001 -0.1613881769 -0.074780535887 0.96826288242 -0.20956712446 -0.077075647688 0.94968458467 -0.25717350897 
-0.077734306285 0.9333314329 -0.31972698177 -0.068899514557 0.92818633069 -0.35069450444 0.015639555368 0.99097382734 -0.12431497749 
-0.026445241426 0.98784712646 -0.15029581339 0.026238327816 0.99335249033 -0.10902395961 0.063980104626 0.9947348719 -0.038115170217 
0.12541600167 0.98581929146 0.07592998671 0.10874406233 0.99215048369 0.030088764993 0.080536871396 0.99364433293 0.066141387082 
0.037846447658 0.99719895141 0.058542961466 -0.015503735167 0.99315748145 -0.019606540906 -0.069819002592 0.98727247736 -0.12239256577 
-0.080566631566 0.9874791211 -0.13461054093 -0.079474669483 0.98443019922 -0.14523818953 -0.070685985817 0.97003114155 -0.22436773412 
-0.42981624427 0.89992350135 -0.043077773257 -0.35540466823 0.93232020315 -0.023342971125 0.70164226784 0.70027772443 -0.13000167422 
0.69535983174 0.69169699497 -0.18907549697 0.67256596444 0.69476216214 -0.24825576213 0.60396006313 0.73239229779 -0.3106329328 
0.5405735285 0.7551224834 -0.36600188011 0.47919413174 0.7730302791 -0.41292447122 0.38733585849 0.80839899548 -0.43758197656 
0.31654402218 0.82575890425 -0.46257894023 0.26845084955 0.82592380073 -0.49357394684 0.20385113558 0.85117311621 -0.48219497675 
0.14835922601 0.85096908718 -0.50231164909 0.097517933149 0.83770639123 -0.5335853275 0.038681432 0.81335670065 -0.58010927186 
-0.038775025141 0.75915095714 -0.64165652132 -0.098244718747 0.73149335053 -0.67394997519 -0.19689075998 0.68124173204 -0.70146971184 
-0.13685347616 0.75907750877 -0.62735191337 -0.27026888647 0.63506687762 -0.71653596185 -0.36894200769 0.54372543877 -0.75112226224 
-0.45032355623 0.48428540338 -0.72353008065 -0.53348956986 0.53472127586 -0.64925900805 -0.60526896651 0.53278269984 -0.58747103142 
-0.66304914177 0.53323271441 -0.51873383262 -0.72503368786 0.51461961701 -0.45393996132 -0.66787269129 0.65470983776 -0.34028448815 
-0.73113021491 0.5804728751 -0.35197487008 -0.65242606825 0.70925797009 -0.24705213172 -0.72013828997 0.63442386102 -0.26276389643 
-0.70459757208 0.67902974026 -0.18704808246 -0.66323177532 0.72120977667 -0.12864889294 -0.60136226175 0.77906634065 -0.069454297585 
-0.5237191549 0.84086995247 -0.01266642934 -0.4344523741 0.89067312935 0.020234152875 -0.38509347284 0.91977180484 0.039111121432 
-0.38233588273 0.92209485045 0.056471819428 -0.41327286341 0.90248991914 0.087810774813 -0.40525951935 0.90520440476 0.11266089035 
-0.40861181039 0.88284255251 0.18919512609 -0.42311567736 0.84088719063 0.3021385143 -0.41686523438 0.7903328063 0.43738836629 
-0.37329796174 0.71754477453 0.58288403226 -0.27408709087 0.70507176071 0.6475295551 0.077341287358 0.87844073932 0.46771406305 
0.0022838700866 0.8271992181 0.55116063464 0.1040427044 0.93672851156 0.3301392326 0.080866920444 0.97478243169 0.19503595106 
0.055763376682 0.9874178813 0.12745845559 0.051809174271 0.98725622143 0.097362076882 0.012512163091 0.99672959081 0.035436363195 
-0.0066551489841 0.99508884948 0.01564313822 -0.01989152002 0.99853547693 -0.012107882628 0.012826616632 0.999033578 -0.020036134217 
0.1695026054 0.97622618757 -0.01136693772 0.22512009966 0.97027522086 -0.031384582899 0.26178492059 0.96246881299 -0.05330932363 
0.42544689313 0.89116548973 -0.071732856938 0.22244921808 0.96378970149 -0.092169266976 0.59069350315 0.79900631796 -0.07804175146 
0.6501816181 0.74633970563 -0.11770441727 -0.099521934626 0.75831546704 0.63934792745 -0.19983251061 0.69359691828 0.68965814639 
-0.058355439628 0.97531771734 -0.20539185286 -0.062607708372 0.95502292207 -0.28800488543 -0.042020239597 0.97185123097 -0.22777127822 
-0.061283249613 0.98749726423 -0.1112126241 -0.028921182334 0.96382200228 -0.26417656774 0.033046956474 0.90315903368 -0.38013457978 
0.10030439309 0.84527076248 -0.47978142302 0.17138305115 0.80663390396 -0.56066630733 0.21068107114 0.81871833428 -0.52950181022 
0.24614668781 0.82568913678 -0.50542287073 0.26861146784 0.84346945159 -0.46233004699 0.27807476573 0.8656310605 -0.4135862579 
0.22770293015 0.91364211011 -0.32254005844 0.15684937492 0.95594000694 -0.23699926065 0.089094847068 0.97768157635 -0.1835822656 
-0.0099231552188 0.9838621756 -0.14047940371 -0.084807385631 0.98906809727 -0.11583378223 -0.096631313336 0.98800575739 -0.1193129737 
-0.096794811339 0.98773445742 -0.11489059784 -0.081520634249 0.98995395387 -0.10841758372 -0.028358260684 0.99315484121 -0.08632484994 
0.043457327434 0.99599530975 -0.070573960806 0.12153540709 0.98838193061 -0.020716860136 0.20221555939 0.97789703192 0.03625420174 
0.23483199535 0.96773130611 0.083132401047 0.26537527897 0.95477492246 0.12534330078 0.30857840033 0.93454410491 0.17085576629 
0.34345015348 0.90710167956 0.23434441572 0.35996117944 0.8849070268 0.29213191797 0.29340652502 0.90707565225 0.28968747342 
0.08242916747 0.96102097093 0.26202309648 0.14936588746 0.94139564171 0.28944265049 0.035810819939 0.96662159681 0.24933920174 
-0.007596146431 0.97350837709 0.22605156598 -0.041121040748 0.97606336783 0.21063127289 -0.06967506935 0.9819643445 0.15604413357 
-0.10046624474 0.98060735459 0.14989279101 -0.14653831327 0.96558147395 0.19989402916 -0.19301813794 0.95050281535 0.24005322061 
-0.25957753481 0.92556564724 0.26542467366 -0.31841478844 0.90876589921 0.26716722727 -0.33874019477 0.91450207472 0.21813002214 
-0.33967933922 0.92399901086 0.1612682821 -0.32043788261 0.93986428267 0.098421777579 -0.33453151294 0.93929862976 0.060562499716 
-0.35887275 0.93194539749 0.035912264419 -0.36750302612 0.92817797844 0.013065279702 -0.31582828737 0.94782889601 -0.0033697085567 
-0.29557971598 0.95417041726 -0.041615308134 -0.20979150832 0.96825737702 -0.05061309783 -0.31898270702 0.94481060993 -0.068821349795 
-0.34988849629 0.93101249219 -0.093783198331 -0.3254741313 0.93772574485 -0.1185739572 -0.2771170032 0.94862159406 -0.13117456326 
-0.17756692789 0.97212730297 -0.13945023318 -0.14628299113 0.97603157868 -0.15919473591 -0.13675500889 0.97176029185 -0.18514510077 
0.19813273454 0.93410588737 0.2851359958 0.16548056621 0.96659055398 0.19124462111 -0.063086728302 0.98748108884 -0.13428839159 
-0.079036590656 0.99589001661 -0.0084019532391 -0.074078671843 0.99470807942 -0.028512462706 -0.086522285173 0.99309506479 0.077581008517 
-0.045232812357 0.98358371515 -0.16085981912 -0.016377299733 0.96509547839 -0.25496487486 -0.00046514215844 0.95292313025 -0.29761351268 
0.031374961689 0.93457681122 -0.34035347827 0.064652334723 0.92018329551 -0.37255155233 0.060162152965 0.94214240637 -0.31909343606 
0.060385823525 0.96028625106 -0.26948916063 0.09493541524 0.95713168011 -0.26769234951 0.11037844784 0.95792876 -0.25567849246 
0.047328482265 0.9693702144 -0.19506775194 0.0053218537152 0.98498978772 -0.14515848916 -0.006618998444 0.98443325789 -0.13637837116 
-0.07803008152 0.98605612758 -0.11378734276 -0.094074272281 0.98689925876 -0.11740866112 -0.19652800494 0.97376425277 -0.10537226698 
-0.20513829576 0.9706038721 -0.11055860827 -0.1926660134 0.97065835773 -0.11051355193 -0.070848863143 0.98950397202 -0.084308570178 
0.0090830434127 0.99756258112 -0.064914558174 0.040334762818 0.99759991491 -0.046355948613 0.10148349428 0.99193596294 -0.0071375572044 
0.17032868798 0.98275696115 0.042682374264 0.21336660787 0.97125505626 0.092304313947 0.24860904842 0.95746413502 0.14381435033 
0.28867872805 0.93496570515 0.19552497895 0.31377065335 0.91759917515 0.23663850374 0.2087685578 0.95369658952 0.18318248804 
0.13907138734 0.97002068403 0.16464921676 0.14063432641 0.95822608464 0.19096759402 0.014230092565 0.99464227299 0.027520935151 
0.13178970526 0.96133307293 0.23357617361 0.093856255415 0.97092212834 0.21451310878 0.058873419354 0.97596675017 0.20596327325 
0.029738636344 0.98113633406 0.17935386224 -0.0060203250448 0.98786108799 0.15246014401 -0.033681069713 0.98623834906 0.1585612736 
-0.060163703852 0.98903046741 0.12775684151 -0.076639594786 0.99230235522 0.083861752714 -0.08420543483 0.99441303861 0.031300886416 
-0.087864765293 0.99413109348 0.014795801857 -0.13693004374 0.97787216426 0.049895990107 -0.16971060691 0.97332230518 0.090394659597 
-0.16254265069 0.98115638621 0.059355623279 -0.16072487378 0.98359284763 0.036311323673 -0.16044314329 0.98586784682 0.015913783172 
-0.20495919115 0.97806678228 0.013718453643 -0.25888134983 0.96427641015 0.0070947736656 -0.080119927082 0.98596018149 -0.075845401921 
-0.063611995972 0.99166173361 -0.089212570613 0.034635773653 0.99219258249 -0.11577020603 -0.17067199896 0.97863621531 -0.078366678266 
-0.2864692541 0.95546518591 -0.068901153633 -0.27950681764 0.95376716183 -0.089006450303 -0.23457396417 0.964073533 -0.098235941224 
-0.192250293 0.97203574112 -0.11065969087 -0.1292869246 0.98080512746 -0.11544600471 -0.038851005633 0.98845023501 -0.11435113708 
0.6711459993 0.72140125867 -0.16300839954 0.65631440043 0.72170422425 -0.21406177636 0.62798424808 0.72745431245 -0.26505028556 
0.60254945732 0.73018306193 -0.32085655897 0.55522970323 0.73784872279 -0.3784460937 0.50309367055 0.74612334789 -0.43299377269 
0.4413946588 0.75763426628 -0.47681483778 0.37368330985 0.77748283093 -0.50035335555 0.28322347984 0.82248165445 -0.49236607559 
0.20842895265 0.84685208521 -0.48636233774 0.13753013192 0.86765201339 -0.47531370094 0.076053695489 0.87108533683 -0.48279321873 
0.029703186079 0.83224760166 -0.55117765985 -0.027328396488 0.80192105131 -0.59163862794 -0.072426449567 0.77820990681 -0.61899201696 
-0.076651319798 0.84457231948 -0.52027029262 -0.11606347428 0.87194790678 -0.45396939931 -0.058854231663 0.9507411288 -0.30272161688 
-0.22335959643 0.7257893267 -0.64406130157 -0.28097068868 0.68974115768 -0.66310330097 -0.34700755009 0.6680420561 -0.65645284601 
-0.43377445668 0.63363083362 -0.63572368389 -0.52478989984 0.60115874209 -0.59901575137 -0.59557139489 0.58237568393 -0.54934826325 
-0.65599830166 0.57408085771 -0.4849290749 -0.69830218753 0.58316951551 -0.40900967693 -0.67880173951 0.64990874057 -0.31560619128 
-0.69524309766 0.66725499239 -0.24495149007 -0.72879507589 0.65145084311 -0.1971446936 -0.71725167528 0.68191040588 -0.13382419001 
-0.70412967689 0.70281416468 -0.081398587447 -0.64303787846 0.75870232695 -0.021652919705 -0.53839659267 0.83598020057 0.03195537148 
-0.53332221006 0.84272907721 0.063031099644 -0.55056466054 0.82770137031 0.10149846043 -0.54760573504 0.8184134672 0.15762968632 
-0.58528023508 0.75847717799 0.25171651545 -0.57550418334 0.73739066342 0.33635791548 -0.57906422897 0.66813200612 0.4659721571 
-0.5180851136 0.64940808859 0.5528356935 -0.44538338875 0.63434679712 0.62646631335 -0.35787698185 0.63652532949 0.67991280126 
-0.25794898432 0.69959822545 0.66242555308 -0.12913558958 0.7488994358 0.64525026662 -0.19489863149 0.76605997795 0.61021705035 
-0.05847503389 0.74116792576 0.66538601187 0.01767089133 0.79391289562 0.60420884576 0.063488773793 0.86656341774 0.47474569581 
0.079509142953 0.94546215345 0.30458695362 0.053761692993 0.98374932408 0.15548796436 -0.038093699567 0.99084853873 0.0090711589821 
-0.11825691621 0.98876881892 -0.08648571124 -0.14397024909 0.98471675506 -0.095886759727 -0.080517443612 0.99418725976 -0.05195159009 
-0.017871885793 0.99491172056 -0.024595677149 0.085346278422 0.98897273297 -0.0041760215406 0.19896194369 0.97942408159 0.012451537528 
0.11831206193 0.98602941363 -0.052659707135 0.077929965881 0.99350999955 -0.07616243748 0.058449392704 0.99372230918 -0.087054218215 
0.18063168904 0.97257088434 -0.10264804367 0.047986191833 0.99341155904 -0.0966551807 0.35931625463 0.92298629096 -0.10256582232 
0.44217743105 0.88359487489 -0.10779164814 0.5136723097 0.84199677968 -0.13971437232 -0.001766034322 0.96148253127 -0.24222778548 
-0.020908308919 0.9792018754 -0.18339763402 -0.047986943568 0.98916032716 -0.13109565619 -0.068960434446 0.99239901774 -0.10137116869 
-0.067298799693 0.99061052853 -0.098469309418 -0.057185786235 0.98877052997 -0.10548011495 -0.056534685177 0.99131820343 -0.10210798714 
-0.07392280677 0.99275192566 -0.083898938707 -0.17179984147 0.97874057193 -0.042284001781 -0.29547977913 0.95042773436 0.010845259429 
-0.25478468156 0.96312810388 -0.082568237155 -0.25914584468 0.9612054352 -0.067311350889 -0.2652136351 0.95833200396 -0.097025687382 
-0.28550755785 0.94712531269 -0.10642790239 -0.14157397066 0.97450431469 -0.088508402663 -0.021427684246 0.99696060079 -0.073247185253 
-0.013104299603 0.99729221064 -0.071434697817 0.016298861398 0.99573715779 -0.053972524759 0.10213362221 0.98874352998 0.0043168941965 
0.16847784669 0.98282834017 0.054811822152 0.18278489672 0.97903180785 0.084953673646 0.18108283676 0.97658284723 0.10489610448 
0.12419791592 0.98428819528 0.086872161271 0.054263681309 0.99033721057 0.055253058713 -0.024810205783 0.99722838348 -0.0021336752962 
-0.081979385945 0.99265122715 -0.03617463075 -0.077804533907 0.99139010576 -0.070932645429 -0.14069444406 0.98275125024 -0.11599645073 
-0.01372139131 0.99373544588 -0.020183123766 0.058320304447 0.9767344745 0.078759704941 0.05848975117 0.98616224901 0.12863343058 
0.036331134899 0.99040322336 0.13024732885 0.0087902622629 0.99133806917 0.12678804472 -0.016632675053 0.99193041983 0.12531997413 
-0.033145043107 0.99442893242 0.086420095295 -0.049416659501 0.99619086136 0.028484529342 -0.03402369483 0.99127407923 -0.065605984134 
-0.012849722496 0.98554474709 -0.1601890148 -0.0022544905526 0.98268981461 -0.15843171136 0.019456084118 0.97931518624 -0.17688341612 
-0.0016356426923 0.99038066847 -0.10604417577 0.0045302500022 0.98961927368 -0.10340962002 -0.00081153986889 0.99244415622 -0.088805277051 
-0.016639163482 0.99629431116 -0.070899407222 -0.014379670147 0.9962902306 -0.082346628262 -0.23379612856 0.96722801407 -0.05134008738 
-0.37133629339 0.92608711497 0.027814477538 0.070265423765 0.98736411194 -0.138747108 0.046145610613 0.99053590218 -0.12885884496 
0.096175596815 0.98042352272 -0.15405106482 0.034254224329 0.9918877667 -0.12130607495 -0.028270753599 0.99250407273 -0.10549466748 
-0.15893717723 0.98135814228 -0.097098309822 0.53626034925 0.8202849464 -0.18018025157 0.56516198571 0.79095573562 -0.22886592069 
0.5415410472 0.79327077174 -0.2735135307 0.52108595673 0.79160301577 -0.31691400998 0.4931909264 0.78636452659 -0.36635327558 
0.45354961209 0.78877959221 -0.41275690017 0.40528262004 0.79854060351 -0.44306110228 0.34524924333 0.81660871547 -0.4593305985 
0.2787232416 0.83796763577 -0.46870510788 0.1953655731 0.87089328576 -0.44453746234 0.11265078073 0.90023778956 -0.41878852156 
0.064222143489 0.8940125752 -0.44209925742 0.018448139598 0.8940630987 -0.44344073842 -0.020015127179 0.88757496165 -0.44666457377 
-0.033296590819 0.96616566844 -0.24768739372 -0.066044625757 0.97261878946 -0.21592236624 -0.022202309857 0.99530866887 -0.089123511765 
-0.10577662346 0.95421814011 -0.27591772863 -0.18236589248 0.86482496024 -0.43458317953 -0.27927557819 0.77116910018 -0.56831842219 
-0.33772099271 0.74483414773 -0.57302823437 -0.38876900718 0.74746993234 -0.53482000853 -0.4451408402 0.74381412013 -0.49400239144 
-0.50876192361 0.72773484099 -0.45361110202 -0.53557136895 0.74375182291 -0.38621302987 -0.51827861357 0.79979318793 -0.2936599677 
-0.53697576915 0.808421404 -0.23477762162 -0.57549005261 0.7894448722 -0.19415616082 -0.64029434247 0.7450913925 -0.16799028836 
-0.67176061662 0.72813370721 -0.12710718145 -0.67880265976 0.72897986764 -0.072373415746 -0.65289705111 0.75327400939 -0.023448619601 
-0.58316901881 0.80925929802 0.018775192526 -0.54031224721 0.83857121564 0.057586055031 -0.53961070111 0.83211492789 0.1047988494 
-0.61426380382 0.7643247376 0.18904495219 -0.63092036103 0.71275130462 0.29044574356 -0.63321251514 0.66605196201 0.38915624928 
-0.59453679126 0.65295698808 0.46787642152 -0.53205221064 0.64950128896 0.53784186113 -0.46098416158 0.65766895669 0.59020081387 
-0.38556739571 0.66957621898 0.6279104469 -0.29789866431 0.73719386099 0.60276871078 -0.23459629088 0.77739246729 0.58101862066 
-0.14151350198 0.80278612888 0.5759697413 -0.16110032471 0.8644953653 0.46480905378 -0.093254545275 0.79921283159 0.59337811806 
-0.040194250263 0.80476584066 0.5886839555 0.021182764058 0.82009280191 0.57069614745 0.062350443736 0.87498171857 0.46602206409 
0.076544307214 0.9360320054 0.31847237897 0.028266809136 0.98669932732 0.11991868853 -0.03100561207 0.99285340896 -0.0018831082875 
-0.089526913124 0.99125363409 -0.082685888914 -0.10192607407 0.98934817465 -0.099989763334 -0.05857875831 0.99548688742 -0.057057810599 
-0.014960019896 0.99681556576 -0.030020221926 0.0064856837392 0.98586113777 -0.041399088703 -0.011629566661 0.99533719805 -0.066751809111 
0.019305954122 0.99688091461 -0.074820753587 0.029015621347 0.99540578709 -0.088467449704 0.028511498187 0.995586702 -0.088965846093 
0.018130975867 0.99568386965 -0.089853994167 0.042186020868 0.99284884995 -0.10601959578 0.004874592929 0.99535778691 -0.095470067295 
0.2015322724 0.96119179053 -0.12150621354 0.061540142406 0.99305735157 -0.094604089202 0.055116420845 0.99452413335 -0.077337495746 
0.075587493655 0.9958386136 -0.04523177702 -0.037531960834 0.99495465008 -0.080723117223 -0.029677407349 0.99601879688 -0.057129239238 
0.13283755587 0.97383527762 0.13238869346 0.12236471946 0.97053084925 0.19707800717 0.099526170547 0.96239219614 0.25001060558 
0.052879243764 0.96286059924 0.2122491516 -0.010159551644 0.97976908343 0.094628223218 -0.052452108852 0.99727136387 -0.034292432943 
-0.065776461978 0.99342048862 -0.080848801058 -0.072848821914 0.99463854194 0.043317966944 -0.081560345855 0.97937181823 0.17025548888 
-0.10937349371 0.97875077371 0.1679066263 -0.11900643047 0.939171683 0.2996118775 -0.092752285345 0.99305620021 0.06209930814 
-0.060514260835 0.99292747906 -0.090330068725 0.3121083904 0.92686891059 -0.20463144665 0.25835751641 0.94554447484 -0.16909981757 
0.42372786135 0.86391685206 -0.25331942222 0.42059992568 0.85470782611 -0.30043074737 0.42935251897 0.83275345343 -0.34703013054 
0.41163261252 0.82778511285 -0.37971761318 0.36934945435 0.83574993901 -0.40155253874 0.33295775329 0.83662976062 -0.43150084123 
0.28980521534 0.84056624548 -0.45586019287 0.19496772831 0.88560549162 -0.4134218669 0.060661734676 0.96087129898 -0.26618033195 
0.0095062311643 0.97198531224 -0.23190227148 -0.01119287048 0.96774432992 -0.24615825174 -0.039816674078 0.99380764223 -0.10305812074 
-0.032196327898 0.99296089069 -0.047149890641 -0.038222799223 0.99295248534 -0.11177384376 -0.037849204726 0.99220085533 -0.10266993366 
-0.082098798031 0.98079161955 -0.17029555907 -0.15171971609 0.94522232489 -0.26369076522 -0.23366523514 0.88447346804 -0.38675952606 
-0.30670061651 0.82875024957 -0.45722341723 -0.33203233387 0.85162723378 -0.39331119384 -0.37295120963 0.84823618905 -0.36780869507 
-0.38212743436 0.85917001331 -0.32550585785 -0.3852995277 0.87640574197 -0.27545966332 -0.34428730871 0.9134943142 -0.20977981974 
-0.40966000343 0.88886361127 -0.15073895804 -0.32869979431 0.92728322711 -0.14411635501 -0.52376322176 0.82367292676 -0.15473049254 
-0.57581131118 0.80207370493 -0.12623383931 -0.58634606171 0.80016306418 -0.074920461177 -0.5697431605 0.81720768484 -0.049956487824 
-0.52219336037 0.85134051592 -0.0027475280066 -0.51634193648 0.85409323282 0.040608662633 -0.51015762874 0.85475997908 0.072126730306 
-0.5614954932 0.80400997912 0.16012007146 -0.63395548855 0.66859886658 0.3851071667 -0.64311220233 0.69705558911 0.30341221232 
-0.58984952358 0.67451177374 0.44128783223 -0.5310341252 0.69293740932 0.48154205812 -0.46112619984 0.71638139176 0.52286995082 
-0.38698198287 0.74556273049 0.5360322673 -0.31345173678 0.77155161704 0.55185657281 -0.22487928231 0.84662378832 0.46583835175 
-0.17077167221 0.92185681829 0.3298147737 -0.28169799098 0.9429736979 -0.14434410669 -0.20555675477 0.96942870571 -0.11444446614 
0.01872500668 0.98370350264 -0.15377375347 0.038738488402 0.97871948767 -0.19967382753 -0.14601328738 0.98496330078 -0.091866092856 
-0.049287945583 0.9909547607 -0.090241415823 0.035489877208 0.99531661633 -0.088274740935 0.059138303503 0.99473940163 -0.080937930772 
0.057797614149 0.99529136262 -0.071614754966 -0.0077726136681 0.99635299263 -0.078950193956 -0.098597615263 0.99029735938 -0.085906083313 
-0.087137725917 0.99483715356 -0.024146453449 -0.093376168585 0.99361337311 -0.017433726909 -0.096234657657 0.99044820028 -0.028990610141 
-0.15205887362 0.98318628688 0.023117669191 -0.20238129092 0.97596964035 0.056030198093 -0.23837064313 0.9681397934 0.055694814239 
-0.28819836396 0.95287256958 0.071085254352 -0.35584243157 0.92669175677 0.090347084939 -0.40135740408 0.90974886238 0.10077313298 
-0.3892223716 0.91973035099 0.0098629632585 -0.32883872816 0.94355947692 -0.026848402466 -0.31290650697 0.94762695797 -0.046993880435 
-0.28213429633 0.95497337157 -0.064984455069 -0.2347142952 0.96688617881 -0.07452725145 -0.19939188086 0.97330324197 -0.082021447071 
-0.16588714749 0.97505953644 -0.081504145983 -0.13129734617 0.98281920492 -0.09196679066 -0.1160490685 0.98465338773 -0.086504040666 
-0.086857913102 0.99057892597 -0.084033045862 -0.072693014386 0.99179879071 -0.077781574249 -0.047161041099 0.9966546287 -0.062456214816 
-0.047235228087 0.997152017 -0.053949201515 -0.052800022951 0.9968691159 -0.045295873741 -0.062192666109 0.99719767039 -0.037001332877 
-0.081015334897 0.99526332009 -0.03355853698 -0.10508495292 0.99118950541 -0.042233416221 -0.1526143493 0.9838953194 -0.087565596082 
-0.16808328161 0.97433928541 -0.13847473655 -0.11011106574 0.98549537523 -0.12018496145 -0.15199999479 0.9735804737 -0.16633507314 
-0.083588344497 0.98981942716 -0.10575429126 -0.047636789925 0.99417642665 -0.087202383999 -0.0082254601607 0.99106283811 -0.015516182399 
-0.027837914602 0.99301236032 -0.061983674099 -0.048483661394 0.96915087487 0.19351326557 -0.067983134652 0.93649877553 0.33636465378 
-0.091998210071 0.89755896531 0.4207276483 -0.058093870152 0.83977853759 0.52887221542 -0.03473089202 0.81152987261 0.58071549362 
0.0051920757854 0.81987076577 0.5720775609 0.046512263657 0.91231596189 0.40308565927 0.077996471169 0.9154536315 0.37216254434 
0.10051190978 0.97201962738 0.20272636034 0.018162206831 0.99613760255 0.028781816871 -0.044535424759 0.99639934446 -0.062221281722 
-0.035504005563 0.992775901 -0.11363216794 -0.020264656805 0.98845692165 -0.14625476951 -0.015573871414 0.9864150198 -0.15769938922 
0.014934399655 0.97956850098 -0.19170147563 0.031986469478 0.97634028311 -0.21049290212 0.046206437848 0.97310369695 -0.20984998118 
0.071745644247 0.97744376233 -0.1984916806 0.14418812139 0.9353280227 -0.30968252949 0.068852485586 0.97667430624 -0.20259127035 
0.085203276922 0.97650165278 -0.19705723041 0.09968306695 0.97727829142 -0.18669540196 0.11621430799 0.97771982741 -0.17374271311 
0.11012208675 0.97990757841 -0.16285784914 0.1832681803 0.95761547355 -0.21593526783 0.24323066172 0.94023459315 -0.22048156154 
0.30938750322 0.90753577346 -0.27170464 0.14000808976 0.97532371335 -0.16396908275 0.083697780746 0.98589535587 -0.13532794188 
0.091711195347 0.95853156461 0.26007790318 0.05827439974 0.94691301688 0.30935921326 0.0012036627629 0.93720075603 0.34616494797 
-0.15003579909 0.96993495012 0.18261051793 -0.40805718228 0.90993354232 -0.013932632657 -0.40572801885 0.91199359355 -0.042631177249 
-0.43376555694 0.89480178512 -0.068770584102 -0.43530243719 0.89161986563 -0.092516623648 -0.39199141823 0.91100954981 -0.111151115 
-0.32754724181 0.93278908124 -0.12424884772 -0.24470314574 0.96150177794 -0.1201006171 -0.19748603651 0.97274215494 -0.11686754547 
-0.14969835381 0.98275612262 -0.099730862122 -0.11797673306 0.98836161245 -0.086114483168 -0.10569980731 0.99194255893 -0.068154691687 
-0.10404290266 0.99272909361 -0.057758046823 -0.17933654396 0.97733926876 -0.10195689205 -0.15682329113 0.98472981392 -0.064810508394 
-0.067399697607 0.99029736415 -0.10737970397 -0.11916749608 0.97751451321 -0.16900088554 -0.041912107557 0.99512840903 -0.088336342812 
-0.20390400298 0.94980968212 0.2099207579 -0.23766999065 0.94217609804 0.20869070934 -0.2859887385 0.92714049383 0.20543570484 
-0.32890237332 0.91408608222 0.19847399094 -0.38667646132 0.88070562408 0.18871909524 -0.42725494135 0.86853355451 0.19216823739 
-0.43496099567 0.87755897641 0.16941892432 -0.55946654233 0.78410686342 0.245377075 -0.58269584423 0.73587663212 0.33624354186 
-0.53544084648 0.74656043371 0.37339714909 -0.46812690598 0.77730357748 0.3951751451 -0.40332716692 0.80811710262 0.40657356029 
-0.32513598432 0.8462990379 0.4039643148 -0.27547365672 0.86673264161 0.40140493144 -0.22377314376 0.90355269106 0.36177947743 
0.10959697608 0.9670315592 -0.21568592396 0.14807749392 0.9570511851 -0.23134027859 0.15770185407 0.96169400219 -0.21342237311 
-0.185347337 0.94298680061 -0.24948031542 -0.2485447637 0.90657142036 -0.32656083235 -0.2177620068 0.94098260899 -0.23109475912 
-0.28768964996 0.93558650141 -0.18667026726 -0.28267437796 0.92699640886 -0.21302320137 -0.28162128052 0.93815614549 -0.17817731062 
-0.2669863371 0.9470583316 -0.15350920884 -0.17465932628 0.97875270423 -0.10053193425 0.21557330914 0.90549113656 -0.35713575394 
0.36121433671 0.87693085762 -0.31308644068 0.32485163346 0.88784758281 -0.3217306097 0.26815304157 0.90416193804 -0.3235747788 
-0.028287088357 0.90335220466 0.42006542162 0.25268109426 0.90167200406 -0.34545278593 -0.17650928689 0.97768409558 -0.10074995203 
-0.18291443113 0.97640362719 -0.10257402621 -0.17419239678 0.9790887722 -0.095384231785 -0.55125727781 0.77670909142 -0.2974763832 
-0.50053756255 0.83608282024 -0.18665443271 -0.0542454213 0.93037233054 -0.3537821243 0.25646839781 0.94541708997 -0.13990142237 
0.050042260281 0.99090508 -0.11718204787 -0.14558439854 0.98662502022 -0.063271915945 -0.12391770318 0.98982932249 -0.059451793859 
-0.22708701035 0.95100529405 -0.17972162099 
Motion 1 1114 double
0 0 0 0 0 0 0 0 0 
0 0 0 0 0 0 0 0 0 
0 0 0 0 0 0 0 0 0 
0 0 0 0 0 0 0 0 0 
0 0 0 0 0 0 0 0 0 
0 0 0 0 0 0 0 0 0 
0 0 0 0 0 0 0 0 0 
0 0 0 0 0 0 0 0 0 
0 0 0 0 0 0 0 0 0 
0 0 0 0 0 0 0 0 0 
0 0 0 0 0 0 0 0 0 
0 0 0 0 0 0 0 0 0 
0 0 0 0 0 0 0 0 0 
0 0 0 0 0 0 0 0 0 
0 0 0 0 0 0 0 0 0 
0 0 0 0 0 0 0 0 0 
0 0 0 0 0 0 0 0 0 
0 0 0 0 0 0 0 0 0 
0 0 0 0 0 0 0 0 0 
0 0 0 0 0 0 0 0 0 
0 0 0 0 0 0 0 0 0 
0 0 0 0 0 0 0 0 0 
0 0 0 0 0 0 0 0 0 
0 0 0 0 0 0 0 0 0 
0 0 0 0 0 0 0 0 0 
0 0 0 0 0 0 0 0 0 
0 0 0 0 0 0 0 0 0 
0 0 0 0 0 0 0 0 0 
0 0 0 0 0 0 0 0 0 
0 0 0 0 0 0 0 0 0 
0 0 0 0 0 0 0 0 0 
0 0 0 0 0 0 0 0 0 
0 0 0 0 0 0 0 0 0 
0 0 0 0 0 0 0 0 0 
0 0 0 0 0 0 0 0 0 
0 0 0 0 0 0 0 0 0 
0 0 0 0 0 0 0 0 0 
0 0 0 0 0 0 0 0 0 
0 0 0 0 0 0 0 0 0 
0 0 0 0 0 0 0 0 0 
0 0 0 0 0 0 0 0 0 
0 0 0 0 0 0 0 0 0 
0 0 0 0 0 0 0 0 0 
0 0 0 0 0 0 0 0 0 
0 0 0 0 0 0 0 0 0 
0 0 0 0 0 0 0 0 0 
0 0 0 0 0 0 0 0 0 
0 0 0 0 0 0 0 0 0 
0 0 0 0 0 0 0 0 0 
0 0 0 0 0 0 0 0 0 
0 0 0 0 0 0 0 0 0 
0 0 0 0 0 0 0 0 0 
0 0 0 0 0 0 0 0 0 
0 0 0 0 0 0 0 0 0 
0 0 0 0 0 0 0 0 0 
0 0 0 0 0 0 0 0 0 
0 0 0 0 0 0 0 0 0 
0 0 0 0 0 0 0 0 0 
0 0 0 0 0 0 0 0 0 
0 0 0 0 0 0 0 0 0 
0 0 0 0 0 0 0 0 0 
0 0 0 0 0 0 0 0 0 
0 0 0 0 0 0 0 0 0 
0 0 0 0 0 0 0 0 0 
0 0 0 0 0 0 0 0 0 
0 0 0 0 0 0 0 0 0 
0 0 0 0 0 0 0 0 0 
0 0 0 0 0 0 0 0 0 
0 0 0 0 0 0 0 0 0 
0 0 0 0 0 0 0 0 0 
0 0 0 0 0 0 0 0 0 
0 0 0 0 0 0 0 0 0 
0 0 0 0 0 0 0 0 0 
0 0 0 0 0 0 0 0 0 
0 0 0 0 0 0 0 0 0 
0 0 0 0 0 0 0 0 0 
0 0 0 0 0 0 0 0 0 
0 0 0 0 0 0 0 0 0 
0 0 0 0 0 0 0 0 0 
0 0 0 0 0 0 0 0 0 
0 0 0 0 0 0 0 0 0 
0 0 0 0 0 0 0 0 0 
0 0 0 0 0 0 0 0 0 
0 0 0 0 0 0 0 0 0 
0 0 0 0 0 0 0 0 0 
0 0 0 0 0 0 0 0 0 
0 0 0 0 0 0 0 0 0 
0 0 0 0 0 0 0 0 0 
0 0 0 0 0 0 0 0 0 
0 0 0 0 0 0 0 0 0 
0 0 0 0 0 0 0 0 0 
0 0 0 0 0 0 0 0 0 
0 0 0 0 0 0 0 0 0 
0 0 0 0 0 0 0 0 0 
0 0 0 0 0 0 0 0 0 
0 0 0 0 0 0 0 0 0 
0 0 0 0 0 0 0 0 0 
0 0 0 0 0 0 0 0 0 
0 0 0 0 0 0 0 0 0 
0 0 0 0 0 0 0 0 0 
0 0 0 0 0 0 0 0 0 
0 0 0 0 0 0 0 0 0 
0 0 0 0 0 0 0 0 0 
0 0 0 0 0 0 0 0 0 
0 0 0 0 0 0 0 0 0 
0 0 0 0 0 0 0 0 0 
0 0 0 0 0 0 0 0 0 
0 0 0 0 0 0 0 0 0 
0 0 0 0 0 0 0 0 0 
0 0 0 0 0 0 0 0 0 
0 0 0 0 0 0 0 0 0 
0 0 0 0 0 0 0 0 0 
0 0 0 0 0 0 0 0 0 
0 0 0 0 0 0 0 0 0 
0 0 0 0 0 0 0 0 0 
0 0 0 0 0 0 0 0 0 
0 0 0 0 0 0 0 0 0 
0 0 0 0 0 0 0 0 0 
0 0 0 0 0 0 0 0 0 
0 0 0 0 0 0 0 0 0 
0 0 0 0 0 0 0 0 0 
0 0 0 0 0 0 0 0 0 
0 0 0 0 0 0 0 0 0 
0 0 0 0 0 0 0 
Normal 3 1114 float
-0.635379 -0.211838 -0.742576 -0.733464 -0.243608 -0.63112 -0.740197 -0.358256 -0.557192 
-0.60491 -0.364326 -0.702397 -0.86795 -0.215059 -0.417848 -0.83847 -0.374249 -0.363386 
-0.959222 -0.155543 -0.190926 -0.917304 -0.357913 -0.122874 -0.991467 -0.0920214 -0.00118049 
-0.939267 -0.319826 0.0665359 -0.988957 -0.0522908 0.133586 -0.944418 -0.280164 0.139249 
-0.974878 -0.0654893 0.21259 -0.929377 -0.286086 0.209944 -0.93945 -0.122809 0.312228 
-0.907191 -0.301357 0.28606 -0.909663 -0.164221 0.379379 -0.879225 -0.294612 0.370478 
-0.863184 -0.188663 0.461345 -0.823317 -0.303582 0.475378 -0.786275 -0.194715 0.582222 
-0.731209 -0.309379 0.603144 -0.676528 -0.172888 0.708624 -0.604977 -0.274776 0.743771 
-0.491983 -0.145823 0.855357 -0.455998 -0.260938 0.848246 -0.338892 -0.195066 0.91749 
-0.30567 -0.279918 0.908333 -0.182069 -0.140896 0.970158 -0.154156 -0.275042 0.946018 
-0.0644637 -0.113194 0.990929 -0.0453566 -0.296309 0.950674 0.0173026 -0.0903429 0.994532 
0.026537 -0.298962 0.948829 0.159349 -0.0442104 0.981582 0.167441 -0.30274 0.928937 
0.250195 0.00241068 0.967792 0.283655 -0.31952 0.896333 0.281175 0.0724313 0.954191 
0.343674 -0.275721 0.885789 0.345787 0.163195 0.920353 0.425154 -0.166717 0.879986 
0.575789 0.162319 0.792265 0.573363 -0.11987 0.799476 0.723576 0.138312 0.666774 
0.686615 -0.166456 0.694521 0.842334 0.114029 0.508976 0.788964 -0.243559 0.536547 
0.938373 0.0790372 0.316324 0.882168 -0.309092 0.316609 0.992877 0.000176899 0.109897 
0.954352 -0.27165 0.0270409 0.980877 -0.0809922 -0.126069 0.949369 -0.235694 -0.183313 
0.951823 -0.0688527 -0.285646 0.922642 -0.200649 -0.318167 0.915886 -0.0537321 -0.393799 
0.889785 -0.172269 -0.417141 0.877707 -0.0611073 -0.473455 0.85585 -0.161776 -0.48852 
0.835872 -0.063139 -0.544597 0.812411 -0.151745 -0.560065 0.760722 -0.0465846 -0.644397 
0.73197 -0.160454 -0.657063 0.650804 -0.0890448 -0.746411 0.622018 -0.173515 -0.757717 
0.525007 -0.11978 -0.837182 0.500996 -0.195696 -0.840006 0.400768 -0.121595 -0.906998 
0.385349 -0.207139 -0.897269 0.307518 -0.137517 -0.941332 0.278555 -0.21869 -0.933828 
0.201019 -0.138383 -0.968593 0.146153 -0.200658 -0.966054 0.0962079 -0.108543 -0.987661 
0.0519277 -0.174352 -0.980958 -0.016668 -0.105968 -0.992052 -0.049983 -0.160521 -0.982114 
-0.150952 -0.125669 -0.976631 -0.182657 -0.148992 -0.969467 -0.303688 -0.147425 -0.936467 
-0.309058 -0.191149 -0.922221 -0.464369 -0.170954 -0.863738 -0.472517 -0.299017 -0.81909 
-0.230288 -0.162569 -0.959447 -0.0716404 -0.176713 -0.97193 -0.0399326 -0.043435 -0.991966 
-0.157126 -0.0123701 -0.985959 0.0570461 -0.17523 -0.98212 0.0653531 -0.0736839 -0.993739 
0.0986266 -0.128311 -0.985643 0.118543 -0.104534 -0.986477 0.153805 -0.116228 -0.979802 
0.176526 -0.145306 -0.971066 0.220952 -0.134802 -0.96572 0.244108 -0.21148 -0.946128 
0.311969 -0.149935 -0.935149 0.323316 -0.213383 -0.91945 0.40964 -0.157197 -0.895155 
0.40637 -0.203646 -0.887826 0.515937 -0.15212 -0.841455 0.498015 -0.177491 -0.847551 
0.644279 -0.130449 -0.743412 0.582305 -0.0722845 -0.801182 0.735987 -0.0621648 -0.667739 
0.637799 0.0632868 -0.758836 0.765837 0.0742081 -0.637184 0.643652 0.237069 -0.723292 
0.756115 0.184955 -0.623354 0.671068 0.328359 -0.659387 0.789754 0.226425 -0.562576 
0.716618 0.387708 -0.570968 0.864896 0.204404 -0.457461 0.790678 0.404506 -0.44829 
0.907031 0.188814 -0.371471 0.82617 0.420048 -0.364125 0.927783 0.223649 -0.289083 
0.842376 0.436837 -0.307429 0.92901 0.297819 -0.189939 0.860138 0.452319 -0.233297 
0.892617 0.426448 0.0052514 0.880342 0.448758 -0.0223486 0.87849 0.416279 0.18554 
0.871686 0.431977 0.185562 0.87196 0.337694 0.348852 0.836341 0.400924 0.370512 
0.847148 0.254984 0.457716 0.797816 0.348066 0.482408 0.81514 0.232069 0.528685 
0.774709 0.279927 0.5636 0.77944 0.239979 0.578169 0.766654 0.208871 0.604145 
0.745033 0.237997 0.622054 0.752738 0.207855 0.623761 0.671299 0.2416 0.693274 
0.683468 0.198327 0.697522 0.572057 0.25052 0.779898 0.603111 0.228014 0.763923 
0.421135 0.311662 0.840826 0.49632 0.313542 0.799689 0.30917 0.362183 0.878098 
0.388808 0.398251 0.82825 0.253569 0.397336 0.881143 0.29269 0.506775 0.805776 
0.204511 0.408874 0.888519 0.220598 0.555921 0.799165 0.152651 0.422178 0.892155 
0.158517 0.573556 0.801723 0.0711954 0.49051 0.864516 0.0770688 0.581306 0.804377 
0.0226637 0.511334 0.858668 -0.0668366 0.55783 0.813234 0.00774922 0.483652 0.875069 
-0.346219 0.469979 0.805371 -0.301445 0.370201 0.815316 -0.499037 0.431132 0.739539 
-0.604053 0.255703 0.754396 -0.60986 0.391645 0.686927 -0.623632 0.208901 0.752399 
-0.63847 0.337748 0.687232 -0.640334 0.152761 0.751187 -0.660479 0.291633 0.688313 
-0.654935 0.0891553 0.750355 -0.678535 0.249714 0.686319 -0.731893 0.032848 0.673857 
-0.743952 0.210671 0.627644 -0.804634 -0.00695224 0.587426 -0.811781 0.175071 0.550841 
-0.870735 -0.0207534 0.48535 -0.870036 0.14489 0.46506 -0.905469 0.00411088 0.420664 
-0.8944 0.14 0.421863 -0.927406 0.0453674 0.370459 -0.902528 0.14246 0.402133 
-0.938438 0.111441 0.319015 -0.908553 0.222022 0.348874 -0.951849 0.164598 0.226421 
-0.922065 0.259195 0.27122 -0.970457 0.189548 0.0439722 -0.946931 0.274606 0.0805355 
-0.961382 0.211915 -0.121521 -0.94627 0.28054 -0.107469 -0.929466 0.232148 -0.273023 
-0.924749 0.263615 -0.260428 -0.869219 0.220826 -0.419344 -0.879687 0.242738 -0.393268 
-0.803224 0.201017 -0.56046 -0.815533 0.24115 -0.525113 -0.77178 0.170522 -0.609861 
-0.755156 0.269438 -0.592825 -0.731158 0.145955 -0.66377 -0.705986 0.270936 -0.6513 
-0.664712 0.138068 -0.730358 -0.644565 0.237773 -0.721932 -0.589336 0.114961 -0.794718 
-0.561472 0.202625 -0.796341 -0.504876 0.0763722 -0.856812 -0.461432 0.142893 -0.871706 
-0.37602 -0.0301816 -0.909851 -0.307272 0.0575895 -0.93632 -0.742542 -0.53218 -0.384356 
-0.613166 -0.536159 -0.566238 -0.866984 -0.473719 -0.11447 -0.891604 -0.444674 0.0767896 
-0.893788 -0.424362 0.140953 -0.884751 -0.405321 0.226365 -0.876741 -0.355763 0.321595 
-0.863545 -0.324803 0.383311 -0.819172 -0.32216 0.469742 -0.736349 -0.311456 0.59246 
-0.605119 -0.322866 0.723371 -0.457984 -0.330287 0.823303 -0.315597 -0.331979 0.88695 
-0.185319 -0.371567 0.907751 -0.0685066 -0.408218 0.908807 0.0176371 -0.426675 0.902576 
0.151518 -0.453436 0.875923 0.284364 -0.495325 0.820275 0.354083 -0.50185 0.788755 
0.444188 -0.498049 0.741588 0.520157 -0.501443 0.68741 0.588316 -0.507779 0.623359 
0.689213 -0.537333 0.472923 0.83531 -0.500749 0.182849 0.931196 -0.347853 -0.091327 
0.918346 -0.311666 -0.24023 0.895307 -0.288623 -0.335658 0.869491 -0.272499 -0.408902 
0.838527 -0.256628 -0.478034 0.804994 -0.239803 -0.541423 0.743182 -0.23831 -0.623589 
0.638883 -0.241515 -0.725344 0.515084 -0.262545 -0.811566 0.397008 -0.280129 -0.872273 
0.274126 -0.299007 -0.911839 0.131933 -0.307306 -0.938553 0.0344159 -0.310576 -0.945705 
-0.0530426 -0.339619 -0.929357 -0.165275 -0.318392 -0.921242 -0.189887 -0.370364 -0.8907 
-0.289391 -0.476305 -0.792217 -0.484182 -0.540496 -0.676688 0.0581174 0.103814 -0.990556 
-0.0417528 0.133129 -0.98602 0.140169 0.0790424 -0.985412 0.209218 0.0288206 -0.974673 
0.262815 -0.0220619 -0.963413 0.315402 -0.0469212 -0.944619 0.37387 -0.0431508 -0.922331 
0.433019 -0.0208988 -0.89612 0.486708 0.0408302 -0.868727 0.499474 0.170271 -0.83932 
0.520072 0.304835 -0.792941 0.558676 0.419176 -0.708274 0.6383 0.492488 -0.586093 
0.716477 0.53878 -0.432253 0.764223 0.545592 -0.341363 0.792444 0.53288 -0.295947 
0.821494 0.521912 -0.218587 0.863869 0.493909 -0.0557754 0.859555 0.472925 0.142935 
0.819423 0.467382 0.322782 0.763011 0.457517 0.449028 0.709881 0.410768 0.566456 
0.700408 0.321315 0.635975 0.716387 0.261384 0.646578 0.670481 0.251409 0.697571 
0.705518 0.237644 0.665413 0.601484 0.319423 0.726119 0.518809 0.410918 0.745868 
0.414196 0.538471 0.72682 0.292156 0.629553 0.715495 0.188178 0.680376 0.706653 
0.0801042 0.696355 0.708064 -0.124047 0.679944 0.708149 -0.298813 0.636313 0.704058 
-0.47395 0.595341 0.64073 -0.550106 0.57907 0.597812 -0.597223 0.562296 0.567795 
-0.628284 0.525829 0.564842 -0.666149 0.455463 0.588933 -0.714855 0.40215 0.567773 
-0.785522 0.345942 0.506359 -0.855218 0.287268 0.424703 -0.891627 0.21601 0.390698 
-0.911505 0.158571 0.378641 -0.910033 0.123966 0.391621 -0.912782 0.173236 0.346638 
-0.910564 0.252278 0.294553 -0.891726 0.293854 0.157217 -0.911881 0.273402 -0.247004 
-0.883591 0.243959 -0.392956 -0.840443 0.242298 -0.481907 -0.786636 0.249303 -0.561106 
-0.730343 0.268721 -0.62463 -0.665202 0.288301 -0.686358 -0.570009 0.274002 -0.767229 
-0.464074 0.254408 -0.846757 -0.317156 0.208594 -0.917682 -0.175325 0.174628 -0.965831 
0.716051 0.236818 0.655891 0.724447 0.216243 0.653744 -0.905706 -0.383025 0.176294 
-0.894983 -0.424508 0.135218 -0.902639 -0.346085 0.247764 -0.884105 -0.320188 0.334894 
-0.861884 -0.300793 0.404694 -0.839199 -0.234299 0.484064 -0.775876 -0.212031 0.589214 
-0.64634 -0.243493 0.717924 -0.500539 -0.293488 0.809455 -0.355872 -0.348869 0.865153 
-0.250418 -0.408968 0.875269 -0.117147 -0.467281 0.874431 -0.0170336 -0.496693 0.866417 
0.0823819 -0.512058 0.853409 0.230845 -0.523452 0.819673 0.326073 -0.539489 0.775417 
0.407237 -0.554537 0.723249 0.492215 -0.563855 0.661719 0.565278 -0.553204 0.610913 
0.70788 -0.497886 0.49097 0.8337 -0.425236 0.312358 0.890324 -0.378727 -0.247584 
0.898066 -0.408336 -0.141966 0.865022 -0.369875 -0.334551 0.832263 -0.356731 -0.417427 
0.800358 -0.328408 -0.497894 0.773379 -0.300511 -0.555366 0.710595 -0.295106 -0.635098 
0.619636 -0.300057 -0.720629 0.514066 -0.324961 -0.791603 0.416626 -0.341672 -0.84112 
0.31083 -0.370785 -0.873764 0.184226 -0.412892 -0.88914 0.0888716 -0.495389 -0.859416 
0.0420279 -0.656279 -0.747827 -0.0138011 -0.692916 -0.694807 0.0151164 -0.742114 -0.637495 
-0.162964 -0.825478 -0.512006 -0.404574 -0.797983 -0.426594 -0.562813 -0.713434 -0.392166 
-0.673365 -0.650454 -0.330588 0.89837 -0.426406 -0.0422203 0.89165 -0.40205 0.183018 
0.693645 0.243242 0.675575 0.724486 0.132624 0.674053 0.674992 0.240326 0.695278 
0.610402 0.33188 0.7092 0.544275 0.381665 0.738294 0.440161 0.471236 0.754293 
0.300754 0.580379 0.748272 0.1664 0.610741 0.767045 0.0223202 0.566354 0.81686 
-0.446057 0.648287 0.614564 -0.30842 0.640292 0.693181 -0.518958 0.64733 0.554111 
-0.575454 0.646434 0.50034 -0.627908 0.61074 0.479367 -0.675507 0.556144 0.480027 
-0.717999 0.502451 0.47808 -0.799498 0.394835 0.427428 -0.898973 0.252386 0.347592 
-0.935475 0.125623 0.321599 -0.925064 0.0447659 0.374312 -0.909858 0.0224959 0.412137 
-0.902102 0.0261798 0.428273 -0.89564 0.0320884 0.443022 -0.928963 0.0736957 0.159555 
-0.966551 0.123193 -0.211488 -0.918072 0.161612 -0.343455 -0.863103 0.196307 -0.461799 
-0.805988 0.244618 -0.537756 -0.738069 0.27091 -0.613744 -0.656289 0.281672 -0.696266 
-0.554711 0.278916 -0.778418 -0.436521 0.273978 -0.854312 -0.30362 0.274158 -0.905353 
-0.147083 0.259255 -0.950254 -0.0155428 0.258556 -0.962836 0.0882802 0.218317 -0.968141 
0.179879 0.175953 -0.965332 0.244192 0.151561 -0.955928 0.289815 0.129226 -0.946591 
0.315974 0.132078 -0.937951 0.350045 0.140713 -0.924183 0.383855 0.165079 -0.907555 
0.380202 0.227923 -0.893429 0.389081 0.300245 -0.8689 0.409592 0.364254 -0.83528 
0.483825 0.42285 -0.759101 0.577441 0.472843 -0.659385 0.684387 0.514297 -0.506545 
0.76889 0.512111 -0.371685 0.832807 0.481143 -0.268232 0.844212 0.494389 -0.204048 
0.880298 0.455177 -0.0217177 0.881943 0.430646 0.157671 0.847583 0.420559 0.313883 
0.775561 0.405135 0.466673 0.704768 0.370652 0.603587 0.6744 0.327135 0.658037 
0.654171 0.269473 0.706492 0.70301 0.132757 0.697094 0.718436 0.055654 0.691856 
0.734829 0.123363 0.665968 0.73695 0.00511375 0.675235 -0.198588 0.589593 0.772632 
-0.0730789 0.441681 0.886244 0.868509 -0.489105 -0.0242955 0.806176 -0.571727 0.0887506 
0.82082 -0.546023 -0.132988 0.791562 -0.555096 -0.242552 0.774985 -0.539751 -0.32202 
0.761262 -0.502219 -0.399163 0.739208 -0.470147 -0.472749 0.718174 -0.43145 -0.541559 
0.689433 -0.392787 -0.603856 0.60986 -0.374225 -0.694061 0.521455 -0.382621 -0.759447 
0.422369 -0.426214 -0.799077 0.311885 -0.480507 -0.816505 0.232969 -0.548227 -0.799803 
0.18963 -0.628483 -0.752365 0.197084 -0.701613 -0.68216 0.108564 -0.883873 -0.446754 
0.145802 -0.873697 -0.458759 -0.082238 -0.886198 -0.42021 -0.34099 -0.885646 -0.291367 
-0.530955 -0.810122 -0.244191 -0.621095 -0.754906 -0.195345 -0.919722 -0.304176 0.243989 
-0.902317 -0.366834 0.214391 -0.917139 -0.261216 0.297628 -0.896681 -0.24118 0.369631 
-0.859029 -0.20369 0.466254 -0.824889 -0.183971 0.532878 -0.776142 -0.184193 0.600336 
-0.69562 -0.228703 0.676138 -0.556633 -0.32723 0.75989 -0.407119 -0.41759 0.810954 
-0.279497 -0.522653 0.801661 -0.104677 -0.507888 0.853449 0.00818161 -0.504289 0.86193 
0.12126 -0.502931 0.854723 0.224589 -0.491515 0.840245 0.318874 -0.476383 0.816864 
0.410257 -0.457883 0.785066 0.505192 -0.436059 0.738257 0.601811 -0.417041 0.672603 
0.716975 -0.363356 0.583093 0.848995 -0.323724 0.403855 0.865899 -0.331349 0.352708 
0.862249 -0.341979 0.352183 0.811369 -0.562547 0.135961 0.819212 -0.476207 0.281854 
0.73448 -0.674527 -0.0106704 -0.882763 -0.446161 0.143824 -0.845693 -0.481984 0.210745 
-0.79693 -0.57159 0.155276 -0.780383 -0.58254 0.206731 0.153327 -0.826377 -0.536201 
0.240154 -0.730106 -0.635433 0.673248 0.250877 0.694615 0.584132 0.316875 0.734974 
0.477193 0.379881 0.780016 0.338124 0.428301 0.826871 0.200016 0.448659 0.858657 
0.100685 0.4207 0.891705 0.0113941 0.327127 0.941849 -0.136323 0.314176 0.934054 
-0.0817755 0.243803 0.961475 -0.249241 0.440798 0.849768 -0.382236 0.558718 0.728097 
-0.482588 0.614303 0.618011 -0.568381 0.601959 0.553285 -0.649449 0.568195 0.503931 
-0.691623 0.539127 0.47817 -0.731794 0.494693 0.463134 -0.815891 0.39871 0.403182 
-0.901337 0.270351 0.309147 -0.960707 0.0931783 0.239272 -0.961378 0.0349433 0.265912 
-0.943675 0.00390228 0.324531 -0.911208 -0.0252987 0.408023 -0.929016 -0.0177484 0.334977 
-0.969801 -0.0128047 0.202259 -0.98909 0.0118809 -0.00247473 -0.971002 0.0632715 -0.206176 
-0.925685 0.139373 -0.340346 -0.873308 0.200636 -0.442409 -0.806154 0.264968 -0.521117 
-0.727979 0.315697 -0.600829 -0.632384 0.351644 -0.683354 -0.516957 0.374373 -0.760391 
-0.385997 0.392438 -0.832561 -0.263629 0.402698 -0.871888 -0.0718151 0.330774 -0.936967 
0.0569752 0.292448 -0.949892 0.153726 0.260013 -0.95091 0.227472 0.234246 -0.943832 
0.26592 0.223948 -0.937325 0.291414 0.220251 -0.930809 0.313467 0.235684 -0.919582 
0.318412 0.26326 -0.910075 0.305187 0.312494 -0.899258 0.305712 0.356634 -0.882122 
0.336826 0.38537 -0.857851 0.405793 0.397655 -0.821258 0.507967 0.397273 -0.756956 
0.628206 0.417633 -0.652144 0.738034 0.411016 -0.520079 0.82029 0.400482 -0.399231 
0.86058 0.374421 -0.334572 0.915159 0.364516 0.108491 0.915632 0.388614 -0.0685511 
0.90257 0.31951 0.26954 0.860027 0.27757 0.415584 0.77418 0.24763 0.564901 
0.689887 0.254845 0.67044 0.670676 0.260214 0.691614 0.674652 0.170366 0.715782 
0.639834 0.134717 0.754439 0.652681 0.0595268 0.752518 0.693448 -0.00379425 0.717766 
0.765633 -0.044256 0.6404 0.689416 -0.0369356 0.720608 0.763618 0.0255929 0.64157 
0.72063 0.097671 0.682725 0.617527 0.160194 0.760418 0.480857 0.230064 0.836724 
0.330892 0.256021 0.896136 0.204855 0.281722 0.92946 0.63074 0.0611134 0.772692 
0.648331 0.0898521 0.755585 0.608928 0.0486158 0.790789 0.6384 -0.0722295 0.762039 
0.70472 -0.157476 0.68831 0.600294 0.0209883 0.799071 0.749928 -0.157993 0.639617 
0.755241 -0.126551 0.642595 0.714967 -0.066256 0.686698 0.656268 0.000718673 0.751104 
0.502075 0.071379 0.844208 0.339509 0.129565 0.927085 0.176922 0.167205 0.962946 
0.899573 0.368084 -0.221491 0.908518 0.305129 -0.281946 0.721166 -0.682822 -0.0970135 
0.695565 -0.69275 -0.177338 0.681024 -0.681892 -0.259796 0.669879 -0.643493 -0.362936 
0.643556 -0.614801 -0.448654 0.62557 -0.572555 -0.522855 0.605597 -0.530829 -0.586868 
0.569115 -0.515886 -0.634947 0.51255 -0.522206 -0.677799 0.442153 -0.514847 -0.733702 
0.357203 -0.509149 -0.782395 0.308309 -0.540281 -0.78206 0.297049 -0.592472 -0.748166 
0.287608 -0.647776 -0.70328 0.297982 -0.641363 -0.704388 0.244688 -0.676028 -0.693959 
0.304992 -0.595549 -0.741108 0.197123 -0.75932 -0.611597 0.154595 -0.8471 -0.504975 
0.026778 -0.86484 -0.483068 -0.191999 -0.861712 -0.447432 -0.412339 -0.839764 -0.32648 
-0.503483 -0.834018 -0.210354 -0.559694 -0.815378 -0.130786 -0.752148 -0.647498 -0.0574141 
-0.609483 -0.788847 -0.0383993 -0.794083 -0.591866 0.061001 -0.68059 -0.717096 0.0974141 
-0.729486 -0.643802 0.213398 -0.763709 -0.573709 0.284118 -0.804853 -0.510385 0.289618 
-0.849367 -0.437625 0.287971 -0.880749 -0.365286 0.294154 -0.881235 -0.333331 0.330479 
-0.854734 -0.346955 0.382882 -0.823977 -0.332181 0.445728 -0.802831 -0.30766 0.503625 
-0.776439 -0.316238 0.541171 -0.72164 -0.37475 0.574502 -0.632047 -0.475492 0.608815 
-0.476443 -0.586014 0.648587 -0.313986 -0.655263 0.680053 0.0626064 -0.464969 0.882304 
-0.0373455 -0.522263 0.849439 0.197011 -0.383014 0.900495 0.31867 -0.313315 0.891375 
0.389433 -0.252453 0.881128 0.467666 -0.216849 0.851159 0.553912 -0.171663 0.812664 
0.639428 -0.141687 0.748839 0.716513 -0.105614 0.684068 0.786277 -0.0770764 0.609581 
0.818282 -0.18895 0.521481 0.811903 -0.229685 0.519093 0.817815 -0.206323 0.524561 
0.833332 -0.456194 0.275349 0.856531 -0.251362 0.423803 0.784517 -0.599106 0.128808 
0.755539 -0.647155 0.0444201 -0.115771 -0.579885 0.802059 -0.195176 -0.699023 0.682674 
0.0404847 0.13382 0.987355 0.0479107 0.227693 0.965346 -0.0792373 0.145892 0.981885 
-0.0277398 0.0508651 0.99329 -0.20222 0.27824 0.935294 -0.275382 0.359256 0.879655 
-0.371056 0.416493 0.813088 -0.49671 0.458816 0.730477 -0.598613 0.453787 0.644272 
-0.703286 0.417032 0.568884 -0.756483 0.382096 0.519451 -0.811506 0.336085 0.469626 
-0.878692 0.238854 0.383317 -0.942136 0.146797 0.274516 -0.974989 0.101522 0.17333 
-0.977524 0.0677551 0.181391 -0.954734 -0.0331252 0.282756 -0.923494 -0.0628176 0.372411 
-0.923078 -0.0790656 0.372531 -0.945324 -0.0775129 0.309158 -0.981142 -0.0516203 0.0588337 
-0.986118 0.0338172 -0.150724 -0.95018 0.102519 -0.271883 -0.912621 0.162569 -0.369641 
-0.864465 0.218926 -0.444051 -0.800797 0.271593 -0.526145 -0.719815 0.323068 -0.608227 
-0.608744 0.373836 -0.689503 -0.466262 0.398041 -0.782687 -0.289232 0.339143 -0.882153 
0.108294 0.241937 -0.961413 0.0245184 0.254183 -0.959781 0.17608 0.221487 -0.957107 
0.236769 0.198073 -0.950035 0.277243 0.169062 -0.94518 0.295019 0.152852 -0.942852 
0.294694 0.159869 -0.941517 0.284905 0.186497 -0.938123 0.265053 0.227356 -0.936189 
0.306735 0.270016 -0.909399 0.386453 0.29859 -0.86956 0.491909 0.266875 -0.823668 
0.609896 0.248804 -0.741057 0.722518 0.24318 -0.641984 0.80671 0.265201 -0.511406 
0.86672 0.289981 -0.401128 0.885649 0.298301 -0.348578 0.906767 0.222052 -0.349027 
0.93786 0.202255 -0.264102 0.923666 0.0895106 -0.357856 0.946734 0.281097 -0.100026 
0.939698 0.319228 -0.0315475 0.933848 0.317274 0.120641 0.909503 0.275069 0.291295 
0.866437 0.218357 0.438971 0.792415 0.190641 0.568138 0.711371 0.191225 0.67382 
-0.0833573 0.260712 -0.957654 -0.233553 0.225956 -0.937954 0.136473 0.0731959 0.98127 
0.0325508 -0.0365598 0.995623 -0.0992877 -0.0341709 0.988902 0.0123158 -0.149942 0.98529 
-0.153513 0.0795448 0.982608 -0.209001 0.172679 0.953732 -0.296169 0.264369 0.911483 
-0.362582 0.255689 0.885759 -0.465913 0.236395 0.837505 -0.587559 0.186409 0.765615 
-0.713729 0.141578 0.684082 -0.771568 0.13734 0.6145 -0.83035 0.127012 0.537113 
-0.888042 0.0940387 0.433349 -0.941102 0.0230126 0.318189 -0.975522 -0.0508599 0.188529 
-0.979957 -0.126552 0.131812 -0.944426 -0.12936 0.288235 -0.899869 -0.162279 0.400672 
-0.907494 -0.170175 0.372481 -0.93528 -0.166031 0.289904 -0.975388 -0.119088 0.127432 
-0.989914 -0.0687643 -0.0367833 -0.974432 -0.018372 -0.182496 -0.948527 0.0435419 -0.300056 
-0.916032 0.115369 -0.376722 -0.856781 0.183016 -0.469433 -0.783602 0.240537 -0.569581 
-0.681132 0.275009 -0.663163 -0.586926 0.263631 -0.75358 -0.41387 0.185559 -0.875745 
-0.231326 0.0734339 -0.950403 -0.0327199 0.0668566 -0.991819 -0.20347 -0.0418707 -0.970818 
0.00771514 0.141027 -0.984939 0.0455578 0.186106 -0.974778 0.129916 0.180722 -0.973365 
0.201032 0.161994 -0.963421 0.262934 0.139043 -0.954597 0.290117 0.12991 -0.947786 
0.308348 0.116618 -0.943927 0.311026 0.0602134 -0.947424 0.301876 0.00387928 -0.951877 
0.272872 -0.0257409 -0.95994 0.307121 -0.0388499 -0.942456 0.420788 0.0269116 -0.895748 
0.540744 0.0492136 -0.833478 0.632317 0.052093 -0.763341 0.720985 0.0572045 -0.686928 
0.8027 0.0804666 -0.576771 0.877039 0.131504 -0.451108 0.901345 -0.00302655 -0.420805 
0.938241 -0.0199085 -0.340484 0.888761 -0.0983256 -0.441428 0.963603 0.0813342 -0.204301 
0.968049 0.205627 -0.131092 0.958796 0.252495 0.0362979 0.952972 0.228435 0.144244 
0.92827 0.19072 0.300841 0.868478 0.141087 0.461735 0.770213 0.0819568 0.623064 
0.716813 -0.685024 -0.0758375 0.673679 -0.703445 -0.217258 0.639714 -0.693671 -0.323799 
0.610972 -0.680859 -0.402041 0.582469 -0.665245 -0.463727 0.553713 -0.646172 -0.523787 
0.534536 -0.618162 -0.574524 0.502324 -0.591657 -0.628356 0.46474 -0.559372 -0.685923 
0.412057 -0.538654 -0.733359 0.372642 -0.51814 -0.769052 0.350114 -0.50239 -0.790485 
0.354422 -0.516863 -0.779058 0.351613 -0.547792 -0.7579 0.342934 -0.573523 -0.742744 
0.339494 -0.530993 -0.773832 0.282188 -0.50339 -0.810139 0.346347 -0.371234 -0.857632 
0.220462 -0.622522 -0.748444 0.169285 -0.676408 -0.711909 0.0487873 -0.726936 -0.682606 
-0.147398 -0.775385 -0.586477 -0.32718 -0.808459 -0.479408 -0.436494 -0.827105 -0.333336 
-0.513312 -0.828127 -0.205487 -0.575602 -0.80914 -0.104528 -0.647847 -0.752654 0.00502613 
-0.688689 -0.708113 0.123962 -0.69375 -0.678501 0.228809 -0.709817 -0.638016 0.294886 
-0.707304 -0.622025 0.333457 -0.743051 -0.569029 0.34102 -0.778512 -0.530346 0.330549 
-0.811755 -0.490669 0.314316 -0.797649 -0.508066 0.317539 -0.773351 -0.50443 0.379597 
-0.704029 -0.56271 0.42133 -0.664012 -0.613636 0.416914 -0.604575 -0.677988 0.416413 
-0.521898 -0.705469 0.473887 -0.434094 -0.723749 0.530516 -0.342814 -0.743146 0.569928 
-0.232167 -0.732163 0.637227 -0.0678922 -0.67084 0.735218 -0.108397 -0.665038 0.735798 
-0.0366134 -0.665589 0.741842 0.045178 -0.594432 0.799279 0.145171 -0.504887 0.842295 
0.294879 -0.34716 0.883326 0.430312 -0.141659 0.886724 0.489619 -0.0128384 0.869504 
0.527629 0.0630541 0.844528 0.594849 0.0945578 0.796729 0.657385 0.0546542 0.748879 
0.711052 0.0157111 0.702248 0.728369 -0.028169 0.681649 0.73212 -0.0602135 0.676525 
0.768898 -0.118699 0.622505 0.813306 -0.0963829 0.569421 0.853636 -0.0648598 0.505675 
0.913732 -0.247614 0.307495 0.903904 -0.064579 0.408517 0.863772 -0.390292 0.289221 
0.849795 -0.483905 0.14348 0.806218 -0.579153 -0.0286909 -0.312008 0.124055 0.930881 
-0.532176 0.0595506 0.838722 -0.642586 0.0143336 0.75556 -0.732328 -0.0188994 0.679381 
-0.783104 -0.0610105 0.610599 -0.834929 -0.105632 0.536114 -0.889144 -0.158032 0.404833 
-0.933976 -0.212225 0.281337 -0.931578 -0.28438 0.204653 -0.9213 -0.355532 0.152521 
-0.902102 -0.215343 0.371662 -0.933148 -0.237393 0.250125 -0.89944 -0.212051 0.378845 
-0.941467 -0.150839 0.285698 -0.97296 -0.0958711 0.0984996 -0.992941 -0.045848 -0.0814161 
-0.976036 -0.0273092 -0.189307 -0.95415 -0.00573059 -0.289956 -0.918793 0.0276515 -0.379695 
-0.867244 0.0578791 -0.48398 -0.792493 0.0703424 -0.592345 -0.69325 0.0735294 -0.702872 
-0.570555 0.0517993 -0.798939 -0.471263 0.00969036 -0.870134 -0.40911 -0.0700363 -0.885414 
-0.262106 -0.120957 -0.945207 -0.067892 -0.112488 -0.985133 -0.100217 -0.170289 -0.967781 
-0.0466456 -0.0595822 -0.984256 0.0780688 0.00926748 -0.988231 0.157268 0.0173735 -0.984081 
0.209036 0.0167293 -0.976381 0.254224 0.0101002 -0.965393 0.2928 0.0185586 -0.955091 
0.327375 -0.0245574 -0.943395 0.360598 -0.0587927 -0.930638 0.357396 -0.0980156 -0.927689 
0.327249 -0.145682 -0.932834 0.280854 -0.162674 -0.945137 0.288778 -0.180739 -0.938841 
0.603223 -0.146948 -0.782369 0.50585 -0.152818 -0.843332 0.691289 -0.134805 -0.701591 
0.787752 -0.110383 -0.604178 0.857111 -0.0702278 -0.501287 -0.949294 -0.259105 0.163926 
-0.90112 -0.399904 0.165195 0.824864 -0.158416 -0.537096 0.896103 -0.145172 -0.410919 
0.829782 -0.235549 -0.496799 0.936439 -0.0935467 -0.324459 0.986827 -0.0181 -0.131915 
0.978042 0.125628 0.0829161 0.749967 -0.615845 -0.200017 0.703093 -0.635625 -0.312744 
0.667794 -0.644844 -0.366271 0.632194 -0.65531 -0.411499 0.596571 -0.652701 -0.463275 
0.561493 -0.643744 -0.518496 0.522155 -0.635881 -0.566118 0.486077 -0.606679 -0.626953 
0.445369 -0.559506 -0.697059 0.386527 -0.49633 -0.77595 0.363284 -0.461113 -0.809338 
0.366708 -0.456106 -0.810388 0.385099 -0.459134 -0.799873 0.378128 -0.468277 -0.796133 
0.349509 -0.260392 -0.897858 0.264916 -0.223285 -0.935538 0.316451 -0.159642 -0.934553 
0.249286 -0.348508 -0.898013 0.186499 -0.502123 -0.835919 0.0649122 -0.607027 -0.783042 
0.0150654 -0.647857 -0.75504 -0.126881 -0.677877 -0.711088 -0.280692 -0.709755 -0.630338 
-0.436881 -0.729955 -0.503251 -0.566476 -0.721664 -0.373655 -0.721883 -0.652099 -0.209315 
-0.760551 -0.635956 -0.0274363 -0.763377 -0.62663 0.121515 -0.722936 -0.636699 0.244513 
-0.703465 -0.62928 0.328638 -0.707854 -0.602898 0.365957 -0.723663 -0.577871 0.375132 
-0.756439 -0.550569 0.349944 -0.780969 -0.543681 0.303562 -0.782718 -0.560005 0.269268 
-0.714516 -0.62797 0.304097 -0.641181 -0.693242 0.323081 -0.614688 -0.715174 0.32773 
-0.592424 -0.731157 0.337825 -0.528537 -0.751868 0.390128 -0.45697 -0.754295 0.466626 
-0.35948 -0.748504 0.551436 -0.249164 -0.708005 0.652739 -0.19997 -0.652727 0.725514 
-0.0642478 -0.614024 0.781538 -0.0902568 -0.547633 0.82775 0.027697 -0.615157 0.787103 
0.125995 -0.575497 0.799488 0.225436 -0.512156 0.826158 0.333269 -0.427542 0.830622 
0.441182 -0.333715 0.825611 0.556589 -0.189161 0.805207 0.583566 0.00224098 0.807557 
0.577793 0.102858 0.807931 0.578697 0.140245 0.803154 0.621005 0.104841 0.775451 
0.649276 0.078495 0.754613 0.663395 0.012199 0.743312 0.692142 -0.0293107 0.715386 
0.703899 0.00842761 0.703503 0.750932 0.0244752 0.654516 0.827041 0.0200153 0.557045 
0.903491 0.0133826 0.406017 0.954409 -0.0806472 0.213793 0.968157 -0.00241253 0.169385 
0.923051 -0.295944 0.131618 0.670557 0.0295667 0.738997 0.620172 0.00675141 0.783163 
0.585251 0.0330583 0.810062 0.583219 0.10418 0.805064 0.628635 0.0482418 0.771923 
0.694129 -0.0760831 0.714209 0.733524 -0.185303 0.65172 0.735709 -0.206222 0.644109 
0.6722 -0.195349 0.703549 0.560594 -0.161543 0.798401 0.343382 -0.0501801 0.919187 
0.203695 0.0282478 0.974633 0.166783 -0.131173 0.966335 0.0571665 -0.25331 0.961504 
-0.110804 -0.285045 0.945998 -0.00996818 -0.404458 0.903717 -0.137999 -0.147436 0.974462 
-0.294717 -0.00405216 0.940165 0.801805 -0.485867 -0.340692 0.8619 -0.42247 -0.230276 
0.722136 -0.534983 -0.428939 0.665424 -0.561752 -0.489028 0.607387 -0.584377 -0.534291 
0.567609 -0.58273 -0.580414 0.530037 -0.566414 -0.628005 0.485073 -0.555218 -0.673912 
0.441397 -0.537965 -0.71683 0.387127 -0.485708 -0.780674 0.337871 -0.331132 -0.879988 
0.389694 -0.306421 -0.867452 0.386968 -0.287085 -0.875124 0.235966 -0.0865996 -0.966417 
0.276683 -0.0584492 -0.958354 0.304828 -0.0890777 -0.946959 0.242335 -0.149616 -0.95633 
0.177264 -0.216679 -0.958518 0.130702 -0.344903 -0.917981 0.0719649 -0.479849 -0.866087 
-0.0604315 -0.545068 -0.829467 -0.194623 -0.529013 -0.811378 -0.40587 -0.570928 -0.70296 
-0.539654 -0.577517 -0.591995 -0.645248 -0.564323 -0.499591 -0.718682 -0.496392 -0.462014 
-0.86986 -0.476881 -0.0128398 -0.88512 -0.427625 -0.13393 -0.835125 -0.52286 0.111869 
-0.789348 -0.552174 0.246255 -0.744228 -0.559111 0.35501 -0.741145 -0.536537 0.401156 
-0.77496 -0.519097 0.357507 -0.79406 -0.531641 0.287684 -0.806529 -0.544894 0.222736 
-0.742339 -0.629193 0.215137 -0.616389 -0.729103 0.295536 -0.673438 -0.687507 0.264772 
-0.582244 -0.740519 0.334832 -0.549488 -0.730592 0.399887 -0.496924 -0.726252 0.473826 
-0.43087 -0.702703 0.55804 -0.359449 -0.679833 0.635222 -0.249095 -0.582157 0.767054 
-0.165074 -0.455715 0.864707 -0.858106 -0.410095 -0.275967 -0.844702 -0.335556 -0.387317 
0.373042 -0.182388 -0.907323 0.326543 -0.227642 -0.916536 0.927288 0.0818371 0.351093 
0.855997 0.0395545 0.500746 0.787096 0.0170071 0.61398 0.733339 0.02614 0.675969 
0.672409 0.0405774 0.736598 0.605363 0.0915143 0.788337 0.606619 0.0658134 0.791033 
-0.36824 -0.104463 0.917276 -0.516405 -0.149767 0.823533 -0.670931 -0.173486 0.712653 
-0.730983 -0.217229 0.635934 -0.775835 -0.272331 0.554713 -0.822828 -0.303896 0.459333 
-0.856975 -0.354322 0.35835 -0.864734 -0.405152 0.266026 -0.836609 -0.505419 0.196562 
-0.881983 -0.427104 0.18947 -0.911199 -0.337957 0.223151 -0.894 -0.320094 0.2976 
-0.873257 -0.299871 0.376247 -0.868 -0.281573 0.404106 -0.877598 -0.263817 0.383072 
-0.927193 -0.247227 0.233985 -0.963621 -0.22529 0.0454772 -0.960614 -0.202041 -0.131969 
-0.95493 -0.163519 -0.238075 -0.937873 -0.136404 -0.308047 -0.898761 -0.114021 -0.409503 
-0.842793 -0.100057 -0.51222 -0.771094 -0.0949213 -0.621536 -0.674926 -0.103174 -0.714548 
-0.567908 -0.119024 -0.808511 -0.42441 -0.136547 -0.881318 -0.273836 -0.172051 -0.924562 
-0.267048 -0.262022 -0.91245 0.0401178 -0.159731 -0.980732 -0.090286 -0.259033 -0.955658 
0.0770351 -0.113713 -0.985292 0.0902037 -0.0763265 -0.985839 0.151451 -0.0387344 -0.985585 
0.181394 -0.0588066 -0.979741 0.280088 -0.266916 0.916869 0.151375 -0.380676 0.902946 
0.0701025 -0.505275 0.857318 0.0978784 -0.559634 0.815674 0.133246 -0.585591 0.793415 
0.205751 -0.565554 0.797593 0.407221 -0.427014 0.804022 0.604819 -0.248407 0.748234 
0.691759 -0.188744 0.691097 0.657851 -0.00841297 0.749682 0.610364 0.0959342 0.784114 
0.362524 -0.119048 -0.923203 0.387987 -0.149932 -0.909008 0.361192 -0.169643 -0.916019 
0.307328 -0.208138 -0.927249 0.290536 -0.222313 -0.929919 0.337948 -0.288698 -0.890132 
0.449566 -0.289525 -0.843873 0.362901 -0.392796 -0.840826 0.419536 -0.235859 -0.869941 
0.503614 -0.234636 -0.824727 0.594527 -0.233219 -0.767435 0.667326 -0.2328 -0.703496 
0.751897 -0.204299 -0.620412 0.712897 -0.352294 -0.597945 0.774183 -0.398606 -0.483915 
0.716538 -0.463158 -0.515212 0.850097 -0.296639 -0.428507 0.924463 -0.207911 -0.289532 
0.701104 -0.233953 0.671774 0.614706 -0.295847 0.725888 0.411415 -0.34473 0.827683 
-0.359097 -0.33988 0.852099 -0.845503 -0.421529 0.311699 -0.819394 -0.395145 0.413955 
-0.812251 -0.411815 0.407046 -0.818072 -0.427516 0.369566 -0.853757 -0.430357 0.251282 
-0.899753 -0.39931 0.0726917 -0.932609 -0.332125 -0.0842756 -0.934458 -0.275316 -0.198726 
-0.912862 -0.233292 -0.315336 -0.860134 -0.194651 -0.460724 -0.785889 -0.17603 -0.577325 
-0.722216 -0.172021 -0.666984 -0.412455 -0.244897 -0.865224 -0.415943 -0.177583 -0.889139 
0.150386 -0.154468 -0.971657 0.0468567 -0.232757 -0.961259 0.183289 -0.10327 -0.976656 
-0.504307 -0.400457 0.752551 -0.596343 -0.425756 0.665074 -0.658635 -0.460727 0.577169 
-0.694193 -0.508304 0.493105 -0.721316 -0.538326 0.411594 -0.750076 -0.564383 0.320527 
-0.776895 -0.567302 0.264162 -0.704554 -0.651475 0.271839 -0.653894 -0.690946 0.304324 
-0.625667 -0.690472 0.351896 -0.598287 -0.67211 0.424634 -0.55929 -0.641535 0.513798 
-0.496214 -0.604056 0.614869 -0.38536 -0.574894 0.710831 -0.28213 -0.520573 0.798341 
0.510958 -0.321744 -0.789782 0.579303 -0.346274 -0.733042 0.639838 -0.346377 -0.68004 
-0.023054 -0.348446 -0.924116 -0.0446744 -0.43673 -0.891669 -0.177672 -0.366208 -0.902056 
-0.579887 -0.430714 -0.677771 -0.470737 -0.422253 -0.758179 -0.672669 -0.420762 -0.597 
-0.740724 -0.396181 -0.520813 -0.803279 -0.281908 -0.506692 0.446595 -0.454951 -0.764314 
0.666578 -0.518346 -0.532309 0.648868 -0.498527 -0.573146 0.588299 -0.480813 -0.644631 
0.277187 -0.473336 0.827135 0.526855 -0.47776 -0.700417 -0.645933 -0.279477 -0.692461 
-0.543726 -0.275799 -0.779923 -0.73741 -0.274855 -0.609451 -0.756451 -0.620109 -0.17409 
-0.830891 -0.544394 0.0044057 0.126196 0.305163 0.935704 0.912916 -0.375095 -0.0752266 
0.98035 -0.126567 -0.0549767 -0.501925 -0.17647 -0.832859 -0.608333 -0.173427 -0.75421 
-0.383678 -0.359904 -0.82931 
Radius 1 1114 double
0.15 0.15 0.83733595048 0.96914055621 0.15000073901 0.95248302835 0.14999996558 0.94751076848 0.14999903228 
0.85209346803 0.15000017533 0.70666254008 0.15000102633 0.66984131388 0.14999945236 0.69452732999 0.14999941547 0.69350607654 
0.15 0.7034456771 0.14999972934 0.75111210575 0.14999909816 0.8153239098 0.15 0.98646963514 0.15 
1.0598418668 0.15 1.1114325972 0.15 1.0713748051 0.15 1.078970511 0.14999995431 1.0993480183 
0.14999997492 1.1545674243 0.15000009574 1.2550783834 0.15 1.3870360144 0.15 1.4967805718 0.15 
1.4661742835 0.15 1.4064786333 0.15 1.2591863443 0.15 1.0392450281 0.15 1.1135153345 
0.15 1.0909609124 0.15 0.99481111858 0.15 0.91071873565 0.15 0.87817948339 0.15 
0.86066733379 0.15 0.89187628475 0.15 0.88415095978 0.15 0.82960018643 0.15 0.79284285432 
0.15 0.79775257734 0.15 0.88964723571 0.15 1.0141540783 0.15 0.95523003995 0.15 
0.94382969826 0.15 1.048006827 0.15 0.15 1.498388944 1.4842154783 0.15 1.4898968742 
0.15 1.3100885639 0.15 1.2102355823 0.15 1.1936727566 0.15 1.1778744845 0.15 
1.1995409263 0.15 1.2765924595 0.15 1.3664897762 0.15 1.4551053281 0.15 1.563747075 
0.15 1.6698725858 0.15 1.7731078164 0.15 1.8700026874 0.15 1.7082606914 0.15 
1.5699729715 0.15 1.4587814963 0.15 1.4527362775 0.15 1.4145466586 0.15 1.348609104 
0.15 1.25621667 0.15 1.2158447426 0.15 1.2495139974 0.15 1.3763358718 0.15 
1.2895072318 0.15 1.3137326661 0.15 1.2405848276 0.15 1.2001438822 0.15 1.3392642479 
0.15 1.4369372282 0.15 1.5205180062 0.15 1.5957600491 0.15 1.6389916037 0.15 
1.5845525774 0.15 1.7406813746 0.15000009765 1.8645449395 0.15000056041 1.8223885846 0.15000044358 1.7569519887 
0.15 1.6896279138 0.15 1.4740408426 0.15 1.2861630654 0.15 1.1001540382 0.15 
0.9637507457 0.15 0.8350565528 0.15 1.0659590331 0.15 1.2374043097 0.15 1.3861138849 
0.15 1.4729455501 0.15 1.521017827 0.15 1.5678634237 0.15 1.6022487912 0.15 
1.4576016988 0.15 1.3361574145 0.15 1.3233125071 0.15 1.3152230251 0.15 1.3062033742 
0.15 1.3974782314 1.1990871138 1.1806662566 1.2542927496 1.0997332273 0.85873096616 0.74423426805 0.70202898445 
0.71561474809 0.75206303482 0.81988005438 0.96154412702 1.1998216181 1.4716741054 1.4865495532 1.4071496254 1.335245575 
1.3030286457 1.3006828036 1.3715669069 1.5553406437 1.7144443214 1.743722028 1.6341731333 1.5149965637 1.3346073501 
1.4313739851 1.415986285 1.3290156321 1.1910782198 1.0748788728 1.0120467115 1.022370376 1.0017171791 0.97555428105 
0.98056452864 1.0480164104 1.2057341801 1.4841769075 1.6660367579 1.7225480437 1.6438613853 1.3516061361 1.4842378709 
1.5279442955 1.4408731907 1.3448311159 1.2576821077 1.3051094229 1.4009401748 1.4540899741 1.5188612298 1.600415333 
1.6399952569 1.7282397374 1.798144082 1.8817477899 1.7438455304 1.5617313602 1.4383957311 1.3977167386 1.3259952491 
1.2603840983 1.2052332191 1.2213858681 1.3322971458 1.465108615 1.5363169628 1.4926875651 1.5071309696 1.4352412189 
1.3732046529 1.3762801125 1.4691972738 1.5575970852 1.6415358482 1.6791513458 1.8772156206 2.0193820396 2.1045689927 
2.0124992424 1.8614194195 1.6318147867 1.4401517367 1.3392554343 1.2008644892 1.0843926494 1.2266033372 1.3282756837 
1.4855254483 1.5781728032 1.5816995042 1.6193706152 1.6401757025 1.5550099588 1.5011988433 1.49060959 1.4897348976 
1.472700874 1.5264833311 1.5769707974 1.6319917759 1.6983452034 1.0290961715 1.2112282504 0.97181982434 0.94473665226 
0.89636449578 0.95580549283 1.0462114224 1.1862645022 1.4388426487 1.7928247513 1.8484585336 1.7674869077 1.5853425318 
1.4328066278 1.3954492187 1.4176596886 1.5438899548 1.6975560783 1.8222631958 1.6846291938 1.6052657054 1.7707519671 
1.7085947937 1.7568380472 1.6190024161 1.4687363552 1.3439527695 1.2479181564 1.1984843338 1.18924816 1.1861076444 
1.258890817 1.364800475 1.5605260706 1.9507489787 2.002667698 1.9309971187 1.8011480912 1.4743671194 1.3411788493 
1.3863649702 1.668697541 1.6098185207 1.7380901287 1.8521686761 1.7213285596 1.5584469668 1.4432359745 1.3947856578 
1.4764594009 1.5552890387 1.6395923855 1.9114682138 1.7696496989 2.0401213598 2.1342148821 2.0374752673 1.8792356658 
1.5731339669 1.4616703183 1.496141024 1.3688863965 1.2754719463 1.3083794013 1.4095704135 1.555587387 1.6064134445 
1.590908337 1.6259382328 1.657556992 1.631521082 1.6134884765 1.6519137534 1.5918043501 1.5234469603 1.6078897383 
1.6476988864 1.5815199183 1.4722087813 1.3119027258 1.2864621572 1.235122193 1.3952786341 1.5092672505 1.5723622393 
1.6553415653 1.7052407099 1.6941305272 1.7295732157 1.7904970576 1.893256522 1.8456466348 1.6889367158 1.4937931138 
1.4228262105 1.3423470942 1.2453438293 1.2703130689 1.3019923489 1.3245290337 1.3707374814 1.5838040361 1.7968650913 
2.0815502736 2.0036059969 1.6828842318 1.6795411636 1.864819717 1.7536545248 1.921819174 1.9365994154 1.8967469559 
1.7569674922 1.6033432847 1.4326990217 1.3425264998 1.2759505027 1.3103686521 1.3303156247 1.3843897481 1.4549431614 
1.5648316158 1.7155414169 1.7888369418 1.8720150999 1.6590146753 1.4684211967 1.3224569903 1.3737690718 1.3055586082 
1.38013406 1.2792169727 1.2319759606 1.1824117643 1.1603954396 1.2153062405 1.365151442 1.5777880282 1.8882512515 
2.0792673459 1.971561681 1.7511603129 1.5491807249 1.5070529527 1.5169629058 1.5941965188 1.7074853175 1.8256337184 
1.709148557 1.5490654277 1.5219058787 1.5627019875 1.874878902 1.6874130088 1.9457312738 1.5554685533 1.6393669574 
1.8373264361 1.8462151883 1.9009287491 1.71527505 1.8123682776 1.590324485 1.4577856073 1.4827298077 1.548905091 
1.6450335928 1.7991431099 1.7826587191 1.9250525691 1.698530178 1.7064280132 1.7821732728 1.8008350163 1.8327983935 
1.7850207672 1.6945521434 1.4504309152 1.5099583579 1.7235083463 1.6039277717 1.4323293006 1.3896555909 1.4488020229 
1.5888912512 1.6097672011 1.5794549748 1.6498231507 1.7008101422 1.6634330408 1.6612777176 1.7093068519 1.6681789589 
1.5770266699 1.679375314 1.7040978736 1.6275544872 1.4696724593 1.2600002888 1.2156468165 1.2369831203 1.3972764364 
1.5217275806 1.6240680915 1.6490323609 1.6729225716 1.6506715653 1.6994407979 1.7595820709 1.9198483791 1.9709782154 
1.9012379232 1.4985702872 1.5781330069 1.4099189245 1.3058754303 1.2967965609 1.3115424353 1.33457196 1.4149213744 
1.5677035417 1.7398808869 1.8657191831 2.2417132321 2.026544837 2.2308334942 2.0884732448 1.7555291324 1.5687452746 
1.5964443683 1.6436563305 1.761305303 1.6389826583 1.8883341628 1.9895692337 2.2042656799 2.0855287635 2.3631866299 
2.4269953319 2.2202552926 1.8827762019 1.7354068991 1.6807403896 1.7996585737 1.7463637142 1.8726799268 2.0012182427 
1.9497821055 1.8821646 1.7783132584 1.6184942039 1.4488469973 1.3523416699 1.3355399169 1.3642005637 1.3677546208 
1.418191506 1.4658820242 1.4598749895 1.5442115285 1.5903922525 1.7219608342 1.5605744555 1.7906599725 1.774271579 
1.6756264221 1.5568440964 1.4419719221 1.4468233222 1.5011246487 1.6499843544 1.7507865668 1.7662447876 1.8810320362 
1.9880651978 1.9717114992 1.7604962265 1.5494844467 1.458350744 1.4124085972 1.3930591017 1.3772018415 1.2925145902 
1.2865334262 1.4361904998 1.7075656601 1.8966123796 2.1111660999 1.8030126479 1.9798462398 1.6565850305 1.5789993491 
1.5997894375 1.6557547188 1.7301277041 1.7341213568 1.6771509876 1.5982456928 1.628879153 1.5642518995 1.5777135929 
1.7434652919 1.6678308582 1.8686317084 1.9664471224 2.155643271 2.191505568 2.0083271388 1.8655051726 2.0076394034 
2.0237607003 1.8781579612 1.7888000814 1.7200475189 1.6000139366 1.5727371501 1.5240717159 1.5137377138 1.4640265657 
1.3202626806 1.4512984129 1.8611025303 1.7536460447 1.5154717587 1.4092608548 1.4945998995 1.6455430166 1.6460290655 
1.7065436789 1.7552207968 1.7600598625 1.708951194 1.6987578431 1.763579515 1.7302551356 1.6651655612 1.6696528809 
1.5632902657 1.6251440364 1.3911975142 1.2310820317 1.2355643524 1.2756445129 1.4190975438 1.4978077738 1.5114877244 
1.4868010734 1.4865137829 1.5393084306 1.6265533137 1.7319616277 1.8988471617 2.0155861594 1.9538671468 1.9484391747 
1.8621909167 1.9025273838 1.8173686374 1.6933548423 1.606538458 1.4688086123 1.3397291133 1.3799392309 1.4361521845 
1.6788208632 1.7204798403 1.899965987 1.974035504 2.030375392 1.9130977457 2.048427674 1.8761236261 1.7106408111 
1.6033732563 1.4829632792 1.4446413941 1.4123767089 1.4249546059 1.4271942972 1.3877777766 1.5004449319 1.9166573632 
2.0721880791 1.7911335046 1.448808874 1.5638462992 1.726599284 1.7450174375 1.778523981 1.8103246612 1.809413422 
1.7304106243 1.6750549168 1.6449565204 1.6609055556 1.6455481212 1.7259011297 1.7765140821 1.7285536959 1.8039252167 
1.6373347618 1.5519191464 1.4659823633 1.3566443713 1.2303850842 1.2262585324 1.2429413781 1.324533726 1.37770976 
1.3938979877 1.3550707758 1.3553907029 1.4900331597 1.62693395 1.7679306234 1.8836568766 1.9755021176 1.9223030515 
1.8948616829 1.8824746676 1.8212723617 1.7870971941 1.7712983174 1.7273378658 1.6290979748 1.5363015709 1.5981231027 
1.9899072403 1.9360728596 1.8861564132 1.8016274222 1.6360498804 1.4801901075 1.3516117701 1.2867810761 1.2568453399 
1.3297159531 1.3690567927 1.3854862016 1.3787452962 1.4317756865 1.4918880883 1.4131937509 1.516501218 1.3661954428 
1.715933005 1.7900020327 1.8368550595 1.702315007 1.5531846491 1.5593075938 1.620825443 1.7075548725 1.8432360129 
1.9580536656 2.0424752441 2.0210705397 1.8403939591 1.6424800379 1.5040511658 1.4877636698 1.5501689421 1.5900870646 
1.4517144559 1.372972751 1.4672604988 1.7372288478 1.8829531041 1.9746035517 2.0662230801 2.0477470086 2.0735211856 
2.001118372 1.9254242316 1.7905031688 1.679869532 1.6519475842 1.681215284 1.7216197393 1.7619363594 1.8545101754 
1.861029839 1.8385661167 1.8310653682 1.6884056331 1.5933212206 1.645884412 1.7457106218 1.7389560779 1.7537116293 
1.7764616965 1.8811740419 1.7307423 1.4879991949 1.459246386 1.4248885513 1.4616188907 1.5135409067 1.460474163 
1.4632458707 1.7781948177 2.0314022689 1.4886182728 1.7693996526 1.6148768009 1.7168664282 1.759133285 1.8040902061 
1.8402692032 1.8458174185 1.7861556652 1.755387955 1.7677796424 1.7856634513 1.7920830615 1.790681845 1.7905845583 
1.7557975627 1.7396688001 1.6960922719 1.7262282271 1.637337814 1.5431599598 1.4607265856 1.3758010322 1.2897895934 
1.2942814066 1.297799504 1.2987260943 1.3117028544 1.3463434175 1.2853693535 1.4293191378 1.300849627 1.5976775986 
1.7790300127 1.8804017286 2.0319613985 1.9901823578 1.8076685567 1.8632305081 1.8442300256 1.8245885975 1.6606667016 
1.6719283002 1.9134069198 1.8815343523 1.8737660189 1.8545720195 1.6699074109 1.5008728761 1.3647055113 1.245362245 
1.0966080597 1.1774355638 1.2746276255 1.3152062707 1.2992630564 1.3317535722 1.2944612197 1.418995216 1.4311427568 
1.518968247 1.6616736597 1.7208554028 1.7619458161 1.6542418425 1.5994428669 1.6458958935 1.7004481448 1.7520042533 
1.8850987997 1.9952337747 2.0769916387 2.0398472215 1.8995602497 1.7513438973 1.6005679905 1.5985368838 1.6713802646 
1.7472723458 1.6439002282 1.5460113204 1.4673997568 1.6520524789 1.7802715529 1.8083975232 1.8645149672 1.9935812707 
2.0001428781 1.9771529792 1.9918303978 1.9507870892 1.8901305195 1.8451921685 1.8188141641 1.8509784658 1.8845756548 
1.8746338177 1.8999556517 2.0109421393 2.0346092168 2.0328886429 1.8973688893 1.7461920652 1.6615851364 1.648250622 
1.7266139557 1.7082677236 1.7295777968 1.7420530559 1.754316887 1.8687322423 1.9969436003 2.0166256529 2.064969085 
2.2762862913 2.3934098197 2.4346734688 2.1712935672 1.8824827001 1.7514665931 1.7487584577 1.7875723538 1.8053164202 
1.8294847968 1.8680208102 1.9008154751 1.8423496891 1.8606736227 1.7935000949 1.8478480748 1.8306827629 1.673009155 
1.5212988904 1.3900710334 1.2327719394 1.0441071229 1.05919183 1.1458170546 1.2414624676 1.2606449544 1.4635725357 
1.3556684862 1.3718243916 1.5652520085 1.5870206286 1.6046358689 1.634478853 1.6567955325 1.6244322216 1.5747604695 
1.6198188942 1.6760347799 1.7244485483 1.9610307373 1.9324336776 2.0076718404 1.9786745024 1.8723521502 1.7130345949 
1.5266144461 1.5641008804 1.7491092475 1.9553200111 1.6205659324 1.7720128089 1.5008273069 1.5480316847 1.6823266258 
1.6897671557 1.7199973163 1.8165641042 1.8644646762 1.8179172816 1.7497162341 1.1584793473 1.12771877 1.746046227 
1.6727940266 1.6232800285 1.6927503434 1.7792596238 1.9025866449 2.1106598574 1.486727557 1.381533165 1.3952449781 
1.3913274364 1.3716623838 1.3997432218 1.4686314321 1.7330205926 1.9766890886 1.8713476494 1.8910468017 1.7050254659 
1.5432689849 1.6309437376 1.6955535319 1.7206568973 1.7758941439 1.8251529226 1.7930232003 1.758821654 1.7815889479 
1.8232689963 1.8416725919 1.8095938183 1.7672648065 1.7369659924 1.6969859437 1.5962829386 1.6890440605 1.5906349795 
1.6578258946 1.636796492 1.5783230466 1.534373477 1.6788765651 1.7657811423 1.8902132961 1.8858813015 1.882276243 
1.8081129264 1.8340571272 1.9775301341 2.2923225043 2.1002560043 2.0019087151 1.368587977 1.3332593809 1.282585647 
1.260824808 1.2258421942 1.1164426499 1.0221822476 1.0053235975 1.1068618387 1.1809910903 1.2657779476 1.4130765995 
1.6127230036 1.5988893004 1.8445642941 1.748756355 1.860431727 1.8064217029 2.2622008733 2.0934280829 1.8535587382 
1.5488631657 1.6258988943 1.5424930312 1.6292162052 1.7274633385 1.8224580081 1.8409029054 1.7655115824 1.7335847012 
1.7403831186 1.7296095082 1.7926016181 1.8226817088 1.640406135 1.692738655 1.6604590177 1.6063835999 1.6268360755 
1.4199252236 1.4654347191 1.4596979267 1.4345985568 1.4913613587 1.6061415361 1.703986506 1.7647753888 1.6414964287 
1.5336369836 1.5362640885 1.6106111565 1.6290932402 1.6049192337 1.6651783146 1.0856615165 1.1724468569 1.3628312836 
1.5795056 1.6021600211 1.5556964708 1.639762305 1.6109809327 1.674109597 1.7117901461 1.7144415395 1.041276359 
1.669099302 1.5532817114 1.3936389487 1.7926151136 1.2021989415 1.6951555409 1.6631011704 1.7232197394 1.5176979985 
1.4755760737 1.6928045483 1.7156581694 1.6518998432 1.7210201591 1.7709745254 1.585026737 
STJ 1 1114 double
0 0 0 0 0 0 0 0 0 
0 0 0 0 0 0 0 0 0 
0 0 0 0 0 0 0 0 0 
0 0 0 0 0 0 0 0 0 
0 0 0 0 0 0 0 0 0 
0 0 0 0 0 0 0 0 0 
0 0 0 0 0 0 0 0 0 
0 0 0 0 0 0 0 0 0 
0 0 0 0 0 0 0 0 0 
0 0 0 1 1 0 0 1 0 
1 0 1 0 1 0 1 0 1 
0 1 0 1 0 1 0 1 0 
1 0 1 0 1 0 1 0 1 
0 1 0 1 0 1 0 1 0 
1 0 1 0 1 0 1 0 1 
0 1 0 1 0 1 0 1 0 
1 0 1 0 1 0 1 0 1 
0 1 0 0.99999990074 0 0.99999943037 0 0.99999953841 0 
1 0 1 0 1 0 1 0 1 
0 1 0 1 0 1 0 1 0 
1 0 1 0 1 0 1 0 1 
0 1 0 1 0 1 0 1 0 
1 0 0 0 0 0 0 0 0 
0 0 0 0 0 0 0 0 0 
0 0 0 0 0 0 0 0 0 
0 0 0 0 0 0 0 0 0 
0 0 0 0 0 0 0 0 0 
0 0 0 0 0 0 0 0 0 
0 0 0 0 0 0 0 0 0 
0 0 0 0 0 0 0 0 0 
0 0 0 0 0 0 0 0 0 
0 0 0 0 0 0 0 0 0 
0 0 0 0 0 0 0 0 0 
0 0 0 0 0 0 0 0 0 
0 0 0 0 0 0 0 0 0 
0 0 0 0 0 0 0 0 0 
0 0 0 0 0 0 0 0 0 
0 0 0 0 0 0 0 0 0 
0 0 0 0 0 0 0 0 0 
0 0 0 0 0 0 0 0 0 
0 0 0 0 0 0 0 0 0 
0 0 0 0 0 0 0 0 0 
0 0 0 0 0 0 0 0 0 
0 0 0 0 0 0 0 0 0 
0 0 0 0 0 0 0 0 0 
0 0 0 0 0 0 0 0 0 
0 0 0 0 0 0 0 0 0 
0 0 0 0 0 0 0 0 0 
0 0 0 0 0 0 0 0 0 
0 0 0 0 0 0 0 0 0 
0 0 0 0 0 0 0 0 0 
0 0 0 0 0 0 0 0 0 
0 0 0 0 0 0 0 0 0 
0 0 0 0 0 0 0 0 0 
0 0 0 0 0 0 0 0 0 
0 0 0 0 0 0 0 0 0 
0 0 0 0 0 0 0 0 0 
0 0 0 0 0 0 0 0 0 
0 0 0 0 0 0 0 0 0 
0 0 0 0 0 0 0 0 0 
0 0 0 0 0 0 0 0 0 
0 0 0 0 0 0 0 0 0 
0 0 0 0 0 0 0 0 0 
0 0 0 0 0 0 0 0 0 
0 0 0 0 0 0 0 0 0 
0 0 0 0 0 0 0 0 0 
0 0 0 0 0 0 0 0 0 
0 0 0 0 0 0 0 0 0 
0 0 0 0 0 0 0 0 0 
0 0 0 0 0 0 0 0 0 
0 0 0 0 0 0 0 0 0 
0 0 0 0 0 0 0 0 0 
0 0 0 0 0 0 0 0 0 
0 0 0 0 0 0 0 0 0 
0 0 0 0 0 0 0 0 0 
0 0 0 0 0 0 0 0 0 
0 0 0 0 0 0 0 0 0 
0 0 0 0 0 0 0 0 0 
0 0 0 0 0 0 0 0 0 
0 0 0 0 0 0 0 0 0 
0 0 0 0 0 0 0 0 0 
0 0 0 0 0 0 0 0 0 
0 0 0 0 0 0 0 0 0 
0 0 0 0 0 0 0 0 0 
0 0 0 0 0 0 0 0 0 
0 0 0 0 0 0 0 0 0 
0 0 0 0 0 0 0 0 0 
0 0 0 0 0 0 0 0 0 
0 0 0 0 0 0 0 0 0 
0 0 0 0 0 0 0 0 0 
0 0 0 0 0 0 0 0 0 
0 0 0 0 0 0 0 0 0 
0 0 0 0 0 0 0 0 0 
0 0 0 0 0 0 0 0 0 
0 0 0 0 0 0 0 0 0 
0 0 0 0 0 0 0 0 0 
0 0 0 0 0 0 0 0 0 
0 0 0 0 0 0 0 0 0 
0 0 0 0 0 0 0 0 0 
0 0 0 0 0 0 0 0 0 
0 0 0 0 0 0 0 0 0 
0 0 0 0 0 0 0 0 0 
0 0 0 0 0 0 0 0 0 
0 0 0 0 0 0 0 0 0 
0 0 0 0 0 0 0 0 0 
0 0 0 0 0 0 0 0 0 
0 0 0 0 0 0 0 0 0 
0 0 0 0 0 0 0 0 0 
0 0 0 0 0 0 0 0 0 
0 0 0 0 0 0 0 0 0 
0 0 0 0 0 0 0 0 0 
0 0 0 0 0 0 0 0 0 
0 0 0 0 0 0 0 0 0 
0 0 0 0 0 0 0 0 0 
0 0 0 0 0 0 0 0 0 
0 0 0 0 0 0 0 0 0 
0 0 0 0 0 0 0 0 0 
0 0 0 0 0 0 0 0 0 
0 0 0 0 0 0 0 0 0 
0 0 0 0 0 0 0 0 0 
0 0 0 0 0 0 0 0 0 
0 0 0 0 0 0 0 0 0 
0 0 0 0 0 0 0 0 0 
0 0 0 0 0 0 0 
Thickness 1 1114 double
3.0651469312 3.0651469312 1.6746715411 1.9382819256 3.0651451229 1.9049656772 3.0651469804 1.8950211007 3.0651487161 
1.7041864557 3.0651463832 1.4133253087 3.0651437236 1.3396827369 3.0651488061 1.389054656 3.0651487348 1.3870112604 
3.0651469312 1.4068913542 3.0651477199 1.5022242115 3.0651493423 1.6306471004 3.0651469312 1.9729392703 3.0651469312 
2.1196834942 3.0651469312 2.2228650776 3.0651469312 2.1427496101 3.0651469312 2.157941022 3.0651470004 2.1986960219 
3.0651469698 2.309135293 3.0651468 2.5101565738 3.0651469312 2.7740713317 3.0651469312 2.9935604379 3.0651469312 
2.9323482972 3.0651469312 2.8129570724 3.0651469312 2.5183716886 3.0651469312 2.0784897717 3.0651469312 2.2270315399 
3.0651469312 2.1819217485 3.0651469312 1.9896219101 3.0651469312 1.8214374592 3.0651469312 1.7563589997 3.0651469312 
1.7213354756 3.0651469312 1.7837533453 3.0651469312 1.7683020024 3.0651469312 1.6591997072 3.0651469312 1.5856851913 
3.0651469312 1.5955051547 3.0651469312 1.7792941449 3.0651469312 2.0283074045 3.0651469312 1.9104600799 3.0651469312 
1.8876596426 3.0651469312 2.0960144108 3.0651469312 3.0651469312 2.9967782943 2.9684309299 3.0651469312 2.9797944476 
3.0651469312 2.6201766639 3.0651469312 2.4204705523 3.0651469312 2.3873454934 3.0651469312 2.355748969 3.0651469312 
2.3990820769 3.0651469312 2.5531858083 3.0651469312 2.7329795229 3.0651469312 2.9102100393 3.0651469312 3.1274948465 
3.0651469312 3.339745981 3.0651469312 3.5462164022 3.0651469312 3.7400060543 3.0651469312 3.4165214931 3.0651469312 
3.1399459988 3.0651469312 2.9175620498 3.0651469312 2.9054722285 3.0651469312 2.8290933172 3.0651469312 2.6972182081 
3.0651469312 2.5124339625 3.0651469312 2.4316902092 3.0651469312 2.4990280516 3.0651469312 2.7526717436 3.0651469312 
2.5790140583 3.0651469312 2.6274643492 3.0651469312 2.4811696697 3.0651469312 2.4002885646 3.0651469312 2.6785279474 
3.0651469312 2.8738742148 3.0651469312 3.0410368387 3.0651469312 3.1915197888 3.0651469312 3.2779827205 3.0651469312 
3.1691050988 3.0651469312 3.4813627035 3.065146852 3.7290897944 3.0651464769 3.644776479 3.0651465419 3.5139035683 
3.0651469312 3.3792565947 3.0651469312 2.9480814699 3.0651469312 2.5723255892 3.0651469312 2.2003087049 3.0651469312 
1.9275018624 3.0651469312 1.6701128724 3.0651469312 2.1319180662 3.0651469312 2.4748086194 3.0651469312 2.7722277697 
3.0651469312 2.9458912592 3.0651469312 3.0420363443 3.0651469312 3.1357272544 3.0651469312 3.204496759 3.0651469312 
2.9152030214 3.0651469312 2.6723150191 3.0651469312 2.6466257662 3.0651469312 2.6304465559 3.0651469312 2.6124061188 
3.0651469312 2.7949559228 2.3981739984 2.3613332753 2.5085851543 2.1994661454 1.7174609916 1.4884692641 1.4040580436 
1.4312288032 1.5041256319 1.6397605884 1.9230878747 2.3996436332 2.9433479908 2.9730994817 2.8142997853 2.6704905649 
2.606056791 2.6013656398 2.7431340121 3.1106818462 3.4288890466 3.4874441197 3.2683469304 3.0299934018 2.6692148973 
2.8627477108 2.83197157 2.6580302643 2.3821557246 2.1497580212 2.0240943831 2.0447414751 2.00343466 1.9511084616 
1.9611281513 2.0960323161 2.4114680372 2.9683533976 3.3320737376 3.4450960874 3.2877229784 2.7032122774 2.9684747418 
3.0558882931 2.8817454205 2.6896616756 2.5153633996 2.610218731 2.8018806531 2.9081802687 3.0377234187 3.2008305671 
3.2799904172 3.4564793212 3.5962875009 3.7634948251 3.4876900608 3.1234621785 2.8767919462 2.7954334388 2.6519901061 
2.5207683371 2.4104672872 2.442772301 2.6645942915 2.9302170506 3.0726331311 2.9853746157 3.0142618454 2.8704823266 
2.746409704 2.7525609004 2.9383946152 3.1151942062 3.2830723489 3.358303112 3.7544305595 4.0387633399 4.2091376188 
4.024997607 3.7228383335 3.2636294625 2.8803027916 2.6785100498 2.4017286271 2.1687853471 2.4532070196 2.6565513674 
2.9710505599 3.156344976 3.1633989412 3.2387416554 3.2803518914 3.1100199619 3.0023979033 2.9812199642 2.9794706134 
2.94540267 3.0529671573 3.1539418259 3.2639826786 3.3966904069 2.058191958 2.4224556945 1.9436399434 1.8894742779 
1.7927291203 1.9116112247 2.0924238448 2.3725287613 2.8776856158 3.585649076 3.6969172362 3.5349740107 3.1706849127 
2.865613376 2.790899068 2.83531941 3.0877795057 3.3951122843 3.6445271891 3.3692577861 3.2105311972 3.5415044828 
3.4171896907 3.5136757413 3.2380042492 2.937471805 2.6879061965 2.4958367592 2.396968341 2.3784958682 2.3722147641 
2.5177823244 2.7296001477 3.1210511413 3.9014970942 4.0053363898 3.8619942874 3.6022968735 2.9487342953 2.6823572742 
2.7727293551 3.3373946767 3.2196377269 3.4761803479 3.7043368815 3.4426575146 3.1168935634 2.8864724271 2.7895720576 
2.9529188975 3.1105774708 3.2791837709 3.8229363833 3.5392987536 4.0802424982 4.2684295626 4.0749503565 3.7584713317 
3.1462679339 2.9233404572 2.9922819203 2.7377732756 2.550944795 2.616759101 2.8191408271 3.1111747617 3.212826889 
3.181816674 3.2518759352 3.3151133802 3.263042821 3.2269770472 3.3038270044 3.1836089277 3.0468948648 3.2157804766 
3.2953986307 3.1630401585 2.9444174267 2.6238060464 2.5729253144 2.4702448513 2.790557347 3.01853485 3.1447247908 
3.3106833737 3.4104812709 3.3882610559 3.4591464314 3.5809943041 3.7865139538 3.6912938045 3.3778738289 2.9875861466 
2.8456530121 2.6846943044 2.4906866974 2.5406260902 2.6039847151 2.6490580673 2.7414748517 3.1676079688 3.5937303973 
4.1630996182 4.0072117594 3.3657678998 3.3590817887 3.729639585 3.5073090496 3.8436387954 3.8731988307 3.7934939117 
3.5139347029 3.2066857599 2.8653975516 2.6850535232 2.5519001065 2.6207368747 2.660631126 2.7687801543 2.9098870064 
3.1296639081 3.4310828529 3.5776733297 3.7440295581 3.3180289956 2.9368422846 2.6449139806 2.747538695 2.6111175764 
2.7602681659 2.5584336333 2.4639519819 2.3648237063 2.3207909904 2.4306127743 2.730303074 3.155575965 3.7765023935 
4.1585352252 3.9431232722 3.5023213933 3.0983613803 3.0141051118 3.0339255768 3.1883930377 3.414970635 3.6512671918 
3.418296172 3.0981309441 3.043812243 3.1254048128 3.749757804 3.3748268564 3.8914625475 3.1109369007 3.278733767 
3.6746523182 3.692429643 3.8018575528 3.4305495971 3.624736505 3.18064897 2.9155710353 2.9654589022 3.0978094156 
3.2900668447 3.5982862197 3.5653174382 3.8501050172 3.3970607732 3.4128570265 3.5643475457 3.6016704908 3.6655963383 
3.5700414021 3.389104433 2.9008618305 3.0199167157 3.4470166926 3.2078560439 2.8646594736 2.7793108844 2.8976033723 
3.1777823457 3.219534711 3.1589103167 3.2996465759 3.4016212308 3.3268670816 3.3225559713 3.4186131134 3.336357019 
3.1540523703 3.3587503005 3.4081950157 3.2551081279 2.9393439901 2.5199996143 2.4312927526 2.4739653766 2.7945519698 
3.0434547887 3.2481371289 3.2980651404 3.3458454564 3.3013428639 3.3988815063 3.5191646355 3.8396971017 3.9419560519 
3.802475716 2.9971407382 3.1562660749 2.8198377672 2.6117502318 2.5935921218 2.6230840628 2.669143375 2.829842271 
3.135406904 3.4797615792 3.7314375707 4.483426539 4.0530898156 4.4616669158 4.1769460248 3.5110579535 3.1374902923 
3.1928884212 3.2873124691 3.5226103397 3.2779652766 3.7766683255 3.9791384995 4.4085315572 4.1710584539 4.7263736287 
4.8539909008 4.4405107911 3.765553249 3.4708142638 3.3614807793 3.5993171474 3.4927274285 3.74535921 4.0024368028 
3.8995642311 3.7643289871 3.5566257032 3.236987852 2.8976938971 2.7046825738 2.6710792835 2.7284012787 2.7355099346 
2.8363826784 2.931764343 2.9197489817 3.088422057 3.1807835132 3.4439213686 3.1211485483 3.5813202103 3.548544016 
3.3512528224 3.1136877481 2.8839436771 2.8936466444 3.0022494216 3.2999688548 3.5015725044 3.5324893471 3.7620630724 
3.9761293957 3.9434222087 3.5209920937 3.0989690512 2.9167022617 2.8248175568 2.786118185 2.7544039786 2.5850287367 
2.5730659383 2.8723801932 3.4151303771 3.7932246774 4.2223314796 3.6060246255 3.9596914797 3.3131691486 3.157999403 
3.199579284 3.3115097598 3.4602562979 3.4682429195 3.3543016493 3.1964905578 3.2577586775 3.1285037067 3.1554264068 
3.4869311886 3.3356617163 3.7372641451 3.932894492 4.311285619 4.383010136 4.0166542777 3.7310103452 4.0152794303 
4.0475211808 3.7563152406 3.5775997905 3.4400951621 3.2000283247 3.1454744335 3.0481429657 3.0274749528 2.9280525424 
2.6405250701 2.9025968258 3.7222050605 3.5072915815 3.0309436081 2.8185225035 2.9892002737 3.2910860331 3.292058618 
3.4130870435 3.5104411823 3.5201198542 3.4179029421 3.397516322 3.5271596397 3.4605102587 3.3303313551 3.3393061544 
3.1265804995 3.2502876107 2.7823950285 2.4621640634 2.4711287047 2.5512890707 2.8381957577 2.9956165477 3.0229750922 
2.9736016169 2.973027585 3.0786174641 3.2531075325 3.4639241268 3.7976951545 4.0311730931 3.9077347151 3.8968782086 
3.7243808334 3.8050542677 3.6347369682 3.3867098585 3.2130775058 2.9376175561 2.6794579446 2.7598776904 2.8723034461 
3.3576409358 3.4409594988 3.7999316988 3.9480700081 4.0607504523 3.8261948128 4.0968558452 3.7522477149 3.4212810014 
3.2067461971 2.9659265584 2.8892827881 2.8247534835 2.8499097892 2.8543894673 2.7755556998 3.0008898638 3.8333147265 
4.1443766878 3.5822663139 2.8976175423 3.1276929175 3.4531990755 3.490034458 3.557047049 3.6206489351 3.6188267024 
3.4608205862 3.3501090979 3.2899123237 3.3218101112 3.2910952424 3.4518014876 3.5530272848 3.4571064259 3.6078502415 
3.2746685528 3.1038374355 2.9319641013 2.7132890851 2.4607708409 2.4525177818 2.4858835059 2.6490677742 2.7554196157 
2.7877960846 2.710141425 2.7107811192 2.9800662922 3.2538680488 3.5358611981 3.7673143636 3.9510049954 3.8446066218 
3.7897227203 3.7649492749 3.6425440113 3.5741934529 3.5425963231 3.4546751813 3.2581955152 3.0726038419 3.1962455486 
3.9798144805 3.8721457193 3.7723130524 3.6032547412 3.2720997608 2.9603800837 2.7032233071 2.5735621522 2.5136907521 
2.6594317506 2.7381135037 2.7709724033 2.7574905925 2.8635512814 2.9837757613 2.8263878385 3.033002436 2.7323918746 
3.43186601 3.5800036547 3.6737099005 3.4046294765 3.1063684932 3.1186149833 3.2416512407 3.4151106998 3.6864721283 
3.91610713 4.0849508254 4.0421415711 3.6807885278 3.2849608934 3.0081033315 2.9755280924 3.1003383731 3.1801741614 
2.9034298656 2.7459451965 2.9345200894 3.474457636 3.7659060722 3.9492066313 4.1324452707 4.095493764 4.1470423712 
4.0022358381 3.8508474631 3.5810057843 3.3597394818 3.3038955299 3.3624299747 3.443238545 3.5238723245 3.7090197193 
3.722058678 3.6771313614 3.662129764 3.3768114184 3.1866425386 3.291768824 3.4914212436 3.4779121559 3.5074234869 
3.5529241842 3.7623484858 3.4614846261 2.9759983899 2.9184927721 2.8497770354 2.9232379068 3.0270819824 2.9209483659 
2.9264917414 3.5563896354 4.0628045378 2.9772356807 3.5387987465 3.2297535567 3.4337327898 3.518266494 3.608180519 
3.6805390421 3.6916355876 3.5723111275 3.5107751304 3.535558917 3.5713267232 3.5841657683 3.5813634751 3.5811695308 
3.5115951254 3.4793374896 3.3921844651 3.452456003 3.2746748355 3.0863197535 2.9214532052 2.7516020791 2.5795792981 
2.5885627887 2.5955988484 2.5974521231 2.6234060956 2.6926870782 2.5707387071 2.8586386467 2.6016984384 3.1953553277 
3.558059045 3.7608038179 4.0639228088 3.9803647157 3.6153362958 3.7264613617 3.6884597946 3.6491773238 3.3213327178 
3.3438566593 3.8268139175 3.7630687126 3.7475325785 3.7091449095 3.339815745 3.0017465279 2.729411284 2.4907248127 
2.1932166996 2.3548705926 2.549254251 2.630411959 2.5985255687 2.6635076566 2.5889228284 2.8379914321 2.862286441 
3.037936869 3.3233474111 3.4417102585 3.5238907135 3.3084838332 3.1988864896 3.2917925424 3.4008972897 3.5040080049 
3.7701972481 3.990467579 4.1539827869 4.0796939297 3.799120952 3.5026884111 3.2011357461 3.1970739934 3.3427612648 
3.4945446916 3.2878000732 3.0920220416 2.9347985136 3.3041051292 3.5605430866 3.6167944555 3.7290292912 3.9871624021 
4.0002857735 3.9543066047 3.9836613744 3.9015743669 3.7802602038 3.690384093 3.6376286403 3.7019569572 3.7691510083 
3.7492666354 3.7999111624 4.0218836445 4.0692174714 4.0657768054 3.7947383955 3.4923844455 3.3231702729 3.2965018274 
3.4532278175 3.4165354471 3.4591546477 3.4841065828 3.5086334442 3.7374644847 3.9938872012 4.0332513518 4.1299377572 
4.5525729474 4.7868198471 4.8693463046 4.3425870285 3.7649656884 3.5029326036 3.4975161792 3.5751439243 3.61063265 
3.6589701908 3.7360421712 3.8016311087 3.6846995526 3.7213480705 3.5870011898 3.6956960821 3.6613649224 3.3460173372 
3.0425968821 2.7801417023 2.4655438788 2.0882142458 2.1183832382 2.2916341467 2.4829241639 2.5212895364 2.9271450321 
2.7113369713 2.7436484837 3.130505017 3.1740422571 3.2092725047 3.2689583559 3.3135908636 3.2488643586 3.149520211 
3.2396373498 3.3520698174 3.4488972831 3.922061461 3.8648676359 4.0153430971 3.9573486849 3.7447045556 3.4260693287 
3.05322882 3.1282014218 3.4982179032 3.9106405225 3.2411317538 3.5440263971 3.0016536138 3.0960627339 3.3646526934 
3.3795339035 3.4399944776 3.6331277652 3.7289300519 3.6358353726 3.4994331727 2.3169583801 2.2554375399 3.4920915653 
3.3455871423 3.2465593185 3.3855003958 3.5585192477 3.8051732899 4.2213197147 2.9734559161 2.7630664874 2.7904890695 
2.7826546807 2.7433253365 2.7994871975 2.9372637881 3.4660418173 3.9533784346 3.7426952258 3.7820927528 3.4100499318 
3.0865372554 3.2618877311 3.3911079241 3.4413141684 3.5517882879 3.6503058452 3.5860465984 3.5176440017 3.5631786088 
3.6465389795 3.6833461664 3.6191885766 3.5345303727 3.473932294 3.3939718873 3.1925653042 3.3780884414 3.1812693572 
3.3156514561 3.2735921847 3.1566454051 3.0687463551 3.357753502 3.5315631404 3.7804273818 3.7717628402 3.7645527124 
3.6162258546 3.6681137533 3.9550596751 4.5846444223 4.2005116109 4.0038166191 2.7371754778 2.6665183262 2.5651716029 
2.5216499192 2.4516843883 2.2328852997 2.0443644406 2.0106471951 2.2137234846 2.3619816289 2.5315549452 2.8261527955 
3.2254457846 3.1977783114 3.6891280784 3.4975127693 3.7208633345 3.6128442194 4.5244016093 4.1868556309 3.7071172684 
3.097726658 3.2517974343 3.0849862293 3.2584330792 3.454927677 3.6449168683 3.6818063604 3.5310236483 3.4671698516 
3.4807662924 3.4592182417 3.5852028793 3.6453635253 3.2808121281 3.3854773212 3.3209188476 3.2127674945 3.2536723089 
2.8398501532 2.9308686635 2.9193951585 2.8691969276 2.9827227174 3.2122835429 3.4079739679 3.5295512327 3.2829926873 
3.0672734539 3.0725279039 3.2212219822 3.2581858715 3.2098377426 3.3303561341 2.1713227467 2.3448931402 2.7256621584 
3.1590113499 3.2043205408 3.1113922897 3.2795240168 3.2219616924 3.3482185858 3.4235803318 3.4288830727 2.082552718 
3.3381990661 3.1065642985 2.7872780218 3.5852297926 2.4043978829 3.3903110818 3.3262023408 3.4464394788 3.0353959971 
2.9511521474 3.3856090905 3.4313173387 3.3038000144 3.4420404054 3.541949158 3.1700532182 
Total_Motion 1 1114 double
0 0 0 0 0 0 0 0 0 
0 0 0 0 0 0 0 0 0 
0 0 0 0 0 0 0 0 0 
0 0 0 0 0 0 0 0 0 
0 0 0 0 0 0 0 0 0 
0 0 0 0 0 0 0 0 0 
0 0 0 0 0 0 0 0 0 
0 0 0 0 0 0 0 0 0 
0 0 0 0 0 0 0 0 0 
0 0 0 0 0 0 0 0 0 
0 0 0 0 0 0 0 0 0 
0 0 0 0 0 0 0 0 0 
0 0 0 0 0 0 0 0 0 
0 0 0 0 0 0 0 0 0 
0 0 0 0 0 0 0 0 0 
0 0 0 0 0 0 0 0 0 
0 0 0 0 0 0 0 0 0 
0 0 0 0 0 0 0 0 0 
0 0 0 0 0 0 0 0 0 
0 0 0 0 0 0 0 0 0 
0 0 0 0 0 0 0 0 0 
0 0 0 0 0 0 0 0 0 
0 0 0 0 0 0 0 0 0 
0 0 0 0 0 0 0 0 0 
0 0 0 0 0 0 0 0 0 
0 0 0 0 0 0 0 0 0 
0 0 0 0 0 0 0 0 0 
0 0 0 0 0 0 0 0 0 
0 0 0 0 0 0 0 0 0 
0 0 0 0 0 0 0 0 0 
0 0 0 0 0 0 0 0 0 
0 0 0 0 0 0 0 0 0 
0 0 0 0 0 0 0 0 0 
0 0 0 0 0 0 0 0 0 
0 0 0 0 0 0 0 0 0 
0 0 0 0 0 0 0 0 0 
0 0 0 0 0 0 0 0 0 
0 0 0 0 0 0 0 0 0 
0 0 0 0 0 0 0 0 0 
0 0 0 0 0 0 0 0 0 
0 0 0 0 0 0 0 0 0 
0 0 0 0 0 0 0 0 0 
0 0 0 0 0 0 0 0 0 
0 0 0 0 0 0 0 0 0 
0 0 0 0 0 0 0 0 0 
0 0 0 0 0 0 0 0 0 
0 0 0 0 0 0 0 0 0 
0 0 0 0 0 0 0 0 0 
0 0 0 0 0 0 0 0 0 
0 0 0 0 0 0 0 0 0 
0 0 0 0 0 0 0 0 0 
0 0 0 0 0 0 0 0 0 
0 0 0 0 0 0 0 0 0 
0 0 0 0 0 0 0 0 0 
0 0 0 0 0 0 0 0 0 
0 0 0 0 0 0 0 0 0 
0 0 0 0 0 0 0 0 0 
0 0 0 0 0 0 0 0 0 
0 0 0 0 0 0 0 0 0 
0 0 0 0 0 0 0 0 0 
0 0 0 0 0 0 0 0 0 
0 0 0 0 0 0 0 0 0 
0 0 0 0 0 0 0 0 0 
0 0 0 0 0 0 0 0 0 
0 0 0 0 0 0 0 0 0 
0 0 0 0 0 0 0 0 0 
0 0 0 0 0 0 0 0 0 
0 0 0 0 0 0 0 0 0 
0 0 0 0 0 0 0 0 0 
0 0 0 0 0 0 0 0 0 
0 0 0 0 0 0 0 0 0 
0 0 0 0 0 0 0 0 0 
0 0 0 0 0 0 0 0 0 
0 0 0 0 0 0 0 0 0 
0 0 0 0 0 0 0 0 0 
0 0 0 0 0 0 0 0 0 
0 0 0 0 0 0 0 0 0 
0 0 0 0 0 0 0 0 0 
0 0 0 0 0 0 0 0 0 
0 0 0 0 0 0 0 0 0 
0 0 0 0 0 0 0 0 0 
0 0 0 0 0 0 0 0 0 
0 0 0 0 0 0 0 0 0 
0 0 0 0 0 0 0 0 0 
0 0 0 0 0 0 0 0 0 
0 0 0 0 0 0 0 0 0 
0 0 0 0 0 0 0 0 0 
0 0 0 0 0 0 0 0 0 
0 0 0 0 0 0 0 0 0 
0 0 0 0 0 0 0 0 0 
0 0 0 0 0 0 0 0 0 
0 0 0 0 0 0 0 0 0 
0 0 0 0 0 0 0 0 0 
0 0 0 0 0 0 0 0 0 
0 0 0 0 0 0 0 0 0 
0 0 0 0 0 0 0 0 0 
0 0 0 0 0 0 0 0 0 
0 0 0 0 0 0 0 0 0 
0 0 0 0 0 0 0 0 0 
0 0 0 0 0 0 0 0 0 
0 0 0 0 0 0 0 0 0 
0 0 0 0 0 0 0 0 0 
0 0 0 0 0 0 0 0 0 
0 0 0 0 0 0 0 0 0 
0 0 0 0 0 0 0 0 0 
0 0 0 0 0 0 0 0 0 
0 0 0 0 0 0 0 0 0 
0 0 0 0 0 0 0 0 0 
0 0 0 0 0 0 0 0 0 
0 0 0 0 0 0 0 0 0 
0 0 0 0 0 0 0 0 0 
0 0 0 0 0 0 0 0 0 
0 0 0 0 0 0 0 0 0 
0 0 0 0 0 0 0 0 0 
0 0 0 0 0 0 0 0 0 
0 0 0 0 0 0 0 0 0 
0 0 0 0 0 0 0 0 0 
0 0 0 0 0 0 0 0 0 
0 0 0 0 0 0 0 0 0 
0 0 0 0 0 0 0 0 0 
0 0 0 0 0 0 0 0 0 
0 0 0 0 0 0 0 0 0 
0 0 0 0 0 0 0 0 0 
0 0 0 0 0 0 0 
VAJ 1 1114 double
1 1 0 0 0.99999881155 0 1.0000000427 0 1.0000013454 
0 0.99999967501 0 0.99999809768 0 1.0000010742 0 1.0000010751 0 
1 0 1.000000481 0 1.0000015243 0 1 0 1 
0 1 0 1 0 1 0 1.0000000581 0 
1.0000000321 0 0.99999988331 0 1 0 1 0 1 
0 1 0 1 0 1 0 1 0 
1 0 1 0 1 0 1 0 1 
0 1 0 1 0 1 0 1 0 
1 0 1 0 1 0 1 0 1 
0 1 0 0 0 0 0 0 0 
0 0 0 0 0 0 0 0 0 
0 0 0 0 0 0 0 0 0 
0 0 0 0 0 0 0 0 0 
0 0 0 0 0 0 0 0 0 
0 0 0 0 0 0 0 0 0 
0 0 0 0 0 0 0 0 0 
0 0 0 0 0 0 0 0 0 
0 0 0 0 0 0 0 0 0 
0 0 0 0 0 0 0 0 0 
0 0 0 0 0 0 0 0 0 
0 0 0 0 0 0 0 0 0 
0 0 0 0 0 0 0 0 0 
0 0 0 0 0 0 0 0 0 
0 0 0 0 0 0 0 0 0 
0 0 0 0 0 0 0 0 0 
0 0 0 0 0 0 0 0 0 
0 0 0 0 0 0 0 0 0 
0 0 0 0 0 0 0 0 0 
0 0 0 0 0 0 0 0 0 
0 0 0 0 0 0 0 0 0 
0 0 0 0 0 0 0 0 0 
0 0 0 0 0 0 0 0 0 
0 0 0 0 0 0 0 0 0 
0 0 0 0 0 0 0 0 0 
0 0 0 0 0 0 0 0 0 
0 0 0 0 0 0 0 0 0 
0 0 0 0 0 0 0 0 0 
0 0 0 0 0 0 0 0 0 
0 0 0 0 0 0 0 0 0 
0 0 0 0 0 0 0 0 0 
0 0 0 0 0 0 0 0 0 
0 0 0 0 0 0 0 0 0 
0 0 0 0 0 0 0 0 0 
0 0 0 0 0 0 0 0 0 
0 0 0 0 0 0 0 0 0 
0 0 0 0 0 0 0 0 0 
0 0 0 0 0 0 0 0 0 
0 0 0 0 0 0 0 0 0 
0 0 0 0 0 0 0 0 0 
0 0 0 0 0 0 0 0 0 
0 0 0 0 0 0 0 0 0 
0 0 0 0 0 0 0 0 0 
0 0 0 0 0 0 0 0 0 
0 0 0 0 0 0 0 0 0 
0 0 0 0 0 0 0 0 0 
0 0 0 0 0 0 0 0 0 
0 0 0 0 0 0 0 0 0 
0 0 0 0 0 0 0 0 0 
0 0 0 0 0 0 0 0 0 
0 0 0 0 0 0 0 0 0 
0 0 0 0 0 0 0 0 0 
0 0 0 0 0 0 0 0 0 
0 0 0 0 0 0 0 0 0 
0 0 0 0 0 0 0 0 0 
0 0 0 0 0 0 0 0 0 
0 0 0 0 0 0 0 0 0 
0 0 0 0 0 0 0 0 0 
0 0 0 0 0 0 0 0 0 
0 0 0 0 0 0 0 0 0 
0 0 0 0 0 0 0 0 0 
0 0 0 0 0 0 0 0 0 
0 0 0 0 0 0 0 0 0 
0 0 0 0 0 0 0 0 0 
0 0 0 0 0 0 0 0 0 
0 0 0 0 0 0 0 0 0 
0 0 0 0 0 0 0 0 0 
0 0 0 0 0 0 0 0 0 
0 0 0 0 0 0 0 0 0 
0 0 0 0 0 0 0 0 0 
0 0 0 0 0 0 0 0 0 
0 0 0 0 0 0 0 0 0 
0 0 0 0 0 0 0 0 0 
0 0 0 0 0 0 0 0 0 
0 0 0 0 0 0 0 0 0 
0 0 0 0 0 0 0 0 0 
0 0 0 0 0 0 0 0 0 
0 0 0 0 0 0 0 0 0 
0 0 0 0 0 0 0 0 0 
0 0 0 0 0 0 0 0 0 
0 0 0 0 0 0 0 0 0 
0 0 0 0 0 0 0 0 0 
0 0 0 0 0 0 0 0 0 
0 0 0 0 0 0 0 0 0 
0 0 0 0 0 0 0 0 0 
0 0 0 0 0 0 0 0 0 
0 0 0 0 0 0 0 0 0 
0 0 0 0 0 0 0 0 0 
0 0 0 0 0 0 0 0 0 
0 0 0 0 0 0 0 0 0 
0 0 0 0 0 0 0 0 0 
0 0 0 0 0 0 0 0 0 
0 0 0 0 0 0 0 0 0 
0 0 0 0 0 0 0 0 0 
0 0 0 0 0 0 0 0 0 
0 0 0 0 0 0 0 0 0 
0 0 0 0 0 0 0 0 0 
0 0 0 0 0 0 0 0 0 
0 0 0 0 0 0 0 0 0 
0 0 0 0 0 0 0 0 0 
0 0 0 0 0 0 0 0 0 
0 0 0 0 0 0 0 0 0 
0 0 0 0 0 0 0 0 0 
0 0 0 0 0 0 0 0 0 
0 0 0 0 0 0 0 0 0 
0 0 0 0 0 0 0 0 0 
0 0 0 0 0 0 0 0 0 
0 0 0 0 0 0 0 0 0 
0 0 0 0 0 0 0 0 0 
0 0 0 0 0 0 0 0 0 
0 0 0 0 0 0 0 0 0 
0 0 0 0 0 0 0 0 0 
0 0 0 0 0 0 0 0 0 
0 0 0 0 0 0 0 0 0 
0 0 0 0 0 0 0 
vtkValidPointMask 1 1114 char
1 1 1 1 1 1 1 1 1 
1 1 1 1 1 1 1 1 1 
1 1 1 1 1 1 1 1 1 
1 1 1 1 1 1 1 1 1 
1 1 1 1 1 1 1 1 1 
1 1 1 1 1 1 1 1 1 
1 1 1 1 1 1 1 1 1 
1 1 1 1 1 1 1 1 1 
1 1 1 1 1 1 1 1 1 
1 1 1 1 1 1 1 1 1 
1 1 1 1 1 1 1 1 1 
1 1 1 1 1 1 1 1 1 
1 1 1 1 1 1 1 1 1 
1 1 1 1 1 1 1 1 1 
1 1 1 1 1 1 1 1 1 
1 1 1 1 1 1 1 1 1 
1 1 1 1 1 1 1 1 1 
1 1 1 1 1 1 1 1 1 
1 1 1 1 1 1 1 1 1 
1 1 1 1 1 1 1 1 1 
1 1 1 1 1 1 1 1 1 
1 1 1 1 1 1 1 1 1 
1 1 1 1 1 1 1 1 1 
1 1 1 1 1 1 1 1 1 
1 1 1 1 1 1 1 1 1 
1 1 1 1 1 1 1 1 1 
1 1 1 1 1 1 1 1 1 
1 1 1 1 1 1 1 1 1 
1 1 1 1 1 1 1 1 1 
1 1 1 1 1 1 1 1 1 
1 1 1 1 1 1 1 1 1 
1 1 1 1 1 1 1 1 1 
1 1 1 1 1 1 1 1 1 
1 1 1 1 1 1 1 1 1 
1 1 1 1 1 1 1 1 1 
1 1 1 1 1 1 1 1 1 
1 1 1 1 1 1 1 1 1 
1 1 1 1 1 1 1 1 1 
1 1 1 1 1 1 1 1 1 
1 1 1 1 1 1 1 1 1 
1 1 1 1 1 1 1 1 1 
1 1 1 1 1 1 1 1 1 
1 1 1 1 1 1 1 1 1 
1 1 1 1 1 1 1 1 1 
1 1 1 1 1 1 1 1 1 
1 1 1 1 1 1 1 1 1 
1 1 1 1 1 1 1 1 1 
1 1 1 1 1 1 1 1 1 
1 1 1 1 1 1 1 1 1 
1 1 1 1 1 1 1 1 1 
1 1 1 1 1 1 1 1 1 
1 1 1 1 1 1 1 1 1 
1 1 1 1 1 1 1 1 1 
1 1 1 1 1 1 1 1 1 
1 1 1 1 1 1 1 1 1 
1 1 1 1 1 1 1 1 1 
1 1 1 1 1 1 1 1 1 
1 1 1 1 1 1 1 1 1 
1 1 1 1 1 1 1 1 1 
1 1 1 1 1 1 1 1 1 
1 1 1 1 1 1 1 1 1 
1 1 1 1 1 1 1 1 1 
1 1 1 1 1 1 1 1 1 
1 1 1 1 1 1 1 1 1 
1 1 1 1 1 1 1 1 1 
1 1 1 1 1 1 1 1 1 
1 1 1 1 1 1 1 1 1 
1 1 1 1 1 1 1 1 1 
1 1 1 1 1 1 1 1 1 
1 1 1 1 1 1 1 1 1 
1 1 1 1 1 1 1 1 1 
1 1 1 1 1 1 1 1 1 
1 1 1 1 1 1 1 1 1 
1 1 1 1 1 1 1 1 1 
1 1 1 1 1 1 1 1 1 
1 1 1 1 1 1 1 1 1 
1 1 1 1 1 1 1 1 1 
1 1 1 1 1 1 1 1 1 
1 1 1 1 1 1 1 1 1 
1 1 1 1 1 1 1 1 1 
1 1 1 1 1 1 1 1 1 
1 1 1 1 1 1 1 1 1 
1 1 1 1 1 1 1 1 1 
1 1 1 1 1 1 1 1 1 
1 1 1 1 1 1 1 1 1 
1 1 1 1 1 1 1 1 1 
1 1 1 1 1 1 1 1 1 
1 1 1 1 1 1 1 1 1 
1 1 1 1 1 1 1 1 1 
1 1 1 1 1 1 1 1 1 
1 1 1 1 1 1 1 1 1 
1 1 1 1 1 1 1 1 1 
1 1 1 1 1 1 1 1 1 
1 1 1 1 1 1 1 1 1 
1 1 1 1 1 1 1 1 1 
1 1 1 1 1 1 1 1 1 
1 1 1 1 1 1 1 1 1 
1 1 1 1 1 1 1 1 1 
1 1 1 1 1 1 1 1 1 
1 1 1 1 1 1 1 1 1 
1 1 1 1 1 1 1 1 1 
1 1 1 1 1 1 1 1 1 
1 1 1 1 1 1 1 1 1 
1 1 1 1 1 1 1 1 1 
1 1 1 1 1 1 1 1 1 
1 1 1 1 1 1 1 1 1 
1 1 1 1 1 1 1 1 1 
1 1 1 1 1 1 1 1 1 
1 1 1 1 1 1 1 1 1 
1 1 1 1 1 1 1 1 1 
1 1 1 1 1 1 1 1 1 
1 1 1 1 1 1 1 1 1 
1 1 1 1 1 1 1 1 1 
1 1 1 1 1 1 1 1 1 
1 1 1 1 1 1 1 1 1 
1 1 1 1 1 1 1 1 1 
1 1 1 1 1 1 1 1 1 
1 1 1 1 1 1 1 1 1 
1 1 1 1 1 1 1 1 1 
1 1 1 1 1 1 1 1 1 
1 1 1 1 1 1 1 1 1 
1 1 1 1 1 1 1 1 1 
1 1 1 1 1 1 1 1 1 
1 1 1 1 1 1 1 
Stress_X_Pt 1 1114 double
0.062147578225 0.013711811975 0.029573207721 0.056675110012 -0.01685909112 0.0073563231854 0.013183175353 0.017949067405 0.018795639044 
0.017866807873 -0.028371790657 -0.009887187276 -0.022155545652 -0.0037484014174 0.024331757799 0.024817253929 0.024414568208 0.030038943049 
0.024902462028 0.038165359292 0.043608859181 0.054909330793 0.066010596231 0.070741939358 0.086240589619 0.082619667053 0.10177224874 
0.091723462567 0.11201324314 0.10043220781 0.11677088588 0.10728468932 0.11669133976 0.1099676732 0.11408567429 0.1087376643 
0.096841439605 0.096647456288 0.074535951018 0.077416853979 0.073827136308 0.069410678931 0.067699663341 0.059794365428 0.048529399559 
0.041159527376 0.030690903775 0.025628651027 0.01378529123 0.017733840155 0.0073700686917 0.016306308564 0.0082018945832 0.013814345817 
0.012507675216 0.015558699379 0.018668515608 0.024138739333 0.024013972841 0.033162917476 0.031914489344 0.043642549776 0.045469397679 
0.056952451356 0.061363695189 0.071148318239 0.076268695295 0.086104141548 0.090237364173 0.10084260069 0.10077743605 0.11117973551 
0.10561453551 0.11309986562 0.10357321426 0.10633670725 0.09980238229 0.095637191087 0.095400936902 0.086508529261 0.087035946548 
0.0769575499 0.076014533639 0.066295507364 0.044005604461 0.044399078935 0.047124031931 0.046317275614 0.042720414698 0.046246577986 
0.044233702123 0.046975038014 0.052116228268 0.052851910703 0.062989767641 0.061359344982 0.070762917399 0.066204816103 0.075447756797 
0.067255451344 0.074110813439 0.064366568811 0.06678994745 0.057605405338 0.055168217048 0.048202259466 0.045324403793 0.039220070466 
0.043806789443 0.035648734774 0.046079646796 0.03595093172 0.042562078685 0.034174056258 0.033173907548 0.029232779518 0.026963636279 
0.024739072192 0.02331361454 0.022033431567 0.016929075122 0.019212382846 0.012446740642 0.017177801579 0.016938665882 0.019328994676 
0.025358346291 0.024274626747 0.032392982394 0.029701007064 0.037437193096 0.034318211488 0.042695116252 0.038332299888 0.049791269004 
0.045442507602 0.060535810888 0.055549666286 0.068441536278 0.062889614142 0.06338808313 0.060984001495 0.048650689423 0.051559428684 
0.037948174402 0.043139733374 0.037516284734 0.040064163506 0.04311109148 0.041746785864 0.053209085017 0.047723727301 0.051644477993 
0.047609607689 0.038613580167 0.038430549204 0.021113478579 0.025447976775 -0.0010021203198 0.011053100927 -0.028700986411 -0.0036513505038 
-0.037860129029 -0.0068630864844 -0.027179105207 0.0012317555957 -0.026336787269 0.0050452370197 -0.031727546826 0.003515612334 -0.038445178419 
-0.0014576436952 -0.022705951007 0.0038840476191 0.003621090902 0.014297362766 0.010049521923 0.015825314913 0.0053388928063 0.01434342307 
-0.00039043498691 0.012233649206 -0.0033302191878 0.010540918156 -0.001941021791 0.011537293308 0.0015984765223 0.013687421147 0.003137780237 
0.014848004037 0.0067422071006 0.017779611866 0.015955277253 0.023844623705 0.025053193793 0.030159583315 0.031389240175 0.035697704181 
0.038204452023 0.041713760234 0.03824773198 0.049117241055 0.029289812781 0.020829745382 0.01111813297 0.014294491964 0.023480874021 
0.034324380569 0.048515580595 0.062908117659 0.071630308405 0.072664419189 0.072629867122 0.077355375513 0.084461444989 0.090211458504 
0.09148850292 0.085457362235 0.072236643173 0.058197339065 0.045630180277 0.031245638151 0.020662439987 0.020555390976 0.02479290124 
0.020565193379 0.020586367929 0.02904533688 0.040140987374 0.052206330001 0.063983719796 0.074813514948 0.086729634553 0.098112605512 
0.10427399725 0.10128432512 0.091196719557 0.078841220587 0.068654019386 0.060650292784 0.052728714421 0.050765831955 0.052488276735 
0.051199632697 0.054121208377 0.057364778593 0.060371026397 0.059297882952 0.055389391258 0.050810796209 0.045341293328 0.039689687081 
0.033926664852 0.02929535415 0.027343198191 0.026760403067 0.025487316307 0.022486128379 0.020057883579 0.020174447447 0.02049100725 
0.021289417986 0.024346205872 0.028618537355 0.032848850824 0.037534666248 0.044831183739 0.040435452014 0.049786201678 0.054202939384 
0.054678783752 0.051188673824 0.046289995313 0.042957172729 0.043112939596 0.040108325891 0.036848757416 0.031282353681 0.027389406227 
0.0275642341 0.031726105139 0.03859798843 0.043599948287 0.04084711615 0.032427552156 0.023500744486 0.017494380008 0.016064378666 
0.019142863341 0.022505135741 0.024128701538 0.02607541997 0.027886734344 0.029310914688 0.031836364418 0.035064113792 0.038772878237 
0.043690265156 0.0481441468 0.050190839916 0.037486526184 0.040119761601 0.012633169303 0.016799508827 0.013948956039 0.021513954271 
0.032864595763 0.045133508742 0.056960598566 0.063670501113 0.062502264977 0.059600844048 0.061328123324 0.065872543491 0.071702810936 
0.075526146218 0.072119878605 0.062315843068 0.049874939024 0.038408437744 0.028582977597 0.019561023684 0.013107952196 0.020454862155 
0.020558203105 0.022122526541 0.02760717785 0.035933606792 0.045794356614 0.055536392145 0.063688359223 0.07075476367 0.076570220292 
0.078955616802 0.075828047469 0.068721260875 0.059846390784 0.052840508521 0.047252136283 0.043626558036 0.047045267187 0.050235725939 
0.045583000407 0.016314873938 0.0090866301907 0.037777399644 0.03862790484 0.038498797454 0.043224043213 0.050080696121 0.053873113357 
0.05278061796 0.050391209312 0.050674137659 0.03647486493 0.038952714764 0.034730739892 0.034215772524 0.035791997798 0.039878892712 
0.045683245175 0.047531222925 0.039963609073 0.026819251943 0.013836524216 0.006619807973 0.0068214567727 0.0116638951 0.017532166094 
0.02205026336 0.026767087169 0.030637537595 0.0334262494 0.036836871877 0.040385812521 0.044370198622 0.049135641195 0.052238972858 
0.05268668104 0.053727973253 0.057617861778 0.062065716833 0.064085137099 0.061813686974 0.055757022463 0.049396030605 0.044828745537 
0.041135877371 0.038079898804 0.035624059848 0.032511373516 0.029686430003 0.028113613836 0.025670355652 0.020597692579 0.01788907405 
0.017396202777 0.016653781757 0.018200443126 0.023957304657 0.029792114627 0.035121075809 0.040596196428 0.042222226039 0.041111241095 
0.037234637141 0.042375490069 0.046016658656 0.053406363353 0.010927632218 0.0064725668635 0.015464450466 0.018119434826 0.021209702361 
0.026235772762 0.032876512036 0.040874847211 0.049281071872 0.055735657923 0.060536683537 0.065354144201 0.069048102945 0.070412911475 
0.068771865219 0.064026351087 0.038917620666 0.044487761334 0.035671125632 0.037898648996 0.039842656814 0.038698483724 0.011671678862 
0.01346808509 0.014371361816 0.021567032672 0.032374216244 0.044057247229 0.053720603697 0.058556225151 0.057204770856 0.053460365161 
0.054061292857 0.058783287182 0.066470711492 0.07244870998 0.070998927578 0.061665340327 0.049375881441 0.038556165993 0.029801356141 
0.020464903908 0.012589982478 0.0099982215324 0.010016243439 0.0048082994181 0.010010652943 0.0075628166669 0.022161749657 0.017038185848 
0.022642171942 0.018840104342 0.050310895778 0.058970899321 0.036272834986 0.043919564225 0.052931357175 0.056231416762 0.055831527337 
0.055349154398 0.055977950804 0.0554797519 0.057111365721 0.051218712702 0.046308692545 0.041806100868 0.039546491578 0.038268202916 
0.037215504795 0.036541497335 0.034442431293 0.032572188415 0.029476331547 0.02117533423 0.0092536460725 0.00098657119088 0.00057317571554 
0.0067366590265 0.014069563476 0.019208474085 0.024796321988 0.02989659505 0.034058805089 0.038639144041 0.042684760876 0.046970794909 
0.050595009699 0.054955098033 0.05610217154 0.058852538466 0.064559622668 0.069652760401 0.069875696674 0.064473097213 0.056313943118 
0.04946667701 0.045202901587 0.04199105408 0.039220568724 0.037228740752 0.033688519616 0.029048475437 0.026613879018 0.023497445974 
0.018900301307 0.013513593702 0.013025952736 0.01294933958 0.015373770846 0.023094344418 0.030154239852 0.034628757586 0.037830760702 
0.03887103498 0.039678256027 0.042504899204 0.043971774168 0.044568300247 0.039273974486 0.037502708845 0.044046842493 0.053529350087 
0.058228867128 0.057886366732 0.036886767484 0.033387094736 0.0404837979 0.042529400438 0.044806352817 0.042223222554 0.044464604929 
0.040868410841 0.038313175552 0.044025530107 0.054976969957 0.060043953359 0.059530478902 0.013260794338 0.014114301885 0.011781944544 
0.0155056566 0.020044376608 0.02562459372 0.031816213392 0.038678245619 0.045680325478 0.051168796606 0.055869665928 0.061758830212 
0.067430695519 0.072365675122 0.075282866135 0.072779541835 0.069903137162 0.059180977754 0.071161236614 0.049669691361 0.04449690599 
0.039673229679 0.034210506361 0.030597225763 0.028656138107 0.027009628247 0.034622904845 0.024675897323 0.028425223194 0.021019056207 
0.01772032585 0.015284258174 0.013526767027 0.011878828052 0.011796262348 0.015589654678 0.023041734938 0.032833579462 0.043433504179 
0.052455028519 0.056691749021 0.055001189001 0.051525267772 0.051632151008 0.070791143924 0.062570228241 0.076443027705 0.073626458645 
0.062813831493 0.049904136918 0.039173376746 0.031048695091 0.024172732607 0.019462667871 0.02013464435 0.022872151574 0.022316447925 
0.0087465321412 0.018241265556 0.0034749154875 0.003380825714 0.05721025914 0.053003527224 0.057831556536 0.057766787708 0.057447404601 
0.058309619315 0.057613539509 0.056684130803 0.053073329851 0.049124470912 0.044820449315 0.038792452775 0.032813525759 0.026179259876 
0.017009797972 0.01163339059 0.014494258008 0.014710095711 0.0063741893027 -0.0021752803368 -0.0035948331461 0.0024360876305 0.010669143405 
0.016150833108 0.020591265056 0.025503981393 0.030346637592 0.035565814003 0.040789293125 0.046059994958 0.05050336197 0.055491575971 
0.067307899706 0.063833938912 0.072655241936 0.076724063605 0.075865864754 0.070595393889 0.063646664843 0.057574991137 0.053033028729 
0.049298509024 0.043855967931 0.03775979951 0.031664361712 0.025976867415 0.022757349536 0.018879780779 0.015892173164 0.013428696198 
0.0095371576026 0.01153860311 0.0069839797216 0.0077941875206 0.010864069685 0.012996060541 0.01833248348 0.025324576069 0.031380254775 
0.062051572837 0.060380657203 0.059830217622 0.060158636421 0.059020583518 0.060928845778 0.058134237304 0.058885117061 0.058944200476 
0.05620910041 0.0537058888 0.048120841384 0.038375422359 0.028441570234 0.018108960707 0.0070123111655 -0.00068381469464 0.0031831816596 
0.0091169282794 0.0036425622748 -0.0042389110095 -0.0052454686956 -0.00019807193894 0.0066125151934 0.011424978147 0.015729226638 0.019848905504 
0.023638815619 0.028872873634 0.035684513859 0.043683806434 0.050126858056 0.054274023511 0.058200012892 0.06429847423 0.061941334978 
0.067910328507 0.071701459587 0.074948409572 0.078937780112 0.082059718668 0.081783622503 0.078319896013 0.073724221438 0.067887815647 
0.062818471342 0.058954594284 0.046591218561 0.036500746384 0.02748751035 0.022271132097 0.018823785009 0.015066594351 0.014064378338 
0.010010954458 0.012934431899 0.0059182103432 0.0044746565109 0.0067634481626 0.01134642656 0.017265912844 0.022948648781 0.028508944064 
0.0068475218723 0.012597297668 0.019255758962 0.025556473061 0.031133730896 0.036822428927 0.042757963762 0.048619084992 0.055344379507 
0.063005084172 0.069830454886 0.075111201033 0.078291486949 0.079088319093 0.077907261749 0.079913021997 0.074174372479 0.082648161799 
0.064404851757 0.055565366521 0.049208042212 0.043987696059 0.037085717544 0.02955122618 0.02445563348 0.021146446932 0.018014333677 
0.014361343347 0.011048767483 0.0095190424472 0.0092202284141 0.008982033818 0.010352787096 0.015874249162 0.024883085862 0.034072132315 
0.042381701991 0.049137870781 0.052374050021 0.05145157408 0.049404075369 0.048515712842 0.048805207014 0.054801510647 0.051244708709 
0.061940383166 0.070450557396 0.077891262248 0.07982939668 0.072634944692 0.059512628242 0.046680920757 0.037547132 0.031220295466 
0.026629054919 0.025477010757 0.029297648463 0.033152687829 0.031344284303 0.026052700356 0.01201777067 0.01970778103 0.0068671914438 
0.0027729906287 0.00014291003754 0.058467240073 0.056964842603 0.050481129438 0.03965346422 0.028686264995 0.018143422902 0.0055028910574 
-0.0045424153504 -0.0010756604606 0.0091501509305 -0.0053260439308 0.0016836624127 -0.0054034171626 -0.0012109585659 0.0028248559538 0.0060579903366 
0.011830418603 0.016120850109 0.019268551376 0.025370367803 0.033363199327 0.041513713077 0.047674867325 0.051640726626 0.055097953416 
0.058510555886 0.064724887721 0.061114475131 0.067702628672 0.0711357072 0.074523823336 0.078083498403 0.082241889089 0.085233137012 
0.085513597354 0.083281416446 0.07992224209 0.075836122036 0.071735970676 0.071565104648 0.033060030546 0.044642762281 0.023246696219 
0.017651975621 0.01553198928 0.010132447933 0.016049430007 0.014143733308 0.009904826642 0.012293034699 0.0067487928172 0.0064889391535 
0.0099254923116 0.0035979464592 0.011675597751 0.019516632659 0.025251932908 0.029211563058 0.033407443203 0.039006557316 0.046562270261 
0.057001759298 0.068366537802 0.076184332371 0.080308614299 0.083505634218 0.084092732519 0.087551191449 0.082753485069 0.085243251175 
0.075788589194 0.068639697507 0.061620717868 0.055131961592 0.049356523901 0.041757330298 0.032789131161 0.025608438998 0.018935605325 
0.013156766072 0.0090658520348 0.004857315671 0.0031646720854 0.0031229456727 0.0037470254174 0.0068079091725 0.013917580945 0.024059327319 
0.032643240876 0.037317511626 0.040388521738 0.043333278038 0.044872776605 0.04480170086 0.045281289145 0.047294328921 0.050950727426 
0.055395758711 0.055360130966 0.058066536672 0.06331499014 0.070623030886 0.075782138854 0.073164289817 0.063978238963 0.052768634632 
0.043608400039 0.037604561448 0.031799859833 0.028364481404 0.030020371079 0.033912213985 0.035909791477 0.033723050263 0.028792130295 
0.024023554754 0.010509457556 0.016850287328 0.0047609972389 0.034409932792 0.038712174632 0.04081991408 0.03895859234 0.042427142151 
0.045126614161 0.045281358063 0.042808448896 0.040018116124 0.044070924632 0.054112467915 0.060056437738 0.060215812176 0.061422208324 
0.060882207006 0.059779873118 0.060694336891 0.059469247237 0.011504496797 0.0030530165095 0.01914846804 0.023935482837 0.025481766555 
0.028823310975 0.035109306686 0.043795882724 0.057142945006 0.071821920574 0.082430958748 0.085548166186 0.088190607727 0.081895461679 
0.084930295746 0.085512388498 0.078439559788 0.074137033895 0.069563960657 0.064250620082 0.058141310699 0.052987006307 0.045564005151 
0.038496588822 0.030132651329 0.024308892898 0.0049743255368 0.0096513850149 4.4108706788e-05 -0.002364944874 -0.0025266051452 -0.0012479546422 
0.0030048117624 0.01198829757 0.021451308858 0.024696037173 0.028979965486 0.028165264055 0.032687378582 0.037523026578 0.040965090506 
0.044337695464 0.048035442829 0.051376235671 0.05660447944 0.015820732806 0.023561375216 0.057635303587 0.070783264004 0.019939490128 
0.024605994113 0.02814969793 0.033371215686 0.037012729794 0.037831321359 0.034691684414 0.059068705887 0.053147489205 0.042252534069 
0.031319735106 0.021246196935 0.0085012470372 -0.0017819725326 0.00029879558133 0.012515726499 0.017105291365 0.011797568606 0.0039140198787 
-0.0036978553107 -0.0051062600687 -0.0037800064165 -0.0028230355965 0.00049009421491 0.0077970665297 0.013889751397 0.019331894349 0.02671973547 
0.033628580626 0.038728903048 0.043606715277 0.047908702865 0.050621025264 0.053171685897 0.056866469793 0.066647890955 0.063119607046 
0.069937270135 0.072449479252 0.074145846069 0.076728472486 0.056366002187 0.060123812407 0.059223045595 0.059916636907 0.062433389326 
0.064189191908 0.063534740359 0.059039692394 0.051337199658 0.047582036816 0.044104555001 0.086238121614 0.085204057395 0.083156501874 
0.081214159727 0.078971587121 0.079562511295 0.062801902182 0.069867196493 0.055315968891 0.044571138918 0.029872461222 0.019104401348 
0.014454500517 0.015952689946 0.014459103579 0.018660455244 0.009616286261 0.0037445277267 0.045855482419 0.047223889269 0.052535455674 
0.057681725919 0.0089224110998 -0.00044975432684 -0.0039206701331 -0.0050393759739 -0.005441139685 -0.0021166903316 0.0043741863337 0.010702304309 
0.017941572936 0.02619813662 0.032082228456 0.035830533132 0.047191841528 0.046200428158 0.071795275435 0.068298278376 0.074341470376 
0.052552979439 0.044242651202 0.035346784163 0.025379146449 0.01495688688 0.0074725199374 0.0051629759837 0.015727946069 0.018439506879 
0.0232359441 0.03099312773 0.038490918465 0.044295530766 0.0497737322 0.052363075316 0.048831109889 0.032226920594 0.020873669768 
0.064397627488 0.059802579383 0.058780127205 0.040527531877 0.045550095849 0.033054686151 0.02788688615 0.029337919317 0.05411293637 
0.020896322404 0.023192487657 0.029156690463 0.059579837136 0.03877830971 0.039225042798 0.043350838125 0.033975151833 0.038057423197 
0.029757123906 0.057255033404 -0.00018172315322 0.0024882235157 0.043741859496 0.040078755468 0.050859635696 
Stress_Y_Pt 1 1114 double
-0.087335087359 -0.089189641178 -0.1024418138 -0.093695044518 -0.061240494251 -0.088172933087 -0.10670628026 -0.1175363455 -0.13948994502 
-0.14213288017 -0.068644546904 -0.10096218484 -0.049755056389 -0.094129400793 -0.11060269922 -0.1426303722 -0.1336574778 -0.16544272378 
-0.12516011298 -0.16102472693 -0.12707443535 -0.15670969337 -0.12456839904 -0.14581872709 -0.11857791618 -0.13008832745 -0.11512650922 
-0.11936040595 -0.11501855031 -0.11714816466 -0.11599482223 -0.11880371161 -0.11679054797 -0.12087913603 -0.1238011755 -0.12394565903 
-0.10449935123 -0.10799928755 -0.073128666729 -0.085532676429 -0.093475040048 -0.094524264336 -0.1129848063 -0.10484632291 -0.10799398273 
-0.10373589583 -0.11114090309 -0.11032506451 -0.12304707617 -0.12533035502 -0.13093375415 -0.13294768333 -0.11609856784 -0.11821484752 
-0.10113213584 -0.10477199405 -0.099675402045 -0.10578855686 -0.10039586946 -0.110899169 -0.1021605432 -0.11698212102 -0.10470795631 
-0.12147657946 -0.10602831095 -0.12293274328 -0.10864966363 -0.1261908263 -0.11325571314 -0.13213195093 -0.11790098622 -0.13652475365 
-0.11850719899 -0.1322686635 -0.11186179146 -0.1180780679 -0.10589262843 -0.10389015824 -0.1028877385 -0.09425078705 -0.091993927956 
-0.083781609312 -0.076048795134 -0.077610885724 -0.052437774837 -0.048895439133 -0.048758727498 -0.050895703956 -0.042987054214 -0.044764827006 
-0.039064606652 -0.042983850464 -0.043174222112 -0.047525750473 -0.053289068863 -0.055405006744 -0.057264368981 -0.05849544704 -0.058845918626 
-0.058931875043 -0.059255311266 -0.057655419223 -0.055280078202 -0.053397646174 -0.044697921723 -0.044259926304 -0.029985166155 -0.032020566054 
-0.023404609412 -0.026515595615 -0.029904753901 -0.030603825115 -0.037325466052 -0.036025680602 -0.037667373195 -0.038419973105 -0.042079882696 
-0.043681589887 -0.053622016683 -0.052673297934 -0.060418436304 -0.059082177468 -0.060864014551 -0.061514261179 -0.060861378908 -0.062784345821 
-0.059950217605 -0.063316004351 -0.060206286609 -0.064397778362 -0.067447248846 -0.068294867873 -0.074980247766 -0.073865756392 -0.084571734071 
-0.083537336439 -0.09706427902 -0.092981906608 -0.099524274468 -0.094937238842 -0.086585484445 -0.08480896242 -0.061770442873 -0.064141391777 
-0.046366065741 -0.048308560625 -0.046322599053 -0.044430993497 -0.05053671822 -0.046611704864 -0.067159611732 -0.057808101177 -0.078007753938 
-0.063581744209 -0.051373391412 -0.043974558357 -0.020407296252 -0.021913956152 -0.012416400015 -0.015113750938 -0.0067911960068 -0.012186001608 
-0.0090935879271 -0.015208851401 -0.027848385274 -0.029658884741 -0.048774428666 -0.048400073312 -0.062692815438 -0.063441731036 -0.070301711559 
-0.073067877442 -0.077857483178 -0.079831624404 -0.08280679211 -0.083150072023 -0.088846713305 -0.08672648482 -0.098176918924 -0.091185534373 
-0.097231585532 -0.088473066688 -0.085204005241 -0.079167906195 -0.073875579983 -0.069847035222 -0.063731592149 -0.060949616134 -0.046505991369 
-0.048486000858 -0.034156953916 -0.039266305044 -0.034918431193 -0.038392062299 -0.037344615906 -0.039866773412 -0.038253875449 -0.041492572986 
-0.045337652788 -0.046472799033 -0.11305956356 -0.10834895633 -0.11764751188 -0.11966394037 -0.12290299125 -0.13144793734 -0.15656429157 
-0.17454562336 -0.1753738001 -0.16605784744 -0.14891815372 -0.12534732372 -0.10765066743 -0.10326261446 -0.10545130633 -0.10909676552 
-0.1095402576 -0.10204340331 -0.093975111842 -0.091680008918 -0.091219749302 -0.092326149344 -0.097615132108 -0.10636424273 -0.11491950601 
-0.10439207219 -0.095966268331 -0.098955465481 -0.10708306357 -0.11647137068 -0.12334150076 -0.1258461792 -0.12883530557 -0.1327922307 
-0.13257673569 -0.12276018038 -0.10456856526 -0.086954664439 -0.074247199111 -0.067508035339 -0.072223166004 -0.090367270634 -0.047488190234 
-0.047685757279 -0.048405543901 -0.052423892543 -0.056818035431 -0.057853968814 -0.056552167982 -0.05377815105 -0.048888640478 -0.041528145783 
-0.033602408599 -0.029631950893 -0.030395038426 -0.032992724795 -0.037026413716 -0.042686971836 -0.04838718567 -0.054454668425 -0.059312205762 
-0.062582865357 -0.065172884613 -0.066213838756 -0.066172789782 -0.066771058366 -0.081030441448 -0.079520083964 -0.081338653341 -0.075671300292 
-0.062515385449 -0.048038852401 -0.040193945169 -0.039233865216 -0.043452636153 -0.041306874715 -0.031677784864 -0.020546435611 -0.01588975708 
-0.017069127876 -0.022011869587 -0.032727447804 -0.0474405922 -0.059938985854 -0.068537390791 -0.07276212424 -0.07431846112 -0.075239796191 
-0.074789183214 -0.072129802778 -0.067691073753 -0.062069304287 -0.055565641262 -0.049013872631 -0.044227611274 -0.042044001631 -0.042037913576 
-0.044209893793 -0.04669990018 -0.047623668797 -0.071941087022 -0.063931646757 -0.10119640268 -0.093488197774 -0.10978381336 -0.12058518454 
-0.13113594241 -0.13371434249 -0.12835738994 -0.11704351939 -0.098918037489 -0.082125453278 -0.076371086761 -0.077985322103 -0.082615541294 
-0.086079711094 -0.085629429668 -0.084518074989 -0.083740452304 -0.082387408242 -0.081894570962 -0.083157693967 -0.085827639326 -0.079699745402 
-0.084138015285 -0.076667724177 -0.079107634723 -0.084742482752 -0.091586885974 -0.097699308768 -0.10086252913 -0.10195394233 -0.10107840598 
-0.096396720037 -0.087420986965 -0.075259732082 -0.060133716464 -0.055146727711 -0.051425855607 -0.05259621609 -0.067197541706 -0.089663509279 
-0.10190378502 -0.083858568221 -0.080193812028 -0.067411956377 -0.058256022632 -0.06470480375 -0.06015886832 -0.052831323817 -0.042760153301 
-0.034960343502 -0.03329840675 -0.037863231264 -0.021602505585 -0.030072531197 -0.01402488281 -0.012326695491 -0.015606699977 -0.021516263019 
-0.032497984823 -0.04593101982 -0.053478122689 -0.056814307347 -0.058596290648 -0.059703313746 -0.060362944379 -0.06039263308 -0.060182097368 
-0.058304938488 -0.05529815983 -0.051137268543 -0.046331017278 -0.04306955263 -0.041222396307 -0.040523989126 -0.042018098757 -0.04250969924 
-0.042132220231 -0.044102433138 -0.047224133275 -0.050132086501 -0.053141613491 -0.055340530351 -0.054714503698 -0.052480425686 -0.049080230296 
-0.043115652166 -0.036147566512 -0.031130699441 -0.028332310263 -0.02848387789 -0.030676209368 -0.032202080823 -0.036693586782 -0.042313907295 
-0.048860092647 -0.054232669994 -0.058187262155 -0.061354253441 -0.061526647769 -0.060925794765 -0.060509748757 -0.057739689946 -0.054267787375 
-0.051621621847 -0.051909355447 -0.038457293063 -0.039512991905 -0.063203472644 -0.064286393113 -0.064510548487 -0.064306876622 -0.065117987804 
-0.068351844326 -0.072703059763 -0.077072475106 -0.080838309601 -0.082255866379 -0.081374341622 -0.080084029585 -0.077084532008 -0.071931730956 
-0.065330656245 -0.055817950517 -0.034082531463 -0.039001867175 -0.032369847409 -0.045199531596 -0.066546025686 -0.079443378374 -0.082535505295 
-0.078068189323 -0.087215874344 -0.093720123172 -0.10020443052 -0.10337598808 -0.10196674243 -0.095158932731 -0.081772429869 -0.065635795705 
-0.054380292445 -0.059116301127 -0.067066282034 -0.073001414537 -0.074939370155 -0.075163092464 -0.075256269425 -0.074974719435 -0.075474204496 
-0.077351607382 -0.079364253208 -0.078994752839 -0.070370140485 -0.049605717883 -0.058107784949 -0.046498153359 -0.08387780562 -0.072168678045 
-0.069853295572 -0.066425056507 -0.041504785419 -0.044166405685 -0.045953688212 -0.042240737006 -0.036344388034 -0.029882999603 -0.027889708523 
-0.030599820893 -0.032022638712 -0.032726701349 -0.029807357583 -0.030734258238 -0.022816643817 -0.011646871804 -0.0073813474737 -0.0094210942043 
-0.013726819772 -0.019220603164 -0.027337794658 -0.039040798321 -0.047379320487 -0.050309036858 -0.050905619748 -0.051038300619 -0.05109174829 
-0.051803949289 -0.052990251221 -0.05170938652 -0.049905840307 -0.047385743819 -0.043774531223 -0.041005318053 -0.039170080796 -0.038461824879 
-0.038187406026 -0.03670091629 -0.036491974257 -0.040367315523 -0.044871812686 -0.0491640158 -0.051888785325 -0.052971960977 -0.051885236986 
-0.049229351804 -0.044593784027 -0.037442320026 -0.030205803923 -0.027446241584 -0.026709811296 -0.026693901513 -0.028394764755 -0.028197304346 
-0.031105007511 -0.044360359199 -0.037636052817 -0.050222918391 -0.054871131666 -0.057244299911 -0.056610804051 -0.056701321155 -0.055159482174 
-0.053542998619 -0.052950860932 -0.052224734798 -0.048596580513 -0.051659110934 -0.041601553559 -0.035749855917 -0.0329364012 -0.030908159446 
-0.026926129125 -0.024449756835 -0.051346035674 -0.050200936384 -0.052152201533 -0.052122713998 -0.051293910481 -0.051980516873 -0.046315888874 
-0.037369553 -0.029507759027 -0.026438579895 -0.027681930922 -0.025944934692 -0.024464177433 -0.03449778026 -0.032346639782 -0.04799786862 
-0.051229684614 -0.055524653755 -0.060509589501 -0.064739784226 -0.067473370582 -0.068852011114 -0.067996620201 -0.067103690468 -0.068895118311 
-0.069778600708 -0.068312143907 -0.065267564729 -0.058138025925 -0.048183584586 -0.035691695753 -0.039967631921 -0.031740726903 -0.027348060161 
-0.02335916739 -0.025213311426 -0.03524727514 -0.04889187403 -0.057248299941 -0.080154867843 -0.057613177225 -0.074979083613 -0.054946510121 
-0.054292454384 -0.056950986385 -0.062680052593 -0.068183991127 -0.071810945868 -0.07575398311 -0.080275414512 -0.084558004513 -0.087145650759 
-0.085869936273 -0.078916698694 -0.066456377506 -0.05204867851 -0.042361123487 -0.060425443575 -0.049201324582 -0.067876752466 -0.069458862767 
-0.067693243735 -0.066021461971 -0.066171472892 -0.067717799917 -0.069220239297 -0.071641772985 -0.074424071237 -0.070975029841 -0.062303337269 
-0.047397640534 -0.05275896471 -0.039178511128 -0.034545739181 -0.040995949879 -0.035377395805 -0.025507332757 -0.027070929762 -0.024944000412 
-0.024198351428 -0.026357966941 -0.024417940993 -0.013998949784 -0.0041282541351 -0.0031556576141 -0.0062403820339 -0.010236511356 -0.01570377918 
-0.020616430789 -0.026362703647 -0.037576254457 -0.045522814617 -0.046103148721 -0.046065470204 -0.045231560245 -0.045050334185 -0.046795539558 
-0.046673837118 -0.045346148312 -0.043541853316 -0.041163688526 -0.039207559079 -0.037395057268 -0.035896188579 -0.033463163767 -0.032940478995 
-0.038096108474 -0.033663487993 -0.042830242775 -0.046510345303 -0.049079369754 -0.050158800557 -0.048762075603 -0.045809702948 -0.039896209724 
-0.03159632301 -0.024829143658 -0.024382182397 -0.025676949415 -0.024504382163 -0.024774262216 -0.025605810806 -0.027341512342 -0.027730635833 
-0.02886665985 -0.027401291765 -0.029426750727 -0.033962471411 -0.041377597488 -0.047153069638 -0.052514132112 -0.053229768761 -0.051878696308 
-0.031522583216 -0.029920002446 -0.02497667959 -0.024608823471 -0.021837251727 -0.024488124531 -0.020177089609 -0.019417732954 -0.018340834106 
-0.0071426530485 -0.00073189300019 -0.0026866674889 -0.0053526347619 -0.0081949821906 -0.013009131886 -0.016383414855 -0.017425477505 -0.027243545745 
-0.040349609777 -0.041740623303 -0.042006772012 -0.042151867412 -0.04133364372 -0.041796253063 -0.041520033963 -0.041081386618 -0.039968129247 
-0.037771723233 -0.03627117537 -0.03480606433 -0.032729343046 -0.029279511422 -0.027315645479 -0.027378049213 -0.02415607078 -0.024304171558 
-0.027818865143 -0.03128738096 -0.034956066869 -0.039619030431 -0.042457928881 -0.045022055507 -0.046274938621 -0.045787554234 -0.04375703074 
-0.038316979073 -0.029646234587 -0.024100719485 -0.025088253897 -0.024543495849 -0.022571623325 -0.02282310091 -0.024908605497 -0.026166333351 
-0.027966814581 -0.027693658601 -0.027130565606 -0.027723381296 -0.032679223766 -0.039057656191 -0.045393466018 -0.050158202648 -0.050508963317 
-0.035877249204 -0.041395361535 -0.048082718626 -0.053747563623 -0.057198083028 -0.058486932889 -0.057946259156 -0.056507565081 -0.057783939876 
-0.063118817285 -0.067315623164 -0.067072734237 -0.063963574357 -0.058419534937 -0.051786433905 -0.045296026394 -0.035561461933 -0.038603422232 
-0.032031890005 -0.027267999016 -0.022688760422 -0.022946048062 -0.027290692553 -0.033221400809 -0.040079703555 -0.044722971506 -0.044848571531 
-0.042401705869 -0.041916088201 -0.046262447722 -0.053582709283 -0.060000528581 -0.06471868325 -0.068661157042 -0.071842089295 -0.07384971343 
-0.073933040723 -0.070043958724 -0.061429001391 -0.049456579611 -0.038356739096 -0.031551602297 -0.028598716948 -0.029324409552 -0.027127415407 
-0.033598218113 -0.043929693289 -0.057995761745 -0.066036660224 -0.065069669858 -0.060851699673 -0.058277566917 -0.05865858309 -0.059997736476 
-0.060943822376 -0.062131298706 -0.063604844734 -0.063074204139 -0.058382136747 -0.052337243222 -0.04230634775 -0.045250185765 -0.039614902188 
-0.033365388867 -0.027401735075 -0.0080967400572 -0.0017351544811 -0.0043337694369 -0.0077630232554 -0.010330667021 -0.013870929135 -0.015080617508 
-0.014352571219 -0.021598057356 -0.037637317088 -0.040223212913 -0.040372889489 -0.040632851422 -0.039670944214 -0.038079731166 -0.036440659314 
-0.037839914672 -0.037590122782 -0.034785428084 -0.033276841976 -0.032323990017 -0.030882760417 -0.02807604149 -0.025522268843 -0.026075599715 
-0.026429518126 -0.020368726458 -0.021641761065 -0.023531306069 -0.026893721428 -0.02874229895 -0.031922430266 -0.035073140636 -0.037840463221 
-0.040559854358 -0.042006363161 -0.04459250439 -0.045646706596 -0.043359064497 -0.040456654504 -0.029033115134 -0.030489211436 -0.02556488663 
-0.023323919624 -0.024201911874 -0.045600888319 -0.051040521823 -0.02755714627 -0.028978830203 -0.031282026786 -0.027588435449 -0.029317589477 
-0.034179969225 -0.029147401918 -0.037245601416 -0.044441447593 -0.048932095058 -0.050634602085 -0.050843957812 -0.049777906388 -0.048411903903 
-0.050957771949 -0.058655532077 -0.06452414766 -0.06265697442 -0.057881199755 -0.052460089326 -0.043189484626 -0.034059471916 -0.036376360804 
-0.031241468154 -0.028688879218 -0.024814228527 -0.02110558562 -0.024489981588 -0.029763731174 -0.033259905409 -0.036460463889 -0.039357535541 
-0.038619143888 -0.037025563419 -0.035246660933 -0.038649045862 -0.045979300514 -0.053216839209 -0.059176618233 -0.062831959687 -0.064057995565 
-0.063559741713 -0.059629304335 -0.052682021633 -0.045050445944 -0.035913102794 -0.027145185973 -0.022431741469 -0.021905191243 -0.023786434438 
-0.026736462023 -0.025872820988 -0.02642665524 -0.02830577502 -0.03777088644 -0.052945551462 -0.061384708621 -0.059029157273 -0.054622475989 
-0.053492666222 -0.053948798031 -0.055715708062 -0.056909486651 -0.056665301323 -0.056135041639 -0.056131680496 -0.054325805977 -0.050492227077 
-0.046386329457 -0.034855184611 -0.039541787002 -0.032294247765 -0.050662474707 -0.05212023668 -0.053255219944 -0.053299084306 -0.051722113043 
-0.050823638216 -0.04764102865 -0.038862525485 -0.028563658707 -0.026113671251 -0.026424446609 -0.025107737165 -0.025320822839 -0.026668062899 
-0.024243025109 -0.0269017471 -0.019120202167 -0.013593868818 -0.034567878582 -0.026037618518 -0.041399084032 -0.044551025145 -0.044622673653 
-0.044899329543 -0.04450558871 -0.043398034759 -0.046067707241 -0.054052305408 -0.059448082 -0.056846795604 -0.050702099688 -0.032590275258 
-0.03538706402 -0.038390244357 -0.029186271597 -0.026392057072 -0.025094783399 -0.022356964182 -0.018659725552 -0.02402117569 -0.030478965957 
-0.034703816287 -0.035733977333 -0.038910354488 -0.035379039124 -0.03622870706 -0.032356457785 -0.034402963705 -0.041302920319 -0.048962472938 
-0.055128552951 -0.059187380597 -0.05950164143 -0.053026718646 -0.038510372397 -0.045608672313 -0.033764340449 -0.02820253605 -0.021218775772 
-0.016948456876 -0.016456739977 -0.016852142522 -0.020327903563 -0.037120752037 -0.038891724311 -0.028087215498 -0.032958082855 -0.04356416408 
-0.047914643772 -0.050114235841 -0.0519385878 -0.053067856468 -0.054232914932 -0.054862465709 -0.0061067932402 -0.0057516978704 -0.0097734595183 
-0.013772083214 -0.017188602826 -0.01678399602 -0.014464715729 -0.019411881221 -0.035312711261 -0.055773136206 -0.049273428818 -0.04516909644 
-0.043364302255 -0.041228188202 -0.038007223047 -0.033945748582 -0.032670364715 -0.036107797176 -0.03662715666 -0.034233103506 -0.033273493871 
-0.032611647621 -0.031056416221 -0.028911664151 -0.026112257503 -0.024911559653 -0.02580175316 -0.026114454027 -0.020022527315 -0.016230216948 
-0.024355660193 -0.026138774585 -0.027139528965 -0.029520679265 -0.026650252752 -0.026468657423 -0.026551225688 -0.024784956127 -0.024882588536 
-0.030627295375 -0.042157656513 -0.049198220484 -0.049957660586 -0.05132909026 -0.051639700929 -0.041246075183 -0.046414813027 -0.05111347232 
-0.05244365707 -0.050873693079 -0.049019602127 -0.032309279777 -0.043433042243 -0.032103275259 -0.036539610475 -0.032990712672 -0.029420750216 
-0.027273176704 -0.032417098805 -0.036255928222 -0.037528214976 -0.031034953427 -0.025695974939 -0.040637894223 -0.035246165004 -0.030599854887 
-0.012659536302 -0.053492972627 -0.049451017752 -0.04483771231 -0.0385763878 -0.032408916391 -0.031460697763 -0.035327431746 -0.036325435154 
-0.034794174135 -0.035078098066 -0.03462519031 -0.032074229792 -0.024239035323 -0.024251772091 -0.024417500012 -0.022239350248 -0.026630789042 
-0.0080205232371 -0.010730031412 -0.017027607886 -0.021030800883 -0.021440169774 -0.019088426372 -0.019361448474 -0.03034393955 -0.027873093728 
-0.026862478349 -0.024045604281 -0.01897438569 -0.013086082181 -0.012068014126 -0.012496554603 -0.038246884011 -0.036196264438 -0.033572142478 
-0.017942833947 -0.014297479764 -0.018664977048 -0.033692778554 -0.029060977045 -0.034564597532 -0.036451934526 -0.036214833148 -0.041429386474 
-0.037572678179 -0.037643546239 -0.038833402097 -0.026275099255 -0.039460632019 -0.031255579554 -0.027501033619 -0.033004910685 -0.10033230297 
-0.093936113641 -0.02719508484 -0.024493703153 -0.025773071218 -0.026981714647 -0.029988133349 -0.026648513973 
Stress_Z_Pt 1 1114 double
0.019797228742 0.06912583299 0.065577677451 0.03153781849 0.070111928508 0.071789155714 0.080820603296 0.08826737944 0.10870074108 
0.11425916106 0.09333717078 0.10589959286 0.066730452701 0.091540587135 0.072237500921 0.10526300315 0.093207091093 0.12058632076 
0.086151652038 0.10861991718 0.071304662153 0.088734372519 0.047917546704 0.063653853722 0.022625609767 0.037910456536 0.0039896717062 
0.019476513553 -0.0062403889606 0.0092584282975 -0.010177130345 0.0040577689651 -0.0099718309939 0.0027316911146 -0.00095003680326 0.0064163823845 
-0.00082547427155 0.0038109757006 -0.0077198892832 0.0016551789595 0.011555023491 0.01734828297 0.035360934213 0.036037984304 0.048579655588 
0.052594632842 0.068378414959 0.073532400653 0.096350796521 0.095372274518 0.11084207892 0.10422587395 0.097079645842 0.093959858641 
0.079525880516 0.080868255347 0.072364266962 0.073804605752 0.067667379975 0.069431710988 0.061334794387 0.064070661552 0.050118306652 
0.054324299097 0.035131987184 0.040980649181 0.022022739984 0.028608615976 0.011464325013 0.018923320458 0.004438365344 0.012430425966 
0.00019276951207 0.0071600760275 -0.0029549578321 0.0021177961899 -0.0031634159386 0.0011347813997 6.5644853748e-05 0.0026586488239 -0.00096317345742 
0.0028622770333 -0.0048310146667 0.0072471087333 0.0095861197915 0.0050817858428 0.0081956288777 0.012142409221 0.0011882882754 0.0048878189737 
-0.0039270107445 0.0023029285112 -0.0084684772883 9.0177753009e-05 -0.011150651611 -0.0022636397043 -0.016552570742 -0.0054112622747 -0.020589628257 
-0.0066749439575 -0.018768475391 -0.0046836142428 -0.013883383013 -0.00040995981544 -0.0096497884952 0.0029955792706 -0.010492588393 0.0033040121198 
-0.013034510892 0.0035840866622 -0.0088256404269 0.0076186930528 0.0013855760917 0.014375355095 0.011376108276 0.021751098917 0.022359590977 
0.031588765793 0.037234589458 0.042779402807 0.05010362342 0.051209935918 0.054979469627 0.055038491264 0.050311919302 0.053600883111 
0.040342379361 0.048332985491 0.031848300248 0.042318998836 0.031362200156 0.039281820878 0.030542634428 0.039140114188 0.029515087605 
0.037136974744 0.029346191324 0.035522525664 0.025735194795 0.032548066694 0.022960565984 0.029096747749 0.019147474319 0.023254224565 
0.018869231455 0.019899462815 0.021167006344 0.021356087178 0.020003964193 0.022956963629 0.02422380168 0.027550395112 0.03357611876 
0.031429632567 0.020877336385 0.020695546293 0.011031994829 0.013089593849 0.026035788469 0.020739754895 0.045015394688 0.030159182381 
0.052456477657 0.033275860595 0.057143319398 0.03684851178 0.074305195361 0.049250804819 0.091850854456 0.06389228208 0.10548499972 
0.077372401953 0.097803402692 0.078751895577 0.077680367976 0.07227922976 0.07714753598 0.074422338977 0.090137898922 0.080185482278 
0.095348492265 0.080185381696 0.088193010539 0.073982519098 0.077435392886 0.065184619278 0.0658748243 0.055918213911 0.050029985607 
0.044668362476 0.035959245637 0.034248247743 0.027343718335 0.027616799343 0.019608339295 0.022297632415 0.0126658394 0.017352773109 
0.010514552705 0.014384774957 0.0709751416 0.057693548501 0.084054697305 0.097402454913 0.108745398 0.11251145601 0.12562135607 
0.13053409941 0.11629681103 0.093009658158 0.069006644189 0.047356765717 0.032425574493 0.024749520235 0.019867885392 0.016773267649 
0.014901861548 0.013146591256 0.018075646251 0.029272611719 0.040951410308 0.055641215295 0.070858763531 0.081802807748 0.083792829886 
0.078435447067 0.071518384852 0.066285046749 0.062434771098 0.058076591231 0.051472308114 0.042223922908 0.032821113244 0.025138801895 
0.019321451429 0.01491099433 0.011107965605 0.0099379359744 0.0097537724068 0.011390266824 0.02261385601 0.040534471627 0.012278754963 
0.014919597656 0.010687076952 0.010355176171 0.010332557955 0.011403845507 0.013890548144 0.016769008711 0.019590262324 0.02080062544 
0.021332894918 0.023590546101 0.026686620899 0.02955491934 0.034538507462 0.042957184836 0.050203463994 0.054579905234 0.057709010318 
0.059034079313 0.057247764431 0.052199499682 0.045792674646 0.040608800948 0.042599556036 0.043974071741 0.041250913404 0.035681336187 
0.026628853753 0.01936604525 0.019002770772 0.023505764082 0.030665574223 0.029816283844 0.021949054208 0.01545072603 0.013750935905 
0.013253111858 0.012249649502 0.014324393123 0.021809975384 0.034341854043 0.048970683478 0.060963192955 0.068638598546 0.072016272694 
0.069840909913 0.064835950732 0.059533937834 0.052771207877 0.045694195665 0.039450522512 0.033776164986 0.029442233499 0.02630630089 
0.02353357058 0.020496945828 0.017544142203 0.042562465183 0.035891026258 0.092254377902 0.083744049072 0.097523391247 0.099043732509 
0.09688180685 0.086690274999 0.070232061669 0.054240858182 0.040306549519 0.029517634772 0.023663418833 0.020112388767 0.017097323667 
0.014955864055 0.016670384211 0.024642115459 0.035846723244 0.045596061274 0.054385191761 0.064960719086 0.077373826876 0.063977379352 
0.068996805698 0.059204842895 0.055757458322 0.052166942507 0.047765593976 0.042609813623 0.036648390815 0.030346646439 0.023904161993 
0.018127646064 0.015338887693 0.015626327135 0.017261702009 0.019475460751 0.020852302667 0.024017679505 0.033392098732 0.05078713689 
0.065247473307 0.075394520536 0.082690030336 0.040760246105 0.033711744938 0.041163160466 0.036882831715 0.027636159677 0.017629830167 
0.013456186512 0.016187006375 0.022987083998 0.020592052955 0.027759965509 0.013770275982 0.011552547803 0.011936428957 0.012703485787 
0.016801224323 0.025687630521 0.036689758766 0.049429885112 0.062327961437 0.071129158139 0.073854474351 0.071577811614 0.067036973312 
0.061336888 0.054030028172 0.046923903748 0.040955280885 0.036026302725 0.032175866887 0.028963111341 0.026818543673 0.023833824322 
0.020953022875 0.019623964559 0.017167872284 0.014237786178 0.013893416151 0.017018255079 0.021546312375 0.025897810701 0.028720453382 
0.02902302891 0.027668238617 0.027021419723 0.028408652171 0.031476868782 0.034512026701 0.037879488431 0.048375329375 0.054451991804 
0.059562084265 0.063996914774 0.064850317314 0.060372672044 0.052498579957 0.04413588997 0.036601589993 0.031810683198 0.029958388768 
0.032872929797 0.027748337481 0.030195667874 0.025201020297 0.070108789951 0.077424485236 0.065409323201 0.061497352086 0.058365564793 
0.055741715245 0.052626246586 0.048095216975 0.042480408214 0.036750810221 0.030873875599 0.025113668293 0.019747985294 0.016100390349 
0.01592401485 0.017184800468 0.020851916634 0.021488072351 0.020771081094 0.03029325325 0.048894478008 0.061537140049 0.081283582374 
0.078199386597 0.081192243844 0.07934753783 0.074741307646 0.066922861151 0.05756469816 0.048421829008 0.039304836653 0.029964957386 
0.021199986711 0.017052897718 0.014395654667 0.011988980696 0.013502796879 0.021779735805 0.033325845376 0.043203015812 0.051964559592 
0.063867425546 0.07674003765 0.084365554154 0.082191063091 0.071244228631 0.075681669638 0.064716094173 0.07458005473 0.072810068727 
0.067263128236 0.068697286149 0.019634586759 0.016533617396 0.03391225962 0.028016897384 0.017204275355 0.0098779567052 0.0096071597654 
0.014067108743 0.016848627944 0.01981061371 0.015813198639 0.021784847137 0.018545386032 0.011634641443 0.0089695174247 0.011291377712 
0.015470328508 0.021025073947 0.030480050016 0.040551508311 0.04642046988 0.053009339608 0.063554037362 0.073050703853 0.076860699803 
0.074847342446 0.070719931275 0.06517961435 0.058074132539 0.051180118695 0.044992314652 0.039463848807 0.035376828164 0.032388351858 
0.030441795941 0.025854232907 0.020792517345 0.01935096737 0.016393467318 0.014116157079 0.015124136815 0.020080689806 0.026164302137 
0.030716392677 0.032300698571 0.031131240539 0.028948457912 0.029407382011 0.032865057234 0.037382024806 0.040398713201 0.042430439033 
0.050396226346 0.065319946036 0.061107767746 0.069902243093 0.070128742605 0.062243206427 0.051666286774 0.04441436256 0.03937871661 
0.035933153704 0.033665022347 0.029613377526 0.025016359519 0.027024641167 0.025515729096 0.026509612333 0.0227437953 0.015386020066 
0.0089180443902 0.0073903005105 0.03959032055 0.043883784674 0.034400449134 0.030465663876 0.026750851888 0.029274931177 0.024339978117 
0.022955296561 0.02302567102 0.019704096718 0.013873888878 0.0088886492886 0.0079971333034 0.059595271945 0.058737386949 0.061418752186 
0.060245141387 0.059141941369 0.057691552676 0.055146845989 0.050678430125 0.044789637439 0.038244106807 0.032547224313 0.028475651983 
0.024390548933 0.020006325329 0.017386283958 0.01654776861 0.013211427722 0.012907227268 0.0075559011311 0.01664075884 0.016190028982 
0.015874058008 0.022193476558 0.035407762975 0.050876980647 0.06028346438 0.065024226904 0.061797774397 0.065797358751 0.061554895714 
0.06318551302 0.066920055076 0.071913367137 0.075823938474 0.076602453366 0.074808279052 0.071203779429 0.066343668848 0.060323427431 
0.053130159155 0.045271495357 0.037355568726 0.028975290712 0.021934006829 0.010067880852 0.010712402291 0.0088973412057 0.010769242188 
0.017942018807 0.027994493488 0.038029907271 0.047171596438 0.05628025718 0.066314609721 0.0732001625 0.072482546791 0.069249844179 
0.070948556066 0.068035755306 0.067606236786 0.063256497495 0.01258527278 0.016736877151 0.011553103337 0.011489391327 0.0129595818 
0.011267920258 0.014220944606 0.013263400178 0.0073583063931 0.0022665462893 0.0051038043748 0.013155247085 0.022107355995 0.033698604442 
0.046856068075 0.05391006358 0.055558002554 0.05769852642 0.064621364698 0.074958423153 0.079841393977 0.077707257122 0.073546515778 
0.068988880143 0.063466512598 0.057335278951 0.051638329402 0.046264994889 0.041029164568 0.03633582592 0.031585882884 0.027642383706 
0.014676760882 0.015994776972 0.012429255061 0.010690399911 0.012562940596 0.017184037482 0.021617004648 0.025012146682 0.025838689879 
0.024599018972 0.025595509447 0.031785333995 0.039247899316 0.043483083136 0.045701314695 0.04912770167 0.052957871308 0.05737257842 
0.062954831868 0.060695520602 0.065137022175 0.067340804264 0.069744765759 0.071587480605 0.069128500298 0.059459783137 0.047779445536 
0.01857713121 0.021472521825 0.0095570308622 0.0098065673374 0.010094639612 0.0099010481499 0.010049967328 0.0087767146761 0.0073246941902 
0.00098031207744 -0.0013098739 0.0057638074795 0.016973132733 0.028828138486 0.0433493983 0.056577685289 0.061258600093 0.060200185515 
0.060588718951 0.064913507551 0.075497664511 0.081399256364 0.079888567328 0.076245294884 0.072425315157 0.067779509351 0.062989933416 
0.05856822338 0.053605171852 0.046969262883 0.038778794929 0.030956186354 0.026148929261 0.023028729949 0.013271624222 0.017180944094 
0.011092191795 0.0088169541559 0.0076183990459 0.0069093269412 0.0054963986331 0.0068608732254 0.0098275684286 0.01250429824 0.016051355051 
0.017840160057 0.018502957374 0.027509646025 0.038281450048 0.046160602011 0.04871914722 0.050879782997 0.05495910719 0.05832622759 
0.063924429938 0.061069094576 0.067216092721 0.068477159366 0.069509901106 0.070424286649 0.069167021662 0.065387386829 0.055316182226 
0.061112982221 0.060438835993 0.059713243507 0.058380467817 0.056102357805 0.052027168684 0.046019208618 0.039192093536 0.033900392242 
0.031128342729 0.028188076802 0.023495451082 0.01921940688 0.015169309685 0.011222221578 0.0057100101549 0.0037883574551 -0.0002876073122 
0.0083530328702 0.011077068513 0.012121195206 0.017216340872 0.02813924104 0.041158745065 0.052763180807 0.06012396235 0.062009783462 
0.061547343619 0.062740670517 0.066726267338 0.071934303269 0.075768064708 0.076417414472 0.073129402474 0.067161014304 0.061339016072 
0.055983402766 0.049423654564 0.04146062769 0.033074098639 0.025881692767 0.02148744883 0.019540525507 0.011868069996 0.01690701698 
0.0053679219418 0.0035767806548 0.0065519948839 0.008990646922 0.011834003963 0.018087655073 0.026727373712 0.035389059223 0.042628749274 
0.048962851986 0.054151481949 0.0560767157 0.056359368376 0.058065779507 0.061578257941 0.067459316924 0.064806655981 0.068166549007 
0.066823881119 0.064471501857 0.0012293294421 -0.0010854595603 0.0079070542561 0.020764897577 0.03327139793 0.046556453221 0.059069745243 
0.064900783822 0.062505625188 0.062110083178 0.076320799068 0.066726961173 0.081323541701 0.080367721617 0.07787553221 0.074644450098 
0.070207800716 0.066069820896 0.061947794631 0.056228528731 0.048783434555 0.040804803371 0.033770131413 0.028657753021 0.025982799008 
0.022881971207 0.010579835856 0.015526152216 0.0090199694969 0.0072927393485 0.0047880121856 0.0032771836559 0.001174755831 6.7296954512e-05 
0.0012178208926 0.0031669717719 0.0071449106326 0.011368867243 0.014813002665 0.016081008594 0.048546900041 0.039450862911 0.053763668984 
0.055780050345 0.056785127148 0.063417934813 0.06451940164 0.061176626943 0.064494300634 0.065148607828 0.066770285368 0.069391851127 
0.069726886228 0.062997695059 0.062473376282 0.06098701153 0.059220341966 0.057334485464 0.054333534092 0.048785544001 0.041113816202 
0.033984087408 0.029502133839 0.02593347989 0.019505498931 0.012825973448 0.0084374314465 -0.00024771778844 -0.0021545456548 -0.0016632569095 
0.001085437063 0.004678903977 0.0071140179643 0.0097624252085 0.018969989847 0.031533382833 0.043084135279 0.0526842447 0.062129047513 
0.064749148674 0.065504641272 0.06646328792 0.069644888863 0.074528140947 0.078365288675 0.078573955223 0.073443189263 0.064814140089 
0.057805386372 0.052692109719 0.047089616768 0.040397399105 0.032141570933 0.024896193761 0.020844174549 0.019059732091 0.017638807185 
0.013641987694 0.015640469035 0.0079762616078 0.0020877779752 0.0018965587078 0.0088624808122 0.015738892602 0.018119195942 0.02125430014 
0.0271858708 0.033469413593 0.040652291849 0.045336258908 0.045978491195 0.045476698317 0.047853465192 0.05283811409 0.058376107365 
0.063062619418 0.067273711786 0.067129764706 0.067424470559 0.045817631297 0.039067635313 0.034657598473 0.033856839873 0.027981366031 
0.026325984858 0.026288684923 0.024552724324 0.02269892348 0.021481356118 0.01532799378 0.0095519653987 0.010193561204 0.010524925543 
0.010938848369 0.012468267465 0.0081437249901 0.0052690102602 0.063815785572 0.064552122727 0.062188233249 0.060209522955 0.059545472264 
0.058028647676 0.052968479693 0.045092788525 0.035986570641 0.028444847558 0.020189039968 0.011903096107 0.0042006716249 -0.00053965538391 
-0.0012711684879 8.3717168309e-05 -0.00059929097256 0.00052425298713 0.0033375736821 0.0060405364493 0.008934692014 0.020230842568 0.032911863178 
0.042831350118 0.051241666079 0.060206628405 0.071066943929 0.068742975593 0.071893015876 0.074457263574 0.078814748675 0.082176970318 
0.081097958609 0.074120501056 0.065183154307 0.059278782457 0.048989385366 0.052701167762 0.044004349969 0.035812126007 0.026758613531 
0.020323409233 0.016996338032 0.014164549299 0.012113635894 0.065794293769 0.062143350951 0.024397705682 0.014541689074 0.067213881761 
0.063635355793 0.058315778151 0.050578551367 0.043561182916 0.0396524854 0.039871306159 0.0012389100302 0.0075018255302 0.021154531278 
0.03487159824 0.047312184237 0.058156115934 0.063472162932 0.061758824624 0.059737479314 0.066324966028 0.065135235588 0.069807495922 
0.078325763345 0.081623204052 0.080955389887 0.079154133797 0.076396677643 0.072578314692 0.067623380572 0.061920496635 0.055639528669 
0.049599123187 0.044431518763 0.039094003849 0.033635833766 0.030097002629 0.02748858463 0.022829252295 0.0065839912277 0.007184494636 
0.0062762327725 0.0048722923966 0.0039063474784 0.0028279806429 0.014084552415 0.010182735277 0.010620387271 0.0059500628849 0.0016072476865 
0.0048768288543 0.014692311757 0.021731485613 0.024401769042 0.024378750473 0.026026629532 0.00023342490022 0.0041190041811 0.0097359275678 
0.014447553316 0.017749294639 0.018104772316 0.024945811136 0.025478878757 0.032942199459 0.047099824063 0.056778084487 0.062226832844 
0.06268138811 0.063992325962 0.065165916458 0.062283418141 0.064965102822 0.066399959847 0.024454116821 0.022218041588 0.017988879979 
0.0071346545825 0.072715135291 0.080547863618 0.082912653685 0.081226997077 0.078447662294 0.076042318717 0.073947550729 0.069661295041 
0.063149124384 0.057312412187 0.052715616301 0.04801099468 0.031871079467 0.033994024619 0.0028895880962 0.0044787524384 0.0025207948922 
0.0093554560153 0.019369943999 0.033292300999 0.046022237279 0.05503905192 0.057934221812 0.058047839751 0.054809952155 0.052892177366 
0.04979331512 0.041238582693 0.029995833058 0.019562549889 0.014052580344 0.011654438761 0.04421102535 0.056767976843 0.063265104778 
0.0050292023225 0.0061651659198 0.012513901223 0.042930033989 0.034922885243 0.050140177831 0.056401539594 0.055790545419 0.039494303986 
0.060096322248 0.059990742244 0.057433892973 0.0082412877236 0.050710771233 0.043956112117 0.03781979531 0.04961365927 0.069944210351 
0.073331268504 0.0106123096 0.066201334819 0.068209739402 0.038235935383 0.04315184243 0.028338402044 
Stress_XY_Pt 1 1114 double
0.064409049228 0.067323874682 0.066091528162 0.061665430665 0.037094331812 0.043325354112 0.018639627378 0.019583619898 0.023864904419 
0.01847369899 0.022197064012 0.02257715282 0.03531271778 0.037765464745 0.041951037943 0.044455402531 0.036179315299 0.04031933099 
0.033146964386 0.03878680896 0.031690569595 0.037338298745 0.033357810229 0.034635908436 0.035622771829 0.032679428812 0.035961143672 
0.030799297616 0.033832583576 0.028524483088 0.028580918908 0.025659966748 0.022220823914 0.020965401549 0.017599413171 0.013997504953 
-0.012757603079 -0.0058180464694 -0.0002698097378 0.0033213937859 0.028640856966 0.022008378292 0.0040379813872 0.0085575529374 -0.016084239352 
-0.0061715312186 -0.027796030045 -0.018029295548 -0.033422192559 -0.025100582279 -0.030063007027 -0.022539302474 -0.017266330775 -0.012046457909 
-0.0069024828263 -0.0042936739774 -0.0023519120732 -0.00052392285579 0.0017379522469 0.0034921400438 0.0041979014641 0.0064481439185 0.0044154704083 
0.0076822369592 0.0055389432237 0.0093746311031 0.0091307342518 0.013119881158 0.016040542629 0.01911675767 0.024443262257 0.026694345288 
0.033332278952 0.035211544484 0.041748059914 0.041081939824 0.049066884443 0.042708951049 0.05678091757 0.046634691767 0.061547262594 
0.053315212019 0.060688557103 0.057270869613 0.002100922633 0.0093818451278 0.0078772279667 0.0025698770332 0.010569382925 0.008625783259 
0.0070943349856 0.0058200485364 -0.0038327200455 -0.0010474168012 -0.0060042747064 -0.002553471284 -0.0024627867388 -0.00028209490119 -0.0012851564679 
0.00088875502115 0.0025447211228 0.003944637021 0.008199352771 0.0089186643017 0.015078511089 0.015153852524 0.018374741077 0.018075542524 
0.013852821197 0.014560103184 0.007070054533 0.0091532749357 0.0048443856649 0.0069461257663 0.0033806318825 0.0056903947116 -0.00098314104252 
0.0026415577595 -0.00054803764215 0.0027414532669 0.0039023375721 0.0061018606939 0.005208844319 0.0073153090198 0.0022040517324 0.0045697188598 
-0.0010153908261 0.00097983986598 -0.003990826779 -0.0027532773966 -0.0095785025042 -0.008216354996 -0.017649710644 -0.014363348484 -0.021403124556 
-0.018461957108 -0.025758467615 -0.023487836588 -0.032660674304 -0.026419186965 -0.034230403602 -0.023143247818 -0.023424894549 -0.012134385295 
-0.0030677756295 0.002717870404 0.011138389818 0.012189596891 0.020666606724 0.018345437944 0.028350596316 0.022123642266 0.014043829637 
0.01109172919 -0.0075759713072 -0.0029778129247 -0.0065013806161 -0.0022537146724 0.0068258184183 0.0060138694098 0.023776721675 0.017858152743 
0.047024490312 0.034160237759 0.060510471463 0.046795883682 0.059312539175 0.051610178314 0.058445032686 0.05543342419 0.065092202276 
0.062300424092 0.065576424822 0.062641372904 0.047342207283 0.048347050324 0.032757963985 0.033649120945 0.028545564972 0.025160590652 
0.025734390132 0.020429268712 0.025555678643 0.02064609318 0.028672236018 0.023920352571 0.035381250083 0.028629542794 0.034803022631 
0.028083359357 0.023637942038 0.020123224473 0.013915074524 0.012115534744 0.0066093649948 0.0059141838574 -0.00083842745516 0.00058316074137 
-0.0053465540987 -0.00227258823 0.045235475525 0.056384976022 0.026588164736 0.019090662338 0.024008527165 0.036780059803 0.042835535482 
0.041129714809 0.038852234371 0.03659394104 0.031643371098 0.026282163803 0.021993908565 0.020104752854 0.019266119925 0.016114930157 
0.0093693297822 0.0029199510318 0.0044878913468 0.0085340533115 0.0078170246561 0.0015789197641 -0.0093057279009 -0.018779868633 -0.015277739381 
-0.0076187134837 -0.0031564482633 -0.0010183023551 0.0015853997465 0.0046858188143 0.0078330758261 0.011088390253 0.014996856684 0.019730800996 
0.025903760921 0.03247078089 0.033623442054 0.031807823107 0.033489320427 0.037875873502 0.044906402938 0.05310773477 0.0062777503626 
0.0056738239946 0.0051806819974 0.0036400827157 0.0034500238471 0.0040937671147 0.0045619092998 0.0063149654306 0.010356397019 0.015532008139 
0.017761709634 0.015940348618 0.012898739427 0.010714468779 0.0093922481174 0.0080325979507 0.0082298254129 0.0099179823883 0.009984619217 
0.0073500919389 0.0034640634549 -0.00087367126253 -0.0054823909304 -0.0095295143547 -0.018067213474 -0.015366850421 -0.01686001895 -0.0096412572893 
0.0011767791002 0.0098907951033 0.014123117086 0.014800063102 0.015673051588 0.010789494176 0.0038780374161 0.0029485159321 0.0042140859878 
0.0079805757268 0.01459506026 0.024356234353 0.036317083053 0.047090204433 0.053348496556 0.052986813709 0.045054026879 0.033128071111 
0.021313189762 0.014153819997 0.014187949477 0.016796403797 0.018028248334 0.016724587185 0.012799881282 0.0079073662055 0.0039640803298 
0.0020014128968 0.0014251709217 0.0030117128481 -0.013118614908 -0.0095377349062 0.022173594218 0.020079007372 0.027934785932 0.032705207355 
0.033310004044 0.03043682687 0.027680689935 0.025283480063 0.021675520111 0.017961302772 0.014668725897 0.011830594158 0.009653001558 
0.0069022759562 0.0046925386414 0.003343445569 0.0030988095968 0.0031356622349 0.0011519722757 -0.0059477110626 -0.014762668405 -0.0098543396452 
-0.01558225695 -0.0064800092368 -0.0052373356884 -0.0042920113046 -0.002158476258 0.0014795713723 0.0058383057258 0.01042634889 0.015236058971 
0.019773922861 0.022923580371 0.023054508958 0.021509544179 0.024801143911 0.026890993584 0.03474636795 0.048357735388 0.049913671799 
0.041321346536 -0.020749020856 -0.019356394885 -0.011936236406 -0.006586454052 -0.010113701806 -0.0059915702441 0.0016133355675 0.0092075958964 
0.013217179803 0.01222398784 0.012396853883 0.00728967553 0.013333908282 0.0039549869834 0.0032504593255 0.0036451040069 0.0062095419853 
0.013493007049 0.026278449222 0.039068267681 0.044494858012 0.043073103763 0.037397963461 0.029380240478 0.020520280348 0.014257067116 
0.013190358412 0.013545126654 0.012184006395 0.0095801382558 0.0064704311662 0.0032803266076 0.00097509700572 0.00044134404743 0.0019052507414 
0.0038896010665 0.0052420925349 0.006356586935 0.0072514284402 0.0074837313732 0.0073201974155 0.0068176062778 0.0064322235994 0.0079173382837 
0.011582046282 0.015616007615 0.017255999148 0.015654333867 0.013333431678 0.011865938781 0.010593198473 0.0089620595798 0.0099219763651 
0.011022194056 0.0093763862969 0.0054012080436 0.0014575105233 -0.0018833962095 -0.0043391292566 -0.00536999834 -0.0043487708317 -0.0018810926704 
-0.004085194855 0.00082937270054 0.016041662078 0.013496925589 -0.021601596382 -0.022471358534 -0.018305151258 -0.014569288353 -0.011275941972 
-0.0094119084533 -0.008347205352 -0.0068306762259 -0.0038890408687 0.0009100604002 0.0067722760141 0.011963918107 0.014980854234 0.015691502951 
0.015884748893 0.015116062248 0.022542110644 0.016926899552 0.033302510157 0.045706503093 0.047601632774 0.040853508748 0.018363262527 
0.01832912676 0.020337298047 0.023276601918 0.025596037041 0.026154085994 0.025300154462 0.023798739072 0.021145995706 0.016566656297 
0.01016510874 0.0057069062022 0.0039828798035 0.0040435558767 0.0052081829053 0.0068887629313 0.0076637198217 0.0070738176582 0.005951183557 
0.002559305809 -0.0029881377122 -0.0087997490191 -0.015966734965 -0.024233492091 -0.020657141693 -0.023475943599 0.021718698554 0.021153648384 
0.02425288735 0.024066492915 0.014304305892 0.013137368718 -0.0045996210538 -0.00018322473625 0.0067223049118 0.011044307612 0.011135853129 
0.011418372858 0.011769829551 0.011245857691 0.010016513756 0.011865040287 0.0096828375827 0.005810902454 0.0037257839576 0.0043276080396 
0.004684155283 0.0059343105531 0.012737705372 0.024053764995 0.034128345083 0.038635034114 0.037454077974 0.031975483522 0.025378210936 
0.019567277282 0.015863075852 0.014364509378 0.012340378715 0.0094650979154 0.0062277760007 0.0026842515217 -0.00029226910556 -0.0014651342353 
9.3092647148e-05 0.0025383586297 0.0043966740195 0.0069272624096 0.0080652817851 0.0095237395726 0.010136700701 0.009143959498 0.0076743580867 
0.007161557558 0.0090097823413 0.012081492459 0.014929604484 0.015685943887 0.012361746165 0.0092600196367 0.0096982647665 0.0099789118394 
0.007791339769 0.010224932339 0.0099929475691 0.007345463091 0.0014257111252 -0.002574629114 -0.0038734762347 -0.0043906662613 -0.0036695767776 
-0.0023105762375 0.00010315346299 0.0026201340661 0.0035943082476 0.0051623330801 0.00065297327819 -0.001420266839 0.0013770260557 0.0071614003973 
0.010817107745 0.011374421883 -0.0010826424259 -0.0024646901584 0.0017241020832 0.0053415742586 0.007805551053 0.0087316969875 0.0065302450676 
0.004857738968 0.0030837930099 0.0041864675295 0.0084987186128 0.011031732662 0.011263905326 0.0079782961402 0.0053400186589 -0.021287576761 
-0.018329906277 -0.015011972282 -0.012665704824 -0.011122344062 -0.0095450493973 -0.0069303392665 -0.0020198782731 0.0045501390414 0.010150155053 
0.012949593132 0.013286690228 0.012850185158 0.012751672184 0.012556403643 0.011775871739 0.013002823573 0.012097185012 0.013840509346 
0.018923948985 0.027778326068 0.034957902972 0.036294615362 0.034387797583 0.033284611069 0.030666244216 0.02666816907 0.027059058193 
0.025663317647 0.024914448615 0.022222983651 0.019229634665 0.01802170556 0.018098528497 0.019054981414 0.021244278643 0.024391391315 
0.026506221853 0.026047310326 0.022659517359 0.016158059007 0.010665604612 -0.00033503807936 0.0017883732216 0.0026753487546 0.0072463994729 
0.011182232061 0.012655618833 0.011826278409 0.010083951987 0.0083919186145 0.0061042374582 0.0013269377814 -0.0058421021386 -0.012567683531 
-0.02130545117 -0.016123319278 -0.023428438697 -0.021676143631 0.0065002760966 0.0085722472286 0.0099252392538 0.011524633272 0.0079014619114 
0.0084743873449 0.007754320628 0.0070080384612 0.0038461458462 0.0013987792481 0.0030609531095 0.0060547001194 0.0072547651362 0.0082161537139 
0.013358385535 0.020095279673 0.025472575799 0.030086852144 0.031016586814 0.026892137248 0.022051485255 0.018742527347 0.016670421697 
0.014651960926 0.011753276223 0.0089779326227 0.0056803483167 0.0018784774293 -0.00079644135258 -0.00097249819373 0.0014532093774 0.0036521660513 
0.0080435719574 0.0047725034237 0.0096972945612 0.010984702734 0.011434971821 0.0099671718199 0.0087732113898 0.009565420798 0.010840244242 
0.013650675071 0.01609996357 0.013903999934 0.008744820836 0.0051004322595 0.0065317690023 0.0083310808986 0.0072304490022 0.0049863285385 
0.0050044120871 0.0030760859372 0.0084831172135 0.010413113516 0.0096817021258 0.0054095394153 -0.0012287297577 -0.0041862656362 -0.003370306571 
0.003716261388 0.0039913755027 0.010551917832 0.0095909330994 0.0078781619668 0.0092897242866 0.0059021275374 0.0038318374718 0.0034196893297 
0.0014650086523 0.00016963039525 0.0018837880634 0.005105922115 0.0067364525748 0.0081363219069 0.011161599075 0.014195770491 0.016700935783 
0.020993198454 0.026493897196 0.023845961783 0.020347781945 0.019022941589 0.017203748925 0.013962485362 0.011289730435 0.0089365600143 
0.0056547500426 0.0026630854991 0.0010902343056 0.0010046531825 0.0016664341674 0.0022869788518 0.0024594382267 0.004463829624 0.0030136069108 
0.0052153442521 0.005795700592 0.0077847574139 0.010239902418 0.01208447665 0.012375659309 0.012113572331 0.012180465972 0.01263901894 
0.014551779954 0.018012729101 0.017447404098 0.012119920924 0.0071031145053 0.0036408489686 0.0041232343647 0.0055740313837 0.0033716544858 
0.0020062189724 0.0023888243886 0.0059328068164 0.010499323718 0.011162619106 0.0089810567442 0.0020295266586 -0.003255402582 -0.0048100302927 
-0.018917131471 -0.015606916044 -0.013077804819 -0.011763752904 -0.010351299774 -0.0086835498223 -0.0065778188873 -0.0027066549637 0.0036161066846 
0.0097031148616 0.012686407194 0.013438654365 0.014647556469 0.01484032115 0.013565127427 0.016549282474 0.014501583995 0.017944693565 
0.010951875476 0.010596556123 0.012531011365 0.014506689506 0.017884571804 0.021851708647 0.022470048396 0.02192767011 0.022025228711 
0.022479336243 0.023787867744 0.024416357279 0.022758147214 0.020390170161 0.018880222924 0.01793801086 0.018274424132 0.021040128544 
0.025126648601 0.027964464389 0.027679159772 0.023882824462 0.017537600594 0.012138638878 0.0096378764138 0.0079238434555 0.0087315433193 
0.0056438571191 0.0012304370466 -0.00069902459654 0.0038008123156 0.010134310462 0.013521153945 0.014085353818 0.012835062342 0.01082087867 
0.0094773718156 0.008472310612 0.0038237119734 -0.0016165750858 -0.0058164307848 -0.010418977588 -0.018887581537 -0.014514418086 -0.021571078027 
-0.021792579908 -0.017778014299 0.002173015062 0.0019641192339 0.0026366054954 0.0042823812691 0.0052354764193 0.0068998200586 0.0087663313607 
0.0096194761572 0.00996385701 0.010604657116 0.021537438501 0.022294627503 0.020203048363 0.019899673294 0.017976666568 0.014210703317 
0.011341741541 0.0083534668665 0.0049018400605 0.0028276235098 0.0022183872061 0.0022142678499 0.0021793823107 0.0014734383294 0.0012991210824 
0.0028372024244 0.0044502791716 0.0052137777675 0.0051476537483 0.0059025954688 0.0069613918895 0.0087796830339 0.010687517002 0.012975099264 
0.014111577068 0.014621140203 0.014714014018 0.013651731657 0.016186449211 0.019049112219 0.010427799774 0.014800989069 0.0066237716237 
0.0036065678578 0.0029678980354 0.018957231194 0.012843744946 0.0033181456383 -8.7821592388e-05 0.0030097530125 -0.0018670144782 -0.00061750630848 
0.0065987075795 -0.012878912385 -0.0086674835184 -0.0070951473317 -0.0071422370384 -0.0057311157288 -0.0039167314681 -0.0028185732008 -0.000636573056 
0.0044559991975 0.0097692762502 0.013330361573 0.015023553511 0.016333073378 0.018053753767 0.01818985045 0.015477448469 0.015656645177 
0.014457962709 0.011030341731 0.0077450235258 0.0084423266235 0.010785547551 0.01173212193 0.012766721426 0.012971948367 0.0096285039559 
0.013042151346 0.016566718696 0.020016858354 0.021496717818 0.020733167883 0.01902607223 0.017461891053 0.016710044118 0.017707002349 
0.020851064473 0.024253420532 0.025596696883 0.024957392365 0.022312257439 0.017591057578 0.012814092217 0.0098912459798 0.0087789844256 
0.008695583092 0.0088835307397 0.0078437072225 0.0057827787241 0.0035286809725 0.0039714315935 0.0078273967229 0.011424517725 0.013032768155 
0.012978212675 0.011568398587 0.0099374686833 0.0087251315514 0.00712314673 0.0024789121526 -0.0024468566698 -0.0044120340026 -0.0058523766929 
-0.0079872257775 -0.013942554127 -0.0070596422884 -0.018994852668 -0.0037293685746 9.0434521553e-05 0.0035403105721 0.0079790782183 0.010533366352 
0.0097527368926 0.0093238591217 0.0077186669223 0.0062826212379 0.0073316321359 0.0098725295393 0.010943784844 0.010453645606 0.010176656302 
0.0097630878445 0.0097553490195 0.0074964428204 0.0040983031504 -0.003393646417 -0.0078503434779 -0.0015455601097 -0.001938310379 -0.00027944335307 
0.0017142259603 0.001733602614 0.0030356061689 0.0070156535949 0.012115226593 0.015485286526 0.01640010532 0.017301373649 0.012147410773 
0.013616950251 0.015988126164 0.012466070242 0.012555582216 0.011338938959 0.0072520523681 0.0061716946657 0.0066337189637 0.0073839484248 
0.0082401278196 0.0082065798342 0.0044374331192 0.012747878209 0.0086457463913 0.016922578216 0.018789342139 0.018161749002 0.016414235812 
0.014659091365 0.014146598289 0.014858144568 0.0146546009 0.018872721819 0.018236306263 0.018689077115 0.017252273625 0.014668819262 
0.01148409606 0.0086086887168 0.007649975596 0.0090243857121 0.0040306689916 0.00095012581733 0.01715862751 0.017175018787 -0.0018503206666 
-0.0043597956537 -0.0053512076265 -0.0052450020448 -0.001983963768 0.0017839698121 0.006516558642 0.0043529358809 0.0056055471068 0.0054422167595 
0.0048666048679 0.0056656534434 0.0074654568452 0.0069296754664 0.0060099171242 0.0083923733328 0.013065763284 0.015225425052 0.015190713108 
0.016948720207 0.018659541383 0.019183142576 0.018191867508 0.015281586908 0.011952364119 0.0084805788938 0.0051609986112 0.0030591655523 
0.0022270886984 0.0024542953761 0.0029826757964 0.0020676125278 0.0010165547465 0.0022039839423 0.0047279035789 0.0065372863319 0.0070804896532 
0.0069892229512 0.0073636434972 0.0079477789501 0.0095983431675 0.010161898099 0.01016993355 0.0098544089124 0.008766310988 0.0066184227665 
0.0066109652398 0.0080132737057 0.010240182746 0.01097301133 0.011497989763 0.011697578244 0.016820992576 0.016316982685 0.015040037921 
0.01558748167 0.018149216349 0.017404799815 0.015072279377 0.014728021808 0.014634027767 0.012985942187 0.011182823684 0.008339765016 
0.0053265478928 0.0051977335475 0.0014189844678 0.0021761061653 -0.002049367029 -0.0057150430512 0.0096168303862 0.008850884391 0.0089401595294 
0.0070018559229 0.012237526011 0.014095998835 0.016266624443 0.017696818803 0.018008701038 0.015881268075 0.011983698932 0.008411003626 
0.0053056525066 0.0025305786257 0.0013627938461 0.0019019359752 0.0018558079501 0.0016378941412 0.010068087373 0.009549897979 0.0096712792292 
0.0070910957875 0.0070436256938 0.0060669826926 0.0062915927847 0.0085121752927 0.0082884095609 0.0068155329985 0.010737216915 0.012193888426 
0.012514712522 0.010981674772 0.01014217129 0.0092596316244 0.0074580705259 0.0065123098902 0.013350676047 0.011163418414 0.0082603270421 
0.0080129100243 0.0078469809766 0.0074457760202 0.0051697351737 0.0038058970822 0.0045961145661 0.0033176243693 0.0013439285685 0.011001166189 
0.0026768855945 0.0041493430035 0.0050666296738 0.0092851144727 0.0074293790967 0.0032378598698 0.0031136675389 0.002313113233 0.032616707031 
0.024670076557 0.011719161024 -0.013588886475 -0.0090818204917 0.0030523867172 0.0030982384924 0.0028657799121 
Stress_YZ_Pt 1 1114 double
0.033627459779 0.014387465548 0.012962912006 0.026602393482 0.027711772826 0.022590193694 0.056437175721 0.044615970924 0.0088715292513 
0.011465932243 -0.008452991955 0.0025524604134 0.053479750641 0.053958708886 0.06831808202 0.067388502881 0.037309117615 0.041246122681 
0.021223318763 0.024424950127 0.011820175452 0.01370580832 0.006164947059 0.0072975871153 0.0018470891227 0.0038152481866 -0.0045394719637 
-0.00095496868016 -0.01027074689 -0.0069029066799 -0.013765633106 -0.011592483032 -0.016891141888 -0.01563565922 -0.016561645083 -0.016500554513 
-0.012210061308 -0.013719160575 -0.02021903405 -0.016406524926 -0.018103149952 -0.01153454528 -0.0056152334437 -0.0011418359936 -0.0040270147147 
0.00027854542714 0.0034160382347 0.0025295072555 0.01518357126 0.0098946760263 0.021999107674 0.020170316566 0.023312627338 0.02410698263 
0.024882493541 0.022899520118 0.025550900027 0.022593942937 0.025512199849 0.02326981863 0.02613307815 0.024522310123 0.02518758364 
0.024796149693 0.024512153119 0.024596297182 0.025436156429 0.025716070551 0.026236668229 0.027231224347 0.025086314417 0.026302407961 
0.022990528494 0.022223396692 0.023085765541 0.019024333451 0.025833073072 0.019166808808 0.030597987585 0.02077753772 0.035416429862 
0.022982335184 0.035753183067 0.025056976825 0.022214352153 0.023717827164 0.021396168042 0.018584971782 0.025219122879 0.023011962418 
0.024472619407 0.023121453356 0.026010901667 0.025649504736 0.032560672611 0.032150176354 0.036773364991 0.037078379653 0.039088664576 
0.039928403683 0.042549043894 0.042468146421 0.045990932733 0.043816460297 0.049082932994 0.043172182515 0.044968135655 0.036814041901 
0.032999978401 0.026510824449 0.0213073669 0.018452764489 0.019068772905 0.016916049412 0.018267407548 0.01628034655 0.011236438993 
0.010955990292 0.0092445337214 0.0082423782442 0.012524249498 0.010064315284 0.012503630016 0.011122755939 0.0079979014117 0.0094292528229 
0.00022552511655 0.0039087800542 -0.01268017292 -0.0065867333906 -0.026631415822 -0.01766361401 -0.03468458727 -0.025409847498 -0.039629984647 
-0.034548447467 -0.038780538365 -0.034684627317 -0.030315619893 -0.027756028809 -0.017307300121 -0.015413380577 -0.0052785724401 -0.0030529813375 
-0.0029518371448 0.0015563581837 -0.0042631691322 0.0019898461178 -0.0038842868526 0.0026891996386 -0.0020278094453 0.0041166156007 -0.010345751944 
-0.0013490340498 -0.020552172326 -0.008186193998 -0.0075904866681 -0.0013346651103 0.0093133761548 0.0084285867633 0.012289167382 0.011450490216 
0.020547180902 0.018125745002 0.03321170155 0.028024359606 0.038460798562 0.033126629423 0.039810568094 0.034364569001 0.037394849584 
0.033676626626 0.025943081826 0.027539258823 0.018156589009 0.021320094354 0.019815322012 0.018885486294 0.01234101993 0.010480957804 
-0.0039840510581 -0.0028057951713 -0.016224214341 -0.012545349426 -0.019114355557 -0.015540539986 -0.022527372465 -0.017835108796 -0.023162290454 
-0.018075907137 -0.012060898356 -0.010619917302 -0.00073056481779 -0.0019532896622 0.0058162370697 0.0036996248018 0.010115460493 0.0075896784547 
0.01678000018 0.013131095911 0.015793710278 0.015842379566 0.022034088382 0.014977971837 0.017736899201 0.042934889439 0.052612485364 
0.040845259093 0.027787615545 0.016425947426 0.0078437664779 0.0031799571298 -0.00072783978248 -0.0062039128825 -0.011664962512 -0.016678550746 
-0.019683614373 -0.01910545188 -0.015130940126 -0.0077977290493 -0.0016285887104 -0.0016696930979 -0.0040318102838 -0.0005821145256 0.014376636012 
0.020171605982 0.017714804737 0.016669626581 0.017504752381 0.019383093109 0.021828341298 0.023270174395 0.024622319266 0.026401803829 
0.025920109358 0.020552792121 0.013996501686 0.010488752276 0.0079799445812 0.0085897541139 0.015653828392 0.021703991573 0.017738601891 
0.015531875659 0.018983787391 0.022133087274 0.027879253961 0.033025225159 0.0359348231 0.036730375607 0.034802148584 0.030020037666 
0.023126773769 0.017194586573 0.014830197208 0.014234992443 0.013347031781 0.011799545959 0.010046486976 0.009868074907 0.011056906078 
0.011257319478 0.0081083272817 0.0014944977156 -0.0054464154382 -0.011896169395 -0.026479846332 -0.026525449629 -0.024121471215 -0.015397942043 
-0.0036933075899 0.0047949932487 0.008866247721 0.0097644608468 0.0093599725515 0.010535111651 0.0087630009511 0.0078642591834 0.0082259412156 
0.010301317787 0.014248814667 0.018501146464 0.021372460295 0.023110887501 0.025487593841 0.025950626004 0.022157540079 0.016268735519 
0.0085063369479 0.00015565109788 -0.006376995967 -0.0096924112877 -0.010739388643 -0.010660873959 -0.0081777762389 -0.0041482159213 -0.00048534120288 
0.0024663492077 0.006030661767 0.011100680684 -0.020489797927 -0.014273330104 0.020763014443 0.01732842694 0.026664364152 0.032044882886 
0.031474612188 0.025712352712 0.016822995385 0.0071083452785 -0.00045271209092 -0.0061452930386 -0.011335176066 -0.015779889887 -0.019694922492 
-0.022089218255 -0.020698236302 -0.015629827511 -0.0096868678229 -0.0056423184578 -0.0062973596505 -0.007639274816 -0.0070741706295 0.013031719252 
0.0082953189267 0.013286156813 0.012942454079 0.013353205752 0.015070993919 0.018444516463 0.021305221133 0.023048261646 0.02424290264 
0.023956540506 0.021698254626 0.018211851129 0.017057546042 0.01355250692 0.017031692201 0.026649506064 0.030947797932 0.024985449854 
0.0191385902 -0.0007782120374 -0.0059450062108 -0.01814080961 -0.011432206607 -0.019198976457 -0.016512696166 -0.0082947915216 0.00057949368784 
0.0070331051829 0.0086200804217 0.0052277189207 0.013500322355 0.011870631832 0.010265105753 0.0083392207744 0.0096653611399 0.012326926459 
0.012836388079 0.011553607066 0.013680726173 0.01824766933 0.020429269876 0.018542140489 0.013899011305 0.0084062075475 0.0029048553843 
-0.0021088806388 -0.0054197429563 -0.0065232916968 -0.0068190986058 -0.0064328075387 -0.0055542221526 -0.0039194356941 -0.0017369939742 0.00013962954108 
0.0038034661557 0.0089494573767 0.012542736251 0.014745119261 0.017794652376 0.022538384888 0.026267787442 0.027432222385 0.026200361084 
0.02247184841 0.017845024355 0.014536315342 0.013256693259 0.013906012988 0.013652745169 0.013864983805 0.014134820923 0.013314198237 
0.013977195369 0.013733223779 0.01218589372 0.0085293398006 0.0037100283225 -0.00058679864787 -0.0052805599557 -0.0079135351116 -0.0062525329995 
-0.011637587193 -0.0051554268575 0.0049974045251 -0.00034822138332 0.00055435975082 -0.0031014565611 0.0062958667986 0.010711882729 0.012613752857 
0.013219974004 0.013760671951 0.015024255496 0.017760092625 0.020950454753 0.0231528515 0.023492625915 0.022378471214 0.021690966096 
0.021398142911 0.021862746216 0.030657769646 0.024980996735 0.037891210057 0.038773660548 0.032078618184 0.026257408783 0.017246647505 
0.015077603981 0.019156461582 0.021848628763 0.023463627324 0.021742626093 0.015306557529 0.0055384059669 -0.0036930738715 -0.010952138109 
-0.017449759878 -0.019305574242 -0.020185564645 -0.01792971883 -0.013241554261 -0.0081913487666 -0.0039215714933 -0.00051374302711 3.8506113924e-06 
-0.00049522798508 -0.00097819243092 -0.0015970177483 0.00096291105729 0.00037537660683 0.0041587965679 0.0026719373418 0.014201918617 0.013059348566 
0.012735148892 0.012385908514 0.023168298882 0.020851790439 -0.015180030838 -0.011583226034 -0.0028337301919 0.004073316697 0.006248783553 
0.0039494530174 -0.00056940842842 -0.0043743539718 -0.0036213251587 0.0015276462073 0.0099737468408 0.011184227653 0.008444096311 0.0078668677015 
0.0099586497527 0.012944004033 0.012952360325 0.0094756055623 0.0089758958202 0.013324417872 0.016925000353 0.016629752237 0.01312535163 
0.0086983856745 0.0044530245359 0.00082671096607 -0.001870599619 -0.003264987492 -0.004089917813 -0.0049140203628 -0.0057646387722 -0.0053256845567 
-0.0042907066527 -0.0019226544711 0.0009860791979 0.0060710740509 0.010681148618 0.013868499314 0.017098467797 0.020741485059 0.022883501835 
0.023041949607 0.020593959372 0.015303356107 0.010928394506 0.010499820113 0.012332778657 0.013987829909 0.014092238154 0.015602403786 
0.016450768802 0.015955986921 0.013713450637 0.015467093093 0.012226575986 0.0074843631592 0.0038375571603 0.0016378602589 0.00037696001482 
-0.0014518579846 -0.0015250121069 -0.0005151914811 -0.0034215328815 0.0011024452215 -0.0080694498611 -0.013600633014 -0.013178031193 -0.0043181029541 
0.0032809360491 0.006122981431 0.0019659914251 0.0030420349649 0.0024410336482 0.0036549399956 0.003629278257 0.0054731378332 0.00061076049678 
-0.0046004870819 -0.010887653683 -0.012180627557 -0.0059191280379 0.0017459259616 0.0051836544299 0.01235315064 0.013593250187 0.0073474015808 
0.011604950298 0.014287681552 0.015550220385 0.016116668703 0.017360050464 0.019667382352 0.022585319355 0.024083047174 0.022692781407 
0.019593241625 0.017343613552 0.01701183361 0.017446989892 0.016025221674 0.015896279132 0.011765567237 0.020336079877 0.024412254803 
0.029529731255 0.034775434528 0.03514112765 0.031002659351 0.026471459772 0.020868853433 0.021836070344 0.015090908855 0.016767241294 
0.013233427191 0.011742951116 0.011700676056 0.01219239505 0.013191071805 0.014491306152 0.015941947931 0.017596171936 0.017381827813 
0.012084394111 0.0020339124603 -0.0077976814937 -0.014188118977 -0.018361475319 -0.018493684474 -0.021666956134 -0.010595421511 -0.0029431158619 
0.001448079347 0.0037123655638 0.0052840832504 0.0059818862937 0.0059484493686 0.0057920902036 0.0064248548588 0.0090573681518 0.01107865572 
0.0064914224786 0.011393510504 0.0034566643881 0.0045530829229 -0.021707128733 -0.019744414371 0.00025769742206 0.0032726042846 -0.003229558235 
-0.0010728546622 -0.003124062292 0.0030874875083 0.0084013036685 0.0077241328545 0.0075673636748 0.0089702084661 0.012020330178 0.015460181516 
0.015526528703 0.011962553603 0.0085551100783 0.010588178295 0.015398774296 0.016080692178 0.013010024093 0.0092248372966 0.0057138498523 
0.003088211015 0.00071041980118 -0.00070225642412 -0.0017368698609 -0.0033341626113 -0.004863846174 -0.0049648653949 -0.0049662870588 -0.0027243528166 
0.0074994887109 0.0028575527031 0.012417673133 0.015616685152 0.018283125013 0.021037909668 0.023423338309 0.023567086551 0.019045661436 
0.012129470473 0.0076559525914 0.0087538727093 0.012740642531 0.014656696236 0.014654632891 0.015297343023 0.01599390991 0.014184940141 
0.011447421508 0.012460588012 0.011031076778 0.013693162939 0.015558267245 0.014757102123 0.010892929509 0.0065973162418 0.0040883978945 
0.0013508606135 0.00069519889075 0.0023059096711 0.00018170558178 -0.0004728937638 -0.00054965612071 0.00061620894121 0.0033041469578 0.006092319071 
0.0079995476408 0.0075272442773 0.0086164540844 0.010867793811 0.014091320103 0.016682039015 0.015940583078 0.012428211747 0.0093424330698 
0.010227183718 0.013748452533 0.014586330624 0.012522363337 0.009951641201 0.0075334249996 0.0047186352313 0.0023623309098 0.0012256383197 
-2.2834436095e-05 -0.0019765569959 -0.0031927800155 -0.0034213002073 -0.0035188798211 -0.0030763801187 -0.0015108620864 0.0014790370624 -0.00017678506265 
0.00319630187 0.0056684367009 0.010419368278 0.014650487807 0.016679174732 0.018543905579 0.021160299424 0.023193643428 0.023505138233 
0.018753592391 0.0086707037291 0.00550760857 0.0090973998886 0.013136693044 0.015093904454 0.014683450107 0.014152061194 0.012923034839 
0.01102207345 0.011681872187 0.010330061894 0.010945961345 0.013313304633 0.013979758136 0.012648700736 0.0098045985214 0.0062503957655 
0.0088733010925 0.012664529262 0.014881375711 0.016168616479 0.017260716762 0.019413949922 0.022268136963 0.024738691747 0.024886202533 
0.021581158508 0.016675226856 0.01324922801 0.012425104622 0.012804646743 0.012555309261 0.0096700562863 0.0073245085077 0.0072137288516 
0.0097067719325 0.013759038877 0.017358812271 0.021180921467 0.025339656044 0.026290028822 0.024177988991 0.021727985702 0.019399487413 
0.016340258531 0.013352002949 0.011048652232 0.010124039603 0.01003386965 0.009959208779 0.010625942377 0.011746354401 0.012996382779 
0.01300107548 0.008445936488 -0.00067682843655 -0.0089021066669 -0.012787827989 -0.014178008074 -0.014761571074 -0.01814586157 -0.013635902666 
-0.021501934621 -0.022226102185 -0.015836532461 -0.0035341237381 0.0058581617486 0.0079716999317 0.0068166533019 0.0065676873783 0.0067780019017 
0.0069625198375 0.0080180597724 0.0094042285345 0.011078773765 0.013153887587 0.01385346055 0.01066338527 0.012523319339 0.0082464863857 
0.0063216668786 0.0059873048449 0.0073442239081 0.0074417903088 0.0079630212858 0.0099539026851 0.012924655341 0.01451157243 0.013071153313 
0.010367063805 0.0089390147477 0.010523455683 0.013729565078 0.01263894327 0.013242255431 0.010835968191 0.0084514924092 0.0055800261907 
0.0036765633267 0.0024316948547 0.00091091567447 -0.00034394610702 -0.00076566450298 -0.00077715828957 -0.00098301506841 -0.0021600221389 -0.0021776367648 
0.00050075851323 0.0023034204933 0.0034220717207 0.0039362725947 0.0056146031711 0.0070900617866 0.010984033812 0.013404458528 0.013171822997 
0.014793795068 0.017293884186 0.018491737545 0.019688191358 0.017313786549 0.010568448459 0.011823777342 0.0070195567532 0.014123237925 
0.015299360501 0.014434269164 0.011771758087 0.012972477823 0.012570352061 0.010371925309 0.011007923167 0.010497098323 0.01121180933 
0.012688388349 0.0085076650139 0.010921210982 0.012648689793 0.014078915352 0.015852445271 0.018987125251 0.02249279758 0.024900513235 
0.024403329473 0.0186702176 0.012530653039 0.0099145784043 0.0083659685915 0.0087393942522 0.0064331045374 0.0080914128339 0.007676802692 
0.0057510583429 0.0060067940503 0.0085663336795 0.011601205682 0.014163539978 0.01596941473 0.017534405924 0.016858287156 0.01538134627 
0.0159364352 0.014501219848 0.012254906353 0.01008391846 0.0091735813767 0.0092297145166 0.0089085565414 0.0089718913659 0.011126400437 
0.012774691917 0.011280625127 0.0066913469927 -0.00036167504732 -0.0063046814175 -0.0088396222563 -0.0089069911046 -0.0086792288348 -0.0082627374213 
-0.010585921118 -0.0057370162685 -0.015766232507 -0.020027845632 -0.020669021644 -0.014243506594 -0.00024033663794 0.0094020159449 0.0094646932557 
0.0074999908684 0.0064392223954 0.0060181438457 0.0066771741646 0.0072503617266 0.0072453516768 0.0079587274231 0.010486475192 0.012463150779 
0.012703565881 0.010699385311 0.012562542222 0.0090601224219 0.0044069823925 0.0043557626195 0.0041190425982 0.0049459463335 0.0064297995996 
0.005190700409 0.0035899467621 -0.00049762068375 -0.007163155009 -0.010947896633 -0.006236109446 0.0001199428516 -0.0015539076485 -0.0024596630392 
-0.00022311516659 -0.0029347790478 0.002262569833 0.0051852939068 0.0079666165402 0.0079853405477 0.0098236427875 0.012310706545 0.014136010781 
0.016733634984 0.020352323074 0.023406199645 0.022328653838 0.015361801488 0.0067197000375 0.0059562170063 0.0060009034351 0.010189688019 
0.0088343511646 0.0086315841181 0.0092692625476 0.0069985014852 0.0064256185433 0.0068476931192 0.0080385806505 0.0087531520054 0.0091936351964 
0.010087603005 0.010311507969 0.010301371338 0.011758971959 0.01208989555 0.010521242628 0.0093720294535 0.0098645079415 0.01115939673 
0.011778631015 0.011506769108 0.01315601496 0.014604306966 0.0068595834309 0.011725502321 0.0020609838539 -0.0021329055307 -0.0043845255277 
-0.0044138315716 -0.0031541955977 -0.0019665354484 -0.00080205962877 0.011095624883 0.008292634855 0.0040696677024 0.0076150216628 0.012714713346 
0.010983777698 0.0092916935682 0.0070130125387 0.0054872473702 0.004719704797 0.0051863083499 0.0061893300153 0.0056821274338 0.0073771309108 
0.01013983076 0.01141229691 0.0097520005656 0.0096756262938 0.010258841328 0.012190719368 0.013837187318 0.013275153625 0.014073907631 
0.01555886399 0.015405084006 0.012166601606 0.0085410401225 0.0067064595642 0.0053489693673 0.0035456757178 0.0024190396507 0.0018940326991 
0.0017252643011 0.0017839912471 0.0019085729564 0.00098094211535 0.00037074564898 0.0020237066637 0.0048102794099 0.0068752989173 0.0058795486111 
0.0076124990592 0.0081421128707 0.0078889814516 0.009649487678 -0.0068918948527 -0.0084281510208 -0.0089112886926 -0.01499435096 -0.018327045565 
-0.018749277573 -0.013385092374 -0.0021460984135 0.0050662119407 0.0071073395666 0.0070269778371 0.0098114627181 0.010521738674 0.010354284954 
0.0085755155596 0.0071102166936 0.0080072547134 0.011970752268 0.014432039578 0.008266251379 0.012428723043 0.014636034844 0.01559539116 
0.014460274484 0.013866632245 0.0099029751727 0.012826673221 0.0083266458241 0.0097105598543 0.00066004390828 -0.0047194351209 -0.011510659568 
0.0033132655779 0.014540948439 0.015418076655 0.014659076463 0.011967195664 0.0091564288596 0.0086381876608 0.0081753452541 0.0070401258417 
0.0059402260231 0.0043567561661 0.0037004623446 0.0036887276219 0.0043246190471 0.0032452411251 0.0084955295315 0.0084201478167 0.0088988451753 
0.0031454096024 0.0042868494347 0.0065482985228 0.0080228312872 0.0075654031243 0.010108291637 0.012411612396 0.011988791171 0.0085794101469 
0.0050425232039 0.0030017540557 0.00097936886596 -0.00026961186086 0.00037633207103 0.0017193544384 0.017041956075 0.018397599924 0.01704636775 
0.006919608335 0.0060316422023 0.0060943695717 0.0067600497277 0.0070692849113 0.0066740169423 0.0073190551872 0.0058102632174 0.019765838515 
0.01383589115 0.01500620041 0.018320166972 -0.015240450855 0.021715756971 0.0060535278171 0.0064295365009 0.0051462070551 0.015314524062 
0.014029646991 0.0052659737412 0.0083117866889 0.01024178206 0.0045109150815 0.0044564505224 0.0061960444436 
Stress_XZ_Pt 1 1114 double
-0.028954707086 -0.035593258217 -0.048731643707 -0.046250944957 -0.044114155695 -0.043988498859 -0.028169987956 -0.029504650855 0.014391565463 
-0.0067202254431 0.033947940916 0.011694485205 0.020465977723 0.019815284293 0.030145133147 0.031038036221 0.063591744751 0.050942318048 
0.074435375631 0.062236197293 0.073961567134 0.063987418078 0.066650113091 0.058570424095 0.053430678323 0.047319252044 0.035045960918 
0.033040438779 0.015065940097 0.01854423061 -0.0023918114603 0.0050490119029 -0.015464837663 -0.0068294018274 -0.024403673597 -0.016269684886 
-0.033562850207 -0.023169346852 -0.031305765733 -0.027302349219 -0.0301983729 -0.033658447675 -0.041552046314 -0.041945551522 -0.048212759197 
-0.044415443204 -0.047919502482 -0.038995619863 -0.030126847792 -0.021440983401 0.0064737428911 0.0035620904528 0.035287258215 0.02332589787 
0.045052507892 0.035229698755 0.04806580767 0.042381193489 0.050741840154 0.047100204974 0.053647309542 0.05060228426 0.056457996368 
0.052928279154 0.058273192495 0.05316271726 0.058163162321 0.050920207053 0.056332509965 0.046393038705 0.053378021345 0.039862025063 
0.047126203775 0.031143043423 0.038919460028 0.021231227845 0.030500699766 0.011816337064 0.020745870657 0.0018832201604 0.0079624135888 
-0.011869565821 -0.011352741634 -0.030505889798 0.0049416629481 0.010811000131 0.0044540343297 0.00021551313694 0.015864622314 0.0092775884041 
0.019963750616 0.013617220335 0.02161973808 0.017116070259 0.022866144776 0.019746951759 0.023490922526 0.021057023201 0.021849026904 
0.020818200894 0.020016572438 0.019752140157 0.018839394674 0.018138702959 0.016898240894 0.014678787207 0.012166722212 0.0096900960198 
0.0061194492737 0.0055395371164 0.0043238067301 0.0040331774508 0.0058117336594 0.0044169180328 0.0084625920281 0.0053956335178 0.012295974419 
0.0062804241606 0.01538025355 0.0065058566688 0.010910857236 0.0032355454168 -0.0019184530247 -0.0041877346812 -0.014243752696 -0.011752455961 
-0.022474667989 -0.017383377068 -0.028316606767 -0.021532210056 -0.032935731113 -0.024424977135 -0.039635123685 -0.025724272057 -0.047669358552 
-0.031913467683 -0.049907719716 -0.032076337142 -0.043792208657 -0.026265178109 -0.031159406528 -0.016952456244 -0.017100181431 -0.0079032126596 
-0.0062293755473 -0.001551312831 0.00077721156413 0.0014901540999 0.0039455798687 0.0020022124227 0.006705744192 0.0041332204419 0.010055654217 
0.0051562206936 -0.00099830282852 -0.0018100600864 -0.010070058517 -0.0060968284088 -0.0099575002678 -0.0067007850157 -0.018107676879 -0.011359450524 
-0.011323241197 -0.0080096341699 0.0037555069139 0.0016470022238 0.0077981469221 0.0073204850778 0.010319594759 0.011406487552 0.019690422807 
0.017608494498 0.040813433006 0.028610382229 0.045877015218 0.029082352528 0.029786516912 0.016345624404 0.017689486034 0.0066862933454 
0.0089078182355 0.0010020035552 0.001368555706 -0.0038449283456 -0.0029958374798 -0.0075102536939 -0.0060972664505 -0.009531754069 -0.0079733296297 
-0.0099171258043 -0.0067200162448 -0.008383894572 -0.0050921684597 -0.0069104611175 -0.0042966784677 -0.0064198893378 -0.002968405257 -0.0055090652895 
-0.00043125130469 -0.0032710349478 -0.044577084482 -0.059441098943 -0.030956938863 -0.022053815797 -0.0076785434503 0.015634636628 0.030623141676 
0.039966959041 0.04850024078 0.049996522255 0.044261193834 0.034967784304 0.026770496275 0.020002204925 0.012854628265 0.0048526002793 
-0.0031650895835 -0.0091766348924 -0.017147100763 -0.02511491836 -0.028064249549 -0.026606353698 -0.018454851874 -0.0043557847384 0.0029845085228 
0.012287381687 0.022786756977 0.032089367509 0.038917804137 0.043033719994 0.044407206587 0.043140838854 0.039379972033 0.032976546325 
0.023889305536 0.013632024988 0.0034866460919 -0.0079812494951 -0.020446563838 -0.035115026403 -0.051952730864 -0.062501017004 0.00083983648074 
-0.002579608692 0.005661927964 0.011395566282 0.015847032424 0.017988970503 0.018733354285 0.018099862617 0.015579659492 0.011657156749 
0.0086991487769 0.007295504096 0.0056968086865 0.0043982270872 0.004057496204 0.0027559660084 0.00032925562118 -0.0020882844692 -0.0055288504227 
-0.010107618989 -0.014461530605 -0.017661001068 -0.019616257865 -0.020551621914 -0.01523186639 -0.016498876115 -0.011804055888 -0.0080039964887 
-0.0045392922839 -0.0017286976217 -0.00043563792133 0.00024465617025 0.0034192044055 0.0035179850529 0.002162867022 0.0027575677668 0.0021552100079 
0.0019244939322 0.0032055625925 0.0078830688726 0.013741869712 0.017043256667 0.017973183421 0.016643198673 0.011413833476 0.0028504735092 
-0.0047422375064 -0.0089608422713 -0.011751057929 -0.014221015386 -0.015112940688 -0.014698421583 -0.013610134367 -0.012501531746 -0.012003050884 
-0.010844224715 -0.0078670697985 -0.0049629866262 -0.017506046221 -0.021357116755 -0.00088465132285 -0.010691858362 0.013598579564 0.028649936896 
0.040060324594 0.045158675872 0.043579087593 0.036329440307 0.028235303238 0.023131163325 0.0189725128 0.0154261922 0.012460499303 
0.0067534206319 -0.0015424423618 -0.008665064408 -0.011814740254 -0.012154240627 -0.01127000805 -0.0078130044858 3.0846160371e-05 0.012626623036 
0.0070684786187 0.018538641511 0.02492009243 0.031337530352 0.035897331312 0.037139981985 0.035942091607 0.032931889873 0.027450131252 
0.019360154634 0.0093694727111 -0.0028059871256 -0.015824892896 -0.025856072549 -0.036995396949 -0.046536657028 -0.052011732012 -0.050080246292 
-0.040263415314 0.0055711964378 0.0058796318481 -0.018282111501 -0.02192842355 -0.018724511145 -0.019260290079 -0.017185744829 -0.012414862402 
-0.0072575182712 -0.002712490299 0.0013404482743 0.0118752087 0.010803642799 0.013075863943 0.013813595288 0.014350760961 0.017243096605 
0.022441946436 0.025158024859 0.023593399208 0.020499749109 0.015941471094 0.010081848945 0.0034971051209 -0.003849495406 -0.010526207858 
-0.015400568955 -0.018108520657 -0.019413511734 -0.020145963412 -0.01980469469 -0.018521493301 -0.017771871993 -0.01659261412 -0.013165947865 
-0.0092312045745 -0.0064105712227 -0.0029558837559 0.0027643329086 0.00960602751 0.015305030625 0.018285545055 0.019110128284 0.018691201694 
0.017105576582 0.015244602691 0.014010609826 0.012852918357 0.010485376231 0.0081170899794 0.007564145606 0.006996812392 0.0041956788627 
0.00092560272606 -0.0044306888158 -0.011546288617 -0.018382992828 -0.023055587895 -0.025659520179 -0.026661340613 -0.026520924643 -0.025751925074 
-0.02272865288 -0.025032265577 0.0077104923548 0.0042712391587 0.0063992630458 0.0037922366173 0.0070627107052 0.0092733555939 0.013376937481 
0.018625460565 0.0248566214 0.030759742018 0.033902528696 0.03359149117 0.030636340845 0.024969170801 0.016219289741 0.0045747819531 
-0.009249122144 -0.017880993662 -0.030437733978 -0.024102550466 -0.035023371689 -0.037253926042 -0.035457771737 -0.028004000429 0.0045745874522 
-0.0039670031983 0.015072807204 0.026384831872 0.036159797106 0.041935432702 0.041411544196 0.035143101122 0.028060823213 0.023560889531 
0.020340140164 0.019777679816 0.019306469243 0.013790685101 0.0031262986013 -0.0076192827546 -0.013556298101 -0.014606813435 -0.01400703215 
-0.012724024127 -0.0072998682735 -0.0039910512278 -0.0084758081357 -0.00060335124726 -0.011395130365 0.0028679599636 -0.013993227156 -0.009415251785 
-0.012662407942 -0.011029918368 -0.019583971705 -0.017445318634 -0.025061971974 -0.025826309342 -0.021215429995 -0.013856854988 -0.0067367305164 
-0.0013067336404 0.0019675570074 0.005112311861 0.0020824737148 0.010438350844 0.015549644828 0.019001815934 0.021807980258 0.023401835933 
0.023817117326 0.026372935157 0.029699554667 0.027663225308 0.023221889976 0.019809130114 0.015120010357 0.0098652609158 0.0037464558554 
-0.0033349430014 -0.0099847154925 -0.015822857851 -0.019547128119 -0.021986251697 -0.024190777913 -0.024516779929 -0.023073063232 -0.021854912397 
-0.021875084843 -0.020215204544 -0.015080897836 -0.011723679025 -0.0063820533687 0.0014317656169 0.010014471132 0.016960125184 0.020693004131 
0.022550605237 0.024424945004 0.026090036146 0.025744417217 0.023172376677 0.020581596531 0.017345579341 0.013486989075 0.011342963669 
0.0098373431247 0.00081458599016 0.00451058615 -0.0057313330035 -0.014173956355 -0.02246064553 -0.02796588745 -0.029237144937 -0.030382412951 
-0.030182934832 -0.029489440378 -0.028401866555 -0.024459843989 -0.02629461186 -0.02373240795 -0.02617775742 -0.02830296848 -0.024298441131 
-0.016263308469 -0.0078131372575 -0.03255327465 -0.033010854851 -0.030744274613 -0.02789423475 -0.02336443169 -0.025161769241 -0.022835327312 
-0.024270661641 -0.028250004165 -0.029937475454 -0.025044218171 -0.016248252243 -0.0077173761092 0.0062182884431 0.0078685103217 0.0035663336457 
0.0046433181269 0.0073572695255 0.011791859986 0.0181122059 0.025286985561 0.031128426548 0.033533778973 0.031595614273 0.025426236447 
0.015725380508 0.0038738410731 -0.00679989934 -0.013121959753 -0.01383370487 -0.014849589905 -0.010596502922 -0.017107349355 -0.019606659189 
-0.024968203157 -0.030382374302 -0.030456681736 -0.025413782801 -0.017929648049 -0.020510059316 -0.012198040728 -0.015842803288 -0.0098536100704 
-0.009309010813 -0.0089870231459 -0.0066825670656 -0.0016079324414 0.0054638402653 0.013375082985 0.021312424447 0.028727523983 0.035388393793 
0.038382596336 0.034584606532 0.028127735946 0.023242084775 0.019179557683 0.020098658279 0.020196396392 0.013489298639 0.0004714751849 
-0.012415457284 -0.02050142386 -0.022944397293 -0.02167868847 -0.020023416262 -0.018909851089 -0.020725816721 -0.025520272786 -0.02541190153 
-0.010690004681 -0.020867415704 -0.0024442182275 0.0011234408648 0.018085509073 0.014791267458 -0.0011790526332 -0.0016613578191 0.00058803387219 
-0.0014890370803 0.0037718995154 0.0088805388659 0.015085900202 0.021674196236 0.026468206197 0.029171299655 0.029376839288 0.029227835126 
0.028163634241 0.022994818632 0.018450648291 0.017413375666 0.015558889601 0.011294316268 0.0047858107719 -0.0039846983855 -0.011110443622 
-0.015112137189 -0.018173586577 -0.022169765551 -0.026192437857 -0.027674396057 -0.027063586283 -0.026207763702 -0.026393962093 -0.026054551359 
-0.012987729395 -0.017409802182 -0.006563060917 0.0023908769945 0.01157881727 0.018324720906 0.022971648257 0.02738808468 0.032741166651 
0.036731172353 0.036716332659 0.033148331568 0.028895895462 0.024654700886 0.019282536814 0.014535188675 0.011347690287 0.011055720039 
0.0060049875756 0.011005227221 0.0026975712972 0.0012057533604 -0.0020962408744 -0.010379995918 -0.020151627716 -0.027832108084 -0.031496410724 
-0.022180918138 -0.026215450838 -0.0075041645323 -0.006662733329 -0.00086076308799 -0.0040974479052 0.00086712132907 0.0032390139677 0.0061717250695 
0.012094951468 0.020626956364 0.026349236723 0.029721525032 0.030084796716 0.027819253504 0.024764626753 0.019940180238 0.014496857068 
0.01407716535 0.015563023975 0.013211239595 0.0064473780512 -0.002648283873 -0.010402716347 -0.014201394515 -0.017196779605 -0.022223533597 
-0.027015778236 -0.029510888271 -0.030037473422 -0.030050591566 -0.030217613094 -0.029529554304 -0.028532419354 -0.026204967871 -0.028439717833 
-0.022108866367 -0.016540642362 -0.010199959856 -0.0027277282206 0.0053370358655 0.012566236313 0.018660681322 0.023859164212 0.029170761351 
0.03488197783 0.039976411313 0.043027301319 0.03926497139 0.034136164002 0.028849095106 0.0225861785 0.016127697192 0.015887267422 
0.0087215992389 0.013791542966 0.002777130343 -0.0017539589317 -0.0024687128607 -0.0068244307768 -0.016613026615 -0.0258038342 -0.03232055977 
0.0019739534764 0.0028420407325 0.0050960396184 0.0086517747259 0.014283336001 0.021683317143 0.028912767302 0.034422582015 0.03491196828 
0.028201803099 0.017589653609 0.0077760061758 0.00014835630282 -0.0057708206004 -0.0090757614623 -0.003451675293 -0.0077542684739 0.00016065256204 
-0.014283542056 -0.017762184143 -0.020257544704 -0.025209031999 -0.029518348165 -0.028297989629 -0.02267025318 -0.015002251603 -0.0093541920651 
-0.0073432417121 -0.0068472096464 -0.006580854184 -0.0050320618902 -0.0014817705523 0.0038769544772 0.0094814527547 0.015001236694 0.020192329073 
0.026162275113 0.031764141284 0.031604539137 0.026820453815 0.022152306978 0.017641959479 0.013102717232 0.00880101847 0.0086937537417 
0.010684452835 0.012217021897 0.011368721956 0.0046965413494 -0.0076006700983 -0.018954010447 -0.025817846879 -0.028017390519 -0.025797315873 
-0.024148805533 -0.026362428907 -0.030598625075 -0.033712510951 -0.032974132802 -0.027817671187 -0.015631659655 -0.020600812044 -0.0098570940706 
-0.0042729307843 0.00092808000591 0.0080555325258 0.017128432635 0.024176737294 0.027527360246 0.02862234693 0.027533944696 0.025103027001 
0.020453353412 0.0147350193 0.013216597959 0.014859620947 0.016148399562 0.0080937457096 0.00013630191097 -0.0065177341166 -0.012603423093 
-0.017864023335 -0.023310955614 -0.028439636342 -0.031679704785 -0.03251692513 -0.032212916762 -0.032292488031 -0.031932137907 -0.030604666565 
-0.029705103021 -0.026826024987 -0.028472756501 -0.023854600731 -0.019749925938 -0.013292480377 -0.0062826421345 -0.00072410676512 0.0055507701181 
0.011434423504 0.016950668767 0.02093581995 0.023492136505 0.027390961535 0.030409380328 0.041165070608 0.044571328908 0.035379607696 
0.028323788662 0.021298758686 0.015536019346 0.015049048699 0.01930834516 0.012414829573 0.018399051158 0.0057641124677 -0.005382256156 
-0.010077132902 0.0038089528098 0.0052237550262 0.0073878554394 0.0104219286 0.015257851919 0.022145603318 0.029607463162 0.036789090373 
0.039429077879 0.032808168326 0.022028245497 0.01418398181 0.0092803915613 0.0040361127467 0.0088806567714 -0.0026307353401 0.0036693966831 
-0.0080808640923 -0.014934846433 -0.020996927284 -0.024857359473 -0.027636708692 -0.029211047571 -0.027411538642 -0.023243212141 -0.017787901312 
-0.011132090352 -0.007759049302 -0.0059961248189 -0.005126508011 -0.0036695890594 -0.00068537275365 0.0036981848971 0.00841354765 0.01281850948 
0.016361376271 0.021079319529 0.026616627816 0.028054613154 0.025005511008 0.021301584784 0.018236076459 0.014890104299 0.011000407278 
0.0028265190776 0.006024307746 0.00098513514968 1.1760275811e-06 -0.0013904104708 -0.0048269559629 -0.010286988225 -0.016483528074 -0.022026560269 
-0.025853927713 -0.027550722659 -0.02675637044 -0.025466082618 -0.028382260818 -0.032350068912 -0.03444985766 -0.034522878006 -0.030471255537 
-0.023384626489 -0.012699929997 -0.016989334952 -0.0086433326942 -0.034481042996 -0.032325797249 -0.029145222623 -0.027358743362 -0.023894093931 
-0.021128253546 -0.021055858117 -0.023349297233 -0.028567967936 -0.031535523012 -0.026762189809 -0.016918095062 -0.015839210944 -0.010106994712 
0.0013032472343 -0.0015265777474 0.0034687937587 0.0052912898827 0.0096609267639 0.0067938895663 0.011404465884 0.014393955469 0.01885830285 
0.024436376058 0.031757089309 0.039737182669 0.043598599732 0.038170583081 0.025942136347 0.01856602449 0.014557320857 -0.0016764859902 
0.0042219409176 0.008867592318 -0.007175288687 -0.010865230812 -0.015516867163 -0.02108880179 -0.026294246316 -0.030215121433 -0.030237424187 
-0.027918881737 -0.026247680187 -0.024597855285 -0.0098242755048 -0.015914177988 -0.0059475072194 -0.0037516402372 -0.0011112166976 0.0030844762223 
0.0079315438052 0.011986898142 0.014397756197 0.015837265551 0.024052110501 0.020107223187 0.025545104407 0.024196723476 0.022353007458 
0.020897416398 0.018098267028 0.014039661968 0.0085224693175 -0.022004460916 -0.026142394636 0.042950090021 0.036043818109 -0.019917168189 
-0.026217873674 -0.031508177053 -0.034706491977 -0.033599757124 -0.030894713011 -0.028405350167 0.014480596874 0.022987059318 0.027018545661 
0.0283574122 0.028029284906 0.026304151863 0.022444928065 0.017884949222 0.015918124234 0.015794468578 0.01651339978 0.017134441528 
0.016266711755 0.011258262093 0.0037928793754 -0.0035920279624 -0.010897162836 -0.017504791031 -0.024189936928 -0.030271496624 -0.032996068709 
-0.032983719371 -0.032403678633 -0.032350551337 -0.03318168968 -0.033272525761 -0.031914902851 -0.030480423011 -0.021775856614 -0.024278405588 
-0.020114487037 -0.016039738897 -0.010747448076 -0.0066919318633 -0.025101091247 -0.016662529903 -0.0058000695426 -0.0085522134905 -0.0084156069594 
-0.01425527269 -0.019943481078 -0.021835246589 -0.021023993939 -0.021331786644 -0.023419003313 0.0132257347 0.016460634535 0.018970916513 
0.022029165179 0.02466931877 0.030575706623 0.04467063956 0.042678998783 0.044977308561 0.045081181452 0.042343372479 0.035322040785 
0.026776687708 0.026398343965 0.015505736694 0.019520160276 0.012133808574 0.0064109604664 -0.022777816281 -0.026463788468 -0.028393333778 
0.013598852139 0.015814537648 0.01408406836 0.0095179796335 0.0032714536937 -0.0027766335115 -0.008004581905 -0.013990044128 -0.021642852807 
-0.028403782751 -0.030807672534 -0.030850898009 -0.031246755738 -0.03430904448 -0.035043798387 -0.015203163261 -0.017133543734 -0.011616464471 
0.023226250429 0.026353256311 0.02692240756 0.026355749462 0.02547669271 0.023955335841 0.020912710577 0.020471738651 0.023832113016 
0.024643057957 0.024658897892 0.024427331518 0.024064381141 0.021945173386 0.017675754304 0.047477001324 0.044007575139 0.036790565588 
-0.020324723329 -0.024293851728 -0.027673589066 -0.030138581991 -0.032558639068 -0.02930555772 -0.0281257915 -0.028711262159 0.04746054858 
0.022388187548 0.027539681178 0.035467933398 -0.019634784432 0.043059465475 -0.031707490794 -0.033613955602 -0.030559634324 -0.028478036635 
-0.020107089076 -0.0026177843101 -5.7746015955e-05 -0.0028437309575 -0.033838813193 -0.031870726496 -0.033179116901 
Disp_X 1 1114 double
0 0 0.0011367751285 0.00091309868731 0.00067682965891 0.0011282536434 0 0.0012005082099 0 
0.0008124136948 0.00036225660006 0.00016511284048 0.00061922037276 0.00020462744578 0 0.00060809444403 0 0.00066050956957 
0 0.00073603569763 0 0.00075378781185 0 0.00067253387533 0 0.00051035895012 0 
0.00038229179336 0 0.00028496043524 0 0.00023130913905 0 0.00018067481869 0 7.8665485489e-05 
0 3.3306259866e-05 3.6587200611e-06 4.7222834837e-05 0 -9.6306968771e-05 0 -0.00022499611077 0 
-0.00042701326311 0 -0.00072094949428 0 -0.0010328559438 0 -0.0011305588996 0 -0.00091605278431 
0 -0.00072966993321 0 -0.00064599665347 0 -0.00062931264983 0 -0.00063304702053 0 
-0.00059993524337 0 -0.0004778628645 0 -0.00030653603608 0 -0.00010025219672 0 0.00011682316836 
0 0.00031177623896 0 0.00039828641457 0 0.0004306823248 0 0.00045078262337 0 
0.00049611920258 0 0.00065765762702 0 0 -0.00050610915059 -0.00081315799616 0 -0.00019682475249 
0 0.00011969044135 0 0.00042151674279 0 0.00068179663504 0 0.00091577356216 0 
0.0011353953741 0 0.0013355113333 0 0.0015395878581 0 0.0017579147825 0 0.0020325665828 
0 0.0022366486955 0 0.0024038469419 0 0.0025222161785 0 0.0026971758343 0 
0.0026901564561 0 0.0023934582714 0 0.0020043917466 0 0.0017560162814 0 0.0016679011751 
0 0.0016995549668 0 0.0017814048333 0 0.0020169792697 0 0.0025454300921 0 
0.0017397169722 0 0.0016167511931 0 0.0016080115456 0 0.0014494420029 0 0.001164642279 
0 0.00082380499225 0 0.00045225812937 0 5.9882033383e-05 0 -0.00035727760405 0 
-0.00064082146855 0 -0.0010541951051 -0.00022528295813 -0.0015817494132 -0.00054371106671 -0.0020826077089 -0.00062915502349 -0.0024452353828 
0 -0.0027300941292 0 -0.0028583959211 0 -0.0030127130449 0 -0.0031535425223 0 
-0.0032854857855 0 -0.0033369453158 0 -0.0031484900974 0 -0.0029130801558 0 -0.0026919909287 
0 -0.0025453581475 0 -0.0024238079786 0 -0.0023433822207 0 -0.0022035848815 0 
-0.0021082006861 0 -0.0019599332009 0 -0.0017626787303 0 -0.0015587505186 0 -0.0013559577055 
0 -0.0010983309476 0.00099756557029 0.00092132890131 0.00060631008819 -0.00042711314745 -0.00071924354415 -0.00064514792757 -0.000325576053 
6.9782407081e-05 0.00037257716758 0.00054575660033 0.00049257674254 0.0003556147567 0.00026652804809 0.00027389905881 0.00031851039967 0.00034902174957 
0.00033178186277 0.00032494627521 0.0003729062737 0.00039074194501 0.00031216777279 0.00011101337441 -0.00021507199563 -0.000315807265 -0.00051528494805 
-0.00037111408892 -0.00020622767624 -0.0001272912632 -0.00013170787133 -0.00017369007401 -0.00017192077939 -4.4208620238e-05 0.00014946410374 0.00038037417107 
0.00060655781999 0.00075221539009 0.00071503419895 0.00054670113605 0.0003656517074 0.00026053044712 0.00037280464312 0.00068831950193 -0.00050086330157 
-0.0011637054849 0.00015063036699 0.00078914652113 0.0013940448407 0.0019617071375 0.0025005689822 0.0029963154811 0.0034531666897 0.0039037566166 
0.0043123383075 0.0046721431427 0.0049605057575 0.0052398224361 0.0054862285033 0.005556684453 0.0050037004985 0.0044221705757 0.0039992653765 
0.0037798848934 0.0036945126485 0.003721650457 0.004023544956 0.0046429825015 0.0032369201072 0.0030597646255 0.0032126668375 0.0028954520822 
0.0023340040352 0.0016937911278 0.0010616148356 0.00039246710367 -0.00055807316676 -0.0014235146809 -0.0021691631991 -0.0029397672042 -0.0037170343567 
-0.0043776305392 -0.0049543888308 -0.0054352893494 -0.0058731525205 -0.0062802657485 -0.0065653123893 -0.0066530387849 -0.0064984164201 -0.0062071536668 
-0.0058656940237 -0.0055193812586 -0.0052101463079 -0.0049387980253 -0.0046511297114 -0.0043546603993 -0.004031771794 -0.0036964938045 -0.0033391020261 
-0.0029593266081 -0.0024589016102 -0.0018351087347 0.0041275280528 0.0055210655555 -0.0024484226014 -0.0026853741147 -0.0022842839826 -0.0019168894505 
-0.0014193461975 -0.0009140438051 -0.00051097973483 -0.0003219532955 -0.00027158975718 -0.00017110000772 6.66962369e-05 0.00036476983223 0.00057714566356 
0.0007205773145 0.00086194311734 0.0010420458857 0.0011861308012 0.0012393327197 0.0011771359714 0.0010890469421 0.0015046499902 0.0011858197395 
0.0012469823705 0.0012089440133 0.0012100966414 0.0011708633974 0.0011057304218 0.0010699054692 0.0011280736653 0.0012621344067 0.0014034351334 
0.0014764027437 0.0014119580155 0.0011543323053 0.00053420942277 -7.5348660175e-05 -0.00033448979957 -0.00030537927523 -7.7652664913e-05 -2.0710442186e-05 
-0.00022087158868 0.0016698410036 0.0027762574609 0.0046996446326 0.0060691572726 0.004836762324 0.004347759299 0.0036001869012 0.0027171070687 
0.0018477324629 0.0010072574951 0.00014867977006 -0.0033394354396 -0.002400508849 -0.004317920655 -0.005290532019 -0.0062484415248 -0.0071113090962 
-0.0078906212002 -0.0086196949705 -0.0092786019668 -0.0096660070121 -0.0097365528345 -0.0095968153328 -0.0093714715913 -0.009212853387 -0.0087560024112 
-0.0082554332912 -0.0076676448807 -0.0071642114781 -0.0066646868363 -0.0061562950723 -0.0056674731895 -0.0051620332524 -0.0046629048884 -0.0039154929109 
-0.0028525139205 -0.0018047285266 -0.00077802920714 0.00021850365738 0.0011877234792 0.0021479208954 0.0030731419101 0.0039454698563 0.004753974732 
0.0054889321327 0.0061484887265 0.0067111896351 0.0072130956687 0.0076449513435 0.0080065717921 0.0084097376093 0.0090468134731 0.0077817514539 
0.0069534168579 0.0064050494693 0.0060331500135 0.0057753217407 0.0055998181924 0.0056439647451 0.0061626462266 0.0067504076287 0.0071069276892 
0.0062887305394 0.0071898363531 -0.0014402266825 -0.00064951105742 0.0038009374402 0.0045269583352 0.0034268235322 0.0032747362275 0.0031496596057 
0.0030541210435 0.0029533677734 0.0028554070741 0.0027774220798 0.0027716860641 0.002801149385 0.0027809669264 0.0026274689008 0.0022767868359 
0.0017731342232 0.001096028951 -0.0011244523339 -0.00083819712745 -0.0011174301617 -0.0011186802294 -0.001318148803 -0.0017834226601 -0.0045249960385 
-0.004765719641 -0.0042860610411 -0.0038825001102 -0.0033074487001 -0.0026305993088 -0.0019961590879 -0.0015448926715 -0.0012390989577 -0.00091700203484 
-0.0003063516051 0.00047719589202 0.00090089405421 0.0012224327074 0.0015553405974 0.0019298767438 0.0022536420729 0.0024709391873 0.0025779339485 
0.0027188272215 0.0032197292894 0.0041578891687 0.0055083357729 0.0063331592828 0.0070530897938 0.0059501742944 -0.0034653479233 -0.0051809404977 
-0.0046023339964 -0.0055281305686 -0.00023844078532 0.00039179140003 0.0054525253363 0.0045726271346 0.0036160773598 0.0026161652058 0.0016350129154 
0.000799992471 0.00014044785348 -0.0014712604461 -0.00058573798742 -0.0023754993454 -0.0033920037095 -0.0045137205161 -0.0057100928389 -0.0069173262455 
-0.0080721275881 -0.0091691743582 -0.010199322365 -0.011123660021 -0.0118672885 -0.012296744622 -0.012302765623 -0.012171854265 -0.011995118111 
-0.011923696846 -0.011447278783 -0.010927032679 -0.010197294876 -0.0095319608226 -0.0088707702234 -0.0082358494401 -0.0076195173897 -0.0070127728395 
-0.0064388248138 -0.0056107612327 -0.0036932083312 -0.002292187186 -0.00096526282141 0.00033110319055 0.0016216023359 0.0029122913256 0.0041677001864 
0.0053624040447 0.0064846854657 0.0075122546405 0.0083720060065 0.0091067207977 0.0097593786195 0.010312652215 0.010675521567 0.011061315425 
0.011651059613 0.0092249959707 0.010168392211 0.0085928635672 0.0081222122535 0.0076285004616 0.007154205814 0.0067298216745 0.0072930403985 
0.0077299103141 0.0078951744363 0.007761459332 0.0070495568216 0.0073948330246 0.0065665361471 0.0058887195773 0.0050683706068 0.004088212736 
0.0030554665718 0.0020425750408 0.0086131906137 0.0086986059323 0.008241170086 0.0076757376082 0.0068071000278 0.0069053745829 0.0066177202389 
0.0063106594607 0.0057861912064 0.0051396423951 0.004143379163 0.0031187809072 0.0019530627178 0.01146457158 0.012989127077 0.0056699085981 
0.0055265254341 0.0053592161275 0.0051944288425 0.0050367661752 0.0049007609487 0.0047940881923 0.0047212890349 0.0046292166226 0.0044384514913 
0.0040467050858 0.0034120664932 0.0026522830594 0.0018457297701 0.0011118021794 -0.00039690657286 0.00050276517868 -0.0011446069693 -0.0017699501477 
-0.0022131300066 -0.0024136011489 -0.0026452636812 -0.0030752108432 -0.0036996318959 -0.0024492850062 -0.0044189896435 -0.0034861073364 -0.0053000007756 
-0.0061820149422 -0.0068305060267 -0.0069245710038 -0.0068072653376 -0.0066501442343 -0.0064152549021 -0.0060197091661 -0.0054122456349 -0.0046011623926 
-0.0037252940238 -0.0030162474141 -0.0024600126781 -0.0019563343376 -0.0013330416987 0.0013636378571 0.00082168617519 0.0018720010994 0.0024034061935 
0.0029367005918 0.0034133589361 0.0037924845237 0.0039918278344 0.0042428518645 0.0047925631516 0.0056025586091 0.0066953841597 0.0079642646015 
0.0085939615965 0.0093184271827 0.0082789966837 0.0081527689472 8.9782981377e-05 -0.00075279199518 0.00043708921294 0.00095341843553 -0.0014091889607 
-0.00037123617949 -0.002319219755 -0.0031695531216 -0.0042452132329 -0.0055860946886 -0.0069465427659 -0.0083912517875 -0.0097245546058 -0.011006582528 
-0.012172334827 -0.013165211305 -0.01383562386 -0.014182772487 -0.014116683975 -0.014036324807 -0.013982677832 -0.014039541595 -0.013513446786 
-0.013022664934 -0.012259429321 -0.011568115093 -0.01083918009 -0.010140657425 -0.0094588231295 -0.0088130421937 -0.0082951402292 -0.0076812496409 
-0.0024636879098 -0.0040091662668 -0.00096139428206 0.00053133920301 0.002058401471 0.0036184703931 0.0051489514299 0.0066341306083 0.0080331815407 
0.0094251185656 0.010531665757 0.011386556551 0.012158113532 0.012779168785 0.013030124828 0.013128021732 0.013031806797 0.01414162945 
0.014226752333 0.015225784853 0.012997539714 0.011807869188 0.011010847054 0.010296841152 0.0096261771396 0.0089753847569 0.0081782685593 
-0.0057162814774 -0.0072531360202 0.0015459732385 0.00082771142479 -0.0014158333652 -0.00019006369985 -0.0024500477593 -0.0032573149074 -0.0037287611049 
-0.0047509176657 -0.0062249526381 -0.0077172643505 -0.0093387151137 -0.010829168372 -0.012243433855 -0.01333077997 -0.014280465432 -0.014861732721 
-0.015209120698 -0.015085523948 -0.015037261881 -0.015151681378 -0.015331773087 -0.014967325144 -0.014506346546 -0.013792597689 -0.013096213341 
-0.012406961992 -0.011708009057 -0.011035356671 -0.010391146876 -0.009858678095 -0.0091721527278 -0.0084764678031 -0.0066463490948 -0.0077736484818 
-0.0053032063879 -0.003844041843 -0.0023459445219 -0.00078264845069 0.00077913526911 0.0024228156544 0.004136998672 0.0058557442389 0.0075171636418 
0.0091595519334 0.011171041988 0.012440364808 0.013359898701 0.014115234837 0.014779888093 0.014902382158 0.014735503122 0.015771340579 
0.015786113217 0.016150411218 0.014952590689 0.013875292614 0.012725453824 0.012319001369 0.011600790545 0.010664128698 0.0097340047359 
0.0080429054797 0.0079157240689 0.0077271955088 0.0074888863601 0.0072654476389 0.0071040187031 0.0069722738117 0.0068232789636 0.0066322195344 
0.0062987264246 0.0056860498153 0.0047592772171 0.0036866331939 0.002609743271 0.0017734216526 0.0015753196785 -0.00027298598434 0.0010319831781 
-0.001315096044 -0.0021837921813 -0.0029527510051 -0.0035899062641 -0.0040179663338 -0.0044181826524 -0.0050017288886 -0.0058565312065 -0.0065941857174 
-0.0073446282186 -0.008085151203 -0.0085949832574 -0.0088282460347 -0.0088421180844 -0.0087723070756 -0.0085919378325 -0.0082449885085 -0.0076211038977 
-0.0066819614731 -0.0056377337314 -0.0046889847144 -0.0038717524149 -0.0031359114219 -0.0024480002467 -0.0017311008414 -7.9287558037e-05 -0.0009887086926 
0.00066602701554 0.0013517277548 0.0019891385455 0.0026354780421 0.0032867083792 0.0039028415922 0.0044569764286 0.0049618855119 0.0051833502948 
0.0053971246816 0.0059608365409 0.0067500290461 0.007700631395 0.0088130468503 0.010043150745 0.010616964661 0.011379166506 0.0097931744531 
0.010031960905 0.010316519067 -0.0045407842845 -0.0062068998814 -0.007765092887 -0.009419686161 -0.010974939913 -0.012476487085 -0.013580246828 
-0.01449199114 -0.014829547144 -0.014799198136 -0.015292215161 -0.015236937441 -0.015506188385 -0.015596052632 -0.015484827571 -0.015262591653 
-0.014554652385 -0.013892719522 -0.01330718305 -0.012725817971 -0.01204685308 -0.01141391322 -0.010758085176 -0.010078225285 -0.0091949421912 
-0.0084004960954 -0.0068143871613 -0.0075625558384 -0.005782824941 -0.004655577708 -0.0035322718322 -0.0021806287114 -0.00060286914231 0.00092495966237 
0.0024956108537 0.0042617027648 0.0060911243781 0.0078069474548 0.0094067854807 0.010852046311 0.014530544169 0.013588279486 0.01528931316 
0.015936944634 0.016010629013 -0.015032087453 -0.014320770279 0.016292996705 0.015810823068 0.015827417374 0.015505441464 0.014840085059 
0.013593089767 0.010475706309 0.010403582826 0.01015523728 0.009834356606 0.0095147546381 0.0093722576275 0.0092158010229 0.0089904107153 
0.0087051698938 0.0082623623312 0.0074259932153 0.0061113652773 0.0046106833033 0.0030308796559 0.003042859491 -6.4268097049e-05 0.0012143787462 
-0.0012933732942 -0.002402667189 -0.0033337355126 -0.0042388741858 -0.0050969896838 -0.0057706846856 -0.0063145784661 -0.0070692105219 -0.0085911825299 
-0.0090148132294 -0.0095714358613 -0.010143329389 -0.010558699258 -0.010736761615 -0.010774130002 -0.010739806108 -0.010639064945 -0.010424852371 
-0.0099154766649 -0.0087499422953 -0.0075364545919 -0.0063830269501 -0.0054098856635 -0.0045143924654 -0.0036804911215 -0.0028775010724 -0.0020624501631 
-0.0001521679369 -0.0011762233917 0.00068645994179 0.0012802326819 0.0019394828705 0.0026669604704 0.0034196972847 0.0041262521408 0.0046843532473 
0.0051820278168 0.0059592598118 0.0060961055569 0.0060965176672 0.0066951303743 0.0075203212909 0.0083935474977 0.0093082943931 0.010408626869 
0.01166245807 0.012760275044 0.013133404776 0.011594489217 0.0092599922791 0.0085864197463 0.0078256102279 0.0069753797725 0.0061823362485 
0.0060490728356 0.0058834236115 0.0057129901834 0.0053300503641 0.0047032018192 0.0037845280021 0.0027248691767 0.0019739770796 0.0010187403532 
-0.0013231291668 -0.00011110112246 -0.0027253448498 -0.0038202984724 0.012838408351 0.012757814489 0.012489987537 0.012022866867 0.011552291922 
0.011545763351 0.011408606544 0.011096157134 0.010725169443 0.010199471377 0.0092686424032 0.0071908268146 0.0053459904157 -0.000383530627 
0.00093522208044 0.0022146445699 -0.0014127293834 -0.0024937838316 -0.0035089878365 -0.0044483467937 -0.0053769638762 -0.0067583355121 -0.0074963597581 
-0.0080334795639 -0.0088433334604 -0.0098895160481 -0.011805265211 -0.011396413669 -0.012261399068 -0.012524965219 -0.012598580681 -0.012585029937 
-0.012527609244 -0.012488026172 -0.012439881451 -0.012431871146 -0.0093675218523 -0.0107073728 -0.0081606805325 -0.0070916437544 -0.0060708629899 
-0.0050801266916 -0.0041047884151 -0.00324920821 -0.0024796826765 -0.011243203655 -0.011322148144 0.012746289372 0.011993157677 0.012688222341 
0.011406124569 0.010338920169 0.0094533711672 0.0086696399376 0.0078078298829 0.0069804564118 -0.005455951672 -0.0072514424101 -0.0088933156803 
-0.010409289971 -0.011780916713 -0.012864967808 -0.013670207933 -0.013914337382 -0.013565843925 -0.01392739173 -0.014674315229 -0.014832995832 
-0.014950544573 -0.015197796747 -0.015362709761 -0.015325827524 -0.015140468255 -0.014483704232 -0.013890379108 -0.013376582414 -0.012886674143 
-0.012286927551 -0.011708826758 -0.011025069281 -0.010430796072 -0.0096134794876 -0.0088682128116 -0.0080071724951 -0.0057635209523 -0.0065413541161 
-0.0048437910154 -0.0039135627449 -0.0032139618415 -0.0021385005675 0.0030258167535 0.0019088912522 0.00087831169367 0.0014502102276 0.0017092138296 
0.0023969784379 0.0033080044668 0.0041410750709 0.0049380809069 0.0053173135966 0.0055706012063 0.0039606466889 0.0059002256021 0.0076895123348 
0.009308712557 0.010430139489 0.011056891643 0.012946967967 0.011866680346 0.013279552571 0.013982792385 0.014861867763 0.015556989238 
0.016122482717 0.015258685686 0.014437232167 0.013862773776 0.014681924134 0.014541566372 0.0051461244002 0.0047149364837 0.0037633543834 
-0.0042735831812 -0.013921394944 -0.013999019749 -0.014150322415 -0.014255595393 -0.014250044711 -0.014053384773 -0.013545308262 -0.013070931658 
-0.012732604519 -0.012397028506 -0.011995586567 -0.011558189057 -0.009301434271 -0.0098517267033 -0.0036970444489 -0.0046297269873 -0.0028066381346 
-0.0062773502432 -0.00780545827 -0.0092025073245 -0.010444795713 -0.011508683674 -0.012358523905 -0.012885360047 -0.012134083547 -0.01099043712 
-0.0098986960948 -0.0087977927178 -0.0076688947156 -0.0064932750538 -0.0053383810446 -0.0042921938002 0.013623994775 0.014367537573 0.014924281277 
-0.0054297987372 -0.0060264896601 -0.007000931073 -0.0094242924824 -0.0089207841083 -0.010003528558 -0.010431888513 -0.011259260587 0.012450611219 
0.013039796613 0.013485625386 0.013353914954 0.0024225562811 0.012985087 -0.010360176675 -0.0098591130227 -0.010936822742 -0.00069362245267 
-0.001842413214 0.0012702388922 0.012463055551 0.014116683044 -0.010345662944 -0.010889372788 -0.0083718877286 
Disp_Y 1 1114 double
0 0 -0.0010491305729 -0.00088186463108 -0.0011729691178 -0.0014682661276 0 -0.0017128653126 0 
-0.002038575476 -0.002171769971 -0.002332710661 -0.0018751892494 -0.0023015600163 0 -0.0017598447157 0 -0.0013464840595 
0 -0.0012378250249 0 -0.001191668096 0 -0.0011946734739 0 -0.0012261375086 0 
-0.0012918687426 0 -0.0013174946653 0 -0.0013290010393 0 -0.0013374367263 0 -0.0014091528719 
0 -0.0016448971583 -0.001362218638 -0.0017716983566 0 -0.0017956747906 0 -0.0016931273276 0 
-0.0017059809761 0 -0.0017465172568 0 -0.0017875931226 0 -0.0015218725894 0 -0.0013435765868 
0 -0.0012505311752 0 -0.0012002459262 0 -0.0011739353649 0 -0.0011564859888 0 
-0.0011689474341 0 -0.0011946111917 0 -0.001239845762 0 -0.0013031911803 0 -0.0013742884621 
0 -0.0014411730226 0 -0.0014594055247 0 -0.0014603595482 0 -0.0013199478853 0 
-0.0011254305718 0 -0.00095341372071 0 0 4.0687456931e-05 0.00037581357174 0 -3.1458021112e-05 
0 -0.00013985196711 0 -0.00010227761231 0 2.1276295229e-05 0 -1.075192813e-05 0 
3.4631742892e-05 0 0.00011366052058 0 0.00011130046187 0 0.00029033297324 0 0.00032970574102 
0 0.00062600238016 0 0.00083957053721 0 0.0010302907322 0 0.00089520879555 0 
0.00094146397896 0 0.0011101805139 0 0.0012585304212 0 0.0012286355486 0 0.0010976833291 
0 0.00088172918186 0 0.00081697187852 0 0.00082463532453 0 0.0011233811965 0 
0.00099510711152 0 0.0012356697116 0 0.0013067242689 0 0.00135359657 0 0.0012996225851 
0 0.0012045671465 0 0.0012114554411 0 0.0013589899754 0 0.0015907034976 0 
0.0018487328198 0 0.0011925969739 0.00025534402812 0.00072241737507 6.4567939262e-05 0.00040909933159 -0.00019062052888 0.00020124613366 
0 0.00018174196885 0 0.000385575986 0 0.00055029522628 0 0.00066733855056 0 
0.00068676291266 0 0.00078212976223 0 0.00089323183056 0 0.0011432780884 0 0.0014284821227 
0 0.0013867225498 0 0.0012236582115 0 0.00095767853782 0 0.00091337208869 0 
0.00058608595282 0 0.00047684772289 0 0.00042116286932 0 0.00038984511048 0 0.00048011820763 
0 0.00037011544919 -0.0030225170776 -0.0026041485835 -0.0035760586616 -0.0041241007857 -0.0037541429047 -0.003604660742 -0.0033254758455 
-0.0030200956389 -0.0028080292977 -0.0027346769348 -0.0026889063884 -0.0026693665422 -0.0026861410588 -0.0027515690308 -0.0027494789101 -0.0027942196466 
-0.0029579466209 -0.0031335577369 -0.0032816990279 -0.003410867881 -0.003488417482 -0.0035667654593 -0.0037523540668 -0.0040666968562 -0.0032686723862 
-0.0028783546295 -0.0026665281039 -0.0025618753862 -0.0025273081847 -0.0025573838502 -0.0026657562703 -0.0027483752929 -0.002874518279 -0.003033015877 
-0.0031889134552 -0.0032618413679 -0.0032219167333 -0.003251924878 -0.0028343803715 -0.0025840562303 -0.0025690544862 -0.0025323096197 -7.4831073107e-06 
0.00014485575957 -0.00013621163089 -0.0002703947539 -0.00036647284287 -0.00035764361382 -0.00027889898047 -0.00013736351684 -8.4131541371e-05 0.00028108656988 
0.00088997831335 0.0013790215598 0.0019106493564 0.0021478796843 0.0020736111328 0.0021012751386 0.0022457002196 0.002290867269 0.0021759395022 
0.0019839555025 0.0017644728068 0.0016294049565 0.0013662924757 0.0012801889097 0.0017450912856 0.0014559092233 0.0019353640964 0.002233248204 
0.0023828833364 0.0025093539152 0.0026011464652 0.0028360614087 0.0033669264521 0.0030175880529 0.0022644058336 0.0016689074691 0.0011546018068 
0.00094243785134 0.00081059784861 0.0010600152891 0.0012484135805 0.001337935566 0.001194754499 0.00107573485 0.0013557705097 0.0017327152891 
0.0023283886258 0.0024051661603 0.0021061089355 0.0016142419772 0.0013025639346 0.0009227473638 0.00076949625509 0.00072205555625 0.00062515860191 
0.00064124196069 0.00048903527204 0.00045300257625 0.0014747704845 0.001268977765 -0.0050631640479 -0.0054686283693 -0.0048275361769 -0.0046137212776 
-0.0042928573675 -0.0039916294627 -0.0038650841452 -0.0038134756032 -0.0037987313699 -0.0037970342673 -0.0039500440471 -0.003963004332 -0.0040561268106 
-0.0042895502411 -0.0045417668298 -0.0047430624254 -0.0049425349571 -0.0050976993516 -0.0052327178419 -0.0055255284533 -0.0057901181281 -0.0041310717352 
-0.0045489864424 -0.0038883783855 -0.0037630507722 -0.003721753601 -0.0038034184836 -0.0039966991171 -0.0042243618518 -0.0044666677713 -0.004722441081 
-0.0049376543611 -0.0050861099735 -0.0051942169666 -0.0056970948353 -0.0049085835926 -0.0048198620789 -0.0047359229065 -0.004577586893 -0.0044165654108 
-0.0047434405424 -0.0052649565041 -0.006108419504 0.0016193430638 0.0010599407833 0.0018534888513 0.0023189606145 0.002734284848 0.0031343358569 
0.0033622833434 0.0036398496013 0.0039574294351 0.0030557573773 0.0036733476445 0.002540417714 0.0021822855342 0.0016560599906 0.0014058287488 
0.0014705382055 0.0014960160479 0.0013581695966 0.00082261610078 0.00059100729413 0.00085181120085 0.0014028497972 0.00225281436 0.0023474488407 
0.0020689545199 0.0015230337158 0.0011480983812 0.00082983716857 0.00059428147506 0.00049166270765 0.00035230463254 0.00037145146052 0.00019286974566 
0.00018281712255 -3.6692279537e-05 -0.0001850995468 -0.00034272717312 -0.000466932368 -0.00059901294298 -0.00058498757426 -0.00048251962289 -0.00035734343692 
-3.8640569073e-06 0.00048600265291 0.0012094742851 0.001863766578 0.0025393394753 0.0028009209782 0.0027339428198 0.0025889696553 0.0027263241354 
0.0025703497231 0.0025248089805 0.0024130474776 0.002142540412 0.0020073659252 0.00155271939 0.001195889432 0.00077501835767 0.00021582374757 
0.00071612355532 -0.00046686865971 0.0040290709585 0.0037736201193 -0.0058784745634 -0.0063822632656 -0.0055627897382 -0.0052181370556 -0.005038772244 
-0.0049424772151 -0.004923032131 -0.0049616959877 -0.0051880162209 -0.0054979245178 -0.0057955654338 -0.0062665240839 -0.0065800608136 -0.0068732225336 
-0.0073137963191 -0.0081014856696 -0.0072615118697 -0.0075037959032 -0.007242069114 -0.0069217900746 -0.0065723322332 -0.0066169854254 -0.0057716360316 
-0.0060930652544 -0.0055401409045 -0.005363968201 -0.0050802933984 -0.0047147828154 -0.0044529484585 -0.004391989205 -0.004453423433 -0.0045595965348 
-0.0049587110989 -0.0049328268506 -0.0050954101607 -0.0053892065771 -0.0056606326252 -0.0058743623085 -0.0060680974275 -0.0062650563195 -0.0063571683131 
-0.0065059042536 -0.0066599007696 -0.0066242041066 -0.0066558890976 -0.006796523463 -0.0067039323039 -0.0066609778441 -0.00614085095 -0.0064874486998 
-0.0069559924304 -0.0069843027741 -0.0083484137431 -0.0094012962654 0.0014231218956 0.0021038292907 0.0027773389593 0.0032517546788 0.0035132891499 
0.003496350022 0.0031526440289 0.0031743685249 0.002314357087 0.0038315961137 0.0037387441844 0.0034534989391 0.0029521044344 0.0025941776112 
0.002016141545 0.0016447470989 0.0015359381214 0.0010909856064 0.00056070490973 -3.1492039852e-05 -0.00034322007559 -0.00013992996537 0.00034236820647 
0.0011063112179 0.0012646659743 0.0012014780659 0.00075208919588 0.0004337245482 0.00020003547252 4.8181747843e-05 -7.2562179412e-05 -0.00026881523081 
-0.00036711173016 -0.0006733671762 -0.00050396245206 -0.0004041082575 -0.00051664753119 -0.00068193813786 -0.0008170704823 -0.00085204100469 -0.00083909364184 
-0.0007304038736 -0.00057176320115 -6.4725274569e-05 0.00053051637951 0.0012812241912 0.0019563916139 0.0026883108076 0.0027070560027 0.0026983385906 
0.0023136921227 0.0023116595112 0.0024410991464 0.0021553710103 0.0020331453998 0.0018444731832 0.0017337233294 0.0014961893903 0.00096350588137 
0.00022299749253 -0.00054416264175 -0.0013091471046 -0.0013789691729 -0.0020951179322 -0.0005394637119 0.00018749211449 0.00084616674576 0.0015844556037 
0.0022737693507 0.0027442502324 -0.0011849829461 -0.00014817190822 -0.002027739305 -0.0027760078665 -0.0028782612644 -0.0034263855778 -0.0023280715104 
-0.0017508714227 -0.0011958730174 -0.00063099997351 0.00013876844605 0.00095931231044 0.0016713213408 0.0021129318047 0.0015612536808 -0.0065956097096 
-0.006407814566 -0.0062953736633 -0.0062150321901 -0.0061405557208 -0.0061855600215 -0.0063120042905 -0.0066362414509 -0.0071213850752 -0.0076950970106 
-0.0081232488155 -0.0084811635315 -0.0089413365349 -0.0095428107306 -0.010278212838 -0.010701294988 -0.010927247815 -0.010325145908 -0.010025466792 
-0.0095594637096 -0.0094133960083 -0.0088970586658 -0.0085289515555 -0.0083421468735 -0.0068596350029 -0.0083142612129 -0.0068593840115 -0.0081450184807 
-0.0078473482281 -0.0075493450277 -0.0070258821361 -0.0065418235026 -0.0062715793028 -0.0060491212644 -0.0058617377654 -0.0056185917929 -0.0052128341049 
-0.0048985294998 -0.0048234355636 -0.0050000231713 -0.0052046198398 -0.0056343036704 -0.0057634944096 -0.0056445337832 -0.0060071940534 -0.0061766812578 
-0.006325032562 -0.0064616170712 -0.0066423742101 -0.0066399406642 -0.0066698915325 -0.0065951002762 -0.0063749230467 -0.0063642137684 -0.0062499432825 
-0.0068000243045 -0.0061292331666 -0.0070132273249 -0.0072305337526 -0.0057231145911 -0.0060639381409 0.0013789529912 0.002315832302 0.001270965091 
0.00011928156891 0.0022741127759 0.0028367931955 0.0029894800391 0.0030996722635 0.0026679718867 0.0023096711375 0.0017079714453 0.0012524798512 
0.00081618805416 0.00014970348275 -0.0006792685017 -0.0014926365111 -0.0017144050216 -0.0014510230394 -0.001016738941 -0.00041629877524 -0.00038583468995 
-0.00031720512197 -0.00061615533195 -0.0007260912098 -0.00088208913803 -0.00093976350036 -0.0010070927674 -0.0011304654181 -0.0012970597018 -0.0019391466631 
-0.0012807337334 -0.0014935646905 -0.0013790976955 -0.0014625703916 -0.0015706217382 -0.0016685150331 -0.0016217944212 -0.0014191265218 -0.0011060476536 
-0.00057618157007 0.00012400727428 0.00073142547626 0.0012755095959 0.0018578631571 0.0019402895123 0.0020340560004 0.0018473681994 0.0010358900763 
0.00045596176642 -0.00035068893339 0.001173888566 0.0016222995473 0.0015272722812 0.0013446693774 0.0010543145472 0.00084875739412 0.00094059947878 
-0.002027571667 -0.0032092316542 0.00038885991671 -0.00097173143877 -0.0011513311183 -0.0023568833712 0.00022144484683 0.0013632863993 0.002154462738 
0.0020995591767 0.0019178893417 0.0013906462118 0.00087536987849 0.0002912695345 -0.00023521097319 -0.00084904994583 -0.0015772078186 -0.0024338364601 
-0.0034948340617 -0.0031905854121 -0.0029407248367 -0.002589660231 -0.002205188619 -0.0021584772039 -0.0021216934547 -0.0022631203756 -0.0023309267126 
-0.0023814768065 -0.0023706895299 -0.0023369735572 -0.0024386225268 -0.0027266922407 -0.0035796081647 -0.004665507935 -0.0047147115692 -0.0059940931387 
-0.0036125103943 -0.0029926206917 -0.0027098935097 -0.0027746220585 -0.0028087932151 -0.0029899373185 -0.0031204426195 -0.0030545839109 -0.0029435753822 
-0.0027745012194 -0.0025990109425 -0.0013641410042 -0.00074178253999 -0.00028593972092 0.00021405085863 0.00050957978237 0.00084895541659 -0.00091846118448 
-0.0020139601547 -0.0028618669603 -0.0010019451147 0.00019340861763 0.00076630938565 0.00042883181595 0.00010303583258 -0.00029518018709 -0.00074788939673 
-0.0073654139414 -0.0074027213268 -0.0073473793454 -0.0073476689868 -0.0072949239984 -0.0073933200911 -0.0075058960356 -0.0078302910551 -0.0083778873086 
-0.0088486382738 -0.0092908302322 -0.0096067059785 -0.0098971938714 -0.010266857222 -0.010528690182 -0.010855537839 -0.011248688214 -0.010631579906 
-0.011485595256 -0.011406175792 -0.01151740551 -0.011314225383 -0.011034633033 -0.010521088727 -0.010111500509 -0.0099566103891 -0.009559742175 
-0.0091309789568 -0.0085965460166 -0.0080671506003 -0.0074693420902 -0.0070091597736 -0.0067146806978 -0.0065470635891 -0.0065052048303 -0.0063667609356 
-0.006007288117 -0.0056738434359 -0.0055591799319 -0.0057131354697 -0.0059216963127 -0.0062228529714 -0.0064520877786 -0.0062515628524 -0.0063796266913 
-0.0060507333837 -0.0059065162204 -0.0059285452589 -0.0060047484003 -0.0059419046156 -0.0059647401795 -0.0060007655993 -0.0060424301773 -0.006121574901 
-0.006176982075 -0.006041387096 -0.0058436626568 -0.0056462502107 -0.0053856270388 -0.005047603976 -0.0061889784411 -0.0049510002136 -0.0067683891393 
-0.0070170606486 -0.0074660554528 0.00071094388841 0.00023504425189 -0.00051052583149 -0.0011164228199 -0.0016953824088 -0.002218590118 -0.0027837425005 
-0.0034354641102 -0.0042145834304 -0.0051365611143 -0.0043505700305 -0.0045642144978 -0.0042015397921 -0.0040911175311 -0.0040800510906 -0.0040935063735 
-0.004190643318 -0.0042426805012 -0.0042458507232 -0.0041872519068 -0.0040951063856 -0.0041726459749 -0.0046293013729 -0.0053021986969 -0.0062213446945 
-0.0073894271627 -0.0074605112895 -0.0087437443435 -0.0062178177759 -0.0051941201091 -0.0044667422771 -0.0043463511392 -0.0044828364626 -0.00441625854 
-0.0047219046392 -0.005030376371 -0.0051784506068 -0.0051055024378 -0.0049549289979 -0.005048672203 -0.0027245050296 -0.0032935282215 -0.0023463121615 
-0.0019206301076 -0.0014559774427 -0.0049807685427 -0.0059667374007 -0.0035984488204 -0.004766935017 -0.0055931261741 -0.003902352415 -0.0028441345785 
-0.00080262607662 -0.0076733091846 -0.0079129273072 -0.0079296072945 -0.0080169457942 -0.0080486088991 -0.0082253506407 -0.0083840042353 -0.0086606685072 
-0.0090683894232 -0.0094302855432 -0.0097146565095 -0.0098570557311 -0.01018571388 -0.010504353791 -0.0094434078783 -0.0096748666838 -0.0082396185026 
-0.010878866538 -0.011681600474 -0.011915028095 -0.012164887041 -0.012124011293 -0.012031355873 -0.011559892446 -0.011136896908 -0.010824016295 
-0.010080207139 -0.0095249926671 -0.0089870942757 -0.0084330206737 -0.0078416001052 -0.0073918038979 -0.0070465155877 -0.0069705573842 -0.0070071136579 
-0.0069208121859 -0.0066377259791 -0.0063988198526 -0.0063684722409 -0.0064101223834 -0.0065391035751 -0.0066402847879 -0.0066130915657 -0.0062732286751 
-0.005950148683 -0.0056360801682 -0.0061080837622 -0.006020241417 -0.0059518106282 -0.0057229953818 -0.0055361287668 -0.0053263632581 -0.0052558979951 
-0.005190952681 -0.0049336254597 -0.0053792409599 -0.0056926896796 -0.0053977123462 -0.0051692263223 -0.0047567775473 -0.0042548161 -0.003745356109 
-0.0034046338405 -0.0049823606387 -0.0031371898949 -0.0063727740198 -0.0019772399683 -0.002822214039 -0.0034985225648 -0.0041523370892 -0.0040828287601 
-0.0036022432614 -0.0032685119659 -0.0028219015803 -0.0025873433333 -0.0022833466064 -0.0014418561477 -0.00050273898523 -0.0020041933749 -0.0033982207533 
-0.0037068224046 -0.0046330089681 -0.0024789082818 -0.00083474710118 -0.0076096244156 -0.0072372658178 -0.0077802557498 -0.0080570466816 -0.0082199256867 
-0.0084270266816 -0.00855493173 -0.0087727159262 -0.0090099126101 -0.0091724079102 -0.0088646989316 -0.0090891811997 -0.0092723425478 -0.0066840229556 
-0.0058791097254 -0.0065621640533 -0.0085042985156 -0.009934514761 -0.010990900919 -0.011704064906 -0.012037253939 -0.011816070415 -0.011949114501 
-0.011596545577 -0.011277822778 -0.010663252324 -0.0091233244166 -0.0095069250092 -0.0087231118232 -0.0082731749862 -0.0077711413614 -0.0074134496972 
-0.0070614512078 -0.0069403438829 -0.0069159748964 -0.0069240983576 -0.0068194824271 -0.0069029438309 -0.0067812995985 -0.0067106401548 -0.0067825186998 
-0.0066238678992 -0.0064903884195 -0.0058803856373 -0.0049870526418 -0.0098289158195 -0.0096383569762 -0.0042478526011 -0.0058907773346 -0.0013168678852 
-0.0018052416854 -0.002303739544 -0.0030687924009 -0.0037484916393 -0.0043151760474 -0.004861894995 -0.0017794147134 -0.0025795530528 -0.0032012208831 
-0.0037241973914 -0.004184671212 -0.004595214501 -0.0051023205742 -0.0055559938774 -0.0062717436813 -0.0063362265937 -0.0056721130386 -0.0056166336872 
-0.0056017632596 -0.0056884149089 -0.0058336625807 -0.0059903045185 -0.006159087643 -0.0062011680566 -0.0062621948309 -0.0062452363782 -0.0061642634682 
-0.0060445731506 -0.0061567085795 -0.0064252130687 -0.0069278064184 -0.0075519671664 -0.008576977998 -0.0097967255861 -0.0087737999856 -0.01003122516 
-0.0075437184423 -0.0064806123264 -0.0056345937774 -0.0060150539503 -0.0030998329166 -0.0043213460594 -0.0053208977915 -0.005596216768 -0.0057604447939 
-0.0056305886246 -0.0052275145426 -0.0047973846085 -0.0042947907932 -0.0043824142776 -0.0045336075127 -0.0071783438325 -0.0073176897131 -0.0072150393389 
-0.0069706779905 -0.0065147685818 -0.0074693630449 -0.0067007113248 -0.0081611098722 -0.0053603230044 -0.0050966693088 -0.0048206979409 -0.0045603215694 
-0.0042166388594 -0.0066007031128 -0.0070061571896 -0.0075432909653 -0.0064487098716 -0.0058355326764 -0.0036943638697 -0.0038596359082 -0.0040331357159 
-0.0039770375006 -0.0064278705977 -0.0065576988272 -0.0068348883651 -0.0071400892921 -0.0074922279455 -0.0078259892762 -0.0079716928303 -0.0081080496311 
-0.0081989308819 -0.0080558704212 -0.0079018985853 -0.0079324403778 -0.009479646571 -0.0085151474923 -0.0087899202481 -0.0099423136562 -0.0074726021849 
-0.0045369630679 -0.0050259158015 -0.0054490002804 -0.0057973973453 -0.0059797721915 -0.0061870985664 -0.0063111199997 -0.0067307446152 -0.0067873131484 
-0.0067352424376 -0.0066246469505 -0.0064689810388 -0.0061963847838 -0.0058775353245 -0.0054186610505 -0.0068451012485 -0.0067837038077 -0.0066363401711 
-0.010943373665 -0.011557956226 -0.01095429901 -0.01090523228 -0.011095572263 -0.010700878687 -0.010310941376 -0.0093896025792 -0.008273055777 
-0.007971001789 -0.0080249272287 -0.0080217374489 -0.0050976262428 -0.0081684729084 -0.0096255410463 -0.0097324326634 -0.009523652494 -0.0053561995737 
-0.0056898007169 0.002881540684 -0.0069466121495 -0.0053529860452 -0.0083329761401 -0.0081021310762 -0.010778338648 
Disp_Z 1 1114 double
0 0 0.0010087210685 0.0010412845295 0.00051498756511 0.00069083482958 0 0.00043116637971 0 
0.00021933259268 0.00012156593584 0.0003867240448 0.00083626271226 0.0004141094978 0 0.00037085314398 0 0.00012816769595 
0 -7.78341564e-05 0 -0.00031346958713 0 -0.00051210582023 0 -0.00058832677314 0 
-0.00060197891435 0 -0.00055993959541 0 -0.0005317365285 0 -0.00053216435481 0 -0.00054671592079 
0 -0.00048047778546 -0.00020409905119 -0.00033634048305 0 -0.00048683036584 0 -0.00048626333592 0 
-0.0004876733874 0 -0.00042568537174 0 -0.00019677328237 0 0.00015084100596 0 0.00038472758024 
0 0.00045348590356 0 0.00046651498997 0 0.00048819606309 0 0.00055935699493 0 
0.00069222407183 0 0.00080276181689 0 0.00087967660511 0 0.00088175397832 0 0.00082934257807 
0 0.00069809553679 0 0.00056500145001 0 0.00057340640342 0 0.00068200007081 0 
0.00086543074576 0 0.0010167941218 0 0 -0.0027077232953 -0.002583902562 0 -0.0028056753799 
0 -0.0028957878239 0 -0.0029329240788 0 -0.0029428123962 0 -0.0029209973291 0 
-0.0028739739209 0 -0.0027835706715 0 -0.0026614659 0 -0.0025429390371 0 -0.0024255421013 
0 -0.0021582485642 0 -0.0018081271555 0 -0.0014070906909 0 -0.0010532145388 0 
-0.00063112034695 0 -0.00019881760818 0 0.00012055573461 0 0.00033214304131 0 0.00052064738702 
0 0.00076849584002 0 0.0010833182605 0 0.0015303990804 0 0.0023560663685 0 
0.0019182824763 0 0.0019823124167 0 0.0022417367436 0 0.0023919227533 0 0.0024592049886 
0 0.0025541146751 0 0.0026430720463 0 0.0027338012587 0 0.0028220226523 0 
0.0025545295794 0 0.0027100497391 0.00059902365319 0.0027465363964 0.00035951944301 0.0026315518189 8.0598874774e-05 0.0023620787542 
0 0.0020833772141 0 0.0018060398288 0 0.0015417683171 0 0.0012921784073 0 
0.0010736943223 0 0.00085712270811 0 0.00054084917065 0 0.0001832589478 0 -9.1240646725e-05 
0 -0.00026056772913 0 -0.00041316094575 0 -0.00059552647872 0 -0.00081083271652 0 
-0.0010474344017 0 -0.0013262754073 0 -0.0016049009282 0 -0.0018925283803 0 -0.0021926099434 
0 -0.0024443243165 0.00072195951361 0.00096533447504 0.00039601267781 0.00029968499439 0.00049853132805 0.00075261760503 0.00079692341387 
0.00068343698513 0.00045896568918 0.00017229148943 -3.7173958845e-05 -6.2767678173e-05 5.1500257541e-05 0.00013416050933 0.00012469945068 5.6293123635e-05 
-1.4729345821e-05 2.0420844521e-05 4.8747904657e-05 1.4480127902e-05 -7.5278956501e-05 -0.00019142426027 -0.00021004801965 0.0002051978081 0.00050228950568 
0.00063260091702 0.00059515959583 0.00049920973834 0.00042063431465 0.00041217557737 0.00049554585712 0.00054334307788 0.00051855971105 0.00039065608871 
0.00015397806419 -0.00021680162172 -0.00056362315081 -0.00067636545282 -0.00043049635133 0.00012674552272 0.00073080381844 0.0010733194649 -0.0059074969031 
-0.0057244426571 -0.0060455822386 -0.006135137286 -0.0061562866904 -0.0061118640006 -0.0059920274653 -0.0057823453099 -0.0054715308361 -0.0051320460625 
-0.0047129215673 -0.0041511319578 -0.0034632801544 -0.0027260605711 -0.0019638480153 -0.0011343318038 -0.00026682429598 0.00034751283238 0.00079464365263 
0.0011708976235 0.0015852336073 0.0020759715699 0.0028022215702 0.0038820516784 0.0038968669251 0.0033442459535 0.0044713006355 0.0048697716556 
0.00502250297 0.0050914632156 0.0052134315483 0.0055034421384 0.0063227452338 0.0055427676998 0.0053579402156 0.0052106194198 0.0050020813942 
0.0046451166272 0.0042469589971 0.0037899960298 0.0033537542913 0.0029031333979 0.0023952340707 0.0018135419814 0.0011266100919 0.00045209925156 
-0.00015085662017 -0.00065624917625 -0.0010579008376 -0.0014569020132 -0.0018987479853 -0.0023522742558 -0.0028426116332 -0.0033671746496 -0.0039429096505 
-0.0045520272106 -0.0051319473423 -0.0054977457039 0.0041638580151 0.0052255899645 0.00087882368825 0.00053383514751 0.0012178005418 0.0014750746777 
0.0015484956093 0.0014658428263 0.0012997066369 0.0011697547743 0.0012320214882 0.0014775260352 0.0017108652974 0.0015882226871 0.0014173653908 
0.0012708072318 0.001212275587 0.0011703908676 0.0010372441029 0.00083446258213 0.00061663117958 0.0005187454517 0.0008558241534 0.00063004164258 
0.0008058573585 0.00039550301153 0.0001360172173 -0.00011399318464 -0.00030599307502 -0.00042660845793 -0.00056469527772 -0.00081057852367 -0.0011913410854 
-0.0016931390855 -0.0022524574306 -0.0028788896743 -0.0035521162208 -0.0023815629538 -0.0010920328787 -9.6308431239e-05 0.0004845263029 0.00037868067739 
0.00023094743665 0.0010276634712 0.001483756816 0.0054047154263 0.0065744621679 0.0065217805095 0.0071405447088 0.0074850139208 0.0076368385926 
0.0077852532268 0.0081660887226 0.009170605801 0.0079705137759 0.0084271291271 0.0076231523417 0.0072206752375 0.0068040397018 0.0062831635587 
0.0057097268291 0.0051231626421 0.0044735604897 0.0036887333263 0.0027926103212 0.0018160846084 0.00084597436944 -7.7368786151e-05 -0.00095157965552 
-0.0016722911969 -0.0023089647293 -0.0029810229316 -0.0036521907896 -0.0043382532895 -0.0050949631259 -0.0059509449638 -0.0069114393555 -0.0079416437075 
-0.0084847826511 -0.0088002067059 -0.0090652499348 -0.009279165417 -0.009452923201 -0.0095388712361 -0.0094800554216 -0.0092643713579 -0.0088894525543 
-0.0083733545616 -0.0077258073725 -0.0069707650691 -0.006095204968 -0.0051009277813 -0.0040391171351 -0.0029220709112 -0.0016507925466 -0.0002036269143 
0.00065521785291 0.0013403762132 0.0019154504407 0.002483215183 0.0030602600891 0.0037384245079 0.0047296918929 0.0058631356806 0.0070360437967 
0.0082313222811 0.0081514455378 0.0094083575532 0.011004746892 0.0014002476819 0.0019845117349 0.00094149651704 0.00046422323794 7.0039395723e-06 
-0.00045748372213 -0.0009108359227 -0.0013585392153 -0.0017547757598 -0.0021840443369 -0.0027556847781 -0.0034022354521 -0.0041593490168 -0.0048661800101 
-0.005537271034 -0.0064254691824 -0.0022928293329 -0.0040374714881 -0.00086232490139 -0.00034074400901 -0.00042018454405 -0.00052239344222 0.0013277967228 
0.00085391127504 0.0018160826294 0.0022492595017 0.0025347785559 0.0026402140502 0.0026379828341 0.0026773142163 0.0029056773055 0.0033792592585 
0.0041623031721 0.0035248820204 0.0031752244104 0.0029683113098 0.0028618895449 0.0027534603141 0.0025235651992 0.0021967352368 0.0018666193355 
0.001674835803 0.0018176727463 0.0022034144495 0.0026589855552 0.0023048629519 0.0029777819291 0.001628166181 0.00022782033193 0.00043773298967 
-9.4191163953e-05 0.00012960586173 -0.0056340214796 -0.0079454220831 0.0090252384543 0.0095492890105 0.0098857888952 0.010070514865 0.010414398275 
0.01105037611 0.012436834164 0.012848827988 0.013793835416 0.011780388653 0.010964634828 0.010459193029 0.010022548959 0.0095146596432 
0.0089395772666 0.0082526886836 0.0075284019113 0.0067456220277 0.0058423262089 0.0047957799397 0.0036403955892 0.0024350015447 0.0012363913702 
7.1101385402e-05 -0.001086277538 -0.0021254820749 -0.003026426537 -0.0039280871861 -0.004800492432 -0.0056864037178 -0.0066450336017 -0.0077232597396 
-0.009058393538 -0.011198821478 -0.011532871984 -0.011837746017 -0.01214969065 -0.012452191673 -0.012719311751 -0.01287022233 -0.012793125585 
-0.012483279221 -0.011949290521 -0.011212627403 -0.010226179846 -0.0091317277402 -0.0079507241026 -0.0066502583213 -0.0053211017512 -0.0039901952259 
-0.0028991808649 0.0011167025659 0.00019718942349 0.0019566479605 0.0027096983977 0.0034018799197 0.0039622941986 0.0042957118712 0.0050743292086 
0.0059971604496 0.0069335945882 0.0077455439605 0.0089999474585 0.0083205355331 0.0096593266353 0.010463627987 0.011139058508 0.011620466597 
0.011923755519 0.01212159358 0.0065204747953 0.0057250144891 0.0071510835551 0.0075573963113 0.0085735348985 0.0076504140161 0.0094712097198 
0.010359733365 0.011280201375 0.012217236683 0.012847796082 0.013307819143 0.013416632079 -0.0010438524187 -0.0022733781952 0.00097395369085 
0.00025994717726 -0.00043495895807 -0.0011332923314 -0.0018465898465 -0.0025581445079 -0.0033040486742 -0.0040896269493 -0.0049726264551 -0.0059483428486 
-0.0069674379192 -0.0078129544854 -0.008527867496 -0.0092331878841 -0.010298490524 -0.0097971707582 -0.012070844881 -0.0074772662483 -0.0054680961184 
-0.0038495738991 -0.0023695142008 -0.0018455574755 -0.0016616859939 -0.0015146682272 -0.00046221539378 -0.0012252189917 -0.00031412948738 -0.00086117570754 
-0.00044310325757 4.1008104745e-05 0.00057458522497 0.0011638446013 0.0017891443567 0.002440002514 0.003053904511 0.0035657193512 0.0038896391634 
0.0040842001326 0.0043151522987 0.0047193397768 0.0053960299119 0.0064045730978 0.0051058791578 0.0055547971278 0.0048822038807 0.0047528841533 
0.0045378622599 0.0042004692368 0.0037841422018 0.0033129116055 0.0029871300794 0.0029767749365 0.0031327584293 0.0034125421662 0.0036286653485 
0.0031404281035 0.0036414847709 0.0024453275837 0.0017134546069 0.0064273886383 0.0079216090962 0.014430839568 0.013240640052 0.01500141155 
0.015339351259 0.014324215241 0.013460090384 0.013069232926 0.012805650942 0.012346280739 0.011770272627 0.011022790335 0.01014189329 
0.0091907279566 0.0081374775618 0.0069942283444 0.0056839021854 0.0042596114799 0.0029105460271 0.0015551354736 0.00021451497742 -0.0011332088616 
-0.0024472146761 -0.0035427603871 -0.0046745827422 -0.0057215439156 -0.0067774397321 -0.0078706135973 -0.0091186081991 -0.010607182048 -0.01247874368 
-0.014619727619 -0.014325244352 -0.014906337485 -0.015299849212 -0.015662482008 -0.015859665349 -0.015778448433 -0.015414414927 -0.014764952473 
-0.013845521957 -0.012454099953 -0.011025265791 -0.0095281116664 -0.0080134328455 -0.0063387728296 -0.0048222336918 -0.0037629168946 -0.0035484742839 
-0.0016050901031 -0.0030914328527 -0.00037777147372 0.00066599855199 0.0015984990168 0.0025278134272 0.0033816772047 0.0042526996695 0.0048736361787 
-0.014394341968 -0.014482330531 0.014479101636 0.015276211314 0.016045495868 0.015681969002 0.015911262482 0.01528198272 0.01458557602 
0.014763046056 0.014778117649 0.01432064455 0.013727137819 0.012831418775 0.011765930802 0.010511768982 0.0092741744593 0.0079332776368 
0.0063287760131 0.004551764112 0.0031356771942 0.0017349999398 0.00026216104743 -0.0011713629356 -0.0026139828842 -0.0038823203649 -0.0051495628431 
-0.0063576474786 -0.0075426199473 -0.0087394891307 -0.010053862818 -0.011526162736 -0.013104145415 -0.014447478577 -0.016045978293 -0.015527586453 
-0.016166545451 -0.016362449154 -0.016727406532 -0.017091987655 -0.017520954832 -0.017914356664 -0.018181866035 -0.018128737807 -0.017718181014 
-0.016962772235 -0.016044048592 -0.014003156684 -0.012273388915 -0.010505686514 -0.0087367706001 -0.0068707019091 -0.0050506773405 -0.0048521030694 
-0.0023330794647 -0.0042059514672 -0.00066952075576 0.00045766524272 0.0010219061514 0.0018459727289 0.0029086472932 0.0038029949646 0.0049691032618 
0.00085900037084 -4.4559928938e-05 -0.00098577921744 -0.0018907097401 -0.0028371922672 -0.0038032315206 -0.0048717032187 -0.0060028466396 -0.0072332159616 
-0.0086543187499 -0.010018948466 -0.011030569673 -0.011685215868 -0.012009011582 -0.012127610855 -0.01393286325 -0.014016804285 -0.016106430441 
-0.011749450117 -0.0095510752872 -0.007559266407 -0.0058693247847 -0.0043945787475 -0.0035867895931 -0.0030925918836 -0.0026854847092 -0.0021218201146 
-0.0014747596579 -0.00082922313595 -0.00010075631144 0.00063672615215 0.0014110219199 0.0022166995332 0.0030532567762 0.0038971628528 0.0046712066978 
0.0052410331555 0.0056711090729 0.0060645178892 0.0065828473307 0.0073077664711 0.0083286920562 0.0095982747152 0.0095017785206 0.011003378779 
0.0082382680848 0.0074892244302 0.0070480392314 0.0067863524891 0.0065339235589 0.0061775115319 0.0057492596097 0.0053089163266 0.0046375854872 
0.00415691128 0.0040628295392 0.0040998817421 0.0041758213192 0.0042279693298 0.0040362467989 0.0034449717496 0.0036357482895 0.0030880917329 
0.00252955826 0.0017534303479 0.015792055055 0.016112077981 0.015571673401 0.01485147886 0.01386795938 0.012785254978 0.011466935277 
0.010129174218 0.0087985275313 0.0074901422486 0.003130631987 0.0043950048275 0.0018137475708 0.00038803211646 -0.0010862592608 -0.0026353506837 
-0.0039703003131 -0.0053093521856 -0.0066186869517 -0.0079210409895 -0.0091407028958 -0.010456759483 -0.01177342236 -0.013112085871 -0.013986596838 
-0.014652652666 -0.01610609889 -0.015034210868 -0.016688663512 -0.017090411857 -0.017522979528 -0.017990712076 -0.018519777805 -0.018872927874 
-0.019250089303 -0.019491015002 -0.019291616976 -0.018784616143 -0.018084581941 -0.017214966938 -0.012591774575 -0.014254140668 -0.010755491443 
-0.0088303200901 -0.00680725649 0.0055667976849 0.0063062286936 -0.0062378961593 -0.0032690260559 -0.0051964661106 -0.0013130941661 0.00085397297516 
0.0016243094578 0.00060736841988 -0.0005365529214 -0.001707704505 -0.0028104551602 -0.0039033058565 -0.0050922301598 -0.0064176968299 -0.0078672906384 
-0.0094828698784 -0.01130373776 -0.013159890659 -0.014303113334 -0.014880193397 -0.014886449091 -0.01797889173 -0.017431337386 -0.018821941689 
-0.015697102994 -0.013601682149 -0.011552829295 -0.0097218770534 -0.008169753477 -0.0065876366571 -0.0055286237039 -0.0047837942839 -0.0043912776746 
-0.0031505622901 -0.0021723888349 -0.001256881631 -0.00029535259819 0.00065972743323 0.0016101088841 0.0025696274824 0.0035825485829 0.0046287686564 
0.0057165487669 0.0065020658076 0.0071191661991 0.0076874988154 0.0083295330405 0.0091431764886 0.010128149763 0.011334612966 0.012586004101 
0.01228387747 0.013791695237 0.010874312371 0.0097335716709 0.0092036295682 0.0088380528614 0.0084969457239 0.0080562587827 0.0074173393659 
0.0068609444425 0.0065333237872 0.0055436780676 0.0049183308147 0.004999987781 0.0050450693816 0.0049605784006 0.0047370814718 0.0043695666827 
0.0037487740628 0.0026917604264 0.0027266321704 0.002650288865 0.0059287478216 0.0064503545873 0.0067347395234 0.0067859464325 0.0076338783838 
0.0085239494219 0.0095464000478 0.010514807887 0.011513645761 0.012694794685 0.013618065044 0.014240061864 0.014748650603 0.014907361008 
0.015741739422 0.014581661671 0.01642620936 0.016408447176 -0.0012641514186 0.00018324700068 -0.0026654957328 -0.0038953279145 -0.0049610114656 
-0.0063017783687 -0.0078604929149 -0.0095436275005 -0.011396939866 -0.01354967989 -0.016177665442 -0.017133526504 -0.017744308338 -0.018843326718 
-0.019166540354 -0.019401978701 -0.017996804789 -0.0167502556 -0.015040854923 -0.013276328333 -0.011711183004 -0.010901722126 -0.0088101346046 
-0.007511745207 -0.0066740904003 -0.0063189701177 -0.0028664944693 -0.0040621678345 -0.0017225750489 -0.00049697299255 0.00065070961136 0.0017630000366 
0.0028374998365 0.0039303041995 0.0051193661056 0.006698670797 0.0084345666692 0.0076575996354 0.0091840792447 0.0099834576249 0.010897587985 
0.011891519651 0.012989955954 0.014035466127 0.015153967775 -0.0053988965228 -0.0068436474539 -0.015769533813 -0.01634330675 0.0029460536316 
0.003856749041 0.0046731079929 0.0052890707739 0.0057107582688 0.0058887396008 0.0058785853907 0.016673894599 0.016139989719 0.015324499458 
0.014236498624 0.013100746088 0.011801185086 0.010558129288 0.0092819994316 0.0081122554839 0.0051608486101 0.0049766842276 0.0041546542197 
0.0030591129325 0.0018541000318 0.00050148455193 -0.00092525803484 -0.0024747869466 -0.0038228249177 -0.0051733138971 -0.006501131691 -0.0078131621704 
-0.0090358778834 -0.010304346681 -0.011464290321 -0.012595401146 -0.01336615067 -0.013643560931 -0.013609551825 -0.016139999032 -0.015049876645 
-0.016970671713 -0.01757359691 -0.017879448831 -0.018282169476 0.013874601573 0.013696459122 0.013244308531 0.011840641499 0.010763299651 
0.01072308328 0.010531654581 0.00996287819 0.0092851789668 0.0082327332348 0.0076018837281 -0.019499156624 -0.01923590526 -0.018688108772 
-0.018000811338 -0.017292333767 -0.016363233328 -0.015159910545 -0.014730394818 -0.015030660667 -0.013923065737 -0.01235486567 -0.010493525304 
-0.0083532324061 -0.0072994595394 -0.0038257220294 -0.0051612649113 -0.0021956316195 -0.00048664660426 0.010357977822 0.011101343669 0.01225393638 
0.016176624224 0.0040843407623 0.0029896746855 0.0018536167918 0.00061709701549 -0.00069759495091 -0.0021440489218 -0.0034581325017 -0.0047510913573 
-0.0060864663683 -0.0074206921272 -0.0086184218526 -0.0098405545577 -0.012596279383 -0.012762715109 -0.017074428499 -0.015853457153 -0.017954936251 
0.015646968037 0.014758565463 0.01370524615 0.012622831389 0.011410616338 0.010355136357 0.0095104724169 0.0087392460555 0.0095613831654 
0.010479971766 0.011462584138 0.012468755245 0.013486848213 0.014425961301 0.01505438704 -0.013561927713 -0.011798527092 -0.0097946887836 
-0.014466807246 -0.013269543648 -0.013373353519 -0.0091238562018 -0.010413518175 -0.0081522325054 -0.0075019942597 -0.0080377748236 -0.012747177854 
-0.0057947682217 -0.0072340816259 -0.0090297861025 0.012237785384 -0.010869821534 -0.010197305121 -0.011388747953 -0.0091512948275 0.00013181225222 
0.00011612778326 0.012179896235 0.0015997138107 0.0012666310649 -0.011974709108 -0.010928701609 -0.012052996084 
Disp_FEB 3 1114 double
0 0 0 0 0 0 0.0011367751285 -0.0010491305729 0.0010087210685 
0.00091309868731 -0.00088186463108 0.0010412845295 0.00067682965891 -0.0011729691178 0.00051498756511 0.0011282536434 -0.0014682661276 0.00069083482958 
0 0 0 0.0012005082099 -0.0017128653126 0.00043116637971 0 0 0 
0.0008124136948 -0.002038575476 0.00021933259268 0.00036225660006 -0.002171769971 0.00012156593584 0.00016511284048 -0.002332710661 0.0003867240448 
0.00061922037276 -0.0018751892494 0.00083626271226 0.00020462744578 -0.0023015600163 0.0004141094978 0 0 0 
0.00060809444403 -0.0017598447157 0.00037085314398 0 0 0 0.00066050956957 -0.0013464840595 0.00012816769595 
0 0 0 0.00073603569763 -0.0012378250249 -7.78341564e-05 0 0 0 
0.00075378781185 -0.001191668096 -0.00031346958713 0 0 0 0.00067253387533 -0.0011946734739 -0.00051210582023 
0 0 0 0.00051035895012 -0.0012261375086 -0.00058832677314 0 0 0 
0.00038229179336 -0.0012918687426 -0.00060197891435 0 0 0 0.00028496043524 -0.0013174946653 -0.00055993959541 
0 0 0 0.00023130913905 -0.0013290010393 -0.0005317365285 0 0 0 
0.00018067481869 -0.0013374367263 -0.00053216435481 0 0 0 7.8665485489e-05 -0.0014091528719 -0.00054671592079 
0 0 0 3.3306259866e-05 -0.0016448971583 -0.00048047778546 3.6587200611e-06 -0.001362218638 -0.00020409905119 
4.7222834837e-05 -0.0017716983566 -0.00033634048305 0 0 0 -9.6306968771e-05 -0.0017956747906 -0.00048683036584 
0 0 0 -0.00022499611077 -0.0016931273276 -0.00048626333592 0 0 0 
-0.00042701326311 -0.0017059809761 -0.0004876733874 0 0 0 -0.00072094949428 -0.0017465172568 -0.00042568537174 
0 0 0 -0.0010328559438 -0.0017875931226 -0.00019677328237 0 0 0 
-0.0011305588996 -0.0015218725894 0.00015084100596 0 0 0 -0.00091605278431 -0.0013435765868 0.00038472758024 
0 0 0 -0.00072966993321 -0.0012505311752 0.00045348590356 0 0 0 
-0.00064599665347 -0.0012002459262 0.00046651498997 0 0 0 -0.00062931264983 -0.0011739353649 0.00048819606309 
0 0 0 -0.00063304702053 -0.0011564859888 0.00055935699493 0 0 0 
-0.00059993524337 -0.0011689474341 0.00069222407183 0 0 0 -0.0004778628645 -0.0011946111917 0.00080276181689 
0 0 0 -0.00030653603608 -0.001239845762 0.00087967660511 0 0 0 
-0.00010025219672 -0.0013031911803 0.00088175397832 0 0 0 0.00011682316836 -0.0013742884621 0.00082934257807 
0 0 0 0.00031177623896 -0.0014411730226 0.00069809553679 0 0 0 
0.00039828641457 -0.0014594055247 0.00056500145001 0 0 0 0.0004306823248 -0.0014603595482 0.00057340640342 
0 0 0 0.00045078262337 -0.0013199478853 0.00068200007081 0 0 0 
0.00049611920258 -0.0011254305718 0.00086543074576 0 0 0 0.00065765762702 -0.00095341372071 0.0010167941218 
0 0 0 0 0 0 -0.00050610915059 4.0687456931e-05 -0.0027077232953 
-0.00081315799616 0.00037581357174 -0.002583902562 0 0 0 -0.00019682475249 -3.1458021112e-05 -0.0028056753799 
0 0 0 0.00011969044135 -0.00013985196711 -0.0028957878239 0 0 0 
0.00042151674279 -0.00010227761231 -0.0029329240788 0 0 0 0.00068179663504 2.1276295229e-05 -0.0029428123962 
0 0 0 0.00091577356216 -1.075192813e-05 -0.0029209973291 0 0 0 
0.0011353953741 3.4631742892e-05 -0.0028739739209 0 0 0 0.0013355113333 0.00011366052058 -0.0027835706715 
0 0 0 0.0015395878581 0.00011130046187 -0.0026614659 0 0 0 
0.0017579147825 0.00029033297324 -0.0025429390371 0 0 0 0.0020325665828 0.00032970574102 -0.0024255421013 
0 0 0 0.0022366486955 0.00062600238016 -0.0021582485642 0 0 0 
0.0024038469419 0.00083957053721 -0.0018081271555 0 0 0 0.0025222161785 0.0010302907322 -0.0014070906909 
0 0 0 0.0026971758343 0.00089520879555 -0.0010532145388 0 0 0 
0.0026901564561 0.00094146397896 -0.00063112034695 0 0 0 0.0023934582714 0.0011101805139 -0.00019881760818 
0 0 0 0.0020043917466 0.0012585304212 0.00012055573461 0 0 0 
0.0017560162814 0.0012286355486 0.00033214304131 0 0 0 0.0016679011751 0.0010976833291 0.00052064738702 
0 0 0 0.0016995549668 0.00088172918186 0.00076849584002 0 0 0 
0.0017814048333 0.00081697187852 0.0010833182605 0 0 0 0.0020169792697 0.00082463532453 0.0015303990804 
0 0 0 0.0025454300921 0.0011233811965 0.0023560663685 0 0 0 
0.0017397169722 0.00099510711152 0.0019182824763 0 0 0 0.0016167511931 0.0012356697116 0.0019823124167 
0 0 0 0.0016080115456 0.0013067242689 0.0022417367436 0 0 0 
0.0014494420029 0.00135359657 0.0023919227533 0 0 0 0.001164642279 0.0012996225851 0.0024592049886 
0 0 0 0.00082380499225 0.0012045671465 0.0025541146751 0 0 0 
0.00045225812937 0.0012114554411 0.0026430720463 0 0 0 5.9882033383e-05 0.0013589899754 0.0027338012587 
0 0 0 -0.00035727760405 0.0015907034976 0.0028220226523 0 0 0 
-0.00064082146855 0.0018487328198 0.0025545295794 0 0 0 -0.0010541951051 0.0011925969739 0.0027100497391 
-0.00022528295813 0.00025534402812 0.00059902365319 -0.0015817494132 0.00072241737507 0.0027465363964 -0.00054371106671 6.4567939262e-05 0.00035951944301 
-0.0020826077089 0.00040909933159 0.0026315518189 -0.00062915502349 -0.00019062052888 8.0598874774e-05 -0.0024452353828 0.00020124613366 0.0023620787542 
0 0 0 -0.0027300941292 0.00018174196885 0.0020833772141 0 0 0 
-0.0028583959211 0.000385575986 0.0018060398288 0 0 0 -0.0030127130449 0.00055029522628 0.0015417683171 
0 0 0 -0.0031535425223 0.00066733855056 0.0012921784073 0 0 0 
-0.0032854857855 0.00068676291266 0.0010736943223 0 0 0 -0.0033369453158 0.00078212976223 0.00085712270811 
0 0 0 -0.0031484900974 0.00089323183056 0.00054084917065 0 0 0 
-0.0029130801558 0.0011432780884 0.0001832589478 0 0 0 -0.0026919909287 0.0014284821227 -9.1240646725e-05 
0 0 0 -0.0025453581475 0.0013867225498 -0.00026056772913 0 0 0 
-0.0024238079786 0.0012236582115 -0.00041316094575 0 0 0 -0.0023433822207 0.00095767853782 -0.00059552647872 
0 0 0 -0.0022035848815 0.00091337208869 -0.00081083271652 0 0 0 
-0.0021082006861 0.00058608595282 -0.0010474344017 0 0 0 -0.0019599332009 0.00047684772289 -0.0013262754073 
0 0 0 -0.0017626787303 0.00042116286932 -0.0016049009282 0 0 0 
-0.0015587505186 0.00038984511048 -0.0018925283803 0 0 0 -0.0013559577055 0.00048011820763 -0.0021926099434 
0 0 0 -0.0010983309476 0.00037011544919 -0.0024443243165 0.00099756557029 -0.0030225170776 0.00072195951361 
0.00092132890131 -0.0026041485835 0.00096533447504 0.00060631008819 -0.0035760586616 0.00039601267781 -0.00042711314745 -0.0041241007857 0.00029968499439 
-0.00071924354415 -0.0037541429047 0.00049853132805 -0.00064514792757 -0.003604660742 0.00075261760503 -0.000325576053 -0.0033254758455 0.00079692341387 
6.9782407081e-05 -0.0030200956389 0.00068343698513 0.00037257716758 -0.0028080292977 0.00045896568918 0.00054575660033 -0.0027346769348 0.00017229148943 
0.00049257674254 -0.0026889063884 -3.7173958845e-05 0.0003556147567 -0.0026693665422 -6.2767678173e-05 0.00026652804809 -0.0026861410588 5.1500257541e-05 
0.00027389905881 -0.0027515690308 0.00013416050933 0.00031851039967 -0.0027494789101 0.00012469945068 0.00034902174957 -0.0027942196466 5.6293123635e-05 
0.00033178186277 -0.0029579466209 -1.4729345821e-05 0.00032494627521 -0.0031335577369 2.0420844521e-05 0.0003729062737 -0.0032816990279 4.8747904657e-05 
0.00039074194501 -0.003410867881 1.4480127902e-05 0.00031216777279 -0.003488417482 -7.5278956501e-05 0.00011101337441 -0.0035667654593 -0.00019142426027 
-0.00021507199563 -0.0037523540668 -0.00021004801965 -0.000315807265 -0.0040666968562 0.0002051978081 -0.00051528494805 -0.0032686723862 0.00050228950568 
-0.00037111408892 -0.0028783546295 0.00063260091702 -0.00020622767624 -0.0026665281039 0.00059515959583 -0.0001272912632 -0.0025618753862 0.00049920973834 
-0.00013170787133 -0.0025273081847 0.00042063431465 -0.00017369007401 -0.0025573838502 0.00041217557737 -0.00017192077939 -0.0026657562703 0.00049554585712 
-4.4208620238e-05 -0.0027483752929 0.00054334307788 0.00014946410374 -0.002874518279 0.00051855971105 0.00038037417107 -0.003033015877 0.00039065608871 
0.00060655781999 -0.0031889134552 0.00015397806419 0.00075221539009 -0.0032618413679 -0.00021680162172 0.00071503419895 -0.0032219167333 -0.00056362315081 
0.00054670113605 -0.003251924878 -0.00067636545282 0.0003656517074 -0.0028343803715 -0.00043049635133 0.00026053044712 -0.0025840562303 0.00012674552272 
0.00037280464312 -0.0025690544862 0.00073080381844 0.00068831950193 -0.0025323096197 0.0010733194649 -0.00050086330157 -7.4831073107e-06 -0.0059074969031 
-0.0011637054849 0.00014485575957 -0.0057244426571 0.00015063036699 -0.00013621163089 -0.0060455822386 0.00078914652113 -0.0002703947539 -0.006135137286 
0.0013940448407 -0.00036647284287 -0.0061562866904 0.0019617071375 -0.00035764361382 -0.0061118640006 0.0025005689822 -0.00027889898047 -0.0059920274653 
0.0029963154811 -0.00013736351684 -0.0057823453099 0.0034531666897 -8.4131541371e-05 -0.0054715308361 0.0039037566166 0.00028108656988 -0.0051320460625 
0.0043123383075 0.00088997831335 -0.0047129215673 0.0046721431427 0.0013790215598 -0.0041511319578 0.0049605057575 0.0019106493564 -0.0034632801544 
0.0052398224361 0.0021478796843 -0.0027260605711 0.0054862285033 0.0020736111328 -0.0019638480153 0.005556684453 0.0021012751386 -0.0011343318038 
0.0050037004985 0.0022457002196 -0.00026682429598 0.0044221705757 0.002290867269 0.00034751283238 0.0039992653765 0.0021759395022 0.00079464365263 
0.0037798848934 0.0019839555025 0.0011708976235 0.0036945126485 0.0017644728068 0.0015852336073 0.003721650457 0.0016294049565 0.0020759715699 
0.004023544956 0.0013662924757 0.0028022215702 0.0046429825015 0.0012801889097 0.0038820516784 0.0032369201072 0.0017450912856 0.0038968669251 
0.0030597646255 0.0014559092233 0.0033442459535 0.0032126668375 0.0019353640964 0.0044713006355 0.0028954520822 0.002233248204 0.0048697716556 
0.0023340040352 0.0023828833364 0.00502250297 0.0016937911278 0.0025093539152 0.0050914632156 0.0010616148356 0.0026011464652 0.0052134315483 
0.00039246710367 0.0028360614087 0.0055034421384 -0.00055807316676 0.0033669264521 0.0063227452338 -0.0014235146809 0.0030175880529 0.0055427676998 
-0.0021691631991 0.0022644058336 0.0053579402156 -0.0029397672042 0.0016689074691 0.0052106194198 -0.0037170343567 0.0011546018068 0.0050020813942 
-0.0043776305392 0.00094243785134 0.0046451166272 -0.0049543888308 0.00081059784861 0.0042469589971 -0.0054352893494 0.0010600152891 0.0037899960298 
-0.0058731525205 0.0012484135805 0.0033537542913 -0.0062802657485 0.001337935566 0.0029031333979 -0.0065653123893 0.001194754499 0.0023952340707 
-0.0066530387849 0.00107573485 0.0018135419814 -0.0064984164201 0.0013557705097 0.0011266100919 -0.0062071536668 0.0017327152891 0.00045209925156 
-0.0058656940237 0.0023283886258 -0.00015085662017 -0.0055193812586 0.0024051661603 -0.00065624917625 -0.0052101463079 0.0021061089355 -0.0010579008376 
-0.0049387980253 0.0016142419772 -0.0014569020132 -0.0046511297114 0.0013025639346 -0.0018987479853 -0.0043546603993 0.0009227473638 -0.0023522742558 
-0.004031771794 0.00076949625509 -0.0028426116332 -0.0036964938045 0.00072205555625 -0.0033671746496 -0.0033391020261 0.00062515860191 -0.0039429096505 
-0.0029593266081 0.00064124196069 -0.0045520272106 -0.0024589016102 0.00048903527204 -0.0051319473423 -0.0018351087347 0.00045300257625 -0.0054977457039 
0.0041275280528 0.0014747704845 0.0041638580151 0.0055210655555 0.001268977765 0.0052255899645 -0.0024484226014 -0.0050631640479 0.00087882368825 
-0.0026853741147 -0.0054686283693 0.00053383514751 -0.0022842839826 -0.0048275361769 0.0012178005418 -0.0019168894505 -0.0046137212776 0.0014750746777 
-0.0014193461975 -0.0042928573675 0.0015484956093 -0.0009140438051 -0.0039916294627 0.0014658428263 -0.00051097973483 -0.0038650841452 0.0012997066369 
-0.0003219532955 -0.0038134756032 0.0011697547743 -0.00027158975718 -0.0037987313699 0.0012320214882 -0.00017110000772 -0.0037970342673 0.0014775260352 
6.66962369e-05 -0.0039500440471 0.0017108652974 0.00036476983223 -0.003963004332 0.0015882226871 0.00057714566356 -0.0040561268106 0.0014173653908 
0.0007205773145 -0.0042895502411 0.0012708072318 0.00086194311734 -0.0045417668298 0.001212275587 0.0010420458857 -0.0047430624254 0.0011703908676 
0.0011861308012 -0.0049425349571 0.0010372441029 0.0012393327197 -0.0050976993516 0.00083446258213 0.0011771359714 -0.0052327178419 0.00061663117958 
0.0010890469421 -0.0055255284533 0.0005187454517 0.0015046499902 -0.0057901181281 0.0008558241534 0.0011858197395 -0.0041310717352 0.00063004164258 
0.0012469823705 -0.0045489864424 0.0008058573585 0.0012089440133 -0.0038883783855 0.00039550301153 0.0012100966414 -0.0037630507722 0.0001360172173 
0.0011708633974 -0.003721753601 -0.00011399318464 0.0011057304218 -0.0038034184836 -0.00030599307502 0.0010699054692 -0.0039966991171 -0.00042660845793 
0.0011280736653 -0.0042243618518 -0.00056469527772 0.0012621344067 -0.0044666677713 -0.00081057852367 0.0014034351334 -0.004722441081 -0.0011913410854 
0.0014764027437 -0.0049376543611 -0.0016931390855 0.0014119580155 -0.0050861099735 -0.0022524574306 0.0011543323053 -0.0051942169666 -0.0028788896743 
0.00053420942277 -0.0056970948353 -0.0035521162208 -7.5348660175e-05 -0.0049085835926 -0.0023815629538 -0.00033448979957 -0.0048198620789 -0.0010920328787 
-0.00030537927523 -0.0047359229065 -9.6308431239e-05 -7.7652664913e-05 -0.004577586893 0.0004845263029 -2.0710442186e-05 -0.0044165654108 0.00037868067739 
-0.00022087158868 -0.0047434405424 0.00023094743665 0.0016698410036 -0.0052649565041 0.0010276634712 0.0027762574609 -0.006108419504 0.001483756816 
0.0046996446326 0.0016193430638 0.0054047154263 0.0060691572726 0.0010599407833 0.0065744621679 0.004836762324 0.0018534888513 0.0065217805095 
0.004347759299 0.0023189606145 0.0071405447088 0.0036001869012 0.002734284848 0.0074850139208 0.0027171070687 0.0031343358569 0.0076368385926 
0.0018477324629 0.0033622833434 0.0077852532268 0.0010072574951 0.0036398496013 0.0081660887226 0.00014867977006 0.0039574294351 0.009170605801 
-0.0033394354396 0.0030557573773 0.0079705137759 -0.002400508849 0.0036733476445 0.0084271291271 -0.004317920655 0.002540417714 0.0076231523417 
-0.005290532019 0.0021822855342 0.0072206752375 -0.0062484415248 0.0016560599906 0.0068040397018 -0.0071113090962 0.0014058287488 0.0062831635587 
-0.0078906212002 0.0014705382055 0.0057097268291 -0.0086196949705 0.0014960160479 0.0051231626421 -0.0092786019668 0.0013581695966 0.0044735604897 
-0.0096660070121 0.00082261610078 0.0036887333263 -0.0097365528345 0.00059100729413 0.0027926103212 -0.0095968153328 0.00085181120085 0.0018160846084 
-0.0093714715913 0.0014028497972 0.00084597436944 -0.009212853387 0.00225281436 -7.7368786151e-05 -0.0087560024112 0.0023474488407 -0.00095157965552 
-0.0082554332912 0.0020689545199 -0.0016722911969 -0.0076676448807 0.0015230337158 -0.0023089647293 -0.0071642114781 0.0011480983812 -0.0029810229316 
-0.0066646868363 0.00082983716857 -0.0036521907896 -0.0061562950723 0.00059428147506 -0.0043382532895 -0.0056674731895 0.00049166270765 -0.0050949631259 
-0.0051620332524 0.00035230463254 -0.0059509449638 -0.0046629048884 0.00037145146052 -0.0069114393555 -0.0039154929109 0.00019286974566 -0.0079416437075 
-0.0028525139205 0.00018281712255 -0.0084847826511 -0.0018047285266 -3.6692279537e-05 -0.0088002067059 -0.00077802920714 -0.0001850995468 -0.0090652499348 
0.00021850365738 -0.00034272717312 -0.009279165417 0.0011877234792 -0.000466932368 -0.009452923201 0.0021479208954 -0.00059901294298 -0.0095388712361 
0.0030731419101 -0.00058498757426 -0.0094800554216 0.0039454698563 -0.00048251962289 -0.0092643713579 0.004753974732 -0.00035734343692 -0.0088894525543 
0.0054889321327 -3.8640569073e-06 -0.0083733545616 0.0061484887265 0.00048600265291 -0.0077258073725 0.0067111896351 0.0012094742851 -0.0069707650691 
0.0072130956687 0.001863766578 -0.006095204968 0.0076449513435 0.0025393394753 -0.0051009277813 0.0080065717921 0.0028009209782 -0.0040391171351 
0.0084097376093 0.0027339428198 -0.0029220709112 0.0090468134731 0.0025889696553 -0.0016507925466 0.0077817514539 0.0027263241354 -0.0002036269143 
0.0069534168579 0.0025703497231 0.00065521785291 0.0064050494693 0.0025248089805 0.0013403762132 0.0060331500135 0.0024130474776 0.0019154504407 
0.0057753217407 0.002142540412 0.002483215183 0.0055998181924 0.0020073659252 0.0030602600891 0.0056439647451 0.00155271939 0.0037384245079 
0.0061626462266 0.001195889432 0.0047296918929 0.0067504076287 0.00077501835767 0.0058631356806 0.0071069276892 0.00021582374757 0.0070360437967 
0.0062887305394 0.00071612355532 0.0082313222811 0.0071898363531 -0.00046686865971 0.0081514455378 -0.0014402266825 0.0040290709585 0.0094083575532 
-0.00064951105742 0.0037736201193 0.011004746892 0.0038009374402 -0.0058784745634 0.0014002476819 0.0045269583352 -0.0063822632656 0.0019845117349 
0.0034268235322 -0.0055627897382 0.00094149651704 0.0032747362275 -0.0052181370556 0.00046422323794 0.0031496596057 -0.005038772244 7.0039395723e-06 
0.0030541210435 -0.0049424772151 -0.00045748372213 0.0029533677734 -0.004923032131 -0.0009108359227 0.0028554070741 -0.0049616959877 -0.0013585392153 
0.0027774220798 -0.0051880162209 -0.0017547757598 0.0027716860641 -0.0054979245178 -0.0021840443369 0.002801149385 -0.0057955654338 -0.0027556847781 
0.0027809669264 -0.0062665240839 -0.0034022354521 0.0026274689008 -0.0065800608136 -0.0041593490168 0.0022767868359 -0.0068732225336 -0.0048661800101 
0.0017731342232 -0.0073137963191 -0.005537271034 0.001096028951 -0.0081014856696 -0.0064254691824 -0.0011244523339 -0.0072615118697 -0.0022928293329 
-0.00083819712745 -0.0075037959032 -0.0040374714881 -0.0011174301617 -0.007242069114 -0.00086232490139 -0.0011186802294 -0.0069217900746 -0.00034074400901 
-0.001318148803 -0.0065723322332 -0.00042018454405 -0.0017834226601 -0.0066169854254 -0.00052239344222 -0.0045249960385 -0.0057716360316 0.0013277967228 
-0.004765719641 -0.0060930652544 0.00085391127504 -0.0042860610411 -0.0055401409045 0.0018160826294 -0.0038825001102 -0.005363968201 0.0022492595017 
-0.0033074487001 -0.0050802933984 0.0025347785559 -0.0026305993088 -0.0047147828154 0.0026402140502 -0.0019961590879 -0.0044529484585 0.0026379828341 
-0.0015448926715 -0.004391989205 0.0026773142163 -0.0012390989577 -0.004453423433 0.0029056773055 -0.00091700203484 -0.0045595965348 0.0033792592585 
-0.0003063516051 -0.0049587110989 0.0041623031721 0.00047719589202 -0.0049328268506 0.0035248820204 0.00090089405421 -0.0050954101607 0.0031752244104 
0.0012224327074 -0.0053892065771 0.0029683113098 0.0015553405974 -0.0056606326252 0.0028618895449 0.0019298767438 -0.0058743623085 0.0027534603141 
0.0022536420729 -0.0060680974275 0.0025235651992 0.0024709391873 -0.0062650563195 0.0021967352368 0.0025779339485 -0.0063571683131 0.0018666193355 
0.0027188272215 -0.0065059042536 0.001674835803 0.0032197292894 -0.0066599007696 0.0018176727463 0.0041578891687 -0.0066242041066 0.0022034144495 
0.0055083357729 -0.0066558890976 0.0026589855552 0.0063331592828 -0.006796523463 0.0023048629519 0.0070530897938 -0.0067039323039 0.0029777819291 
0.0059501742944 -0.0066609778441 0.001628166181 -0.0034653479233 -0.00614085095 0.00022782033193 -0.0051809404977 -0.0064874486998 0.00043773298967 
-0.0046023339964 -0.0069559924304 -9.4191163953e-05 -0.0055281305686 -0.0069843027741 0.00012960586173 -0.00023844078532 -0.0083484137431 -0.0056340214796 
0.00039179140003 -0.0094012962654 -0.0079454220831 0.0054525253363 0.0014231218956 0.0090252384543 0.0045726271346 0.0021038292907 0.0095492890105 
0.0036160773598 0.0027773389593 0.0098857888952 0.0026161652058 0.0032517546788 0.010070514865 0.0016350129154 0.0035132891499 0.010414398275 
0.000799992471 0.003496350022 0.01105037611 0.00014044785348 0.0031526440289 0.012436834164 -0.0014712604461 0.0031743685249 0.012848827988 
-0.00058573798742 0.002314357087 0.013793835416 -0.0023754993454 0.0038315961137 0.011780388653 -0.0033920037095 0.0037387441844 0.010964634828 
-0.0045137205161 0.0034534989391 0.010459193029 -0.0057100928389 0.0029521044344 0.010022548959 -0.0069173262455 0.0025941776112 0.0095146596432 
-0.0080721275881 0.002016141545 0.0089395772666 -0.0091691743582 0.0016447470989 0.0082526886836 -0.010199322365 0.0015359381214 0.0075284019113 
-0.011123660021 0.0010909856064 0.0067456220277 -0.0118672885 0.00056070490973 0.0058423262089 -0.012296744622 -3.1492039852e-05 0.0047957799397 
-0.012302765623 -0.00034322007559 0.0036403955892 -0.012171854265 -0.00013992996537 0.0024350015447 -0.011995118111 0.00034236820647 0.0012363913702 
-0.011923696846 0.0011063112179 7.1101385402e-05 -0.011447278783 0.0012646659743 -0.001086277538 -0.010927032679 0.0012014780659 -0.0021254820749 
-0.010197294876 0.00075208919588 -0.003026426537 -0.0095319608226 0.0004337245482 -0.0039280871861 -0.0088707702234 0.00020003547252 -0.004800492432 
-0.0082358494401 4.8181747843e-05 -0.0056864037178 -0.0076195173897 -7.2562179412e-05 -0.0066450336017 -0.0070127728395 -0.00026881523081 -0.0077232597396 
-0.0064388248138 -0.00036711173016 -0.009058393538 -0.0056107612327 -0.0006733671762 -0.011198821478 -0.0036932083312 -0.00050396245206 -0.011532871984 
-0.002292187186 -0.0004041082575 -0.011837746017 -0.00096526282141 -0.00051664753119 -0.01214969065 0.00033110319055 -0.00068193813786 -0.012452191673 
0.0016216023359 -0.0008170704823 -0.012719311751 0.0029122913256 -0.00085204100469 -0.01287022233 0.0041677001864 -0.00083909364184 -0.012793125585 
0.0053624040447 -0.0007304038736 -0.012483279221 0.0064846854657 -0.00057176320115 -0.011949290521 0.0075122546405 -6.4725274569e-05 -0.011212627403 
0.0083720060065 0.00053051637951 -0.010226179846 0.0091067207977 0.0012812241912 -0.0091317277402 0.0097593786195 0.0019563916139 -0.0079507241026 
0.010312652215 0.0026883108076 -0.0066502583213 0.010675521567 0.0027070560027 -0.0053211017512 0.011061315425 0.0026983385906 -0.0039901952259 
0.011651059613 0.0023136921227 -0.0028991808649 0.0092249959707 0.0023116595112 0.0011167025659 0.010168392211 0.0024410991464 0.00019718942349 
0.0085928635672 0.0021553710103 0.0019566479605 0.0081222122535 0.0020331453998 0.0027096983977 0.0076285004616 0.0018444731832 0.0034018799197 
0.007154205814 0.0017337233294 0.0039622941986 0.0067298216745 0.0014961893903 0.0042957118712 0.0072930403985 0.00096350588137 0.0050743292086 
0.0077299103141 0.00022299749253 0.0059971604496 0.0078951744363 -0.00054416264175 0.0069335945882 0.007761459332 -0.0013091471046 0.0077455439605 
0.0070495568216 -0.0013789691729 0.0089999474585 0.0073948330246 -0.0020951179322 0.0083205355331 0.0065665361471 -0.0005394637119 0.0096593266353 
0.0058887195773 0.00018749211449 0.010463627987 0.0050683706068 0.00084616674576 0.011139058508 0.004088212736 0.0015844556037 0.011620466597 
0.0030554665718 0.0022737693507 0.011923755519 0.0020425750408 0.0027442502324 0.01212159358 0.0086131906137 -0.0011849829461 0.0065204747953 
0.0086986059323 -0.00014817190822 0.0057250144891 0.008241170086 -0.002027739305 0.0071510835551 0.0076757376082 -0.0027760078665 0.0075573963113 
0.0068071000278 -0.0028782612644 0.0085735348985 0.0069053745829 -0.0034263855778 0.0076504140161 0.0066177202389 -0.0023280715104 0.0094712097198 
0.0063106594607 -0.0017508714227 0.010359733365 0.0057861912064 -0.0011958730174 0.011280201375 0.0051396423951 -0.00063099997351 0.012217236683 
0.004143379163 0.00013876844605 0.012847796082 0.0031187809072 0.00095931231044 0.013307819143 0.0019530627178 0.0016713213408 0.013416632079 
0.01146457158 0.0021129318047 -0.0010438524187 0.012989127077 0.0015612536808 -0.0022733781952 0.0056699085981 -0.0065956097096 0.00097395369085 
0.0055265254341 -0.006407814566 0.00025994717726 0.0053592161275 -0.0062953736633 -0.00043495895807 0.0051944288425 -0.0062150321901 -0.0011332923314 
0.0050367661752 -0.0061405557208 -0.0018465898465 0.0049007609487 -0.0061855600215 -0.0025581445079 0.0047940881923 -0.0063120042905 -0.0033040486742 
0.0047212890349 -0.0066362414509 -0.0040896269493 0.0046292166226 -0.0071213850752 -0.0049726264551 0.0044384514913 -0.0076950970106 -0.0059483428486 
0.0040467050858 -0.0081232488155 -0.0069674379192 0.0034120664932 -0.0084811635315 -0.0078129544854 0.0026522830594 -0.0089413365349 -0.008527867496 
0.0018457297701 -0.0095428107306 -0.0092331878841 0.0011118021794 -0.010278212838 -0.010298490524 -0.00039690657286 -0.010701294988 -0.0097971707582 
0.00050276517868 -0.010927247815 -0.012070844881 -0.0011446069693 -0.010325145908 -0.0074772662483 -0.0017699501477 -0.010025466792 -0.0054680961184 
-0.0022131300066 -0.0095594637096 -0.0038495738991 -0.0024136011489 -0.0094133960083 -0.0023695142008 -0.0026452636812 -0.0088970586658 -0.0018455574755 
-0.0030752108432 -0.0085289515555 -0.0016616859939 -0.0036996318959 -0.0083421468735 -0.0015146682272 -0.0024492850062 -0.0068596350029 -0.00046221539378 
-0.0044189896435 -0.0083142612129 -0.0012252189917 -0.0034861073364 -0.0068593840115 -0.00031412948738 -0.0053000007756 -0.0081450184807 -0.00086117570754 
-0.0061820149422 -0.0078473482281 -0.00044310325757 -0.0068305060267 -0.0075493450277 4.1008104745e-05 -0.0069245710038 -0.0070258821361 0.00057458522497 
-0.0068072653376 -0.0065418235026 0.0011638446013 -0.0066501442343 -0.0062715793028 0.0017891443567 -0.0064152549021 -0.0060491212644 0.002440002514 
-0.0060197091661 -0.0058617377654 0.003053904511 -0.0054122456349 -0.0056185917929 0.0035657193512 -0.0046011623926 -0.0052128341049 0.0038896391634 
-0.0037252940238 -0.0048985294998 0.0040842001326 -0.0030162474141 -0.0048234355636 0.0043151522987 -0.0024600126781 -0.0050000231713 0.0047193397768 
-0.0019563343376 -0.0052046198398 0.0053960299119 -0.0013330416987 -0.0056343036704 0.0064045730978 0.0013636378571 -0.0057634944096 0.0051058791578 
0.00082168617519 -0.0056445337832 0.0055547971278 0.0018720010994 -0.0060071940534 0.0048822038807 0.0024034061935 -0.0061766812578 0.0047528841533 
0.0029367005918 -0.006325032562 0.0045378622599 0.0034133589361 -0.0064616170712 0.0042004692368 0.0037924845237 -0.0066423742101 0.0037841422018 
0.0039918278344 -0.0066399406642 0.0033129116055 0.0042428518645 -0.0066698915325 0.0029871300794 0.0047925631516 -0.0065951002762 0.0029767749365 
0.0056025586091 -0.0063749230467 0.0031327584293 0.0066953841597 -0.0063642137684 0.0034125421662 0.0079642646015 -0.0062499432825 0.0036286653485 
0.0085939615965 -0.0068000243045 0.0031404281035 0.0093184271827 -0.0061292331666 0.0036414847709 0.0082789966837 -0.0070132273249 0.0024453275837 
0.0081527689472 -0.0072305337526 0.0017134546069 8.9782981377e-05 -0.0057231145911 0.0064273886383 -0.00075279199518 -0.0060639381409 0.0079216090962 
0.00043708921294 0.0013789529912 0.014430839568 0.00095341843553 0.002315832302 0.013240640052 -0.0014091889607 0.001270965091 0.01500141155 
-0.00037123617949 0.00011928156891 0.015339351259 -0.002319219755 0.0022741127759 0.014324215241 -0.0031695531216 0.0028367931955 0.013460090384 
-0.0042452132329 0.0029894800391 0.013069232926 -0.0055860946886 0.0030996722635 0.012805650942 -0.0069465427659 0.0026679718867 0.012346280739 
-0.0083912517875 0.0023096711375 0.011770272627 -0.0097245546058 0.0017079714453 0.011022790335 -0.011006582528 0.0012524798512 0.01014189329 
-0.012172334827 0.00081618805416 0.0091907279566 -0.013165211305 0.00014970348275 0.0081374775618 -0.01383562386 -0.0006792685017 0.0069942283444 
-0.014182772487 -0.0014926365111 0.0056839021854 -0.014116683975 -0.0017144050216 0.0042596114799 -0.014036324807 -0.0014510230394 0.0029105460271 
-0.013982677832 -0.001016738941 0.0015551354736 -0.014039541595 -0.00041629877524 0.00021451497742 -0.013513446786 -0.00038583468995 -0.0011332088616 
-0.013022664934 -0.00031720512197 -0.0024472146761 -0.012259429321 -0.00061615533195 -0.0035427603871 -0.011568115093 -0.0007260912098 -0.0046745827422 
-0.01083918009 -0.00088208913803 -0.0057215439156 -0.010140657425 -0.00093976350036 -0.0067774397321 -0.0094588231295 -0.0010070927674 -0.0078706135973 
-0.0088130421937 -0.0011304654181 -0.0091186081991 -0.0082951402292 -0.0012970597018 -0.010607182048 -0.0076812496409 -0.0019391466631 -0.01247874368 
-0.0024636879098 -0.0012807337334 -0.014619727619 -0.0040091662668 -0.0014935646905 -0.014325244352 -0.00096139428206 -0.0013790976955 -0.014906337485 
0.00053133920301 -0.0014625703916 -0.015299849212 0.002058401471 -0.0015706217382 -0.015662482008 0.0036184703931 -0.0016685150331 -0.015859665349 
0.0051489514299 -0.0016217944212 -0.015778448433 0.0066341306083 -0.0014191265218 -0.015414414927 0.0080331815407 -0.0011060476536 -0.014764952473 
0.0094251185656 -0.00057618157007 -0.013845521957 0.010531665757 0.00012400727428 -0.012454099953 0.011386556551 0.00073142547626 -0.011025265791 
0.012158113532 0.0012755095959 -0.0095281116664 0.012779168785 0.0018578631571 -0.0080134328455 0.013030124828 0.0019402895123 -0.0063387728296 
0.013128021732 0.0020340560004 -0.0048222336918 0.013031806797 0.0018473681994 -0.0037629168946 0.01414162945 0.0010358900763 -0.0035484742839 
0.014226752333 0.00045596176642 -0.0016050901031 0.015225784853 -0.00035068893339 -0.0030914328527 0.012997539714 0.001173888566 -0.00037777147372 
0.011807869188 0.0016222995473 0.00066599855199 0.011010847054 0.0015272722812 0.0015984990168 0.010296841152 0.0013446693774 0.0025278134272 
0.0096261771396 0.0010543145472 0.0033816772047 0.0089753847569 0.00084875739412 0.0042526996695 0.0081782685593 0.00094059947878 0.0048736361787 
-0.0057162814774 -0.002027571667 -0.014394341968 -0.0072531360202 -0.0032092316542 -0.014482330531 0.0015459732385 0.00038885991671 0.014479101636 
0.00082771142479 -0.00097173143877 0.015276211314 -0.0014158333652 -0.0011513311183 0.016045495868 -0.00019006369985 -0.0023568833712 0.015681969002 
-0.0024500477593 0.00022144484683 0.015911262482 -0.0032573149074 0.0013632863993 0.01528198272 -0.0037287611049 0.002154462738 0.01458557602 
-0.0047509176657 0.0020995591767 0.014763046056 -0.0062249526381 0.0019178893417 0.014778117649 -0.0077172643505 0.0013906462118 0.01432064455 
-0.0093387151137 0.00087536987849 0.013727137819 -0.010829168372 0.0002912695345 0.012831418775 -0.012243433855 -0.00023521097319 0.011765930802 
-0.01333077997 -0.00084904994583 0.010511768982 -0.014280465432 -0.0015772078186 0.0092741744593 -0.014861732721 -0.0024338364601 0.0079332776368 
-0.015209120698 -0.0034948340617 0.0063287760131 -0.015085523948 -0.0031905854121 0.004551764112 -0.015037261881 -0.0029407248367 0.0031356771942 
-0.015151681378 -0.002589660231 0.0017349999398 -0.015331773087 -0.002205188619 0.00026216104743 -0.014967325144 -0.0021584772039 -0.0011713629356 
-0.014506346546 -0.0021216934547 -0.0026139828842 -0.013792597689 -0.0022631203756 -0.0038823203649 -0.013096213341 -0.0023309267126 -0.0051495628431 
-0.012406961992 -0.0023814768065 -0.0063576474786 -0.011708009057 -0.0023706895299 -0.0075426199473 -0.011035356671 -0.0023369735572 -0.0087394891307 
-0.010391146876 -0.0024386225268 -0.010053862818 -0.009858678095 -0.0027266922407 -0.011526162736 -0.0091721527278 -0.0035796081647 -0.013104145415 
-0.0084764678031 -0.004665507935 -0.014447478577 -0.0066463490948 -0.0047147115692 -0.016045978293 -0.0077736484818 -0.0059940931387 -0.015527586453 
-0.0053032063879 -0.0036125103943 -0.016166545451 -0.003844041843 -0.0029926206917 -0.016362449154 -0.0023459445219 -0.0027098935097 -0.016727406532 
-0.00078264845069 -0.0027746220585 -0.017091987655 0.00077913526911 -0.0028087932151 -0.017520954832 0.0024228156544 -0.0029899373185 -0.017914356664 
0.004136998672 -0.0031204426195 -0.018181866035 0.0058557442389 -0.0030545839109 -0.018128737807 0.0075171636418 -0.0029435753822 -0.017718181014 
0.0091595519334 -0.0027745012194 -0.016962772235 0.011171041988 -0.0025990109425 -0.016044048592 0.012440364808 -0.0013641410042 -0.014003156684 
0.013359898701 -0.00074178253999 -0.012273388915 0.014115234837 -0.00028593972092 -0.010505686514 0.014779888093 0.00021405085863 -0.0087367706001 
0.014902382158 0.00050957978237 -0.0068707019091 0.014735503122 0.00084895541659 -0.0050506773405 0.015771340579 -0.00091846118448 -0.0048521030694 
0.015786113217 -0.0020139601547 -0.0023330794647 0.016150411218 -0.0028618669603 -0.0042059514672 0.014952590689 -0.0010019451147 -0.00066952075576 
0.013875292614 0.00019340861763 0.00045766524272 0.012725453824 0.00076630938565 0.0010219061514 0.012319001369 0.00042883181595 0.0018459727289 
0.011600790545 0.00010303583258 0.0029086472932 0.010664128698 -0.00029518018709 0.0038029949646 0.0097340047359 -0.00074788939673 0.0049691032618 
0.0080429054797 -0.0073654139414 0.00085900037084 0.0079157240689 -0.0074027213268 -4.4559928938e-05 0.0077271955088 -0.0073473793454 -0.00098577921744 
0.0074888863601 -0.0073476689868 -0.0018907097401 0.0072654476389 -0.0072949239984 -0.0028371922672 0.0071040187031 -0.0073933200911 -0.0038032315206 
0.0069722738117 -0.0075058960356 -0.0048717032187 0.0068232789636 -0.0078302910551 -0.0060028466396 0.0066322195344 -0.0083778873086 -0.0072332159616 
0.0062987264246 -0.0088486382738 -0.0086543187499 0.0056860498153 -0.0092908302322 -0.010018948466 0.0047592772171 -0.0096067059785 -0.011030569673 
0.0036866331939 -0.0098971938714 -0.011685215868 0.002609743271 -0.010266857222 -0.012009011582 0.0017734216526 -0.010528690182 -0.012127610855 
0.0015753196785 -0.010855537839 -0.01393286325 -0.00027298598434 -0.011248688214 -0.014016804285 0.0010319831781 -0.010631579906 -0.016106430441 
-0.001315096044 -0.011485595256 -0.011749450117 -0.0021837921813 -0.011406175792 -0.0095510752872 -0.0029527510051 -0.01151740551 -0.007559266407 
-0.0035899062641 -0.011314225383 -0.0058693247847 -0.0040179663338 -0.011034633033 -0.0043945787475 -0.0044181826524 -0.010521088727 -0.0035867895931 
-0.0050017288886 -0.010111500509 -0.0030925918836 -0.0058565312065 -0.0099566103891 -0.0026854847092 -0.0065941857174 -0.009559742175 -0.0021218201146 
-0.0073446282186 -0.0091309789568 -0.0014747596579 -0.008085151203 -0.0085965460166 -0.00082922313595 -0.0085949832574 -0.0080671506003 -0.00010075631144 
-0.0088282460347 -0.0074693420902 0.00063672615215 -0.0088421180844 -0.0070091597736 0.0014110219199 -0.0087723070756 -0.0067146806978 0.0022166995332 
-0.0085919378325 -0.0065470635891 0.0030532567762 -0.0082449885085 -0.0065052048303 0.0038971628528 -0.0076211038977 -0.0063667609356 0.0046712066978 
-0.0066819614731 -0.006007288117 0.0052410331555 -0.0056377337314 -0.0056738434359 0.0056711090729 -0.0046889847144 -0.0055591799319 0.0060645178892 
-0.0038717524149 -0.0057131354697 0.0065828473307 -0.0031359114219 -0.0059216963127 0.0073077664711 -0.0024480002467 -0.0062228529714 0.0083286920562 
-0.0017311008414 -0.0064520877786 0.0095982747152 -7.9287558037e-05 -0.0062515628524 0.0095017785206 -0.0009887086926 -0.0063796266913 0.011003378779 
0.00066602701554 -0.0060507333837 0.0082382680848 0.0013517277548 -0.0059065162204 0.0074892244302 0.0019891385455 -0.0059285452589 0.0070480392314 
0.0026354780421 -0.0060047484003 0.0067863524891 0.0032867083792 -0.0059419046156 0.0065339235589 0.0039028415922 -0.0059647401795 0.0061775115319 
0.0044569764286 -0.0060007655993 0.0057492596097 0.0049618855119 -0.0060424301773 0.0053089163266 0.0051833502948 -0.006121574901 0.0046375854872 
0.0053971246816 -0.006176982075 0.00415691128 0.0059608365409 -0.006041387096 0.0040628295392 0.0067500290461 -0.0058436626568 0.0040998817421 
0.007700631395 -0.0056462502107 0.0041758213192 0.0088130468503 -0.0053856270388 0.0042279693298 0.010043150745 -0.005047603976 0.0040362467989 
0.010616964661 -0.0061889784411 0.0034449717496 0.011379166506 -0.0049510002136 0.0036357482895 0.0097931744531 -0.0067683891393 0.0030880917329 
0.010031960905 -0.0070170606486 0.00252955826 0.010316519067 -0.0074660554528 0.0017534303479 -0.0045407842845 0.00071094388841 0.015792055055 
-0.0062068998814 0.00023504425189 0.016112077981 -0.007765092887 -0.00051052583149 0.015571673401 -0.009419686161 -0.0011164228199 0.01485147886 
-0.010974939913 -0.0016953824088 0.01386795938 -0.012476487085 -0.002218590118 0.012785254978 -0.013580246828 -0.0027837425005 0.011466935277 
-0.01449199114 -0.0034354641102 0.010129174218 -0.014829547144 -0.0042145834304 0.0087985275313 -0.014799198136 -0.0051365611143 0.0074901422486 
-0.015292215161 -0.0043505700305 0.003130631987 -0.015236937441 -0.0045642144978 0.0043950048275 -0.015506188385 -0.0042015397921 0.0018137475708 
-0.015596052632 -0.0040911175311 0.00038803211646 -0.015484827571 -0.0040800510906 -0.0010862592608 -0.015262591653 -0.0040935063735 -0.0026353506837 
-0.014554652385 -0.004190643318 -0.0039703003131 -0.013892719522 -0.0042426805012 -0.0053093521856 -0.01330718305 -0.0042458507232 -0.0066186869517 
-0.012725817971 -0.0041872519068 -0.0079210409895 -0.01204685308 -0.0040951063856 -0.0091407028958 -0.01141391322 -0.0041726459749 -0.010456759483 
-0.010758085176 -0.0046293013729 -0.01177342236 -0.010078225285 -0.0053021986969 -0.013112085871 -0.0091949421912 -0.0062213446945 -0.013986596838 
-0.0084004960954 -0.0073894271627 -0.014652652666 -0.0068143871613 -0.0074605112895 -0.01610609889 -0.0075625558384 -0.0087437443435 -0.015034210868 
-0.005782824941 -0.0062178177759 -0.016688663512 -0.004655577708 -0.0051941201091 -0.017090411857 -0.0035322718322 -0.0044667422771 -0.017522979528 
-0.0021806287114 -0.0043463511392 -0.017990712076 -0.00060286914231 -0.0044828364626 -0.018519777805 0.00092495966237 -0.00441625854 -0.018872927874 
0.0024956108537 -0.0047219046392 -0.019250089303 0.0042617027648 -0.005030376371 -0.019491015002 0.0060911243781 -0.0051784506068 -0.019291616976 
0.0078069474548 -0.0051055024378 -0.018784616143 0.0094067854807 -0.0049549289979 -0.018084581941 0.010852046311 -0.005048672203 -0.017214966938 
0.014530544169 -0.0027245050296 -0.012591774575 0.013588279486 -0.0032935282215 -0.014254140668 0.01528931316 -0.0023463121615 -0.010755491443 
0.015936944634 -0.0019206301076 -0.0088303200901 0.016010629013 -0.0014559774427 -0.00680725649 -0.015032087453 -0.0049807685427 0.0055667976849 
-0.014320770279 -0.0059667374007 0.0063062286936 0.016292996705 -0.0035984488204 -0.0062378961593 0.015810823068 -0.004766935017 -0.0032690260559 
0.015827417374 -0.0055931261741 -0.0051964661106 0.015505441464 -0.003902352415 -0.0013130941661 0.014840085059 -0.0028441345785 0.00085397297516 
0.013593089767 -0.00080262607662 0.0016243094578 0.010475706309 -0.0076733091846 0.00060736841988 0.010403582826 -0.0079129273072 -0.0005365529214 
0.01015523728 -0.0079296072945 -0.001707704505 0.009834356606 -0.0080169457942 -0.0028104551602 0.0095147546381 -0.0080486088991 -0.0039033058565 
0.0093722576275 -0.0082253506407 -0.0050922301598 0.0092158010229 -0.0083840042353 -0.0064176968299 0.0089904107153 -0.0086606685072 -0.0078672906384 
0.0087051698938 -0.0090683894232 -0.0094828698784 0.0082623623312 -0.0094302855432 -0.01130373776 0.0074259932153 -0.0097146565095 -0.013159890659 
0.0061113652773 -0.0098570557311 -0.014303113334 0.0046106833033 -0.01018571388 -0.014880193397 0.0030308796559 -0.010504353791 -0.014886449091 
0.003042859491 -0.0094434078783 -0.01797889173 -6.4268097049e-05 -0.0096748666838 -0.017431337386 0.0012143787462 -0.0082396185026 -0.018821941689 
-0.0012933732942 -0.010878866538 -0.015697102994 -0.002402667189 -0.011681600474 -0.013601682149 -0.0033337355126 -0.011915028095 -0.011552829295 
-0.0042388741858 -0.012164887041 -0.0097218770534 -0.0050969896838 -0.012124011293 -0.008169753477 -0.0057706846856 -0.012031355873 -0.0065876366571 
-0.0063145784661 -0.011559892446 -0.0055286237039 -0.0070692105219 -0.011136896908 -0.0047837942839 -0.0085911825299 -0.010824016295 -0.0043912776746 
-0.0090148132294 -0.010080207139 -0.0031505622901 -0.0095714358613 -0.0095249926671 -0.0021723888349 -0.010143329389 -0.0089870942757 -0.001256881631 
-0.010558699258 -0.0084330206737 -0.00029535259819 -0.010736761615 -0.0078416001052 0.00065972743323 -0.010774130002 -0.0073918038979 0.0016101088841 
-0.010739806108 -0.0070465155877 0.0025696274824 -0.010639064945 -0.0069705573842 0.0035825485829 -0.010424852371 -0.0070071136579 0.0046287686564 
-0.0099154766649 -0.0069208121859 0.0057165487669 -0.0087499422953 -0.0066377259791 0.0065020658076 -0.0075364545919 -0.0063988198526 0.0071191661991 
-0.0063830269501 -0.0063684722409 0.0076874988154 -0.0054098856635 -0.0064101223834 0.0083295330405 -0.0045143924654 -0.0065391035751 0.0091431764886 
-0.0036804911215 -0.0066402847879 0.010128149763 -0.0028775010724 -0.0066130915657 0.011334612966 -0.0020624501631 -0.0062732286751 0.012586004101 
-0.0001521679369 -0.005950148683 0.01228387747 -0.0011762233917 -0.0056360801682 0.013791695237 0.00068645994179 -0.0061080837622 0.010874312371 
0.0012802326819 -0.006020241417 0.0097335716709 0.0019394828705 -0.0059518106282 0.0092036295682 0.0026669604704 -0.0057229953818 0.0088380528614 
0.0034196972847 -0.0055361287668 0.0084969457239 0.0041262521408 -0.0053263632581 0.0080562587827 0.0046843532473 -0.0052558979951 0.0074173393659 
0.0051820278168 -0.005190952681 0.0068609444425 0.0059592598118 -0.0049336254597 0.0065333237872 0.0060961055569 -0.0053792409599 0.0055436780676 
0.0060965176672 -0.0056926896796 0.0049183308147 0.0066951303743 -0.0053977123462 0.004999987781 0.0075203212909 -0.0051692263223 0.0050450693816 
0.0083935474977 -0.0047567775473 0.0049605784006 0.0093082943931 -0.0042548161 0.0047370814718 0.010408626869 -0.003745356109 0.0043695666827 
0.01166245807 -0.0034046338405 0.0037487740628 0.012760275044 -0.0049823606387 0.0026917604264 0.013133404776 -0.0031371898949 0.0027266321704 
0.011594489217 -0.0063727740198 0.002650288865 0.0092599922791 -0.0019772399683 0.0059287478216 0.0085864197463 -0.002822214039 0.0064503545873 
0.0078256102279 -0.0034985225648 0.0067347395234 0.0069753797725 -0.0041523370892 0.0067859464325 0.0061823362485 -0.0040828287601 0.0076338783838 
0.0060490728356 -0.0036022432614 0.0085239494219 0.0058834236115 -0.0032685119659 0.0095464000478 0.0057129901834 -0.0028219015803 0.010514807887 
0.0053300503641 -0.0025873433333 0.011513645761 0.0047032018192 -0.0022833466064 0.012694794685 0.0037845280021 -0.0014418561477 0.013618065044 
0.0027248691767 -0.00050273898523 0.014240061864 0.0019739770796 -0.0020041933749 0.014748650603 0.0010187403532 -0.0033982207533 0.014907361008 
-0.0013231291668 -0.0037068224046 0.015741739422 -0.00011110112246 -0.0046330089681 0.014581661671 -0.0027253448498 -0.0024789082818 0.01642620936 
-0.0038202984724 -0.00083474710118 0.016408447176 0.012838408351 -0.0076096244156 -0.0012641514186 0.012757814489 -0.0072372658178 0.00018324700068 
0.012489987537 -0.0077802557498 -0.0026654957328 0.012022866867 -0.0080570466816 -0.0038953279145 0.011552291922 -0.0082199256867 -0.0049610114656 
0.011545763351 -0.0084270266816 -0.0063017783687 0.011408606544 -0.00855493173 -0.0078604929149 0.011096157134 -0.0087727159262 -0.0095436275005 
0.010725169443 -0.0090099126101 -0.011396939866 0.010199471377 -0.0091724079102 -0.01354967989 0.0092686424032 -0.0088646989316 -0.016177665442 
0.0071908268146 -0.0090891811997 -0.017133526504 0.0053459904157 -0.0092723425478 -0.017744308338 -0.000383530627 -0.0066840229556 -0.018843326718 
0.00093522208044 -0.0058791097254 -0.019166540354 0.0022146445699 -0.0065621640533 -0.019401978701 -0.0014127293834 -0.0085042985156 -0.017996804789 
-0.0024937838316 -0.009934514761 -0.0167502556 -0.0035089878365 -0.010990900919 -0.015040854923 -0.0044483467937 -0.011704064906 -0.013276328333 
-0.0053769638762 -0.012037253939 -0.011711183004 -0.0067583355121 -0.011816070415 -0.010901722126 -0.0074963597581 -0.011949114501 -0.0088101346046 
-0.0080334795639 -0.011596545577 -0.007511745207 -0.0088433334604 -0.011277822778 -0.0066740904003 -0.0098895160481 -0.010663252324 -0.0063189701177 
-0.011805265211 -0.0091233244166 -0.0028664944693 -0.011396413669 -0.0095069250092 -0.0040621678345 -0.012261399068 -0.0087231118232 -0.0017225750489 
-0.012524965219 -0.0082731749862 -0.00049697299255 -0.012598580681 -0.0077711413614 0.00065070961136 -0.012585029937 -0.0074134496972 0.0017630000366 
-0.012527609244 -0.0070614512078 0.0028374998365 -0.012488026172 -0.0069403438829 0.0039303041995 -0.012439881451 -0.0069159748964 0.0051193661056 
-0.012431871146 -0.0069240983576 0.006698670797 -0.0093675218523 -0.0068194824271 0.0084345666692 -0.0107073728 -0.0069029438309 0.0076575996354 
-0.0081606805325 -0.0067812995985 0.0091840792447 -0.0070916437544 -0.0067106401548 0.0099834576249 -0.0060708629899 -0.0067825186998 0.010897587985 
-0.0050801266916 -0.0066238678992 0.011891519651 -0.0041047884151 -0.0064903884195 0.012989955954 -0.00324920821 -0.0058803856373 0.014035466127 
-0.0024796826765 -0.0049870526418 0.015153967775 -0.011243203655 -0.0098289158195 -0.0053988965228 -0.011322148144 -0.0096383569762 -0.0068436474539 
0.012746289372 -0.0042478526011 -0.015769533813 0.011993157677 -0.0058907773346 -0.01634330675 0.012688222341 -0.0013168678852 0.0029460536316 
0.011406124569 -0.0018052416854 0.003856749041 0.010338920169 -0.002303739544 0.0046731079929 0.0094533711672 -0.0030687924009 0.0052890707739 
0.0086696399376 -0.0037484916393 0.0057107582688 0.0078078298829 -0.0043151760474 0.0058887396008 0.0069804564118 -0.004861894995 0.0058785853907 
-0.005455951672 -0.0017794147134 0.016673894599 -0.0072514424101 -0.0025795530528 0.016139989719 -0.0088933156803 -0.0032012208831 0.015324499458 
-0.010409289971 -0.0037241973914 0.014236498624 -0.011780916713 -0.004184671212 0.013100746088 -0.012864967808 -0.004595214501 0.011801185086 
-0.013670207933 -0.0051023205742 0.010558129288 -0.013914337382 -0.0055559938774 0.0092819994316 -0.013565843925 -0.0062717436813 0.0081122554839 
-0.01392739173 -0.0063362265937 0.0051608486101 -0.014674315229 -0.0056721130386 0.0049766842276 -0.014832995832 -0.0056166336872 0.0041546542197 
-0.014950544573 -0.0056017632596 0.0030591129325 -0.015197796747 -0.0056884149089 0.0018541000318 -0.015362709761 -0.0058336625807 0.00050148455193 
-0.015325827524 -0.0059903045185 -0.00092525803484 -0.015140468255 -0.006159087643 -0.0024747869466 -0.014483704232 -0.0062011680566 -0.0038228249177 
-0.013890379108 -0.0062621948309 -0.0051733138971 -0.013376582414 -0.0062452363782 -0.006501131691 -0.012886674143 -0.0061642634682 -0.0078131621704 
-0.012286927551 -0.0060445731506 -0.0090358778834 -0.011708826758 -0.0061567085795 -0.010304346681 -0.011025069281 -0.0064252130687 -0.011464290321 
-0.010430796072 -0.0069278064184 -0.012595401146 -0.0096134794876 -0.0075519671664 -0.01336615067 -0.0088682128116 -0.008576977998 -0.013643560931 
-0.0080071724951 -0.0097967255861 -0.013609551825 -0.0057635209523 -0.0087737999856 -0.016139999032 -0.0065413541161 -0.01003122516 -0.015049876645 
-0.0048437910154 -0.0075437184423 -0.016970671713 -0.0039135627449 -0.0064806123264 -0.01757359691 -0.0032139618415 -0.0056345937774 -0.017879448831 
-0.0021385005675 -0.0060150539503 -0.018282169476 0.0030258167535 -0.0030998329166 0.013874601573 0.0019088912522 -0.0043213460594 0.013696459122 
0.00087831169367 -0.0053208977915 0.013244308531 0.0014502102276 -0.005596216768 0.011840641499 0.0017092138296 -0.0057604447939 0.010763299651 
0.0023969784379 -0.0056305886246 0.01072308328 0.0033080044668 -0.0052275145426 0.010531654581 0.0041410750709 -0.0047973846085 0.00996287819 
0.0049380809069 -0.0042947907932 0.0092851789668 0.0053173135966 -0.0043824142776 0.0082327332348 0.0055706012063 -0.0045336075127 0.0076018837281 
0.0039606466889 -0.0071783438325 -0.019499156624 0.0059002256021 -0.0073176897131 -0.01923590526 0.0076895123348 -0.0072150393389 -0.018688108772 
0.009308712557 -0.0069706779905 -0.018000811338 0.010430139489 -0.0065147685818 -0.017292333767 0.011056891643 -0.0074693630449 -0.016363233328 
0.012946967967 -0.0067007113248 -0.015159910545 0.011866680346 -0.0081611098722 -0.014730394818 0.013279552571 -0.0053603230044 -0.015030660667 
0.013982792385 -0.0050966693088 -0.013923065737 0.014861867763 -0.0048206979409 -0.01235486567 0.015556989238 -0.0045603215694 -0.010493525304 
0.016122482717 -0.0042166388594 -0.0083532324061 0.015258685686 -0.0066007031128 -0.0072994595394 0.014437232167 -0.0070061571896 -0.0038257220294 
0.013862773776 -0.0075432909653 -0.0051612649113 0.014681924134 -0.0064487098716 -0.0021956316195 0.014541566372 -0.0058355326764 -0.00048664660426 
0.0051461244002 -0.0036943638697 0.010357977822 0.0047149364837 -0.0038596359082 0.011101343669 0.0037633543834 -0.0040331357159 0.01225393638 
-0.0042735831812 -0.0039770375006 0.016176624224 -0.013921394944 -0.0064278705977 0.0040843407623 -0.013999019749 -0.0065576988272 0.0029896746855 
-0.014150322415 -0.0068348883651 0.0018536167918 -0.014255595393 -0.0071400892921 0.00061709701549 -0.014250044711 -0.0074922279455 -0.00069759495091 
-0.014053384773 -0.0078259892762 -0.0021440489218 -0.013545308262 -0.0079716928303 -0.0034581325017 -0.013070931658 -0.0081080496311 -0.0047510913573 
-0.012732604519 -0.0081989308819 -0.0060864663683 -0.012397028506 -0.0080558704212 -0.0074206921272 -0.011995586567 -0.0079018985853 -0.0086184218526 
-0.011558189057 -0.0079324403778 -0.0098405545577 -0.009301434271 -0.009479646571 -0.012596279383 -0.0098517267033 -0.0085151474923 -0.012762715109 
-0.0036970444489 -0.0087899202481 -0.017074428499 -0.0046297269873 -0.0099423136562 -0.015853457153 -0.0028066381346 -0.0074726021849 -0.017954936251 
-0.0062773502432 -0.0045369630679 0.015646968037 -0.00780545827 -0.0050259158015 0.014758565463 -0.0092025073245 -0.0054490002804 0.01370524615 
-0.010444795713 -0.0057973973453 0.012622831389 -0.011508683674 -0.0059797721915 0.011410616338 -0.012358523905 -0.0061870985664 0.010355136357 
-0.012885360047 -0.0063111199997 0.0095104724169 -0.012134083547 -0.0067307446152 0.0087392460555 -0.01099043712 -0.0067873131484 0.0095613831654 
-0.0098986960948 -0.0067352424376 0.010479971766 -0.0087977927178 -0.0066246469505 0.011462584138 -0.0076688947156 -0.0064689810388 0.012468755245 
-0.0064932750538 -0.0061963847838 0.013486848213 -0.0053383810446 -0.0058775353245 0.014425961301 -0.0042921938002 -0.0054186610505 0.01505438704 
0.013623994775 -0.0068451012485 -0.013561927713 0.014367537573 -0.0067837038077 -0.011798527092 0.014924281277 -0.0066363401711 -0.0097946887836 
-0.0054297987372 -0.010943373665 -0.014466807246 -0.0060264896601 -0.011557956226 -0.013269543648 -0.007000931073 -0.01095429901 -0.013373353519 
-0.0094242924824 -0.01090523228 -0.0091238562018 -0.0089207841083 -0.011095572263 -0.010413518175 -0.010003528558 -0.010700878687 -0.0081522325054 
-0.010431888513 -0.010310941376 -0.0075019942597 -0.011259260587 -0.0093896025792 -0.0080377748236 0.012450611219 -0.008273055777 -0.012747177854 
0.013039796613 -0.007971001789 -0.0057947682217 0.013485625386 -0.0080249272287 -0.0072340816259 0.013353914954 -0.0080217374489 -0.0090297861025 
0.0024225562811 -0.0050976262428 0.012237785384 0.012985087 -0.0081684729084 -0.010869821534 -0.010360176675 -0.0096255410463 -0.010197305121 
-0.0098591130227 -0.0097324326634 -0.011388747953 -0.010936822742 -0.009523652494 -0.0091512948275 -0.00069362245267 -0.0053561995737 0.00013181225222 
-0.001842413214 -0.0056898007169 0.00011612778326 0.0012702388922 0.002881540684 0.012179896235 0.012463055551 -0.0069466121495 0.0015997138107 
0.014116683044 -0.0053529860452 0.0012666310649 -0.010345662944 -0.0083329761401 -0.011974709108 -0.010889372788 -0.0081021310762 -0.010928701609 
-0.0083718877286 -0.010778338648 -0.012052996084 
