# vtk DataFile Version 5.1
vtk output
ASCII
DATASET POLYDATA
POINTS 1116 double
52.981952374 75.224627905 44.021810855 52.762770133 74.803224387 45.426238787 54.126585875 75.145531872 45.319304651 
54.216215249 75.496217783 43.827675833 52.514343937 74.241474147 46.81085609 53.99477933 74.695014409 46.761737461 
52.512567501 73.51821966 48.147282066 53.996705747 74.028912678 48.104230022 52.671361103 72.774195605 49.452631681 
54.142807179 73.289148899 49.389660363 52.986175385 72.009990437 50.727785407 54.449245839 72.524419569 50.633412891 
53.508182778 71.128340809 51.848985592 54.910739397 71.682108914 51.778672212 54.083627732 70.240726585 52.938359959 
55.449327254 70.808122609 52.873502176 54.712482438 69.350104612 53.996881974 56.032585118 69.859072147 53.898189741 
55.359551364 68.111388171 54.591362428 56.627921992 68.643100916 54.463234237 55.833333608 66.746358937 54.979930661 
57.126353821 67.293019123 54.807381318 56.173416613 65.283387911 55.207598694 57.551685824 65.874871899 55.026262947 
56.6374309 63.866423386 55.500919119 58.020691707 64.478670546 55.322351474 57.150717018 62.449004321 55.620221885 
58.551143396 63.103050087 55.544892759 57.718450106 61.043354858 55.633725571 59.183891206 61.760161777 55.725424257 
58.584484292 59.811266214 55.836400085 59.961269776 60.479221349 55.791482413 59.446778566 58.574560434 55.929540707 
60.772018224 59.213963712 55.807792249 60.300536009 57.327315448 55.772656131 61.57312748 57.945945205 55.645767805 
61.033635859 56.07595518 55.400822289 62.301068128 56.66937285 55.270517079 61.632662288 54.820022055 54.79013913 
62.883290089 55.43304687 54.598953034 62.007686075 53.626637547 53.951167576 63.324971926 54.216202335 53.747005441 
62.292182872 52.458303694 53.022727279 63.683857234 53.01635215 52.815391988 62.399306677 51.331754946 52.008554214 
63.909450981 51.829085142 51.68891711 62.421762814 50.258970814 50.946482895 63.816941767 50.631280487 50.539377826 
62.240189569 49.315746899 49.768987927 63.609556416 49.638853897 49.339720118 62.020413574 48.565402224 48.479553307 
63.35729763 48.910393805 48.061688648 61.771071691 47.954186561 47.112293482 63.061155526 48.309107094 46.708764725 
61.283540141 47.817048025 45.679589532 62.634422706 48.177663867 45.301183616 60.793849724 47.874824951 44.256652183 
62.159084029 48.263698398 43.894755885 60.301821519 48.143671229 42.844290855 61.658448769 48.52932662 42.508583803 
59.773116973 48.456820498 41.454531674 61.125583322 48.897127249 41.155462034 59.197815358 48.809774327 40.094657079 
60.578264275 49.299048773 39.817121255 58.583519461 49.212659591 38.766607249 60.040973924 49.748756823 38.496918891 
58.141963396 49.983221528 37.533563398 59.533816877 50.428996396 37.259552066 57.589090183 50.862914529 36.44353117 
59.004059631 51.236438977 36.108754698 56.93433884 51.844563224 35.486271412 58.468097473 52.21030512 35.104351883 
56.506731893 53.001265701 34.598394014 58.010792414 53.315309764 34.181497663 56.120336964 54.207670214 33.764382244 
57.601184764 54.485164704 33.30836356 55.785505384 55.47626055 32.997765673 57.229319688 55.729765395 32.524820399 
55.467232998 56.818326306 32.362597263 56.875162776 57.053651638 31.845804364 55.1720488 58.206683296 31.837853672 
56.52901112 58.42332331 31.261320376 54.915957978 59.662644458 31.486102081 56.181077153 59.855209724 30.818944162 
54.51618653 61.112928841 31.286389922 55.801813554 61.33925417 30.510327698 54.128147418 62.573406367 31.133993538 
55.432423082 62.845933938 30.276930275 53.781157666 64.048076664 31.015333428 55.070665565 64.47402344 30.178635688 
53.489726109 65.509035586 31.310653616 54.630228402 66.051211914 30.554649407 53.244571362 66.889218617 31.854071249 
54.313548635 67.447821176 31.189976609 53.028695308 68.167629068 32.630377683 54.080364163 68.736592425 32.041406016 
52.793839347 69.230167362 33.691032974 53.974627534 69.826107556 33.135925902 52.628981507 70.215593292 34.831712796 
53.897947529 70.824755635 34.303299021 52.50365448 71.157470703 36.017585754 53.850038702 71.77045205 35.528959802 
52.476456651 72.046785514 37.249459953 53.834679999 72.657055641 36.794077815 52.481348467 72.885247774 38.513693664 
53.84073048 73.509258828 38.08502092 52.539952801 73.638591652 39.832091605 53.89741577 74.282048199 39.427356976 
52.632335566 74.366539546 41.162631786 54.012726829 74.913053501 40.838066999 52.769112914 74.942384948 42.543916111 
54.144877878 75.340895073 42.328652645 84.390699466 55.635742141 42.826813071 84.662955148 56.050373095 44.271560537 
83.435777221 55.499145261 44.495189969 83.334886019 55.09038866 43.023845258 84.868621153 56.621290199 45.676183056 
83.532803284 56.097018593 45.910565296 84.909569379 57.359364797 47.030391546 83.600515434 56.809059511 47.274324384 
84.959909948 58.340440904 48.210910729 83.579827776 57.796052054 48.481610382 84.996879342 59.385693332 49.343093132 
83.513799194 58.8563019 49.618263358 84.805285386 60.508216654 50.384027641 83.326642004 60.015268719 50.629737375 
84.595512377 61.655137928 51.390522163 83.102447413 61.198521793 51.613378421 84.318190159 62.892716428 52.269045554 
82.805449712 62.474415391 52.433690498 83.981537438 64.166405941 53.042319158 82.47593572 63.772421682 53.220020011 
83.470495541 65.546235967 53.506233788 82.066990175 65.187728245 53.68463401 83.015481097 66.959090449 53.892074198 
81.683184271 66.62714138 54.083955779 82.713718692 68.462276814 54.064357995 81.350444069 68.110317779 54.359204784 
82.401092161 69.965544665 54.211690973 81.025971745 69.607205066 54.587125061 82.072990247 71.468928589 54.323482808 
80.674763085 71.114191695 54.74911182 81.663064163 72.952886447 54.324716012 80.267164754 72.619037211 54.778256241 
81.210140613 74.426636177 54.267852188 79.824739403 74.121663502 54.736737588 80.660787589 75.749826462 53.707399717 
79.263166397 75.530630041 54.281545548 80.145024548 77.000435112 53.004329388 78.750346472 76.89048154 53.571389164 
79.737077797 78.066288231 51.966134761 78.264031248 77.918475627 52.452826279 79.361106224 78.965978612 50.784722259 
77.868059792 78.842531551 51.207749291 79.007112521 79.751458431 49.504870152 77.503129347 79.676774279 49.91270093 
78.552418624 80.265157166 48.124462709 77.100682094 80.116582678 48.439508674 78.181440485 80.723918322 46.705573806 
76.761786533 80.517652805 46.958960366 77.965745382 81.107041725 45.226721689 76.479109596 80.878929292 45.469338059 
77.734878593 81.08323319 43.711779904 76.236443063 80.964458535 43.928938836 77.522270531 81.02564436 42.186186484 
76.000307904 80.871230925 42.390301634 77.349988167 81.049564131 40.653196551 75.797207944 80.793273152 40.843167851 
77.152244147 80.875711743 39.134151151 75.609197538 80.686058999 39.3027537 77.007456631 80.644529032 37.617583589 
75.448814397 80.439358966 37.774542558 76.932943374 80.36230075 36.102622707 75.352518658 80.047311483 36.270779296 
76.999785394 79.623541677 34.756366962 75.370490582 79.314466735 34.911289187 77.090673427 78.720228779 33.523576434 
75.451898688 78.438592778 33.632473822 77.199927065 77.646156926 32.421421817 75.572775726 77.426990058 32.44993195 
77.289506354 76.630085488 31.263961581 75.690658267 76.496575006 31.214518262 77.361954112 75.760289773 30.002225299 
75.807103061 75.646937651 29.920897873 77.420532227 75.011230469 28.654712677 75.928038021 74.878104084 28.591636578 
77.453910838 74.11694741 27.397948903 76.044646753 73.909732489 27.414988706 77.586937015 73.06217537 26.330841282 
76.210010863 72.785116987 26.416834691 77.874815069 71.758004161 25.558458484 76.459871163 71.476491995 25.739649553 
78.286393704 70.304763007 25.287217039 76.809688948 70.00288725 25.497919405 78.727015997 68.837692378 25.113183631 
77.19656104 68.51864839 25.364281724 79.186193588 67.369161069 25.003145869 77.585061383 67.033574537 25.299955212 
79.554040535 65.871551243 25.049674751 77.95955387 65.543512684 25.349107507 79.922097257 64.415559882 25.329236936 
78.364346535 64.083853321 25.647380529 80.294469376 63.006097901 25.823457681 78.789912554 62.715919724 26.181226942 
80.746662793 61.823859456 26.705582886 79.257856019 61.488528477 27.003201031 81.166299825 60.783062194 27.744839513 
79.730120299 60.362476993 27.964027203 81.556833376 59.86870498 28.924562333 80.189099528 59.404352744 29.086888339 
82.122525142 58.996316478 30.063322502 80.699914275 58.50412387 30.243509047 82.673410577 58.203376381 31.256471407 
81.216017179 57.651254167 31.441225422 83.156243841 57.599696545 32.591669594 81.679660234 56.994314283 32.77245174 
83.536928908 57.070268679 33.984844937 82.093547425 56.395685766 34.150793535 83.842710174 56.595288713 35.420534093 
82.396956315 55.922618603 35.594815221 83.961913674 56.133062732 36.885632355 82.670795653 55.431699345 37.035067579 
84.102300859 55.737977446 38.354829457 82.989182872 55.007318462 38.472348988 84.587597824 55.773487743 39.818911892 
83.266727843 54.926017813 39.981607892 84.661025218 55.735349207 41.311123815 83.365598595 54.951911066 41.505711434 
55.367730718 75.218356885 46.775716134 55.493581175 75.617121501 45.288481681 55.325697081 74.650420654 48.153914273 
55.458592359 73.931127489 49.440061883 55.766551086 73.160836868 50.666198578 56.217044857 72.339332759 51.812675581 
56.768841902 71.447947623 52.875412448 57.369928739 70.453295723 53.839137228 57.96548922 69.228426486 54.385701518 
58.467845236 67.902234275 54.80484511 58.89823789 66.525907001 55.187411642 59.366315698 65.141275089 55.514913364 
59.89644595 63.763814948 55.750554923 60.525943869 62.426108067 55.9588775 61.283642339 61.123501372 55.994839256 
62.084683437 59.827416275 55.997308931 62.891792124 58.577208246 55.669973756 63.634655188 57.287066936 55.260550885 
64.208444239 56.059643643 54.524314387 64.682546564 54.831766035 53.71506809 65.182741662 53.571723755 52.795689401 
65.849959663 52.11124004 51.573985623 65.342756879 50.732369468 50.203658786 65.026314628 49.704099429 48.994881456 
64.744237734 48.970595132 47.691754763 64.431624655 48.436499579 46.325287427 64.018250543 48.371023862 44.921743976 
63.538285997 48.558238567 43.532511296 63.022310768 48.897401745 42.176412597 62.492238352 49.295966963 40.840439044 
61.961566736 49.717957894 39.512507301 61.449820088 50.168077593 38.187243004 60.945879229 50.808839182 36.932241063 
60.443333558 51.552975355 35.727573041 59.941052095 52.496217353 34.67634742 59.484256238 53.58447341 33.728828513 
59.06503436 54.745713861 32.845802196 58.661053189 55.957235799 31.994874655 58.260155366 57.229232694 31.222967726 
57.86593836 58.572140837 30.569264303 57.466321852 59.984992754 30.055287608 57.041938374 61.419315171 29.615388021 
56.658821728 62.980000667 29.201454258 56.428516591 64.973045772 28.826481501 55.619463385 66.760445366 29.539798693 
55.186502655 68.228709474 30.318680562 54.944422865 69.531306042 31.241527904 54.900304328 70.657897734 32.361566209 
54.897132992 71.682646525 33.574750237 54.908552976 72.641018508 34.839805542 55.001519191 73.487847102 36.190971087 
55.095655116 74.283595551 37.581348361 55.281166455 74.900489062 39.042338249 55.487290616 75.389406375 40.56191743 
55.604342213 75.702399885 42.162728104 55.625272234 75.768837353 43.743420213 82.224130926 55.508666279 46.17459132 
82.194997787 54.866355403 44.746509241 82.262611763 56.259733473 47.542587751 82.209137834 57.237145427 48.770173188 
82.075373183 58.336800676 49.877728434 81.864515283 59.514486012 50.885584579 81.617239717 60.735059215 51.835596433 
81.308201177 62.051768309 52.613481457 80.986663142 63.400918541 53.333019256 80.64332652 64.820328564 53.868065338 
80.321294784 66.251931795 54.388474629 80.022105338 67.727438825 54.80226441 79.739814022 69.216319309 55.207468553 
79.397111513 70.747317592 55.445352432 79.023486197 72.302314402 55.608285682 78.579404127 73.875804973 55.591875994 
77.969185079 75.377469572 55.137485801 77.286120673 76.866585935 54.336513261 76.77188689 77.945467613 53.025185813 
76.362994064 78.876018901 51.695409013 75.985168956 79.705224165 50.291590511 75.612490695 80.122958803 48.774493035 
75.278455628 80.482700485 47.248141812 74.985157691 80.735801855 45.709079355 74.719984893 80.870105277 44.149929835 
74.467670663 80.923464475 42.579752522 74.240817553 80.862827923 41.013153718 74.025557531 80.691385106 39.450000589 
73.843053868 80.354809116 37.903368436 73.719510659 79.862674505 36.391879736 73.696755962 79.160531087 34.970323071 
73.79032028 78.269634109 33.650847134 73.944527088 77.310357065 32.39125856 74.111563327 76.445843955 31.087557451 
74.274710173 75.676941701 29.726334174 74.444054865 74.921837375 28.380359421 74.604659104 73.855512175 27.251613341 
74.792860195 72.614238614 26.329879532 75.014416647 71.211456484 25.815736386 75.312613635 69.716820519 25.613570805 
75.652030432 68.216424464 25.54623609 76.001472335 66.710518569 25.525959682 76.381205427 65.216994763 25.626933878 
76.811962141 63.747576322 25.913254796 77.276187368 62.398514258 26.485911529 77.772054465 61.157826556 27.291498334 
78.26971995 60.004452265 28.225133083 78.759112088 58.994619109 29.304850701 79.252813747 58.065987347 30.467105611 
79.7459275 57.175525116 31.670871141 80.203565902 56.437352474 32.983681579 80.642914853 55.763374267 34.337097974 
81.049534027 55.145927753 35.726240947 81.452188729 54.557267369 37.128365738 81.885441327 54.023555718 38.529075636 
82.148759251 53.923971471 40.119176256 82.226578186 54.041141478 41.723741783 82.186340431 54.379263257 43.256316764 
56.610220719 75.171552422 48.236071972 56.740849135 75.576650033 46.81903504 56.712520372 74.502216946 49.495131023 
57.007517237 73.795574699 50.724284577 57.481527583 73.005355914 51.847113961 58.07519985 72.116712804 52.877438831 
58.713548695 71.121353051 53.819447302 59.28719374 69.897258381 54.479464575 59.76862923 68.597874589 55.122275224 
60.138582175 67.215324847 55.670123702 60.593324008 65.800754225 56.001193687 61.124137215 64.407471516 56.22751239 
61.784208912 63.065480214 56.331277964 62.562466374 61.765887701 56.347303447 63.392272467 60.482881422 56.222647143 
64.245389523 59.224460057 55.827128743 64.99077591 57.925152531 55.331765896 65.59397033 56.636946583 54.690919964 
66.052985936 55.340274844 53.986198113 66.584364554 54.128907046 53.253750025 67.401554624 52.973847842 52.503285999 
66.414076607 49.510898477 48.640802019 66.78142806 50.34986001 49.799913514 66.153730048 48.895685034 47.357072335 
65.854758382 48.463335984 45.953444789 65.437928835 48.414381201 44.538491508 64.942302893 48.655161077 43.138981311 
64.415119734 49.012876911 41.776988434 63.878965378 49.48176578 40.457041907 63.35253414 49.964524752 39.143673651 
62.849951923 50.493684394 37.843446056 62.363971465 51.149124442 36.589452688 61.879242106 51.868870965 35.357018972 
61.398435025 52.761634689 34.244452697 60.935743377 53.798218406 33.22937733 60.502174554 54.926880227 32.280028152 
60.089152551 56.141797369 31.413308402 59.674072815 57.411286329 30.613692594 59.244738428 58.719210704 29.891416246 
58.795046997 60.07201321 29.303402615 58.322058109 61.43832145 28.802885475 57.997819727 62.804291082 28.273454324 
58.032912132 64.316343301 27.747117995 56.098476502 69.089881609 29.485593611 56.505728017 67.765243512 28.645632325 
55.866600889 70.409393856 30.430444748 55.864414151 71.538377201 31.575589538 55.918399621 72.579310985 32.824752405 
56.016499575 73.515637706 34.154400117 56.157186964 74.375044568 35.563677767 56.298193651 75.174692351 37.033853351 
56.63257685 75.629880508 38.613211065 56.941819724 75.965073309 40.253945922 57.210197144 76.114887076 42.006491189 
57.124578926 76.005249441 43.760806301 56.902019627 75.935165581 45.37611034 67.469704451 51.158975127 50.94255003 
68.536158922 52.042674285 51.808646667 57.255167594 66.538223786 27.876070424 58.437396461 65.721040125 27.107796714 
80.952288186 55.612933187 47.885966982 80.905923404 54.863816361 46.487618889 80.8564713 56.641790628 49.10750565 
80.68989137 57.760262575 50.220554357 80.421775125 58.995126345 51.181092995 80.149350038 60.249312135 52.10151855 
79.8201388 61.610303243 52.835559568 79.525003858 62.979901643 53.572020613 79.256594854 64.372496032 54.27113507 
78.971998314 65.824635999 54.83252404 78.751008728 67.276851544 55.427497933 78.51452444 68.771826728 55.947382737 
78.255855768 70.308213588 56.378858435 77.895029248 71.92970093 56.614777525 77.43190889 73.510201118 56.604228345 
76.683042285 75.151690223 56.200286614 75.377327215 76.831504703 55.275951937 75.138456421 78.049778363 53.518023029 
74.799169257 78.949665139 52.04684899 74.443980675 79.703706575 50.604328314 74.090228635 80.095989639 49.063088049 
73.768878718 80.395059668 47.505948304 73.478664798 80.57234306 45.935150837 73.195297672 80.734335012 44.366350172 
72.919279754 80.836725016 42.786598855 72.651047786 80.862592941 41.19198089 72.417111713 80.727481053 39.599611158 
72.206450894 80.333493695 38.017722319 72.034020974 79.77891522 36.462565783 72.006060894 79.049984779 34.978477644 
72.104410965 78.136822238 33.609029228 72.31020626 77.214192723 32.270247494 72.533098472 76.495252196 30.853729927 
72.743842695 75.713030288 29.485358811 72.947231604 74.921245196 28.155285488 73.123348409 73.756860909 27.087552856 
73.319031034 72.429525828 26.23507572 73.525966051 70.963984398 25.863302195 73.782163631 69.45207665 25.648138041 
74.077668525 67.924192843 25.541407759 74.40579408 66.391890299 25.563361542 74.782811973 64.870231172 25.724116217 
75.24301844 63.396831237 26.08270379 75.75278438 62.052119474 26.718271512 76.280610066 60.809355021 27.537440137 
76.806358021 59.636757329 28.452964547 77.309986134 58.583579834 29.511800202 77.795822124 57.61559719 30.674919892 
78.266345291 56.683805064 31.891380644 78.730065873 55.846347301 33.179594084 79.231446099 55.036655572 34.482010631 
79.725675382 54.303551074 35.828974758 80.212071088 53.656984016 37.229668731 80.701551308 53.071691338 38.625942497 
80.921883783 53.024314146 40.309097583 80.988035164 53.231008927 41.961121473 80.95227611 53.631327765 43.524641321 
80.907367441 54.203133938 45.034475141 57.965149861 67.663823971 27.29827207 58.948814476 67.051640678 26.631930181 
57.314980531 68.698930557 27.793806531 56.999093825 69.984686683 28.633183154 56.836110084 71.306152033 29.604087035 
56.949811867 72.394437998 30.811344347 57.105591523 73.367223471 32.130413584 57.228658943 74.321313817 33.495084095 
57.394208222 75.196029921 34.931865628 57.578163615 75.992942981 36.43275285 57.931250855 76.46445863 38.078035872 
58.407349459 76.756160331 39.833897295 59.14561001 76.788161952 41.93256863 58.71433595 76.34117631 44.004619172 
58.35468157 76.100409506 45.613335049 58.034675024 75.958805884 47.053877821 57.847622635 75.580216523 48.409559704 
57.869090797 75.034252367 49.584044097 58.191061643 74.380528931 50.735214106 58.704268628 73.662347609 51.818137148 
59.311182964 72.872831141 52.837314239 60.001286801 71.926537996 53.867525948 60.64841023 70.76308874 54.842005405 
61.038634773 69.315824864 55.631316946 61.388552512 67.833079467 56.219901682 61.783084514 66.419453998 56.578523832 
62.307014759 65.002654947 56.749380705 62.960651177 63.669236981 56.811491838 63.804464058 62.431861307 56.683730859 
64.683329782 61.17017099 56.425524542 65.564686379 59.927090716 55.998123551 66.483857751 58.569992741 55.507889775 
67.035151472 57.109240621 54.901355309 67.39666617 55.746438451 54.300355515 67.796054925 54.672217181 53.675555787 
68.597111798 53.729469261 53.180941865 69.637747995 52.913403836 52.500289275 69.681619857 51.218946046 51.071400493 
70.743690783 52.115880996 51.719864076 68.700431618 50.525580204 50.29266789 67.997371722 49.888547429 49.419016463 
67.728970226 49.232581603 48.366871686 67.582480856 48.716618853 47.072595008 67.303132354 48.44343016 45.633207041 
66.897277519 48.427807697 44.161144753 66.364544328 48.725648239 42.74038587 65.806164902 49.097637766 41.363394108 
65.259279774 49.595282708 40.045199064 64.736308135 50.138460407 38.748864935 64.246127863 50.764977764 37.486296479 
63.783353653 51.421674116 36.220241751 63.329245872 52.143123529 34.964817087 62.860063677 53.031532933 33.827662205 
62.393448405 54.014248991 32.732721862 61.94699844 55.082124543 31.702535786 61.523938229 56.313753897 30.80092652 
61.096813117 57.593625747 29.972329511 60.661180852 58.918661488 29.234330924 60.131905461 60.223427569 28.572333868 
59.611688576 61.476580358 28.048132791 59.276557212 62.67210361 27.641533236 59.357009591 63.859440372 27.037251923 
59.767162062 65.160428987 26.514420639 60.245731103 66.529726998 26.045693472 59.393277954 68.274931583 26.458161206 
60.672321222 68.011376506 25.888948242 58.533506722 68.451183607 26.951548477 79.557170042 55.977475798 49.548783748 
79.623418815 54.954486869 48.274675562 79.384540727 57.097585408 50.701959699 79.07840483 58.35235519 51.683620599 
78.77961674 59.638369013 52.618120896 78.427571453 61.025098899 53.358873503 78.117213502 62.448605974 54.051114508 
77.871404754 63.886597528 54.733585773 77.660280271 65.329335857 55.399182877 77.473969425 66.781069985 56.056974277 
77.286694866 68.261866169 56.695910083 77.011384689 69.793959392 57.164082809 76.652149054 71.419396476 57.531511495 
76.107751047 72.963223412 57.445608776 75.296521409 74.445439658 57.153083408 74.230610242 75.673586554 56.629629859 
73.220118038 78.973089209 52.278042653 73.412998717 78.224372426 53.636510126 72.867460791 79.64661223 50.83768575 
72.543236951 80.036625389 49.3109411 72.241408729 80.302829367 47.744304436 71.959070187 80.482524527 46.170912648 
71.668468879 80.633771334 44.592151106 71.368894246 80.715962818 43.000052763 71.074571503 80.689555928 41.398359973 
70.80300631 80.665059544 39.789249545 70.551137715 80.283936086 38.152393136 70.330912116 79.684653791 36.566483695 
70.183415523 78.917734829 34.966802024 70.400373106 77.991224549 33.46856598 70.673859534 77.148588606 32.059993879 
70.962302692 76.469427107 30.602998221 71.220572686 75.710507582 29.21559682 71.45378136 74.909635824 27.88807227 
71.632540799 73.687186313 26.851039672 71.816941275 72.26139307 26.122382031 72.005021854 70.741269194 25.840819623 
72.230656883 69.200837469 25.645498598 72.497763735 67.643791289 25.502128872 72.788958309 66.074152179 25.513770827 
73.164849408 64.525943502 25.779472296 73.645965301 63.010778791 26.164938745 74.213363919 61.649913694 26.8389193 
74.791621605 60.382052311 27.654131161 75.353679785 59.198115403 28.580406016 75.862549527 58.151732701 29.681007481 
76.332223086 57.149297607 30.857427566 76.766799284 56.197299667 32.109566559 77.221728505 55.271355168 33.397183776 
77.771712194 54.392497262 34.696238467 78.329974401 53.597643664 36.042071805 78.881722382 52.859816198 37.419317783 
79.396561571 52.222290529 38.820829966 79.657785619 52.160449788 40.555066036 79.752840264 52.385937775 42.25892405 
79.64585707 52.919473409 43.825583002 79.560741766 53.540001461 45.350079825 79.553702617 54.21541037 46.840943666 
73.359377822 77.294988724 54.955847299 72.732597536 76.298092459 55.998547351 58.272681074 69.384191786 27.123983549 
58.14251023 70.665794806 27.869520035 58.040485915 72.075576725 28.814415535 58.239672441 73.079226423 30.106066934 
58.412640022 74.065502576 31.463314239 58.58527449 74.98926419 32.876603386 58.784956889 75.866267588 34.336530959 
58.9951603 76.694636317 35.835113528 59.28763685 77.230906919 37.47549339 59.758995188 77.621871986 39.128362487 
60.544069521 77.852477289 40.774437845 59.703691716 76.420327496 46.130833864 60.215763834 76.618414629 44.687441792 
59.265050941 76.275162738 47.443514156 59.024503826 75.797084468 48.589733898 58.93496547 75.384009361 49.636253787 
59.270091197 74.918416494 50.587488229 59.830000018 74.359036654 51.605236899 60.529100382 73.690166916 52.665339587 
61.296535827 72.941514391 53.817341145 62.364503922 71.845559608 55.188029454 62.472029319 69.952721755 56.180732542 
62.682565292 68.370281882 56.817104471 63.014323137 66.87854888 57.176385033 63.482668227 65.457344768 57.314836289 
64.056792389 64.228004297 57.292826944 64.97729152 63.144139686 57.143182872 65.861485599 61.939651718 56.736545041 
66.833430839 60.725277333 56.274435448 68.292255269 59.329192015 55.710792019 68.641991043 57.40699984 55.038475969 
68.709886317 55.990660369 54.440922168 68.68079301 55.071938209 53.941233096 69.535008944 54.583028012 53.651979705 
70.622944975 53.828955853 53.16292787 71.741354649 53.116487215 52.329408733 71.802994279 51.401326978 50.726947459 
72.754769833 52.45155086 51.299172435 70.696570448 50.588467195 50.145057619 69.65684049 49.969503121 49.556774126 
68.874844652 49.583903598 49.122992424 68.959102446 49.144918554 48.246491624 69.02409663 48.709123079 46.942912902 
68.886693747 48.47780631 45.345523407 68.357369126 48.453373545 43.748482067 67.759052824 48.800652552 42.286686883 
67.184310792 49.185008559 40.93156567 66.625051879 49.693885616 39.617085233 66.100991069 50.257382723 38.331148286 
65.628250927 50.939138872 37.096013529 65.202492982 51.681757291 35.865844403 64.792777744 52.448392548 34.6191558 
64.321278169 53.339077118 33.457338742 63.852896213 54.300974588 32.321538047 63.409661842 55.350090905 31.230722533 
62.972618368 56.532633759 30.231455966 62.529132223 57.808706194 29.320719684 62.051693912 59.145950191 28.534932005 
61.508634482 60.513716497 27.817166627 60.770070274 61.723189445 27.393267413 60.219640529 62.57347583 27.212093092 
60.588040572 63.357794545 26.643011084 61.115442136 64.558793427 26.024070448 61.699670089 65.986930631 25.656092496 
62.114084805 67.572505808 25.393955269 60.885761613 69.558926147 26.138845627 62.388693995 69.291733292 25.571362571 
59.473150565 69.586334214 26.617136191 60.841380926 77.147235845 43.225999478 61.739447851 77.951088239 42.047949627 
71.928418267 77.479523706 54.684424457 71.409428299 76.645719364 55.462925689 71.911068229 78.169260549 53.606813052 
71.660338758 78.822997584 52.37842957 71.317513235 79.380150929 50.990099806 70.995628393 79.843154951 49.52406363 
70.717585981 80.124656934 47.96868237 70.455018726 80.298708062 46.395851688 70.15892146 80.444243915 44.821577659 
69.827464985 80.493664123 43.236050785 69.489292925 80.537055247 41.638025316 69.22268556 80.477554374 40.023445341 
68.926747937 80.124974108 38.423068974 68.556645891 79.531457726 36.789739162 67.960784946 78.663154751 34.920552541 
68.639879145 77.769584693 33.226571385 69.066061351 77.067333223 31.712481145 69.423402108 76.453352412 30.251198621 
69.717844491 75.663277859 28.896102345 69.964421426 74.858044614 27.603610649 70.149249696 73.499192654 26.742549934 
70.306207596 72.059947161 26.064695103 70.468068889 70.532803271 25.755257275 70.663769608 68.970378997 25.528207512 
70.901768705 67.389429732 25.350743538 71.167340835 65.812204203 25.353156321 71.43589599 64.138570447 25.630387848 
72.050889913 62.544647682 26.139992176 72.674198038 61.185042968 26.88781114 73.311124046 59.908391188 27.728803382 
73.915426822 58.719749266 28.647331215 74.434204977 57.660498016 29.763276994 74.875222698 56.657953905 30.972679964 
75.242245052 55.730470322 32.264456727 75.65216888 54.743269068 33.651968314 76.275431421 53.84835225 35.015033327 
76.892707473 53.028516836 36.378913981 77.461490961 52.246978968 37.753995175 77.977054904 51.501910572 39.112021653 
78.295381853 51.411848464 40.859620881 78.429843108 51.632578474 42.581462632 78.284479152 52.237668782 44.141379093 
78.203002352 52.807844111 45.728167704 78.230326793 53.483189003 47.279834889 78.308543999 54.278073209 48.718173744 
78.245099619 55.340057209 49.995262687 78.069692949 56.454453561 51.182179608 77.754052556 57.682459893 52.241442679 
77.465216617 58.952875234 53.277466521 77.134597859 60.363781392 54.075358548 76.87806045 61.817619574 54.815584023 
76.615304069 63.305213425 55.44416483 76.371209567 64.794899412 56.017323105 76.181754608 66.256604208 56.648964072 
75.956994616 67.738915113 57.238463052 75.669646476 69.247186764 57.676189729 75.312321923 70.813411073 58.082072016 
74.736006766 72.269637844 57.967956686 74.027003991 73.655984668 57.774818347 73.062871379 74.625399443 57.21681354 
71.914093641 75.293499429 56.70463264 70.709482375 75.672944894 56.020220828 70.351783221 76.951352633 54.897877494 
69.557178537 76.092188122 55.375279473 70.971289665 77.52356272 54.451028717 59.501857366 71.038135739 27.248466173 
59.511722104 72.462477409 28.118262338 59.63642114 73.643385216 29.406407015 59.787259162 74.722401385 30.788147537 
60.001021404 75.595727578 32.2785288 60.259250504 76.438581013 33.782273001 60.55177828 77.207835796 35.308937598 
60.735894929 77.778304176 36.919592694 61.091120788 78.238572175 38.425033678 61.760717292 78.566553942 39.846227786 
62.730105896 78.752105859 41.129631467 62.921882321 78.161162637 43.182815202 63.723836735 78.993529684 42.253426905 
62.165877528 77.407535283 44.246774946 61.500405128 77.020300913 45.549823854 60.918593038 76.809916441 46.818334726 
60.427115374 76.430503596 48.016677207 60.013009305 76.014615469 48.994260345 59.69509167 75.665507952 49.678946328 
60.151084216 75.501365537 50.361629773 60.786386129 75.152436194 51.267494248 61.547091543 74.698904217 52.3359871 
62.397976087 74.15585665 53.437314097 63.454977044 73.608213274 54.58378057 64.02727898 68.686270301 57.466821236 
63.931921537 70.271917919 56.954154979 64.267860136 67.178662251 57.784886116 64.640802031 65.797616588 57.735352942 
64.92679337 64.70525007 57.603591219 66.105867848 64.103134273 57.69422298 66.972932534 62.687217924 57.125895504 
67.793229607 61.626995147 56.696286572 69.048805751 60.922048257 56.416197562 70.060515761 55.698796743 54.24752444 
70.420097649 57.192390905 54.962449922 64.155865539 71.815390514 56.219710419 64.777549739 73.307575829 55.568985177 
70.433325016 58.961036977 55.625762838 70.64061234 60.587224619 56.297534052 72.690849828 54.154809772 52.856194973 
71.481808057 55.047081228 53.775885156 73.560272246 53.531491333 51.777921028 73.761467133 51.997563108 50.079041997 
74.435134804 53.113521134 50.796190656 72.733501859 50.835394655 49.539493688 71.515138401 49.902828612 49.056728128 
70.2178546 49.294525223 48.524633338 70.579457114 48.872606351 47.095097429 70.850625671 48.466455522 45.099632447 
69.843236618 48.40516656 43.147660027 69.137064681 48.854833519 41.740992226 68.515562484 49.302540076 40.4226567 
67.953604744 49.804571311 39.163948077 67.436164235 50.395540645 37.923655143 66.989453873 51.097447871 36.722305106 
66.632932631 51.873195544 35.534519613 66.305645083 52.79279106 34.331488901 65.777305636 53.706024587 33.153035861 
65.298639866 54.669541983 31.999690215 64.871390472 55.68054873 30.851473202 64.462287943 56.839630169 29.793859576 
64.000993426 58.064605931 28.807157112 63.541506261 59.419529034 27.877683488 63.111908103 61.161864004 26.86983864 
61.717319702 62.490583102 26.614922611 62.508928496 63.779880157 25.910831151 63.208660935 65.304549357 25.399728884 
63.800902063 67.032530767 25.173623055 63.973525855 68.917393815 25.139734081 62.537648002 71.023209699 25.948294759 
64.144457887 70.588169134 25.563450716 60.955457275 71.175628074 26.571770213 70.664951928 77.942932037 53.647286803 
70.224405476 78.51367403 52.546191937 69.795144513 79.049206273 51.185445216 69.458938221 79.53137302 49.737057347 
69.212466425 79.832862669 48.183964691 68.983295483 80.036418134 46.626077148 68.70023791 80.149195515 45.066965999 
68.316251589 80.221683248 43.536081896 67.899345807 80.280951782 41.918697774 67.688959574 80.233037367 40.315552689 
67.400232384 79.936496841 38.781772616 66.911716005 79.46834996 37.314687995 66.162930598 78.826336784 35.931649917 
67.531700924 76.884729653 31.229042128 66.990059631 77.41903781 32.55464548 67.933552648 76.312599254 29.838579299 
68.241116775 75.503451654 28.574780177 68.484974054 74.599049574 27.320423863 68.673641131 73.292122594 26.587388161 
68.803528877 71.870906464 25.97898972 68.919053202 70.350786155 25.624800287 69.073043599 68.778149892 25.367418836 
69.319327496 67.222864572 25.184526308 69.542748295 65.666253231 25.186100126 69.337896699 63.721525771 25.396470817 
70.404504495 61.954532393 26.154358883 71.172995525 60.5937544 26.979148653 71.855646341 59.372387137 27.823264054 
72.500488291 58.238802546 28.737301586 73.009142615 57.254288599 29.875784045 73.391626288 56.292665245 31.042292313 
73.670887014 55.365598541 32.367139047 73.7310411 54.151887025 33.948037733 74.80886507 53.213418704 35.416869463 
75.495140023 52.428045163 36.794500945 76.058281777 51.689751906 38.174737966 76.556606579 50.942186774 39.53046154 
76.944697368 50.791111388 41.212300884 77.138563996 50.875689015 42.910990651 76.974458526 51.434753465 44.498396548 
76.898975813 51.934087293 46.139343414 76.88321268 52.60840444 47.846622057 76.957385627 53.666977844 49.26424127 
76.976399031 54.744811981 50.499515676 76.809089893 55.771534729 51.658459679 76.46749757 56.935140415 52.802765946 
76.126842253 58.213694195 53.922546638 75.741582597 59.697613715 54.750562593 75.499261729 61.226284053 55.479729122 
75.250077128 62.786059054 56.002456109 75.016417358 64.305115121 56.529132756 74.776887115 65.804266043 57.011000275 
74.549341016 67.254644944 57.54766313 74.241746814 68.741819997 57.851880307 73.897568748 70.162395804 58.20278892 
73.409022811 71.58066099 58.094585352 72.823403529 72.811360891 57.946430212 72.152448187 73.739903413 57.466913638 
71.151580599 74.245715578 57.005963244 69.949955738 74.694245146 56.573420291 68.745563902 75.080629058 55.927675294 
68.430835912 76.617491874 54.534098261 67.536553339 75.538265445 55.209759411 69.564193047 77.39361931 54.000248849 
66.227264306 77.944732773 33.84118136 65.056473294 78.255210489 34.809848213 72.107026745 49.425163288 47.614741135 
72.674049171 48.965205339 46.056142227 70.42478038 49.039201407 41.075347255 71.190520127 48.715179952 42.31734823 
69.798847249 49.451538091 39.887996631 69.245469843 49.943581144 38.697157314 68.743678867 50.563641575 37.541608117 
68.339884468 51.265852186 36.434135238 68.062588295 52.119418557 35.34659645 68.043438429 53.228963822 34.087203825 
67.243484881 54.156342356 32.83307028 66.704975957 55.046722896 31.678677614 66.331220346 55.983426898 30.520883682 
65.985343101 57.115612853 29.397946845 65.506137023 58.299501543 28.365165502 65.089657895 59.555355198 27.485461855 
64.936428067 60.864659526 26.721587792 63.979823216 62.858104215 25.883623441 65.5259333 62.102790832 26.008194841 
61.069612963 72.745835947 27.449424402 61.118172889 74.14154045 28.725486507 61.284947129 75.271076748 30.162691273 
61.484799441 76.134425288 31.756519206 61.777038551 76.860672937 33.267531249 62.462052962 77.689904621 34.912750979 
62.157142811 78.118255337 36.543002652 62.474349565 78.564912023 37.85630723 63.026769245 78.946578077 39.126195754 
63.746083486 79.332433241 40.318672618 64.61938904 79.540537861 41.350022974 64.837479064 79.174206846 43.319817847 
66.066121842 79.894116185 42.209275071 64.009270936 78.360132558 44.19790892 63.303201868 77.778528305 45.280026686 
62.648459177 77.434702073 46.486893856 62.050519535 77.091974641 47.706308589 61.487210883 76.546447674 48.791586759 
60.834341275 76.043741587 49.717061334 61.669289774 75.868694807 50.628148773 62.486057622 75.670048998 51.741404241 
63.355021293 75.310168239 52.885142764 64.35015159 74.953589619 53.98644417 65.519619975 74.669945142 54.970703304 
66.118847197 73.074033621 56.432818389 66.768984289 74.335257419 55.821218675 65.607729505 71.720855784 56.927340084 
65.368620722 70.398316362 57.619085947 65.433507828 68.844358097 57.932706776 65.652675248 67.286638735 58.18741282 
65.943698581 65.795129346 57.996574599 73.730468712 55.286804074 53.214680106 72.554593446 56.681123679 54.474603397 
74.453325751 54.424688269 52.10832274 75.146387355 51.705412514 48.554472884 75.617132925 53.15640205 49.936482075 
73.605856206 50.291139697 48.077364195 68.807516719 77.981241048 52.853037067 68.297983124 78.594567076 51.433633523 
67.925625677 79.112452829 49.949510297 67.743401879 79.429247961 48.373498745 67.596248707 79.636927668 46.842300942 
67.344914007 79.743072656 45.374323608 66.864741927 79.802006899 43.900049165 66.251927227 80.062852254 40.545802404 
65.96587674 79.823701574 39.182343973 65.463567423 79.405620879 37.899345734 64.794893906 78.891553727 36.689219297 
66.074420966 76.666412029 30.685509537 65.601416617 77.120425342 31.920539348 66.501254138 76.103611373 29.448422494 
66.808769607 75.330038233 28.278380799 67.039185545 74.324691371 27.208937199 67.235939094 73.088996744 26.50492736 
67.307332159 71.770457033 25.905799313 67.362307479 70.266864322 25.511017879 67.485368385 68.645204504 25.202742954 
67.753241237 67.044956408 25.051449359 68.230574634 65.812107831 25.091856654 67.411988415 64.75430288 25.135951738 
69.71576774 59.974654512 27.248177851 68.916076304 61.161231906 26.471091807 70.43260351 58.832374201 28.082878572 
71.113889743 57.819653009 28.943768578 71.61122843 56.916931532 29.99036736 71.971184842 56.055513197 31.101799389 
72.083442507 55.205213163 32.235938206 71.95161921 54.307191914 33.342215826 74.193086075 51.746585915 37.233366716 
73.469229191 52.416374661 36.01323798 74.701772478 51.071267344 38.575980153 75.154996628 50.404771158 40.007020054 
75.549196863 50.251285097 41.617086474 75.814690398 50.248796619 43.190617942 75.771752156 50.500710871 44.765667022 
75.576079785 50.871012949 46.504491191 67.859383279 62.40626701 25.852664456 66.410747757 63.439595668 25.441010949 
72.167801465 48.599162329 43.639386473 73.262049517 49.017758249 44.561647618 72.548451267 53.002543866 34.895767017 
71.354636934 53.421606426 34.193618947 75.805029927 54.237699183 50.948382685 75.575253128 55.108274019 52.005881106 
75.086274496 56.187909915 53.101601796 74.508390438 57.519941746 54.268103239 74.160576014 59.173769369 55.130974412 
73.963509359 60.797791518 55.882569099 73.786025717 62.356383376 56.410658905 73.600088734 63.893895883 56.926634343 
73.36441049 65.402138609 57.347753066 73.112928827 66.87354465 57.736886186 72.811930031 68.330338258 57.963284113 
72.483340733 69.730039073 58.144722883 72.115100093 71.070865799 58.016777031 71.732749598 72.249429596 57.869408655 
71.48509735 73.0886211 57.577829164 70.613396269 73.245880933 57.336340851 69.357953976 73.522639725 57.002788449 
68.042775798 73.991563761 56.546129648 66.330847265 75.92151557 54.27354139 68.11645127 63.203064997 57.36907725 
67.678829108 64.460762596 57.833582464 68.446773416 62.323337681 57.009338222 69.431051678 62.147505214 56.944727446 
70.767194722 62.057775517 56.867246197 72.312117863 60.529749201 56.161153608 72.264505928 62.120756537 56.72387107 
72.368619122 58.836507095 55.435206529 65.421708921 75.008633639 28.11073442 65.169858329 75.763601049 29.152911871 
65.68988091 74.047219312 27.160822122 65.915121487 72.980683574 26.48001834 65.823807095 71.790603053 25.874995331 
65.749172192 70.309918125 25.426829448 65.76411876 68.576276834 25.056176859 65.900300788 66.342998141 25.036848124 
64.879690169 64.451398617 25.380099367 72.143102991 63.607205306 57.209234933 71.926687826 65.10811392 57.559593869 
71.674849043 66.577147568 57.880581966 71.383093819 68.029040665 58.004563776 71.073714149 69.447653523 58.108399309 
70.767297269 70.802096281 57.911113415 70.504890582 72.098272886 57.735149086 68.928341923 72.115350443 57.557718526 
67.500569175 72.704679832 57.015615872 66.926566114 71.575008045 57.469797083 66.810746986 70.315376343 57.892711869 
66.889208698 68.903695058 58.150382792 67.104752481 67.417875837 58.272215151 67.367364769 65.959137832 58.109742067 
67.241349514 77.100385556 53.246955166 66.803473138 77.921641689 51.629944417 66.370289119 78.494231848 50.053733759 
66.333268742 78.882540747 48.372567262 66.328761432 79.126454617 46.923604387 66.193100281 79.273744937 45.693093616 
65.668581906 79.236797067 44.506108654 62.448546683 76.645646694 49.797572854 63.462750872 76.593901725 50.963331819 
64.296489958 76.385710342 52.26256267 65.201407723 76.025274399 53.338457216 64.826914914 78.634605041 45.192395645 
64.281535293 78.181068459 46.156811948 63.768036779 77.787258166 47.358933167 63.21364715 77.307502181 48.697670794 
67.968982336 71.380104005 57.741710676 68.093510479 70.327179851 57.946893176 68.293854047 69.019201936 58.184971179 
68.540045134 67.585803678 58.213002438 68.804454097 66.146135215 58.09061376 69.086264065 64.710241931 57.786216322 
69.338592582 63.380257875 57.361772875 70.697213884 63.450957962 57.363787619 65.192315823 79.820497998 40.511306647 
64.762890345 79.59781551 39.602735682 64.236059033 79.205932982 38.487166532 63.688727629 78.787929019 37.402258601 
64.976991927 77.480721276 33.013218826 63.923813063 77.644272522 33.882558342 62.964219388 72.870424468 26.820500876 
62.696820205 74.49238139 28.234922483 63.085888951 75.703663792 29.767875394 63.005780796 76.454226856 31.441398795 
63.186047613 77.042185925 32.769218471 64.668955706 76.374610059 30.231226567 63.251125623 78.42265203 36.528766764 
66.781848772 61.416613447 26.354536789 67.621981059 60.402158519 26.902921503 68.348252173 59.289914787 27.627092773 
69.081195487 58.241769788 28.445532148 69.854774212 57.411781253 29.199954092 70.277469084 56.636731316 30.132721991 
70.572655089 55.881806768 31.160359516 70.730843225 55.118811423 32.142905067 70.674771146 54.373072749 33.015070294 
70.194970847 53.662571718 33.734009145 70.717027519 52.682550635 34.840695629 69.612839795 52.91006623 34.486905474 
71.576676251 52.230453037 35.524510829 72.310013091 51.738569853 36.515767545 72.923245772 51.125949455 37.644525744 
73.353777725 50.543439249 38.902868688 73.572642376 49.817435707 40.458857918 74.252988104 49.581604696 42.023519014 
74.647068313 49.590716151 43.412015536 74.523058588 49.623463304 44.796081886 74.138241554 49.841356249 46.422133971 
73.709378917 49.146466699 43.53857907 73.132274272 49.023622916 42.628113273 72.37420503 49.186320201 41.452558508 
71.570824241 49.357274503 40.428334585 71.008580119 49.768378511 39.391735651 70.506239103 50.201354636 38.280959654 
70.012127995 50.806019406 37.213970351 69.597584153 51.434814985 36.210739911 68.50228652 54.616549264 32.408042572 
69.140848078 53.986027045 33.261308767 68.065008769 55.396620293 31.410696324 67.772310805 56.283361731 30.312014411 
67.722076697 57.466646617 29.111348291 67.0020164 58.665759157 28.026704601 66.438663671 59.807917551 27.264309779 
66.052692852 60.684717746 26.737759976 64.414983428 72.069818573 26.022113421 68.876774446 57.049611411 29.483212993 
69.062839303 56.379889877 30.28461597 69.327328086 55.667680257 31.245675872 69.587423183 54.975585739 32.13813357 
69.800807233 54.435769149 32.800205753 71.697021411 50.629835094 37.945973075 71.208120066 51.196944397 36.905915619 
72.129479432 50.157912189 39.032774883 72.435332535 49.752838144 39.946200316 65.403057459 78.865536803 45.896973674 
65.221652011 78.621659852 46.793894954 65.400450297 77.246246371 51.692966761 64.641992484 77.676574612 49.953649195 
65.9154387 76.859441142 52.804067853 70.495739959 64.889165606 57.729944934 70.2418492 66.345712569 58.016032238 
69.961207159 67.793927193 58.09504732 69.670596217 69.231109895 58.099047715 69.363574479 70.621870909 57.914923696 
69.357959568 52.121149684 35.309433584 70.253358492 52.143997328 35.351532544 70.673454206 51.716842953 35.987264271 
64.174118852 77.126643521 32.423599025 64.369806231 76.801258567 31.470889421 64.100616972 75.383405784 28.969330516 
64.150104825 74.722736281 28.032738274 64.415304824 73.715300565 27.097939996 64.901839247 72.919901236 26.527901702 
64.984077108 78.26058367 48.086062443 74.88160156 53.927653155 51.300577561 63.931287555 78.35531188 35.690245855 

POLYGONS 1060 4236
OFFSETS vtktypeint64
0 4 8 12 16 20 24 28 32 
36 40 44 48 52 56 60 64 68 
72 76 80 84 88 92 96 100 104 
108 112 116 120 124 128 132 136 140 
144 148 152 156 160 164 168 172 176 
180 184 188 192 196 200 204 208 212 
216 220 224 228 232 236 240 244 248 
252 256 260 264 268 272 276 280 284 
288 292 296 300 304 308 312 316 320 
324 328 332 336 340 344 348 352 356 
360 364 368 372 376 380 384 388 392 
396 400 404 408 412 416 420 424 428 
432 436 440 444 448 452 456 460 464 
468 472 476 480 484 488 492 496 500 
504 508 512 516 520 524 528 532 536 
540 544 548 552 556 560 564 568 572 
576 580 584 588 592 596 600 604 608 
612 616 620 624 628 632 636 640 644 
648 652 656 660 664 668 672 676 680 
684 688 692 696 700 704 708 712 716 
720 724 728 732 736 740 744 748 752 
756 760 764 768 772 776 780 784 788 
792 796 800 804 808 812 816 820 824 
828 832 836 840 844 848 852 856 860 
864 868 872 876 880 884 888 892 896 
900 904 908 912 916 920 924 928 932 
936 940 944 948 952 956 960 964 968 
972 976 980 984 988 992 996 1000 1004 
1008 1012 1016 1020 1024 1028 1032 1036 1040 
1044 1048 1052 1056 1060 1064 1068 1072 1076 
1080 1084 1088 1092 1096 1100 1104 1108 1112 
1116 1120 1124 1128 1132 1136 1140 1144 1148 
1152 1156 1160 1164 1168 1172 1176 1180 1184 
1188 1192 1196 1200 1204 1208 1212 1216 1220 
1224 1228 1232 1236 1240 1244 1248 1252 1256 
1260 1264 1268 1272 1276 1280 1284 1288 1292 
1296 1300 1304 1308 1312 1316 1320 1324 1328 
1332 1336 1340 1344 1348 1352 1356 1360 1364 
1368 1372 1376 1380 1384 1388 1392 1396 1400 
1404 1408 1412 1416 1420 1424 1428 1432 1436 
1440 1444 1448 1452 1456 1460 1464 1468 1472 
1476 1480 1484 1488 1492 1496 1500 1504 1508 
1512 1516 1520 1524 1528 1532 1536 1540 1544 
1548 1552 1556 1560 1564 1568 1572 1576 1580 
1584 1588 1592 1596 1600 1604 1608 1612 1616 
1620 1624 1628 1632 1636 1640 1644 1648 1652 
1656 1660 1664 1668 1672 1676 1680 1684 1688 
1692 1696 1700 1704 1708 1712 1716 1720 1724 
1728 1732 1736 1740 1744 1748 1752 1756 1760 
1764 1768 1772 1776 1780 1784 1788 1792 1796 
1800 1804 1808 1812 1816 1820 1824 1828 1832 
1836 1840 1844 1848 1852 1856 1860 1864 1868 
1872 1876 1880 1884 1888 1892 1896 1900 1904 
1908 1912 1916 1920 1924 1928 1932 1936 1940 
1944 1948 1952 1956 1960 1964 1968 1972 1976 
1980 1984 1988 1992 1996 2000 2004 2008 2012 
2016 2020 2024 2028 2032 2036 2040 2044 2048 
2052 2056 2060 2064 2068 2072 2076 2080 2084 
2088 2092 2096 2100 2104 2108 2112 2116 2120 
2124 2128 2132 2136 2140 2144 2148 2152 2156 
2160 2164 2168 2172 2176 2180 2184 2188 2192 
2196 2200 2204 2208 2212 2216 2220 2224 2228 
2232 2236 2240 2244 2248 2252 2256 2260 2264 
2268 2272 2276 2280 2284 2288 2292 2296 2300 
2304 2308 2312 2316 2320 2324 2328 2332 2336 
2340 2344 2348 2352 2356 2360 2364 2368 2372 
2376 2380 2384 2388 2392 2396 2400 2404 2408 
2412 2416 2420 2424 2428 2432 2436 2440 2444 
2448 2452 2456 2460 2464 2468 2472 2476 2480 
2484 2488 2492 2496 2500 2504 2508 2512 2516 
2520 2524 2528 2532 2536 2540 2544 2548 2552 
2556 2560 2564 2568 2572 2576 2580 2584 2588 
2592 2596 2600 2604 2608 2612 2616 2620 2624 
2628 2632 2636 2640 2644 2648 2652 2656 2660 
2664 2668 2672 2676 2680 2684 2688 2692 2696 
2700 2704 2708 2712 2716 2720 2724 2728 2732 
2736 2740 2744 2748 2752 2756 2760 2764 2768 
2772 2776 2780 2784 2788 2792 2796 2800 2804 
2808 2812 2816 2820 2824 2828 2832 2836 2840 
2844 2848 2852 2856 2860 2864 2868 2872 2876 
2880 2884 2888 2892 2896 2900 2904 2908 2912 
2916 2920 2924 2928 2932 2936 2940 2944 2948 
2952 2956 2960 2964 2968 2972 2976 2980 2984 
2988 2992 2996 3000 3004 3008 3012 3016 3020 
3024 3028 3032 3036 3040 3044 3048 3052 3056 
3060 3064 3068 3072 3076 3080 3084 3088 3092 
3096 3100 3104 3108 3112 3116 3120 3124 3128 
3132 3136 3140 3144 3148 3152 3156 3160 3164 
3168 3172 3176 3180 3184 3188 3192 3196 3200 
3204 3208 3212 3216 3220 3224 3228 3232 3236 
3240 3244 3248 3252 3256 3260 3264 3268 3272 
3276 3280 3284 3288 3292 3296 3300 3304 3308 
3312 3316 3320 3324 3328 3332 3336 3340 3344 
3348 3352 3356 3360 3364 3368 3372 3376 3380 
3384 3388 3392 3396 3400 3404 3408 3412 3416 
3420 3424 3428 3432 3436 3440 3444 3448 3452 
3456 3460 3464 3468 3472 3476 3480 3484 3488 
3492 3496 3500 3504 3508 3512 3516 3520 3524 
3528 3532 3536 3540 3544 3548 3552 3556 3560 
3564 3568 3572 3576 3580 3584 3588 3592 3596 
3600 3604 3608 3612 3616 3620 3624 3628 3632 
3636 3640 3644 3648 3652 3656 3660 3664 3668 
3672 3676 3680 3684 3688 3692 3696 3700 3704 
3708 3712 3716 3720 3724 3728 3732 3736 3740 
3744 3748 3752 3756 3760 3764 3768 3772 3776 
3780 3784 3788 3792 3796 3800 3804 3808 3812 
3816 3820 3824 3828 3832 3836 3840 3844 3848 
3852 3856 3860 3864 3868 3872 3876 3880 3884 
3888 3892 3896 3900 3904 3908 3912 3916 3920 
3924 3928 3932 3936 3940 3944 3948 3952 3956 
3960 3964 3968 3972 3976 3980 3984 3988 3992 
3996 4000 4004 4008 4012 4016 4020 4024 4028 
4032 4036 4040 4044 4048 4052 4056 4060 4064 
4068 4072 4076 4080 4084 4088 4092 4096 4100 
4104 4108 4112 4116 4120 4124 4128 4132 4136 
4140 4144 4148 4152 4156 4160 4164 4168 4172 
4176 4180 4184 4188 4192 4196 4200 4204 4208 
4212 4216 4220 4224 4228 4232 4236 
CONNECTIVITY vtktypeint64
0 1 2 3 1 4 5 2 4 
6 7 5 6 8 9 7 8 10 
11 9 10 12 13 11 12 14 15 
13 14 16 17 15 16 18 19 17 
18 20 21 19 20 22 23 21 22 
24 25 23 24 26 27 25 26 28 
29 27 28 30 31 29 30 32 33 
31 32 34 35 33 34 36 37 35 
36 38 39 37 38 40 41 39 40 
42 43 41 42 44 45 43 44 46 
47 45 46 48 49 47 48 50 51 
49 50 52 53 51 52 54 55 53 
54 56 57 55 56 58 59 57 58 
60 61 59 60 62 63 61 62 64 
65 63 64 66 67 65 66 68 69 
67 68 70 71 69 70 72 73 71 
72 74 75 73 74 76 77 75 76 
78 79 77 78 80 81 79 80 82 
83 81 82 84 85 83 84 86 87 
85 86 88 89 87 88 90 91 89 
90 92 93 91 92 94 95 93 94 
96 97 95 96 98 99 97 98 100 
101 99 100 102 103 101 102 104 105 
103 104 106 107 105 106 108 109 107 
108 110 111 109 110 0 3 111 112 
113 114 115 113 116 117 114 116 118 
119 117 118 120 121 119 120 122 123 
121 122 124 125 123 124 126 127 125 
126 128 129 127 128 130 131 129 130 
132 133 131 132 134 135 133 134 136 
137 135 136 138 139 137 138 140 141 
139 140 142 143 141 142 144 145 143 
144 146 147 145 146 148 149 147 148 
150 151 149 150 152 153 151 152 154 
155 153 154 156 157 155 156 158 159 
157 158 160 161 159 160 162 163 161 
162 164 165 163 164 166 167 165 166 
168 169 167 168 170 171 169 170 172 
173 171 172 174 175 173 174 176 177 
175 176 178 179 177 178 180 181 179 
180 182 183 181 182 184 185 183 184 
186 187 185 186 188 189 187 188 190 
191 189 190 192 193 191 192 194 195 
193 194 196 197 195 196 198 199 197 
198 200 201 199 200 202 203 201 202 
204 205 203 204 206 207 205 206 208 
209 207 208 210 211 209 210 212 213 
211 212 214 215 213 214 216 217 215 
216 218 219 217 218 220 221 219 220 
222 223 221 222 224 225 223 224 226 
227 225 226 112 115 227 2 5 228 
229 5 7 230 228 7 9 231 230 
9 11 232 231 11 13 233 232 13 
15 234 233 15 17 235 234 17 19 
236 235 19 21 237 236 21 23 238 
237 23 25 239 238 25 27 240 239 
27 29 241 240 29 31 242 241 31 
33 243 242 33 35 244 243 35 37 
245 244 37 39 246 245 39 41 247 
246 41 43 248 247 43 45 249 248 
45 47 250 249 47 49 251 250 49 
51 252 251 51 53 253 252 53 55 
254 253 55 57 255 254 57 59 256 
255 59 61 257 256 61 63 258 257 
63 65 259 258 65 67 260 259 67 
69 261 260 69 71 262 261 71 73 
263 262 73 75 264 263 75 77 265 
264 77 79 266 265 79 81 267 266 
81 83 268 267 83 85 269 268 85 
87 270 269 87 89 271 270 89 91 
272 271 91 93 273 272 93 95 274 
273 95 97 275 274 97 99 276 275 
99 101 277 276 101 103 278 277 103 
105 279 278 105 107 280 279 107 109 
281 280 109 111 282 281 111 3 283 
282 3 2 229 283 114 117 284 285 
117 119 286 284 119 121 287 286 121 
123 288 287 123 125 289 288 125 127 
290 289 127 129 291 290 129 131 292 
291 131 133 293 292 133 135 294 293 
135 137 295 294 137 139 296 295 139 
141 297 296 141 143 298 297 143 145 
299 298 145 147 300 299 147 149 301 
300 149 151 302 301 151 153 303 302 
153 155 304 303 155 157 305 304 157 
159 306 305 159 161 307 306 161 163 
308 307 163 165 309 308 165 167 310 
309 167 169 311 310 169 171 312 311 
171 173 313 312 173 175 314 313 175 
177 315 314 177 179 316 315 179 181 
317 316 181 183 318 317 183 185 319 
318 185 187 320 319 187 189 321 320 
189 191 322 321 191 193 323 322 193 
195 324 323 195 197 325 324 197 199 
326 325 199 201 327 326 201 203 328 
327 203 205 329 328 205 207 330 329 
207 209 331 330 209 211 332 331 211 
213 333 332 213 215 334 333 215 217 
335 334 217 219 336 335 219 221 337 
336 221 223 338 337 223 225 339 338 
225 227 340 339 227 115 341 340 115 
114 285 341 228 230 342 343 230 231 
344 342 231 232 345 344 232 233 346 
345 233 234 347 346 234 235 348 347 
235 236 349 348 236 237 350 349 237 
238 351 350 238 239 352 351 239 240 
353 352 240 241 354 353 241 242 355 
354 242 243 356 355 243 244 357 356 
244 245 358 357 245 246 359 358 246 
247 360 359 247 248 361 360 248 249 
362 361 250 251 363 364 251 252 365 
363 252 253 366 365 253 254 367 366 
254 255 368 367 255 256 369 368 256 
257 370 369 257 258 371 370 258 259 
372 371 259 260 373 372 260 261 374 
373 261 262 375 374 262 263 376 375 
263 264 377 376 264 265 378 377 265 
266 379 378 266 267 380 379 267 268 
381 380 268 269 382 381 269 270 383 
382 270 271 384 383 272 273 385 386 
273 274 387 385 274 275 388 387 275 
276 389 388 276 277 390 389 277 278 
391 390 278 279 392 391 279 280 393 
392 280 281 394 393 281 282 395 394 
282 283 396 395 283 229 397 396 229 
228 343 397 249 250 364 398 362 249 
398 399 271 272 386 400 384 271 400 
401 284 286 402 403 286 287 404 402 
287 288 405 404 288 289 406 405 289 
290 407 406 290 291 408 407 291 292 
409 408 292 293 410 409 293 294 411 
410 294 295 412 411 295 296 413 412 
296 297 414 413 297 298 415 414 298 
299 416 415 299 300 417 416 300 301 
418 417 301 302 419 418 302 303 420 
419 303 304 421 420 304 305 422 421 
305 306 423 422 306 307 424 423 307 
308 425 424 308 309 426 425 309 310 
427 426 310 311 428 427 311 312 429 
428 312 313 430 429 313 314 431 430 
314 315 432 431 315 316 433 432 316 
317 434 433 317 318 435 434 318 319 
436 435 319 320 437 436 320 321 438 
437 321 322 439 438 322 323 440 439 
323 324 441 440 324 325 442 441 325 
326 443 442 326 327 444 443 327 328 
445 444 328 329 446 445 329 330 447 
446 330 331 448 447 331 332 449 448 
332 333 450 449 333 334 451 450 334 
335 452 451 335 336 453 452 336 337 
454 453 337 338 455 454 338 339 456 
455 339 340 457 456 340 341 458 457 
341 285 459 458 285 284 403 459 401 
400 460 461 400 386 462 460 386 385 
463 462 385 387 464 463 387 388 465 
464 388 389 466 465 389 390 467 466 
390 391 468 467 391 392 469 468 392 
393 470 469 393 394 471 470 394 395 
472 471 395 396 473 472 396 397 474 
473 397 343 475 474 343 342 476 475 
342 344 477 476 344 345 478 477 345 
346 479 478 346 347 480 479 347 348 
481 480 348 349 482 481 349 350 483 
482 350 351 484 483 351 352 485 484 
352 353 486 485 353 354 487 486 354 
355 488 487 355 356 489 488 356 357 
490 489 357 358 491 490 358 359 492 
491 359 360 493 492 360 361 494 493 
361 362 495 494 362 399 496 495 399 
497 498 496 399 398 499 497 398 364 
500 499 364 363 501 500 363 365 502 
501 365 366 503 502 366 367 504 503 
367 368 505 504 368 369 506 505 369 
370 507 506 370 371 508 507 371 372 
509 508 372 373 510 509 373 374 511 
510 374 375 512 511 375 376 513 512 
376 377 514 513 377 378 515 514 378 
379 516 515 379 380 517 516 380 381 
518 517 381 382 519 518 382 383 520 
519 383 384 521 520 384 401 522 521 
401 461 523 522 461 524 525 523 461 
460 526 524 402 404 527 528 404 405 
529 527 405 406 530 529 406 407 531 
530 407 408 532 531 408 409 533 532 
409 410 534 533 410 411 535 534 411 
412 536 535 412 413 537 536 413 414 
538 537 414 415 539 538 415 416 540 
539 416 417 541 540 417 418 542 541 
419 420 543 544 420 421 545 543 421 
422 546 545 422 423 547 546 423 424 
548 547 424 425 549 548 425 426 550 
549 426 427 551 550 427 428 552 551 
428 429 553 552 429 430 554 553 430 
431 555 554 431 432 556 555 432 433 
557 556 433 434 558 557 434 435 559 
558 435 436 560 559 436 437 561 560 
437 438 562 561 438 439 563 562 439 
440 564 563 440 441 565 564 441 442 
566 565 442 443 567 566 443 444 568 
567 444 445 569 568 445 446 570 569 
446 447 571 570 447 448 572 571 448 
449 573 572 449 450 574 573 450 451 
575 574 451 452 576 575 452 453 577 
576 453 454 578 577 454 455 579 578 
455 456 580 579 456 457 581 580 457 
458 582 581 458 459 583 582 459 403 
584 583 403 402 528 584 418 419 544 
585 542 418 585 586 460 462 587 526 
462 463 588 587 463 464 589 588 464 
465 590 589 465 466 591 590 466 467 
592 591 467 468 593 592 468 469 594 
593 469 470 595 594 470 471 596 595 
471 472 597 596 473 474 598 599 474 
475 600 598 475 476 601 600 476 477 
602 601 477 478 603 602 478 479 604 
603 479 480 605 604 480 481 606 605 
481 482 607 606 482 483 608 607 483 
484 609 608 484 485 610 609 485 486 
611 610 486 487 612 611 487 488 613 
612 488 489 614 613 489 490 615 614 
490 491 616 615 491 492 617 616 492 
493 618 617 493 494 619 618 494 495 
620 619 495 496 621 620 496 498 622 
621 498 623 624 622 498 497 625 623 
497 499 626 625 499 500 627 626 500 
501 628 627 501 502 629 628 502 503 
630 629 503 504 631 630 504 505 632 
631 505 506 633 632 506 507 634 633 
507 508 635 634 508 509 636 635 509 
510 637 636 510 511 638 637 511 512 
639 638 512 513 640 639 513 514 641 
640 514 515 642 641 515 516 643 642 
516 517 644 643 517 518 645 644 518 
519 646 645 519 520 647 646 520 521 
648 647 521 522 649 648 522 523 650 
649 523 525 651 650 525 652 653 651 
525 524 654 652 524 526 587 654 472 
473 599 655 597 472 655 656 586 585 
657 658 585 544 659 657 544 543 660 
659 543 545 661 660 545 546 662 661 
546 547 663 662 547 548 664 663 548 
549 665 664 549 550 666 665 550 551 
667 666 551 552 668 667 552 553 669 
668 553 554 670 669 554 555 671 670 
555 556 672 671 556 557 673 672 557 
558 674 673 558 559 675 674 559 560 
676 675 560 561 677 676 561 562 678 
677 562 563 679 678 563 564 680 679 
564 565 681 680 565 566 682 681 566 
567 683 682 567 568 684 683 568 569 
685 684 569 570 686 685 570 571 687 
686 571 572 688 687 572 573 689 688 
573 574 690 689 574 575 691 690 575 
576 692 691 576 577 693 692 577 578 
694 693 578 579 695 694 579 580 696 
695 580 581 697 696 581 582 698 697 
582 583 699 698 583 584 700 699 584 
528 701 700 528 527 702 701 527 529 
703 702 529 530 704 703 530 531 705 
704 531 532 706 705 532 533 707 706 
533 534 708 707 534 535 709 708 535 
536 710 709 536 537 711 710 537 538 
712 711 538 539 713 712 539 540 714 
713 540 541 715 714 541 542 716 715 
542 586 717 716 586 658 718 717 658 
719 720 718 658 657 721 719 587 588 
722 654 588 589 723 722 589 590 724 
723 590 591 725 724 591 592 726 725 
592 593 727 726 593 594 728 727 594 
595 729 728 595 596 730 729 596 597 
731 730 597 656 732 731 656 733 734 
732 656 655 735 733 655 599 736 735 
599 598 737 736 598 600 738 737 600 
601 739 738 601 602 740 739 602 603 
741 740 603 604 742 741 604 605 743 
742 605 606 744 743 606 607 745 744 
608 609 746 747 609 610 748 746 610 
611 749 748 611 612 750 749 612 613 
751 750 613 614 752 751 614 615 753 
752 615 616 754 753 617 618 755 756 
618 619 620 755 607 608 747 757 745 
607 757 758 616 617 756 759 754 616 
759 760 621 622 761 762 622 624 763 
761 624 764 765 763 624 623 766 764 
623 625 767 766 625 626 768 767 626 
627 628 768 628 629 769 768 629 630 
770 769 630 631 771 770 631 632 772 
771 632 633 773 772 633 634 774 773 
634 635 775 774 635 636 776 775 636 
637 777 776 637 638 778 777 638 639 
779 778 639 640 780 779 640 641 781 
780 641 642 782 781 642 643 783 782 
643 644 784 783 644 645 785 784 645 
646 786 785 646 647 648 786 648 649 
787 786 649 650 788 787 650 651 789 
788 651 653 790 789 653 791 792 790 
653 652 793 791 652 654 722 793 657 
659 794 721 659 660 795 794 660 661 
796 795 661 662 797 796 662 663 798 
797 663 664 799 798 664 665 800 799 
665 666 801 800 666 667 802 801 667 
668 803 802 668 669 804 803 669 670 
805 804 670 671 806 805 672 673 807 
808 673 674 809 807 674 675 810 809 
675 676 811 810 676 677 812 811 677 
678 813 812 678 679 814 813 679 680 
815 814 680 681 816 815 681 682 817 
816 682 683 818 817 683 684 819 818 
684 685 820 819 685 686 821 820 686 
687 822 821 687 688 823 822 688 689 
824 823 689 690 825 824 690 691 826 
825 691 692 827 826 692 693 828 827 
693 694 829 828 694 695 830 829 695 
696 831 830 696 697 832 831 697 698 
833 832 698 699 834 833 699 700 835 
834 700 701 836 835 701 702 837 836 
702 703 838 837 703 704 839 838 704 
705 840 839 705 706 841 840 706 707 
842 841 707 708 843 842 708 709 844 
843 709 710 845 844 710 711 846 845 
711 712 847 846 712 713 848 847 713 
714 849 848 714 715 850 849 715 716 
851 850 716 717 852 851 717 718 853 
852 718 720 854 853 720 855 856 854 
720 719 857 855 719 721 794 857 671 
672 808 858 806 671 858 859 768 769 
860 767 769 770 861 860 771 772 862 
863 772 773 864 862 773 774 865 864 
774 775 866 865 775 776 867 866 776 
777 868 867 777 778 869 868 778 779 
870 869 779 780 871 870 780 781 872 
871 781 782 873 872 782 783 874 873 
783 784 875 874 784 785 876 875 785 
786 787 877 876 785 877 878 722 723 
879 793 723 724 880 879 724 725 881 
880 725 726 882 881 726 727 883 882 
727 728 884 883 728 729 885 884 729 
730 886 885 730 731 887 886 731 732 
888 887 732 734 889 888 734 890 891 
889 734 733 892 890 733 735 893 892 
735 736 894 893 736 737 895 894 737 
738 896 895 738 739 897 896 739 740 
741 897 741 742 898 897 742 743 899 
898 743 744 900 899 744 745 901 900 
745 758 902 901 758 903 904 902 758 
757 905 903 757 747 906 905 747 746 
907 906 746 748 908 907 748 749 909 
908 621 762 755 620 762 761 910 911 
761 763 912 910 765 764 913 914 764 
766 915 913 766 767 860 915 794 795 
916 857 795 796 917 916 796 797 918 
917 797 798 919 918 798 799 920 919 
799 800 921 920 800 801 922 921 801 
802 891 922 802 803 923 891 803 804 
924 923 804 805 925 924 805 806 926 
925 808 807 927 928 807 809 929 927 
809 810 930 929 810 811 931 930 811 
812 932 931 812 813 933 932 813 814 
934 933 814 815 935 934 815 816 936 
935 816 817 937 936 817 818 938 937 
819 820 939 940 820 821 941 939 821 
822 942 941 822 823 943 942 823 824 
944 943 824 825 945 944 825 826 946 
945 827 828 947 948 828 829 949 947 
829 830 950 949 830 831 951 950 831 
832 952 951 832 833 953 952 833 834 
954 953 834 835 913 954 835 836 914 
913 818 819 940 955 938 818 955 956 
770 771 863 957 861 770 957 958 826 
827 948 959 946 826 959 960 836 837 
961 914 837 838 962 961 838 839 963 
962 839 840 964 963 840 841 965 964 
841 842 966 965 842 843 967 966 843 
844 968 967 844 845 969 968 845 846 
970 969 846 847 971 970 847 848 972 
971 848 849 973 972 849 850 974 973 
850 851 975 974 851 852 976 975 852 
853 977 976 853 854 978 977 854 856 
904 978 856 979 902 904 751 752 980 
981 752 753 982 980 753 754 983 982 
754 760 984 983 760 985 986 984 760 
759 987 985 759 756 911 987 756 755 
762 911 962 963 910 912 963 964 911 
910 964 965 987 911 965 966 985 987 
966 967 986 985 929 930 988 989 930 
931 990 988 931 932 991 990 932 933 
992 991 933 934 993 992 934 935 994 
993 935 936 995 994 956 878 877 996 
967 968 997 986 968 969 998 997 969 
970 999 998 970 971 1000 999 971 972 
1001 1000 972 973 1002 1001 973 974 1003 
1002 975 976 1003 974 976 977 1004 1003 
977 978 1005 1004 978 904 903 1005 903 
905 1006 1005 905 906 1007 1006 906 907 
1008 1007 907 908 1009 1008 908 909 1010 
1009 909 751 981 1010 749 750 751 909 
857 916 1011 855 916 917 1012 1011 917 
918 1013 1012 918 919 1014 1013 919 920 
1015 1014 920 921 1016 1015 921 922 1017 
1016 922 891 890 1017 897 898 1018 896 
898 899 1019 1018 899 900 1020 1019 900 
901 1021 1020 901 902 979 1021 890 892 
1022 1017 892 893 1023 1022 893 894 1024 
1023 894 895 1025 1024 895 896 1018 1025 
1005 1006 1026 1004 1006 1007 1027 1026 1007 
1008 1028 1027 1008 1009 1029 1028 1009 1010 
1030 1029 1010 981 1031 1030 981 980 1032 
1031 982 983 1032 980 983 984 1033 1032 
984 986 997 1033 891 923 1034 889 923 
924 1035 1034 924 925 1036 1035 925 926 
1037 1036 859 858 1038 1039 793 879 1040 
791 879 880 1041 1040 880 881 1042 1041 
881 882 1043 1042 882 883 1044 1043 883 
884 1039 1044 927 929 989 1045 885 886 
1037 1046 956 955 1047 878 955 940 1048 
1047 940 939 1049 1048 939 941 1050 1049 
941 942 1051 1050 942 943 1052 1051 943 
944 1053 1052 944 945 1054 1053 945 946 
1055 1054 946 960 1056 1055 960 1057 1058 
1056 960 959 1059 1057 959 948 1060 1059 
948 947 1061 1060 947 949 1062 1061 949 
950 1063 1062 950 951 1064 1063 951 952 
1065 1064 952 953 1066 1065 953 954 1067 
1066 954 913 915 1067 886 887 1036 1037 
887 888 1035 1036 888 889 1034 1035 860 
861 1067 915 861 958 1066 1067 787 788 
996 877 1066 958 1068 1065 958 957 1069 
1068 957 863 1070 1069 863 862 1071 1070 
862 864 1072 1071 864 865 1073 1072 865 
866 1074 1073 866 867 1075 1074 869 870 
1076 1077 870 871 1078 1076 871 872 1079 
1078 872 873 1080 1079 873 874 1081 1080 
874 875 1082 1081 875 876 1083 1082 876 
878 1047 1083 788 789 995 996 789 790 
994 995 790 792 993 994 792 1084 992 
993 1047 1048 1082 1083 1048 1049 1081 1082 
1049 1050 1080 1081 1050 1051 1085 1080 1051 
1052 1086 1085 1052 1053 1087 1086 1053 1054 
1088 1087 1054 1055 1089 1088 1055 1056 1077 
1089 1056 1058 869 1077 1065 1068 1069 1064 
1060 1061 1090 1091 1061 1062 1092 1090 1062 
1063 1093 1092 1063 1064 1069 1070 792 791 
1040 1084 856 855 1011 979 1070 1071 1093 
1063 1017 1022 1094 1016 1022 1023 1095 1094 
1019 1020 1096 1097 1020 1021 1098 1096 1021 
979 1011 1098 1071 1072 1092 1093 1072 1073 
1090 1092 1073 1074 1091 1090 997 998 1099 
1033 998 999 1100 1099 999 1000 1101 1100 
1000 1001 1102 1101 1001 1002 1103 1102 1002 
1003 1004 1103 867 868 1104 1075 868 869 
1058 1104 1032 1033 1099 1031 1058 1057 1105 
1104 1074 1075 1106 1091 1075 1104 1105 1106 
1038 1107 1044 1039 1077 1076 1088 1089 1107 
1108 1043 1044 1076 1078 1087 1088 1043 1108 
1045 1042 1078 1079 1086 1087 1045 989 1109 
1042 989 988 1110 1109 988 990 1111 1110 
990 991 1112 1111 991 992 1084 1112 1080 
1085 1086 1079 1042 1109 1110 1041 1011 1012 
1096 1098 1012 1013 1097 1096 1004 1026 1027 
1103 1013 1014 1113 1097 1027 1028 1102 1103 
1016 1094 1095 1015 1028 1029 1101 1102 1100 
1101 1029 1030 1030 1031 1099 1100 858 808 
928 1038 1045 1108 928 927 1108 1107 1038 
928 912 763 765 1114 1114 765 914 961 
962 912 1114 961 995 936 937 938 938 
956 996 995 1113 1014 1015 1095 1023 1024 
1113 1095 1025 1018 1019 1097 1113 1024 1025 
1097 1037 926 1115 1046 926 806 859 1115 
1115 859 1039 884 1046 1115 884 885 1110 
1111 1040 1041 1111 1112 1084 1040 1059 1060 
1091 1106 1059 1106 1105 1057 
CELL_DATA 1059
FIELD FieldData 6
Stress_X 1 1059 double
-6.0173377278e-05 -3.0899373087e-05 -1.6199728634e-05 -2.7569967642e-06 4.8475299081e-06 1.090825026e-05 1.8864486265e-05 2.7597825465e-05 2.5307086617e-05 
1.9325852918e-05 1.6639140085e-05 1.5974761482e-05 1.455070651e-05 2.2233078198e-05 2.3486501959e-05 1.3467615645e-05 4.0537747736e-06 -4.1007488107e-06 
-9.4072020147e-06 -7.8891562225e-06 -2.4985909022e-06 2.0374964151e-06 8.3989953055e-06 1.6678812244e-05 1.9523846277e-05 2.1804204152e-05 2.0352717911e-05 
1.133519163e-05 4.4286234697e-06 -4.0242998693e-06 -1.3280257917e-05 -1.7623535314e-05 -2.0564268198e-05 -2.2919593903e-05 -1.6846370272e-05 -8.5296242105e-06 
-4.9231052799e-06 -3.5355390082e-07 8.9518416644e-06 2.2055983209e-05 4.6019013098e-05 6.4546715294e-05 6.7657703767e-05 6.3287618104e-05 6.7999179009e-05 
6.8322464358e-05 5.8093723055e-05 4.1140177927e-05 2.6516541766e-05 2.2037991585e-05 2.3297474399e-05 2.2633543267e-05 1.2082476132e-05 -1.1411282685e-05 
-3.4261272958e-05 -6.3525498263e-05 4.5611272071e-05 2.161699922e-05 8.1385351223e-06 -4.2475594455e-06 -1.6626736397e-05 -2.7121459425e-05 -3.5667235352e-05 
-3.7198125938e-05 -3.557931268e-05 -2.9102082408e-05 -1.9802841052e-05 -1.1884716514e-05 -2.1823625502e-06 6.0829884205e-06 1.5563975467e-05 2.7973321266e-05 
4.0685663407e-05 5.5787386373e-05 5.4204971093e-05 3.8782629417e-05 3.4037399018e-05 2.5028459277e-05 1.3069956367e-05 1.5498209223e-06 -7.317414088e-07 
9.8697664725e-06 1.4313615793e-05 1.4741960513e-05 1.2645029528e-05 1.9201152099e-06 3.9246988308e-06 2.5467495561e-06 1.771429379e-05 2.5806260965e-05 
3.5680946894e-05 3.7346690078e-05 4.0013495891e-05 3.5551584006e-05 3.7663608964e-05 3.4133165173e-05 3.0084220271e-05 2.5716943128e-05 2.2573358365e-05 
1.9637158402e-05 1.2369292563e-05 5.3122139434e-06 -2.9124944376e-06 -1.4522399397e-05 -2.0867404601e-05 -2.623563887e-05 -1.7388843844e-05 3.5953501083e-06 
2.9004282624e-05 5.2744642744e-05 8.7336367869e-05 8.5723193479e-05 6.3547391619e-05 5.6506054534e-05 -2.4216329621e-05 -8.7121443357e-06 1.969525556e-06 
9.7858483059e-06 1.3793459402e-05 1.576629802e-05 2.7839199902e-05 3.3561631426e-05 2.6881278245e-05 2.2625548809e-05 2.1170531909e-05 2.4639499316e-05 
3.1273724744e-05 3.507945803e-05 3.1437870348e-05 2.2138241548e-05 1.001225246e-05 3.6176746221e-07 -5.4450283642e-06 -4.2071578719e-06 1.7176532197e-07 
3.4368704291e-06 1.1555666788e-05 1.43162315e-05 1.5284473193e-05 8.9084369392e-06 -1.2761448716e-06 -8.4510602392e-06 -1.3483426301e-05 -1.57538434e-05 
-1.5953861293e-05 -1.5940793674e-05 -1.066317509e-05 -4.3666784677e-07 6.8775070758e-06 1.248667013e-05 2.1235013264e-05 3.610087515e-05 5.229258386e-05 
7.0798385423e-05 7.8090815805e-05 6.9217305281e-05 5.9961213992e-05 4.9625112297e-05 4.1094208427e-05 3.5169749026e-05 3.3432952478e-05 3.0291994335e-05 
3.1692437915e-05 3.4720927943e-05 3.7110505218e-05 2.9427714253e-05 6.2289150264e-06 -1.5295254343e-05 -3.3258009353e-05 -3.5142194974e-05 2.6826564863e-05 
2.0224442778e-05 1.3340392798e-05 -1.4500157022e-06 -1.4550433661e-05 -2.2574042305e-05 -2.6439052817e-05 -2.1421206839e-05 -1.53910878e-05 -4.326655926e-06 
3.2838700008e-06 7.0189425969e-06 1.1467248441e-05 1.5736541172e-05 2.2653886845e-05 2.9367338357e-05 3.9703470975e-05 4.8632682592e-05 4.546321361e-05 
4.2311428842e-05 3.714723789e-05 2.5263978387e-05 9.6872190625e-06 4.8612746468e-06 1.1512055607e-05 1.9400553356e-05 2.2723039365e-05 1.5395424271e-05 
1.0048866898e-05 4.9639274948e-06 6.157576081e-06 1.3035371012e-05 2.4505237889e-05 2.710962508e-05 3.4945354855e-05 3.7646430428e-05 3.683414252e-05 
3.4554537706e-05 2.9175080272e-05 1.863324178e-05 1.6079122361e-05 1.7524234863e-05 1.7098063836e-05 1.513699317e-05 6.2673279899e-06 -2.607726401e-06 
-5.4548791013e-06 -8.6700065367e-06 -7.8875673353e-06 5.6067783589e-06 2.629204937e-05 5.5992983107e-05 8.2032645878e-05 9.9262346339e-05 6.7715685873e-05 
4.859190085e-05 5.2079682064e-05 4.4217373215e-05 -3.7020022319e-06 6.3527927523e-06 1.2617982065e-05 1.460014937e-05 1.6492207578e-05 2.3371459974e-05 
2.9787706808e-05 2.7642799978e-05 2.4890592613e-05 2.5663270208e-05 2.8037387892e-05 3.7143396185e-05 4.1030238208e-05 4.0786890168e-05 3.2833919249e-05 
2.2814780095e-05 1.3618431694e-05 6.7261344157e-06 4.0416489355e-06 7.0899804996e-06 8.057822015e-06 1.0241641576e-05 8.307920325e-06 1.9431727196e-06 
-3.9719284359e-06 -1.0061035027e-05 -1.3002464584e-05 -1.2296110981e-05 -8.4054863692e-06 -4.1601542762e-06 2.8044221381e-06 1.2915315892e-05 2.1149864551e-05 
2.7765698178e-05 3.8151953049e-05 5.0749997172e-05 6.4916202973e-05 7.3429480835e-05 7.3719827924e-05 6.4396313974e-05 5.3934101743e-05 3.000173092e-05 
2.5314449886e-05 2.5713294235e-05 2.6557028832e-05 3.0918232369e-05 3.2145566365e-05 3.6238336179e-05 3.5291184759e-05 1.9213528503e-05 2.4742919322e-06 
-1.3040022168e-05 -1.8460135834e-05 -1.415560655e-05 5.9442131715e-06 8.7329372036e-06 3.8636084355e-05 4.1317256546e-05 2.3684082407e-05 1.9635068384e-05 
7.9223345892e-06 -4.1292755668e-06 -1.3556995327e-05 -1.6718977349e-05 -1.3525350369e-05 -6.8910122764e-07 7.7049517131e-06 1.1747811186e-05 1.206395973e-05 
1.5902956875e-05 1.5393128706e-05 1.8105129129e-05 2.0786887035e-05 2.7088770366e-05 3.4277381928e-05 4.0524311771e-05 4.2533887608e-05 4.1124971176e-05 
3.3322034142e-05 1.6878202587e-05 9.6134599517e-06 1.8593014829e-05 2.6844722015e-05 2.938760008e-05 2.444160782e-05 1.7014443074e-05 1.370917289e-05 
1.0898552318e-05 1.677470209e-05 2.425184357e-05 2.9450126021e-05 3.5424724047e-05 3.6282926885e-05 3.355096851e-05 2.9149823604e-05 2.339632556e-05 
1.525245716e-05 1.3335301446e-05 1.5566583897e-05 1.8440661734e-05 1.7039601516e-05 9.7596921478e-06 5.2290574786e-06 5.2411273828e-06 1.3602939362e-06 
6.4727041718e-06 2.0250367015e-05 4.0789218474e-05 6.3048944867e-05 6.8851346441e-05 5.8877827541e-05 4.3845298933e-05 3.8522335672e-05 4.0115086449e-05 
3.5185981687e-05 2.6466364943e-05 2.9893315514e-05 2.37599088e-05 1.7682245016e-05 1.5331679606e-05 2.1931053197e-05 2.9231619919e-05 3.4987002437e-05 
3.7130968849e-05 3.819714766e-05 3.8098220102e-05 3.5299952287e-05 2.0275696443e-05 1.5819989585e-06 -1.2542875083e-05 -5.9985259213e-06 2.2956414796e-06 
1.1347978216e-05 1.5107020772e-05 1.6717855033e-05 1.6757137928e-05 1.9794357286e-05 2.2870332032e-05 2.2133541279e-05 2.2196172722e-05 2.3961705665e-05 
2.8022635888e-05 3.6695491872e-05 4.6884244512e-05 4.6990004194e-05 4.1937430069e-05 3.2992324122e-05 2.6210669603e-05 2.1354569981e-05 1.7253654732e-05 
1.7191845473e-05 1.7116552044e-05 1.5870778952e-05 1.1726050616e-05 7.3994406193e-06 4.5307983783e-06 1.5407965748e-06 1.2773914477e-06 -1.9659923964e-06 
-3.6862300021e-06 -7.5968828241e-06 -7.5871298577e-06 -3.583875241e-06 2.6938457722e-06 8.7041344159e-06 1.7278636733e-05 2.6191108191e-05 3.4400163713e-05 
4.4844244258e-05 5.3872470744e-05 6.2725397584e-05 7.1238086093e-05 7.6083655586e-05 7.2746923252e-05 6.2708684709e-05 5.2814139053e-05 4.2133720854e-05 
3.2281372114e-05 1.9935969249e-05 1.9380791855e-05 2.2244943466e-05 1.61459011e-05 7.103979442e-06 2.1309270437e-07 -2.2865053779e-06 -9.6191558896e-07 
8.0612171587e-06 2.1660474886e-05 2.0131112251e-05 1.885632264e-05 1.8265094695e-05 1.7652957467e-05 1.3445281184e-05 1.3758302885e-05 1.5111383618e-05 
3.4746237361e-05 3.9646438381e-05 4.2232790292e-05 3.7007950596e-05 2.263364695e-05 1.686552605e-05 2.5169925721e-05 3.083663978e-05 3.4967015381e-05 
3.1116178434e-05 2.5543458833e-05 2.0845234758e-05 1.9333818273e-05 2.2932541469e-05 2.8511527489e-05 3.0881717976e-05 3.4372184018e-05 3.0878880352e-05 
2.6549054382e-05 2.4016480893e-05 1.9144970793e-05 1.4167644622e-05 1.3366428902e-05 1.6250525732e-05 1.9339875507e-05 1.9226543372e-05 1.5135167814e-05 
1.5332327166e-05 1.4721708794e-05 1.3435716937e-05 1.8490931325e-05 3.283283877e-05 5.1046408771e-05 5.9512793086e-05 5.2700219385e-05 3.5544075217e-05 
2.4926675906e-05 2.7886402677e-05 3.0666491512e-05 2.8337193726e-05 2.3385151508e-05 2.3538301321e-05 2.6310357498e-05 1.9034034267e-05 1.4195057702e-05 
8.6272175395e-06 9.5826762845e-06 1.9521847207e-05 2.995779505e-05 3.9510810893e-05 4.1371033149e-05 3.9968243073e-05 3.9803857362e-05 4.0805891331e-05 
4.0771254135e-05 -6.0751804085e-06 1.501931024e-06 7.8977464e-06 1.304271882e-05 1.9071887436e-05 1.87736714e-05 1.7756903617e-05 1.7847625713e-05 
1.6627856894e-05 1.7319880499e-05 1.7577229301e-05 2.0275141651e-05 2.5538491172e-05 3.3783744584e-05 4.477929906e-05 5.1127582992e-05 4.824577627e-05 
4.245400487e-05 3.5217675759e-05 3.1392992241e-05 2.6259403967e-05 2.3739246899e-05 2.4525066692e-05 2.1548685254e-05 1.8905355319e-05 1.4171999283e-05 
9.909428627e-06 5.0103317335e-06 -2.0002851215e-06 -1.8688846239e-06 -9.7837551039e-07 -1.3875271634e-06 -4.1534549382e-06 -4.4329035518e-06 -7.676774203e-07 
5.5995133152e-06 1.4410235963e-05 2.3248236175e-05 3.1465067877e-05 3.76261778e-05 4.4372798584e-05 5.6376240536e-05 6.5084641392e-05 6.9670029916e-05 
7.3629897088e-05 7.3600633186e-05 6.9356028689e-05 6.1290680605e-05 5.1304672525e-05 4.3845400796e-05 3.1285639125e-05 2.0547120585e-05 1.0782093341e-05 
9.3222233772e-06 7.6392716437e-06 3.1250931443e-06 2.5524304874e-05 1.6756399418e-05 2.4168966775e-05 2.9606113458e-05 3.5735189158e-05 3.8787948142e-05 
3.7867735955e-05 2.7457137548e-05 2.4973494874e-05 3.0746316042e-05 3.5843968362e-05 3.8469526771e-05 3.6402088881e-05 3.2587184251e-05 2.975015741e-05 
2.8186525014e-05 3.0959534342e-05 3.2871703297e-05 3.2014166209e-05 2.9532848203e-05 2.2284140869e-05 2.1741829187e-05 1.9543687813e-05 1.6087840777e-05 
1.4220014236e-05 1.4334347725e-05 1.7347692847e-05 2.1314448531e-05 2.1823134375e-05 2.233809937e-05 2.5276262022e-05 2.7085636248e-05 2.6738163797e-05 
3.0836494261e-05 4.1926061385e-05 5.549645357e-05 5.5232270824e-05 4.4436466851e-05 2.8122129152e-05 1.5903666281e-05 2.0218869395e-05 2.3308761229e-05 
2.1078476493e-05 1.8898961571e-05 2.1605143047e-05 2.2443373382e-05 2.0313689674e-05 1.738652827e-05 1.5331219402e-05 1.5409417756e-05 1.5407877072e-05 
1.9813423933e-05 2.6545840228e-05 2.7793841582e-05 2.289540862e-05 2.1271425794e-05 1.7194346583e-05 1.1819983229e-05 1.0221378034e-05 9.3974676929e-06 
9.5887835414e-06 1.2918801076e-05 1.546995918e-05 1.3765243239e-05 4.9959935495e-06 7.6114188232e-06 1.6086243704e-05 2.8922084311e-05 3.9208727685e-05 
4.3014846597e-05 4.2875370127e-05 4.0930397518e-05 4.2030937038e-05 4.7954403271e-05 4.7343113692e-05 3.7726993469e-05 1.8367059965e-05 5.1345446082e-06 
3.1636689073e-06 9.4498782346e-06 1.0864028809e-05 1.7004404071e-05 2.0667659555e-05 2.0317746021e-05 1.9735512979e-05 1.6737276383e-05 1.6017347662e-05 
1.4297494999e-05 1.5590681869e-05 2.3014496037e-05 3.0969607906e-05 3.8822436181e-05 4.978207653e-05 5.2172821597e-05 4.894851736e-05 3.4623375541e-05 
2.9267321224e-05 1.4860090232e-05 1.5392388377e-05 4.1065741243e-05 4.6632194426e-05 2.8138238122e-05 2.3267550205e-05 1.9337485355e-05 1.4684283087e-05 
8.6355667008e-06 3.8846860662e-06 -2.2580752557e-06 -3.1569338717e-06 -4.7302131634e-07 -4.502567208e-06 -3.5222424231e-06 3.0712206467e-07 6.2674921537e-06 
1.4875660781e-05 2.5329567507e-05 3.6044610169e-05 4.4327203796e-05 4.539101792e-05 4.7884572268e-05 6.0377635236e-05 6.8841312896e-05 7.092008309e-05 
7.0186193625e-05 6.5453161369e-05 5.8821267885e-05 5.4773296142e-05 4.3161271606e-05 3.3319502108e-05 2.0516325094e-05 1.2940036868e-05 5.094788321e-06 
4.6576205932e-06 4.3860791266e-06 2.1882662622e-05 2.7295685868e-05 3.115076106e-05 3.5858513002e-05 3.7032561522e-05 3.0984356272e-05 3.1178129575e-05 
3.6725119571e-05 3.9290818677e-05 4.1889539716e-05 4.0038412408e-05 3.7927351514e-05 3.7328303733e-05 3.6436369555e-05 3.512161129e-05 3.0135983252e-05 
2.2925691155e-05 1.6902144125e-05 1.8864635422e-05 1.5636593162e-05 1.4349351659e-05 1.4580215975e-05 1.5401175915e-05 1.8268623535e-05 2.3131195121e-05 
2.7325953852e-05 3.1232379115e-05 3.709673183e-05 4.0030863602e-05 4.0705417632e-05 4.225106386e-05 4.8452624469e-05 5.6795288401e-05 5.4766227549e-05 
4.2448518798e-05 2.6211413569e-05 1.2195297131e-05 1.2031613551e-05 1.6171559764e-05 1.4861528143e-05 1.4250816093e-05 2.0048859369e-05 2.1748837753e-05 
2.3232938474e-05 2.3706727006e-05 2.7127054636e-05 2.9838549381e-05 3.0872546631e-05 3.1267110899e-05 3.1931896956e-05 3.0081871955e-05 2.5579291105e-05 
2.1915759135e-05 1.788519512e-05 1.3564358596e-05 9.6429394034e-06 7.780764463e-06 9.7890097095e-06 8.8240794867e-06 1.3367988686e-05 1.6114674509e-05 
1.6151989257e-05 1.8202003048e-05 3.7132416765e-05 3.9975438995e-05 -1.8308912786e-06 -3.6640281564e-07 3.8813467995e-07 6.7505984589e-06 1.3595333257e-05 
2.2790180083e-05 3.3658274333e-05 4.6148408728e-05 5.0395934522e-05 4.8207621148e-05 5.0498987548e-05 6.0537542595e-05 6.8649911555e-05 6.8279106927e-05 
6.5300351707e-05 5.7152832596e-05 4.6715442295e-05 4.582083784e-05 4.2093620323e-06 1.3323951862e-05 2.553658851e-05 3.7090467231e-05 4.447504034e-05 
4.5091685024e-05 4.3643813115e-05 4.3871481466e-05 4.5155695261e-05 4.9046990171e-05 4.4631000492e-05 4.2817351641e-05 3.7072681152e-05 2.2665213692e-05 
1.1501986592e-05 1.2705281733e-05 1.4234503396e-05 1.7482940166e-05 2.190099076e-05 2.1556157662e-05 2.151694207e-05 1.853404865e-05 1.6222735212e-05 
1.5781359252e-05 1.5334233467e-05 1.6480431441e-05 1.3024517102e-05 1.2482532838e-05 1.3075838979e-05 2.0068948288e-05 2.9218044801e-05 3.2472213206e-05 
2.724800288e-05 1.6622645489e-05 9.4401202659e-06 4.5650085667e-06 2.346045585e-05 2.7552088795e-05 3.2647549233e-05 3.5433673474e-05 3.2719541196e-05 
3.5524448322e-05 4.074566823e-05 4.1539176891e-05 4.2230327381e-05 4.1976989451e-05 4.1143586714e-05 4.2618947191e-05 3.9141054003e-05 3.4225860873e-05 
2.6367128157e-05 1.7628013666e-05 1.4163735614e-05 1.4683299014e-05 1.2831792446e-05 1.2849175619e-05 1.45218537e-05 1.5850861018e-05 1.9295386664e-05 
3.6139292206e-05 4.2387888243e-05 4.8872228945e-05 5.1438597438e-05 5.1294016885e-05 5.0653670769e-05 5.1839622756e-05 5.2924326155e-05 4.0135313611e-05 
2.206166937e-05 1.0761862541e-05 6.5587410063e-06 8.457963304e-06 7.3586597864e-06 9.6161811598e-06 1.7170512365e-05 2.9957598599e-05 2.5055887818e-05 
-3.798993248e-06 -6.38077654e-06 5.9127985878e-05 5.8786270529e-05 2.2174752303e-05 2.5065130103e-05 2.7418829632e-05 3.2699055737e-05 3.6114441173e-05 
3.7986203097e-05 3.7054265704e-05 3.5658889828e-05 3.2698466384e-05 2.7119504011e-05 2.3115568183e-05 1.8858301701e-05 1.4847964849e-05 1.1990525309e-05 
7.2167858889e-06 1.0650543118e-05 1.1108431863e-05 1.1059755707e-05 1.4341441783e-05 1.6270216292e-05 4.5102355216e-05 5.1408227591e-05 5.2039180446e-05 
5.1822738897e-05 4.8616711865e-05 4.7074561735e-05 3.97358599e-05 3.5049692087e-05 2.9388762414e-05 3.2909440051e-05 3.9025886508e-05 4.2608753574e-05 
4.3965625082e-05 2.2275449737e-05 1.5917894416e-05 1.3105100152e-05 1.0612391634e-05 1.005150898e-05 1.038026403e-05 1.4830084183e-05 3.4430475353e-05 
4.1046816477e-05 3.5792007111e-05 2.9296323191e-05 2.4202425266e-05 1.8716225895e-05 1.5568466551e-05 1.2464100109e-05 7.7383765529e-06 1.0041350833e-05 
1.3280276107e-05 1.4623024072e-05 1.5118442207e-05 1.1504294889e-05 1.1521027773e-05 1.5389457985e-05 2.0117555323e-05 3.4237418731e-05 3.2866486436e-05 
2.0386132746e-05 2.4606964871e-05 2.9038961657e-05 3.2034909964e-05 3.2120653486e-05 3.6452711356e-05 4.3858140998e-05 4.32010238e-05 2.3796143068e-05 
2.2560690923e-05 2.1213532818e-05 1.8445301976e-05 1.7201789888e-05 3.9619095332e-05 2.6556472221e-05 1.9333496311e-05 1.9149145373e-05 2.1105432097e-05 
1.023060122e-05 1.0624594324e-05 1.4711695258e-05 1.6072857761e-05 2.1960146114e-05 3.2570009353e-05 4.1982886614e-05 4.9764694268e-05 4.7968776926e-05 
4.6122906497e-05 4.208698374e-05 4.0214745241e-05 4.4112053729e-05 4.4794109272e-05 4.511537918e-05 3.2314032978e-06 1.1615973563e-05 2.2697158784e-05 
3.5388275137e-05 4.3955249566e-05 4.6919176384e-05 3.1207142456e-05 4.5380820666e-05 3.5825967643e-05 4.0572296712e-05 4.6336324885e-05 5.3163254051e-05 
5.7671848481e-05 6.054529149e-05 5.884537677e-05 5.6623473938e-05 5.597740892e-05 5.7065713918e-05 6.0797552578e-05 6.3957406383e-05 5.880322351e-05 
4.7839173931e-05 3.4424261685e-05 1.8339420421e-05 8.1408616097e-06 6.4973078224e-06 -1.5534091347e-07 8.8093787554e-07 5.4451284086e-06 4.6111563279e-05 
4.4136391807e-05 4.3810890929e-05 -1.5131271311e-06 -8.2278279478e-07 3.2579217077e-05 -3.4690046959e-06 -2.2695908228e-06 8.9114655566e-07 6.4249488787e-06 
1.1370788343e-05 2.0016484996e-05 2.9309234378e-05 4.0653856558e-05 5.3425046644e-05 5.4989111959e-05 6.1113525589e-05 6.6115244408e-05 6.619081978e-05 
6.0717749875e-05 5.2956340369e-05 4.521631854e-05 2.3773516659e-05 1.3645417312e-05 8.6169993665e-06 7.0998344199e-06 4.8238420277e-05 5.5520566093e-05 
6.111071707e-05 6.4313950134e-05 6.4970576204e-05 6.1558210291e-05 5.8521280152e-05 5.823713218e-05 5.8570036344e-05 5.4577340052e-05 -1.0144832459e-06 
4.1907263949e-05 2.9582146453e-05 1.8075945263e-05 6.5827348408e-06 5.4843735597e-06 1.8202559659e-05 8.3068553067e-06 4.0566956159e-05 3.1489405956e-05 
2.2957256078e-05 2.0800982384e-05 1.9299077394e-05 1.6304129531e-05 2.518621659e-05 3.5545686842e-05 3.8684647734e-05 3.0520332075e-05 2.4069851861e-05 
1.8982247639e-05 1.4839663891e-05 1.2205069652e-05 5.1579252613e-05 5.5641805375e-05 4.0606351831e-05 6.2130886363e-05 4.5846278226e-05 5.5410728237e-05 
4.5887700253e-05 5.8966419601e-05 4.3543426727e-05 5.809297727e-05 3.5851877328e-05 6.1477381678e-05 2.7167594453e-05 2.0368201149e-05 1.4665503841e-05 
1.2869346392e-05 6.3412285272e-06 6.4081745222e-05 2.0632523956e-05 2.1489355277e-05 2.6809873816e-05 1.1818673556e-05 2.8953403671e-05 1.5310350136e-05 
3.6320794607e-05 1.8252225345e-05 2.3370643248e-05 3.1303527066e-05 4.2255076551e-05 3.9085207391e-05 4.3794927478e-05 2.3309967219e-05 2.1735799237e-05 
2.5681891202e-05 1.7836700863e-05 2.3710113965e-05 2.8366024708e-05 2.5155595722e-05 2.6952146072e-05 2.4926484912e-05 4.6562454372e-05 4.4888296543e-05 
4.6765893785e-05 4.5741388021e-05 1.3110549844e-05 6.4309761001e-06 5.2050945669e-05 6.1139064201e-05 
Stress_Y 1 1059 double
-4.150188397e-05 -2.2672953492e-05 -1.0903197108e-05 -3.3819558212e-06 2.2926315069e-06 1.1046296095e-05 1.7139434931e-05 2.7968395443e-05 4.5779186621e-05 
5.0445283705e-05 4.2426250729e-05 3.0050907299e-05 2.203330223e-05 1.6823798433e-05 7.5640909927e-06 2.17012348e-06 3.3560750126e-06 8.7208072728e-06 
1.2114664059e-05 1.8339414964e-05 2.5199702577e-05 3.1793137168e-05 3.5143875721e-05 3.9396363718e-05 4.0934977733e-05 4.5410441089e-05 4.2666499212e-05 
2.3225255063e-05 5.4050174185e-06 -7.960576113e-06 -1.7719956304e-05 -1.9688335669e-05 -2.4019915145e-05 -3.463311441e-05 -3.433279926e-05 -2.6837506084e-05 
-2.8153042877e-05 -2.647137444e-05 -2.1279418434e-05 -8.7477592388e-06 1.2089737538e-05 3.318193194e-05 5.7455919887e-05 8.3347731561e-05 0.00010525820835 
0.00011284468201 0.00010260377894 7.6412899944e-05 4.9585054512e-05 3.3620806789e-05 2.0472951292e-05 1.1217359315e-05 4.0888844524e-06 -4.6022341849e-06 
-1.7643462343e-05 -4.268633711e-05 3.3024163713e-05 2.1709218345e-05 1.778976366e-05 1.0200674296e-05 2.4339988158e-06 7.8545104998e-07 -4.4798707677e-06 
-6.2645267462e-06 -6.5776680458e-06 2.7481036113e-07 7.9804349298e-06 1.9264089133e-05 2.9987082598e-05 4.1777773731e-05 5.3984043916e-05 6.7200053309e-05 
8.2786216808e-05 8.5798237706e-05 6.4422216383e-05 2.8708896934e-05 9.240640793e-06 -7.024289971e-06 -2.4457394829e-05 -3.3277745388e-05 -3.2648084016e-05 
-2.3648173737e-05 -1.7740714611e-05 -1.6626843717e-05 -2.4856824894e-05 -4.1941715608e-05 -4.6582470532e-05 -3.7662597606e-05 -3.7523457763e-07 -9.8313439594e-06 
1.2701790183e-05 3.8472226151e-05 6.1882943555e-05 6.968506932e-05 6.5091677243e-05 5.395356493e-05 5.3174564528e-05 5.0980430387e-05 4.4820728363e-05 
3.6393830669e-05 2.5192590329e-05 1.3796210624e-05 4.2637893785e-06 -6.0194556681e-06 -5.7708170971e-06 -7.0312639764e-06 -5.2533905546e-06 1.5371199424e-06 
7.7457270891e-06 1.0406605725e-05 2.8829659641e-05 2.9978524253e-05 2.297849278e-05 3.094033309e-05 2.1979532903e-05 2.1707510314e-05 2.0775827579e-05 
2.3997065e-05 2.9197277399e-05 3.6478450056e-05 5.7154746173e-05 7.2909439041e-05 7.7262244304e-05 7.3600553151e-05 6.4480074798e-05 5.5665310356e-05 
4.7134479246e-05 4.4169250032e-05 4.6396806283e-05 5.2461429732e-05 5.3092579037e-05 5.439151937e-05 5.4165015172e-05 5.6852513808e-05 5.6817098084e-05 
4.6928071242e-05 3.7257614167e-05 2.7093477911e-05 2.6788764444e-05 2.7749376386e-05 2.2280128178e-05 1.8269942302e-05 1.7985885279e-05 1.9909444745e-05 
2.1643969376e-05 2.2701829948e-05 2.5679903047e-05 2.6494517442e-05 2.5759958589e-05 3.1080609915e-05 3.9999111323e-05 5.1561699365e-05 6.1248232669e-05 
7.2381044447e-05 8.3488346718e-05 8.9143497462e-05 9.3084068794e-05 9.5692776085e-05 0.00010116865451 0.00010407204536 0.00010163443949 8.5987972852e-05 
6.7971799581e-05 5.1538474509e-05 3.7808378693e-05 2.9132268537e-05 2.3157144824e-05 2.3052692995e-05 2.5630590244e-05 2.620108171e-05 2.4126842618e-05 
3.199711864e-05 3.6629375245e-05 3.5918797948e-05 3.3548290958e-05 3.3984495531e-05 3.4991720895e-05 4.2744315579e-05 5.4299915064e-05 7.1553629823e-05 
8.3474362327e-05 8.591380174e-05 8.728641842e-05 9.0386623924e-05 9.1351226729e-05 8.4403138317e-05 6.8585744884e-05 5.1121223805e-05 3.5797376768e-05 
2.8253944038e-05 2.4815413781e-05 2.1651421775e-05 1.7455093257e-05 1.5918179997e-05 1.8109283701e-05 2.0460505766e-05 2.5377361453e-05 2.7066074836e-05 
2.8369973734e-05 2.4085738914e-05 2.1757088689e-05 1.9826497009e-05 3.5497247154e-05 4.1732037062e-05 5.5306245486e-05 6.5957487095e-05 7.3561655881e-05 
7.8590928752e-05 8.1301535829e-05 7.8969576862e-05 7.9909361375e-05 8.2670419943e-05 8.1048572611e-05 7.4739713455e-05 6.2302890001e-05 5.1042647101e-05 
4.8026606237e-05 4.3398718844e-05 3.7900023017e-05 3.3273390727e-05 2.5974803066e-05 2.0145198505e-05 8.1804282672e-06 7.4253616731e-06 2.9628272387e-06 
-1.0247368891e-06 1.4478589947e-05 2.2260501282e-05 2.3501752366e-05 2.5454881325e-05 3.0370298191e-05 3.6907240428e-05 4.7913785238e-05 6.4454347012e-05 
7.8722659964e-05 8.4649633209e-05 8.4489554865e-05 8.1270496594e-05 7.5779164035e-05 7.5790041592e-05 7.5762822235e-05 7.7331118518e-05 7.3052069638e-05 
6.9220681326e-05 6.5335232648e-05 6.3861712988e-05 6.3116036472e-05 5.9302277805e-05 3.8350837713e-05 3.3974323742e-05 3.0015757147e-05 2.3363021683e-05 
1.7922415282e-05 1.5145510588e-05 1.5707984858e-05 1.8332373656e-05 2.2115465981e-05 2.4972001484e-05 2.8774091334e-05 3.6708486732e-05 4.3862502935e-05 
4.7788340453e-05 5.4098003602e-05 6.341785047e-05 7.4668685556e-05 8.3156010078e-05 8.9381690486e-05 9.0366833319e-05 8.8251748821e-05 0.00010352348181 
0.00010615967039 0.00010209759057 8.8380787929e-05 7.1675181971e-05 5.1572707889e-05 3.7241217797e-05 2.7133963158e-05 1.9603026885e-05 1.8185486624e-05 
1.6561314624e-05 1.7723745259e-05 2.0639079594e-05 4.4460608478e-05 4.8430334573e-05 9.5506147773e-05 8.1135265646e-05 2.9983757486e-05 3.39805556e-05 
3.3119147702e-05 3.232398376e-05 3.175411257e-05 3.6470573832e-05 4.9621288781e-05 7.1408889198e-05 9.1417074145e-05 0.00010272391955 0.00010304165335 
0.00010251955973 9.7020718385e-05 8.8648564997e-05 7.551186718e-05 6.2027444073e-05 4.9839825806e-05 3.7516339944e-05 2.8900925827e-05 2.3201540898e-05 
1.8463055312e-05 1.2211820831e-05 9.0222647486e-06 1.2313941625e-05 1.4447759895e-05 1.8329334125e-05 2.1991469112e-05 2.3732733098e-05 2.6055580747e-05 
2.7555523047e-05 3.6488952901e-05 4.5529137424e-05 5.5559517932e-05 6.5804226324e-05 7.2161230491e-05 7.752723468e-05 8.5649204266e-05 9.4122042356e-05 
0.00010122405365 0.00010467795073 0.00010798436415 0.00011082628043 0.00010540501535 9.0310357336e-05 7.3715877079e-05 5.9719754063e-05 4.4781798351e-05 
3.4987406252e-05 2.8255175494e-05 2.1648113034e-05 1.5109360902e-05 5.3185308388e-06 1.0006750927e-05 2.1144360289e-05 1.2038529349e-05 1.574273665e-05 
1.9638662707e-05 2.2600497687e-05 7.5013347669e-05 7.9614270362e-05 8.9769862825e-05 9.2426766059e-05 8.9711458713e-05 8.0732192146e-05 6.8031164119e-05 
5.2320163377e-05 3.8286030758e-05 2.6298372177e-05 1.8956949134e-05 1.9549301214e-05 1.8236369215e-05 1.634664477e-05 2.3435697585e-05 2.7168525776e-05 
3.1461160688e-05 3.4538086766e-05 4.1403578507e-05 5.1310500567e-05 6.7664310336e-05 8.0658886873e-05 8.5365340055e-05 8.6622436356e-05 8.6353444203e-05 
8.819046343e-05 9.2367059551e-05 9.6576543001e-05 9.192442667e-05 8.4521212557e-05 7.7689859609e-05 7.6524942415e-05 7.4067946116e-05 6.9952438935e-05 
6.2246712332e-05 5.5060547311e-05 4.6235258196e-05 4.0586550313e-05 3.5077235225e-05 3.2520416426e-05 2.7538810173e-05 2.4995279091e-05 1.8560345779e-05 
1.5098677977e-05 1.3437779671e-05 1.6078656699e-05 2.1194582587e-05 2.6986876037e-05 3.1851104723e-05 3.9056209062e-05 4.8823836551e-05 6.014772589e-05 
6.8942797952e-05 7.3483468441e-05 7.7754193626e-05 8.3538528997e-05 9.0829504188e-05 9.2912647233e-05 8.791784785e-05 8.098177932e-05 7.5893207395e-05 
7.5484327681e-05 7.6956050179e-05 7.5162337453e-05 2.9708820875e-05 3.0448971302e-05 3.1278770621e-05 3.4788190533e-05 4.3295349315e-05 5.8187990362e-05 
7.957896014e-05 0.00010727444169 0.00011462974362 0.00010736445984 9.8521675682e-05 9.0839930635e-05 7.8867364209e-05 6.7771688919e-05 5.7078195823e-05 
3.4920150938e-05 2.8149222999e-05 2.3888855139e-05 1.9461303964e-05 1.3025112821e-05 1.0767009371e-05 1.3350316294e-05 1.4464312699e-05 1.9994091417e-05 
2.2612355679e-05 2.4137450964e-05 2.7056010367e-05 3.1387797208e-05 4.0999857447e-05 4.9866586778e-05 5.6939989008e-05 6.7147338996e-05 7.2480099334e-05 
7.9800694948e-05 8.9051442046e-05 9.785938164e-05 0.00010626806761 0.0001139936212 0.00012066573254 0.00012468623754 0.00012043952302 0.00010563738761 
9.0202374849e-05 7.2288945375e-05 5.5037791753e-05 4.1253380914e-05 3.2909807487e-05 2.4992108592e-05 1.3896180462e-05 5.2418986343e-06 9.0055582405e-06 
2.1229956474e-05 1.5892701413e-05 1.2805197002e-05 1.556438292e-05 2.0299166863e-05 2.6826355679e-05 4.1327686631e-05 4.8808709835e-05 7.4687239248e-05 
7.4199677329e-05 7.1235692303e-05 6.6593805968e-05 5.9376037825e-05 5.489591058e-05 4.4591215556e-05 3.4265351132e-05 2.6344017897e-05 1.8351907784e-05 
1.6142290406e-05 1.7010735974e-05 2.384385698e-05 2.8641146855e-05 3.1844010664e-05 3.7384823372e-05 4.3391741201e-05 5.326370956e-05 6.6790918936e-05 
7.5255135016e-05 8.0006240751e-05 8.2495193055e-05 8.5336301709e-05 8.9588902483e-05 9.5982359198e-05 9.8745593277e-05 9.5554460131e-05 8.8442538981e-05 
8.5278268671e-05 8.3272141637e-05 7.9586476204e-05 7.3031544161e-05 6.6814252932e-05 6.081673564e-05 5.2088882512e-05 4.3957548769e-05 3.7942580093e-05 
3.4431610402e-05 2.8497279345e-05 2.3912874894e-05 2.3320249966e-05 2.2449201424e-05 1.9796374545e-05 1.4912532606e-05 1.389128829e-05 1.7280528482e-05 
2.2483214707e-05 2.9902435926e-05 3.7785917812e-05 4.5738819608e-05 5.4095224186e-05 6.5300584538e-05 7.7279524703e-05 8.3483202616e-05 8.5198327724e-05 
8.7643602456e-05 8.9455621492e-05 9.0702611487e-05 8.6834988906e-05 7.9951743828e-05 7.8323166235e-05 7.7618824434e-05 8.204880578e-05 8.203197649e-05 
7.954328612e-05 7.4428404332e-05 1.5625209926e-05 1.2638698536e-05 4.4998647354e-05 4.1838997276e-05 3.4513970604e-05 2.9358470783e-05 2.4711413062e-05 
2.1047077098e-05 1.5284340407e-05 1.3515328646e-05 1.3948428204e-05 1.4392393496e-05 1.8299047952e-05 2.1311021555e-05 2.2994103347e-05 2.5877929147e-05 
3.0698960472e-05 4.1249550122e-05 4.7276244004e-05 5.3882849897e-05 6.4143532654e-05 7.2380295023e-05 8.0060461187e-05 8.7838852778e-05 9.5911032986e-05 
0.00010553914035 0.00011396517948 0.00012105044152 0.00012660215725 0.00012364392751 0.00011096748494 9.7840507806e-05 8.2172962721e-05 6.443059101e-05 
4.9058413424e-05 3.495555211e-05 2.6895180781e-05 1.3544647118e-05 4.7756157073e-06 9.4297565738e-06 1.7513184503e-05 1.7259044398e-05 1.367916866e-05 
1.4124349036e-05 1.8824754079e-05 2.472673259e-05 2.7889089324e-05 2.9780794648e-05 3.5068183934e-05 4.3137355533e-05 5.5074171541e-05 7.0947186032e-05 
9.1187299404e-05 0.0001123914335 0.00011976332462 0.00010809930245 9.68966051e-05 8.5349136498e-05 7.6014701335e-05 6.922686589e-05 5.8378645917e-05 
5.3147090512e-05 5.1339553465e-05 4.9684334954e-05 4.0291375626e-05 7.259548147e-05 6.6133121436e-05 5.5635271565e-05 4.6243239922e-05 4.2150892114e-05 
3.7183046516e-05 3.1048613891e-05 2.5412025934e-05 2.0591014618e-05 1.7574238882e-05 1.3389459127e-05 8.6242498583e-06 1.0800727068e-05 1.716245788e-05 
1.9423532649e-05 2.5005760108e-05 2.7619113098e-05 3.2223197195e-05 3.7550991692e-05 4.2753457819e-05 5.1815426559e-05 6.1317492509e-05 6.9014640758e-05 
7.3373950727e-05 7.8751298133e-05 8.5013431089e-05 8.9934866992e-05 9.3944836408e-05 9.2783055152e-05 9.0369481768e-05 8.9687513537e-05 7.9491022916e-05 
7.1549147833e-05 7.0427529863e-05 6.438177661e-05 8.786698163e-05 9.471593512e-05 5.9710764617e-05 4.9373949878e-05 4.0151015128e-05 3.5871278669e-05 
2.9432194424e-05 2.6500503736e-05 2.3520022296e-05 2.1345862478e-05 2.1519967049e-05 1.6796502678e-05 1.2736402823e-05 1.4409642063e-05 1.8802380509e-05 
2.512807805e-05 3.2775067666e-05 4.1279858124e-05 5.2623217925e-05 5.818556383e-05 6.4054911491e-05 7.5817006291e-05 8.2867416495e-05 8.6341242422e-05 
8.9331893832e-05 9.0559900855e-05 8.7155327492e-05 8.3501705376e-05 8.2481790741e-05 8.679182065e-05 8.4657287516e-05 8.3514154539e-05 7.6557887951e-05 
7.8209479398e-05 7.8403354564e-05 3.9242549974e-05 3.6562825699e-05 3.1864739867e-05 2.8418513466e-05 2.4192633646e-05 1.7406897314e-05 1.5397294192e-05 
1.501823499e-05 1.3871071133e-05 1.8431703211e-05 2.1136869691e-05 2.1783052944e-05 2.280258559e-05 3.6656849261e-05 4.3003787141e-05 5.0925445976e-05 
6.2665960286e-05 7.1166810812e-05 7.9186123912e-05 8.453233022e-05 9.1093381343e-05 0.00010040102643 0.00010841534095 0.0001118388609 0.00011603470193 
0.0001162639237 0.00010844496137 9.9974633486e-05 8.7174899818e-05 7.3231727583e-05 5.8441240981e-05 4.2118623242e-05 2.9468905268e-05 1.7475824279e-05 
1.0247907085e-05 1.5290404917e-05 1.7382684746e-05 1.6114070604e-05 1.4920346985e-05 1.4821518562e-05 1.8223150619e-05 2.5273269785e-05 2.8140133509e-05 
3.4483626223e-05 4.2989773647e-05 5.6527638662e-05 7.259161066e-05 8.9412475063e-05 0.00010564255354 0.0001197282254 0.00012194590818 0.00011115094821 
9.8820819403e-05 8.7356667791e-05 7.7424883784e-05 6.8093526352e-05 6.3101848355e-05 6.1151869886e-05 5.9990266891e-05 5.5933414842e-05 4.8155467084e-05 
4.6105385991e-05 4.3132906285e-05 3.0906085158e-05 2.6054807677e-05 2.1809548343e-05 2.3605867682e-05 1.0277133697e-05 1.439695734e-05 1.9477145543e-05 
2.6255076591e-05 3.5031313018e-05 4.4520653319e-05 5.1118175179e-05 5.8701687522e-05 6.308752927e-05 7.1889640822e-05 8.1098914961e-05 8.5012048658e-05 
8.9311710326e-05 9.0709996584e-05 9.1329922725e-05 9.1044697911e-05 7.1998823842e-05 5.9413199779e-05 4.5887820306e-05 3.8357084122e-05 3.5456163459e-05 
2.9068303775e-05 2.5217081202e-05 2.1238947738e-05 1.9104883904e-05 2.0279208911e-05 1.3253885299e-05 1.1555490346e-05 1.1265179637e-05 1.8357633962e-05 
1.9353101379e-05 2.2308391635e-05 2.6135305234e-05 2.9206630643e-05 3.7239722587e-05 4.0614631871e-05 4.9501530157e-05 5.72620811e-05 6.005492105e-05 
5.6922810472e-05 5.2188184782e-05 5.6783352193e-05 5.8628691477e-05 6.2677412643e-05 6.9072753831e-05 7.8502511315e-05 6.6701220931e-05 6.6472770413e-05 
5.1730858104e-05 3.3187956433e-05 2.8464704883e-05 2.6099409297e-05 3.9750073483e-05 3.5007647966e-05 3.1831761589e-05 2.71746012e-05 2.0684165065e-05 
1.7755741283e-05 1.6951215002e-05 1.3709664927e-05 1.6302738004e-05 2.0258012228e-05 1.936843546e-05 2.1950347218e-05 3.5544773709e-05 4.1316448915e-05 
5.0238890253e-05 6.2575301854e-05 6.980154285e-05 7.4876013969e-05 8.0470003013e-05 8.7044405518e-05 9.5562754723e-05 0.00010251659842 0.00010412973643 
0.00010611982725 0.0001021164353 9.5679017249e-05 8.5258863692e-05 7.415140135e-05 6.3168954512e-05 5.2425770264e-05 2.1006086172e-05 1.5512741811e-05 
1.7772299543e-05 2.0942412448e-05 1.9601100576e-05 1.6668784156e-05 1.3707297512e-05 1.9546330805e-05 2.6849313144e-05 0.0001047952901 0.00010119826038 
1.4565022866e-05 1.0837229638e-05 3.1699739338e-05 4.533342144e-05 3.3853266359e-05 4.1298953875e-05 5.1329730923e-05 6.5765976615e-05 8.0257123045e-05 
9.5954128483e-05 0.00010787780775 0.00011890030146 0.00012179976329 0.00011297799938 0.0001029502746 9.2790898634e-05 8.2825950813e-05 7.5662734162e-05 
6.9767942477e-05 6.9844900281e-05 6.5727384936e-05 5.8427624026e-05 4.9708254664e-05 4.7685323807e-05 9.2526177468e-05 9.3564805866e-05 9.5576171589e-05 
0.00010328326607 0.00011155263201 0.00010229572217 8.7765314674e-05 7.5425887189e-05 5.3463420045e-05 6.6751490522e-05 8.3387138147e-05 9.942631732e-05 
0.00011182782328 5.0569258747e-05 6.1770973844e-05 6.8543071393e-05 7.2449744039e-05 7.6951953815e-05 8.2555539848e-05 9.2911999673e-05 9.5020215667e-05 
0.00011925759463 0.00011942442507 0.00011403495591 0.00010596677021 9.6992334875e-05 8.8991495431e-05 8.0592268205e-05 7.3982824688e-05 7.0937087003e-05 
5.9897804022e-05 5.2847681218e-05 5.5705826526e-05 5.7956011005e-05 6.146189844e-05 7.1214009949e-05 7.8729819506e-05 8.6965570517e-05 8.7481297669e-05 
4.2543950258e-05 3.9883692807e-05 3.7183384848e-05 3.1434905395e-05 2.3882692403e-05 1.9054048607e-05 1.978857108e-05 1.461894044e-05 3.8467624108e-05 
4.4605483708e-05 5.2726765716e-05 5.3640716942e-05 5.1073107898e-05 1.7419750293e-05 1.9977318516e-05 2.1283398382e-05 2.5289951736e-05 3.1053394196e-05 
6.0101963754e-05 6.332436169e-05 7.1001071774e-05 7.8183882579e-05 8.7655513198e-05 9.5395887911e-05 9.9303113529e-05 0.00010017997556 0.00010796630522 
0.00011635627015 1.5269657524e-05 1.5498333596e-05 1.9220422473e-05 2.0455951017e-05 2.9953656849e-05 7.1131114964e-05 6.0794540332e-05 4.7318248107e-05 
3.8246889744e-05 3.4517048334e-05 3.0503195376e-05 4.2522067815e-05 2.1374007702e-05 9.5276685897e-05 9.8996613815e-05 9.8630574939e-05 9.6259376733e-05 
9.0031164291e-05 8.2321210357e-05 7.4244046118e-05 6.766919978e-05 6.1558755988e-05 5.7162818848e-05 5.4123425798e-05 4.4311800593e-05 3.4496533772e-05 
2.3956556106e-05 1.8122513211e-05 1.7388672859e-05 1.8719052605e-05 2.0873127141e-05 1.5218469343e-05 1.6477253666e-05 2.1091484086e-05 2.0925404897e-05 
1.9163981051e-05 1.8473467208e-05 1.7263158952e-05 1.6531510482e-05 9.0824294602e-05 1.3236693121e-05 1.5165019249e-05 1.3534268874e-05 1.3258472791e-05 
1.4096163795e-05 1.9534270905e-05 2.596786544e-05 3.4732413042e-05 5.9504836827e-05 6.5431537223e-05 7.1355731052e-05 7.9242694483e-05 8.5845749709e-05 
9.015663818e-05 9.1947666078e-05 9.3819959147e-05 9.444502939e-05 8.652635006e-05 7.8722165199e-05 7.1263428254e-05 9.4014721981e-05 9.4058632385e-05 
8.9658300567e-05 8.5484498413e-05 8.1923237303e-05 7.441888738e-05 6.9471687311e-05 6.6449742008e-05 6.4205443778e-05 5.8528057707e-05 1.2189492736e-05 
2.6222389351e-05 1.9809120204e-05 1.6564950784e-05 1.6606269128e-05 7.237365935e-05 4.4929980504e-05 1.3209320969e-05 2.152488014e-05 2.2244561478e-05 
4.673964213e-05 4.9174912419e-05 4.5688757382e-05 1.5124008314e-05 1.9903374778e-05 2.6063346013e-05 0.00011574376549 0.00011114902736 0.00010414474673 
9.5470575616e-05 8.6227017164e-05 7.7788739873e-05 4.3966505473e-05 5.1595448895e-05 0.00010810953972 5.1490795158e-05 3.4011183743e-05 4.3528525566e-05 
3.1212079193e-05 6.6906119173e-05 3.4398624848e-05 6.9392037403e-05 3.8093654439e-05 7.2504721174e-05 4.3044470658e-05 5.1346658438e-05 6.0094738728e-05 
6.7961096647e-05 6.7971093813e-05 7.6679578342e-05 5.0768023357e-05 4.3973461288e-05 4.1578990931e-05 6.9463487307e-05 3.4631531889e-05 7.8516524809e-05 
2.3479275114e-05 8.7953158072e-05 9.686811245e-05 0.00010439626203 3.1279418181e-05 3.7447869545e-05 3.3905973396e-05 4.3436531996e-05 3.9361737436e-05 
4.5217300794e-05 0.00010031373677 9.6402152849e-05 2.4616714654e-05 2.3691143724e-05 4.0511778934e-05 3.0779399822e-05 2.3671236704e-05 2.4799754101e-05 
2.8036431104e-05 2.4560989914e-05 5.8911638916e-05 6.3704290369e-05 3.4269993193e-05 4.510171857e-05 
Stress_Z 1 1059 double
3.3480771435e-06 3.8057578422e-06 1.7312871705e-06 3.0904654977e-06 5.9906524257e-06 1.0411350559e-05 1.8058892238e-05 2.8664757338e-05 3.6919183913e-05 
2.6570365662e-05 1.4522507627e-05 6.9319148679e-06 1.989389375e-06 6.6951474764e-06 9.3933215339e-07 -1.2297364265e-05 -2.0121076886e-05 -2.4351313186e-05 
-2.4936905902e-05 -1.6264259102e-05 7.7422930644e-07 2.1839650799e-05 5.0622198614e-05 8.2065547758e-05 9.9030061392e-05 9.7322968941e-05 7.0777678047e-05 
4.4160125981e-05 2.4607106752e-05 8.5285701061e-06 -6.3052316364e-06 -1.6081485228e-05 -3.0361634344e-05 -3.1583214877e-05 -2.1079733415e-05 -1.8146263756e-05 
-1.5494848412e-05 -1.0754695722e-05 -4.0274849198e-06 3.8693337956e-06 1.3578192011e-05 1.941528717e-05 2.1537876819e-05 2.424678496e-05 3.4201068047e-05 
4.3572614231e-05 5.2277198847e-05 4.9979476898e-05 4.2787407438e-05 3.8460013457e-05 3.5638971895e-05 3.1612864404e-05 2.5395747798e-05 1.7267588191e-05 
1.1763037946e-05 4.6379168452e-06 8.9009896328e-05 4.800167153e-05 2.3671374947e-05 8.9564282462e-06 -1.5335414218e-06 -1.3053810108e-05 -2.0756380763e-05 
-2.5639239539e-05 -2.794811553e-05 -2.6437970519e-05 -1.9654929929e-05 -8.1904554463e-06 1.8267078303e-06 7.9544670371e-06 1.2738360056e-05 2.1442956495e-05 
3.449412543e-05 5.2620034694e-05 6.1754028138e-05 5.4392992752e-05 4.8359463108e-05 3.8907033741e-05 2.3812679501e-05 1.1073398127e-05 6.0095017034e-06 
3.8154516915e-06 5.1446158977e-06 8.9721843324e-06 1.3179614143e-05 1.4267317056e-05 1.7725553334e-05 2.2762726076e-05 3.2519783417e-05 3.7734873331e-05 
5.0943392125e-05 5.6890639826e-05 6.0169728386e-05 5.9016758314e-05 6.2498889747e-05 5.1317689213e-05 3.7536327e-05 3.0969364161e-05 2.8204047339e-05 
2.4955441404e-05 1.6521360521e-05 5.6260455494e-06 -6.9211239406e-07 -1.1268333765e-05 -2.7345142371e-05 -3.3449719922e-05 -2.8413620385e-05 -1.3597757061e-05 
7.7110380516e-06 4.3174772145e-05 9.45613574e-05 0.00011010992603 9.5584699011e-05 9.9295983091e-05 5.9117573983e-05 5.1621773309e-05 4.5842236432e-05 
4.3484789785e-05 4.369364251e-05 4.2864405259e-05 4.8860209063e-05 4.8983936722e-05 3.3815256756e-05 2.3317355954e-05 1.9016595616e-05 1.7350570488e-05 
1.4669219127e-05 1.5654015442e-05 2.0807405235e-05 2.5400744562e-05 2.6383046134e-05 2.6596157113e-05 2.601685992e-05 3.1248338928e-05 4.2865300202e-05 
5.3233936342e-05 7.2513241321e-05 9.2519869213e-05 0.0001031362699 9.6585783467e-05 8.1809899712e-05 7.1633687185e-05 6.5945074311e-05 6.0335307353e-05 
5.2786897868e-05 4.9256199418e-05 4.8155765398e-05 4.3788913899e-05 3.6676268792e-05 3.1593390304e-05 2.8827871574e-05 2.6781925044e-05 1.9702929421e-05 
1.4548158106e-05 1.1602901395e-05 8.238749615e-06 1.264000457e-05 2.1884410671e-05 2.5779203497e-05 2.8087968531e-05 3.2810297853e-05 3.8221693103e-05 
4.71399253e-05 5.724656512e-05 6.4593768911e-05 6.525767094e-05 6.2530314608e-05 6.3146035245e-05 7.1444366768e-05 7.1056347224e-05 7.656589878e-05 
6.3240680902e-05 5.0834518333e-05 3.8449779822e-05 3.167844261e-05 2.964829946e-05 2.9630538847e-05 3.189682684e-05 3.0900708225e-05 3.0797556974e-05 
2.646611938e-05 1.949513171e-05 1.4304485376e-05 1.2070604498e-05 1.5939029254e-05 2.1385960281e-05 2.9356391678e-05 3.6887318856e-05 4.3705393182e-05 
5.1455186622e-05 5.7400469814e-05 6.0821745137e-05 5.8550762333e-05 5.6445169321e-05 5.9773086832e-05 6.7802378908e-05 7.4943127402e-05 7.2289389209e-05 
6.8699460826e-05 6.4001804276e-05 6.2806720962e-05 5.867105574e-05 5.397519999e-05 4.3762232963e-05 4.0654045733e-05 3.9874925278e-05 4.1610579501e-05 
4.1845534724e-05 3.464796464e-05 2.0074503482e-05 1.6848594896e-05 2.0758840037e-05 2.6278090445e-05 3.1502942875e-05 2.9135671866e-05 2.7146261345e-05 
3.1577154004e-05 3.5101595131e-05 3.5517288779e-05 3.7964236981e-05 4.4937711209e-05 6.3824321842e-05 8.6498002929e-05 0.00011155115499 0.00011160510621 
0.00010047817341 9.3316906714e-05 8.7147811428e-05 7.1711016062e-05 6.6571374191e-05 6.4211635618e-05 5.9781181335e-05 5.5456319387e-05 5.2446444897e-05 
4.761240416e-05 3.3795979107e-05 2.1554422347e-05 1.3705981473e-05 8.6432937678e-06 1.0954916434e-05 1.2206616702e-05 1.6834543203e-05 1.9573280952e-05 
2.1941094019e-05 2.5233803171e-05 2.9127379094e-05 3.5364177165e-05 4.7130652092e-05 8.2362268586e-05 0.00010010020196 0.00010712939547 0.00010333938553 
9.656236216e-05 9.3181144621e-05 9.2758018582e-05 9.1428781161e-05 8.6426909547e-05 7.8791854321e-05 7.0037000114e-05 6.1641956563e-05 4.9871225201e-05 
3.5976059735e-05 2.718408723e-05 2.0857918571e-05 1.696851723e-05 1.2594147847e-05 1.2737192264e-05 1.3968299754e-05 1.6349680664e-05 2.97361712e-05 
3.3819076634e-05 3.7128516851e-05 4.4547545258e-05 5.8763758716e-05 7.1148810093e-05 8.3420381998e-05 8.5134066467e-05 8.2206257503e-05 8.7427317339e-05 
9.4710856501e-05 9.2770133051e-05 8.0365723989e-05 6.5868676757e-05 5.5654985772e-05 2.4663726435e-05 1.7954102077e-05 7.5970470789e-05 6.4120977186e-05 
4.943944441e-05 3.8787475205e-05 3.2170442864e-05 3.1079671317e-05 3.1279105315e-05 3.0925450119e-05 2.3783519282e-05 1.8366825316e-05 1.2522094949e-05 
1.0373635632e-05 8.0679274106e-06 1.3623760424e-05 2.2297099349e-05 3.4178927308e-05 4.135882773e-05 5.1693779824e-05 6.1437531258e-05 6.8326247856e-05 
7.2946750151e-05 7.1037182352e-05 7.2316564911e-05 8.5378371296e-05 0.00010065921379 0.00010511274741 9.9294476968e-05 8.8991313532e-05 8.2347774878e-05 
7.6079064456e-05 7.3738701758e-05 6.2997773057e-05 5.1046426961e-05 4.1305931518e-05 3.6929515772e-05 3.704808114e-05 3.5716911952e-05 2.888254312e-05 
1.9162536773e-05 1.5989837266e-05 1.8517233912e-05 2.5550056307e-05 3.0307859561e-05 3.1479874451e-05 3.379860209e-05 3.6662208004e-05 3.8859223423e-05 
4.3266994908e-05 4.9128775572e-05 5.6755965488e-05 6.6907334258e-05 7.841639308e-05 0.00010074994498 0.0001143757836 0.00010308154015 9.4417817309e-05 
8.9980319899e-05 8.4131046606e-05 1.6042806237e-05 1.9164524929e-05 2.4322858735e-05 3.0803908885e-05 3.9775408368e-05 5.1678911404e-05 6.5235828515e-05 
7.9681522038e-05 9.0823283244e-05 9.6032374131e-05 9.9896606116e-05 0.00010543443932 0.00010644386202 9.9275755929e-05 8.9217806817e-05 8.1231228251e-05 
7.8357195889e-05 7.4674702773e-05 6.9976769737e-05 6.3162733568e-05 5.7342884247e-05 4.9315749493e-05 3.5071665479e-05 2.3170665372e-05 1.503626936e-05 
9.8350865301e-06 9.7257070593e-06 1.4412957171e-05 1.6936754037e-05 1.8973953047e-05 2.2685784643e-05 2.8119644412e-05 3.534967982e-05 4.2075946112e-05 
4.8934016377e-05 5.3293151723e-05 5.6970777223e-05 5.9840931499e-05 6.9425448601e-05 8.2749640569e-05 9.239406063e-05 0.00010181243852 0.00010323508468 
0.00010295781976 0.00010366627976 0.00010776618728 0.00011271842232 0.00011230339442 0.00010539944196 9.4680472102e-05 8.3424602053e-05 6.9636444096e-05 
5.4323350923e-05 3.852604641e-05 2.7361924367e-05 2.0593795853e-05 1.8196929886e-05 1.582279765e-05 1.4512780581e-05 1.4986901988e-05 1.4377354091e-05 
1.3769504221e-05 1.2834051631e-05 1.4821857803e-05 7.6187541708e-05 6.3277941081e-05 5.0107777497e-05 4.1214010707e-05 3.7302525016e-05 3.4900505852e-05 
3.2447038393e-05 3.0511779187e-05 2.0132720238e-05 1.2315194908e-05 8.4839821284e-06 9.825914276e-06 1.2331263861e-05 2.1427282263e-05 2.6569014153e-05 
5.6173208577e-05 6.7070199293e-05 7.633974019e-05 8.1061887613e-05 8.1344194768e-05 8.8420907559e-05 0.00010498594929 0.00012029062054 0.00012651066936 
0.00011889348389 0.0001074071115 9.584442887e-05 9.0120578534e-05 8.1250400399e-05 6.8468762038e-05 5.3744704928e-05 4.5461209083e-05 3.9662845666e-05 
3.607059989e-05 3.1791092624e-05 2.2777132472e-05 1.5627689208e-05 1.4055763131e-05 1.6941925423e-05 2.3437945856e-05 2.8518286854e-05 3.1990090065e-05 
3.8850575947e-05 4.1890056309e-05 4.4743002945e-05 5.1243237976e-05 6.2027029344e-05 7.3413699283e-05 8.4094470367e-05 9.4001952675e-05 0.00010665987793 
0.00011076476221 0.00010804970225 0.00010280439892 9.8955832073e-05 9.3883230875e-05 8.6689775344e-05 4.3687876314e-05 3.4823835449e-05 1.7169644707e-05 
2.2374415494e-05 3.4388587665e-05 4.6527355153e-05 5.7821325754e-05 7.1885318903e-05 8.3868835645e-05 9.3609065516e-05 0.00010373743862 0.00011227288633 
0.000117282063 9.8398151749e-05 8.9735854999e-05 8.132198127e-05 7.9934470705e-05 8.0912206613e-05 7.7597986092e-05 7.0789683377e-05 6.2196064391e-05 
4.9205424148e-05 3.7759600673e-05 2.6073321351e-05 1.7694850612e-05 1.2395812519e-05 1.0747189663e-05 1.2919105757e-05 1.5098236872e-05 1.6177564248e-05 
2.2370644729e-05 2.9417829865e-05 3.7444933696e-05 4.3060157623e-05 4.7365821956e-05 5.2915584092e-05 5.6353066611e-05 6.0544574808e-05 6.1500439188e-05 
6.4623804064e-05 6.8416651629e-05 7.5114257925e-05 8.5600826424e-05 9.4609276857e-05 0.00010383726476 0.00010672584176 0.00010809310334 0.00011287061352 
0.00011965016165 0.00012407918985 0.00012136412261 0.00011023435218 9.550491086e-05 8.1177182437e-05 6.7138003942e-05 5.2380204579e-05 3.74712763e-05 
2.7430363843e-05 2.1923695385e-05 1.9818557121e-05 1.6878098904e-05 1.4316883608e-05 1.4309155631e-05 1.1518688552e-05 1.3321691767e-05 1.6773978132e-05 
1.765813613e-05 1.5749499653e-05 0.00010501016368 0.00011429418373 4.0450937377e-05 5.1249317039e-05 6.0439913796e-05 7.2255825216e-05 8.1991260231e-05 
8.8919325208e-05 9.2329370091e-05 0.00010138336074 0.00011888074368 0.00013513882004 0.00013870568364 0.00013031337585 0.00011829927098 0.00010612957703 
9.5403855084e-05 8.503672143e-05 6.9641071605e-05 5.5299584346e-05 4.5914952352e-05 4.0572394937e-05 3.5822264181e-05 2.7176693038e-05 1.8659913621e-05 
1.4716958503e-05 1.3836287508e-05 1.6403280824e-05 2.3250453523e-05 2.6895202609e-05 3.2738698792e-05 4.1650826461e-05 4.8485748266e-05 5.3517946071e-05 
6.1256934714e-05 7.4175499321e-05 8.8871616754e-05 0.00010138975631 0.00010783298785 0.00011031775648 0.00010719592683 0.00010909867706 0.00011244539928 
0.00010852474225 0.0001003257712 9.1504087322e-05 8.1491998571e-05 7.0424182923e-05 5.9969432186e-05 5.0650742196e-05 4.3966152589e-05 3.6904966692e-05 
3.1003422919e-05 2.6659676223e-05 2.0747060262e-05 1.1755089872e-05 8.8764245447e-06 9.1652282208e-06 1.1865364286e-05 1.8319595256e-05 2.1355259378e-05 
2.7298901841e-05 3.396198008e-05 4.3132829887e-05 4.2765499529e-05 2.5214638299e-05 3.9011800254e-05 5.1785085816e-05 6.2216255174e-05 7.2721653851e-05 
8.4438259364e-05 9.7229065432e-05 0.00010662693239 0.00011867703142 0.00012944769696 0.00013026574743 0.00013054361625 0.00011242358596 0.00010536957416 
9.7239913885e-05 8.6938220193e-05 8.1705067714e-05 8.1547004811e-05 8.2145088527e-05 8.0663623521e-05 7.5974996435e-05 6.6339904151e-05 5.648485967e-05 
2.7183017664e-05 1.9014114514e-05 1.4500109501e-05 1.1908314264e-05 1.0734517673e-05 1.1663569239e-05 1.4731320334e-05 2.352989577e-05 4.0587550757e-05 
4.5279535698e-05 3.6352997995e-05 4.5112385124e-05 3.5214943637e-05 2.9453438401e-05 5.5904063629e-05 5.9651330957e-05 6.4317500801e-05 6.7144246714e-05 
6.5852982516e-05 6.8039575126e-05 7.2537222877e-05 7.8966491856e-05 8.8256434537e-05 9.5250921731e-05 0.00010223459685 0.00010640488472 0.00011233412079 
0.00012064351176 0.00012762570987 0.00012750916358 0.00011832309974 0.00010144184489 8.1823804067e-05 7.0981419412e-05 5.9126381529e-05 4.6119941544e-05 
3.4088079701e-05 2.5079105399e-05 1.9982529921e-05 1.6630878235e-05 1.42025483e-05 1.3775155821e-05 1.1705858924e-05 1.5296216588e-05 1.8523640392e-05 
2.3547752789e-05 2.7099109502e-05 5.1170962251e-05 6.3249208324e-05 7.5429306889e-05 8.776843606e-05 9.6593110356e-05 0.00010027240205 0.00011027661822 
0.00012844111188 0.00014342719805 0.00014812407608 0.00013967097038 0.00012777160737 0.00011464049021 8.2174577983e-05 6.8450295657e-05 5.6267166656e-05 
4.7008859838e-05 4.058700506e-05 3.4330329072e-05 2.3612794394e-05 1.6775613403e-05 1.4167556401e-05 1.33883741e-05 1.5707133571e-05 2.087048415e-05 
2.6499661544e-05 3.5715904232e-05 4.7545327106e-05 5.6846020016e-05 6.5028914833e-05 7.2796843597e-05 8.6258587544e-05 0.00010023296636 0.00011322152568 
0.00011572612129 0.00011041683319 9.9327648059e-05 0.00010003272473 0.00010821381875 0.00010837589798 9.8398508271e-05 8.9147710241e-05 7.952159649e-05 
7.1396723797e-05 6.3269544626e-05 5.7140638091e-05 5.106898243e-05 4.403764251e-05 3.4509379475e-05 2.6655399779e-05 1.9023238565e-05 1.2818692085e-05 
9.5525238066e-06 9.9286489785e-06 1.2535614587e-05 1.5323814296e-05 1.9406199499e-05 2.7285988836e-05 3.1925090298e-05 3.877932977e-05 4.4844360673e-05 
4.8782658268e-05 5.2225532272e-05 9.5183750091e-05 0.00010496258619 7.3666808021e-05 8.0953192082e-05 9.3720627774e-05 0.00010110357107 0.00010870680126 
0.00011721195915 0.00012615499145 0.00012943548791 0.00011748892575 9.6027783002e-05 7.7618926298e-05 6.7500433943e-05 5.9229114413e-05 4.8345405958e-05 
3.8120888348e-05 2.8652091714e-05 1.8877590264e-05 2.18873829e-05 3.9040365664e-05 5.3126135754e-05 6.1525926867e-05 7.1587499406e-05 8.5546984337e-05 
9.8791249911e-05 0.00011079032265 0.00012067758507 0.00012954477279 0.00014223517792 0.0001413400023 0.00014571516658 0.00013713311637 0.00012336605869 
0.00010642399138 9.5631512522e-05 8.774070011e-05 8.3659921074e-05 8.3168837591e-05 8.1398815382e-05 7.8470489825e-05 7.0683970989e-05 5.9325175243e-05 
5.06497272e-05 4.3172156438e-05 3.9462393033e-05 3.0131679523e-05 2.4427434255e-05 1.7751406631e-05 1.3622871847e-05 5.0344038755e-05 5.4220483435e-05 
5.7174980611e-05 7.2918606747e-05 7.5408926932e-05 7.3953953688e-05 6.2058868934e-05 7.5191353972e-05 9.0199333499e-05 0.00010173140618 0.00010752454546 
0.0001186625741 0.00013633162598 0.00014820246724 0.00015029813221 0.00014520616969 0.00013363087783 0.00012345510186 7.7874712588e-05 6.6464985139e-05 
5.6331857195e-05 4.8338930355e-05 4.0415954572e-05 3.1140967621e-05 2.2485190129e-05 1.6825060811e-05 1.4434830518e-05 1.303564386e-05 1.5032286683e-05 
3.0045102903e-05 4.0539795009e-05 5.234805576e-05 6.1644372181e-05 6.9726767833e-05 7.9099016148e-05 9.1145986516e-05 0.0001168975723 0.00011638881551 
0.00010553467291 9.8506636277e-05 9.6733157989e-05 0.00010233655485 9.9258679256e-05 8.8061235147e-05 7.9989680671e-05 2.4006758395e-05 1.8575658032e-05 
8.9815417596e-05 7.9765362898e-05 0.00010833144916 0.00010248218314 7.491766155e-05 6.8248802563e-05 6.1962775362e-05 5.6863649661e-05 5.2036830311e-05 
4.4419361075e-05 3.4036365832e-05 2.5378549253e-05 1.8379889298e-05 1.2620189409e-05 1.125538347e-05 1.2656270883e-05 1.5807456293e-05 2.0104795112e-05 
2.1176470909e-05 2.7641131965e-05 3.1423511246e-05 3.4236785723e-05 3.9035880036e-05 4.7123470722e-05 1.1761009773e-05 1.5344225176e-05 2.048101851e-05 
2.5880186513e-05 3.2002633816e-05 3.9905571612e-05 4.3675321649e-05 4.8336161854e-05 5.7939261751e-05 5.3528921853e-05 4.8809848522e-05 4.2513474909e-05 
3.456514969e-05 5.6033786677e-05 4.8454490752e-05 3.9645849029e-05 3.1101517379e-05 2.349944225e-05 1.6562231394e-05 1.5296764104e-05 1.9294931917e-05 
2.5677038138e-05 1.7665741325e-05 1.3127893908e-05 1.2669069292e-05 1.4372048099e-05 1.866979801e-05 2.2658901798e-05 2.3924625566e-05 2.6866295229e-05 
3.1282841519e-05 3.6956196709e-05 3.3765441913e-05 2.7643975045e-05 2.2388559955e-05 1.8203894797e-05 1.2109593627e-05 1.1814027857e-05 1.374310159e-05 
5.810588118e-05 7.2266462666e-05 8.9377826953e-05 0.00010420628678 0.00011310215632 0.00012373906793 0.00014434156765 0.00015164697834 8.5824794951e-05 
8.127806359e-05 7.4180396041e-05 6.3220955781e-05 5.4590746004e-05 0.00014512843336 0.00012595427688 0.00010776604176 9.639786731e-05 9.0322486358e-05 
2.5108402042e-05 2.5000192181e-05 2.2795589757e-05 1.5934074327e-05 1.2800834156e-05 1.2527007129e-05 1.3534457139e-05 1.7472593754e-05 1.9824248739e-05 
2.4287108317e-05 0.00014574170928 0.00014132009528 0.00013720303832 0.00012948864605 0.00010055270832 3.4821394365e-05 4.8394529585e-05 5.7730663684e-05 
7.0389411121e-05 8.4406114183e-05 9.9548393337e-05 6.5562569944e-05 0.00012242364755 2.2366890335e-05 2.8079679396e-05 3.4776952816e-05 4.4696284021e-05 
5.425976633e-05 6.3583087467e-05 7.2935697972e-05 8.1787613453e-05 9.0694738901e-05 9.7219337476e-05 0.00010646865121 0.00011227523646 0.000116998046 
0.0001182179476 0.0001143334157 0.00010351360834 9.6746676718e-05 9.7906653536e-05 9.5670424344e-05 9.4271854323e-05 8.8367822173e-05 0.0001322691096 
0.00013705005404 0.00014550413471 7.655947411e-05 8.8889049948e-05 1.4479331185e-05 8.9836183179e-05 8.9888926595e-05 8.7482439994e-05 9.3268463388e-05 
9.8408170743e-05 0.00010564112745 0.00011342926882 0.00012141319166 9.2585149105e-05 7.6131269452e-05 6.4603096689e-05 5.5407672335e-05 4.8777728807e-05 
3.9538892452e-05 3.1547358958e-05 2.6051513487e-05 1.4499016288e-05 1.3461227354e-05 1.7022137399e-05 2.3446174964e-05 3.091660983e-05 3.9128932258e-05 
4.6398483391e-05 5.5412292568e-05 6.4387124439e-05 7.1663533163e-05 8.0003286712e-05 8.724633517e-05 9.6184463473e-05 0.00010239010589 8.9291599579e-05 
0.00011610328511 0.00010986441339 0.00010145521082 9.464629693e-05 2.9579006878e-05 5.1905019063e-05 9.3982591352e-05 0.00014317360183 0.00012531733955 
7.8855962784e-05 6.8253881182e-05 5.9474932641e-05 9.8868287751e-05 0.00010563831165 0.00011264525529 1.7241723981e-05 1.3005231267e-05 1.2878947928e-05 
1.5169492144e-05 1.8637743779e-05 2.3799335395e-05 0.00012362818234 0.00011349614942 1.5469315258e-05 0.00011619675934 0.00011824191461 0.00012072519166 
9.4789240393e-05 9.0606154117e-05 8.4943188995e-05 7.8202894656e-05 7.2377268225e-05 6.7249959102e-05 6.3229548687e-05 5.5750901083e-05 4.8486032028e-05 
4.0168379201e-05 2.9984426874e-05 5.7899942476e-05 5.6556618802e-05 6.9201552833e-05 8.5999599833e-05 2.3800776034e-05 0.00010291016952 1.9824632545e-05 
0.00012851743668 1.5209717276e-05 1.2514044101e-05 1.2672680896e-05 9.0214118245e-05 7.6843520219e-05 8.7061023805e-05 6.1462546e-05 6.8632565672e-05 
6.4103376644e-05 1.4157089936e-05 1.6666350348e-05 0.00011455648928 0.00011040716345 9.0328940132e-05 9.8544398497e-05 0.00012311400496 0.00011674553389 
0.00010851544357 0.00011416620691 4.6385983296e-05 3.3903052099e-05 0.00011774903396 0.00011962056305 
Stress_XY 1 1059 double
3.889614527e-05 2.5262597774e-05 1.6203890482e-05 1.1840134903e-05 8.8453289209e-06 7.757840649e-06 3.7544584757e-06 7.8410749893e-07 8.1473208411e-06 
1.1911297406e-05 1.1074625945e-05 5.9187846091e-06 3.9825031308e-06 4.4577709559e-06 1.0185763131e-06 -3.2704363093e-06 -5.6735939324e-06 -9.8432919913e-06 
-1.3888448848e-05 -1.3302780644e-05 -1.0399494386e-05 -5.9917060753e-06 -2.1501946321e-06 3.2024279335e-06 7.8396096796e-06 8.2385831774e-06 5.5404543673e-06 
-2.6365162284e-06 -1.0717075384e-05 -1.4941914742e-05 -1.5370666006e-05 -1.4841979464e-05 -1.78111477e-05 -1.7470436433e-05 -1.3504874005e-05 -1.3921157915e-05 
-1.75598434e-05 -2.2691245249e-05 -2.9388704206e-05 -3.6809226003e-05 -4.8388730647e-05 -5.6507331465e-05 -5.3819341701e-05 -4.935268953e-05 -4.4937078201e-05 
-3.2444302633e-05 -1.6339987269e-05 -2.2919218736e-06 1.0300244867e-05 1.9280649212e-05 2.3374301236e-05 2.3315560611e-05 2.0625380785e-05 2.2600856028e-05 
2.9579259717e-05 3.9768958231e-05 -2.1159785319e-06 -3.797289537e-06 3.4623676015e-07 6.4853825279e-06 8.7164844444e-06 9.7804750112e-06 8.8330143626e-06 
6.3328348006e-06 3.2201576232e-06 5.9553099163e-06 1.1187874406e-05 1.8743212422e-05 1.7591235519e-05 1.1252151126e-05 2.7719411264e-06 -6.5852805164e-06 
-9.7487745734e-06 -1.35844748e-05 -1.1719668692e-05 -9.0168850875e-06 -7.6476826507e-06 -7.244535027e-06 -1.2574617358e-05 -1.7692285837e-05 -1.7345037122e-05 
-1.3320523067e-05 -8.2965025285e-06 -7.576481039e-06 -1.163306024e-05 -1.7452914108e-05 -2.1885029128e-05 -1.4729107534e-05 -1.6135603801e-05 -1.2138114471e-05 
-4.2744509301e-06 3.328604862e-06 5.0506209845e-06 2.1263765575e-06 -3.7290292312e-06 -1.1080348486e-05 -8.1464140749e-06 -1.6339506601e-06 1.326787924e-06 
1.0688853536e-06 -9.0065259428e-07 -3.3490471196e-06 1.1880117654e-06 7.6350152085e-06 1.0940300854e-05 1.0557462701e-05 8.677252481e-06 4.6788395593e-06 
-1.3441531337e-06 -3.8831485654e-06 -2.2635630614e-07 -6.2747071752e-06 -9.0902422016e-06 -3.5450989344e-06 7.3855244409e-06 3.4607903672e-06 1.2380454564e-06 
5.5727093695e-07 -3.7025657207e-08 -2.5136050681e-06 -2.0503591713e-06 -8.0162658378e-07 -5.1334450291e-06 -1.1459090274e-05 -1.644933036e-05 -1.9097933546e-05 
-2.0125775336e-05 -2.3268845325e-05 -2.6467099815e-05 -2.8307149478e-05 -2.9789229302e-05 -2.6735144274e-05 -2.0391573344e-05 -1.156396047e-05 -9.3502745813e-07 
4.8451970542e-06 9.7393121905e-06 1.2170764421e-05 1.3065649e-05 1.1799578715e-05 5.9408807829e-06 -1.5980042463e-06 -7.0937849159e-06 -1.038697792e-05 
-1.2586455341e-05 -1.4453898984e-05 -1.6132025848e-05 -1.7676216885e-05 -2.1080668375e-05 -2.6845385946e-05 -3.3901342249e-05 -4.2035138904e-05 -5.1995208196e-05 
-6.0553367803e-05 -6.2694671215e-05 -5.8409434132e-05 -4.9873662647e-05 -3.6810088204e-05 -1.8807462766e-05 -8.0216801734e-07 1.1846590496e-05 1.7826580006e-05 
2.0860812583e-05 2.1693678718e-05 1.8713575628e-05 1.1527289644e-05 7.4097883953e-06 8.4113953562e-06 9.2267227956e-06 9.2319914984e-06 -1.243526458e-05 
-1.4633132196e-05 -1.4219975128e-05 -1.2320782844e-05 -1.1010569324e-05 -1.065026845e-05 -1.1433146938e-05 -1.1542211723e-05 -7.0107839747e-06 1.8717249759e-06 
8.9265649876e-06 9.1156489361e-06 6.30554905e-06 1.0942225117e-06 -4.1113617044e-06 -1.0939663298e-05 -2.0035127818e-05 -2.5629693482e-05 -2.2686523153e-05 
-1.6650206817e-05 -1.325491121e-05 -1.2171261005e-05 -1.3826435861e-05 -1.3647701962e-05 -7.4465096986e-06 -7.6707641483e-07 6.5154381446e-07 -4.0144209379e-06 
-1.2269535546e-05 -1.775310011e-05 -2.0726865841e-05 -1.8113001715e-05 -1.4876904061e-05 -1.2439310922e-05 -8.6898817244e-06 -6.1455716605e-06 -5.4378838286e-06 
-7.0453447734e-06 -8.2083470261e-06 -8.1309717643e-06 -4.5176257117e-06 -1.7029864239e-06 -1.5179524553e-06 -4.4052517296e-06 -7.6247420111e-06 -8.1562802734e-06 
-9.9440057966e-06 -1.2812788555e-05 -1.3730582396e-05 -1.6039288312e-05 -1.909455932e-05 -1.993864862e-05 -1.4242044017e-05 5.205000889e-06 1.3965934158e-05 
6.8798312896e-06 1.9224046355e-06 -5.0890921557e-06 6.0002491864e-07 -1.0772803307e-06 -1.0370046084e-06 -1.4634172203e-06 -2.7604853585e-06 -2.884796686e-06 
-5.8454811551e-06 -1.4815754184e-05 -2.2876109142e-05 -2.8217706131e-05 -3.2263036701e-05 -3.4441953176e-05 -3.5596640373e-05 -3.5297016439e-05 -3.6092260416e-05 
-3.5128930904e-05 -2.9636981708e-05 -2.0485817004e-05 -9.6191424745e-06 -2.9232509746e-07 7.7639770097e-06 6.9760003498e-06 7.4413878792e-06 1.0783573089e-05 
9.9879762274e-06 4.7498770073e-06 -3.361004417e-07 -3.3577273371e-06 -5.6298881645e-06 -9.1586161943e-06 -1.327206337e-05 -1.7942045815e-05 -2.4103275791e-05 
-3.2020496292e-05 -4.1063631215e-05 -4.9631846196e-05 -5.6243858126e-05 -6.1289305449e-05 -6.2348612119e-05 -5.7481589465e-05 -4.9659021897e-05 -2.1259636924e-05 
-3.4033300835e-06 1.3220897927e-05 2.2798849386e-05 2.6230010917e-05 2.5770439606e-05 2.1527062927e-05 1.3850652067e-05 7.6922469816e-06 5.3967787608e-06 
5.8513132899e-06 6.1170662775e-06 3.3872177028e-06 7.7105278251e-06 3.9660380935e-06 -3.5033961467e-05 -4.0278511733e-05 -1.4407642084e-05 -1.656126733e-05 
-1.7240638044e-05 -1.6115844119e-05 -1.4730362636e-05 -1.2476583834e-05 -9.7644569905e-06 -5.3092758208e-06 3.0854480428e-06 7.3187993621e-06 6.420779755e-06 
3.5943619423e-06 -4.662756794e-07 -7.0851228884e-06 -1.5354102288e-05 -2.2316149625e-05 -2.4431092243e-05 -2.1565614588e-05 -1.6119205611e-05 -1.1778995031e-05 
-8.3378427007e-06 -7.0970763772e-06 -6.5022568378e-06 -1.9100821191e-06 3.2378281958e-06 4.3050335989e-06 7.1909602184e-07 -4.9115137699e-06 -1.0032543287e-05 
-1.3409046005e-05 -1.6557140043e-05 -1.8393360733e-05 -1.7070397007e-05 -1.3864383618e-05 -1.0304966963e-05 -8.4601870185e-06 -7.8998118624e-06 -6.9637421802e-06 
-6.3041611611e-06 -6.239625236e-06 -5.454033726e-06 -4.98127838e-06 -5.6587059589e-06 -8.4732437244e-06 -1.1706144505e-05 -1.4935376385e-05 -1.7509633835e-05 
-1.8994360289e-05 -2.0196041078e-05 -2.1375646611e-05 -1.9430739485e-05 -1.1851661839e-05 -1.3235257939e-06 3.2087057207e-06 3.2731795727e-06 -8.543533454e-07 
-5.3117641983e-06 -1.0656530321e-05 -2.9818102121e-05 -2.7387350201e-05 -1.585676182e-05 5.0669564189e-07 1.5856063328e-05 2.5349692805e-05 2.8327915061e-05 
2.6710104066e-05 2.2277943572e-05 1.5441357391e-05 8.5590154413e-06 5.1119905038e-06 3.483127557e-06 3.7817073917e-06 2.3453399081e-06 2.294574114e-10 
-1.9096553387e-06 -2.0601405595e-06 -2.2111892122e-06 -3.2573386761e-06 -5.1223973969e-06 -9.1680958576e-06 -1.6708281692e-05 -2.4480230422e-05 -3.095545253e-05 
-3.6368022847e-05 -4.0946037188e-05 -4.2898118409e-05 -4.2084120651e-05 -4.1193095967e-05 -3.7647921999e-05 -3.0651848647e-05 -2.0223451429e-05 -9.7174061011e-06 
-2.8523511446e-06 -1.3241680108e-07 1.0845290035e-06 4.6367595132e-06 6.2308909037e-06 5.4664665186e-06 2.4415646749e-06 2.1155246941e-06 6.3839843278e-06 
9.3612998171e-06 7.2040443229e-06 2.5778504096e-06 -8.9650905011e-07 -3.9833912524e-06 -8.7900216386e-06 -1.5642453945e-05 -2.2765978429e-05 -2.9231678127e-05 
-3.5690234654e-05 -4.3452186219e-05 -5.086433157e-05 -5.6299410062e-05 -5.9067187976e-05 -5.8117751905e-05 -5.2651332226e-05 -4.3774609367e-05 -3.5419077903e-05 
-2.6917443392e-05 -1.9545779651e-05 -2.1638521503e-05 -1.716845145e-05 -1.9157456336e-05 -1.9761460862e-05 -1.7766013116e-05 -1.3090729226e-05 -7.1319823292e-06 
-5.4706788433e-07 3.9020210352e-06 5.5411919675e-06 3.7285512917e-06 9.5656821486e-07 -3.8169018808e-06 -1.0078558262e-05 -1.4643408576e-05 -1.8479857317e-05 
-1.8118003936e-05 -1.3573877368e-05 -8.88487466e-06 -4.8404176596e-06 -3.1085821774e-06 -2.3653637982e-06 1.0998659263e-06 4.4404755499e-06 4.7178841669e-06 
2.9500818073e-06 -1.5517766769e-06 -5.9040894484e-06 -1.0124079381e-05 -1.5914418327e-05 -1.9583902031e-05 -1.8881257347e-05 -1.4906894648e-05 -1.1061283658e-05 
-9.5938321465e-06 -8.8864335339e-06 -7.1758354352e-06 -6.1964096858e-06 -6.2612821239e-06 -6.1412783907e-06 -6.1224563979e-06 -6.3111970121e-06 -8.1084863268e-06 
-1.1262430235e-05 -1.5168107893e-05 -1.8920660295e-05 -2.1581332476e-05 -2.2885318685e-05 -2.1733532776e-05 -1.7445059711e-05 -9.3843000286e-06 -2.1584937713e-06 
2.0547108761e-06 2.9489585813e-06 2.8742641689e-07 -3.8714811126e-06 -9.2661693998e-06 -1.3654216673e-05 -2.0067644073e-05 -1.9902738131e-05 -2.0584391677e-05 
-1.1099164112e-05 1.7022415477e-06 1.4045413991e-05 2.2379625079e-05 2.5681434636e-05 2.4848543035e-05 2.1480340365e-05 1.6302463337e-05 1.0828167433e-05 
6.3229003899e-06 3.9138549255e-06 3.1940344343e-06 6.0306314253e-07 -1.5623202216e-06 -2.3617121769e-06 -2.7479936762e-06 -4.1144830902e-06 -5.8583927967e-06 
-9.2406216936e-06 -1.5389603504e-05 -2.3515784051e-05 -3.1147956179e-05 -3.7431738747e-05 -4.278320921e-05 -4.5432279876e-05 -4.4863856601e-05 -4.282813461e-05 
-3.6850073229e-05 -2.71015615e-05 -1.728164716e-05 -1.0532656233e-05 -6.1617151914e-06 -3.1570355077e-06 -2.3011220947e-06 -2.5769313652e-06 6.7118634206e-07 
2.0720112843e-06 3.3982080367e-06 2.5255640139e-06 -1.9996468836e-07 -9.9358908301e-07 2.896392516e-06 7.3930127655e-06 6.3719644459e-06 2.7973994747e-06 
-6.0693935211e-07 -4.5314718591e-06 -1.0396584003e-05 -1.8470920622e-05 -2.7203919672e-05 -3.3704156522e-05 -3.7617668568e-05 -4.1775012505e-05 -4.6563611249e-05 
-5.0767048378e-05 -5.2769733884e-05 -5.1109989727e-05 -4.6046792704e-05 -3.8964411942e-05 -3.1147425034e-05 -2.3860782676e-05 -1.8320237359e-05 -1.4898994777e-05 
-1.4948813259e-05 -1.5270448785e-05 3.9716642277e-06 5.1539545893e-06 -1.7563374058e-05 -1.7730020772e-05 -1.4584693417e-05 -1.0232750355e-05 -5.3988292166e-06 
-1.5929073243e-06 -3.3110973163e-07 -1.0281814156e-07 2.6133743631e-06 5.1730808082e-06 5.7137917793e-06 4.1809785216e-06 1.4819422631e-06 -2.420008741e-06 
-7.7897529991e-06 -1.4112960343e-05 -1.8494394681e-05 -1.7697515432e-05 -1.3621700418e-05 -1.0535240108e-05 -1.1168340279e-05 -1.0162958461e-05 -7.9500632637e-06 
-7.1004615165e-06 -7.3948413046e-06 -6.6837301347e-06 -5.536934168e-06 -6.1605223891e-06 -7.8200737335e-06 -1.087840883e-05 -1.4421988453e-05 -1.7677886717e-05 
-2.0519079044e-05 -2.3577593311e-05 -2.0991130441e-05 -1.4400531654e-05 -6.4408213802e-06 -2.4785819619e-07 1.2585903733e-06 6.7963173933e-07 -6.4071326733e-07 
-3.6028504837e-06 -9.032937669e-06 -1.3275460333e-05 -1.6421772671e-05 -1.9162504032e-05 -2.0208444766e-05 -1.8030104911e-05 -1.3141959244e-05 -7.3590999818e-06 
-6.0049165995e-07 2.4095531899e-06 6.5198446464e-07 -2.0073264295e-06 -5.1581746447e-06 -8.7252710728e-06 -1.2642932234e-05 -1.4772192117e-05 -1.7998771e-05 
-1.7304779249e-05 -1.8545031708e-05 -1.8783101041e-05 -1.5978752344e-05 -1.1294815522e-05 -3.6911128518e-06 4.7148246267e-06 1.2070498997e-05 1.7044027118e-05 
1.8854238078e-05 1.7984972146e-05 1.5876657926e-05 1.2040445654e-05 8.1378702816e-06 6.5784306571e-06 5.0725052461e-06 3.3785404412e-06 2.9215398172e-06 
4.5422152652e-06 2.7826881706e-06 5.5527408449e-07 -1.4707328546e-06 -1.6807872498e-06 -2.5195781745e-06 -3.4332265386e-06 -5.5298178268e-06 -7.9339324657e-06 
-2.404215229e-05 -3.1589370337e-05 -3.9107111661e-05 -4.2783791287e-05 -4.4413965952e-05 -4.3899548473e-05 -4.1439685447e-05 -3.441381341e-05 -1.3073798982e-05 
-8.8788765424e-06 -1.6723930457e-05 -1.2060409063e-05 -2.0202836822e-05 -2.6171928766e-05 -5.32889635e-06 -5.8135356085e-06 -6.5745339271e-06 -3.8481994125e-06 
-1.4626801885e-06 -5.181823326e-07 6.9987260076e-07 -6.610272294e-07 -1.2588292293e-06 8.5750906464e-07 4.6964814828e-06 3.8863240661e-06 1.3858406192e-06 
-1.9020754962e-06 -5.7607026065e-06 -1.2539776435e-05 -2.1633823053e-05 -2.8528773328e-05 -3.3629421523e-05 -3.5067801946e-05 -3.7299487303e-05 -3.9633621782e-05 
-4.1584335122e-05 -4.1535357013e-05 -3.9196871512e-05 -3.7690231693e-05 -2.9860015275e-05 -2.2371727027e-05 -1.6359015717e-05 -1.3790048797e-05 -1.015401449e-05 
-1.1820936379e-05 -1.3099040189e-05 -1.514646101e-05 -1.2290176528e-05 -7.9191195255e-06 -3.101551556e-06 9.8661871561e-07 1.692225851e-06 1.441896984e-06 
3.2329578517e-06 6.0057982409e-06 6.6413672357e-06 5.6785074776e-06 4.1073030843e-06 1.6525888213e-06 -1.1574196833e-05 -1.4193795323e-05 -1.3872187083e-05 
-1.3217942069e-05 -1.2978573068e-05 -1.2542843251e-05 -1.0934362763e-05 -8.6386853582e-06 -7.5038174145e-06 -6.8891431511e-06 -6.0032352849e-06 -3.6870201257e-06 
-5.3620360632e-06 -8.2327842392e-06 -1.1319975783e-05 -1.453067398e-05 -1.6656862499e-05 -1.9404424165e-05 -2.2546175387e-05 -1.9021930711e-05 -1.3861696061e-05 
-6.2545145738e-06 4.1008510721e-07 1.4230736269e-06 -9.6396638583e-07 -2.4444516384e-06 -4.4444013838e-06 -9.627561667e-06 -1.2979021449e-05 -1.5713980247e-05 
-1.7517253582e-05 -1.8493767129e-05 -1.6950920326e-05 -1.4419188119e-05 -1.0918858607e-05 -7.3257365329e-06 -5.8532518779e-06 -6.3332640821e-06 -8.7723692559e-06 
-1.1471418475e-05 -1.427166444e-05 -1.6182735635e-05 -1.7419675714e-05 -1.9527185941e-05 -2.011223296e-05 -2.2897525923e-05 -2.2168531359e-05 -1.8526410713e-05 
-1.6586120182e-05 -1.4259341697e-05 -5.2241616686e-06 4.2248407794e-07 -1.9988842723e-06 -1.2564422605e-06 1.3966126744e-06 2.1118603399e-06 -4.7404927273e-07 
-3.7467768834e-06 -7.4622248576e-06 -1.3064044651e-05 -2.1793925043e-05 -2.6518358936e-05 -3.0622421036e-05 -3.1477109587e-05 -3.1756444514e-05 -3.3150983654e-05 
-3.4235315979e-05 -3.2350566471e-05 -2.9441933293e-05 -2.6829780836e-05 -7.526745776e-06 -2.5787774121e-06 3.3049370813e-06 8.7676771727e-06 1.260150475e-05 
1.3743272575e-05 1.4249842025e-05 1.2269927538e-05 9.9133976619e-06 8.0062800407e-06 6.5049971454e-06 5.1226520554e-06 3.8915682126e-06 2.9338996228e-06 
4.5730894271e-06 4.3462100621e-06 2.0897930426e-06 -3.9941929231e-07 -1.2654649026e-06 -1.9901224277e-06 -2.733674819e-06 -4.1102930481e-06 -6.0183774622e-06 
-9.6379380921e-06 -1.6075071471e-05 -1.9128096028e-05 -2.2150688892e-05 -2.8270673283e-05 -3.32842028e-05 -3.8757501898e-05 -6.4626128733e-06 -8.3586537585e-06 
-8.3431814346e-06 -7.7969998529e-06 -4.9318582569e-06 -1.9666399567e-06 -1.0840997675e-05 -5.6985913943e-06 -3.8761552901e-07 3.1627175758e-06 3.478301096e-06 
2.097255674e-06 3.8214002416e-06 6.0236898207e-06 6.1470191213e-06 7.6051815086e-06 6.8109848144e-06 5.9997751123e-06 -6.909239346e-06 -9.7713455034e-06 
-1.1026570064e-05 -1.2354175851e-05 -1.4703981833e-05 -1.3173615116e-05 -1.1027096662e-05 -8.5842875706e-06 -6.9689426709e-06 -6.1703517531e-06 -6.6226557465e-06 
-8.0172876551e-06 -1.0862252566e-05 -1.3211752048e-05 -1.4808028027e-05 -1.6882557247e-05 -1.7786229364e-05 -1.7223679606e-05 -1.3406388462e-05 -6.3624361246e-06 
-3.6701419504e-07 2.6514840101e-07 -2.009875061e-06 -4.1134717321e-06 -5.3546973504e-06 -7.2753500717e-06 -1.0671905329e-05 -6.5592234932e-06 -8.6460449893e-06 
1.7496905969e-07 -2.8626686799e-06 -1.8107744836e-05 -2.0875802875e-05 -1.3660957848e-05 -1.5271236407e-05 -1.5261921362e-05 -1.474358578e-05 -1.3834097444e-05 
-1.3346249034e-05 -1.2440875253e-05 -1.2173384675e-05 -1.3590140043e-05 -1.6101199435e-05 -1.9190631065e-05 -2.1779655071e-05 -2.2689333491e-05 -2.3250446247e-05 
-2.4401890187e-05 -2.4305503757e-05 -2.6306524887e-05 -2.5964502129e-05 -2.0731482437e-05 -1.3641457372e-05 -4.0670322051e-05 -3.813982039e-05 -3.3795593481e-05 
-2.8382748496e-05 -2.2314992748e-05 -1.9155169866e-05 -1.3850733012e-05 -1.0291042599e-05 -1.1666507817e-05 -1.0608045159e-05 -1.2912357306e-05 -1.5271021766e-05 
-1.6866095393e-05 -9.2190675787e-06 -1.2357768355e-05 -1.4368433767e-05 -1.3027523892e-05 -1.0399996427e-05 -8.4122739281e-06 -7.0491842052e-06 -1.8936596462e-05 
-1.8038625058e-05 -2.0647075871e-05 -2.4245315217e-05 -2.7226720704e-05 -2.8777889383e-05 -2.8933265639e-05 -2.8153834137e-05 -2.7191847039e-05 -3.0015911761e-05 
-2.9454144169e-05 -2.4116949135e-05 -2.6826435715e-05 -3.0917261029e-05 -3.2499559893e-05 -3.6274130252e-05 -3.8102189137e-05 -4.0637649363e-05 -4.2893989303e-05 
-1.0863267562e-05 -4.7738726607e-06 1.0292211527e-06 5.2191312534e-06 5.3655639931e-06 2.6238424198e-06 2.7711287203e-06 4.0204481593e-06 -5.4606573485e-07 
-1.4170383338e-06 -2.3244376735e-06 -4.6426198423e-06 -8.1885473264e-06 3.5559755815e-06 5.3526860029e-06 5.6170583775e-06 3.7517872897e-06 1.199334406e-06 
-3.2869626011e-05 -3.49981201e-05 -3.5514316551e-05 -3.6858287785e-05 -3.7176658225e-05 -3.7557914766e-05 -3.6474390072e-05 -3.493656186e-05 -3.00096508e-05 
-2.4507098715e-05 7.8130779002e-06 8.9099285105e-06 8.2060250861e-06 8.3783415903e-06 2.6622549285e-06 -9.2946183941e-06 -6.2659860305e-06 -1.5551393062e-06 
3.0351625355e-06 7.6995384006e-06 1.0141112398e-05 -6.4315122472e-06 1.1053689377e-05 -1.5739327864e-05 -1.3861952539e-05 -1.4774395822e-05 -1.6107431293e-05 
-1.649686601e-05 -1.7228943761e-05 -1.8865323e-05 -1.9661680199e-05 -1.8348093363e-05 -2.0372803192e-05 -2.1914720492e-05 -1.9076142053e-05 -1.6867723389e-05 
-1.1664134036e-05 -5.6034036788e-06 -7.0158040444e-07 -4.8228059768e-07 -3.0915398384e-06 -4.4711782721e-06 -4.1193657125e-06 -5.245846296e-06 1.0031128113e-05 
9.160126865e-06 8.1073094407e-06 -2.2441622605e-06 -2.4471034976e-06 -2.0429381038e-05 -2.2457566047e-06 -1.0166344282e-06 2.8374873295e-07 1.3541738326e-06 
7.2328526812e-07 -1.7834757955e-06 -5.2798118304e-06 -9.1258762041e-06 -2.7494228561e-05 -2.8711494451e-05 -2.8207370633e-05 -2.7049982236e-05 -2.7395584766e-05 
-2.7091902666e-05 -2.6097139198e-05 -2.2291125788e-05 -1.4458869373e-05 -9.296177268e-06 -9.0138992164e-06 -1.0022040442e-05 -2.0880972443e-05 -2.1388019377e-05 
-2.176218004e-05 -2.1393561838e-05 -2.1158282834e-05 -2.1738243959e-05 -2.2345859179e-05 -2.1800418835e-05 -2.4188688258e-05 -2.3508286176e-05 -1.5629227619e-06 
-8.7827602329e-06 -4.2305800889e-06 -1.7932735545e-06 3.4942630123e-07 -1.0775742339e-05 -1.2056371816e-05 1.8875124397e-06 2.9573936899e-06 5.986431006e-06 
-4.2341207518e-07 -2.8797817322e-06 -6.2183112277e-06 -7.4528867344e-07 -3.1781339658e-06 -6.6204856921e-06 -2.7105741538e-05 -3.0068180422e-05 -3.2230847864e-05 
-3.3041840652e-05 -3.2442090742e-05 -3.2100640965e-05 -1.256275209e-05 -1.9563736714e-05 -3.2318199374e-05 -1.7929110982e-05 -1.058406724e-05 -1.3097590454e-05 
4.7670296226e-06 -2.6661995435e-05 3.6187507249e-06 -2.6401779905e-05 1.0734582645e-07 -2.5083571018e-05 -4.2982455852e-06 -8.2365559138e-06 -1.2014418644e-05 
-1.3399559975e-05 -1.1397915841e-05 -2.3736831281e-05 -6.0075803958e-06 -2.4187293093e-06 7.9195950775e-07 -3.3308460843e-05 5.3372205002e-06 -3.4929165849e-05 
3.388293635e-06 -3.595076123e-05 -3.5371285776e-05 -3.4295557271e-05 -2.5983404157e-06 -3.3450314731e-06 1.6958880167e-07 -9.2458594736e-06 -1.0917456166e-05 
-1.2454787793e-05 -7.4003842201e-06 -1.1881135833e-05 5.504065939e-06 5.9936182879e-06 1.0155135897e-06 4.2779656724e-06 8.9053974079e-06 5.8717478169e-06 
8.56171755e-06 1.1470957361e-05 -9.2247728389e-06 -9.0043622549e-06 -1.3384211343e-05 -1.6765261535e-05 
Stress_YZ 1 1059 double
2.1559610559e-06 4.9104405662e-06 3.6579531297e-06 2.0749312171e-06 -8.0204256392e-07 -5.6707253862e-06 -1.054238146e-05 -1.5074918338e-05 -2.5077864848e-05 
-3.1125407986e-05 -2.599925574e-05 -1.5456937035e-05 -7.7210688687e-06 -1.1745165693e-06 7.13149484e-06 1.1115359484e-05 1.412126403e-05 1.7794776795e-05 
2.2987880584e-05 2.5831595849e-05 2.7220041375e-05 2.7761156161e-05 2.4560011298e-05 1.2322102521e-05 -5.485566362e-06 -2.1394856958e-05 -2.3696682547e-05 
-2.266239062e-05 -2.6024568797e-05 -2.8284606742e-05 -2.5920651751e-05 -1.979650915e-05 -1.7806973119e-05 -1.2638092812e-05 -2.3512127427e-06 3.1308270536e-06 
1.3892243942e-06 -1.9011906716e-06 -5.766531558e-06 -1.0211600966e-05 -1.376788623e-05 -1.5578840248e-05 -7.8042876339e-06 3.614517027e-06 1.8181413907e-05 
3.2645482861e-05 4.0545051888e-05 3.7230871385e-05 2.977013537e-05 2.2071753847e-05 1.5641309801e-05 1.0054109225e-05 4.5678048082e-06 2.1455612114e-06 
4.7829809091e-07 -1.8753601125e-06 1.9002292902e-05 1.8558628653e-05 1.5191302737e-05 9.9064936876e-06 4.610830274e-06 1.9772239739e-06 8.3297345554e-07 
-9.6500173186e-07 -2.8029535315e-06 -3.3021231047e-06 3.0780333873e-06 1.015558064e-05 9.9477647382e-06 7.8643370216e-06 2.7196210795e-06 -3.2087082218e-06 
-1.3242684872e-05 -2.3560947739e-05 -2.4208155082e-05 -1.5200986127e-05 -2.6740251542e-06 6.8277322498e-06 9.1218453235e-06 8.1282205429e-06 1.2523042642e-05 
1.1782746697e-05 6.685047083e-06 4.5542501539e-06 9.1182840833e-07 1.5942670473e-07 3.5945072341e-06 -1.6284095636e-06 1.0036725143e-05 1.4840537006e-05 
1.615916517e-05 2.0074261556e-05 1.8784508939e-05 1.2831160348e-05 6.547979865e-06 7.3636406341e-06 4.1767134462e-06 -3.1692400171e-06 -9.817847058e-06 
-1.2695112673e-05 -1.2740949387e-05 -1.2499029253e-05 -1.3072623915e-05 -1.2909370525e-05 -1.0781333003e-05 -8.6974951046e-06 -6.1272489802e-06 -4.9166096687e-06 
-5.5544401221e-06 -7.4105746535e-06 -8.4476223492e-06 -7.2804691627e-06 5.1586830523e-06 1.7062278857e-05 -2.4023916012e-06 -6.7632736318e-06 -1.2165108274e-05 
-1.7914187993e-05 -2.3750326363e-05 -3.0686132959e-05 -3.4937922464e-05 -3.6291879951e-05 -3.2430238207e-05 -2.3180042263e-05 -1.4686511349e-05 -9.5513150882e-06 
-4.8954748308e-06 2.0779773422e-06 7.825045941e-06 1.4009319784e-05 2.0734620193e-05 2.6074290872e-05 2.9613534934e-05 3.2256706618e-05 3.5345357901e-05 
3.6743953387e-05 3.1641880923e-05 2.0936153305e-05 3.6971516693e-06 -6.9436405283e-06 -1.1444865777e-05 -1.342102405e-05 -1.5897232515e-05 -1.7812448277e-05 
-1.7608697817e-05 -1.5264778995e-05 -1.287590112e-05 -1.1200529116e-05 -1.039243034e-05 -9.9832150227e-06 -9.9096168924e-06 -9.0644198281e-06 -6.2664867073e-06 
-8.5016324647e-07 7.5987732089e-06 1.7350304915e-05 2.7613850762e-05 3.4693766793e-05 4.0183855162e-05 4.481677388e-05 5.0273243687e-05 5.2977353334e-05 
4.905986134e-05 4.3097923481e-05 3.341235788e-05 2.1584946808e-05 1.1802389054e-05 5.1610491028e-06 1.7865055497e-06 -5.7285240018e-07 2.5491195629e-05 
2.4715855034e-05 2.0659519578e-05 1.5857614926e-05 1.0901985661e-05 7.7328350017e-06 7.5191351243e-06 1.0007131095e-05 1.3495417079e-05 1.4151724827e-05 
8.9950044639e-06 1.6556576838e-06 -5.5649384194e-06 -1.2131282347e-05 -2.0525787477e-05 -2.7568505175e-05 -3.1130741263e-05 -3.1356885302e-05 -2.8532376746e-05 
-2.0428402422e-05 -1.3214336832e-05 -6.54350697e-06 -2.7032860999e-06 -1.347010766e-06 9.3561311587e-07 5.7738570831e-06 1.0685499547e-05 1.5680725483e-05 
1.7362719518e-05 1.6627944206e-05 1.9721339413e-05 2.1576697691e-05 2.796712397e-05 3.3613709093e-05 3.4626489651e-05 3.1174229662e-05 2.7267447877e-05 
2.4412547646e-05 2.1549632947e-05 1.2843597688e-05 2.3646302907e-06 -7.8734337876e-06 -1.6664993382e-05 -2.1439607735e-05 -2.2749540221e-05 -2.2079639166e-05 
-1.9737784896e-05 -1.630864972e-05 -1.3248856703e-05 -1.0520707292e-05 -9.6718822533e-06 -9.5770583357e-06 -8.8545912149e-06 -2.2710796657e-06 5.1880183491e-06 
1.6109297576e-05 2.1094401745e-05 2.1928297429e-05 -1.7519310859e-05 -2.364996908e-05 -3.1144754757e-05 -3.7842146412e-05 -4.3773376092e-05 -4.5641048928e-05 
-4.3911164539e-05 -3.9803191612e-05 -3.2433890738e-05 -2.4633372959e-05 -1.7986794774e-05 -1.1054652532e-05 -3.3542544315e-06 6.3439674705e-06 1.6442585547e-05 
2.4567229048e-05 3.0609848181e-05 3.4126085666e-05 3.7489273382e-05 4.0436858399e-05 3.6252120481e-05 2.7972997486e-05 1.5247721421e-05 4.4044577407e-06 
-5.2078548833e-06 -1.1623901628e-05 -1.6506372049e-05 -2.2154315957e-05 -2.6683646865e-05 -3.0263981898e-05 -3.2853604353e-05 -3.4769611375e-05 -3.4455184505e-05 
-3.0739760405e-05 -2.6674901164e-05 -2.2828820875e-05 -1.8100345187e-05 -1.0813948393e-05 -2.3393326956e-06 6.0475576902e-06 1.2914049876e-05 4.1167088057e-05 
4.8343554226e-05 5.2713527111e-05 5.4320378695e-05 5.2089249948e-05 4.6482975449e-05 3.6413926864e-05 2.4269449568e-05 1.519523903e-05 7.3728597272e-06 
7.0482496994e-07 -7.1311201282e-06 -1.3669810869e-05 3.9864582504e-05 3.9848313463e-05 3.042226308e-05 1.4343191651e-05 3.1793359085e-05 2.9939992601e-05 
2.7155110729e-05 2.3710996174e-05 2.1178813768e-05 2.2144207833e-05 2.6365358281e-05 2.9307529985e-05 2.5912651836e-05 1.6632491679e-05 6.7938681241e-06 
-2.3066788799e-06 -1.167582468e-05 -1.9954815798e-05 -2.5252298656e-05 -2.6923547921e-05 -3.0239061743e-05 -3.048660983e-05 -2.5102941436e-05 -1.9862305635e-05 
-1.4355697203e-05 -8.3737650129e-06 -5.3541139096e-06 -1.3799667613e-06 6.8318277044e-06 1.6749483621e-05 2.3211237931e-05 2.6721716495e-05 2.8911154004e-05 
3.2346088119e-05 3.7082721974e-05 4.1121213144e-05 4.4048891141e-05 4.0228238504e-05 3.4073014831e-05 3.0416787922e-05 2.9455544791e-05 2.5618366635e-05 
1.5922834791e-05 3.8717130337e-06 -8.323037946e-06 -2.0226287234e-05 -2.9526832805e-05 -3.5907076381e-05 -3.7348712794e-05 -3.5563480196e-05 -3.2424530218e-05 
-2.7978272556e-05 -2.4104903787e-05 -2.0625751858e-05 -1.7211768863e-05 -1.4557713257e-05 -6.9183265623e-06 2.8008207664e-06 1.7670859961e-05 2.5040775654e-05 
2.7374762794e-05 3.059599112e-05 1.0741648111e-05 2.3235152184e-05 3.4305623558e-05 4.3026473577e-05 4.8114146921e-05 4.8989313655e-05 4.7322515456e-05 
4.2641611799e-05 3.3798394725e-05 2.365459477e-05 1.3304442291e-05 3.1400893477e-06 -6.0268362176e-06 -1.4218817341e-05 -1.9386572603e-05 -2.2342926968e-05 
-2.8557758924e-05 -3.5915338231e-05 -4.2922598368e-05 -4.7927467676e-05 -4.9816244427e-05 -4.7014054871e-05 -4.1784049245e-05 -3.5755103454e-05 -3.0072958907e-05 
-2.3672826501e-05 -1.5422207071e-05 -4.9365453378e-06 6.6464931479e-06 1.74103061e-05 2.6985027944e-05 3.255367119e-05 3.7357502151e-05 4.0674563934e-05 
4.1587882151e-05 4.051085125e-05 3.8314155972e-05 3.650731378e-05 3.5386816307e-05 3.333442146e-05 2.7793534173e-05 1.904918463e-05 8.6518175522e-06 
-2.5302549602e-06 -1.1320083104e-05 -1.8312672182e-05 -2.5911584089e-05 -3.3680920751e-05 -4.0527884266e-05 -4.5194828999e-05 -4.8425405112e-05 -4.9192211009e-05 
-4.5067146857e-05 -3.8349378883e-05 -3.1489922549e-05 -2.5028539312e-05 -1.8015160094e-05 -9.262948879e-06 -1.6910299792e-06 1.6960876792e-06 1.7547096149e-06 
2.8532690521e-06 7.9341616583e-06 1.1848157556e-05 3.3669486584e-05 3.320630276e-05 3.1991796277e-05 3.0718372727e-05 3.0756858905e-05 3.3458210964e-05 
3.5843451769e-05 3.2543994166e-05 2.2184762202e-05 1.1018770238e-05 1.7228832121e-06 -6.9406314651e-06 -1.4947939235e-05 -2.1475954782e-05 -2.4429018595e-05 
-3.0478597182e-05 -2.6924732083e-05 -2.2797079509e-05 -1.8040884243e-05 -1.2196246644e-05 -7.5905240919e-06 -1.4019194623e-06 7.7770982898e-06 1.7020847736e-05 
2.3645110559e-05 2.8940507036e-05 3.351255873e-05 3.8208727347e-05 4.3671188905e-05 4.720923971e-05 4.6865992772e-05 4.2194824346e-05 3.6752284359e-05 
3.3209329558e-05 3.0412084016e-05 2.4331533496e-05 1.4392904632e-05 2.8836045658e-06 -9.2856262199e-06 -2.2142367015e-05 -3.3916228858e-05 -4.2449806642e-05 
-4.5182230679e-05 -4.3557651225e-05 -3.9580638258e-05 -3.4868244256e-05 -3.1386076444e-05 -2.7449361369e-05 -2.2181600798e-05 -1.5565205103e-05 -3.6380813526e-06 
5.2560358199e-06 1.3963578567e-05 2.2953070584e-05 2.8594060495e-05 3.2831616409e-05 3.4016447898e-05 -2.9680570151e-05 -2.7816840884e-05 2.0580406272e-05 
2.9140714105e-05 3.7985497329e-05 4.2170195229e-05 4.2352781747e-05 4.1107512516e-05 3.715553612e-05 3.0095456168e-05 2.2048814571e-05 1.2426978174e-05 
2.0738475541e-06 -2.0436988052e-05 -2.2845271815e-05 -2.7035604944e-05 -3.0871295166e-05 -3.711260797e-05 -4.3693311454e-05 -4.8955978855e-05 -5.0106162234e-05 
-4.6207213018e-05 -4.0744038415e-05 -3.6667071981e-05 -3.1645507988e-05 -2.4607948944e-05 -1.4948695934e-05 -4.234208518e-06 7.725739124e-06 1.799245365e-05 
2.8144200769e-05 3.6214009015e-05 4.0249724407e-05 4.1920524382e-05 4.2392777686e-05 4.1889117711e-05 4.0495357098e-05 3.8614183723e-05 3.572827336e-05 
3.361076233e-05 3.1584884709e-05 3.0429180697e-05 2.5194163754e-05 1.9190036255e-05 8.1841189967e-06 -2.9382015327e-06 -1.3338555618e-05 -2.1905936592e-05 
-3.0790910387e-05 -4.073182572e-05 -4.9722202675e-05 -5.5373238865e-05 -5.816058183e-05 -5.8373789216e-05 -5.4989795899e-05 -4.8762347433e-05 -4.1159215471e-05 
-3.3577111026e-05 -2.5565486794e-05 -1.6924510419e-05 -9.887376109e-06 -6.8803383328e-06 -5.9825692915e-06 -2.4944881716e-06 4.8099300329e-06 1.4430270312e-05 
1.7027357899e-05 1.8460452338e-05 -1.2768485249e-05 -6.4537293838e-06 -3.0484477975e-05 -3.1523530197e-05 -3.1497169402e-05 -2.9498471122e-05 -2.6382334909e-05 
-2.1773556e-05 -1.5907191482e-05 -1.0176412616e-05 -3.0008661724e-06 6.3141051214e-06 1.5803618226e-05 2.3192029403e-05 2.9391125281e-05 3.4741529817e-05 
3.9774793549e-05 4.4796517614e-05 4.7078541684e-05 4.5618700824e-05 4.2026753363e-05 3.842274964e-05 3.3237192838e-05 2.8894563002e-05 2.1788126105e-05 
1.2220963981e-05 1.4632572629e-06 -9.3282324087e-06 -2.2996890038e-05 -3.5461987864e-05 -4.5340515499e-05 -5.0115984777e-05 -5.0957642088e-05 -4.7513254685e-05 
-4.2457839299e-05 -3.8579102693e-05 -3.5214994568e-05 -2.7377696824e-05 -1.6684192815e-05 -1.5963415763e-06 7.3012752182e-06 1.2855295608e-05 2.082013998e-05 
2.9231994631e-05 3.4325268643e-05 3.5392753489e-05 3.606656901e-05 3.7360579881e-05 3.8960908569e-05 3.946324432e-05 4.0029488446e-05 4.0710638132e-05 
3.9704202209e-05 3.6144796468e-05 2.6385769161e-05 1.4530484805e-05 4.5230794967e-06 -4.0214190449e-06 -1.14846207e-05 -1.7796308384e-05 -2.2036190785e-05 
-2.6107169106e-05 -2.8674194255e-05 -3.1851719541e-05 -3.2950531022e-05 2.8456604923e-05 3.7992409489e-05 4.1384359065e-05 4.076033656e-05 3.7498972233e-05 
3.4028231312e-05 2.9032382372e-05 2.2938673283e-05 1.5563251509e-05 7.9551227827e-06 -2.0539862078e-07 -6.8276499405e-06 -1.35846185e-05 -1.903608063e-05 
-2.4745571864e-05 -2.8161393857e-05 -3.0800481909e-05 -3.2886484405e-05 -3.7368139601e-05 -4.2304902308e-05 -4.7117464419e-05 -4.8558948038e-05 -4.5440148824e-05 
-3.4092718124e-05 -2.9438193451e-05 -2.2272126444e-05 -1.3045099877e-05 -2.9467018976e-06 7.947955055e-06 1.9166203856e-05 3.0348170185e-05 4.2672119889e-05 
4.2757328629e-05 -3.8039026549e-05 -3.996414307e-05 4.1017901822e-05 3.7196481571e-05 4.221330164e-05 4.1266870539e-05 3.9800575905e-05 3.6945813918e-05 
3.3057069231e-05 3.0710973078e-05 3.081779505e-05 2.5332370569e-05 1.8455393729e-05 8.4973935373e-06 -3.9018118514e-06 -1.5227099539e-05 -2.4945691621e-05 
-3.4644486732e-05 -4.5567972847e-05 -5.5385677115e-05 -6.2106839323e-05 -6.3246574427e-05 -6.1151295085e-05 -5.8422268921e-05 -5.3529911384e-05 -4.7252306103e-05 
-4.0092312702e-05 -3.158412801e-05 -2.2675360015e-05 -1.4216887394e-05 -1.2699932086e-05 -7.9209457908e-06 1.1934632482e-07 1.0512620975e-05 1.9850447643e-05 
2.4866165404e-05 2.8309092158e-05 -3.205752364e-05 -3.3247441024e-05 -3.2697800634e-05 -3.0447166864e-05 -2.6044732294e-05 -1.9540550056e-05 -1.3501348803e-05 
-6.4715450208e-06 2.7689529816e-06 1.3390737877e-05 2.1251196813e-05 2.7385656722e-05 3.2347990782e-05 4.2299812776e-05 4.4096494094e-05 4.3232379539e-05 
4.0700451791e-05 3.6954821553e-05 3.1669147575e-05 2.6934378184e-05 1.9739611162e-05 1.0700805433e-05 1.0386121119e-07 -1.0409413335e-05 -2.3660459192e-05 
-3.688392826e-05 -4.7548135626e-05 -5.3883755754e-05 -5.6620130636e-05 -5.4998381529e-05 -5.1214057748e-05 -4.6949717216e-05 -4.2250620027e-05 -3.2640764402e-05 
-1.9491159037e-05 -3.7910044739e-06 5.6639523791e-06 1.1586125765e-05 1.890745807e-05 2.8871414543e-05 3.4175140172e-05 3.6264067603e-05 3.8241116272e-05 
4.0312097553e-05 4.32834604e-05 4.5077289542e-05 4.6547360398e-05 4.6195989853e-05 4.2734427552e-05 3.653611202e-05 2.6285235435e-05 1.5514478946e-05 
5.7428887885e-06 -2.6502336823e-06 -9.4242805062e-06 -1.4954888684e-05 -1.9927001631e-05 -2.386154847e-05 -2.9186940083e-05 -3.1330211641e-05 -3.3307864214e-05 
-3.4312251955e-05 -3.4165419493e-05 3.8925030822e-05 3.5413471778e-05 2.8031603506e-05 2.2582020392e-05 -4.9397349358e-06 -1.6140958905e-05 -2.607487113e-05 
-3.6270659621e-05 -4.8009202146e-05 -5.8586720115e-05 -6.4742001996e-05 -6.432729424e-05 -6.0706683144e-05 -5.7771325373e-05 -5.4696214647e-05 -4.9866466725e-05 
-4.3426574848e-05 -3.5583150748e-05 -2.0193510863e-05 -2.8154217944e-05 3.6788900616e-05 4.1812472773e-05 4.1556268116e-05 3.7593086745e-05 3.3956475818e-05 
3.0136056012e-05 2.5175737392e-05 1.9394483388e-05 1.3428639249e-05 7.9509263742e-06 2.6241132218e-06 -3.6139279018e-06 -1.396443713e-05 -2.0861045414e-05 
-2.5313276637e-05 -2.998902346e-05 -3.3224547224e-05 -3.4857319406e-05 -3.7139598135e-05 -4.1300379962e-05 -4.5462278649e-05 -4.6912031394e-05 -4.3780946726e-05 
-3.954955173e-05 -3.6155961425e-05 -3.5935507185e-05 -3.2958640077e-05 -3.0307119232e-05 -2.4602355552e-05 -1.714069731e-05 4.3124025979e-05 4.3738698878e-05 
4.1747138312e-05 3.8518464862e-05 3.4036358556e-05 3.0417882954e-05 -3.512517651e-05 -3.5349621612e-05 -3.3832868212e-05 -2.9966351576e-05 -2.3834169042e-05 
-1.770516792e-05 -1.1298190657e-05 -1.7909005692e-06 9.4021497716e-06 1.6684103684e-05 2.3414437237e-05 2.8963922887e-05 4.0657767386e-05 4.1313047404e-05 
4.1375384171e-05 3.9912145439e-05 3.5857603507e-05 3.0707848055e-05 2.560851317e-05 1.8668270059e-05 9.686445992e-06 -6.393786407e-07 -9.84050439e-06 
-4.0607319534e-05 -4.9787089665e-05 -5.5914904806e-05 -5.9270838392e-05 -5.9412708652e-05 -5.7535136875e-05 -5.4327843827e-05 -3.6054858356e-05 -2.1994877898e-05 
-8.407580026e-06 5.8494208588e-07 7.9017954704e-06 1.6414351194e-05 2.4605144063e-05 3.2105846913e-05 3.7410092773e-05 -2.9559294489e-05 -2.1344651032e-05 
4.9882196436e-06 1.3780064364e-05 -4.7819095926e-05 -5.6792861869e-05 4.0408645873e-05 4.1938270442e-05 4.3990308768e-05 4.6235229092e-05 4.7701916628e-05 
4.6190234571e-05 4.1548708396e-05 3.4715707443e-05 2.4951781597e-05 1.514971791e-05 5.9753792812e-06 -2.5499871299e-06 -9.5634868558e-06 -1.5414596419e-05 
-2.0514038624e-05 -2.2649872335e-05 -2.6988751415e-05 -3.0890929338e-05 -3.2537245716e-05 -3.5320575989e-05 1.084858377e-05 2.0466322894e-05 2.7576836146e-05 
3.2934523915e-05 3.7665420678e-05 4.3302763515e-05 4.493034794e-05 4.4477925258e-05 4.2585761548e-05 4.4766649808e-05 4.696148244e-05 4.5198437874e-05 
4.0462142351e-05 4.0499719034e-05 3.9026330342e-05 3.4899669117e-05 3.0829785828e-05 2.4988259611e-05 1.7271951947e-05 7.1396648309e-06 -2.2289728804e-05 
3.2599040424e-05 2.3087912268e-05 1.3340314581e-05 3.6808030472e-06 -5.0976341299e-06 -1.2197779142e-05 -1.7721451513e-05 -2.2492626158e-05 -2.4449864213e-05 
-2.7782600228e-05 -3.281867248e-05 -3.1172250601e-05 -2.9616514439e-05 -2.5486930099e-05 -1.8941706003e-05 -1.0116349586e-05 1.6638979616e-07 -8.3199629444e-06 
-3.555148578e-05 -3.7682377297e-05 -3.8466416299e-05 -3.5253615351e-05 -2.8442927942e-05 -2.2858195734e-05 -1.7175523681e-05 -9.5147433967e-06 -4.1180875996e-05 
-4.5069380576e-05 -4.5648601372e-05 -4.2281422793e-05 -3.8781538024e-05 -1.8833357899e-05 -2.4954118999e-05 -3.1859068258e-05 -3.6396431824e-05 -3.8946767745e-05 
-2.6579738915e-05 -2.5807452403e-05 -2.066412344e-05 -1.396566131e-05 -5.0444218687e-06 4.7490825636e-06 1.4734479919e-05 2.2402931791e-05 2.6040353987e-05 
2.9915796404e-05 7.4175104601e-06 1.2973453522e-05 1.9263045033e-05 2.4406863304e-05 3.6281140638e-05 3.3262818761e-05 3.9096492401e-05 4.0763599827e-05 
3.8398462493e-05 3.5481156374e-05 3.2587497117e-05 4.0075621655e-05 2.3437514756e-05 -2.8406722777e-05 -3.5686458432e-05 -4.3800839194e-05 -5.1196417189e-05 
-5.6218108512e-05 -5.9543581301e-05 -6.1748243752e-05 -6.1676677433e-05 -6.0578819102e-05 -6.202149234e-05 -6.5184154664e-05 -5.9182508267e-05 -5.0312606618e-05 
-3.7524634536e-05 -2.3352995413e-05 -1.0741595361e-05 -1.2518216863e-06 5.9544895521e-06 1.1392953638e-05 1.9998484277e-05 2.8862246836e-05 1.9039294784e-05 
1.3951853362e-05 1.0500903954e-05 2.388554276e-05 1.810428148e-05 -1.4731657757e-05 1.2625348973e-05 1.0527707673e-05 3.1254849091e-06 -7.0242303991e-06 
-1.60360687e-05 -2.6112873456e-05 -3.6824305425e-05 -4.8605055781e-05 -6.3847473939e-05 -6.0734684666e-05 -5.7371576986e-05 -5.4696360166e-05 -5.1123253797e-05 
-4.5316355681e-05 -3.8645273889e-05 -3.3380081732e-05 -5.7275019572e-06 5.7369688875e-06 1.6720276108e-05 2.4914748792e-05 -3.8792622945e-05 -4.5529028284e-05 
-5.1461927796e-05 -5.5371830967e-05 -5.8886664192e-05 -6.173649308e-05 -6.310538447e-05 -6.3433115429e-05 -6.4816638769e-05 -6.6635984695e-05 7.1504068728e-06 
-3.7605219404e-05 -2.4457822292e-05 -1.3518516425e-05 7.9703755773e-07 2.8193577236e-05 -3.5248602217e-05 -8.4837010945e-06 -2.2856405849e-05 -2.810931619e-05 
-4.4672029617e-05 -4.1721392336e-05 -3.815767559e-05 -1.5861438442e-05 -2.5894838473e-05 -3.7274381611e-05 2.0581544959e-05 1.0325184121e-05 4.441429553e-07 
-8.1062707977e-06 -1.4896892026e-05 -2.0350873456e-05 -5.9423418861e-05 -6.5416112193e-05 1.7715705326e-05 -6.4318650402e-05 -4.8829719162e-05 -5.8735360653e-05 
3.5357399611e-05 -6.4263746026e-05 3.6633293348e-05 -6.2255443481e-05 3.8514881453e-05 -5.9143774706e-05 3.9497725083e-05 4.0092414565e-05 3.8704667531e-05 
3.46375964e-05 3.1688352465e-05 -5.6115619373e-05 4.0839498979e-05 -3.9686117816e-05 -4.2409184971e-05 -2.2349468054e-05 -4.0447532228e-05 -1.7345753804e-05 
-2.7153295378e-05 -1.070629969e-05 -2.1103280687e-06 7.6902097135e-06 3.8030040741e-05 3.9087557525e-05 3.7565081584e-05 4.1358842282e-05 4.106146298e-05 
4.1975097702e-05 -3.5396674321e-06 -1.5211359823e-05 -3.3107040508e-05 -3.4900429455e-05 -4.4422118663e-05 -4.133274706e-05 2.7681244319e-05 3.1301449781e-05 
3.257418939e-05 2.787032281e-05 3.8138594391e-05 3.3299740608e-05 -4.9538190069e-05 -5.9242120187e-05 
Stress_XZ 1 1059 double
3.5298542116e-06 -1.1768640462e-07 -3.0781484384e-06 -4.5254992074e-06 -5.0824628488e-06 -6.6696129579e-06 -4.0358850129e-06 -2.2479359814e-06 -4.4956768761e-06 
3.2517110071e-07 3.3387980238e-06 5.3071034927e-06 6.2029084802e-06 2.4786870654e-06 6.9699399319e-07 5.1441211326e-06 9.304231753e-06 1.2763509403e-05 
1.3942431906e-05 1.2608760699e-05 8.8929300546e-06 5.087360023e-06 -6.7070584464e-07 -5.921895081e-06 -8.2612923507e-06 -6.4021051003e-06 -1.7775366246e-07 
-1.5481226967e-07 -6.5347103373e-06 -1.5749221348e-05 -2.1678257326e-05 -2.2963668016e-05 -2.1319621737e-05 -2.101526843e-05 -1.6004911231e-05 -1.153807807e-05 
-9.7719921541e-06 -7.8951889009e-06 -4.051603355e-06 1.0054814084e-06 3.4277911709e-06 4.1556177166e-06 2.8446945635e-06 2.7124994517e-07 -2.5941521926e-06 
-3.2909274523e-06 -1.8814296254e-06 1.374886665e-06 8.3197573986e-06 1.643001815e-05 2.2272988645e-05 2.460288124e-05 2.157403469e-05 1.7545016817e-05 
1.2824016267e-05 1.2349720237e-05 -1.7562353605e-05 -1.4116924831e-05 -1.5957990399e-05 -1.4739756807e-05 -1.516773591e-05 -1.9719253032e-05 -2.6903020625e-05 
-2.950911221e-05 -2.7281239454e-05 -2.1455949536e-05 -1.9926239474e-05 -1.7079330064e-05 -1.2320697351e-05 -8.0356803664e-06 -1.3221988411e-06 7.5457332969e-06 
1.7122642021e-05 2.7790516469e-05 3.2697873394e-05 3.2582753192e-05 2.9301410905e-05 2.1544981792e-05 1.4869583538e-05 9.621731806e-06 3.8196099013e-06 
4.548214747e-06 6.3065972427e-06 -9.5289516366e-07 -4.2384122025e-06 -3.0786898151e-06 -9.1009669632e-06 -5.6962931012e-06 -1.6523472368e-05 -1.6658710592e-05 
-1.1357737094e-05 -8.0901572801e-06 -1.1050628018e-05 -1.5422625438e-05 -1.9376271666e-05 -2.0793351723e-05 -1.7195627152e-05 -1.3065731764e-05 -1.0110718904e-05 
-6.8724793891e-06 -4.6798339781e-07 9.2655991466e-06 1.7576918253e-05 2.490182851e-05 2.692588896e-05 2.8137492336e-05 2.7217984098e-05 2.2792706659e-05 
2.0681580281e-05 2.1897712941e-05 2.5420797101e-05 1.9637709556e-05 -1.5867092316e-06 -1.7644251784e-05 -6.6730294748e-06 -8.6007785285e-06 -1.0106040463e-05 
-1.1085458937e-05 -1.068308211e-05 -9.3581875262e-06 -9.447321645e-06 -6.3971128839e-06 -2.7986332043e-06 -1.3954939959e-06 -1.644869144e-06 -2.0637576199e-06 
-3.0441267427e-06 -4.8384627007e-06 -4.3193226702e-06 -1.325512585e-06 2.177837132e-06 6.6735442488e-06 9.5684890766e-06 9.5029072327e-06 7.589615052e-06 
4.8802712627e-06 -3.0419610084e-06 -8.4223920567e-06 -1.0665215996e-05 -1.0421002116e-05 -7.4107351793e-06 -8.1240950749e-06 -1.0922004549e-05 -1.1824979993e-05 
-1.0089715943e-05 -5.1026795518e-06 2.9164280022e-06 9.8474993138e-06 1.4054133317e-05 1.6601881725e-05 1.872458779e-05 2.0006562409e-05 1.9537972548e-05 
1.388907458e-05 2.1669636681e-06 -7.9023175203e-06 -1.5651474314e-05 -2.0017676434e-05 -1.9111206711e-05 -1.0579390619e-05 8.5358988144e-07 1.1085069673e-05 
1.8767745132e-05 2.5791368898e-05 3.1550465792e-05 3.1608713471e-05 2.7813652196e-05 2.2658387024e-05 1.5200450434e-05 -2.1641079684e-07 -2.5622674002e-05 
-1.9823890398e-05 -1.3954166207e-05 -9.9855205917e-06 -9.9733388197e-06 -1.1921926671e-05 -1.3914511328e-05 -1.247592354e-05 -6.6950051405e-06 -1.0978698128e-06 
2.2714182251e-06 4.4659677769e-06 6.6650368353e-06 8.1352682173e-06 9.6088006103e-06 1.0667279639e-05 1.4684311282e-05 2.7939586289e-05 3.9709211705e-05 
4.084441025e-05 3.8788759412e-05 3.3139447623e-05 2.4335313356e-05 1.9537617845e-05 1.5424428057e-05 8.5948895503e-06 1.5159527038e-06 -4.5873093768e-06 
-9.6480580396e-06 -1.2577001144e-05 -1.8834578441e-05 -2.4289438443e-05 -2.5844381526e-05 -2.3325887014e-05 -1.9778590286e-05 -1.8271459339e-05 -1.8221175196e-05 
-1.875878479e-05 -1.842990423e-05 -1.6555992261e-05 -1.3805483832e-05 -1.1781694411e-05 -9.6273161034e-06 -5.0308062782e-06 2.6871125556e-06 1.1527690731e-05 
1.9861385226e-05 2.735353155e-05 3.2125120924e-05 3.5957833461e-05 3.9244961954e-05 4.4503656682e-05 5.2962630434e-05 4.2649047828e-05 8.1115849753e-06 
-9.5046216302e-06 -1.8623577489e-05 -2.6932853871e-05 -3.9841943362e-06 -7.6112837633e-06 -1.0153086805e-05 -1.0344952898e-05 -1.005078957e-05 -8.2786291387e-06 
-1.8882913082e-06 2.6383756904e-06 1.509267463e-06 -1.714926384e-06 -4.1265816435e-06 -5.6290186876e-06 -6.8434983405e-06 -7.6015176091e-06 -7.2727980296e-06 
-6.3534544097e-06 -5.2630753089e-06 -2.7829287319e-06 3.8918878431e-07 4.2571082304e-06 7.8744251368e-06 3.2929310692e-06 -2.3847308057e-06 -6.1448176893e-06 
-6.6924530984e-06 -6.0094871515e-06 -5.8226778492e-06 -3.9446381379e-06 1.1060374163e-06 8.3752529463e-06 1.5189250917e-05 1.9801216695e-05 2.244825555e-05 
2.3651993615e-05 2.4404398573e-05 2.3316999432e-05 1.9004533897e-05 1.1585110769e-05 2.158452844e-06 -5.3878979998e-06 -9.8093787528e-06 -1.0754920368e-05 
-3.7269671793e-06 4.4670555326e-06 1.1724561773e-05 1.7583586668e-05 2.2585203624e-05 2.6895828341e-05 2.891944132e-05 2.5956314857e-05 1.9145927581e-05 
1.1123457625e-05 3.8782213778e-06 -1.0339128949e-06 8.380365216e-06 6.0505490183e-06 -1.3151147868e-05 -1.0925627066e-05 -2.1949546863e-05 -1.8561962861e-05 
-1.4447598005e-05 -1.1127671314e-05 -9.5234890978e-06 -8.6260479293e-06 -6.9978091233e-06 -4.5488691285e-06 -1.2903665265e-06 2.542762445e-07 2.485666073e-06 
4.2546098484e-06 6.0349161686e-06 8.0368663475e-06 1.1690126485e-05 1.650145532e-05 2.5586872653e-05 3.6433782952e-05 3.9737438783e-05 3.8763246266e-05 
3.4669654269e-05 2.8044463761e-05 2.2523736334e-05 1.5680525394e-05 7.8445409599e-06 1.7560215504e-09 -6.605737326e-06 -1.1426205674e-05 -1.5430225176e-05 
-2.0669962396e-05 -2.7405450965e-05 -2.9189021006e-05 -2.7649035474e-05 -2.495876106e-05 -2.2038975658e-05 -1.9302891815e-05 -1.5583604181e-05 -1.2969016097e-05 
-1.1425179764e-05 -9.908231732e-06 -8.1564294305e-06 -6.7997839324e-06 -5.0230942179e-06 4.2126487187e-07 8.9167760962e-06 1.7659154764e-05 2.5644263587e-05 
3.183402805e-05 3.6400917452e-05 4.164377242e-05 4.6285254939e-05 4.6691362513e-05 3.8721442252e-05 2.2024971258e-05 3.1336855955e-06 -8.6265154096e-06 
-1.7373266019e-05 -2.1848327378e-05 -7.6118212746e-06 -9.0869125415e-06 -5.22636401e-06 1.9563319711e-06 9.1543661256e-06 1.3956002476e-05 1.750485535e-05 
1.9537348635e-05 2.1260002541e-05 2.2988217097e-05 2.2233100026e-05 1.6172105461e-05 9.7167048807e-06 5.2335471992e-06 2.1222224404e-06 -1.5970921368e-06 
-4.6164700507e-06 -7.1063368523e-06 -7.9148476289e-06 -6.8828703661e-06 -3.6158044168e-06 2.6145285119e-06 5.3146154642e-06 2.9157952213e-06 -3.6352548705e-07 
-3.2337904941e-06 -5.3042431318e-06 -6.8420472417e-06 -8.2415836005e-06 -9.0379298854e-06 -1.0814992493e-05 -1.0794462469e-05 -8.574513231e-06 -5.2177483667e-06 
-1.9817928205e-06 3.7938241348e-07 1.2903113884e-06 6.2159188019e-06 1.059328315e-05 1.0436594494e-05 7.0627911555e-06 1.2128415392e-06 -1.0985937706e-06 
-1.3238982319e-06 -1.1972722405e-06 -4.5271255544e-07 2.5871640901e-06 8.1523357949e-06 1.56483311e-05 2.244465577e-05 2.6550238545e-05 2.7889733246e-05 
2.7513025998e-05 2.7471733119e-05 2.552398837e-05 2.0825646061e-05 1.2624474039e-05 3.5725597627e-06 -2.5680151339e-06 -5.250232789e-06 -4.8748347581e-06 
-3.2358727822e-06 -1.4273456372e-06 -3.6411468045e-06 -2.0208966816e-05 -1.7875770936e-05 -1.4387077499e-05 -1.0182124242e-05 -6.496129572e-06 -3.1488771128e-06 
-1.1002708789e-06 -1.5499538222e-06 -8.4192259919e-07 6.6625210593e-07 2.4171904442e-06 4.4221187636e-06 6.9387665462e-06 9.0272051239e-06 1.3107895938e-05 
3.0937484553e-05 3.506230496e-05 3.5960725654e-05 3.3653945138e-05 2.8618951546e-05 2.0883329853e-05 1.2403255823e-05 5.522142601e-06 -6.7694946893e-07 
-5.3768958423e-06 -9.703867363e-06 -1.4563742297e-05 -2.0620660507e-05 -2.7231721106e-05 -2.9867387639e-05 -2.8667645893e-05 -2.5862147595e-05 -2.2902833734e-05 
-1.806376531e-05 -1.1989945961e-05 -8.0211966633e-06 -6.583904451e-06 -5.8783875829e-06 -3.8913162825e-06 -1.9901406176e-06 -1.8816339207e-06 1.3580165614e-06 
7.2261132118e-06 1.4483564883e-05 2.363954809e-05 3.1984000088e-05 3.7504101783e-05 4.1691946535e-05 4.1486564442e-05 3.8777987356e-05 3.6979570723e-05 
2.9464579711e-05 1.5385332517e-05 3.9013903006e-06 -7.1492004281e-06 -1.5827074094e-05 -2.0011249944e-05 2.301350105e-05 1.5798572349e-05 -3.715394314e-06 
-8.5368549207e-07 4.1132634578e-06 9.4428223747e-06 1.2544544006e-05 1.4413053577e-05 1.4890110833e-05 1.4726673726e-05 1.5116163013e-05 1.5666579202e-05 
1.295970651e-05 5.7238257796e-06 1.825826871e-06 -5.3265119959e-07 -1.7772214278e-06 -3.8927146306e-06 -4.3596360229e-06 -2.4851242415e-06 1.3701979924e-06 
5.3948347158e-06 5.9873423197e-06 3.2161710806e-06 6.1906570181e-07 -1.4802681108e-06 -3.4564538964e-06 -4.5774372666e-06 -7.4953413787e-06 -1.0601176655e-05 
-1.3078723896e-05 -1.4286391888e-05 -1.121466812e-05 -8.2964179455e-06 -6.3886859607e-06 -4.527576948e-06 -2.8268004826e-06 -2.175624104e-06 2.0444717848e-06 
6.2408657868e-06 1.0100583495e-05 9.6725925687e-06 9.2375676104e-06 7.8642196968e-06 6.709932677e-06 5.041239092e-06 4.323441317e-06 4.8004271775e-06 
7.5379252849e-06 1.2932348e-05 2.0445730115e-05 2.6823876397e-05 3.0067752959e-05 2.9993663702e-05 2.8633672628e-05 2.7398442398e-05 2.5598250431e-05 
2.144192149e-05 1.3827822841e-05 5.666285233e-06 1.1302737448e-06 -3.0504628512e-07 -1.8394992196e-07 4.822117603e-07 8.4946108814e-08 -1.6340428601e-06 
-1.8074902073e-06 -2.0628933726e-06 1.1132686268e-05 1.3043410945e-05 1.6798849174e-05 2.2865648134e-05 2.6482450266e-05 2.9525454011e-05 3.1345087336e-05 
3.0601302569e-05 2.5912133424e-05 1.8138396626e-05 9.6804969871e-06 3.2917018871e-06 -1.2176533346e-06 -4.1288190005e-06 -7.4282838796e-06 -1.1954207366e-05 
-1.8616605303e-05 -2.5532001018e-05 -2.820345253e-05 -2.7581718314e-05 -2.5051522243e-05 -2.0190287614e-05 -1.4041901522e-05 -8.5025048975e-06 -4.7107091632e-06 
-3.3748517581e-06 -2.9377383726e-06 -3.4151636896e-07 1.8548970502e-06 1.693123636e-06 3.5812045098e-06 7.5376578934e-06 1.4010189261e-05 2.3868275093e-05 
3.4106582461e-05 4.0112699935e-05 4.2845538701e-05 4.2362007662e-05 3.9269143599e-05 3.8341564505e-05 3.3460135455e-05 2.2361504307e-05 1.0815455425e-05 
-1.6202380948e-06 -1.1799870663e-05 -1.7678616132e-05 -1.9896344384e-05 -1.9791663362e-05 -1.7479982489e-05 -1.3787156604e-05 -9.9355556813e-06 -6.3323286668e-06 
-3.7308554965e-06 -3.4678105294e-06 -3.9017700146e-06 -7.9372574646e-07 2.0686350126e-06 4.2251294872e-06 5.5351861192e-06 7.962372365e-06 1.0457210919e-05 
1.2370946024e-05 1.3711172869e-05 1.4604390344e-05 1.6388767108e-05 -1.0586691133e-06 2.065180297e-06 4.3971749619e-06 6.9177640398e-06 8.1178159235e-06 
8.2471460701e-06 7.9809897215e-06 8.4006169345e-06 8.9521472546e-06 9.8731015896e-06 1.2821770724e-05 1.5015671124e-05 1.3420219148e-05 8.655106285e-06 
4.1644202611e-06 1.9033006993e-06 8.6962319301e-07 -5.5855070968e-07 -1.9640415303e-06 -6.4168864355e-07 1.0575607803e-06 4.7925313993e-06 7.070256288e-06 
4.3011323214e-06 2.0910156309e-06 9.4550705398e-07 4.3275161943e-07 -2.1865562303e-06 -5.9661338128e-06 -1.099601468e-05 -1.4412144083e-05 -1.3248172763e-05 
-9.7027814263e-06 6.109858532e-06 8.3548402472e-06 -1.5681966033e-05 -1.7317803213e-05 -6.6310390139e-06 -5.9460257944e-06 -6.8856470534e-06 -2.6401908144e-06 
1.5567738956e-06 6.4633281909e-06 1.1016484677e-05 1.1146323232e-05 1.3249037693e-05 1.0984645087e-05 9.672275155e-06 9.8576656455e-06 1.0864115211e-05 
1.3044774278e-05 1.7554926671e-05 2.3726841391e-05 2.9566128433e-05 3.1242761906e-05 2.9190105124e-05 2.6831770811e-05 2.5435520001e-05 2.377306555e-05 
2.0350582417e-05 1.3989319086e-05 7.2904103945e-06 3.0616531603e-06 3.4386971492e-06 3.2657615066e-06 1.1495704939e-06 -1.5235580122e-06 -3.7263753256e-06 
-3.3051223909e-06 -2.3459353997e-06 2.0121500711e-05 2.2657397494e-05 2.5207798899e-05 2.685850086e-05 2.6098716262e-05 2.2302818252e-05 1.5469515347e-05 
8.6347235992e-06 3.3957312553e-06 4.8228251615e-08 -2.5206559258e-06 -4.8612469072e-06 -7.8271441453e-06 -2.2496606107e-05 -2.4576716896e-05 -2.3933991542e-05 
-2.1796195142e-05 -1.8062048184e-05 -1.1332927897e-05 -6.3877532739e-06 -3.3121411889e-06 -1.7658450133e-06 -1.0052667676e-06 1.6315162839e-06 4.4226922e-06 
5.478017556e-06 6.9815964707e-06 1.0574390217e-05 1.6950187273e-05 2.5569339414e-05 3.4320171835e-05 3.9149210352e-05 4.4034841267e-05 4.4225391321e-05 
4.2363884859e-05 3.9386060962e-05 3.5504188418e-05 2.6099394745e-05 1.5267647541e-05 2.5347810606e-06 -8.7600446932e-06 -1.6058016627e-05 -1.921459625e-05 
-1.9806024284e-05 -1.8127229851e-05 -1.5291694581e-05 -1.2329763194e-05 -9.4888191597e-06 -6.441079222e-06 -5.0717067097e-06 -4.1079829316e-06 -1.4203053524e-06 
2.2170179363e-06 4.8703850553e-06 5.9997910284e-06 7.8055272752e-06 9.971050531e-06 1.105316278e-05 1.3100345313e-05 1.3484027477e-05 1.36857916e-05 
1.5031499061e-05 1.6459620383e-05 -1.6395646526e-05 -9.504650734e-06 9.8522050394e-06 1.2300141861e-05 1.5063110368e-05 1.5901438019e-05 1.6899473849e-05 
1.8560851458e-05 2.160123222e-05 2.5531446227e-05 2.7658390536e-05 2.8378828574e-05 2.7272129955e-05 2.558221604e-05 2.3236671041e-05 2.0992029022e-05 
1.7508074961e-05 1.344415432e-05 6.7339929046e-06 9.1175079433e-06 -1.2613717217e-06 -5.6974050722e-07 1.4287154499e-06 2.1219684641e-06 1.5629428844e-06 
1.5845753296e-06 2.2248791538e-06 4.981066013e-06 7.4889562711e-06 9.1383963081e-06 1.1881328646e-05 1.070819053e-05 1.3463613868e-05 1.0260087038e-05 
4.6150139497e-06 3.3215162603e-06 2.8771555662e-06 7.8630483813e-07 8.5140207773e-08 8.4652265286e-07 3.1377628602e-06 5.7246147662e-06 7.7060367403e-06 
9.283037798e-06 1.0415826182e-05 9.3769513114e-06 7.3790197348e-06 6.5573590291e-06 5.0692610785e-06 3.409883675e-06 -8.6928657765e-06 -1.0522604498e-05 
-9.9655917438e-06 -7.9840237959e-06 -2.2501355943e-06 4.6574550652e-06 1.8188966351e-05 1.957900713e-05 2.0316154405e-05 2.0275054339e-05 1.7701160687e-05 
1.3395085261e-05 9.3025491879e-06 5.9239223447e-06 2.4238484002e-06 6.9010758352e-07 -1.0337085996e-06 -2.7578232675e-06 -1.8762400941e-05 -2.0394338208e-05 
-1.9749286366e-05 -1.7264503185e-05 -1.4042574549e-05 -1.0087379451e-05 -6.2097087721e-06 -3.3918363442e-06 -8.8948831944e-07 7.816629477e-07 1.9973119834e-06 
9.0276362243e-06 1.1429468941e-05 1.4930062207e-05 2.0141264031e-05 2.6361369237e-05 3.20678555e-05 3.8491140003e-05 4.4091131713e-05 4.1187122406e-05 
3.605441816e-05 3.1189876609e-05 2.6089379389e-05 2.0258754375e-05 6.8014792305e-06 -4.34858066e-06 -1.1413576431e-05 7.3091077866e-06 6.9811762842e-06 
1.3205960386e-05 1.3142336684e-05 4.152191832e-05 3.6426074075e-05 -1.6223704733e-05 -1.7450640371e-05 -1.6361917005e-05 -1.4552899302e-05 -1.3980675249e-05 
-1.2900699403e-05 -1.075050659e-05 -7.7601362136e-06 -4.962226285e-06 -1.3686262719e-06 2.4625007882e-06 5.4914889915e-06 7.1323788688e-06 8.4395614977e-06 
9.9710796349e-06 1.0879536603e-05 1.1904689927e-05 1.2720764971e-05 1.2291799976e-05 1.1194612853e-05 -5.7027345974e-06 -1.0401080544e-05 -1.4054440726e-05 
-1.6592659449e-05 -1.6747751943e-05 -1.7087806555e-05 -1.6361978851e-05 -1.2570209037e-05 -1.3314179341e-05 -1.3714889974e-05 -1.427098141e-05 -1.5768624507e-05 
-1.3780155314e-05 -1.4894227206e-05 -1.3123943972e-05 -1.1658105905e-05 -9.5772838904e-06 -6.5305875978e-06 -3.9633719098e-06 1.205756206e-07 7.6271394391e-06 
-1.0591616956e-05 -5.8783180066e-06 -1.3209468079e-06 2.9050158901e-06 5.831728231e-06 7.8821840361e-06 9.0246703621e-06 1.0179889614e-05 1.1162964256e-05 
1.2018102097e-05 1.1817005543e-05 1.0231933629e-05 9.4296665338e-06 8.1227162809e-06 6.485843187e-06 3.8026869333e-06 -1.0519569216e-08 1.6214662537e-06 
1.4923542039e-05 1.4229032786e-05 1.3067391592e-05 1.2534966118e-05 1.2146382687e-05 1.0848881175e-05 8.7860098574e-06 9.3348799055e-06 1.9565750335e-06 
3.7210077153e-06 6.2109993451e-06 8.4261673692e-06 9.5929226518e-06 1.0992015632e-05 7.4244735515e-06 3.382879413e-06 2.9489121971e-06 2.9487409847e-06 
1.1415016161e-05 1.167634764e-05 9.5815103123e-06 7.5931188803e-06 4.0706459004e-06 -1.024999392e-06 -6.5462304519e-06 -1.123142647e-05 -1.223135132e-05 
-1.230946873e-05 6.3974644036e-06 3.2602731608e-06 2.2687477212e-06 2.0222393005e-07 -9.901707017e-06 -5.0884059419e-06 -4.6761815611e-06 -3.8747612052e-06 
-3.6444519083e-06 -3.6551639369e-06 -3.9937226575e-06 -1.5683641323e-05 2.0028296603e-06 9.07113008e-06 9.848411537e-06 1.2100186723e-05 1.5409539628e-05 
1.8587239538e-05 2.2635062123e-05 2.694250179e-05 3.0381917895e-05 3.391005157e-05 3.4257529478e-05 2.9581731724e-05 3.4798114939e-05 3.8546666474e-05 
4.034936137e-05 3.6827030272e-05 3.1583051168e-05 2.6850762879e-05 2.2914842702e-05 1.7241231035e-05 1.0813599147e-05 3.5232837945e-06 3.420709163e-06 
5.3590038078e-06 7.4484159995e-06 6.8170479608e-06 1.2266819795e-05 5.5832615544e-06 1.585282007e-05 1.8435583115e-05 1.8282878955e-05 2.0608760678e-05 
2.1298725187e-05 2.1837766326e-05 2.2999844077e-05 2.4824257707e-05 2.5361765438e-05 2.7015292289e-05 2.5921581255e-05 2.2557098418e-05 1.9058861653e-05 
1.6066036551e-05 1.273221369e-05 1.0524825484e-05 3.4662537018e-06 -1.4546478155e-07 -3.958178695e-06 -6.441593996e-06 1.1830187759e-05 1.4212634596e-05 
1.8450318748e-05 2.1416646632e-05 2.3263462936e-05 2.6735575375e-05 2.8959664633e-05 3.0866092857e-05 3.0340532248e-05 2.7389398383e-05 1.8323527911e-05 
3.4351654904e-05 3.295593342e-05 2.8840320738e-05 2.2401076421e-05 -5.8749792515e-06 1.2302036339e-05 2.5285624361e-05 7.7611684901e-06 5.5675554904e-06 
6.8231470323e-06 8.6815562099e-06 1.0318591194e-05 2.5109457056e-05 2.6992844141e-05 2.786114419e-05 -6.8437352638e-06 -1.3067732425e-06 3.4354443414e-06 
6.5628582888e-06 8.9802751972e-06 1.0485335224e-05 2.6271713068e-05 2.5586150514e-05 -7.1142071647e-06 2.8917214877e-05 2.8508749892e-05 2.9224205718e-05 
-8.8684219008e-06 2.8129165003e-05 -8.6175496108e-06 2.7785825296e-05 -9.2279888122e-06 2.5130204449e-05 -1.012672692e-05 -1.1470560821e-05 -1.0264871889e-05 
-9.6451321951e-06 -9.0801913757e-06 2.2017706215e-05 -8.1616244643e-06 1.0018184184e-05 7.8795756053e-06 1.1339783669e-05 6.2717213041e-06 9.8244827313e-06 
7.1946697062e-06 7.7786453403e-06 3.9381598071e-06 -1.3879088101e-06 -1.4444552107e-05 -1.459053874e-05 -1.2394072655e-05 -1.0249116713e-05 -1.2639801753e-05 
-1.4042606381e-05 1.8959572117e-06 5.0830526561e-06 6.5495423769e-06 3.4186139146e-06 3.8441835386e-06 2.9894579257e-06 -1.4543651332e-06 -4.0118866309e-06 
-4.7897442528e-06 -1.1268145954e-06 -5.9376916397e-06 -8.1784064605e-06 3.378475958e-05 3.2174917578e-05 
POINT_DATA 1116
FIELD FieldData 31
Circ_Strain_Pt 1 1116 double
0.984859908 0.9854855974 0.98817120629 0.98950405915 0.98833828695 0.99013306333 0.99528813402 0.99585063898 0.99866970398 
0.99804395052 0.99858409518 0.99901409136 0.99860677422 0.99928951983 0.99664830537 0.99663679788 0.99246576805 0.99227747779 
0.9923731836 0.99092009321 0.99329327715 0.99266825948 0.99495609826 0.99511116358 0.99570141901 0.99891904527 0.99554892974 
0.99922467625 0.99485503449 0.99931085134 0.99520097165 0.99872417891 0.99520167334 0.99734454115 0.99441433066 0.99505047597 
0.99420651711 0.99422384365 0.99464267011 0.99543243135 0.9960874775 0.9971145451 0.99786562521 0.99870465517 0.99791218381 
0.99816879142 0.99783966001 0.99753983957 0.99748017535 0.99708808764 0.99623500409 0.99462229473 0.99440193908 0.99260413387 
0.99405278175 0.99437118055 0.99491311124 0.99694359081 0.99708316545 0.99854071039 0.99898381535 0.99928937034 0.99947678442 
0.99941547336 0.99857901509 0.99873671873 0.99719049316 0.99753816888 0.99703698525 0.99732233291 0.99802551037 0.99810789524 
0.99874087823 0.9989537813 0.9991972547 0.99927429433 0.99932958825 0.99892373403 0.99841982097 0.99869653396 0.9979203092 
0.9986374942 0.99847304074 0.99886171323 0.99921619914 0.99893151104 0.99886772856 0.99868031876 0.99707452297 0.99817052232 
0.99648621482 0.99725913973 0.99653790512 0.99684425595 0.99714165106 0.99705359419 0.9982426022 0.9981100104 0.99903870601 
0.99887825568 0.99966265003 0.99948412618 0.99889207405 0.99929891871 0.99854201246 0.99925282353 0.99889581926 0.99919125348 
0.99776917607 0.99714884005 0.993837215 0.99447274116 0.99750681077 0.99731514762 0.99801450876 0.99840775067 0.99741048682 
0.9967653003 0.99788236228 0.99598931394 0.99833072682 0.99719020126 0.99868592888 0.9989592434 0.9977635035 0.99850004923 
0.99682227674 0.99755288147 0.99581118837 0.99701716932 0.99557214732 0.99696327004 0.99760237238 0.9979814113 0.99915501876 
0.99878846341 0.99940134293 0.99925449141 0.9987254987 0.99888012276 0.99673607362 0.99733713705 0.99523374291 0.99461544312 
0.99398737354 0.99099682067 0.99471279194 0.99106746221 0.99573583022 0.99234197896 0.99733451355 0.9965435997 0.99803331732 
0.9973783538 0.99811359644 0.99609005332 0.99748789074 0.99697283816 0.99608561793 0.99745423233 0.9933704023 0.9963684236 
0.99574897582 0.99690888095 0.99818971337 0.99897937331 0.9989211284 0.99846989158 0.99687763308 0.99739125899 0.99471219752 
0.99682250313 0.99269972502 0.99683416986 0.99515679813 0.99680383623 0.99684207364 0.99717219466 0.99714305459 0.99842061683 
0.99602529609 0.99721132387 0.99406796085 0.99464771182 0.99144046136 0.99102879073 0.9881302795 0.98814287993 0.98812259644 
0.98781361157 0.99324698194 0.99338293792 0.99743907581 0.9968085219 0.99891581019 0.99914260946 0.99738248419 0.9986086791 
0.99530386735 0.99452122102 0.99455151425 0.99390869431 0.99494065734 0.99603778382 0.99599145743 0.99750916137 0.99655770213 
0.99799021252 0.99669078299 0.99854478404 0.99669666522 0.99836426763 0.99702633297 0.99814052213 0.99818074507 0.99860550401 
0.9988825792 0.99855837462 0.99925254444 0.99788651663 0.99883304793 0.99760439979 0.99835757646 0.99764356083 0.99837733719 
0.99555480682 0.99807604995 0.99541869648 0.9912493661 0.99167381484 0.99338101416 0.99830061887 0.99885826071 0.99704719425 
0.99434932255 0.99294968452 0.99440531857 0.99668466603 0.99902129536 0.9986023556 0.9984563525 0.99838536767 0.99749120296 
0.99580822853 0.99469213281 0.99529530655 0.99753859162 0.99917985136 0.99929234946 0.99873677121 0.99809951598 0.99637578419 
0.99212782667 0.99086182784 0.99193617815 0.99564177706 0.99810017948 0.99942991836 0.99890915231 0.99808392612 0.99763690065 
0.9975880168 0.998077676 0.99896065455 0.99905751524 0.99912996846 0.99911356017 0.99937364839 0.99906019053 0.99857561545 
0.99810703965 0.99761456691 0.99677106819 0.99655667727 0.99731984922 0.99833175692 0.99925875789 0.99943627613 0.99825117816 
0.99739820525 0.99707723848 0.99601807248 0.99623937448 0.99186557151 0.9981186833 0.99739582339 0.9961454018 0.99659253778 
0.99850431734 0.99867604419 0.99826016949 0.99802426743 0.99821734167 0.99864080974 0.99880549165 0.99871696391 0.9982255918 
0.99802941495 0.99663580573 0.99469049023 0.9912466627 0.99142761898 0.99520338546 0.99652165446 0.99549145531 0.99683927869 
0.99843102454 0.99886114775 0.99862671254 0.99885354167 0.9995206329 0.99886982443 0.99835256841 0.99778838083 0.99651779041 
0.9960796674 0.99671767827 0.99725412028 0.99647523304 0.99454239853 0.99070857487 0.98994324503 0.99380097135 0.9984938919 
0.99923356719 0.99616734196 0.99421815068 0.99411852337 0.99718308221 0.99836377309 0.99867449205 0.99904896411 0.99911432136 
0.99907428296 0.9991359923 0.99885908799 0.99615898921 0.99482512101 0.99478229813 0.99239654169 0.99409749074 0.99499162718 
0.99312836988 0.99077531283 0.99626129534 0.99829393992 0.99903913323 0.99644684045 0.99430105223 0.99486164005 0.99729225447 
0.99822724114 0.9978469704 0.99821240398 0.99766570889 0.99685815046 0.99784502553 0.99728869086 0.9975032117 0.99868731611 
0.99918926203 0.99894121005 0.99863578505 0.99432629541 0.99712238308 0.99229943618 0.99177810796 0.99544233469 0.99778666986 
0.99940542899 0.9997146238 0.99941932516 0.99899576163 0.99852610323 0.99804432576 0.99809852886 0.9986120631 0.9993188269 
0.99953181112 0.99948766214 0.99937977096 0.99903937294 0.99839818267 0.99731779585 0.99767461378 0.9959112168 0.99663699572 
0.99515487695 0.99792422794 0.99912925014 0.99840399161 0.99723927998 0.99652093126 0.99694276738 0.99676909853 0.99713511311 
0.99665443193 0.99063912296 0.99812959999 0.9975608496 0.99713190218 0.99581523606 0.99429038983 0.99690276711 0.99493445349 
0.99667630063 0.99729640335 0.99783015446 0.99828142434 0.99868817392 0.9990874795 0.99871638839 0.99860915807 0.99801403272 
0.99695809988 0.99580849661 0.99461808896 0.99106174492 0.99074187812 0.99299632219 0.99469117254 0.99574121294 0.99644592397 
0.99801353904 0.99899847994 0.99941937268 0.99975938651 0.99964917511 0.99773843262 0.99794060347 0.9977526963 0.99675112066 
0.99497574574 0.9957692276 0.99676337331 0.99553795072 0.99279628618 0.9889244993 0.98930623789 0.99410244271 0.99759669722 
0.99941940858 0.99874171483 0.99620857872 0.995536785 0.99635008406 0.99752746118 0.99863885731 0.9991812615 0.99942440482 
0.99954165062 0.9995888759 0.99957410742 0.99948352004 0.99315895817 0.987780506 0.98878540041 0.99308338465 0.99858361895 
0.99846173657 0.99366795469 0.99408451282 0.99473852162 0.99327965787 0.99292481567 0.99459744723 0.99788536654 0.99884813615 
0.9977252627 0.99701794 0.99733390002 0.99672836443 0.99555945748 0.99533959877 0.99370467762 0.9928199286 0.99274823698 
0.99442926262 0.99730246015 0.99865023191 0.99902545357 0.99725155651 0.99815218016 0.99780331567 0.99727013119 0.99724748703 
0.99695919355 0.99615480535 0.99577460988 0.99572962088 0.99811978982 0.99950870284 0.99883705519 0.99844192866 0.99819966413 
0.99813788137 0.9983767744 0.99754973736 0.99731031877 0.99564600351 0.99615532947 0.99533511492 0.99435507095 0.99478084914 
0.99542257507 0.99696360757 0.99806768024 0.99867736655 0.9993398898 0.9993698417 0.99917735597 0.99902874531 0.99905842735 
0.99901425394 0.99899059141 0.99881241607 0.9989140856 0.99926841345 0.99923676116 0.99892023306 0.99803507989 0.99643664966 
0.99680547156 0.99629395033 0.99466886097 0.99475141375 0.99212817401 0.99448296587 0.99295907572 0.99926143497 0.99898617547 
0.99861664775 0.9990821079 0.99965790685 0.99920213012 0.99884351315 0.99677081571 0.99467336674 0.99308204051 0.99176441011 
0.99225902078 0.99220056387 0.99129959602 0.99757425188 0.99603832548 0.99703789175 0.99803599844 0.99914295991 0.99957812418 
0.99964208207 0.99943126367 0.9974964511 0.99617795931 0.99736533649 0.99862714656 0.99711279257 0.99608873401 0.99591839525 
0.99497997306 0.99353035659 0.9909991922 0.98801809369 0.99113635722 0.99542154872 0.99907084161 0.99880196142 0.99774192598 
0.99712400258 0.99688142813 0.99785740546 0.99853529357 0.99891792365 0.99912118071 0.99931103179 0.99946620897 0.99968274236 
0.99949783112 0.99611150139 0.98931787208 0.98617323675 0.98858132544 0.99246982198 0.99439752175 0.9986794191 0.99596734482 
0.99338140332 0.99541294048 0.99126626279 0.98965421331 0.99080280434 0.99321223138 0.99586245891 0.99814442491 0.99907847114 
0.99818700458 0.9971358066 0.99591887565 0.99362182088 0.98997423047 0.9923469967 0.98987831431 0.9921210837 0.99449358769 
0.9965116218 0.99790385504 0.99879581943 0.99897850178 0.99726838548 0.99633433616 0.99564187817 0.99568581747 0.99530473232 
0.99565849968 0.99623549737 0.99753373155 0.99870445279 0.99917907509 0.99837284561 0.99802977491 0.99811012303 0.99805278505 
0.99814936506 0.99877094559 0.9973000724 0.99721180587 0.99413436253 0.994162048 0.99435006148 0.99369518362 0.99298708826 
0.99364760956 0.99447355966 0.99740059427 0.99880081388 0.9990015044 0.99913647234 0.99930852523 0.99928555262 0.99912324716 
0.99924372283 0.99916569187 0.99913143094 0.99907092465 0.99928279446 0.99939515816 0.99903430469 0.9976300075 0.9969582687 
0.9976089992 0.99685090834 0.99577045086 0.99502518638 0.99466238028 0.99397824841 0.99331052448 0.99370680167 0.99350921069 
0.99733369886 0.99544629785 0.99795332906 0.9981259306 0.99807947449 0.99770985873 0.99802044228 0.99897469196 0.99971311013 
0.99953137974 0.9985503728 0.9976086964 0.99793309291 0.99838288171 0.99847156034 0.99690475 0.99672302504 0.99711450551 
0.99257698169 0.98774823086 0.9882747131 0.99078928641 0.99483557139 0.99832130911 0.99824785252 0.99654916793 0.99655018179 
0.99841433489 0.99837940308 0.99840618828 0.99785244643 0.99820629459 0.99910070394 0.99951220628 0.99976440999 0.99969433365 
0.99603484516 0.99033677398 0.98428063591 0.98266494359 0.98381682997 0.99383148622 0.99729782757 0.9980320547 0.99563964381 
0.99633284777 0.99760839856 0.9984198161 0.99811067312 0.9983691862 0.99866648392 0.99903754133 0.99937182681 0.99907918525 
0.99719835609 0.99399616134 0.99223283275 0.99226091364 0.99394989662 0.99508082456 0.99558260413 0.99597628311 0.99556275726 
0.99610618672 0.99603255572 0.99229166198 0.99258768398 0.99577712706 0.99926706551 0.99899495689 0.99875436512 0.99852459297 
0.99842863184 0.99818304609 0.99489257986 0.99456177184 0.99239089532 0.99378916668 0.9894852985 0.98957795707 0.99104388659 
0.99240362175 0.99481718673 0.99657495735 0.99735736425 0.99784546467 0.998370557 0.99856267754 0.99886698873 0.99527110574 
0.99638448006 0.99484549113 0.99411347549 0.993598493 0.99447763512 0.99669495998 0.99867724294 0.99920902391 0.997428415 
0.99765705922 0.99702403782 0.99691933958 0.9987459154 0.99913691098 0.99819449 0.99852508634 0.99817217066 0.99822139432 
0.99823658293 0.99494626931 0.99285098016 0.99294174059 0.99404363301 0.99301190129 0.99294532901 0.99665693414 0.99881613344 
0.99864074421 0.99875302822 0.99909462867 0.99906667192 0.99950340741 0.9995438329 0.99933561925 0.9991216607 0.99894281574 
0.99898340996 0.99879994923 0.99749657016 0.99777906985 0.99731104062 0.99715276108 0.99516870627 0.99532133624 0.99462109816 
0.99600272398 0.99436892436 0.99637487501 0.99680666613 0.9973213459 0.99780536138 0.99818733215 0.9993916217 0.99981065948 
0.99931258625 0.99820977079 0.99782188385 0.99805553775 0.99868308055 0.99939977307 0.99621373026 0.9979999383 0.99212892566 
0.98900869474 0.98742240253 0.993177983 0.99730413579 0.99848501598 0.99908335859 0.99935311347 0.99665337517 0.99483219638 
0.99774224667 0.9986087406 0.99841677008 0.99733846297 0.99738435586 0.99811108737 0.99879663376 0.99902356707 0.99932524241 
0.99952764292 0.99235316864 0.98625851505 0.98746498036 0.9894869325 0.99112618149 0.99418944812 0.9968205406 0.99746254146 
0.99824008854 0.99889718849 0.99842016661 0.99828745759 0.99798033586 0.99824025126 0.99818643512 0.99875502761 0.9991237282 
0.99766983425 0.99591175358 0.99448927437 0.99366444395 0.99378990959 0.9946586782 0.99575948905 0.99688923171 0.99681424996 
0.99660418853 0.99706955461 0.99609309203 0.99877603097 0.99940079295 0.99343825482 0.99486321123 0.99412718669 0.9924332979 
0.99523792181 0.99853404113 0.99798267256 0.99762299315 0.99773020782 0.9975426826 0.9992385083 0.99951721346 0.99937600791 
0.99915279731 0.99903945094 0.99930562196 0.99808285545 0.99730436011 0.99635255112 0.99367793076 0.99403800928 0.99617124203 
0.99856610179 0.99944000131 0.99944506243 0.9984916996 0.99733447007 0.99697729936 0.99701828565 0.9960171118 0.99405684452 
0.99620828562 0.99046262594 0.98963199286 0.99063890545 0.99510676298 0.99656909002 0.99755340958 0.99764909613 0.99740586771 
0.9976827485 0.99813156679 0.99807031619 0.99862978941 0.9973416503 0.99481888388 0.99256528385 0.99393224212 0.99581671571 
0.99523295602 0.99745014446 0.99757244329 0.99817447249 0.99684535131 0.99874135588 0.99687532098 0.99738351342 0.99744560389 
0.99702335326 0.99772202093 0.99926997061 0.99937789548 0.99779494317 0.99657568775 0.99738907022 0.99858966157 0.99868313574 
0.99534992224 0.99558612012 0.99425569109 0.99086093258 0.99037370434 0.99127312788 0.99446360374 0.99772309431 0.99857746838 
0.99723453998 0.99570120976 0.99576229395 0.99891405808 0.99705442511 0.99815094859 0.99743158091 0.99796794731 0.99913317413 
0.99922292424 0.99913361243 0.99727218153 0.9986606745 0.99461392296 0.99238316309 0.99323809008 0.9936889055 0.99420454822 
0.99797223696 0.99513677932 0.99546719705 0.99161404096 0.99339574402 0.99827872564 0.99832951034 0.99848485563 0.99798323472 
0.99785236382 0.99772176259 0.99835119334 0.99910253831 0.99940653206 0.99931251882 0.99899871194 0.99838246757 0.99692236732 
0.99567895563 0.99524612693 0.99508293317 0.99529989683 0.99605731411 0.99631086687 0.99695601639 0.99731990102 0.99719576318 
0.99610609334 0.99814277174 0.99831898715 0.99949100743 0.99949730492 0.99938391863 0.99827074786 0.99280313864 0.99391600236 
0.9929489607 0.99478540569 0.99608154948 0.99658036835 0.99731040692 0.99780182673 0.99646042486 0.99930825054 0.9990524412 
0.99871041369 0.9981893105 0.99752956772 0.99658470645 0.99560173583 0.99484342977 0.9961137329 0.99520312036 0.99455920045 
0.99458471495 0.99485454969 0.99535381734 0.99758136496 0.99717839735 0.99587998904 0.99634724482 0.99798614023 0.99884689888 
0.99845795283 0.99760283308 0.99768631231 0.99762135765 0.99760523592 0.99382159445 0.99439895184 0.99645453756 0.99599595376 
0.99464941299 0.99536970111 0.9965679331 0.99711103838 0.99734599508 0.9977832669 0.99823631808 0.99882105248 0.99625205652 
0.99691482695 0.998118908 0.99952727343 0.9980003799 0.99919225564 0.99341892452 0.99306628212 0.9933754913 0.99629323333 
0.99763354304 0.99571596611 0.99950844289 0.99753853245 0.99904525077 0.9986799667 0.99790089433 0.99704138376 0.99701529931 
0.99742385855 0.99857620954 0.99893334896 0.99824363003 0.99810954395 0.99812736857 0.99817899341 0.99866499251 0.99918600719 
0.99809455256 0.99703864583 0.99440127417 0.99451807607 0.99447849117 0.99470185327 0.99308327896 0.99238593691 0.99307772955 
0.99683022696 0.99885802037 0.99863562145 0.99806467131 0.99745104845 0.99909831631 0.99889190815 0.99895687638 0.99820247152 
0.99801902479 0.99826723999 0.99801346112 0.99731388368 0.99524765665 0.99770543204 0.99823772377 0.99905435195 0.99922451602 
0.99885232454 0.99872778025 0.9984848051 0.99690968345 0.99567283332 0.99809163361 0.99764062221 0.99697160567 0.99590967734 
0.99730337894 0.99869054754 0.99844196769 0.99705563417 0.99568764998 0.99495416935 0.99728459831 0.99765961211 0.99805587312 
0.99832714889 0.99735568449 0.99311377935 0.99234904128 0.99288674533 0.99394883686 0.99693159925 0.99815779597 0.99946669576 

Circumferential 3 1116 double
-0.21939288528 -0.073250276029 -0.96722531644 -0.27998789031 0.11452269865 -0.93838993113 -0.27590568855 0.11633190941 -0.94663862939 
-0.22388011498 -0.02776347361 -0.97204403288 -0.33372239385 0.27998796844 -0.89929633004 -0.31400873032 0.23269624386 -0.9173490125 
-0.36559194201 0.34804504458 -0.86093133284 -0.34189822837 0.32376124133 -0.87913254006 -0.38411128606 0.41499701901 -0.82293433155 
-0.36114346167 0.39936848854 -0.84031345918 -0.38965867113 0.48087520205 -0.78529489992 -0.37491998308 0.46871691294 -0.79914729677 
-0.40594431313 0.53040627245 -0.74266986174 -0.38032686225 0.52777778057 -0.75803570555 -0.42395500465 0.59152918389 -0.68142077444 
-0.39756086734 0.60150334877 -0.68639536775 -0.44356302291 0.66615738076 -0.59945204344 -0.42638712798 0.69859647495 -0.56632776635 
-0.46272473676 0.78085594164 -0.38701662543 -0.45464499202 0.81223638399 -0.34968320477 -0.46468619278 0.85045998632 -0.23335404909 
-0.4645558723 0.85494750105 -0.2248435176 -0.45242963647 0.88171864392 -0.13349709875 -0.46141389105 0.86992539574 -0.17296295813 
-0.43708698318 0.89194138113 -0.11442473542 -0.42610976964 0.88718824734 -0.17542045528 -0.40678666376 0.90828531483 -0.088863310771 
-0.39715695603 0.90662946124 -0.12958467573 -0.37051697523 0.92674504698 -0.061398002924 -0.3645185746 0.92795012716 -0.077348903501 
-0.3953988969 0.91548026622 -0.070315021115 -0.33986375372 0.93885128508 -0.022886769387 -0.39776773088 0.91182443098 -0.03712560366 
-0.32159639775 0.94252240927 0.054834696593 -0.34874754572 0.92553699285 0.092177170431 -0.31718084442 0.93008467628 0.16053751041 
-0.30585703465 0.90866917443 0.24398591562 -0.30432235443 0.89986435302 0.28747174514 -0.26977775165 0.85782076556 0.4208030544 
-0.27953813961 0.84486329715 0.44213117052 -0.21313034818 0.8101633969 0.53644192081 -0.23343570651 0.79967994422 0.54680159444 
-0.14931875409 0.76372345049 0.627763624 -0.17785294483 0.76076496453 0.6240941306 -0.10832309015 0.71735174956 0.68450537648 
-0.1170212451 0.71613736485 0.6845338938 -0.063130056941 0.65660953308 0.74667587976 -0.054778188713 0.65078253347 0.75171534877 
-0.0078223402767 0.56123771727 0.8219284095 0.0053595769446 0.56074991832 0.82475486491 0.060190094934 0.43026149658 0.88960823014 
0.060963371259 0.42603004261 0.89244521262 0.13665963945 0.27418744726 0.95143296892 0.11664901583 0.2516099472 0.9565254061 
0.19357231213 0.072583849799 0.96644435295 0.17987526436 0.040395823029 0.97672947009 0.23777825949 -0.08317635843 0.96453156885 
0.23506327467 -0.11748050387 0.96008088881 0.26822439393 -0.18929384254 0.94429200257 0.29330954473 -0.21648790049 0.93075334359 
0.31266716847 -0.22499962685 0.92187797591 0.32130952034 -0.25062595009 0.91245674436 0.35848259403 -0.27430932257 0.89012104792 
0.35192794645 -0.29177536945 0.88813255375 0.40499206287 -0.34052588053 0.84796860814 0.38643018554 -0.34566848571 0.85472039104 
0.44401433096 -0.45222045833 0.76690489401 0.41744662787 -0.4454153717 0.78690980236 0.47098064757 -0.55454375117 0.679316733 
0.43896498978 -0.54756977217 0.70710109035 0.48662992309 -0.64798739725 0.58587662997 0.44708274199 -0.64577645634 0.61695574298 
0.47265050135 -0.702567729 0.52857568184 0.44438095165 -0.70128033927 0.55455600669 0.45834583899 -0.75388434022 0.46703742192 
0.43615049504 -0.74783871556 0.49835013675 0.44363424447 -0.80111747382 0.40019755365 0.41630154458 -0.79479636482 0.43947170469 
0.40643465225 -0.85015617028 0.32637193305 0.39675335631 -0.83877839313 0.36677480927 0.37227819522 -0.89328905921 0.24285336797 
0.37470374907 -0.87968562258 0.28844327191 0.34987601189 -0.92480553353 0.14293156995 0.34744627872 -0.91655226771 0.19534744577 
0.34408777671 -0.93392375612 0.091552305469 0.3513403034 -0.92727569265 0.11456108669 0.32821881367 -0.94213871187 0.028593122418 
0.35403657154 -0.9316477548 0.018286473072 0.29633146665 -0.95322272423 -0.058074915573 0.33493459389 -0.9341057759 -0.11861858458 
0.24101704192 -0.93328423446 -0.23663810544 0.27298806083 -0.90874055824 -0.29667249586 0.17752375459 -0.88461130493 -0.4095586239 
0.1871959744 -0.85994391118 -0.45898300743 0.11409327042 -0.81206284527 -0.5680168248 0.10497720215 -0.78970502528 -0.60006935513 
0.079487040318 -0.72299063425 -0.67961599174 0.060340789134 -0.70710750809 -0.69973080887 0.055343918978 -0.65962387623 -0.74759302517 
0.057260513148 -0.63297131502 -0.76842986246 0.037109744641 -0.61077404265 -0.7909348492 0.073793796911 -0.56183965669 -0.82334993066 
0.050618124521 -0.56934684342 -0.81950139753 0.07235597172 -0.52095641237 -0.84953886518 0.052082737882 -0.52332328512 -0.84945438176 
0.055869080815 -0.4794747742 -0.87485448985 0.033388167448 -0.46960621606 -0.88172802009 -0.0015315853735 -0.42502300699 -0.90500467111 
-0.049000650129 -0.41333681513 -0.90536684753 -0.067666199832 -0.34523413993 -0.9337060209 -0.1386263241 -0.29982274718 -0.93186845851 
-0.14193653271 -0.21253483275 -0.95754278652 0.1157127793 0.18656407387 0.97508301636 0.067494384932 0.31445556662 0.94073737659 
0.062492106477 0.34580611726 0.93323700586 0.10403601926 0.22662861378 0.96658975533 0.016956248577 0.44155877193 0.89112028217 
0.018313088904 0.46201183298 0.88156097869 -0.034940885211 0.56245608127 0.82242830297 -0.030139485775 0.57342275487 0.81465306831 
-0.070763875515 0.64125824826 0.7593392119 -0.069162305679 0.65322042228 0.74927099933 -0.10183535071 0.70823178642 0.69818774421 
-0.10314668408 0.71946113216 0.68653999892 -0.12039895788 0.75142854642 0.64550672432 -0.12314999188 0.76213584366 0.63257201871 
-0.14146498647 0.79830217021 0.57981805984 -0.13804703216 0.80569299779 0.5740547489 -0.17182944233 0.85883818126 0.4657959549 
-0.15140983644 0.85618951454 0.48492056527 -0.19584897688 0.91164158537 0.35386796255 -0.16791782192 0.90619915684 0.38621974792 
-0.20121898785 0.94171666414 0.24809516111 -0.18096222999 0.93706917289 0.28575985593 -0.20726749818 0.9648227347 0.15921716473 
-0.19205692411 0.95918683957 0.20442606649 -0.21517190955 0.96886645928 0.11655157189 -0.19372921264 0.96778816407 0.15425254364 
-0.22656582735 0.97062018895 0.068467681949 -0.19846495607 0.97399687717 0.09474705022 -0.24293036525 0.96911194018 0.012665710064 
-0.2074299016 0.97648470887 0.022581060297 -0.24763007545 0.95096755065 -0.11819088446 -0.22453989999 0.96167462329 -0.097973197911 
-0.24620008042 0.92408109981 -0.28848764252 -0.25802019707 0.93034138156 -0.25386875289 -0.29345659894 0.82218502768 -0.45654730186 
-0.30112754504 0.82787035235 -0.43656401637 -0.32397644871 0.71725462609 -0.60979886737 -0.33082538622 0.71486702061 -0.61000714155 
-0.30068948938 0.61383105902 -0.72153085793 -0.32377003915 0.6062230416 -0.71863955378 -0.28967369026 0.50415658291 -0.80690373165 
-0.30562217989 0.50173780872 -0.80285341424 -0.28709237004 0.39018559697 -0.87415888782 -0.2815004413 0.39275708908 -0.8742682675 
-0.23411521458 0.31726593782 -0.91574146241 -0.22820890275 0.29240319967 -0.9251404534 -0.17952991401 0.21829421518 -0.95355224107 
-0.17393069207 0.21655908896 -0.95888742086 -0.12602976644 0.070243798364 -0.98671522541 -0.14476051352 0.1118976602 -0.98101199647 
-0.13561078868 0.0038537251794 -0.98989780914 -0.14135764402 0.018168655618 -0.9884695055 -0.14655079204 -0.039044654629 -0.98827650324 
-0.13418879721 -0.051868481308 -0.98916808216 -0.13744813413 -0.066371909261 -0.98823749691 -0.14706245381 -0.065522321407 -0.98678451918 
-0.17031226201 -0.13863707758 -0.97363539807 -0.15610333846 -0.14323581237 -0.97558785476 -0.16834718106 -0.25190417816 -0.94553407097 
-0.15203950967 -0.26242884519 -0.94656411403 -0.11736130057 -0.41239938618 -0.9018578749 -0.13069576311 -0.40956512652 -0.90164974338 
-0.052871046158 -0.55598727922 -0.8193629517 -0.072542885217 -0.52636380797 -0.84139216275 -0.0025296565262 -0.64490676088 -0.76376182305 
-0.013874426514 -0.60689594172 -0.79437353034 0.028473475019 -0.66520375215 -0.74607882057 0.026172409449 -0.61592961099 -0.78719506775 
0.067975085492 -0.58661980608 -0.80378247596 0.063165284981 -0.55908757276 -0.8249647297 0.10960372026 -0.5463538245 -0.82972405038 
0.097216021266 -0.55115738442 -0.82760891741 0.15282709124 -0.54011351303 -0.82759970591 0.12920854239 -0.5848182171 -0.80037306063 
0.17519028652 -0.68307754047 -0.6919353562 0.14216876672 -0.71717689508 -0.66436961114 0.19360973541 -0.81548857879 -0.51865765596 
0.16529920706 -0.84412773483 -0.48985074353 0.20590061984 -0.93150031862 -0.28692897518 0.20370823485 -0.93427929838 -0.27471066053 
0.20791252212 -0.96198912521 -0.15299552831 0.23222890669 -0.9590677292 -0.14010639859 0.23097522254 -0.96979455021 -0.060696862076 
0.2528497583 -0.96543241416 -0.056320251479 0.27886160857 -0.95993690701 -0.0040170507561 0.26590136817 -0.96385379583 -0.0093394298694 
0.31933926174 -0.93186346408 0.13823816424 0.29333544265 -0.94845116445 0.094190604217 0.35625937114 -0.87302516829 0.30019416237 
0.3406555849 -0.89648065619 0.26031317294 0.38823891828 -0.78727495035 0.47665026374 0.37706620523 -0.82001196439 0.42655747764 
0.38222501195 -0.67782756205 0.6155835582 0.39079160714 -0.73158305454 0.55020174959 0.36941514788 -0.60774263821 0.70173910496 
0.38859656092 -0.63472475204 0.66679538787 0.3505300997 -0.57284542842 0.74071446827 0.37291812622 -0.58036870628 0.72319599544 
0.32804340273 -0.50966240058 0.79223445099 0.36788305608 -0.51895373488 0.76866981903 0.31388794241 -0.43403458655 0.84151974115 
0.36211140717 -0.45329990781 0.81361116871 0.32101264671 -0.33265075563 0.8830227407 0.34561208408 -0.3728230435 0.85812881023 
0.31667488048 -0.26726109929 0.90940928316 0.33721420122 -0.29916872287 0.89232892319 0.30393184977 -0.22826545252 0.92471114545 
0.32142186489 -0.24672679686 0.91352742617 0.27026520911 -0.15293007672 0.94720133632 0.29391227646 -0.16385812006 0.9379166891 
0.23190761132 -0.071106623402 0.96920124232 0.26634371634 -0.089016213874 0.9583383211 0.18543698502 0.013821436432 0.98007049106 
0.18845749329 0.058412672695 0.97434775962 0.14715690117 0.099767806063 0.98151131375 0.12766109809 0.17069392442 0.97506099208 
-0.28327465511 0.19241458722 -0.93680648155 -0.2582686326 0.085901799247 -0.95990778602 -0.30931464209 0.29434521402 -0.90267607229 
-0.33687775237 0.400381323 -0.85028060211 -0.35961502911 0.48782305296 -0.79353335471 -0.37579130801 0.55788510873 -0.73825321723 
-0.40194730843 0.65186076592 -0.6293217518 -0.43632382069 0.76112797123 -0.47528455539 -0.44756820359 0.81771400116 -0.35217825196 
-0.44174781377 0.84845846302 -0.28866148146 -0.42223889531 0.86857320697 -0.25671068647 -0.39950772631 0.89555779377 -0.18857927427 
-0.37894449584 0.91590254976 -0.11615451122 -0.35664826143 0.93262816206 -0.04484297575 -0.34864943554 0.93270675346 0.040184654289 
-0.33377644296 0.93152629958 0.13576384505 -0.3246891908 0.90350366516 0.25687136017 -0.30509712083 0.86897040676 0.38484872991 
-0.25789443115 0.83357812658 0.48197170972 -0.19670554276 0.80845720797 0.55085848009 -0.13496995717 0.79149945798 0.59434237359 
-0.053468662359 0.74841654491 0.65709238812 -0.0034657567349 0.66269952743 0.74333262927 0.037273985787 0.55934111678 0.8258290252 
0.071274161093 0.40937213742 0.90225150208 0.11457216266 0.2067890232 0.96284491276 0.15438965661 -0.017312490952 0.98066979083 
0.20111728797 -0.1730084362 0.96059864075 0.25327177307 -0.26169060209 0.93083082145 0.3049093373 -0.28642787479 0.90770672552 
0.33879395356 -0.3133983999 0.88624961947 0.37332383427 -0.37250279353 0.84870258568 0.39762154261 -0.45634771864 0.79184938795 
0.41684379825 -0.55827097279 0.71491625001 0.41736993986 -0.63938163834 0.64234180009 0.41497001785 -0.71400112527 0.56268181781 
0.40811407285 -0.75627619246 0.51090620949 0.39919470201 -0.79218186129 0.45926218219 0.38551022023 -0.83227097828 0.39716582 
0.3537060606 -0.87784893772 0.32039047349 0.35531291863 -0.9004955341 0.24622759618 0.36546564591 -0.91529676171 0.15978280382 
0.36715577169 -0.92524229377 0.052748478705 0.36122652304 -0.92255130563 -0.11310281788 0.26647384309 -0.88960571332 -0.3536982332 
0.17216973621 -0.82323734332 -0.52598321773 0.086154753142 -0.74088932253 -0.66255447008 0.049772629634 -0.65988167166 -0.74509133957 
0.031806900599 -0.58707474376 -0.80597136712 0.030234647111 -0.52110341567 -0.85186199646 0.0089797959194 -0.45660120188 -0.88691156277 
-0.0087328022837 -0.38876950292 -0.91970173319 -0.054741690774 -0.32247387945 -0.94300783458 -0.1006085272 -0.25176486318 -0.95772117513 
-0.16552198926 -0.11986157897 -0.9757731954 -0.22539536026 0.0058337320966 -0.97388286854 0.03705127289 0.44974482153 0.89020810711 
0.059417032113 0.3697885288 0.92559111119 0.00266494345 0.53687377229 0.84201154903 -0.059176930668 0.6441058559 0.75738820697 
-0.10622541978 0.72871256244 0.67548163156 -0.13370977454 0.77805276382 0.6116583255 -0.15957405398 0.82594073632 0.53882430885 
-0.16047969574 0.86244508774 0.47671884194 -0.15870776636 0.89338300999 0.41763329006 -0.16360632303 0.9189970416 0.35291292198 
-0.16165608165 0.94036790983 0.29670269174 -0.14248583126 0.95712700193 0.24445668204 -0.13012089076 0.9728501533 0.17835399535 
-0.12666583682 0.98480580289 0.084645963343 -0.15663412157 0.98058268933 -0.049917884706 -0.21201531712 0.9532454352 -0.19820039249 
-0.2826840335 0.86623600791 -0.38862230287 -0.35583276543 0.71852842107 -0.58555177489 -0.35876991761 0.59620216681 -0.71346090543 
-0.3369087393 0.49249489009 -0.79817476056 -0.29840160903 0.36455237493 -0.8799229006 -0.25604586705 0.26377770057 -0.92690526713 
-0.20899094971 0.18619841471 -0.95878168344 -0.16911029718 0.13166856092 -0.97614520366 -0.17101695956 0.049614493466 -0.9827472145 
-0.17160009102 -0.010493265662 -0.98444576256 -0.18058713334 -0.078150514263 -0.98037628131 -0.18628365966 -0.14826244794 -0.96996616883 
-0.17649730812 -0.26445184388 -0.94580205547 -0.15478235986 -0.38664159251 -0.90652311169 -0.10707081566 -0.50274040102 -0.85422117896 
-0.05277483164 -0.57225045916 -0.8161603187 0.0023502677516 -0.58067696059 -0.81244868459 0.065000787025 -0.53237217181 -0.84203819987 
0.12868914096 -0.53160374834 -0.83532212094 0.17433840388 -0.58013227008 -0.79325706333 0.16536939433 -0.71164672001 -0.6727756817 
0.16944026081 -0.84732540056 -0.4799678657 0.19842763843 -0.94030923215 -0.26383459578 0.23072052951 -0.96657254866 -0.10169191013 
0.25017523714 -0.96766298938 -0.026102845934 0.26636857179 -0.96297726882 0.035530990986 0.30118894164 -0.92961018968 0.1744249201 
0.33623724219 -0.88023707549 0.32078209337 0.36362358192 -0.81452919019 0.44537126376 0.38654200631 -0.73784443202 0.54664794092 
0.40197380022 -0.66151879916 0.63062297145 0.3984074163 -0.59840529723 0.69368991302 0.3926896556 -0.54366587593 0.74058282408 
0.38449566739 -0.48257399418 0.7861281537 0.37312681383 -0.41779327673 0.82641723129 0.3686875083 -0.35948466834 0.85610153899 
0.37065640119 -0.31272033647 0.8737410971 0.36218610275 -0.23672541081 0.8976081463 0.34836846782 -0.14409177422 0.92562214779 
0.22418505003 0.045745936788 0.96497690268 0.1268491276 0.19854589039 0.96768388507 0.081594904207 0.29094868518 0.95155549489 
-0.2848996644 0.27372836029 -0.91672810023 -0.27095902061 0.16805127134 -0.94273680854 -0.30910818754 0.3830350311 -0.86421357943 
-0.33184636884 0.48726463055 -0.8050032984 -0.3461372045 0.5669810684 -0.74566551668 -0.36032561365 0.64706432044 -0.66641025074 
-0.37116471133 0.7238175736 -0.57715643266 -0.3807321512 0.7939728949 -0.46810638116 -0.36688916391 0.83557934347 -0.40378522956 
-0.36133348933 0.87258529682 -0.32386850751 -0.35883554677 0.90425612747 -0.22098325029 -0.3601992099 0.92450225214 -0.10644582709 
-0.35785379099 0.93140470365 0.0067848963401 -0.35666475158 0.92679369931 0.10772511707 -0.34199189322 0.91612834197 0.20435204765 
-0.32653468399 0.8956842415 0.29419778198 -0.3019187077 0.8747159664 0.37535784898 -0.26008459335 0.85209170388 0.44961447226 
-0.20916534564 0.82926865767 0.51282181868 -0.15414578081 0.811369212 0.55920428637 -0.11550170478 0.79540253344 0.58881756317 
0.040626911214 0.48824636556 0.86993243601 0.0074337889358 0.60154973832 0.79313450383 0.067195320563 0.30205076131 0.93605478609 
0.10183115078 0.10150197716 0.98189865414 0.14703359455 -0.095264620336 0.97648751361 0.1865346561 -0.2137251767 0.95563878052 
0.22308704447 -0.29451974764 0.92914069589 0.27027011398 -0.31931379163 0.90675557973 0.30883360457 -0.35157788869 0.88254520298 
0.34692487179 -0.38998020912 0.85182448218 0.37215784002 -0.45611873185 0.80659548075 0.38349017585 -0.53294365535 0.75202871295 
0.39412730882 -0.62794286823 0.66630376003 0.39568932636 -0.6982936637 0.59346758236 0.3842111851 -0.75223411995 0.53506344917 
0.37712129326 -0.78650193457 0.48721767012 0.3672775398 -0.82403772379 0.42941775636 0.36776117328 -0.84857405839 0.37987983238 
0.37095719054 -0.87392452612 0.30918715888 0.37881492446 -0.89473564967 0.22269119311 0.36654640765 -0.92164706851 0.10900824221 
0.38604086035 -0.91530336556 0.026556977892 0.18830233509 -0.79203855632 -0.56931089438 0.26085889202 -0.85602232634 -0.43331365245 
0.097444212017 -0.7053764784 -0.69902508148 0.0509577768 -0.61231008821 -0.78426346237 0.02357612977 -0.53734236355 -0.8413083139 
0.0083887344575 -0.48390266595 -0.8740303256 -0.032176832595 -0.40778949819 -0.90866188711 -0.091040420149 -0.30741119988 -0.94606326105 
-0.11980026721 -0.20279550541 -0.9697902545 -0.14628062739 -0.10210931302 -0.98118538961 -0.17374589742 -0.018558284744 -0.98433326659 
-0.1977689265 0.026593327256 -0.97865031613 -0.25155728259 0.069212359064 -0.96492674828 -0.038677836223 0.71360313043 0.69808281309 
-0.10479464897 0.72922517346 0.67007781867 0.3436899637 -0.90071621604 -0.23378785896 0.38023910968 -0.91616873715 -0.085488497671 
-0.0043958564635 0.56512152465 0.82083650965 0.035722591312 0.4742055987 0.87833355398 -0.066468375616 0.66324192875 0.73884631126 
-0.11385883084 0.73929035886 0.66336791424 -0.13402120289 0.78413379684 0.60176466075 -0.15103467877 0.82654801794 0.54111331306 
-0.15170839874 0.85962545234 0.48413877597 -0.14811569835 0.89172886521 0.42694838661 -0.13023582789 0.90945853478 0.39384740087 
-0.12775909152 0.92924318811 0.34404947632 -0.092741975865 0.94642768115 0.30367406326 -0.076463416268 0.96427810832 0.24086685215 
-0.084360854184 0.98440015705 0.13000946609 -0.12383895776 0.983332883 -0.015012677522 -0.20386109244 0.95832407973 -0.17531476413 
-0.27835440914 0.86978483361 -0.36118754303 -0.36709275101 0.67316981777 -0.6320241466 -0.36436319031 0.55923721958 -0.74334981171 
-0.33521618096 0.47748697279 -0.80761840479 -0.30295264834 0.38705410354 -0.86697435773 -0.26755071935 0.25595536247 -0.92288874534 
-0.22499326969 0.16623479824 -0.95890719959 -0.18417776675 0.11564946097 -0.97567103847 -0.17145825477 0.087055989199 -0.98116720235 
-0.17115603787 0.039391454278 -0.98337496665 -0.18078026042 -0.034900434172 -0.98243579855 -0.19657687142 -0.13161451354 -0.97117926281 
-0.1874567351 -0.25638432865 -0.94406863251 -0.16419000005 -0.37333472468 -0.91005554848 -0.12604683114 -0.47718148216 -0.86867854999 
-0.063449645503 -0.53325518234 -0.84203012286 -0.0066795510599 -0.52173424373 -0.85194103686 0.064030841171 -0.48805632405 -0.86835383324 
0.11510391057 -0.5259525475 -0.83985850518 0.13851842091 -0.62593702589 -0.76447640714 0.14649174654 -0.77788345926 -0.58803707558 
0.16140766523 -0.90344299046 -0.37947614893 0.20202767188 -0.95379665831 -0.20057688768 0.22763968351 -0.96610871922 -0.10963842884 
0.25069435831 -0.96625481158 -0.039790230485 0.27626755437 -0.95890973237 0.0481302784 0.30070550529 -0.93758160939 0.16058124745 
0.33223331053 -0.8929414618 0.28721874487 0.36952799619 -0.82495821947 0.42396510256 0.39194520962 -0.75805213308 0.5140343944 
0.40938788685 -0.68869194416 0.59659275061 0.41722845515 -0.61493538287 0.6672920527 0.41200655188 -0.56274069185 0.71513342673 
0.40349861769 -0.52059922174 0.75242017941 0.40289795508 -0.4793863438 0.77864727526 0.40349770577 -0.43575637647 0.80355168631 
0.40794777582 -0.38078933665 0.82866538045 0.37609264323 -0.28888594822 0.87555087648 0.30301872268 -0.13645786496 0.93792393605 
0.17622580223 0.079991665891 0.97129838647 0.080682146564 0.24401628948 0.96296384038 0.048080883874 0.34619752849 0.93547942848 
0.042526882494 0.41274369528 0.90846736112 0.33732290642 -0.88096004859 -0.29742544817 0.35823196138 -0.9138819099 -0.16777961685 
0.32346930631 -0.84626209422 -0.41672160594 0.23222697988 -0.77392170613 -0.56730608835 0.13700586095 -0.67187673609 -0.72173332488 
0.069367218364 -0.56055208544 -0.82354137624 0.037429775991 -0.5038812745 -0.86237028252 0.0099014335312 -0.46904204658 -0.88270767467 
-0.029945121653 -0.40982322233 -0.90902402897 -0.083969982063 -0.31709840463 -0.94387181494 -0.14647033978 -0.16744717461 -0.97037410943 
-0.18319429316 -0.024093580507 -0.9804047441 -0.18879581141 0.10031930366 -0.9762546854 -0.18424765844 0.067063302008 -0.97986640128 
-0.20243860803 0.053388626739 -0.97684334052 -0.23528541029 0.099416161487 -0.96578922431 -0.2620307856 0.21506726418 -0.93347527738 
-0.28479956719 0.36421389104 -0.8833323968 -0.30552065796 0.48231447959 -0.81750288163 -0.31983135916 0.57466068272 -0.75062709422 
-0.3190475332 0.6485658694 -0.68760899732 -0.32556750451 0.72497317169 -0.60414042065 -0.31360825725 0.78067587828 -0.53719777224 
-0.31394473751 0.8371550741 -0.44279442353 -0.3262386565 0.88160611189 -0.33097103987 -0.34542447636 0.91186066261 -0.20399851965 
-0.3589678971 0.92439476886 -0.068528790384 -0.36589751185 0.92605832748 0.055122415191 -0.35724629876 0.91813168046 0.15010333137 
-0.34939454964 0.90189208524 0.25333816165 -0.32811586279 0.8951329044 0.29928120372 -0.3016699322 0.8929276457 0.33309816804 
-0.25359205306 0.88564852519 0.38583130696 -0.21636246648 0.86665707038 0.44507724377 -0.17798522042 0.83646894059 0.5114478011 
-0.15374490211 0.81235937386 0.56111441484 -0.13695574017 0.78229470505 0.60188621577 -0.10274039845 0.70065274486 0.70392570694 
-0.13320713445 0.71118898157 0.68556374435 -0.059578558808 0.62765584901 0.7708278321 -0.0095860239929 0.542918082 0.83090472861 
0.024378355742 0.44838774522 0.88702014983 0.05184304352 0.27416768726 0.95060387107 0.092123308715 0.077066439769 0.98632469441 
0.13437544262 -0.080886015081 0.98363391533 0.16979359071 -0.20078976084 0.96066669649 0.20903695939 -0.28840348887 0.93401149458 
0.25036714334 -0.33195463615 0.90755688344 0.28535343619 -0.3794488984 0.87931953924 0.30897523261 -0.42012695139 0.85252654534 
0.33701070936 -0.45985710739 0.82025140694 0.35688182018 -0.50766928629 0.78338073787 0.36486200117 -0.57966744892 0.72633754074 
0.3720422528 -0.64457829764 0.66437462401 0.37608129278 -0.70864948462 0.59649508636 0.36708043538 -0.76011517891 0.53285616097 
0.36471569278 -0.80064101286 0.47376831875 0.36942393202 -0.82716117021 0.42337334619 0.38327482573 -0.84491951027 0.37052309901 
0.39524692617 -0.86454986766 0.30115501876 0.40495166492 -0.88781894339 0.20509060853 0.39377803653 -0.9139803111 0.076734700544 
0.38809410212 -0.91421372529 0.02916351215 0.36455225596 -0.92246998141 -0.081041619145 0.33958610671 -0.90047697246 -0.23246697254 
0.31629371442 -0.91501862248 -0.23098986635 0.3152753552 -0.88324188762 -0.31802828747 -0.072215915025 0.68052121306 0.72282728212 
-0.0063856445122 0.57112872584 0.81548232015 -0.12659595205 0.76208323487 0.63409853787 -0.14660357861 0.80602351202 0.56839795683 
-0.16445976794 0.84841953699 0.5015084452 -0.16253091484 0.87708761177 0.4499040977 -0.14659807214 0.89865117829 0.41324666337 
-0.11885615616 0.9073410217 0.40215679524 -0.094232957368 0.91753544192 0.38518098775 -0.079585411219 0.93797682277 0.33212632319 
-0.077488565447 0.95739122644 0.27479924286 -0.12367792112 0.97246933529 0.1430761806 -0.17676859965 0.97974772213 -0.010221009909 
-0.25110932107 0.93564125798 -0.18823204548 -0.30711096621 0.87125267178 -0.3565621139 -0.33038790732 0.7925374328 -0.49457364603 
-0.33172888389 0.42384866062 -0.837539467 -0.35659064429 0.51173744171 -0.77854002225 -0.31144406678 0.31243528976 -0.89434341188 
-0.27944821663 0.1992699801 -0.93533272402 -0.24422577302 0.12570058082 -0.96111981407 -0.22024411912 0.099519158262 -0.97021937556 
-0.20051059002 0.060309361814 -0.97728032866 -0.18231116102 0.018281188811 -0.98283809067 -0.17131679435 -0.028384080731 -0.98444235831 
-0.17447492481 -0.14558254195 -0.97194531261 -0.16764438306 -0.28927723432 -0.93805931626 -0.14865082586 -0.40325875813 -0.9018151095 
-0.11294456204 -0.48606890351 -0.86581550997 -0.060036976834 -0.4778311858 -0.87471008544 -0.00073921686674 -0.45887747834 -0.88733961548 
0.057698376772 -0.46935753361 -0.87999095208 0.09621948412 -0.52554829323 -0.84155806835 0.11137237557 -0.66102577161 -0.73439725009 
0.12126488277 -0.81669455996 -0.5436495211 0.14668219749 -0.93062973098 -0.31722136023 0.19079822584 -0.96271013674 -0.17725589151 
0.22640838999 -0.96884628705 -0.082011933485 0.26260864846 -0.96352672031 -0.020129389714 0.28402422613 -0.9547492673 0.070545137378 
0.30894025654 -0.92562543677 0.19300756764 0.33797884133 -0.87904642708 0.3305474708 0.36556883847 -0.81309934421 0.44492995095 
0.38688498268 -0.73901767125 0.5475118735 0.40365981856 -0.66196126818 0.63112762293 0.40760636095 -0.59541322314 0.68978938157 
0.40958514127 -0.54594238143 0.73036103589 0.40128282777 -0.51822971559 0.75510262519 0.39096130308 -0.5058784513 0.76865261276 
0.38631825471 -0.47563980382 0.78987877996 0.3815787865 -0.43433441503 0.81490588153 0.35068947803 -0.31795053504 0.86879835709 
0.26670958198 -0.13312342333 0.94609796917 0.14211300955 0.10579130772 0.96603348881 0.054718089572 0.29999426624 0.95095314389 
0.046518658441 0.37048203696 0.92688564277 0.042483082607 0.41956876956 0.90622983861 0.039088830788 0.46546843631 0.88277469282 
-0.34802407861 0.62041279535 -0.68905552857 -0.3282280907 0.66050275431 -0.66784814374 0.28344035889 -0.85640769008 -0.4219566451 
0.2291471598 -0.77014627651 -0.5786269059 0.14896123497 -0.6463436155 -0.74390203147 0.080237701705 -0.55833675729 -0.82013196711 
0.038329743726 -0.49877643714 -0.86560481673 0.015709669864 -0.47634590507 -0.87864758444 -0.014268881291 -0.42981861997 -0.90137415928 
-0.043555353844 -0.36458799335 -0.92962441817 -0.087742069774 -0.21981614279 -0.9670822201 -0.13699786563 -0.050519807099 -0.9831408804 
-0.1989677485 0.14960529168 -0.96745996838 -0.15615797575 0.05803821344 -0.9849806631 -0.14073907595 0.084387034202 -0.98592035997 
-0.20923054634 0.15161363817 -0.96527679192 -0.24186734286 0.25874152369 -0.92696938271 -0.26753784126 0.35394486129 -0.8915880466 
-0.28020108728 0.44213417524 -0.84703401489 -0.27993593027 0.53538139884 -0.79263418921 -0.26773602251 0.61724303215 -0.7366737967 
-0.26187455286 0.68429553147 -0.6801791569 -0.26076645061 0.75841133281 -0.5942628401 -0.27790804465 0.83544654591 -0.46225602166 
-0.30164643893 0.89124367374 -0.32805225634 -0.34156019875 0.91674841147 -0.17236380059 -0.37041267772 0.92511601972 -0.019595418967 
-0.38152281613 0.90751947058 0.13102632367 -0.3746894595 0.89081162292 0.24890336918 -0.34641961623 0.88272206934 0.31189722647 
-0.31567615658 0.88500531631 0.34053228382 -0.27415086014 0.89534163186 0.35083564336 -0.23336085112 0.90013461216 0.36602325584 
-0.20895058466 0.88071585801 0.42006299575 -0.19603767632 0.85454081726 0.47620515164 -0.16862831505 0.84552365651 0.50355185419 
-0.1528858855 0.79398266367 0.58696419842 -0.14520711372 0.74971462351 0.63951229405 -0.12726107961 0.65065387301 0.74414457949 
-0.11817569446 0.66114820954 0.73819129446 -0.085414964451 0.59898352842 0.78784819244 -0.056640759257 0.57246006627 0.81225923508 
-0.029100436544 0.52997680992 0.8430030612 -0.0066194838074 0.44505846058 0.88422966448 0.030413739912 0.2937196984 0.94465952778 
0.061864556007 0.1119206835 0.98349874958 0.08708518742 -0.062722644347 0.99302887137 0.144402043 -0.2092751104 0.96236908603 
0.18955563566 -0.30450850981 0.93270340249 0.22267315107 -0.37235625399 0.89917452179 0.25663986113 -0.43466935348 0.86230566639 
0.28014516185 -0.47475403198 0.83346564166 0.30629493794 -0.5110776284 0.80185512697 0.33418710563 -0.54690056342 0.76749389309 
0.34209306021 -0.58694802382 0.73239182662 0.34965145165 -0.63411590727 0.68882038585 0.35232717785 -0.69263013255 0.62768562126 
0.35971701406 -0.74347610553 0.56163487708 0.36934339714 -0.78847856784 0.48978649112 0.38107174456 -0.81532409074 0.43527222649 
0.39791719617 -0.83896113217 0.36787104562 0.39779146452 -0.87083173801 0.28368148714 0.39520086207 -0.89091348176 0.19865763781 
0.39601131836 -0.89305009316 0.20463911346 0.37676950807 -0.9189537949 0.089198816872 0.35481257062 -0.93031601447 0.005363475856 
0.33950672545 -0.93619996578 -0.071917488829 0.29094955486 -0.88980386665 -0.32955908101 0.29137839483 -0.91516814528 -0.25460570504 
0.29585849781 -0.87062997909 -0.37766897911 -0.16686449334 0.17662827411 -0.96833980139 -0.20824999542 0.21609470047 -0.95356041632 
-0.33109599476 0.53418483033 -0.77352754468 -0.32013662583 0.65335351129 -0.67785674704 -0.31823781305 0.45895813824 -0.82521654535 
-0.29298669856 0.38804412271 -0.8698568144 -0.27386703297 0.30265534264 -0.91051914203 -0.26531822596 0.21761485703 -0.93696547448 
-0.24427455312 0.1470359276 -0.95722750529 -0.21976997583 0.093286364071 -0.97091762587 -0.20178275663 0.064085410416 -0.97716583438 
-0.17447365463 0.028482163528 -0.98391571667 -0.16328524309 -0.018382539246 -0.98596562966 -0.14312692003 -0.11721874178 -0.98121055289 
-0.12365143112 -0.260306567 -0.9538739336 -0.086529406459 -0.37753805895 -0.92037688946 -0.058745119676 -0.4378444922 -0.89670815694 
-0.035052746588 -0.4482675105 -0.89261114142 0.0025603172295 -0.44817145616 -0.89270839256 0.047244743718 -0.44109593225 -0.89569236632 
0.07093280114 -0.53236413692 -0.83442092878 0.085577416698 -0.65636408322 -0.74713405714 0.10120116692 -0.81524559772 -0.53899622626 
0.12804793371 -0.92330163321 -0.34594999249 0.17523913301 -0.95806249258 -0.207189264 0.21842183457 -0.96670153343 -0.11940902427 
0.26547830495 -0.96291083679 -0.031106411487 0.28859792459 -0.94393915072 0.12392018417 0.31715307576 -0.90607210857 0.26062201377 
0.33808872459 -0.85203999469 0.39860560391 0.36229526861 -0.79681831154 0.47742540294 0.38418479827 -0.73613771132 0.55461433597 
0.3907435941 -0.66638080647 0.63296553234 0.3892258648 -0.60269555117 0.69500988777 0.38706744056 -0.54716403794 0.74150461539 
0.38385016359 -0.52143818299 0.76191153335 0.37026088099 -0.50767881183 0.7776740856 0.35792957036 -0.49037428716 0.79444662585 
0.34636262504 -0.47055272625 0.81115201364 0.3328771952 -0.39775179344 0.84867182518 0.31671683547 -0.28525339543 0.90136687915 
0.20129182066 -0.0087266154838 0.95306691698 0.10465422508 0.22354057118 0.96371771921 0.031217192276 0.37900755979 0.92383751809 
0.046554227665 0.409348617 0.91088720435 0.056669984543 0.44599273806 0.89077881254 0.019962126139 0.54581253864 0.83473712417 
-0.026451317507 0.65609544469 0.7464774498 -0.068684205053 0.7484330175 0.65868610167 -0.10736558719 0.80056300621 0.58464907546 
-0.1426938329 0.85222890715 0.50276728095 -0.15862388974 0.87775957739 0.44798436361 -0.16969810136 0.90059678943 0.39968277192 
-0.14594732501 0.91061967488 0.38533587893 -0.12450272221 0.91920551281 0.37308890953 -0.11508887567 0.93007291574 0.34714761256 
-0.12561979703 0.94141143765 0.30866333498 -0.16456561507 0.96078378562 0.20816760872 -0.20742845303 0.97177136959 0.068273626311 
-0.26922864496 0.94462865293 -0.12701997396 -0.30875175183 0.8863607395 -0.33235054898 -0.3192478291 0.79543912568 -0.48951303884 
-0.32090890486 0.77994220023 -0.53251059077 -0.29990887736 0.71320434649 -0.62440216571 -0.29947043243 0.60307938089 -0.73505374548 
-0.28513445307 0.66380453912 -0.68288725283 -0.32011221722 0.5647030691 -0.75731715004 0.236780193 -0.78317565909 -0.56099894615 
0.14915483194 -0.66481401197 -0.72197676463 0.073309647956 -0.56717718583 -0.81435922919 0.01472769671 -0.48859631912 -0.87217529756 
-0.0045871916142 -0.44703301999 -0.89345990405 -0.017836017515 -0.4052430214 -0.91329841701 -0.024372489441 -0.35218593903 -0.93462044353 
-0.037631064483 -0.26706245429 -0.96081923178 -0.055823161277 -0.16309930282 -0.98137720973 -0.088585287338 -0.026303372035 -0.9907053387 
-0.13493208435 0.12850044683 -0.97711419927 -0.17347528323 0.22839728003 -0.95697318442 -0.17583471982 0.21395376535 -0.95852145813 
-0.13135804294 0.13504145544 -0.9786489874 -0.11715867011 0.074016443526 -0.98996300624 -0.13610354997 0.072637082276 -0.98747038527 
-0.16525491171 0.13015277862 -0.97154030416 -0.22043599586 0.26967300355 -0.93169631384 -0.26442833116 0.36651035814 -0.88827262164 
-0.25622424423 0.41440355629 -0.8712682065 -0.23941945964 0.48435203683 -0.83596683016 -0.22252195068 0.56255219253 -0.79239332811 
-0.21184126558 0.62523658542 -0.74763655974 -0.2098960281 0.68617926693 -0.6943173524 -0.28860998903 0.88069265145 -0.34372286463 
-0.24495094566 0.82753412711 -0.49889273186 -0.34154408504 0.92121952085 -0.16773832541 -0.36111750381 0.92154743974 -0.011848508687 
-0.37138060885 0.91503287202 0.11109228385 -0.36196161392 0.90324488677 0.22202770315 -0.33863530965 0.88048252341 0.32815591955 
-0.32264261593 0.87262118105 0.36611819196 -0.281517577 0.88406794837 0.36925840948 -0.17435716306 0.85534851332 0.48060021744 
-0.18699780943 0.89350175499 0.40663000995 -0.23370916433 0.77658232245 -0.58119596796 -0.23388851512 0.73654360996 -0.63137183566 
-0.21375589854 0.90134292252 0.37507225114 -0.2441226059 0.89870925178 0.3622910939 -0.10727706893 0.74657926897 0.65424833889 
-0.16532897688 0.83811968568 0.51510425077 -0.098879355646 0.7157805442 0.68625562051 -0.091632544746 0.62856563617 0.76921155851 
-0.069747057844 0.65909178341 0.74715557305 -0.077538173187 0.54061810559 0.83024940217 -0.069221348127 0.54268723329 0.83528524172 
-0.01570445641 0.39625820838 0.91348393573 0.017325560509 0.30935068584 0.94512717011 0.075949779097 0.15419349834 0.97334589769 
0.10203393631 -0.14282161189 0.97991080394 0.13074871875 -0.27073249177 0.94890702608 0.16713135147 -0.34607624642 0.92225559491 
0.19427434364 -0.39375471509 0.89656374114 0.22367416713 -0.44567960197 0.86489864916 0.25309243946 -0.50302186911 0.82491441378 
0.2769572651 -0.54846648791 0.78771236513 0.305607526 -0.56754448866 0.76417304954 0.31742690907 -0.59602270394 0.73723857211 
0.32698307075 -0.6220107487 0.71027608253 0.33437197652 -0.66567369677 0.66661336233 0.34612955385 -0.71825294607 0.60013551196 
0.36239683044 -0.76771460074 0.52587335505 0.38989079607 -0.8034661805 0.44897563872 0.40716284649 -0.84602619485 0.33622993491 
0.40831992976 -0.87075298198 0.26320674106 0.3807511103 -0.90405725445 0.17345279996 0.35760555575 -0.92631059501 0.094340192946 
0.31734135987 -0.93795112467 -0.057714020387 0.26099337013 -0.95026025927 -0.14592618885 0.22364593503 -0.8681042359 -0.42885031013 
0.19981281011 -0.93367784973 -0.25630820469 0.25478825905 -0.84699065629 -0.45377445556 -0.31074952777 0.50686928671 -0.79658636647 
-0.29764048741 0.42887587764 -0.84958626218 -0.27191763762 0.34122699372 -0.89608328265 -0.24700572369 0.24470879423 -0.93602098018 
-0.23041786075 0.14641699661 -0.9603123133 -0.21125789954 0.088086541764 -0.97330169936 -0.19100883343 0.066438368998 -0.97903736495 
-0.16604983444 0.051158164933 -0.98464446518 -0.14074434606 0.031559993914 -0.98876204866 -0.10792050825 -0.068101270399 -0.99096900987 
-0.075979960081 -0.19224098172 -0.97372095584 -0.043361887298 -0.29926300503 -0.95217294176 -0.017283611306 -0.36323688416 -0.93079203399 
0.0033013751119 -0.42034774356 -0.90682250558 -0.0094691751325 -0.40878918445 -0.91251974262 0.026714500238 -0.46914607258 -0.88222257145 
0.031387805797 -0.62463040349 -0.75903982861 0.042544275604 -0.78750090864 -0.60998176375 0.07463512094 -0.88322516282 -0.42986712387 
0.11387899261 -0.94993257095 -0.28226310914 0.16204210877 -0.96439939531 -0.19510423827 0.21756935911 -0.96553132655 -0.12283244781 
0.27581036863 -0.95894405506 -0.058795093572 0.31041694392 -0.94504633068 0.06475947514 0.34381298061 -0.88733716931 0.29650518128 
0.36995810509 -0.83553500701 0.40388507014 0.37978213558 -0.79124107218 0.47577518002 0.38117496241 -0.74445532471 0.54360311743 
0.37614879518 -0.68546150061 0.62177280093 0.37391307627 -0.60705877481 0.69734876309 0.37005311222 -0.54861258734 0.74962466096 
0.36063357694 -0.53388796199 0.76459637033 0.33852011243 -0.54495086325 0.76674463481 0.33478332727 -0.51523133384 0.78838339957 
0.32289998095 -0.47395729548 0.8189317128 0.29305557426 -0.41403721492 0.85774143525 0.24505232449 -0.24107188423 0.93358228452 
0.1776640452 0.0050660809344 0.96711940556 0.089576872469 0.24683986531 0.96225204726 0.037921933444 0.3547756881 0.93275694693 
0.024227401144 0.41325433909 0.90891333043 0.012909774576 0.48237200127 0.87261664451 -0.014514188875 0.59262117303 0.80133609854 
-0.026902892927 0.67089856398 0.73811145705 -0.030556430216 0.72407188233 0.68823422563 -0.068897801889 0.78312026016 0.61356784408 
-0.09689112272 0.85011495152 0.5158424267 -0.13093150976 0.88632198861 0.44029574503 -0.16582014033 0.90596664142 0.38894024333 
-0.1813632847 0.91295426371 0.36327206756 -0.17791788662 0.92268739976 0.34097879867 -0.19211044917 0.92808321452 0.31472019063 
-0.20597359871 0.93742716412 0.27953955278 -0.24132770506 0.94525012274 0.19174906711 -0.27872044157 0.9545553839 0.083993893693 
-0.29777223715 0.94025321051 -0.074922192835 -0.31980160999 0.91969528421 -0.21493121236 -0.32202914086 0.87103381726 -0.33857459018 
-0.30218232693 0.81144942326 -0.48428114506 -0.29722473497 0.79128325232 -0.53147824062 -0.29177088059 0.73588587967 -0.60121032929 
-0.28205160316 0.62351291254 -0.72474249846 -0.25837092095 0.64095301493 -0.71446238222 -0.27403913742 0.51601893164 -0.80589209531 
-0.0053946224388 -0.39235767383 -0.91964441462 0.0014937855938 -0.36228265196 -0.93173994291 -0.0015412367503 0.36895543338 0.92116218604 
0.051172784828 0.26991634037 0.95908431751 0.18164118777 -0.29458420107 0.93547694467 0.18405522535 -0.2113217163 0.95570167175 
0.18785940158 -0.3505427459 0.91553980997 0.20655203748 -0.40449083658 0.88950782416 0.22183369249 -0.47855067465 0.84647141757 
0.23945837167 -0.54446029123 0.80185746032 0.25978732863 -0.58438922724 0.76780869066 0.28283188413 -0.61413990855 0.73653350173 
0.29901900296 -0.59089858724 0.74911015573 0.31312393177 -0.59921249885 0.73629286139 0.32703379484 -0.62625893815 0.70739605262 
0.34583909069 -0.67136451277 0.65215207951 0.36710225141 -0.72454938593 0.58001375282 0.38591800692 -0.77706471906 0.49503462302 
0.40052550947 -0.81467340754 0.41414999318 0.40018962511 -0.8688579226 0.27836327244 0.39798376161 -0.86238996601 0.29898768065 
0.19172749967 -0.7704278261 -0.58964188501 0.10436904705 -0.64543902454 -0.74455875261 0.029485346597 -0.5094218187 -0.85771005463 
-0.0023775080779 -0.42587523268 -0.90416375167 -0.0067618484971 -0.37035318437 -0.92873085778 -0.0052191473848 -0.32639215139 -0.94466741916 
-0.016748262834 -0.25069572013 -0.96608155771 -0.019701806295 -0.19075631098 -0.98078368021 -0.037817574217 -0.11634934488 -0.98937662195 
-0.055247268724 -0.049081493253 -0.99416957257 -0.094588705787 0.054147007067 -0.98718971644 -0.13633155581 0.17328112807 -0.97514646027 
-0.13405813309 0.11553176109 -0.98280204111 -0.11804832091 0.16953097931 -0.97660800708 -0.096701478309 0.12866552945 -0.98538544089 
-0.089483829465 0.066044842511 -0.992924436 -0.12704000536 0.14413769803 -0.97967264332 -0.16321124782 0.23725590956 -0.95312858677 
-0.19825491447 0.29441667058 -0.93356259609 -0.1813260108 0.37767807337 -0.90170139069 -0.19046005315 0.47649984542 -0.85476721655 
-0.20857341897 0.56584419633 -0.79182826205 -0.20686362114 0.62434188785 -0.74883872308 -0.21179802845 0.65841508362 -0.71794724065 
-0.2486700434 0.76155463392 -0.59650494646 -0.27202739394 0.74216964079 -0.60283633824 -0.27126585068 0.80980879651 -0.51003703838 
-0.31850259515 0.86994741072 -0.37166393073 -0.34313583111 0.90515466765 -0.1833766693 -0.35945571783 0.93130985717 -0.018594844849 
-0.36291116188 0.9179237286 0.10869793677 -0.10330563908 0.80164935159 0.58469866843 -0.12853680015 0.85093450383 0.50515998494 
-0.062143857231 0.72431681602 0.68381582556 -0.038637807195 0.54238955388 0.83633628855 -0.052984741373 0.63819381076 0.76656366636 
-0.06304080069 0.50630479274 0.85482341312 -0.26079120922 0.43045784199 -0.85912419898 -0.24124236858 0.31984560748 -0.91119020565 
-0.22032485297 0.2123570307 -0.94881266614 -0.20097272391 0.14005554364 -0.96856354781 -0.17883259012 0.093966407621 -0.97911325153 
-0.16438092035 0.084220547368 -0.98257599946 -0.14833979393 0.096054302167 -0.98393393662 -0.079111751418 -0.082303697074 -0.98924261917 
-0.042650713752 -0.19788015875 -0.97666837279 -0.014188192652 -0.27222627653 -0.96100363674 0.0002439674755 -0.28836198101 -0.95636212151 
0.0063555140959 -0.44623404649 -0.89208998146 -0.0050392340087 -0.40673352791 -0.91098766308 0.016327138329 -0.50526053377 -0.85682144895 
0.020239978004 -0.61873329571 -0.77868819269 0.043603254966 -0.74536268959 -0.64980640354 0.073358662034 -0.85740448206 -0.49073306899 
0.11107294121 -0.92541348114 -0.34974233605 0.16360328043 -0.95644995032 -0.22285836797 0.22302828792 -0.96625492897 -0.10666554343 
0.28319902305 -0.95672841585 -0.010587312549 0.31471119219 -0.93891031745 0.084385891043 0.35178503906 -0.92217184355 0.1274030637 
0.37516445779 -0.76907789138 0.51426626837 0.39201196133 -0.8077486236 0.43876066929 0.36279392581 -0.71399765748 0.59490741347 
0.35726407211 -0.63757453713 0.67920800583 0.35344153478 -0.58927888339 0.72516690372 0.34853918249 -0.55087089989 0.7581247062 
0.3367821257 -0.56045546868 0.75642150995 0.32489526442 -0.57856430464 0.74804672445 0.29928526037 -0.45333173326 0.83917489525 
0.31508320442 -0.49387946857 0.80945179668 0.27052642964 -0.3766748566 0.88103867385 0.2363577663 -0.26877533829 0.93054102268 
0.19329447131 -0.058816765878 0.96863684994 0.14340622157 0.1186394583 0.97570174386 0.082791589663 0.27384901425 0.95287804419 
0.013176637296 0.41135799088 0.90520841202 0.39312994832 -0.85065816495 0.33359834562 0.39662572982 -0.8691110335 0.28668699725 
0.1644472349 -0.056638669972 0.97615361595 0.10983791394 0.15963939191 0.96721132892 0.32161560358 -0.55784114347 0.76475807661 
0.31134889064 -0.59314119283 0.74177866314 -0.054506606125 0.69453679145 0.71339611029 -0.05428629487 0.74087174853 0.66699136308 
-0.056267753546 0.78789475668 0.60725348766 -0.071888527066 0.8503022493 0.51997852761 -0.11847500524 0.87837675667 0.45631071451 
-0.17202545406 0.90572675967 0.38641468466 -0.21036333444 0.91767967928 0.33315860047 -0.23231364092 0.9249847231 0.30005442991 
-0.24919562675 0.93312162958 0.25263236543 -0.26792382189 0.94233907515 0.19573157491 -0.29156029949 0.94684169033 0.092480311338 
-0.3085288234 0.94936284491 -0.020510202554 -0.3106429581 0.92786263101 -0.15546584527 -0.30758379525 0.90365352899 -0.28106936467 
-0.30646318926 0.87171992034 -0.37044030656 -0.3059481617 0.86645696237 -0.38070429071 -0.30510982009 0.84081716945 -0.43877063736 
-0.28623479181 0.77413506229 -0.56360450576 -0.24932292557 0.60815983151 -0.74673367556 -0.33469413031 0.889489474 0.30750806004 
-0.34962747357 0.90611422638 0.22922949613 -0.32488810689 0.87994720597 0.34534671133 -0.30500438418 0.8886912428 0.34114312586 
-0.27563272061 0.89702005655 0.34197279894 -0.21036597891 0.90454713584 0.36931743476 -0.23628683862 0.91129628502 0.33429418667 
-0.1806410711 0.89201961343 0.40975008124 0.028017058827 -0.66852089314 -0.73133555961 0.0091534038792 -0.54737013461 -0.8286235995 
0.058063507276 -0.78831906493 -0.602913325 0.086424911839 -0.86525708427 -0.47592511694 0.12117003714 -0.91233327186 -0.37922404049 
0.16618003763 -0.93605305919 -0.28543948357 0.23054717927 -0.95781874187 -0.14120878877 0.32741197702 -0.94119581161 0.043699305971 
0.36943473175 -0.91437016548 0.13943607205 -0.25955618985 0.91665894373 0.30160368836 -0.27818604399 0.92619086585 0.24705366221 
-0.29710190773 0.93528319559 0.18694481994 -0.31033766807 0.94092285758 0.098584829007 -0.32254785506 0.94567297524 0.0045720892585 
-0.32280107875 0.93244106708 -0.10965552484 -0.32170700321 0.91688735835 -0.23184579761 -0.30569400068 0.86941592221 -0.37481141348 
-0.3035554972 0.83944783147 -0.43007940644 -0.30753622894 0.85319163196 -0.4088604279 -0.319590967 0.87975860508 -0.3267599151 
-0.33576358582 0.90739812215 -0.20003407857 -0.3514950173 0.92988348586 -0.042687995952 -0.35325454944 0.92416703051 0.095437613566 
-0.22959190103 0.48776253178 -0.83638850573 -0.20359128992 0.38065882039 -0.89809452536 -0.17646951252 0.28028884103 -0.94134992025 
-0.15374920716 0.18922481724 -0.96637826795 -0.129377171 0.11100780532 -0.98498064156 -0.13699698578 0.10857324985 -0.9843611381 
-0.12912214827 0.12041136468 -0.98416918078 -0.15300540226 0.3240478646 -0.93244793579 -0.14233054255 0.36929071313 -0.91383794545 
-0.14468701724 0.44559913749 -0.88323560292 -0.20272732982 0.53308154284 -0.81471853065 -0.12600041236 0.17269418119 -0.97564370558 
-0.079591792808 0.12131996345 -0.98929814095 -0.07688643001 0.13231231742 -0.98703007929 -0.10073117274 0.17666892306 -0.97516539054 
-0.32988082433 0.89815367289 -0.28476395021 -0.33456466847 0.91709257057 -0.17968463594 -0.33305498145 0.93501433247 -0.055417526872 
-0.3325622933 0.93680989347 0.057832697371 -0.33082291201 0.92564368779 0.15875429924 -0.32425391156 0.91166268948 0.24642942102 
-0.31601474792 0.89804199534 0.3005888906 -0.29393868824 0.91293727114 0.28062633242 -0.082705920757 0.00055459289976 -0.99411937092 
-0.04874871134 -0.091940634665 -0.99044158098 -0.012912528402 -0.19900430405 -0.97755179396 0.0014300158262 -0.25968169349 -0.96492233176 
-0.0043571359032 -0.37373972952 -0.92751778186 -0.00089138413016 -0.35901350269 -0.93311411192 0.14383447175 -0.79862017408 -0.57018235383 
0.062368204448 -0.64624885208 -0.75300606267 0.004346988147 -0.53379646871 -0.84278182314 -0.008154681128 -0.43594030481 -0.89696374077 
-0.014692708412 -0.37719434897 -0.92574744163 -0.0051502610054 -0.43834992957 -0.89835012496 -0.00036144015547 -0.29000610535 -0.95588190732 
0.39793864309 -0.81468542171 0.41489062346 0.39347451436 -0.78144316977 0.48300647047 0.37928590649 -0.74942838214 0.53986989639 
0.36414525572 -0.70831081288 0.60092448478 0.35083523617 -0.67013448872 0.65170535466 0.33815729008 -0.62313809846 0.7024346934 
0.32532145254 -0.57617604045 0.74840584456 0.31908645297 -0.57392229605 0.75407685155 0.31166277989 -0.5968756029 0.73893171033 
0.29812699097 -0.61798729697 0.72736970972 0.29315952195 -0.57564686762 0.76180037545 0.28572318153 -0.60983240534 0.73915522451 
0.29975757197 -0.54714070878 0.78091644979 0.29828782271 -0.50782229494 0.8060895926 0.29194976724 -0.46011373855 0.83831228794 
0.2684111164 -0.39979681938 0.87365527456 0.24147912938 -0.3090729373 0.9155472128 0.22760428605 -0.13418978925 0.95991425865 
0.17095671258 0.052053307237 0.97484850097 0.11883304073 0.18662201449 0.96921851338 0.052496426241 0.33329373816 0.93385766853 
0.17569096201 0.021607852249 0.97622476621 0.18829925437 -0.060558823765 0.97369240563 0.20387556076 -0.2021523187 0.94862154382 
0.21856818267 -0.32525869846 0.91964528693 0.23454589624 -0.39304690403 0.88658208628 0.24870013848 -0.44977725642 0.856299478 
0.25751508596 -0.50566890494 0.82112609711 0.26512447063 -0.56309606897 0.78005886286 0.29296157612 -0.59405836463 0.74904752133 
0.29051079488 -0.60530369127 0.7409203532 0.30255116916 -0.60271254099 0.73726469455 0.3196465649 -0.63999963382 0.69780491935 
0.343235601 -0.68534566242 0.63881258844 0.35576848739 -0.75013910158 0.55541581579 0.38101691962 -0.78604780105 0.48268819751 
0.39399593716 -0.81328706205 0.42437539844 0.14329620415 -0.89245917379 -0.42186516922 0.33688346608 -0.62388774597 0.70282620796 
0.32478053022 -0.5994602368 0.73121711483 0.31432301971 -0.5858740998 0.74668582323 0.30659953932 -0.58787296628 0.74831828767 
0.30247894516 -0.6015542217 0.73892461005 0.26138499367 -0.42531913094 0.86604441237 0.27302926563 -0.48351052241 0.82937121069 
0.24601499544 -0.37072455252 0.89268633552 0.23305969799 -0.32813034312 0.91390021747 -0.10511390147 0.11412973699 -0.98759454597 
-0.089975721448 0.11240137737 -0.9894013454 -0.19623647964 0.40290856708 -0.8891512674 -0.14704421608 0.2906608367 -0.94431281989 
-0.22444652663 0.47642845145 -0.84735095304 -0.30864578944 0.92685818318 0.20074293578 -0.32122776736 0.9385970964 0.11174229872 
-0.32693290263 0.93996159959 0.012454402792 -0.33172514681 0.93645090186 -0.095113551934 -0.31906414503 0.91054740921 -0.22947514022 
0.27810613115 -0.6037603702 0.74678672679 0.28538905838 -0.58906598776 0.75508546588 0.2814825318 -0.54357215264 0.78882419728 
-0.0060633635092 -0.38320870235 -0.92326754067 -0.0052268048213 -0.40735842325 -0.91236896875 0.011625134169 -0.58029039424 -0.80587092345 
0.041803003234 -0.67355816093 -0.72985898849 0.081095655413 -0.76918474676 -0.61919253981 0.10003510506 -0.8192229394 -0.54513179967 
-0.087190974486 0.15578121634 -0.98235795696 -0.051681594131 0.68185722699 0.72633823218 0.0059332967305 -0.32256204835 -0.94602136936 

Curv_Gaussian 1 1116 double
5.2769808382 5.4241749965 -0.0091084704208 -0.0037723472497 5.7656035194 -0.0071247132685 5.8562153915 -0.0047904368218 5.9182666067 
-0.0052638210802 5.9525663606 -0.0052514440885 6.0436294811 -0.0038916840461 5.9440733318 -0.0038690728456 5.6290735653 -0.0055375728808 
5.268088276 -0.0046866692679 5.0165432465 -0.0029165296395 4.8594797995 0.00038666170914 4.7813958004 -0.0051302760624 4.811679228 
-0.0070105331915 4.9124938074 -0.0047775705365 4.9622550193 -0.0077351690272 5.0097518471 -0.009519699003 5.052079927 -0.0096584998455 
4.9300883048 -0.0080965390092 4.625506393 -0.0038266325536 4.4820531878 -0.0022997726653 4.404835202 -0.0022888545812 4.4932722443 
-0.0081183606746 4.6552659272 -0.011677318924 4.9945140017 -0.015396374957 5.4227294966 -0.022656526078 5.9133989339 -0.02665235524 
6.4991717388 -0.013427542687 6.7493424125 -0.0084641866207 6.6360974598 -0.0023397561792 6.1171099353 -0.0018179035871 5.8088561359 
-0.0024135488429 5.7191513807 -0.0040841329164 5.6235935427 -0.0042535334803 5.8364821652 -0.0032094758274 6.3296064371 -0.0016311198774 
5.7997864739 -0.0011470041347 5.5018236758 -0.0010605674065 5.4939542058 -0.0028787937014 5.7680572193 -0.0046108481519 5.8057075747 
-0.0059534261476 5.3221591462 -0.0042753340684 5.3185005912 -0.0057821569786 5.3432280279 -0.0075643869408 5.3181555399 -0.010129590282 
5.1069505146 -0.014960552935 4.9196977878 -0.019648939979 4.7201262255 -0.019631238565 4.3616773059 -0.013270308412 4.2683984639 
-0.0071186402032 4.3248720493 -0.0052254392209 4.4831361851 -0.006025933714 4.9600117533 -0.0062087594986 5.9701877979 -0.0046459393147 
6.6288405656 -0.0012017694141 6.5865701156 -0.00028781716539 4.5738632977 5.2929217011 -0.0040270812727 -0.008209810325 5.6012298063 
-0.0050033480967 5.1282201196 -0.003198349344 5.335300212 -0.00189263943 5.6849961276 -0.00091906888472 5.7105565642 -0.00030912787955 
5.6341244914 -5.4089190517e-05 5.1787115161 -0.00037607476293 4.7588042582 -0.00020842671596 4.4432583753 -0.0046308419508 4.2961600184 
-0.0071234562288 4.6098166108 -0.0065318403166 4.7485323581 -0.0070609637455 4.6380539857 -0.0093769051881 4.6287137755 -0.015706275999 
4.6725202671 -0.026741141749 4.5447387338 -0.019019673678 4.6184643496 -0.011322120997 5.28432358 -0.0059836017318 5.9508362235 
-0.0048283557086 6.617797985 -0.0078385804197 6.5478051855 -0.0075327801865 6.8028796182 -0.0057150920332 7.6878087484 -0.0060256647264 
7.7860994222 -0.003606497779 7.4547270081 -0.00059269410643 6.5848532266 -0.0017679883257 6.039046261 -0.0044180055959 5.9383444672 
-0.0076922869618 6.3685303236 -0.011154505359 6.5230182356 -0.0093096120657 6.383243222 -0.0077676152262 5.8903944878 0.00042876023261 
5.7923350129 0.0032755262142 5.9478086432 -0.0016835865327 6.3063637441 -0.013370342799 6.8016263459 -0.021117231421 7.4458718864 
-0.022581464495 8.3216362555 -0.0071794799017 9.0527091614 -0.0022914057151 9.2707168917 -0.0015607598834 8.9171685471 -0.0010575506186 
8.4757339411 0.00044209747073 7.8878133026 -0.0031381377632 7.1797849232 -0.0057319770088 6.5137866491 -0.0025406141506 5.7918659582 
0.00029005444158 5.0199539357 0.00013913517561 5.4125654262 -0.00016146953361 5.7553283507 -0.00028725661681 5.7660009616 -0.0017553800441 
5.4544835286 -0.0038879048303 4.906708779 -0.0047593890952 4.2437194776 -0.0076121043286 3.8189201877 -0.011978696995 5.0977058923 
-0.012164860822 5.2894260309 -0.012382682248 0.0009211173112 0.0049292234962 -0.004981497059 -0.0010514610527 -0.00152396027 -0.00083463405729 
-0.0020799995562 -0.0047942779025 -0.0124917845 -0.010342146638 -0.0040397246208 -0.0061644165944 -0.0058600466611 -0.0033792215459 -0.0020802276237 
-0.0030176577776 -0.0042342919661 -0.0050317825472 -0.0075015351578 -0.0081451536955 -0.0075765365288 -0.0075257947796 -0.011167562328 -0.010932026595 
-0.0091842923114 -0.0077017843631 -0.0094368824687 -0.0061088951073 -0.0025260385217 -0.0022119792505 -0.0024587148397 -0.0024532435369 -0.0025059874847 
-0.0007343977833 -0.0019294654236 -0.0020816771744 -0.0021610967584 -0.0020717626719 -0.0011951196682 -0.0021722886702 -0.0024888901101 -0.0010691945308 
0.0003417255907 -8.8924794501e-05 0.0010981611552 0.0047913583087 0.0014532496909 0.00015565491069 -0.00021091929675 -0.00066768832826 -0.001261232497 
-0.007743627807 -0.0088171045477 -0.0061277944151 2.1022328718e-05 -0.0046469360932 -0.0036059904487 -0.0018502477952 -0.0065166595965 -0.0040804382292 
-0.002816867401 -0.0023888001041 -0.0023672458548 -0.003159244742 -0.0037877609891 -0.0036149107999 -0.0035741817641 -0.0049291717359 -0.0073733279195 
-0.010358042439 -0.0088662001546 -0.0090957861565 -0.011793663856 -0.0018133506364 2.2884119777e-05 0.0019730169427 0.00096128725657 -0.00014152535018 
-0.0016414705154 -0.0020065412619 0.00031568094319 0.0024540072355 0.0011594807922 -0.001530919931 -0.0031047671184 -0.0031434146849 -0.0013515032472 
-0.0010651975748 -0.0010360833669 -0.0014740046843 9.058210476e-06 0.0013396142145 -0.0092795780939 -0.010874872023 -0.0085705459065 -0.0015855182733 
-0.0025281595576 -0.003852369201 -0.0059540133994 -0.0059544974297 -0.0017695623435 -0.00052257677155 -0.00076440199224 -0.00026879496732 -0.00097669994694 
-0.0010469401381 -0.0021856368214 -0.0041805806242 -0.0031236678554 -0.0017694636308 -0.0008977893132 0.009123338702 0.0041639778345 -0.0019685283226 
0.0032010312501 -0.0033094411329 0.0028755029564 0.0028691875807 0.0012970870792 -0.0016628947806 -0.0059275661704 -0.0093870891099 -0.0066535094236 
-0.0047852530082 -0.0030857954945 -0.003522204118 -0.0073163058292 -0.0063352770303 0.00098496801243 -0.0020032011517 -0.0057529895246 -0.0038181081291 
-0.0018445449669 -0.0006795703017 0.0025298134131 -0.0091043726771 -0.0038907494734 -0.0078756737687 -0.0056927387582 -0.001516212576 -6.2812851898e-05 
0.00016436155219 -0.0014125028063 -0.0030556825218 -0.0024637275351 -0.0030415655135 -0.0011778846352 0.00019639407834 0.00010480494279 -0.00024502096908 
-0.00030478639837 0.00018587533286 -0.00094418709601 -0.00048181834608 0.0017662706185 0.0043987868475 0.0048492127504 -0.0024732185711 -0.0034003151053 
-0.0042751956696 0.0014944750034 0.0042284483093 0.001408295876 0.0014714113981 0.0043859319145 -0.0079752723027 -0.010636161602 -0.0064168880965 
0.0018269066752 -0.0033819288754 0.0019055619845 0.0051451342777 0.0074350072565 0.0053025127445 -0.0019399854888 -0.00023345688965 -0.0035563153945 
-0.0038195415596 -0.005988001899 -0.0071091969127 -0.0032104317426 -0.0023034216394 -0.0037516275755 -0.0031642263371 -0.0029002640792 -0.0028396288423 
0.0018302528987 0.0084683951181 0.019935601902 0.021262073799 0.012397550108 0.00058962451686 -0.00023488555145 0.00063805172011 0.0010056992223 
0.00027082245194 -0.00085829471533 -0.0013607154484 -0.00031221943428 0.0023160063616 0.0012031588699 0.0011538085776 0.0012321722471 -0.00040797811735 
0.00049778167104 -0.00024729414704 -0.00090125712795 -0.00045572791994 -0.0011945426489 0.00056139978211 0.0009444675834 -0.0013390438452 -0.00024446434106 
0.00021889665619 -0.002915539959 -0.0045070739976 -0.0048805335311 -0.0056736489034 -0.004923182222 -0.0038398247544 -0.0011545401778 -0.00070908707405 
-0.00036616985092 -0.00094680078421 -0.00072245269708 0.00010059464123 0.0037303566613 0.012152523883 0.0079800778855 -0.00055877695146 0.0010005668104 
0.00059762403578 0.0090729097165 0.0066993481551 0.011886628935 0.01215245937 0.011215893117 0.0077733207065 -0.00040991140609 0.0027572074066 
0.0035174747484 0.0043819650546 0.0022136927976 -0.0049065730891 -0.0027422380197 -0.0021918357842 -9.1821192285e-05 0.0056453859242 0.0066389010221 
0.0032706853718 0.0029753147633 0.00012207264969 -0.0024570242284 -0.0088959478363 -0.0026536894248 -0.0012412817508 -0.0012269640699 -0.00050101980604 
-5.303554049e-05 -0.00023172433766 -0.0032101436691 -0.008207341287 -0.0039409355581 -0.0003131726421 7.4452323502e-05 0.0010087448432 0.0021746079862 
0.0028052972268 0.0033572278833 0.004070554915 0.0060981295427 0.0090412590045 0.0042797529505 0.0026202262546 0.0023012708842 0.0028170271821 
0.00090550314177 -0.00029170891909 -0.00033054021966 -0.0003497707099 -0.0012576816923 -0.0024315692203 -0.00098082353588 0.00058163218044 0.0013175327877 
0.0016139906918 0.0019136843761 0.00048063481998 -0.00022579424614 -0.00023924608986 0.0014435088019 0.0021303567273 0.00091303535776 0.0038313994978 
0.0070510529652 0.0077930262262 0.010320466305 0.0053267054992 0.014612558994 0.0010005861873 0.00021095519264 0.0016085847069 -0.0012394816848 
-0.0037648775209 -0.0022026557829 -0.0002963450377 -0.00043060726254 -0.00090249069748 0.001621237434 0.0047180791288 0.013515729774 0.020977674432 
0.01846405162 0.017174003996 0.018105179572 0.0048088714983 0.0035768743356 0.0091125910641 0.0045783015304 0.00031123817811 0.00035564884878 
0.0013539784407 0.0012848123299 -0.0012413045037 0.007030151145 0.0060683524064 0.00078280611815 -0.00027739015824 -0.00092878283716 -0.0010606427503 
-0.00061829011385 -0.00069000665577 0.00079908239725 0.002573544947 0.0017749985409 -0.0011202337217 -0.0017396257686 -0.0025487800934 -0.0038949221054 
-0.0052064614879 -0.0047842497642 -0.0024348435964 -0.0017619841071 -0.002463037973 -0.0017641791701 -0.0013610937569 -0.00056497970044 3.0888478394e-05 
0.0012815546332 0.001791490828 0.0070138845949 0.011295239498 0.0073764974395 0.0021381919979 -0.0012028658748 -0.00078626293357 -0.0011385583162 
0.0083554615777 0.0072201093979 0.024757073571 0.023400872205 0.017937345936 0.010486749808 -5.5942695767e-05 -0.00031027811017 0.0011632638013 
0.004675205126 0.0062240378677 0.0068407687946 0.0026906974817 0.0011701975772 0.0012321096075 -0.005282490387 -0.0029488714064 -0.00042564188395 
-0.00054501069967 -0.0019401938689 -0.0029685589381 -0.0021547868698 -0.00052609150686 -0.00042740176393 0.00088075364469 0.0013620859353 0.0022072499196 
0.0018279759512 0.0010324499571 -0.00024940561993 -0.00052515875841 0.00011283594686 7.5008943929e-05 0.0006731911623 0.0012648604998 0.0015880656771 
0.0052231535045 0.0062189194277 0.0077366163018 0.0035388886904 0.0080420234045 0.010105222553 0.0099370585731 0.0081919616692 0.0033131426192 
-0.0043974027169 -0.011297070176 -0.0028710513162 -0.00074292605077 -0.00041020797846 0.0012143103457 -0.00069651588912 -0.00093135470393 0.00020251316787 
0.001078881837 0.00059858919364 0.0016248374682 0.0018550279471 0.0014302501901 0.00022120503595 0.0016128164251 0.0010414745267 0.0021175194449 
0.0070669754669 0.0084526984572 0.0074500415593 0.006041013728 0.0039279762695 0.0066825086533 0.0089799246003 0.0010321206772 -0.00097825315623 
0.0068216080239 0.0089140376264 0.0048618265331 0.0027238154491 0.0019261474287 0.0033107081638 0.0023784330345 0.00044683424414 0.001323879646 
4.0864334532e-05 0.0012522802174 0.0015364487656 0.0031407773441 0.00031594370447 -0.00084989295034 -0.0013707061208 -0.00041907304531 0.0019907218123 
0.0041659289784 0.0060631967513 3.3619341567e-05 -0.0018016914912 -0.00067213590213 -0.001219977352 -0.00070315754177 2.7956077397e-05 0.00032130608184 
-0.00063688640094 -0.00075138908687 -0.0010425354182 -7.1139651231e-05 0.00088034256803 0.0011284268951 8.1460893389e-05 -0.00031062001271 -0.00026627925601 
1.6676972634e-05 0.007317985905 0.018302377365 0.01068208608 0.0056133803803 0.0012583555199 -0.0016896540431 -0.0033716493278 -0.0023917011337 
-0.0023563479235 -0.0019761441118 -0.0015075099932 -0.0019889204097 -0.0006397918233 0.00031863866234 -0.00059404353024 -0.0017364565264 0.001314248772 
0.003413886692 0.0094037983009 0.019956855635 0.020571078251 0.021833939056 0.015025705142 0.0072467846061 0.00079432218004 0.0052797851775 
-0.00073943902505 0.0086013026367 0.0045862601942 0.00099754833458 -0.00023314309916 0.0013663976377 0.00089825548484 0.00086727474497 0.0025281536544 
0.004348670168 0.0062566214549 0.010663957393 -0.0023491575254 0.0015826435687 0.0025172675099 0.0056573260024 0.0015764540391 -0.0020131834265 
-0.0033978951112 -0.0034701636212 -0.0018513701533 -0.0018619896648 -0.002783992656 -0.003235803481 -0.0017290697936 8.118438543e-05 0.01091144596 
0.0068069897547 0.014006409924 0.0095188652688 0.0054128969241 0.0063252008747 0.0019730485976 -0.00014812195198 -0.00017379792377 0.0020532683432 
0.00085105830302 0.0020343657351 0.0012485175904 0.00019128749713 -8.3094010297e-05 0.0040132260523 0.0042652694724 0.0012023549881 0.00010734115994 
-0.00030069465881 0.0080005914396 0.010868997676 0.013230396276 0.0059675250184 0.014284187056 0.01141479837 0.001418457176 -0.00054487249602 
-0.00052656140211 -2.2133081415e-05 -6.4564872574e-05 -0.0013735842361 -0.00056616225743 0.00054502636377 -0.00043345914236 -0.00018022767665 0.00048079181882 
0.00094969338408 0.0012706999034 0.003288847116 0.0058226131742 0.0047712834574 0.0032139956526 0.0055171377926 0.007783647797 0.0091831122851 
0.0082166218337 0.0034664028003 0.0060515424422 0.0026072846813 0.0014972511338 0.0021051673801 0.0025108614978 0.001360867938 0.00077538217295 
-0.00039753900972 -0.0019835638041 -0.0074923084557 -0.0034491262263 -0.00076734419578 -0.0002554498225 0.0019253459323 -0.0019584998904 -0.00039303916162 
0.0030478413423 0.0044863976397 0.00076310478218 -0.0013205591453 -0.00074349316581 -0.00023979104201 0.00012587938833 0.00097429289924 0.0068342561337 
0.0024921494535 0.0020499499017 0.0029190970281 0.0054923850902 0.0022992288394 0.00095096316036 9.4092494019e-05 -0.00069465429861 -0.0010041251786 
-0.00074676911807 -0.0026052029933 -0.00032270654908 -0.00065647140946 -0.0046827124245 0.0032597839477 0.0021494015858 0.0013163655235 -0.0018502724592 
-0.00058358430282 0.00051803695312 0.0060835576809 0.008653787787 0.006590994053 0.0054033999549 0.0023621262494 -0.0011540191048 -0.00075096770712 
0.00066397479456 0.001283458586 0.007218861813 0.0098392509962 0.0087149348449 0.0054462489516 -0.00053144463533 -0.0023852211072 0.0016765410173 
0.001367643827 0.0053074137538 0.0017168820287 -0.0012778476257 0.00073457322285 0.010525792567 0.012390492806 0.0029104269298 0.0062579581759 
0.0027044373025 0.0046695019512 0.0031418037511 0.00068711340906 -0.00055226516116 -0.00023359996786 -0.00014584368723 0.00011749804346 0.00092411884605 
0.0017841542263 0.0028463490162 0.0044076561638 0.0041100337716 0.0051752396913 0.004289385174 0.0080984455127 0.0086017194054 0.0066559029865 
0.0045597347437 0.00062149602966 0.00041094254284 0.00028423453127 -0.00081749994987 -0.0016689722865 -0.0019340645925 0.0096682601903 0.0018923839952 
-0.0013587439818 0.0025623014047 0.0063078233537 -0.00011634100562 -0.0028721086192 -0.003587462513 -0.0027448404371 -0.0038513280175 -0.00210000585 
0.000951819134 0.00092771859468 0.0016537269492 0.0026389114744 0.0040929137044 0.0046879025183 0.013591172884 0.012780492402 0.010541350027 
0.0082509206564 0.003292945651 0.0062306233046 0.0014917337667 0.0014092301063 0.00074017298719 0.0042817157442 0.0043357011478 0.0061208766184 
0.005903450186 0.0043301625409 0.0013667587434 -0.00026357965064 -0.0028814282373 0.01196487307 0.0098755040678 0.0016232416719 0.0021933716495 
0.003343866575 0.0014121870365 0.0061858744998 0.011097523063 0.0066773841859 0.00060856701945 0.00079293599915 0.00033867131458 -0.0010288805739 
0.0010941757829 0.0032742086928 0.0061188596755 0.001514195651 0.0013763048548 0.001783455322 0.00081245336589 0.00026106949691 -0.00024067275256 
-0.00048451331222 -0.00062478159555 0.00020930561207 -0.00028307970919 -0.0016638167584 -0.0031289488019 -0.0028181052825 -0.0057597602148 -0.0061478241014 
0.00547476397 0.0027387229195 0.0012108663846 0.010770238165 0.012596141752 0.00061796191971 -0.00017085650396 0.0018179357884 0.0027609123127 
0.0016116999702 -0.00030300235372 0.00035492308493 0.0019039814559 0.0022891791535 -3.0529346808e-05 -0.00057710305007 -0.0015116692915 -0.0017162424453 
-0.0024892432199 -0.0012366968491 -0.00052393640453 -9.8589055719e-05 -0.0022368064371 7.8404102984e-05 0.0040776085429 0.0070422734526 0.0020299664958 
0.0041168534998 -5.9712696178e-05 -0.00031525031038 0.0012973120505 0.0016875784992 0.0024579528153 0.0012503262197 0.0022660282027 0.0065784892348 
-0.00079724064008 0.00036850738797 0.0023600097082 0.0045155355834 0.0058767524032 0.0021956628872 0.0028479577646 0.0025403143838 0.00097945582172 
-0.00055585187431 -0.0021150098499 -0.003813601045 -0.0069228437191 -0.0089593361097 0.0030064876273 0.0012558463624 0.005030001019 0.0068715327419 
0.0075596117157 0.0068587736837 0.0056061095526 0.0026047709476 0.0030642914679 0.0068758760919 0.0049113902375 0.00025468060274 -0.0016043333396 
-0.0041178159449 -0.0047694028328 -0.0027870292675 -0.0015516302364 0.0030121691161 -0.0075393150126 0.00088159739148 -0.0031696867519 -0.0021040941064 
0.00053630536051 0.00074809976216 0.0029390795519 0.0031727380159 0.0021284520537 0.00069435120303 0.00022363443014 0.0025223501254 0.0099011069323 
0.0069318304712 0.00059474227171 -0.00022588273436 -0.00074341513173 -0.00047518498559 0.010458132275 0.0085360999726 0.0015725914571 0.0016276664243 
0.00011576616873 0.008697552312 -0.00017850916943 0.00071556661057 -5.7251892586e-05 0.00032433288913 0.0010428524524 0.0017786722715 0.0012960058321 
0.00025229748221 -0.00030347068108 -0.00073864727502 -0.0004681231164 0.0018656817544 0.0018650977226 0.0021902155486 0.0010170181552 2.3259896849e-05 
0.0007330547921 0.0013753467076 0.0021360726402 0.0020629949654 0.0081710588662 0.010330271601 0.0098836219401 0.0098236273416 0.005643380613 
0.0031103392413 0.0040457934676 0.0052046968833 0.0042885876253 0.0040886988603 -0.00040688328196 -0.00039963543677 -0.00066915513054 -0.0017690609217 
-0.00032169421825 0.002725685316 0.0020502512414 0.0019915534253 0.0063356322401 0.0024115813067 0.001827901435 0.00051804918613 -0.00024463949623 
-0.00054208599183 0.0011694432864 0.0027051318167 0.0012676904238 0.0014879086332 -0.0022113915378 -0.0010402598942 0.0034909962815 0.00094437171382 
0.0053036529657 0.0020488285899 0.0015637378478 -0.0011107647587 -0.0035793245927 -8.917196006e-06 0.0039074855118 0.0039900111008 0.00400638495 
0.00054659491029 0.0040544239744 0.0021772015261 0.0043481759987 0.0056449010803 0.003181588277 -0.002456432583 0.00071601870102 0.0011092496284 

Curv_Mean 1 1116 double
-0.16835226517 0.061635300899 -0.025903601986 -0.064625900881 0.23108208708 -0.017644923455 0.089202635473 0.0042797494583 -0.011006177848 
0.015941191373 -0.070724987662 0.024435388706 0.10169543608 0.021778118014 0.074772307061 -0.017063634365 -0.18286575104 -0.071039786653 
-0.13611826921 -0.053846286712 -0.046131364173 0.03628440742 0.06203339667 0.10522200494 -0.072479106664 0.078839008001 0.016987682663 
0.052028056756 0.21987659778 -0.0034197977927 -0.1476085471 0.03282301739 -0.30672829705 0.041440941124 0.0097727745172 0.00052752572657 
0.071586260731 -0.023386523132 -0.14960636492 -0.024356675883 -0.098895852865 -0.015676621525 0.049256074364 0.00077810326735 -0.011113329484 
0.034968267443 -0.052415871361 0.029941403109 -0.047771711633 0.032418991887 -0.098070784369 0.027785641061 -0.18396613911 0.010356835568 
-0.11507870751 -0.0076221139663 0.031115577473 -0.00852363759 0.26102362923 -0.0011510968067 -0.060993939446 0.0098841652156 -0.23203522061 
0.009356209178 -0.23402366024 -0.005501442856 -0.092214331968 -0.027339681356 -0.0092312454141 -0.035266824672 0.019357825271 -0.019655590796 
0.061599194025 -0.017748114613 0.055574839249 -0.015695554705 -0.010838265462 -0.014678159445 -0.014673652167 -0.00051071491827 -0.01104028419 
0.013451979899 -0.010072390878 -0.014143710306 0.023023448229 0.0048914014486 -0.03149011642 0.0077916626257 -0.20498705964 0.012123179186 
-0.14689722989 0.0097916358827 -0.13264008474 0.029258037633 -0.15426154048 0.045989493176 -0.18333275369 0.051478515109 -0.16008274326 
0.065174161477 -0.10728479019 0.070538085805 0.031953425159 0.054070736958 0.12542325434 0.022874797724 0.14228471459 -0.014602540888 
-0.24485316737 -0.052860387256 -0.45581224053 -0.074967440053 -0.061281868514 -0.1483645304 -0.015842548498 0.012557494456 -0.11443377428 
0.0034142613856 0.10188119127 -0.034558400137 0.18668857105 -0.032290781571 0.22349657483 -0.017057423988 0.024671413398 -0.030104079824 
-0.1351818975 -0.043370298827 -0.15022470059 -0.042195543034 -0.15608437263 -0.042590824564 -0.13495221757 0.001267732154 -0.11043688791 
0.025167965308 -0.076667552103 0.053051387315 -0.052082664122 0.06999765999 -0.040580543571 0.075266342397 -0.13527672124 0.070165502985 
-0.28577863212 0.057679238036 -0.055132041124 -0.00066891347707 0.074432620227 -0.033200931125 -0.13267242384 -0.0063596338658 -0.12387236579 
-0.0076833857458 0.033328250679 -0.019080319237 0.044181410399 0.020322828536 -0.04207199839 0.040813757707 -0.28798954708 -0.01806526261 
0.1376901557 -0.013467116511 0.30027747846 0.078409736379 -0.28076296473 0.080315441614 -0.052918636763 0.018323254672 0.042640709384 
-0.015265079696 -0.1201384594 -0.0032379093289 -0.30183973603 0.0019476082171 -0.32988732423 0.03064056052 -0.15919773818 0.062318873251 
0.10544991472 0.07283106392 0.19101119085 0.062981877342 0.12528636233 0.03712488259 0.2206502157 -0.0025927636453 0.1322387071 
-0.03944596551 -0.24175890215 -0.065141648504 0.030731987311 -0.031648152162 0.13318763781 0.0010656378065 -0.019286157962 -0.00056253327932 
-0.020928251782 -0.057781827472 -0.019318760022 -0.051938848742 -0.025379476306 -0.019296282562 -0.23164840825 -0.038860223854 -0.24239102425 
-0.050023314011 -0.078344683649 -0.020232946545 -0.069686669617 -0.026052216601 -0.037842089965 -0.037695942921 0.079269168277 -0.026514413682 
0.038645478764 -0.0066169263642 -0.11764297506 0.02356317704 -0.087043202409 0.027921635681 -0.028972183125 0.027259670478 0.0060258865051 
0.020084482442 -0.0074143047973 0.014073842235 -0.063558828626 -0.073907444347 -0.029846834673 -0.034411236173 -0.019028583161 -0.020676150143 
-0.043628938999 -0.064101495808 0.025531570459 0.067739719253 0.057973117313 0.049232061175 0.035342201106 0.0096158094115 -0.022710011321 
-0.03239337377 -0.026115203473 -0.0209464698 0.040388217524 0.066262052997 0.073801841131 0.033686817101 0.040562116158 0.022669620164 
-0.031900450795 -0.066019348375 -0.032683330257 0.002116156742 0.055528368615 0.039087955262 0.020195341829 -0.011046126134 -0.023087214144 
-0.045845585537 -0.033296219885 -0.00072432210942 0.017073944614 -0.0068042143814 -0.030349031874 -0.028281898582 -0.013383067059 -0.02008981717 
-0.046643816393 -0.049950250132 -0.052664459094 -0.078095926727 -0.058585911089 -0.035465605618 -0.029232426041 -0.029085605114 -0.02938862624 
-0.007888326558 -0.0051451105613 -0.040649576675 -0.054563456828 -0.013351114268 -0.012409654975 -0.020593110885 -0.012723356528 -0.027034952115 
0.0030983675171 -0.0015984911068 -0.012645031367 -0.007339451992 -0.0015383704969 0.007104294305 0.013098034881 0.0061533831087 0.0072840907544 
0.024527030915 -0.0023972483178 -0.022381352126 -0.024835323046 -0.058065942101 -0.02763478475 -0.054685260058 -0.056662509171 -0.033265138572 
-0.015454955819 -0.015825765238 -0.052765225502 -0.052049665328 -0.034132872321 -0.031297572681 -0.022127329025 -0.021887224095 -0.033877020759 
-0.014438039106 0.024275989542 0.044158564094 -0.0057913554809 -0.063704507054 -0.051330098808 -0.058819803998 -0.042762919734 -0.011969962397 
0.036863596078 0.017139109065 -0.016397269128 -0.03859735921 -0.03672019141 -0.040217762743 -0.036256822244 -0.027011845759 -0.012553768473 
-0.026548419696 -0.021547348355 -0.0059331679808 0.0047965104396 -0.032997677983 -0.093323163945 -0.1173249874 -0.073234975485 -0.023903068418 
-0.07279643745 -0.061086824879 -0.064204838344 -0.058727390588 -0.044002375429 -0.043118211439 -0.021265673807 0.050697544518 0.010210530232 
-0.019255119725 -0.010873301337 -0.0056967269499 0.013469165816 -0.017228760172 -0.047294610815 -0.025283731438 0.0066787038863 0.0041267155846 
-0.0061866351659 -0.017011981217 -0.059586949024 -0.0016451256527 -0.017110303617 -0.037685144332 -0.060175876094 -0.055982556639 -0.042496563125 
-0.022933841993 0.0008657604255 0.014487882256 -0.003524223332 -0.0058271661406 -0.031525167028 -0.051765000262 -0.038456219626 -0.011316545825 
-0.018937114332 -0.029300623811 -0.032906193561 -0.036869369473 -0.050403215336 -0.070297298448 -0.072675619873 -0.039263235104 -0.029050442384 
-0.03945180135 -0.06684198934 -0.073526778894 -0.042254066358 -0.050179231162 -0.085673432171 0.0077724937184 0.010436619403 0.0040849779557 
0.0023447392446 -0.059819008492 -0.048770669222 -0.0715840018 -0.09511480128 -0.077462117257 -0.047662972359 -0.018897879036 -0.024839293242 
0.018207496774 0.025549084029 0.0331454365 0.0520711568 0.053444727134 0.016084380345 0.035695291456 0.01047874444 -0.013178743535 
-0.052755342425 -0.09110065462 -0.13530477824 -0.14634742142 -0.10107739694 -0.020773240721 -0.036386233617 -0.053128493585 -0.046124795863 
-0.018223871331 0.018224768453 0.014548145167 -0.013904390503 -0.067909097156 -0.063420910701 -0.051160075137 -0.044737091057 -0.031030424014 
0.011494448507 0.04325411573 0.0017207370174 -0.038886938807 -0.05775354498 -0.086400605918 -0.089235947575 -0.035044557746 -0.032771422761 
-0.030852210203 -0.0050203851407 -0.028210828008 -0.033078753248 -0.0038461903629 0.0013261230773 0.001304300973 -0.020033601964 -0.012896662239 
-0.0084327552011 -0.016309413367 -0.034102786803 -0.061015589315 -0.069798533567 -0.11780822722 -0.10116711106 -0.038721241643 -0.047439231097 
-0.028138630748 -0.10076061918 -0.085207951377 -0.11904561141 -0.11303901117 -0.10471019569 -0.085212701906 -0.037038593287 -0.059479197957 
-0.073563050041 -0.072215627666 -0.055773019483 -0.01581804949 0.029920672882 0.040598758119 0.0077162058194 -0.074189515992 -0.095600287975 
-0.074676783107 -0.061839166145 -0.038839117301 -0.027214474872 -0.0058227527239 -0.028546595536 -0.029304649701 -0.03467869834 -0.043725127882 
-0.048280087109 -0.046341357301 -0.022872847031 0.013350819252 0.0072737055509 -0.0074839621294 -0.028595069793 -0.046774889347 -0.052162849512 
-0.053653069863 -0.058718785988 -0.063830414454 -0.08333240554 -0.096360489324 -0.077300602898 -0.077744686883 -0.086180284314 -0.076458571385 
-0.057213126218 -0.032894579832 -0.014788035138 -0.014254436398 -0.0048295082409 0.0059101029909 -0.014750918034 -0.037954767494 -0.041287777588 
-0.050993842279 -0.065015161248 -0.040018502047 -0.014762939782 0.011969553061 -0.032453207052 -0.055562967634 -0.042216113709 -0.065071879931 
-0.083326743702 -0.089010510245 -0.10093847759 -0.07828881736 -0.11763399936 -0.051988562011 -0.043707257356 -0.047574522021 -0.017722454933 
0.011966856213 0.036026879687 0.067139383047 0.040923020486 0.01164483229 -0.030066463269 -0.073259562247 -0.11385505619 -0.14825374749 
-0.13717623045 -0.13080745289 -0.13321389076 -0.075339533975 -0.07096398206 -0.097513473826 -0.061520258009 -0.026078461232 -0.030297992251 
-0.043597388055 -0.040386788152 0.0018194510615 -0.078356948136 -0.076192058976 -0.034679371526 -0.032065189963 -0.0024843139405 0.01761271873 
-0.0059618542431 -0.035413741474 -0.077589510598 -0.10153003225 -0.07618271385 -0.0099770866088 0.0060906471355 -0.0026519086449 -0.015476792178 
-0.011916498113 -0.018318878448 -0.025715714916 -0.023315288083 -0.0079427783839 -0.0093362449417 -0.0044821905879 -0.0027379516684 -0.016122511335 
-0.042370669517 -0.056295347575 -0.095422464681 -0.12109768207 -0.096934692926 -0.056186321075 -0.010883966346 0.0039731166759 0.01175638111 
-0.090793205742 -0.093208251775 -0.15712574567 -0.15223835928 -0.13436914896 -0.081953022634 -0.022407318166 -0.014143385405 -0.033728280568 
-0.071420698531 -0.086293765725 -0.095775812843 -0.060789362585 0.029203242711 0.055696283935 -0.042040064721 -0.055987404433 -0.066663188652 
-0.057626889265 -0.029053527844 -0.011207092587 -0.01722746175 -0.03307588165 -0.040713835871 -0.052621108755 -0.061115873686 -0.067546389078 
-0.066281824036 -0.048316417426 -0.0077367994485 0.018183792527 0.030122125174 -0.011972881532 -0.034342677108 -0.040406019919 -0.043336116641 
-0.076415101639 -0.090695996151 -0.097873334441 -0.066285200026 -0.087744918533 -0.10040071988 -0.1056835376 -0.098305160299 -0.075073956925 
-0.033424156611 0.010775793168 -0.025206440966 -0.019434594231 -0.022325233084 -0.043143202631 -0.012253266874 -0.011791528016 -0.028333112002 
-0.036489039538 -0.035737681585 -0.050517219368 -0.056669765587 -0.049022593736 -0.026968916619 -0.037780341907 -0.032744419534 -0.045593624486 
-0.080052817272 -0.093122769724 -0.088425744387 -0.079346175646 -0.070368811198 -0.082996723555 -0.096493150847 0.058397300979 0.0045700772961 
-0.085027310438 -0.099973903791 -0.070146353128 -0.053357303767 -0.048605111851 -0.06197119198 -0.044048667805 -0.021472821179 -0.04246127173 
-0.024808374977 -0.039923129885 -0.053945621327 -0.062565595037 -0.036460538598 -0.030942572842 0.0015613356587 -0.012702774619 -0.048479409183 
-0.073390563157 -0.10345288712 -0.075381878451 -0.05186778199 -0.022050321414 -0.0068191313194 -0.019711048802 -0.044880583827 -0.050574207637 
-0.034474150239 -0.027203393037 -0.020346471854 -0.035491180949 -0.040142918022 -0.032529532561 -0.017893737542 -0.010910591988 -0.0016895601255 
-0.010892370014 -0.061070673454 -0.1373729265 -0.12362125743 -0.068119920617 0.029568941238 0.02409711006 0.0059362339925 -0.046821222862 
-0.029462639937 -0.012063357684 -0.01759735181 -0.010365480432 -0.030668491258 -0.043162205926 -0.043349457805 -0.026935123775 -0.058878279525 
-0.076046991274 -0.099026675803 -0.14197747149 -0.14356607673 -0.14858989948 -0.12340789112 -0.086378428521 -0.051539474344 -0.079892087655 
-0.044155546512 -0.095913998032 -0.07832323589 -0.067017494225 -0.05054890176 -0.04527534183 -0.048139986826 -0.049886344058 -0.056743225449 
-0.067846291298 -0.082447178156 -0.12185415454 -0.069736029932 0.026841698101 -0.067771768079 0.083229899407 0.038952887307 -0.019348056241 
-0.033783202624 -0.042394435431 -0.068363923085 -0.070035679267 -0.048114668761 -0.025994288218 -0.025254436726 -0.032109621372 -0.10546087635 
-0.08103100991 -0.11909040651 -0.10043001426 -0.081980885617 -0.079481480319 -0.031765245465 -0.0015645949011 -0.0042308022249 -0.046831233386 
-0.027663243732 -0.043645468068 -0.041402321843 -0.0082105056494 -0.033855494065 -0.074486816428 -0.07395957306 -0.039239864575 -0.026614791764 
-0.015826727379 -0.090492134786 -0.10627090415 -0.11396085422 -0.079594185502 -0.10895988496 -0.1103763534 -0.04104376713 -0.01096077903 
-0.020001180006 -0.028790638693 -0.029668269277 -0.031236862965 -0.021700278238 -0.022503205615 -0.023768435453 -0.027083431378 -0.038010689676 
-0.041425605655 -0.039364353292 -0.060927313863 -0.077950499932 -0.072403776988 -0.05937865176 -0.072080845608 -0.092461068217 -0.095185931954 
-0.093712734385 -0.06829497119 -0.07843133223 -0.054799032868 -0.046068195054 -0.049689401827 -0.051693446352 -0.046314895674 -0.039535735326 
-0.027617690778 -0.022248648963 -0.0026488251372 -0.022289413868 -0.025105369315 -0.015176858031 -0.003005886662 -0.013694058754 -0.029278327698 
-0.068179059834 -0.099702790412 -0.067020436131 -0.040321608505 -0.020864296493 -0.018452512867 -0.025205170506 -0.050226507609 -0.088197211139 
-0.056041844784 -0.048742116196 -0.053985058749 -0.073766738643 -0.050426608509 -0.032975673399 0.00045432500068 0.0043908723952 -0.0056648964836 
0.0064308375738 -0.015619596682 -0.078813505238 -0.093266147917 -0.10290408071 0.05751674821 0.018051541604 -0.062302974711 -0.033260246974 
-0.031468774357 -0.0319762881 -0.080862005051 -0.10169322267 -0.093028871502 -0.087425310154 -0.060762447086 -0.034910762615 -0.043602477918 
-0.053659076322 -0.068010220112 -0.096943751707 -0.10329111489 -0.09631779783 -0.080658343963 -0.047356485075 -0.036693958825 -0.056948767793 
-0.054240275235 -0.076949989324 -0.05921176532 -0.022440647195 -0.038945624874 -0.10325243472 -0.11276681905 -0.062430641175 -0.083952821726 
-0.059870833699 -0.065900098301 -0.05982062738 -0.042208020746 -0.01012682624 0.033515701922 0.013630035245 -0.0095520647715 -0.040272883475 
-0.047868794291 -0.056915047558 -0.071437392914 -0.063892500548 -0.073261196624 -0.069331822952 -0.092352513293 -0.093972084874 -0.08344880567 
-0.0756114768 -0.041301306393 -0.028224122026 -0.030924196235 -0.028528912129 -0.043593916494 -0.060033642421 -0.11452803419 -0.059807399445 
-0.051866025955 0.056269869989 0.069331822409 0.001327339203 -0.041344874299 -0.021685064299 -0.024800533423 -0.02784984552 -0.047114712655 
-0.051690653907 -0.047418719332 -0.052162756778 -0.054975777802 -0.072553908373 -0.071599786606 -0.12217238332 -0.11571908841 -0.10347399655 
-0.092390060726 -0.063376729998 -0.093376924556 -0.042192035675 -0.04413350171 -0.031404481015 -0.069016702916 -0.070526300198 -0.078784656113 
-0.076946002298 -0.066246409206 -0.050633376844 -0.04070759952 -0.0291669656 -0.11231657753 -0.096886282416 -0.047136054596 -0.05978430107 
-0.056829106484 -0.035230608914 -0.081755599239 -0.11498972634 -0.095822074651 -0.059260724852 -0.051605066595 -0.037465317281 -0.021946758346 
-0.045779723795 -0.06137693202 -0.085625390567 -0.041376773915 -0.041909892177 -0.048317029403 -0.044989826457 -0.03440473466 -0.019646016074 
-0.0012013877129 0.0098404108903 -0.02064680123 -0.016350103591 -0.036215548231 -0.052332014049 -0.058337869865 -0.063542428481 -0.081489873196 
-0.083181662689 -0.056991642598 -0.054510308764 -0.10780581876 -0.11345148713 -0.028277570007 -0.02635388769 -0.044301516252 -0.057707956903 
-0.047518586683 -0.029560828585 -0.034755201048 -0.04934091244 -0.055849269888 -0.038896696137 -0.037163265265 -0.031028990615 -0.034142111239 
-0.029282730045 -0.041275551334 -0.053254302149 -0.056080154417 -0.043839665298 -0.054653485843 -0.069799256944 -0.085929549259 -0.044268505394 
-0.063471151157 -0.01887668467 -0.02370154501 -0.043311665391 -0.052783359951 -0.057394368747 -0.066354916383 -0.073710578054 -0.089164736977 
-0.060271947804 -0.059083614401 -0.062753198243 -0.073485809637 -0.083031616006 -0.051556598879 -0.054690222629 -0.054921277002 -0.038737379662 
-0.025755169068 -0.025215568903 -0.023104341426 -0.011249543998 -0.0048119819041 -0.07190783664 -0.06240915651 -0.085662005591 -0.095090586061 
-0.093335354593 -0.08422531054 -0.074356995591 -0.054985702459 -0.053894857364 -0.080588337822 -0.057531989614 -0.027374683516 -0.050746759315 
-0.053606915827 -0.0028329922991 -0.022317932587 -0.030566392826 -0.061850699469 0.017378404684 0.032794033278 0.017192357377 -0.032821543223 
-0.060570811172 -0.056470953448 -0.063555400501 -0.061420796438 -0.054771734296 -0.042199902368 -0.033392063094 -0.060487126215 -0.10257775847 
-0.087479028264 -0.048751632528 -0.024421905529 -0.026568421085 -0.029199115615 -0.10269710322 -0.091213027957 -0.049299252215 -0.038936978107 
-0.017000192665 -0.091396940603 -0.020325905361 -0.036717901514 -0.021265644009 -0.030633287908 -0.042601274906 -0.052683239017 -0.031239364862 
0.0057396354707 0.014490695396 -0.0015713553263 -0.023192391643 -0.047751545072 -0.027126943901 -0.049587949581 -0.033073231885 -0.017643293701 
-0.034764593984 -0.053593493436 -0.073428549767 -0.079732380408 -0.10269285655 -0.1024042786 -0.10549983424 -0.1000594296 -0.073220796264 
-0.063707979469 -0.069813050597 -0.075975636527 -0.067229573541 -0.065315772505 -0.0076160491023 0.0074158419095 -0.015313856706 -0.0063547840451 
-0.024960428167 -0.052753647584 -0.044861030909 -0.047172687602 -0.081453660391 -0.057391156239 -0.037049387915 -0.00087206551309 0.011737551441 
0.00046095734698 -0.038705161804 -0.052603509689 -0.042519416277 -0.047174508242 -0.035077114673 -0.020201665493 -0.061970120437 -0.047310134255 
-0.074884744353 -0.054952397549 -0.048532073688 -0.027802680936 -0.011080415831 -0.04560898701 -0.048293443258 -0.06463883164 -0.064499708892 
-0.039664882069 -0.063668537985 -0.060754508411 -0.075874472311 -0.082021069877 -0.06800044261 -0.012524871114 -0.027929948254 -0.040952650116 

Displacement_Root 3 1116 double
0 0 0 0 0 0 0 0 0 
0 0 0 0 0 0 0 0 0 
0 0 0 0 0 0 0 0 0 
0 0 0 0 0 0 0 0 0 
0 0 0 0 0 0 0 0 0 
0 0 0 0 0 0 0 0 0 
0 0 0 0 0 0 0 0 0 
0 0 0 0 0 0 0 0 0 
0 0 0 0 0 0 0 0 0 
0 0 0 0 0 0 0 0 0 
0 0 0 0 0 0 0 0 0 
0 0 0 0 0 0 0 0 0 
0 0 0 0 0 0 0 0 0 
0 0 0 0 0 0 0 0 0 
0 0 0 0 0 0 0 0 0 
0 0 0 0 0 0 0 0 0 
0 0 0 0 0 0 0 0 0 
0 0 0 0 0 0 0 0 0 
0 0 0 0 0 0 0 0 0 
0 0 0 0 0 0 0 0 0 
0 0 0 0 0 0 0 0 0 
0 0 0 0 0 0 0 0 0 
0 0 0 0 0 0 0 0 0 
0 0 0 0 0 0 0 0 0 
0 0 0 0 0 0 0 0 0 
0 0 0 0 0 0 0 0 0 
0 0 0 0 0 0 0 0 0 
0 0 0 0 0 0 0 0 0 
0 0 0 0 0 0 0 0 0 
0 0 0 0 0 0 0 0 0 
0 0 0 0 0 0 0 0 0 
0 0 0 0 0 0 0 0 0 
0 0 0 0 0 0 0 0 0 
0 0 0 0 0 0 0 0 0 
0 0 0 0 0 0 0 0 0 
0 0 0 0 0 0 0 0 0 
0 0 0 0 0 0 0 0 0 
0 0 0 0 0 0 0 0 0 
0 0 0 0 0 0 0 0 0 
0 0 0 0 0 0 0 0 0 
0 0 0 0 0 0 0 0 0 
0 0 0 0 0 0 0 0 0 
0 0 0 0 0 0 0 0 0 
0 0 0 0 0 0 0 0 0 
0 0 0 0 0 0 0 0 0 
0 0 0 0 0 0 0 0 0 
0 0 0 0 0 0 0 0 0 
0 0 0 0 0 0 0 0 0 
0 0 0 0 0 0 0 0 0 
0 0 0 0 0 0 0 0 0 
0 0 0 0 0 0 0 0 0 
0 0 0 0 0 0 0 0 0 
0 0 0 0 0 0 0 0 0 
0 0 0 0 0 0 0 0 0 
0 0 0 0 0 0 0 0 0 
0 0 0 0 0 0 0 0 0 
0 0 0 0 0 0 0 0 0 
0 0 0 0 0 0 0 0 0 
0 0 0 0 0 0 0 0 0 
0 0 0 0 0 0 0 0 0 
0 0 0 0 0 0 0 0 0 
0 0 0 0 0 0 0 0 0 
0 0 0 0 0 0 0 0 0 
0 0 0 0 0 0 0 0 0 
0 0 0 0 0 0 0 0 0 
0 0 0 0 0 0 0 0 0 
0 0 0 0 0 0 0 0 0 
0 0 0 0 0 0 0 0 0 
0 0 0 0 0 0 0 0 0 
0 0 0 0 0 0 0 0 0 
0 0 0 0 0 0 0 0 0 
0 0 0 0 0 0 0 0 0 
0 0 0 0 0 0 0 0 0 
0 0 0 0 0 0 0 0 0 
0 0 0 0 0 0 0 0 0 
0 0 0 0 0 0 0 0 0 
0 0 0 0 0 0 0 0 0 
0 0 0 0 0 0 0 0 0 
0 0 0 0 0 0 0 0 0 
0 0 0 0 0 0 0 0 0 
0 0 0 0 0 0 0 0 0 
0 0 0 0 0 0 0 0 0 
0 0 0 0 0 0 0 0 0 
0 0 0 0 0 0 0 0 0 
0 0 0 0 0 0 0 0 0 
0 0 0 0 0 0 0 0 0 
0 0 0 0 0 0 0 0 0 
0 0 0 0 0 0 0 0 0 
0 0 0 0 0 0 0 0 0 
0 0 0 0 0 0 0 0 0 
0 0 0 0 0 0 0 0 0 
0 0 0 0 0 0 0 0 0 
0 0 0 0 0 0 0 0 0 
0 0 0 0 0 0 0 0 0 
0 0 0 0 0 0 0 0 0 
0 0 0 0 0 0 0 0 0 
0 0 0 0 0 0 0 0 0 
0 0 0 0 0 0 0 0 0 
0 0 0 0 0 0 0 0 0 
0 0 0 0 0 0 0 0 0 
0 0 0 0 0 0 0 0 0 
0 0 0 0 0 0 0 0 0 
0 0 0 0 0 0 0 0 0 
0 0 0 0 0 0 0 0 0 
0 0 0 0 0 0 0 0 0 
0 0 0 0 0 0 0 0 0 
0 0 0 0 0 0 0 0 0 
0 0 0 0 0 0 0 0 0 
0 0 0 0 0 0 0 0 0 
0 0 0 0 0 0 0 0 0 
0 0 0 0 0 0 0 0 0 
0 0 0 0 0 0 0 0 0 
0 0 0 0 0 0 0 0 0 
0 0 0 0 0 0 0 0 0 
0 0 0 0 0 0 0 0 0 
0 0 0 0 0 0 0 0 0 
0 0 0 0 0 0 0 0 0 
0 0 0 0 0 0 0 0 0 
0 0 0 0 0 0 0 0 0 
0 0 0 0 0 0 0 0 0 
0 0 0 0 0 0 0 0 0 
0 0 0 0 0 0 0 0 0 
0 0 0 0 0 0 0 0 0 
0 0 0 0 0 0 0 0 0 
0 0 0 0 0 0 0 0 0 
0 0 0 0 0 0 0 0 0 
0 0 0 0 0 0 0 0 0 
0 0 0 0 0 0 0 0 0 
0 0 0 0 0 0 0 0 0 
0 0 0 0 0 0 0 0 0 
0 0 0 0 0 0 0 0 0 
0 0 0 0 0 0 0 0 0 
0 0 0 0 0 0 0 0 0 
0 0 0 0 0 0 0 0 0 
0 0 0 0 0 0 0 0 0 
0 0 0 0 0 0 0 0 0 
0 0 0 0 0 0 0 0 0 
0 0 0 0 0 0 0 0 0 
0 0 0 0 0 0 0 0 0 
0 0 0 0 0 0 0 0 0 
0 0 0 0 0 0 0 0 0 
0 0 0 0 0 0 0 0 0 
0 0 0 0 0 0 0 0 0 
0 0 0 0 0 0 0 0 0 
0 0 0 0 0 0 0 0 0 
0 0 0 0 0 0 0 0 0 
0 0 0 0 0 0 0 0 0 
0 0 0 0 0 0 0 0 0 
0 0 0 0 0 0 0 0 0 
0 0 0 0 0 0 0 0 0 
0 0 0 0 0 0 0 0 0 
0 0 0 0 0 0 0 0 0 
0 0 0 0 0 0 0 0 0 
0 0 0 0 0 0 0 0 0 
0 0 0 0 0 0 0 0 0 
0 0 0 0 0 0 0 0 0 
0 0 0 0 0 0 0 0 0 
0 0 0 0 0 0 0 0 0 
0 0 0 0 0 0 0 0 0 
0 0 0 0 0 0 0 0 0 
0 0 0 0 0 0 0 0 0 
0 0 0 0 0 0 0 0 0 
0 0 0 0 0 0 0 0 0 
0 0 0 0 0 0 0 0 0 
0 0 0 0 0 0 0 0 0 
0 0 0 0 0 0 0 0 0 
0 0 0 0 0 0 0 0 0 
0 0 0 0 0 0 0 0 0 
0 0 0 0 0 0 0 0 0 
0 0 0 0 0 0 0 0 0 
0 0 0 0 0 0 0 0 0 
0 0 0 0 0 0 0 0 0 
0 0 0 0 0 0 0 0 0 
0 0 0 0 0 0 0 0 0 
0 0 0 0 0 0 0 0 0 
0 0 0 0 0 0 0 0 0 
0 0 0 0 0 0 0 0 0 
0 0 0 0 0 0 0 0 0 
0 0 0 0 0 0 0 0 0 
0 0 0 0 0 0 0 0 0 
0 0 0 0 0 0 0 0 0 
0 0 0 0 0 0 0 0 0 
0 0 0 0 0 0 0 0 0 
0 0 0 0 0 0 0 0 0 
0 0 0 0 0 0 0 0 0 
0 0 0 0 0 0 0 0 0 
0 0 0 0 0 0 0 0 0 
0 0 0 0 0 0 0 0 0 
0 0 0 0 0 0 0 0 0 
0 0 0 0 0 0 0 0 0 
0 0 0 0 0 0 0 0 0 
0 0 0 0 0 0 0 0 0 
0 0 0 0 0 0 0 0 0 
0 0 0 0 0 0 0 0 0 
0 0 0 0 0 0 0 0 0 
0 0 0 0 0 0 0 0 0 
0 0 0 0 0 0 0 0 0 
0 0 0 0 0 0 0 0 0 
0 0 0 0 0 0 0 0 0 
0 0 0 0 0 0 0 0 0 
0 0 0 0 0 0 0 0 0 
0 0 0 0 0 0 0 0 0 
0 0 0 0 0 0 0 0 0 
0 0 0 0 0 0 0 0 0 
0 0 0 0 0 0 0 0 0 
0 0 0 0 0 0 0 0 0 
0 0 0 0 0 0 0 0 0 
0 0 0 0 0 0 0 0 0 
0 0 0 0 0 0 0 0 0 
0 0 0 0 0 0 0 0 0 
0 0 0 0 0 0 0 0 0 
0 0 0 0 0 0 0 0 0 
0 0 0 0 0 0 0 0 0 
0 0 0 0 0 0 0 0 0 
0 0 0 0 0 0 0 0 0 
0 0 0 0 0 0 0 0 0 
0 0 0 0 0 0 0 0 0 
0 0 0 0 0 0 0 0 0 
0 0 0 0 0 0 0 0 0 
0 0 0 0 0 0 0 0 0 
0 0 0 0 0 0 0 0 0 
0 0 0 0 0 0 0 0 0 
0 0 0 0 0 0 0 0 0 
0 0 0 0 0 0 0 0 0 
0 0 0 0 0 0 0 0 0 
0 0 0 0 0 0 0 0 0 
0 0 0 0 0 0 0 0 0 
0 0 0 0 0 0 0 0 0 
0 0 0 0 0 0 0 0 0 
0 0 0 0 0 0 0 0 0 
0 0 0 0 0 0 0 0 0 
0 0 0 0 0 0 0 0 0 
0 0 0 0 0 0 0 0 0 
0 0 0 0 0 0 0 0 0 
0 0 0 0 0 0 0 0 0 
0 0 0 0 0 0 0 0 0 
0 0 0 0 0 0 0 0 0 
0 0 0 0 0 0 0 0 0 
0 0 0 0 0 0 0 0 0 
0 0 0 0 0 0 0 0 0 
0 0 0 0 0 0 0 0 0 
0 0 0 0 0 0 0 0 0 
0 0 0 0 0 0 0 0 0 
0 0 0 0 0 0 0 0 0 
0 0 0 0 0 0 0 0 0 
0 0 0 0 0 0 0 0 0 
0 0 0 0 0 0 0 0 0 
0 0 0 0 0 0 0 0 0 
0 0 0 0 0 0 0 0 0 
0 0 0 0 0 0 0 0 0 
0 0 0 0 0 0 0 0 0 
0 0 0 0 0 0 0 0 0 
0 0 0 0 0 0 0 0 0 
0 0 0 0 0 0 0 0 0 
0 0 0 0 0 0 0 0 0 
0 0 0 0 0 0 0 0 0 
0 0 0 0 0 0 0 0 0 
0 0 0 0 0 0 0 0 0 
0 0 0 0 0 0 0 0 0 
0 0 0 0 0 0 0 0 0 
0 0 0 0 0 0 0 0 0 
0 0 0 0 0 0 0 0 0 
0 0 0 0 0 0 0 0 0 
0 0 0 0 0 0 0 0 0 
0 0 0 0 0 0 0 0 0 
0 0 0 0 0 0 0 0 0 
0 0 0 0 0 0 0 0 0 
0 0 0 0 0 0 0 0 0 
0 0 0 0 0 0 0 0 0 
0 0 0 0 0 0 0 0 0 
0 0 0 0 0 0 0 0 0 
0 0 0 0 0 0 0 0 0 
0 0 0 0 0 0 0 0 0 
0 0 0 0 0 0 0 0 0 
0 0 0 0 0 0 0 0 0 
0 0 0 0 0 0 0 0 0 
0 0 0 0 0 0 0 0 0 
0 0 0 0 0 0 0 0 0 
0 0 0 0 0 0 0 0 0 
0 0 0 0 0 0 0 0 0 
0 0 0 0 0 0 0 0 0 
0 0 0 0 0 0 0 0 0 
0 0 0 0 0 0 0 0 0 
0 0 0 0 0 0 0 0 0 
0 0 0 0 0 0 0 0 0 
0 0 0 0 0 0 0 0 0 
0 0 0 0 0 0 0 0 0 
0 0 0 0 0 0 0 0 0 
0 0 0 0 0 0 0 0 0 
0 0 0 0 0 0 0 0 0 
0 0 0 0 0 0 0 0 0 
0 0 0 0 0 0 0 0 0 
0 0 0 0 0 0 0 0 0 
0 0 0 0 0 0 0 0 0 
0 0 0 0 0 0 0 0 0 
0 0 0 0 0 0 0 0 0 
0 0 0 0 0 0 0 0 0 
0 0 0 0 0 0 0 0 0 
0 0 0 0 0 0 0 0 0 
0 0 0 0 0 0 0 0 0 
0 0 0 0 0 0 0 0 0 
0 0 0 0 0 0 0 0 0 
0 0 0 0 0 0 0 0 0 
0 0 0 0 0 0 0 0 0 
0 0 0 0 0 0 0 0 0 
0 0 0 0 0 0 0 0 0 
0 0 0 0 0 0 0 0 0 
0 0 0 0 0 0 0 0 0 
0 0 0 0 0 0 0 0 0 
0 0 0 0 0 0 0 0 0 
0 0 0 0 0 0 0 0 0 
0 0 0 0 0 0 0 0 0 
0 0 0 0 0 0 0 0 0 
0 0 0 0 0 0 0 0 0 
0 0 0 0 0 0 0 0 0 
0 0 0 0 0 0 0 0 0 
0 0 0 0 0 0 0 0 0 
0 0 0 0 0 0 0 0 0 
0 0 0 0 0 0 0 0 0 
0 0 0 0 0 0 0 0 0 
0 0 0 0 0 0 0 0 0 
0 0 0 0 0 0 0 0 0 
0 0 0 0 0 0 0 0 0 
0 0 0 0 0 0 0 0 0 
0 0 0 0 0 0 0 0 0 
0 0 0 0 0 0 0 0 0 
0 0 0 0 0 0 0 0 0 
0 0 0 0 0 0 0 0 0 
0 0 0 0 0 0 0 0 0 
0 0 0 0 0 0 0 0 0 
0 0 0 0 0 0 0 0 0 
0 0 0 0 0 0 0 0 0 
0 0 0 0 0 0 0 0 0 
0 0 0 0 0 0 0 0 0 
0 0 0 0 0 0 0 0 0 
0 0 0 0 0 0 0 0 0 
0 0 0 0 0 0 0 0 0 
0 0 0 0 0 0 0 0 0 
0 0 0 0 0 0 0 0 0 
0 0 0 0 0 0 0 0 0 
0 0 0 0 0 0 0 0 0 
0 0 0 0 0 0 0 0 0 
0 0 0 0 0 0 0 0 0 
0 0 0 0 0 0 0 0 0 
0 0 0 0 0 0 0 0 0 
0 0 0 0 0 0 0 0 0 
0 0 0 0 0 0 0 0 0 
0 0 0 0 0 0 0 0 0 
0 0 0 0 0 0 0 0 0 
0 0 0 0 0 0 0 0 0 
0 0 0 0 0 0 0 0 0 
0 0 0 0 0 0 0 0 0 
0 0 0 0 0 0 0 0 0 
0 0 0 0 0 0 0 0 0 
0 0 0 0 0 0 0 0 0 
0 0 0 0 0 0 0 0 0 
0 0 0 0 0 0 0 0 0 
0 0 0 0 0 0 0 0 0 
0 0 0 0 0 0 0 0 0 
0 0 0 0 0 0 0 0 0 
0 0 0 0 0 0 0 0 0 
0 0 0 0 0 0 0 0 0 
0 0 0 0 0 0 0 0 0 
0 0 0 0 0 0 0 0 0 
0 0 0 0 0 0 0 0 0 
0 0 0 0 0 0 0 0 0 
0 0 0 0 0 0 0 0 0 
0 0 0 0 0 0 0 0 0 
0 0 0 0 0 0 0 0 0 
0 0 0 0 0 0 0 0 0 
0 0 0 0 0 0 0 0 0 
0 0 0 0 0 0 0 0 0 

Displacement_Total 3 1116 double
0 0 0 0 0 0 0 0 0 
0 0 0 0 0 0 0 0 0 
0 0 0 0 0 0 0 0 0 
0 0 0 0 0 0 0 0 0 
0 0 0 0 0 0 0 0 0 
0 0 0 0 0 0 0 0 0 
0 0 0 0 0 0 0 0 0 
0 0 0 0 0 0 0 0 0 
0 0 0 0 0 0 0 0 0 
0 0 0 0 0 0 0 0 0 
0 0 0 0 0 0 0 0 0 
0 0 0 0 0 0 0 0 0 
0 0 0 0 0 0 0 0 0 
0 0 0 0 0 0 0 0 0 
0 0 0 0 0 0 0 0 0 
0 0 0 0 0 0 0 0 0 
0 0 0 0 0 0 0 0 0 
0 0 0 0 0 0 0 0 0 
0 0 0 0 0 0 0 0 0 
0 0 0 0 0 0 0 0 0 
0 0 0 0 0 0 0 0 0 
0 0 0 0 0 0 0 0 0 
0 0 0 0 0 0 0 0 0 
0 0 0 0 0 0 0 0 0 
0 0 0 0 0 0 0 0 0 
0 0 0 0 0 0 0 0 0 
0 0 0 0 0 0 0 0 0 
0 0 0 0 0 0 0 0 0 
0 0 0 0 0 0 0 0 0 
0 0 0 0 0 0 0 0 0 
0 0 0 0 0 0 0 0 0 
0 0 0 0 0 0 0 0 0 
0 0 0 0 0 0 0 0 0 
0 0 0 0 0 0 0 0 0 
0 0 0 0 0 0 0 0 0 
0 0 0 0 0 0 0 0 0 
0 0 0 0 0 0 0 0 0 
0 0 0 0 0 0 0 0 0 
0 0 0 0 0 0 0 0 0 
0 0 0 0 0 0 0 0 0 
0 0 0 0 0 0 0 0 0 
0 0 0 0 0 0 0 0 0 
0 0 0 0 0 0 0 0 0 
0 0 0 0 0 0 0 0 0 
0 0 0 0 0 0 0 0 0 
0 0 0 0 0 0 0 0 0 
0 0 0 0 0 0 0 0 0 
0 0 0 0 0 0 0 0 0 
0 0 0 0 0 0 0 0 0 
0 0 0 0 0 0 0 0 0 
0 0 0 0 0 0 0 0 0 
0 0 0 0 0 0 0 0 0 
0 0 0 0 0 0 0 0 0 
0 0 0 0 0 0 0 0 0 
0 0 0 0 0 0 0 0 0 
0 0 0 0 0 0 0 0 0 
0 0 0 0 0 0 0 0 0 
0 0 0 0 0 0 0 0 0 
0 0 0 0 0 0 0 0 0 
0 0 0 0 0 0 0 0 0 
0 0 0 0 0 0 0 0 0 
0 0 0 0 0 0 0 0 0 
0 0 0 0 0 0 0 0 0 
0 0 0 0 0 0 0 0 0 
0 0 0 0 0 0 0 0 0 
0 0 0 0 0 0 0 0 0 
0 0 0 0 0 0 0 0 0 
0 0 0 0 0 0 0 0 0 
0 0 0 0 0 0 0 0 0 
0 0 0 0 0 0 0 0 0 
0 0 0 0 0 0 0 0 0 
0 0 0 0 0 0 0 0 0 
0 0 0 0 0 0 0 0 0 
0 0 0 0 0 0 0 0 0 
0 0 0 0 0 0 0 0 0 
0 0 0 0 0 0 0 0 0 
0 0 0 0 0 0 0 0 0 
0 0 0 0 0 0 0 0 0 
0 0 0 0 0 0 0 0 0 
0 0 0 0 0 0 0 0 0 
0 0 0 0 0 0 0 0 0 
0 0 0 0 0 0 0 0 0 
0 0 0 0 0 0 0 0 0 
0 0 0 0 0 0 0 0 0 
0 0 0 0 0 0 0 0 0 
0 0 0 0 0 0 0 0 0 
0 0 0 0 0 0 0 0 0 
0 0 0 0 0 0 0 0 0 
0 0 0 0 0 0 0 0 0 
0 0 0 0 0 0 0 0 0 
0 0 0 0 0 0 0 0 0 
0 0 0 0 0 0 0 0 0 
0 0 0 0 0 0 0 0 0 
0 0 0 0 0 0 0 0 0 
0 0 0 0 0 0 0 0 0 
0 0 0 0 0 0 0 0 0 
0 0 0 0 0 0 0 0 0 
0 0 0 0 0 0 0 0 0 
0 0 0 0 0 0 0 0 0 
0 0 0 0 0 0 0 0 0 
0 0 0 0 0 0 0 0 0 
0 0 0 0 0 0 0 0 0 
0 0 0 0 0 0 0 0 0 
0 0 0 0 0 0 0 0 0 
0 0 0 0 0 0 0 0 0 
0 0 0 0 0 0 0 0 0 
0 0 0 0 0 0 0 0 0 
0 0 0 0 0 0 0 0 0 
0 0 0 0 0 0 0 0 0 
0 0 0 0 0 0 0 0 0 
0 0 0 0 0 0 0 0 0 
0 0 0 0 0 0 0 0 0 
0 0 0 0 0 0 0 0 0 
0 0 0 0 0 0 0 0 0 
0 0 0 0 0 0 0 0 0 
0 0 0 0 0 0 0 0 0 
0 0 0 0 0 0 0 0 0 
0 0 0 0 0 0 0 0 0 
0 0 0 0 0 0 0 0 0 
0 0 0 0 0 0 0 0 0 
0 0 0 0 0 0 0 0 0 
0 0 0 0 0 0 0 0 0 
0 0 0 0 0 0 0 0 0 
0 0 0 0 0 0 0 0 0 
0 0 0 0 0 0 0 0 0 
0 0 0 0 0 0 0 0 0 
0 0 0 0 0 0 0 0 0 
0 0 0 0 0 0 0 0 0 
0 0 0 0 0 0 0 0 0 
0 0 0 0 0 0 0 0 0 
0 0 0 0 0 0 0 0 0 
0 0 0 0 0 0 0 0 0 
0 0 0 0 0 0 0 0 0 
0 0 0 0 0 0 0 0 0 
0 0 0 0 0 0 0 0 0 
0 0 0 0 0 0 0 0 0 
0 0 0 0 0 0 0 0 0 
0 0 0 0 0 0 0 0 0 
0 0 0 0 0 0 0 0 0 
0 0 0 0 0 0 0 0 0 
0 0 0 0 0 0 0 0 0 
0 0 0 0 0 0 0 0 0 
0 0 0 0 0 0 0 0 0 
0 0 0 0 0 0 0 0 0 
0 0 0 0 0 0 0 0 0 
0 0 0 0 0 0 0 0 0 
0 0 0 0 0 0 0 0 0 
0 0 0 0 0 0 0 0 0 
0 0 0 0 0 0 0 0 0 
0 0 0 0 0 0 0 0 0 
0 0 0 0 0 0 0 0 0 
0 0 0 0 0 0 0 0 0 
0 0 0 0 0 0 0 0 0 
0 0 0 0 0 0 0 0 0 
0 0 0 0 0 0 0 0 0 
0 0 0 0 0 0 0 0 0 
0 0 0 0 0 0 0 0 0 
0 0 0 0 0 0 0 0 0 
0 0 0 0 0 0 0 0 0 
0 0 0 0 0 0 0 0 0 
0 0 0 0 0 0 0 0 0 
0 0 0 0 0 0 0 0 0 
0 0 0 0 0 0 0 0 0 
0 0 0 0 0 0 0 0 0 
0 0 0 0 0 0 0 0 0 
0 0 0 0 0 0 0 0 0 
0 0 0 0 0 0 0 0 0 
0 0 0 0 0 0 0 0 0 
0 0 0 0 0 0 0 0 0 
0 0 0 0 0 0 0 0 0 
0 0 0 0 0 0 0 0 0 
0 0 0 0 0 0 0 0 0 
0 0 0 0 0 0 0 0 0 
0 0 0 0 0 0 0 0 0 
0 0 0 0 0 0 0 0 0 
0 0 0 0 0 0 0 0 0 
0 0 0 0 0 0 0 0 0 
0 0 0 0 0 0 0 0 0 
0 0 0 0 0 0 0 0 0 
0 0 0 0 0 0 0 0 0 
0 0 0 0 0 0 0 0 0 
0 0 0 0 0 0 0 0 0 
0 0 0 0 0 0 0 0 0 
0 0 0 0 0 0 0 0 0 
0 0 0 0 0 0 0 0 0 
0 0 0 0 0 0 0 0 0 
0 0 0 0 0 0 0 0 0 
0 0 0 0 0 0 0 0 0 
0 0 0 0 0 0 0 0 0 
0 0 0 0 0 0 0 0 0 
0 0 0 0 0 0 0 0 0 
0 0 0 0 0 0 0 0 0 
0 0 0 0 0 0 0 0 0 
0 0 0 0 0 0 0 0 0 
0 0 0 0 0 0 0 0 0 
0 0 0 0 0 0 0 0 0 
0 0 0 0 0 0 0 0 0 
0 0 0 0 0 0 0 0 0 
0 0 0 0 0 0 0 0 0 
0 0 0 0 0 0 0 0 0 
0 0 0 0 0 0 0 0 0 
0 0 0 0 0 0 0 0 0 
0 0 0 0 0 0 0 0 0 
0 0 0 0 0 0 0 0 0 
0 0 0 0 0 0 0 0 0 
0 0 0 0 0 0 0 0 0 
0 0 0 0 0 0 0 0 0 
0 0 0 0 0 0 0 0 0 
0 0 0 0 0 0 0 0 0 
0 0 0 0 0 0 0 0 0 
0 0 0 0 0 0 0 0 0 
0 0 0 0 0 0 0 0 0 
0 0 0 0 0 0 0 0 0 
0 0 0 0 0 0 0 0 0 
0 0 0 0 0 0 0 0 0 
0 0 0 0 0 0 0 0 0 
0 0 0 0 0 0 0 0 0 
0 0 0 0 0 0 0 0 0 
0 0 0 0 0 0 0 0 0 
0 0 0 0 0 0 0 0 0 
0 0 0 0 0 0 0 0 0 
0 0 0 0 0 0 0 0 0 
0 0 0 0 0 0 0 0 0 
0 0 0 0 0 0 0 0 0 
0 0 0 0 0 0 0 0 0 
0 0 0 0 0 0 0 0 0 
0 0 0 0 0 0 0 0 0 
0 0 0 0 0 0 0 0 0 
0 0 0 0 0 0 0 0 0 
0 0 0 0 0 0 0 0 0 
0 0 0 0 0 0 0 0 0 
0 0 0 0 0 0 0 0 0 
0 0 0 0 0 0 0 0 0 
0 0 0 0 0 0 0 0 0 
0 0 0 0 0 0 0 0 0 
0 0 0 0 0 0 0 0 0 
0 0 0 0 0 0 0 0 0 
0 0 0 0 0 0 0 0 0 
0 0 0 0 0 0 0 0 0 
0 0 0 0 0 0 0 0 0 
0 0 0 0 0 0 0 0 0 
0 0 0 0 0 0 0 0 0 
0 0 0 0 0 0 0 0 0 
0 0 0 0 0 0 0 0 0 
0 0 0 0 0 0 0 0 0 
0 0 0 0 0 0 0 0 0 
0 0 0 0 0 0 0 0 0 
0 0 0 0 0 0 0 0 0 
0 0 0 0 0 0 0 0 0 
0 0 0 0 0 0 0 0 0 
0 0 0 0 0 0 0 0 0 
0 0 0 0 0 0 0 0 0 
0 0 0 0 0 0 0 0 0 
0 0 0 0 0 0 0 0 0 
0 0 0 0 0 0 0 0 0 
0 0 0 0 0 0 0 0 0 
0 0 0 0 0 0 0 0 0 
0 0 0 0 0 0 0 0 0 
0 0 0 0 0 0 0 0 0 
0 0 0 0 0 0 0 0 0 
0 0 0 0 0 0 0 0 0 
0 0 0 0 0 0 0 0 0 
0 0 0 0 0 0 0 0 0 
0 0 0 0 0 0 0 0 0 
0 0 0 0 0 0 0 0 0 
0 0 0 0 0 0 0 0 0 
0 0 0 0 0 0 0 0 0 
0 0 0 0 0 0 0 0 0 
0 0 0 0 0 0 0 0 0 
0 0 0 0 0 0 0 0 0 
0 0 0 0 0 0 0 0 0 
0 0 0 0 0 0 0 0 0 
0 0 0 0 0 0 0 0 0 
0 0 0 0 0 0 0 0 0 
0 0 0 0 0 0 0 0 0 
0 0 0 0 0 0 0 0 0 
0 0 0 0 0 0 0 0 0 
0 0 0 0 0 0 0 0 0 
0 0 0 0 0 0 0 0 0 
0 0 0 0 0 0 0 0 0 
0 0 0 0 0 0 0 0 0 
0 0 0 0 0 0 0 0 0 
0 0 0 0 0 0 0 0 0 
0 0 0 0 0 0 0 0 0 
0 0 0 0 0 0 0 0 0 
0 0 0 0 0 0 0 0 0 
0 0 0 0 0 0 0 0 0 
0 0 0 0 0 0 0 0 0 
0 0 0 0 0 0 0 0 0 
0 0 0 0 0 0 0 0 0 
0 0 0 0 0 0 0 0 0 
0 0 0 0 0 0 0 0 0 
0 0 0 0 0 0 0 0 0 
0 0 0 0 0 0 0 0 0 
0 0 0 0 0 0 0 0 0 
0 0 0 0 0 0 0 0 0 
0 0 0 0 0 0 0 0 0 
0 0 0 0 0 0 0 0 0 
0 0 0 0 0 0 0 0 0 
0 0 0 0 0 0 0 0 0 
0 0 0 0 0 0 0 0 0 
0 0 0 0 0 0 0 0 0 
0 0 0 0 0 0 0 0 0 
0 0 0 0 0 0 0 0 0 
0 0 0 0 0 0 0 0 0 
0 0 0 0 0 0 0 0 0 
0 0 0 0 0 0 0 0 0 
0 0 0 0 0 0 0 0 0 
0 0 0 0 0 0 0 0 0 
0 0 0 0 0 0 0 0 0 
0 0 0 0 0 0 0 0 0 
0 0 0 0 0 0 0 0 0 
0 0 0 0 0 0 0 0 0 
0 0 0 0 0 0 0 0 0 
0 0 0 0 0 0 0 0 0 
0 0 0 0 0 0 0 0 0 
0 0 0 0 0 0 0 0 0 
0 0 0 0 0 0 0 0 0 
0 0 0 0 0 0 0 0 0 
0 0 0 0 0 0 0 0 0 
0 0 0 0 0 0 0 0 0 
0 0 0 0 0 0 0 0 0 
0 0 0 0 0 0 0 0 0 
0 0 0 0 0 0 0 0 0 
0 0 0 0 0 0 0 0 0 
0 0 0 0 0 0 0 0 0 
0 0 0 0 0 0 0 0 0 
0 0 0 0 0 0 0 0 0 
0 0 0 0 0 0 0 0 0 
0 0 0 0 0 0 0 0 0 
0 0 0 0 0 0 0 0 0 
0 0 0 0 0 0 0 0 0 
0 0 0 0 0 0 0 0 0 
0 0 0 0 0 0 0 0 0 
0 0 0 0 0 0 0 0 0 
0 0 0 0 0 0 0 0 0 
0 0 0 0 0 0 0 0 0 
0 0 0 0 0 0 0 0 0 
0 0 0 0 0 0 0 0 0 
0 0 0 0 0 0 0 0 0 
0 0 0 0 0 0 0 0 0 
0 0 0 0 0 0 0 0 0 
0 0 0 0 0 0 0 0 0 
0 0 0 0 0 0 0 0 0 
0 0 0 0 0 0 0 0 0 
0 0 0 0 0 0 0 0 0 
0 0 0 0 0 0 0 0 0 
0 0 0 0 0 0 0 0 0 
0 0 0 0 0 0 0 0 0 
0 0 0 0 0 0 0 0 0 
0 0 0 0 0 0 0 0 0 
0 0 0 0 0 0 0 0 0 
0 0 0 0 0 0 0 0 0 
0 0 0 0 0 0 0 0 0 
0 0 0 0 0 0 0 0 0 
0 0 0 0 0 0 0 0 0 
0 0 0 0 0 0 0 0 0 
0 0 0 0 0 0 0 0 0 
0 0 0 0 0 0 0 0 0 
0 0 0 0 0 0 0 0 0 
0 0 0 0 0 0 0 0 0 
0 0 0 0 0 0 0 0 0 
0 0 0 0 0 0 0 0 0 
0 0 0 0 0 0 0 0 0 
0 0 0 0 0 0 0 0 0 
0 0 0 0 0 0 0 0 0 
0 0 0 0 0 0 0 0 0 
0 0 0 0 0 0 0 0 0 
0 0 0 0 0 0 0 0 0 
0 0 0 0 0 0 0 0 0 
0 0 0 0 0 0 0 0 0 
0 0 0 0 0 0 0 0 0 

Displacement_Wall 3 1116 double
0 0 0 0 0 0 0 0 0 
0 0 0 0 0 0 0 0 0 
0 0 0 0 0 0 0 0 0 
0 0 0 0 0 0 0 0 0 
0 0 0 0 0 0 0 0 0 
0 0 0 0 0 0 0 0 0 
0 0 0 0 0 0 0 0 0 
0 0 0 0 0 0 0 0 0 
0 0 0 0 0 0 0 0 0 
0 0 0 0 0 0 0 0 0 
0 0 0 0 0 0 0 0 0 
0 0 0 0 0 0 0 0 0 
0 0 0 0 0 0 0 0 0 
0 0 0 0 0 0 0 0 0 
0 0 0 0 0 0 0 0 0 
0 0 0 0 0 0 0 0 0 
0 0 0 0 0 0 0 0 0 
0 0 0 0 0 0 0 0 0 
0 0 0 0 0 0 0 0 0 
0 0 0 0 0 0 0 0 0 
0 0 0 0 0 0 0 0 0 
0 0 0 0 0 0 0 0 0 
0 0 0 0 0 0 0 0 0 
0 0 0 0 0 0 0 0 0 
0 0 0 0 0 0 0 0 0 
0 0 0 0 0 0 0 0 0 
0 0 0 0 0 0 0 0 0 
0 0 0 0 0 0 0 0 0 
0 0 0 0 0 0 0 0 0 
0 0 0 0 0 0 0 0 0 
0 0 0 0 0 0 0 0 0 
0 0 0 0 0 0 0 0 0 
0 0 0 0 0 0 0 0 0 
0 0 0 0 0 0 0 0 0 
0 0 0 0 0 0 0 0 0 
0 0 0 0 0 0 0 0 0 
0 0 0 0 0 0 0 0 0 
0 0 0 0 0 0 0 0 0 
0 0 0 0 0 0 0 0 0 
0 0 0 0 0 0 0 0 0 
0 0 0 0 0 0 0 0 0 
0 0 0 0 0 0 0 0 0 
0 0 0 0 0 0 0 0 0 
0 0 0 0 0 0 0 0 0 
0 0 0 0 0 0 0 0 0 
0 0 0 0 0 0 0 0 0 
0 0 0 0 0 0 0 0 0 
0 0 0 0 0 0 0 0 0 
0 0 0 0 0 0 0 0 0 
0 0 0 0 0 0 0 0 0 
0 0 0 0 0 0 0 0 0 
0 0 0 0 0 0 0 0 0 
0 0 0 0 0 0 0 0 0 
0 0 0 0 0 0 0 0 0 
0 0 0 0 0 0 0 0 0 
0 0 0 0 0 0 0 0 0 
0 0 0 0 0 0 0 0 0 
0 0 0 0 0 0 0 0 0 
0 0 0 0 0 0 0 0 0 
0 0 0 0 0 0 0 0 0 
0 0 0 0 0 0 0 0 0 
0 0 0 0 0 0 0 0 0 
0 0 0 0 0 0 0 0 0 
0 0 0 0 0 0 0 0 0 
0 0 0 0 0 0 0 0 0 
0 0 0 0 0 0 0 0 0 
0 0 0 0 0 0 0 0 0 
0 0 0 0 0 0 0 0 0 
0 0 0 0 0 0 0 0 0 
0 0 0 0 0 0 0 0 0 
0 0 0 0 0 0 0 0 0 
0 0 0 0 0 0 0 0 0 
0 0 0 0 0 0 0 0 0 
0 0 0 0 0 0 0 0 0 
0 0 0 0 0 0 0 0 0 
0 0 0 0 0 0 0 0 0 
0 0 0 0 0 0 0 0 0 
0 0 0 0 0 0 0 0 0 
0 0 0 0 0 0 0 0 0 
0 0 0 0 0 0 0 0 0 
0 0 0 0 0 0 0 0 0 
0 0 0 0 0 0 0 0 0 
0 0 0 0 0 0 0 0 0 
0 0 0 0 0 0 0 0 0 
0 0 0 0 0 0 0 0 0 
0 0 0 0 0 0 0 0 0 
0 0 0 0 0 0 0 0 0 
0 0 0 0 0 0 0 0 0 
0 0 0 0 0 0 0 0 0 
0 0 0 0 0 0 0 0 0 
0 0 0 0 0 0 0 0 0 
0 0 0 0 0 0 0 0 0 
0 0 0 0 0 0 0 0 0 
0 0 0 0 0 0 0 0 0 
0 0 0 0 0 0 0 0 0 
0 0 0 0 0 0 0 0 0 
0 0 0 0 0 0 0 0 0 
0 0 0 0 0 0 0 0 0 
0 0 0 0 0 0 0 0 0 
0 0 0 0 0 0 0 0 0 
0 0 0 0 0 0 0 0 0 
0 0 0 0 0 0 0 0 0 
0 0 0 0 0 0 0 0 0 
0 0 0 0 0 0 0 0 0 
0 0 0 0 0 0 0 0 0 
0 0 0 0 0 0 0 0 0 
0 0 0 0 0 0 0 0 0 
0 0 0 0 0 0 0 0 0 
0 0 0 0 0 0 0 0 0 
0 0 0 0 0 0 0 0 0 
0 0 0 0 0 0 0 0 0 
0 0 0 0 0 0 0 0 0 
0 0 0 0 0 0 0 0 0 
0 0 0 0 0 0 0 0 0 
0 0 0 0 0 0 0 0 0 
0 0 0 0 0 0 0 0 0 
0 0 0 0 0 0 0 0 0 
0 0 0 0 0 0 0 0 0 
0 0 0 0 0 0 0 0 0 
0 0 0 0 0 0 0 0 0 
0 0 0 0 0 0 0 0 0 
0 0 0 0 0 0 0 0 0 
0 0 0 0 0 0 0 0 0 
0 0 0 0 0 0 0 0 0 
0 0 0 0 0 0 0 0 0 
0 0 0 0 0 0 0 0 0 
0 0 0 0 0 0 0 0 0 
0 0 0 0 0 0 0 0 0 
0 0 0 0 0 0 0 0 0 
0 0 0 0 0 0 0 0 0 
0 0 0 0 0 0 0 0 0 
0 0 0 0 0 0 0 0 0 
0 0 0 0 0 0 0 0 0 
0 0 0 0 0 0 0 0 0 
0 0 0 0 0 0 0 0 0 
0 0 0 0 0 0 0 0 0 
0 0 0 0 0 0 0 0 0 
0 0 0 0 0 0 0 0 0 
0 0 0 0 0 0 0 0 0 
0 0 0 0 0 0 0 0 0 
0 0 0 0 0 0 0 0 0 
0 0 0 0 0 0 0 0 0 
0 0 0 0 0 0 0 0 0 
0 0 0 0 0 0 0 0 0 
0 0 0 0 0 0 0 0 0 
0 0 0 0 0 0 0 0 0 
0 0 0 0 0 0 0 0 0 
0 0 0 0 0 0 0 0 0 
0 0 0 0 0 0 0 0 0 
0 0 0 0 0 0 0 0 0 
0 0 0 0 0 0 0 0 0 
0 0 0 0 0 0 0 0 0 
0 0 0 0 0 0 0 0 0 
0 0 0 0 0 0 0 0 0 
0 0 0 0 0 0 0 0 0 
0 0 0 0 0 0 0 0 0 
0 0 0 0 0 0 0 0 0 
0 0 0 0 0 0 0 0 0 
0 0 0 0 0 0 0 0 0 
0 0 0 0 0 0 0 0 0 
0 0 0 0 0 0 0 0 0 
0 0 0 0 0 0 0 0 0 
0 0 0 0 0 0 0 0 0 
0 0 0 0 0 0 0 0 0 
0 0 0 0 0 0 0 0 0 
0 0 0 0 0 0 0 0 0 
0 0 0 0 0 0 0 0 0 
0 0 0 0 0 0 0 0 0 
0 0 0 0 0 0 0 0 0 
0 0 0 0 0 0 0 0 0 
0 0 0 0 0 0 0 0 0 
0 0 0 0 0 0 0 0 0 
0 0 0 0 0 0 0 0 0 
0 0 0 0 0 0 0 0 0 
0 0 0 0 0 0 0 0 0 
0 0 0 0 0 0 0 0 0 
0 0 0 0 0 0 0 0 0 
0 0 0 0 0 0 0 0 0 
0 0 0 0 0 0 0 0 0 
0 0 0 0 0 0 0 0 0 
0 0 0 0 0 0 0 0 0 
0 0 0 0 0 0 0 0 0 
0 0 0 0 0 0 0 0 0 
0 0 0 0 0 0 0 0 0 
0 0 0 0 0 0 0 0 0 
0 0 0 0 0 0 0 0 0 
0 0 0 0 0 0 0 0 0 
0 0 0 0 0 0 0 0 0 
0 0 0 0 0 0 0 0 0 
0 0 0 0 0 0 0 0 0 
0 0 0 0 0 0 0 0 0 
0 0 0 0 0 0 0 0 0 
0 0 0 0 0 0 0 0 0 
0 0 0 0 0 0 0 0 0 
0 0 0 0 0 0 0 0 0 
0 0 0 0 0 0 0 0 0 
0 0 0 0 0 0 0 0 0 
0 0 0 0 0 0 0 0 0 
0 0 0 0 0 0 0 0 0 
0 0 0 0 0 0 0 0 0 
0 0 0 0 0 0 0 0 0 
0 0 0 0 0 0 0 0 0 
0 0 0 0 0 0 0 0 0 
0 0 0 0 0 0 0 0 0 
0 0 0 0 0 0 0 0 0 
0 0 0 0 0 0 0 0 0 
0 0 0 0 0 0 0 0 0 
0 0 0 0 0 0 0 0 0 
0 0 0 0 0 0 0 0 0 
0 0 0 0 0 0 0 0 0 
0 0 0 0 0 0 0 0 0 
0 0 0 0 0 0 0 0 0 
0 0 0 0 0 0 0 0 0 
0 0 0 0 0 0 0 0 0 
0 0 0 0 0 0 0 0 0 
0 0 0 0 0 0 0 0 0 
0 0 0 0 0 0 0 0 0 
0 0 0 0 0 0 0 0 0 
0 0 0 0 0 0 0 0 0 
0 0 0 0 0 0 0 0 0 
0 0 0 0 0 0 0 0 0 
0 0 0 0 0 0 0 0 0 
0 0 0 0 0 0 0 0 0 
0 0 0 0 0 0 0 0 0 
0 0 0 0 0 0 0 0 0 
0 0 0 0 0 0 0 0 0 
0 0 0 0 0 0 0 0 0 
0 0 0 0 0 0 0 0 0 
0 0 0 0 0 0 0 0 0 
0 0 0 0 0 0 0 0 0 
0 0 0 0 0 0 0 0 0 
0 0 0 0 0 0 0 0 0 
0 0 0 0 0 0 0 0 0 
0 0 0 0 0 0 0 0 0 
0 0 0 0 0 0 0 0 0 
0 0 0 0 0 0 0 0 0 
0 0 0 0 0 0 0 0 0 
0 0 0 0 0 0 0 0 0 
0 0 0 0 0 0 0 0 0 
0 0 0 0 0 0 0 0 0 
0 0 0 0 0 0 0 0 0 
0 0 0 0 0 0 0 0 0 
0 0 0 0 0 0 0 0 0 
0 0 0 0 0 0 0 0 0 
0 0 0 0 0 0 0 0 0 
0 0 0 0 0 0 0 0 0 
0 0 0 0 0 0 0 0 0 
0 0 0 0 0 0 0 0 0 
0 0 0 0 0 0 0 0 0 
0 0 0 0 0 0 0 0 0 
0 0 0 0 0 0 0 0 0 
0 0 0 0 0 0 0 0 0 
0 0 0 0 0 0 0 0 0 
0 0 0 0 0 0 0 0 0 
0 0 0 0 0 0 0 0 0 
0 0 0 0 0 0 0 0 0 
0 0 0 0 0 0 0 0 0 
0 0 0 0 0 0 0 0 0 
0 0 0 0 0 0 0 0 0 
0 0 0 0 0 0 0 0 0 
0 0 0 0 0 0 0 0 0 
0 0 0 0 0 0 0 0 0 
0 0 0 0 0 0 0 0 0 
0 0 0 0 0 0 0 0 0 
0 0 0 0 0 0 0 0 0 
0 0 0 0 0 0 0 0 0 
0 0 0 0 0 0 0 0 0 
0 0 0 0 0 0 0 0 0 
0 0 0 0 0 0 0 0 0 
0 0 0 0 0 0 0 0 0 
0 0 0 0 0 0 0 0 0 
0 0 0 0 0 0 0 0 0 
0 0 0 0 0 0 0 0 0 
0 0 0 0 0 0 0 0 0 
0 0 0 0 0 0 0 0 0 
0 0 0 0 0 0 0 0 0 
0 0 0 0 0 0 0 0 0 
0 0 0 0 0 0 0 0 0 
0 0 0 0 0 0 0 0 0 
0 0 0 0 0 0 0 0 0 
0 0 0 0 0 0 0 0 0 
0 0 0 0 0 0 0 0 0 
0 0 0 0 0 0 0 0 0 
0 0 0 0 0 0 0 0 0 
0 0 0 0 0 0 0 0 0 
0 0 0 0 0 0 0 0 0 
0 0 0 0 0 0 0 0 0 
0 0 0 0 0 0 0 0 0 
0 0 0 0 0 0 0 0 0 
0 0 0 0 0 0 0 0 0 
0 0 0 0 0 0 0 0 0 
0 0 0 0 0 0 0 0 0 
0 0 0 0 0 0 0 0 0 
0 0 0 0 0 0 0 0 0 
0 0 0 0 0 0 0 0 0 
0 0 0 0 0 0 0 0 0 
0 0 0 0 0 0 0 0 0 
0 0 0 0 0 0 0 0 0 
0 0 0 0 0 0 0 0 0 
0 0 0 0 0 0 0 0 0 
0 0 0 0 0 0 0 0 0 
0 0 0 0 0 0 0 0 0 
0 0 0 0 0 0 0 0 0 
0 0 0 0 0 0 0 0 0 
0 0 0 0 0 0 0 0 0 
0 0 0 0 0 0 0 0 0 
0 0 0 0 0 0 0 0 0 
0 0 0 0 0 0 0 0 0 
0 0 0 0 0 0 0 0 0 
0 0 0 0 0 0 0 0 0 
0 0 0 0 0 0 0 0 0 
0 0 0 0 0 0 0 0 0 
0 0 0 0 0 0 0 0 0 
0 0 0 0 0 0 0 0 0 
0 0 0 0 0 0 0 0 0 
0 0 0 0 0 0 0 0 0 
0 0 0 0 0 0 0 0 0 
0 0 0 0 0 0 0 0 0 
0 0 0 0 0 0 0 0 0 
0 0 0 0 0 0 0 0 0 
0 0 0 0 0 0 0 0 0 
0 0 0 0 0 0 0 0 0 
0 0 0 0 0 0 0 0 0 
0 0 0 0 0 0 0 0 0 
0 0 0 0 0 0 0 0 0 
0 0 0 0 0 0 0 0 0 
0 0 0 0 0 0 0 0 0 
0 0 0 0 0 0 0 0 0 
0 0 0 0 0 0 0 0 0 
0 0 0 0 0 0 0 0 0 
0 0 0 0 0 0 0 0 0 
0 0 0 0 0 0 0 0 0 
0 0 0 0 0 0 0 0 0 
0 0 0 0 0 0 0 0 0 
0 0 0 0 0 0 0 0 0 
0 0 0 0 0 0 0 0 0 
0 0 0 0 0 0 0 0 0 
0 0 0 0 0 0 0 0 0 
0 0 0 0 0 0 0 0 0 
0 0 0 0 0 0 0 0 0 
0 0 0 0 0 0 0 0 0 
0 0 0 0 0 0 0 0 0 
0 0 0 0 0 0 0 0 0 
0 0 0 0 0 0 0 0 0 
0 0 0 0 0 0 0 0 0 
0 0 0 0 0 0 0 0 0 
0 0 0 0 0 0 0 0 0 
0 0 0 0 0 0 0 0 0 
0 0 0 0 0 0 0 0 0 
0 0 0 0 0 0 0 0 0 
0 0 0 0 0 0 0 0 0 
0 0 0 0 0 0 0 0 0 
0 0 0 0 0 0 0 0 0 
0 0 0 0 0 0 0 0 0 
0 0 0 0 0 0 0 0 0 
0 0 0 0 0 0 0 0 0 
0 0 0 0 0 0 0 0 0 
0 0 0 0 0 0 0 0 0 
0 0 0 0 0 0 0 0 0 
0 0 0 0 0 0 0 0 0 
0 0 0 0 0 0 0 0 0 
0 0 0 0 0 0 0 0 0 
0 0 0 0 0 0 0 0 0 
0 0 0 0 0 0 0 0 0 
0 0 0 0 0 0 0 0 0 
0 0 0 0 0 0 0 0 0 
0 0 0 0 0 0 0 0 0 
0 0 0 0 0 0 0 0 0 
0 0 0 0 0 0 0 0 0 
0 0 0 0 0 0 0 0 0 
0 0 0 0 0 0 0 0 0 
0 0 0 0 0 0 0 0 0 

I1_Pt 1 1116 double
2 2 2 2 2 2 2 2 2 
2 2 2 2 2 2 2 2 2 
2 2 2 2 2 2 2 2 2 
2 2 2 2 2 2 2 2 2 
2 2 2 2 2 2 2 2 2 
2 2 2 2 2 2 2 2 2 
2 2 2 2 2 2 2 2 2 
2 2 2 2 2 2 2 2 2 
2 2 2 2 2 2 2 2 2 
2 2 2 2 2 2 2 2 2 
2 2 2 2 2 2 2 2 2 
2 2 2 2 2 2 2 2 2 
2 2 2 2 2 2 2 2 2 
2 2 2 2 2 2 2 2 2 
2 2 2 2 2 2 2 2 2 
2 2 2 2 2 2 2 2 2 
2 2 2 2 2 2 2 2 2 
2 2 2 2 2 2 2 2 2 
2 2 2 2 2 2 2 2 2 
2 2 2 2 2 2 2 2 2 
2 2 2 2 2 2 2 2 2 
2 2 2 2 2 2 2 2 2 
2 2 2 2 2 2 2 2 2 
2 2 2 2 2 2 2 2 2 
2 2 2 2 2 2 2 2 2 
2 2 2 2 2 2 2 2 2 
2 2 2 2 2 2 2 2 2 
2 2 2 2 2 2 2 2 2 
2 2 2 2 2 2 2 2 2 
2 2 2 2 2 2 2 2 2 
2 2 2 2 2 2 2 2 2 
2 2 2 2 2 2 2 2 2 
2 2 2 2 2 2 2 2 2 
2 2 2 2 2 2 2 2 2 
2 2 2 2 2 2 2 2 2 
2 2 2 2 2 2 2 2 2 
2 2 2 2 2 2 2 2 2 
2 2 2 2 2 2 2 2 2 
2 2 2 2 2 2 2 2 2 
2 2 2 2 2 2 2 2 2 
2 2 2 2 2 2 2 2 2 
2 2 2 2 2 2 2 2 2 
2 2 2 2 2 2 2 2 2 
2 2 2 2 2 2 2 2 2 
2 2 2 2 2 2 2 2 2 
2 2 2 2 2 2 2 2 2 
2 2 2 2 2 2 2 2 2 
2 2 2 2 2 2 2 2 2 
2 2 2 2 2 2 2 2 2 
2 2 2 2 2 2 2 2 2 
2 2 2 2 2 2 2 2 2 
2 2 2 2 2 2 2 2 2 
2 2 2 2 2 2 2 2 2 
2 2 2 2 2 2 2 2 2 
2 2 2 2 2 2 2 2 2 
2 2 2 2 2 2 2 2 2 
2 2 2 2 2 2 2 2 2 
2 2 2 2 2 2 2 2 2 
2 2 2 2 2 2 2 2 2 
2 2 2 2 2 2 2 2 2 
2 2 2 2 2 2 2 2 2 
2 2 2 2 2 2 2 2 2 
2 2 2 2 2 2 2 2 2 
2 2 2 2 2 2 2 2 2 
2 2 2 2 2 2 2 2 2 
2 2 2 2 2 2 2 2 2 
2 2 2 2 2 2 2 2 2 
2 2 2 2 2 2 2 2 2 
2 2 2 2 2 2 2 2 2 
2 2 2 2 2 2 2 2 2 
2 2 2 2 2 2 2 2 2 
2 2 2 2 2 2 2 2 2 
2 2 2 2 2 2 2 2 2 
2 2 2 2 2 2 2 2 2 
2 2 2 2 2 2 2 2 2 
2 2 2 2 2 2 2 2 2 
2 2 2 2 2 2 2 2 2 
2 2 2 2 2 2 2 2 2 
2 2 2 2 2 2 2 2 2 
2 2 2 2 2 2 2 2 2 
2 2 2 2 2 2 2 2 2 
2 2 2 2 2 2 2 2 2 
2 2 2 2 2 2 2 2 2 
2 2 2 2 2 2 2 2 2 
2 2 2 2 2 2 2 2 2 
2 2 2 2 2 2 2 2 2 
2 2 2 2 2 2 2 2 2 
2 2 2 2 2 2 2 2 2 
2 2 2 2 2 2 2 2 2 
2 2 2 2 2 2 2 2 2 
2 2 2 2 2 2 2 2 2 
2 2 2 2 2 2 2 2 2 
2 2 2 2 2 2 2 2 2 
2 2 2 2 2 2 2 2 2 
2 2 2 2 2 2 2 2 2 
2 2 2 2 2 2 2 2 2 
2 2 2 2 2 2 2 2 2 
2 2 2 2 2 2 2 2 2 
2 2 2 2 2 2 2 2 2 
2 2 2 2 2 2 2 2 2 
2 2 2 2 2 2 2 2 2 
2 2 2 2 2 2 2 2 2 
2 2 2 2 2 2 2 2 2 
2 2 2 2 2 2 2 2 2 
2 2 2 2 2 2 2 2 2 
2 2 2 2 2 2 2 2 2 
2 2 2 2 2 2 2 2 2 
2 2 2 2 2 2 2 2 2 
2 2 2 2 2 2 2 2 2 
2 2 2 2 2 2 2 2 2 
2 2 2 2 2 2 2 2 2 
2 2 2 2 2 2 2 2 2 
2 2 2 2 2 2 2 2 2 
2 2 2 2 2 2 2 2 2 
2 2 2 2 2 2 2 2 2 
2 2 2 2 2 2 2 2 2 
2 2 2 2 2 2 2 2 2 
2 2 2 2 2 2 2 2 2 
2 2 2 2 2 2 2 2 2 
2 2 2 2 2 2 2 2 2 
2 2 2 2 2 2 2 2 2 
2 2 2 2 2 2 2 2 2 
2 2 2 2 2 2 2 2 2 
2 2 2 2 2 2 2 2 2 

IAS 1 1116 double
0 0 0 0 0 0 0 0 0 
0 0 0 0 0 0 0 0 0 
0 0 0 0 0 0 0 0 0 
0 0 0 0 0 0 0 0 0 
0 0 0 0 0 0 0 0 0 
0 0 0 0 0 0 0 0 0 
0 0 0 0 0 0 0 0 0 
0 0 0 0 0 0 0 0 0 
0 0 0 0 0 0 0 0 0 
0 0 0 0 0 0 0 0 0 
0 0 0 0 0.10905443507 0.11049866669 0.76372023372 0.74818487272 0.61009708918 
0.63742142367 0 0.042398175081 0 0 0 0 0 0 
0 0 0 0 0 0 0 0 0 
0 0 0 0 0 0 0 0 0 
0 0 0 0 0 0 0 0 0 
0 0 0 0 0 0 0 0 0 
0 0 0 0 0 0 0 0 0 
0 0 0 0 0 0 0 0 0 
0 0 0 0 0 0 0 0 0 
0 0 0 0 0 0 0 0 0.01415413061 
0.68206820775 0.68876632751 0.64710919364 0.65820396249 0 0.032142973242 0 0 0 
0 0 0 0 0 0 0 0 0 
0 0 0 0 0 0 0 0 0 
0 0 0 0 0 0 0 0 0 
0 0 0 0 0 0 0 0 0 
0 0 0 0 0 0 0 0 0 
0 0 0 0 0 0 0 0 0 
0 0 0 0 0 0 0 0 0 
0 0 0 0 0 0 0 0 0 
0 0 0 0 0 0 0 0 0 
0 0 0 0 0.12719029353 0.7418156001 0.6718618367 0.10079692666 0 
0 0 0 0 0 0 0 0 0 
0 0 0 0 0 0 0 0 0 
0 0 0 0 0 0 0 0 0 
0 0 0 0 0 0 0 0 0 
0 0.064000865661 0.71055377851 0.67355844208 0.076540596574 0 0 0 0 
0 0 0 0 0 0 0 0 0 
0 0 0 0 0 0 0 0 0 
0 0 0 0 0 0 0 0 0 
0 0 0 0 0 0 0 0 0 
0 0 0 0 0 0 0 0 0 
0 0 0 0 0 0 0 0 0 
0 0 0 0 0 0 0 0 0 
0.14285265981 0.72583347682 0.70542623779 0.15505519853 0 0 0 0 0 
0 0 0 0 0 0 0 0 0 
0 0 0 0 0 0 0 0 0 
0 0 0 0 0 0 0 0 0 
0 0 0 0 0 0 0 0 0 
0 0.12621457116 0.72462538099 0.67920884799 0.094015957868 0 0 0 0 
0 0 0 0 0 0 0 0 0 
0 0 0 0 0 0 0 0 0 
0 0 0 0 0 0.1230137066 0.68487776552 0.77135024666 0.22118401182 
0 0 0 0 0 0 0 0 0 
0 0 0 0 0 0 0 0 0 
0 0 0 0 0 0 0 0 0 
0 0 0 0 0 0 0 0 0 
0 0 0 0 0 0 0 0 0 
0 0 0 0 0 0 0 0 0 
0 0 0 0 0 0 0 0 0 
0 0 0 0 0 0 0 0 0 
0 0 0 0 0 0 0 0 0 
0 0 0 0 0 0 0 0 0.21833446113 
0.78713288581 0.63721683514 0.078787205886 0 0 0 0 0 0 
0 0 0 0 0 0 0 0 0 
0 0 0 0 0 0 0 0 0 
0 0 0 0 0.046815772464 0.58315853364 0.86173987608 0.30217284205 0 
0 0 0 0 0 0 0 0 0 
0 0 0 0 0 0 0 0 0 
0 0 0 0 0 0 0 0 0 
0 0 0 0 0 0 0 0 0 
0 0 0 0 0 0 0 0 0 
0 0 0 0 0 0 0 0 0 
0 0 0 0 0 0 0 0 0 
0 0 0 0 0 0 0 0 0 
0 0 0 0 0 0 0 0.33499210527 0.86995214018 
0.57944121166 0.039854021195 0 0 0 0 0 0 0 
0 0 0 0 0 0 0 0 0 
0 0 0 0 0 0 0 0 0 
0 0 0 0 0 0 0 0 0 
0 0 0 0 0 0 0 0 0 
0 0 0 0 0.45601220169 0.96481518911 0.38725934149 0 0 
0 0 0 0 0 0 0 0 0 
0 0 0 0 0 0 0 0 0 
0 0 0 0 0 0 0 0 0 
0 0 0 0 0 0 0 0 0 
0 0 0 0 0 0 0 0 0 
0 0 0 0 0 0 0 0 0 
0 0 0 0 0 0 0 0 0 
0 0 0 0 0 0 0 0 0 
0 0 0 0 0 0 0.50106207993 0.035665823404 0.99700579231 
0.47313752657 0 0 0 0 0 0 0 0 
0 0 0 0 0 0 0 0 0 
0 0 0 0 0 0 0 0 0 
0 0 0 0 0 0 0 0 0 
0 0 0 0 0 0 0 0 0 
0 0 0 0 0 0 0 0 0 
0 0 0 0 0 0 0 0 0 
0 0 0 0 0 0 0 0.32761327369 0.93394115064 
0.4590596707 0 0 0 0 0 0 0 0 
0 0 0 0 0 0 0 0 0 
0 0 0 0 0 0 0 0 0 
0 0 0 0 0 0 0 0 0 
0 0 0 0 0 0 0 0 0 
0.69423934829 0.26643371385 0.85153942614 0.36360253477 0 0 0 0 0 
0 0 0 0 0 0 0 0 0 
0 0 0 0 0 0 0 0 0 
0 0 0 0 0 0 0 0 0 
0 0 0 0 0 0 0 0 0 
0 0 0 0 0 0 0 0 0 
0 0 0 0 0 0 0 0.25823259342 0.70421797892 
0 0 0 0 0 0 0 0 0 
0 0 0 0 0 0 0 0 0 
0 0 0 0 0 0 0 0 0 
0 0 0 0 0 0 0 0 0 
0 0 0 0 0 0 0 0 0 
0 0 0 0 0 0 0.22694966334 0.8778201409 0.50958052069 
0.027383021715 0.87188800829 0 0 0 0 0 0 0 
0 0 0 0 0 0 0 0 0 
0 0 0 0 0 0 0 0 0 
0 0 0 0 0 0 0 0 0 
0 0 0 0 0 0 0 0 0 
0 0 0 0 0 0 0 0 0 
0 0 0 0 0 0 0 0 0 
0.1166659757 0.44457689207 0.5805123915 0.19045240424 0 0 0 0 0 

J_Pt 1 1116 double
1 1 1 1 1 1 1 1 1 
1 1 1 1 1 1 1 1 1 
1 1 1 1 1 1 1 1 1 
1 1 1 1 1 1 1 1 1 
1 1 1 1 1 1 1 1 1 
1 1 1 1 1 1 1 1 1 
1 1 1 1 1 1 1 1 1 
1 1 1 1 1 1 1 1 1 
1 1 1 1 1 1 1 1 1 
1 1 1 1 1 1 1 1 1 
1 1 1 1 1 1 1 1 1 
1 1 1 1 1 1 1 1 1 
1 1 1 1 1 1 1 1 1 
1 1 1 1 1 1 1 1 1 
1 1 1 1 1 1 1 1 1 
1 1 1 1 1 1 1 1 1 
1 1 1 1 1 1 1 1 1 
1 1 1 1 1 1 1 1 1 
1 1 1 1 1 1 1 1 1 
1 1 1 1 1 1 1 1 1 
1 1 1 1 1 1 1 1 1 
1 1 1 1 1 1 1 1 1 
1 1 1 1 1 1 1 1 1 
1 1 1 1 1 1 1 1 1 
1 1 1 1 1 1 1 1 1 
1 1 1 1 1 1 1 1 1 
1 1 1 1 1 1 1 1 1 
1 1 1 1 1 1 1 1 1 
1 1 1 1 1 1 1 1 1 
1 1 1 1 1 1 1 1 1 
1 1 1 1 1 1 1 1 1 
1 1 1 1 1 1 1 1 1 
1 1 1 1 1 1 1 1 1 
1 1 1 1 1 1 1 1 1 
1 1 1 1 1 1 1 1 1 
1 1 1 1 1 1 1 1 1 
1 1 1 1 1 1 1 1 1 
1 1 1 1 1 1 1 1 1 
1 1 1 1 1 1 1 1 1 
1 1 1 1 1 1 1 1 1 
1 1 1 1 1 1 1 1 1 
1 1 1 1 1 1 1 1 1 
1 1 1 1 1 1 1 1 1 
1 1 1 1 1 1 1 1 1 
1 1 1 1 1 1 1 1 1 
1 1 1 1 1 1 1 1 1 
1 1 1 1 1 1 1 1 1 
1 1 1 1 1 1 1 1 1 
1 1 1 1 1 1 1 1 1 
1 1 1 1 1 1 1 1 1 
1 1 1 1 1 1 1 1 1 
1 1 1 1 1 1 1 1 1 
1 1 1 1 1 1 1 1 1 
1 1 1 1 1 1 1 1 1 
1 1 1 1 1 1 1 1 1 
1 1 1 1 1 1 1 1 1 
1 1 1 1 1 1 1 1 1 
1 1 1 1 1 1 1 1 1 
1 1 1 1 1 1 1 1 1 
1 1 1 1 1 1 1 1 1 
1 1 1 1 1 1 1 1 1 
1 1 1 1 1 1 1 1 1 
1 1 1 1 1 1 1 1 1 
1 1 1 1 1 1 1 1 1 
1 1 1 1 1 1 1 1 1 
1 1 1 1 1 1 1 1 1 
1 1 1 1 1 1 1 1 1 
1 1 1 1 1 1 1 1 1 
1 1 1 1 1 1 1 1 1 
1 1 1 1 1 1 1 1 1 
1 1 1 1 1 1 1 1 1 
1 1 1 1 1 1 1 1 1 
1 1 1 1 1 1 1 1 1 
1 1 1 1 1 1 1 1 1 
1 1 1 1 1 1 1 1 1 
1 1 1 1 1 1 1 1 1 
1 1 1 1 1 1 1 1 1 
1 1 1 1 1 1 1 1 1 
1 1 1 1 1 1 1 1 1 
1 1 1 1 1 1 1 1 1 
1 1 1 1 1 1 1 1 1 
1 1 1 1 1 1 1 1 1 
1 1 1 1 1 1 1 1 1 
1 1 1 1 1 1 1 1 1 
1 1 1 1 1 1 1 1 1 
1 1 1 1 1 1 1 1 1 
1 1 1 1 1 1 1 1 1 
1 1 1 1 1 1 1 1 1 
1 1 1 1 1 1 1 1 1 
1 1 1 1 1 1 1 1 1 
1 1 1 1 1 1 1 1 1 
1 1 1 1 1 1 1 1 1 
1 1 1 1 1 1 1 1 1 
1 1 1 1 1 1 1 1 1 
1 1 1 1 1 1 1 1 1 
1 1 1 1 1 1 1 1 1 
1 1 1 1 1 1 1 1 1 
1 1 1 1 1 1 1 1 1 
1 1 1 1 1 1 1 1 1 
1 1 1 1 1 1 1 1 1 
1 1 1 1 1 1 1 1 1 
1 1 1 1 1 1 1 1 1 
1 1 1 1 1 1 1 1 1 
1 1 1 1 1 1 1 1 1 
1 1 1 1 1 1 1 1 1 
1 1 1 1 1 1 1 1 1 
1 1 1 1 1 1 1 1 1 
1 1 1 1 1 1 1 1 1 
1 1 1 1 1 1 1 1 1 
1 1 1 1 1 1 1 1 1 
1 1 1 1 1 1 1 1 1 
1 1 1 1 1 1 1 1 1 
1 1 1 1 1 1 1 1 1 
1 1 1 1 1 1 1 1 1 
1 1 1 1 1 1 1 1 1 
1 1 1 1 1 1 1 1 1 
1 1 1 1 1 1 1 1 1 
1 1 1 1 1 1 1 1 1 
1 1 1 1 1 1 1 1 1 
1 1 1 1 1 1 1 1 1 
1 1 1 1 1 1 1 1 1 
1 1 1 1 1 1 1 1 1 
1 1 1 1 1 1 1 1 1 
1 1 1 1 1 1 1 1 1 

Label 4 1116 double
1 1 1 1 1 1 1 1 1 
1 1 1 1 1 1 1 1 1 
1 1 1 1 1 1 1 1 1 
1 1 1 1 1 1 1 1 1 
1 1 1 1 1 1 1 1 1 
1 1 1 1 1 1 1 1 1 
1 1 1 1 1 1 1 1 1 
1 1 1 1 1 1 1 1 1 
1 1 1 1 1 1 1 1 1 
1 1 1 1 1 1 1 1 1 
1 1 1 1 1 1 1 1 1 
1 1 1 1 1 1 1 1 1 
1 1 1 1 1 1 1 1 1 
1 1 1 1 1 1 1 1 1 
1 1 1 1 1 1 1 1 1 
1 1 1 1 1 1 1 1 1 
1 1 1 1 1 1 1 1 1 
1 1 1 1 1 1 1 1 1 
1 1 1 1 1 1 1 1 1 
1 1 1 1 1 1 1 1 1 
1 1 1 1 1 1 1 1 1 
1 1 1 1 1 1 1 1 1 
1 1 1 1 1 1 1 1 1 
1 1 1 1 1 1 1 1 1 
1 1 1 1 1 1 1 1 1 
1 1 1 1 1 1 1 1 1 
1 1 1 1 1 1 1 1 1 
1 1 1 1 1 1 1 1 1 
1 1 1 1 1 1 1 1 1 
1 1 1 1 1 1 1 1 1 
1 1 1 1 1 1 1 1 1 
1 1 1 1 1 1 1 1 1 
1 1 1 1 1 1 1 1 1 
1 1 1 1 1 1 1 1 1 
1 1 1 1 1 1 1 1 1 
1 1 1 1 1 1 1 1 1 
1 1 1 1 1 1 1 1 1 
1 1 1 1 1 1 1 1 1 
1 1 1 1 1 1 1 1 1 
1 1 1 1 1 1 1 1 1 
1 1 1 1 1 1 1 1 1 
1 1 1 1 1 1 1 1 1 
1 1 1 1 1 1 1 1 1 
1 1 1 1 1 1 1 1 1 
1 1 1 1 1 1 1 1 1 
1 1 1 1 1 1 1 1 1 
1 1 1 1 1 1 1 1 1 
1 1 1 1 1 1 1 1 1 
1 1 1 1 1 1 1 1 1 
1 1 1 1 1 1 1 1 1 
1 1 1 1 1 1 1 1 1 
1 1 1 1 1 1 1 1 1 
1 1 1 1 1 1 1 1 1 
1 1 1 1 1 1 1 1 1 
1 1 1 1 1 1 1 1 1 
1 1 1 1 1 1 1 1 1 
1 1 1 1 1 1 1 1 1 
1 1 1 1 1 1 1 1 1 
1 1 1 1 1 1 1 1 1 
1 1 1 1 1 1 1 1 1 
1 1 1 1 1 1 1 1 1 
1 1 1 1 1 1 1 1 1 
1 1 1 1 1 1 1 1 1 
1 1 1 1 1 1 1 1 1 
1 1 1 1 1 1 1 1 1 
1 1 1 1 1 1 1 1 1 
1 1 1 1 1 1 1 1 1 
1 1 1 1 1 1 1 1 1 
1 1 1 1 1 1 1 1 1 
1 1 1 1 1 1 1 1 1 
1 1 1 1 1 1 1 1 1 
1 1 1 1 1 1 1 1 1 
1 1 1 1 1 1 1 1 1 
1 1 1 1 1 1 1 1 1 
1 1 1 1 1 1 1 1 1 
1 1 1 1 1 1 1 1 1 
1 1 1 1 1 1 1 1 1 
1 1 1 1 1 1 1 1 1 
1 1 1 1 1 1 1 1 1 
1 1 1 1 1 1 1 1 1 
1 1 1 1 1 1 1 1 1 
1 1 1 1 1 1 1 1 1 
1 1 1 1 1 1 1 1 1 
1 1 1 1 1 1 1 1 1 
1 1 1 1 1 1 1 1 1 
1 1 1 1 1 1 1 1 1 
1 1 1 1 1 1 1 1 1 
1 1 1 1 1 1 1 1 1 
1 1 1 1 1 1 1 1 1 
1 1 1 1 1 1 1 1 1 
1 1 1 1 1 1 1 1 1 
1 1 1 1 1 1 1 1 1 
1 1 1 1 1 1 1 1 1 
1 1 1 1 1 1 1 1 1 
1 1 1 1 1 1 1 1 1 
1 1 1 1 1 1 1 1 1 
1 1 1 1 1 1 1 1 1 
1 1 1 1 1 1 1 1 1 
1 1 1 1 1 1 1 1 1 
1 1 1 1 1 1 1 1 1 
1 1 1 1 1 1 1 1 1 
1 1 1 1 1 1 1 1 1 
1 1 1 1 1 1 1 1 1 
1 1 1 1 1 1 1 1 1 
1 1 1 1 1 1 1 1 1 
1 1 1 1 1 1 1 1 1 
1 1 1 1 1 1 1 1 1 
1 1 1 1 1 1 1 1 1 
1 1 1 1 1 1 1 1 1 
1 1 1 1 1 1 1 1 1 
1 1 1 1 1 1 1 1 1 
1 1 1 1 1 1 1 1 1 
1 1 1 1 1 1 1 1 1 
1 1 1 1 1 1 1 1 1 
1 1 1 1 1 1 1 1 1 
1 1 1 1 1 1 1 1 1 
1 1 1 1 1 1 1 1 1 
1 1 1 1 1 1 1 1 1 
1 1 1 1 1 1 1 1 1 
1 1 1 1 1 1 1 1 1 
1 1 1 1 1 1 1 1 1 
1 1 1 1 1 1 1 1 1 
1 1 1 1 1 1 1 1 1 
1 1 1 1 1 1 1 1 1 
1 1 1 1 1 1 1 1 1 
1 1 1 1 1 1 1 1 1 
1 1 1 1 1 1 1 1 1 
1 1 1 1 1 1 1 1 1 
1 1 1 1 1 1 1 1 1 
1 1 1 1 1 1 1 1 1 
1 1 1 1 1 1 1 1 1 
1 1 1 1 1 1 1 1 1 
1 1 1 1 1 1 1 1 1 
1 1 1 1 1 1 1 1 1 
1 1 1 1 1 1 1 1 1 
1 1 1 1 1 1 1 1 1 
1 1 1 1 1 1 1 1 1 
1 1 1 1 1 1 1 1 1 
1 1 1 1 1 1 1 1 1 
1 1 1 1 1 1 1 1 1 
1 1 1 1 1 1 1 1 1 
1 1 1 1 1 1 1 1 1 
1 1 1 1 1 1 1 1 1 
1 1 1 1 1 1 1 1 1 
1 1 1 1 1 1 1 1 1 
1 1 1 1 1 1 1 1 1 
1 1 1 1 1 1 1 1 1 
1 1 1 1 1 1 1 1 1 
1 1 1 1 1 1 1 1 1 
1 1 1 1 1 1 1 1 1 
1 1 1 1 1 1 1 1 1 
1 1 1 1 1 1 1 1 1 
1 1 1 1 1 1 1 1 1 
1 1 1 1 1 1 1 1 1 
1 1 1 1 1 1 1 1 1 
1 1 1 1 1 1 1 1 1 
1 1 1 1 1 1 1 1 1 
1 1 1 1 1 1 1 1 1 
1 1 1 1 1 1 1 1 1 
1 1 1 1 1 1 1 1 1 
1 1 1 1 1 1 1 1 1 
1 1 1 1 1 1 1 1 1 
1 1 1 1 1 1 1 1 1 
1 1 1 1 1 1 1 1 1 
1 1 1 1 1 1 1 1 1 
1 1 1 1 1 1 1 1 1 
1 1 1 1 1 1 1 1 1 
1 1 1 1 1 1 1 1 1 
1 1 1 1 1 1 1 1 1 
1 1 1 1 1 1 1 1 1 
1 1 1 1 1 1 1 1 1 
1 1 1 1 1 1 1 1 1 
1 1 1 1 1 1 1 1 1 
1 1 1 1 1 1 1 1 1 
1 1 1 1 1 1 1 1 1 
1 1 1 1 1 1 1 1 1 
1 1 1 1 1 1 1 1 1 
1 1 1 1 1 1 1 1 1 
1 1 1 1 1 1 1 1 1 
1 1 1 1 1 1 1 1 1 
1 1 1 1 1 1 1 1 1 
1 1 1 1 1 1 1 1 1 
1 1 1 1 1 1 1 1 1 
1 1 1 1 1 1 1 1 1 
1 1 1 1 1 1 1 1 1 
1 1 1 1 1 1 1 1 1 
1 1 1 1 1 1 1 1 1 
1 1 1 1 1 1 1 1 1 
1 1 1 1 1 1 1 1 1 
1 1 1 1 1 1 1 1 1 
1 1 1 1 1 1 1 1 1 
1 1 1 1 1 1 1 1 1 
1 1 1 1 1 1 1 1 1 
1 1 1 1 1 1 1 1 1 
1 1 1 1 1 1 1 1 1 
1 1 1 1 1 1 1 1 1 
1 1 1 1 1 1 1 1 1 
1 1 1 1 1 1 1 1 1 
1 1 1 1 1 1 1 1 1 
1 1 1 1 1 1 1 1 1 
1 1 1 1 1 1 1 1 1 
1 1 1 1 1 1 1 1 1 
1 1 1 1 1 1 1 1 1 
1 1 1 1 1 1 1 1 1 
1 1 1 1 1 1 1 1 1 
1 1 1 1 1 1 1 1 1 
1 1 1 1 1 1 1 1 1 
1 1 1 1 1 1 1 1 1 
1 1 1 1 1 1 1 1 1 
1 1 1 1 1 1 1 1 1 
1 1 1 1 1 1 1 1 1 
1 1 1 1 1 1 1 1 1 
1 1 1 1 1 1 1 1 1 
1 1 1 1 1 1 1 1 1 
1 1 1 1 1 1 1 1 1 
1 1 1 1 1 1 1 1 1 
1 1 1 1 1 1 1 1 1 
1 1 1 1 1 1 1 1 1 
1 1 1 1 1 1 1 1 1 
1 1 1 1 1 1 1 1 1 
1 1 1 1 1 1 1 1 1 
1 1 1 1 1 1 1 1 1 
1 1 1 1 1 1 1 1 1 
1 1 1 1 1 1 1 1 1 
1 1 1 1 1 1 1 1 1 
1 1 1 1 1 1 1 1 1 
1 1 1 1 1 1 1 1 1 
1 1 1 1 1 1 1 1 1 
1 1 1 1 1 1 1 1 1 
1 1 1 1 1 1 1 1 1 
1 1 1 1 1 1 1 1 1 
1 1 1 1 1 1 1 1 1 
1 1 1 1 1 1 1 1 1 
1 1 1 1 1 1 1 1 1 
1 1 1 1 1 1 1 1 1 
1 1 1 1 1 1 1 1 1 
1 1 1 1 1 1 1 1 1 
1 1 1 1 1 1 1 1 1 
1 1 1 1 1 1 1 1 1 
1 1 1 1 1 1 1 1 1 
1 1 1 1 1 1 1 1 1 
1 1 1 1 1 1 1 1 1 
1 1 1 1 1 1 1 1 1 
1 1 1 1 1 1 1 1 1 
1 1 1 1 1 1 1 1 1 
1 1 1 1 1 1 1 1 1 
1 1 1 1 1 1 1 1 1 
1 1 1 1 1 1 1 1 1 
1 1 1 1 1 1 1 1 1 
1 1 1 1 1 1 1 1 1 
1 1 1 1 1 1 1 1 1 
1 1 1 1 1 1 1 1 1 
1 1 1 1 1 1 1 1 1 
1 1 1 1 1 1 1 1 1 
1 1 1 1 1 1 1 1 1 
1 1 1 1 1 1 1 1 1 
1 1 1 1 1 1 1 1 1 
1 1 1 1 1 1 1 1 1 
1 1 1 1 1 1 1 1 1 
1 1 1 1 1 1 1 1 1 
1 1 1 1 1 1 1 1 1 
1 1 1 1 1 1 1 1 1 
1 1 1 1 1 1 1 1 1 
1 1 1 1 1 1 1 1 1 
1 1 1 1 1 1 1 1 1 
1 1 1 1 1 1 1 1 1 
1 1 1 1 1 1 1 1 1 
1 1 1 1 1 1 1 1 1 
1 1 1 1 1 1 1 1 1 
1 1 1 1 1 1 1 1 1 
1 1 1 1 1 1 1 1 1 
1 1 1 1 1 1 1 1 1 
1 1 1 1 1 1 1 1 1 
1 1 1 1 1 1 1 1 1 
1 1 1 1 1 1 1 1 1 
1 1 1 1 1 1 1 1 1 
1 1 1 1 1 1 1 1 1 
1 1 1 1 1 1 1 1 1 
1 1 1 1 1 1 1 1 1 
1 1 1 1 1 1 1 1 1 
1 1 1 1 1 1 1 1 1 
1 1 1 1 1 1 1 1 1 
1 1 1 1 1 1 1 1 1 
1 1 1 1 1 1 1 1 1 
1 1 1 1 1 1 1 1 1 
1 1 1 1 1 1 1 1 1 
1 1 1 1 1 1 1 1 1 
1 1 1 1 1 1 1 1 1 
1 1 1 1 1 1 1 1 1 
1 1 1 1 1 1 1 1 1 
1 1 1 1 1 1 1 1 1 
1 1 1 1 1 1 1 1 1 
1 1 1 1 1 1 1 1 1 
1 1 1 1 1 1 1 1 1 
1 1 1 1 1 1 1 1 1 
1 1 1 1 1 1 1 1 1 
1 1 1 1 1 1 1 1 1 
1 1 1 1 1 1 1 1 1 
1 1 1 1 1 1 1 1 1 
1 1 1 1 1 1 1 1 1 
1 1 1 1 1 1 1 1 1 
1 1 1 1 1 1 1 1 1 
1 1 1 1 1 1 1 1 1 
1 1 1 1 1 1 1 1 1 
1 1 1 1 1 1 1 1 1 
1 1 1 1 1 1 1 1 1 
1 1 1 1 1 1 1 1 1 
1 1 1 1 1 1 1 1 1 
1 1 1 1 1 1 1 1 1 
1 1 1 1 1 1 1 1 1 
1 1 1 1 1 1 1 1 1 
1 1 1 1 1 1 1 1 1 
1 1 1 1 1 1 1 1 1 
1 1 1 1 1 1 1 1 1 
1 1 1 1 1 1 1 1 1 
1 1 1 1 1 1 1 1 1 
1 1 1 1 1 1 1 1 1 
1 1 1 1 1 1 1 1 1 
1 1 1 1 1 1 1 1 1 
1 1 1 1 1 1 1 1 1 
1 1 1 1 1 1 1 1 1 
1 1 1 1 1 1 1 1 1 
1 1 1 1 1 1 1 1 1 
1 1 1 1 1 1 1 1 1 
1 1 1 1 1 1 1 1 1 
1 1 1 1 1 1 1 1 1 
1 1 1 1 1 1 1 1 1 
1 1 1 1 1 1 1 1 1 
1 1 1 1 1 1 1 1 1 
1 1 1 1 1 1 1 1 1 
1 1 1 1 1 1 1 1 1 
1 1 1 1 1 1 1 1 1 
1 1 1 1 1 1 1 1 1 
1 1 1 1 1 1 1 1 1 
1 1 1 1 1 1 1 1 1 
1 1 1 1 1 1 1 1 1 
1 1 1 1 1 1 1 1 1 
1 1 1 1 1 1 1 1 1 
1 1 1 1 1 1 1 1 1 
1 1 1 1 1 1 1 1 1 
1 1 1 1 1 1 1 1 1 
1 1 1 1 1 1 1 1 1 
1 1 1 1 1 1 1 1 1 
1 1 1 1 1 1 1 1 1 
1 1 1 1 1 1 1 1 1 
1 1 1 1 1 1 1 1 1 
1 1 1 1 1 1 1 1 1 
1 1 1 1 1 1 1 1 1 
1 1 1 1 1 1 1 1 1 
1 1 1 1 1 1 1 1 1 
1 1 1 1 1 1 1 1 1 
1 1 1 1 1 1 1 1 1 
1 1 1 1 1 1 1 1 1 
1 1 1 1 1 1 1 1 1 
1 1 1 1 1 1 1 1 1 
1 1 1 1 1 1 1 1 1 
1 1 1 1 1 1 1 1 1 
1 1 1 1 1 1 1 1 1 
1 1 1 1 1 1 1 1 1 
1 1 1 1 1 1 1 1 1 
1 1 1 1 1 1 1 1 1 
1 1 1 1 1 1 1 1 1 
1 1 1 1 1 1 1 1 1 
1 1 1 1 1 1 1 1 1 
1 1 1 1 1 1 1 1 1 
1 1 1 1 1 1 1 1 1 
1 1 1 1 1 1 1 1 1 
1 1 1 1 1 1 1 1 1 
1 1 1 1 1 1 1 1 1 
1 1 1 1 1 1 1 1 1 
1 1 1 1 1 1 1 1 1 
1 1 1 1 1 1 1 1 1 
1 1 1 1 1 1 1 1 1 
1 1 1 1 1 1 1 1 1 
1 1 1 1 1 1 1 1 1 
1 1 1 1 1 1 1 1 1 
1 1 1 1 1 1 1 1 1 
1 1 1 1 1 1 1 1 1 
1 1 1 1 1 1 1 1 1 
1 1 1 1 1 1 1 1 1 
1 1 1 1 1 1 1 1 1 
1 1 1 1 1 1 1 1 1 
1 1 1 1 1 1 1 1 1 
1 1 1 1 1 1 1 1 1 
1 1 1 1 1 1 1 1 1 
1 1 1 1 1 1 1 1 1 
1 1 1 1 1 1 1 1 1 
1 1 1 1 1 1 1 1 1 
1 1 1 1 1 1 1 1 1 
1 1 1 1 1 1 1 1 1 
1 1 1 1 1 1 1 1 1 
1 1 1 1 1 1 1 1 1 
1 1 1 1 1 1 1 1 1 
1 1 1 1 1 1 1 1 1 
1 1 1 1 1 1 1 1 1 
1 1 1 1 1 1 1 1 1 
1 1 1 1 1 1 1 1 1 
1 1 1 1 1 1 1 1 1 
1 1 1 1 1 1 1 1 1 
1 1 1 1 1 1 1 1 1 
1 1 1 1 1 1 1 1 1 
1 1 1 1 1 1 1 1 1 
1 1 1 1 1 1 1 1 1 
1 1 1 1 1 1 1 1 1 
1 1 1 1 1 1 1 1 1 
1 1 1 1 1 1 1 1 1 
1 1 1 1 1 1 1 1 1 
1 1 1 1 1 1 1 1 1 
1 1 1 1 1 1 1 1 1 
1 1 1 1 1 1 1 1 1 
1 1 1 1 1 1 1 1 1 
1 1 1 1 1 1 1 1 1 
1 1 1 1 1 1 1 1 1 
1 1 1 1 1 1 1 1 1 
1 1 1 1 1 1 1 1 1 
1 1 1 1 1 1 1 1 1 
1 1 1 1 1 1 1 1 1 
1 1 1 1 1 1 1 1 1 
1 1 1 1 1 1 1 1 1 
1 1 1 1 1 1 1 1 1 
1 1 1 1 1 1 1 1 1 
1 1 1 1 1 1 1 1 1 
1 1 1 1 1 1 1 1 1 
1 1 1 1 1 1 1 1 1 
1 1 1 1 1 1 1 1 1 
1 1 1 1 1 1 1 1 1 
1 1 1 1 1 1 1 1 1 
1 1 1 1 1 1 1 1 1 
1 1 1 1 1 1 1 1 1 
1 1 1 1 1 1 1 1 1 
1 1 1 1 1 1 1 1 1 
1 1 1 1 1 1 1 1 1 
1 1 1 1 1 1 1 1 1 
1 1 1 1 1 1 1 1 1 
1 1 1 1 1 1 1 1 1 
1 1 1 1 1 1 1 1 1 
1 1 1 1 1 1 1 1 1 
1 1 1 1 1 1 1 1 1 
1 1 1 1 1 1 1 1 1 
1 1 1 1 1 1 1 1 1 
1 1 1 1 1 1 1 1 1 
1 1 1 1 1 1 1 1 1 
1 1 1 1 1 1 1 1 1 
1 1 1 1 1 1 1 1 1 
1 1 1 1 1 1 1 1 1 
1 1 1 1 1 1 1 1 1 
1 1 1 1 1 1 1 1 1 
1 1 1 1 1 1 1 1 1 
1 1 1 1 1 1 1 1 1 
1 1 1 1 1 1 1 1 1 
1 1 1 1 1 1 1 1 1 
1 1 1 1 1 1 1 1 1 
1 1 1 1 1 1 1 1 1 
1 1 1 1 1 1 1 1 1 
1 1 1 1 1 1 1 1 1 
1 1 1 1 1 1 1 1 1 
1 1 1 1 1 1 1 1 1 
1 1 1 1 1 1 1 1 1 
1 1 1 1 1 1 1 1 1 
1 1 1 1 1 1 1 1 1 
1 1 1 1 1 1 1 1 1 
1 1 1 1 1 1 1 1 1 
1 1 1 1 1 1 1 1 1 
1 1 1 1 1 1 1 1 1 
1 1 1 1 1 1 1 1 1 
1 1 1 1 1 1 1 1 1 
1 1 1 1 1 1 1 1 1 
1 1 1 1 1 1 1 1 1 
1 1 1 1 1 1 1 1 1 
1 1 1 1 1 1 1 1 1 
1 1 1 1 1 1 1 1 1 
1 1 1 1 1 1 1 1 1 
1 1 1 1 1 1 1 1 1 
1 1 1 1 1 1 1 1 1 
1 1 1 1 1 1 1 1 1 
1 1 1 1 1 1 1 1 1 
1 1 1 1 1 1 1 1 1 
1 1 1 1 1 1 1 1 1 
1 1 1 1 1 1 1 1 1 
1 1 1 1 1 1 1 1 1 
1 1 1 1 1 1 1 1 1 
1 1 1 1 1 1 1 1 1 
1 1 1 1 1 1 1 1 1 
1 1 1 1 1 1 1 1 1 
1 1 1 1 1 1 1 1 1 
1 1 1 1 1 1 1 1 1 
1 1 1 1 1 1 1 1 1 
1 1 1 1 1 1 1 1 1 
1 1 1 1 1 1 1 1 1 
1 1 1 1 1 1 1 1 1 
1 1 1 1 1 1 1 1 1 
1 1 1 1 1 1 1 1 1 
1 1 1 1 1 1 1 1 1 
1 1 1 1 1 1 1 1 1 
1 1 1 1 1 1 1 1 1 
1 1 1 1 1 1 1 1 1 

Long_Strain_Pt 1 1116 double
0.99854279736 0.99879854749 0.99590288806 0.99695399876 0.99863200574 0.99596102604 0.9994995447 0.99740518521 0.99932009497 
0.99774757349 0.9981233204 0.99784361461 0.99828447314 0.99808199659 0.99871548296 0.99860512769 0.99940645072 0.99907386761 
0.99865377148 0.99611981349 0.99867395276 0.99234761918 0.99918272944 0.98848445321 0.99727711195 0.98728030569 0.99667219758 
0.9899195004 0.99629649357 0.99385305411 0.98643834598 0.99586762477 0.98186079516 0.99719355763 0.98933688586 0.99754608917 
0.99479370844 0.99749175853 0.99800674193 0.99694795445 0.99923464869 0.9955229 0.99969652603 0.99382052106 0.99982036856 
0.99242250008 0.99984921594 0.99266684742 0.99964914713 0.99268673722 0.99959372635 0.99394993575 0.99962840465 0.99535794242 
0.99899600759 0.99743460555 0.99696048723 0.99687589355 0.99340555778 0.99708014909 0.99484795614 0.99773092549 0.99657399103 
0.99827736471 0.99839802632 0.99863991996 0.99915354319 0.9989774835 0.99933945684 0.99923294689 0.99900035876 0.99953379371 
0.99911403341 0.99924519088 0.99937271941 0.99892710877 0.99981283963 0.99877127828 0.99980399226 0.9979738824 0.9995032025 
0.99701722333 0.9987721997 0.99655870245 0.99759800138 0.99729769286 0.99493859341 0.99782847355 0.99044011123 0.99744952232 
0.98647111888 0.99605106227 0.98182148607 0.99445001024 0.97625123281 0.99265206764 0.96858127839 0.99419041718 0.96394093699 
0.99467397372 0.96101154243 0.99617899187 0.97506726398 0.99625365591 0.98662233658 0.99735523268 0.99399175501 0.99779550626 
0.99411466403 0.99779876044 0.99462213615 0.99789983417 0.99994331228 0.99971768927 0.99611987059 0.99716970454 0.99932787688 
0.99600676508 0.99872801395 0.99776089222 0.99826627561 0.99868776473 0.99790651124 0.99933043994 0.99854737952 0.99914347398 
0.99912781239 0.99853491176 0.99948368108 0.99769237976 0.99974660708 0.99649285699 0.99973634813 0.993488667 0.99974498771 
0.99226792142 0.99980532045 0.99011760828 0.9998705008 0.98896152193 0.99994258629 0.98907738069 0.99954783179 0.98972629567 
0.99890775935 0.9910274058 0.99831069362 0.99442081246 0.99799822176 0.99738565722 0.99848370483 0.99839502694 0.99899480121 
0.99831294785 0.9995235027 0.99734686338 0.99969194541 0.99684043679 0.99963817105 0.99662138543 0.99922099535 0.99569051906 
0.99708077868 0.99397321937 0.99554060748 0.99279415792 0.99576511348 0.99467435966 0.99740738093 0.99690913795 0.99878403929 
0.99779864854 0.99966491623 0.99718579983 0.99821525331 0.99606835568 0.99743555879 0.99519648177 0.99772079441 0.99407222398 
0.99850295768 0.99454722792 0.99897456234 0.99413951009 0.99917679683 0.99291654268 0.99770576115 0.99441760357 0.9971915269 
0.99648315684 0.99816415785 0.99803940403 0.99884740774 0.99885190898 0.99934981457 0.99886393982 0.99967205272 0.99935944109 
0.99984950462 0.99951156538 0.99989805958 0.99888964354 0.99979967915 0.99826499936 0.99894302502 0.99858474513 0.99873723976 
0.99925573498 0.99911329273 0.99858301745 0.99957899639 0.99814026981 0.99982524414 0.997658013 0.99951187931 0.99758291687 
0.99934616302 0.99681027956 0.99928871528 0.99290759903 0.99952678334 0.99110291015 0.99978561888 0.99101305536 0.99985784874 
0.99383492974 0.99990926585 0.99658587196 0.99560270289 0.99633055924 0.99624663522 0.99851661369 0.9994550433 0.99974230123 
0.99813999746 0.99597122324 0.99305552224 0.99326299424 0.99591380668 0.99562461741 0.99604009411 0.99750427039 0.9977419842 
0.99759451315 0.9964589544 0.99508330091 0.9930549561 0.99261320902 0.99364817917 0.99723088379 0.99621739835 0.99695699495 
0.99778893927 0.99856757318 0.9981198666 0.99673934911 0.99607752589 0.9968483737 0.99806204488 0.99862351629 0.99867629489 
0.99865214557 0.99871461542 0.99890047874 0.9985946653 0.99896713105 0.99916246533 0.99897551412 0.99879212701 0.99899456575 
0.99929106644 0.99886218077 0.99963932644 0.99940667527 0.99915571698 0.99900762402 0.99885223535 0.99826177621 0.99755650353 
0.99602898273 0.99545867275 0.99639302662 0.99804141506 0.99608678854 0.99833943003 0.99777530781 0.99813445658 0.99826792389 
0.99844398651 0.99891543373 0.99929688696 0.99836269605 0.99715207756 0.99721600242 0.99660219693 0.99422605229 0.99283013378 
0.99035650163 0.99100098869 0.9916751608 0.99411307732 0.99548244001 0.99762656179 0.9984326484 0.99897928535 0.99812523693 
0.99795101681 0.99811959947 0.99673463149 0.99622524689 0.99703991372 0.99788783755 0.99912890296 0.99922262559 0.99863814247 
0.99841803605 0.99765383423 0.99655869996 0.99559234717 0.99472900474 0.99381371018 0.99358912966 0.9954406135 0.99787016794 
0.9979268864 0.99850147451 0.99898234244 0.99936145113 0.99951750567 0.99962924163 0.99974292927 0.99979936536 0.99970580623 
0.99913988236 0.99805064854 0.99678835721 0.99664383136 0.99619971507 0.99539790266 0.99672443307 0.99681530247 0.99704850048 
0.99174220989 0.99069878933 0.99554795063 0.99845542402 0.99933057153 0.99721220705 0.99441402703 0.9915322802 0.99427027222 
0.99694224743 0.99942527448 0.99872623714 0.99656838553 0.99595184008 0.99647373912 0.9966052309 0.99687586181 0.99742796121 
0.99832483841 0.99865344151 0.99863492881 0.99767074497 0.99836250243 0.9982369279 0.99891944457 0.9996484283 0.99953622239 
0.99901661246 0.99871435897 0.99850300061 0.99875680229 0.99876063505 0.99917629422 0.99894168536 0.9987688505 0.99885780606 
0.99928393148 0.99947180593 0.99853982698 0.99824187029 0.99825962202 0.99800572196 0.99875788792 0.9980942186 0.99807108043 
0.99754859347 0.99785281018 0.99835242916 0.99869594178 0.998380704 0.99736064692 0.99497477226 0.99331170835 0.99415735732 
0.99641183198 0.99133459726 0.99872996938 0.99823373712 0.99649651775 0.99656518921 0.99908827967 0.99942068461 0.9977729211 
0.99704597559 0.99584524545 0.99506701062 0.99618224637 0.99594309446 0.99567211338 0.99360256519 0.99446181632 0.99512989903 
0.99590251228 0.99623902703 0.99504750177 0.99541524544 0.99605342123 0.99822974769 0.99910190148 0.99959689777 0.99961308218 
0.9991446578 0.99857874408 0.99790014915 0.99703050765 0.99629764098 0.99797316451 0.99905953576 0.99964985021 0.99969984232 
0.9994034574 0.9987297475 0.99879832265 0.99860365659 0.99880925778 0.99801162814 0.99702925425 0.99794998018 0.99817217108 
0.99811104591 0.99793196322 0.99811519865 0.998413988 0.99862851911 0.99872070258 0.99902951853 0.99952453371 0.99954868962 
0.99949223678 0.99863195165 0.99783324065 0.99719798791 0.99753927306 0.99813350974 0.99826290259 0.99775188371 0.99844044612 
0.9990514431 0.99174482143 0.9930783544 0.99106075776 0.98760896231 0.98705542941 0.99209109114 0.99651101219 0.99778923587 
0.99777448045 0.99816626545 0.99866127416 0.997798139 0.9972945302 0.99539361673 0.99435924768 0.99350546468 0.99385648763 
0.99606558962 0.99816022067 0.99888507585 0.99844455772 0.99634092473 0.99771998897 0.99858190554 0.9993072602 0.99936167394 
0.99861022165 0.99719620903 0.99602704028 0.99479401914 0.9973082491 0.9991905906 0.99883825119 0.99887466652 0.99875984532 
0.99871410921 0.99841585751 0.99802977135 0.9958826276 0.99769724589 0.99771571999 0.99779965562 0.99834531047 0.99922381243 
0.99956127085 0.99970896179 0.99985569407 0.9996210433 0.99920073224 0.99887412038 0.99930572494 0.99981228816 0.99973849995 
0.99930821916 0.99869795603 0.99875635943 0.99899919001 0.99944289248 0.9993004804 0.99920239142 0.9990587051 0.99756082593 
0.99498674653 0.99496786521 0.99427944945 0.99739044599 0.99223259928 0.9985847629 0.99936365319 0.99749690103 0.99707963079 
0.99632799256 0.99542021914 0.99555399155 0.99715927979 0.9981460274 0.99776383758 0.99674112623 0.99400750368 0.99147340945 
0.99082902981 0.99067984351 0.99113953648 0.9958279288 0.99574303935 0.9961309041 0.9980026686 0.99901513505 0.9985551811 
0.99857094148 0.99873721003 0.99803204635 0.9984427698 0.99900525986 0.99943563416 0.99881602044 0.99897693928 0.9992578309 
0.99953338594 0.99947704166 0.99857352321 0.99799018323 0.99833697211 0.99906506979 0.99936330276 0.99920611458 0.99848541663 
0.9982293479 0.99866675441 0.99917746577 0.99912634341 0.99943574637 0.99955630197 0.99970983146 0.99963541641 0.99930005113 
0.99829686928 0.9975530923 0.99737371616 0.99868265037 0.99900207177 0.99908734413 0.99870812597 0.9991919198 0.9990925393 
0.99382153736 0.99348587049 0.99033852206 0.99207261812 0.99469183796 0.9960610715 0.99879776286 0.99883817532 0.99853666236 
0.99821413148 0.99677286183 0.99620243928 0.99743439401 0.99743448764 0.99713725669 0.99814464809 0.99792390934 0.99769959424 
0.99782158405 0.99824757372 0.99820047556 0.9987994264 0.99833788321 0.9975526398 0.99699364035 0.99720385805 0.99648043939 
0.99695578705 0.99754491696 0.99829667254 0.99886781734 0.99936353122 0.99959507185 0.99948604332 0.99923951701 0.99908171151 
0.99631836329 0.99553620319 0.99547853544 0.99706226815 0.99597708364 0.99704838297 0.99749726491 0.99751784234 0.9976591842 
0.99682993841 0.99729620257 0.99874659721 0.99933799569 0.99944470331 0.99913841445 0.99905212874 0.99905419265 0.9992201946 
0.99935586448 0.99928957014 0.99858860842 0.99850099985 0.99852523826 0.9989047744 0.99833595214 0.99772697283 0.99752481798 
0.99613950986 0.99642308456 0.99736929391 0.99752699793 0.99743260702 0.99661948169 0.99630340714 0.99839326085 0.99670873209 
0.99782495164 0.99384009704 0.99846545529 0.99800460495 0.99819949085 0.99811717289 0.99862900106 0.99904678748 0.99872885738 
0.99893516951 0.9994287214 0.99910792103 0.99908321443 0.99914395736 0.9983076694 0.99845386746 0.99866373334 0.9989496764 
0.99928783609 0.99925625771 0.99885749633 0.99894267076 0.99931002039 0.99938741256 0.99945733566 0.99902451138 0.99884436934 
0.99910598565 0.99940199135 0.99958042339 0.9989939896 0.99893280973 0.99904659423 0.99935978049 0.99943322253 0.99928255992 
0.99836457016 0.99703577648 0.99539422171 0.9960952732 0.99673977932 0.99792612708 0.99726696491 0.99675685802 0.99754182716 
0.99858647377 0.99914605425 0.99883571094 0.998214146 0.99634900383 0.99482873237 0.99550489405 0.99583602945 0.99575732589 
0.99419878471 0.99202494613 0.98997929815 0.98887025334 0.98948679125 0.99071024459 0.99261057276 0.99665325381 0.99619831092 
0.99867461907 0.99575942946 0.99875013999 0.99814912313 0.99765870501 0.99687183792 0.99639020092 0.99654721384 0.99745118192 
0.99813723433 0.99836991597 0.99767506973 0.99624242197 0.9975087878 0.99517724904 0.99690052257 0.99740329349 0.9986327098 
0.99848743413 0.99752299024 0.99724810242 0.99706266184 0.99723917075 0.99772691387 0.99890190491 0.99956759684 0.99440610211 
0.99625276952 0.99337445608 0.99447595754 0.99552072993 0.99663588538 0.99866334737 0.99924585848 0.99867507001 0.99837969635 
0.99748291495 0.99819718509 0.99810828562 0.99731546852 0.99649455378 0.99761379707 0.99504623863 0.99858346684 0.99931760487 
0.99933119639 0.99456118343 0.99546327612 0.99711801428 0.99516747493 0.9931563781 0.99223534421 0.99599389516 0.99882152622 
0.99902542273 0.99891277831 0.99850727928 0.99831700477 0.99853138705 0.99922036473 0.99938370771 0.99921034621 0.99883754645 
0.9983167883 0.99749399095 0.9970717029 0.99673879409 0.99722162134 0.99767406317 0.99730963785 0.9964189456 0.99597281043 
0.99677637374 0.99754221745 0.99651361801 0.99748186505 0.99830225269 0.99912038838 0.99856357377 0.99838677021 0.99804843781 
0.99811498675 0.99834854518 0.99815644812 0.9985670342 0.99890003159 0.99920807653 0.99890725031 0.99814234567 0.99932650913 
0.9993808603 0.99977097164 0.99968962684 0.99962751617 0.99956253914 0.99966665785 0.99986882223 0.99944133178 0.99654677733 
0.99800516808 0.99879473397 0.99926169643 0.99911289353 0.99868865077 0.99863279315 0.99900720402 0.99940740758 0.99942069428 
0.9993319925 0.99872652145 0.99700824984 0.99476172718 0.99263340598 0.99368962303 0.99522484282 0.9974895729 0.99838285023 
0.9988837532 0.99910274535 0.99723452375 0.99451560187 0.99461315811 0.99604674636 0.99623613458 0.99482549229 0.99510785917 
0.99429646949 0.99234499398 0.99081884877 0.99048808505 0.99128252271 0.9929593653 0.99697580008 0.99851047013 0.99927961174 
0.99969534071 0.99880420748 0.99797256484 0.99874159229 0.99848721224 0.99174732881 0.99312851027 0.99465463529 0.99577716158 
0.99475931718 0.99714771706 0.99772410739 0.99788239944 0.99811279089 0.99848939081 0.99933068979 0.99955846477 0.99940463826 
0.99918579696 0.99865550406 0.99761094425 0.99752899051 0.99679535143 0.99888031369 0.99669432823 0.99560768389 0.99473950997 
0.9959099436 0.99860219081 0.99933235658 0.99966247513 0.99926831812 0.99826855508 0.99711784834 0.99618648211 0.99461544657 
0.99515754348 0.99599617507 0.99706089266 0.99664303819 0.99857290891 0.9980871886 0.99723547786 0.99732302653 0.99810136218 
0.99937455954 0.99872026353 0.99759855007 0.997160531 0.9978769342 0.99717981379 0.99605351949 0.99649794687 0.99674503365 
0.99694260425 0.99789803785 0.99636737909 0.99929203465 0.99828750517 0.99882345602 0.99887285275 0.99840545227 0.99808627202 
0.9976436165 0.99740774673 0.99726513307 0.99707300558 0.99741303549 0.99653978341 0.99684022962 0.9977266678 0.99695347868 
0.99871932397 0.99868280282 0.9985747548 0.99808115637 0.99809086795 0.99853727805 0.99914264013 0.99942183062 0.99929868 
0.99838166905 0.99791075161 0.99728122943 0.99828079235 0.99775145652 0.99863046414 0.99872417314 0.99885094203 0.99900737773 
0.9992684822 0.99945903908 0.99942928677 0.9995602804 0.99904367082 0.9984760453 0.9966728902 0.99523779047 0.99384073394 
0.99792672423 0.99803447137 0.99870682725 0.99590408227 0.99627043204 0.99955580358 0.99942819887 0.99803186102 0.99758452806 
0.99795702025 0.99781977694 0.99741459753 0.99676401884 0.99693892373 0.99768815873 0.99770271931 0.99761834908 0.99728706255 
0.99808868994 0.99793158862 0.99811881285 0.99792799456 0.99886677517 0.99866361504 0.99873417193 0.99781844199 0.99866919488 
0.99870277873 0.9989765923 0.99783687321 0.99587722043 0.99568417199 0.9971573625 0.99585116489 0.99804410925 0.99774818522 
0.99822012787 0.99884453739 0.99918693877 0.99880050842 0.99786374034 0.99690632751 0.99826948722 0.99831119306 0.99868220456 
0.99888322191 0.99889065067 0.99881717255 0.99852771203 0.9983172087 0.99825775233 0.99858156146 0.99774324025 0.9975259725 
0.99774409898 0.99819086872 0.9984189644 0.99874202249 0.99811200566 0.99743935344 0.99709197034 0.99689728875 0.99478837704 
0.99303659507 0.99844385602 0.99876644979 0.99914718309 0.99800182972 0.9946332385 0.99748195083 0.99725235743 0.997729614 
0.99908351041 0.99910213897 0.99882213636 0.9984974547 0.99796681316 0.99779808985 0.99756616691 0.99701488304 0.9954851175 
0.99617943821 0.99697352056 0.99822888764 0.99847451727 0.99825460965 0.99683658153 0.9969550352 0.99739487219 0.99791739194 
0.99860673361 0.99692856829 0.99872272041 0.99933685189 0.99960023418 0.99936729126 0.99937266143 0.99954859676 0.99956894484 
0.99957036725 0.99955292714 0.99942291279 0.99913855376 0.99925150616 0.99870703759 0.99958825151 0.99973599009 0.99985825453 
0.99918103359 0.99851686238 0.99784612899 0.99734023582 0.99731760027 0.99695225915 0.99722399161 0.9972413344 0.99762088708 
0.99701315437 0.99705538993 0.99753400824 0.99774097305 0.99765930486 0.99948958709 0.99940143651 0.99940965457 0.99906006565 
0.99910190972 0.99945026145 0.99934446384 0.99916457515 0.99796404429 0.99900989997 0.99913733833 0.99946856521 0.9995496586 
0.99942537037 0.99906226734 0.99906671292 0.99875712116 0.99839900913 0.99572406491 0.99755387422 0.99835846814 0.99916196675 
0.99817568527 0.99824806843 0.99921110327 0.99881506885 0.99857343928 0.99830893806 0.9978893606 0.99844197055 0.99880843371 
0.99792512222 0.99742840026 0.99765737514 0.99797939644 0.99843529677 0.99883076528 0.99812689307 0.99943322308 0.99797572387 

Longtudinal 3 1116 double
0.94597279298 0.22719994595 -0.23110201395 0.92549763259 0.29447106128 -0.22802035827 0.92044214334 0.30583886772 -0.21708935418 
0.9549942365 0.18854368628 -0.22706139425 0.90489490096 0.36269251913 -0.22257010292 0.8920301695 0.40128879642 -0.19859921337 
0.89668309032 0.38022959656 -0.22620026369 0.86894154339 0.46334086539 -0.16201194117 0.89584466902 0.38272686544 -0.22555066074 
0.85838301991 0.49508330958 -0.13197528391 0.90217073028 0.37061044165 -0.22074255063 0.85281548198 0.51231231973 -0.099236889701 
0.88334891912 0.43256043687 -0.16996969501 0.85556153884 0.51231477648 -0.072103639367 0.87615861337 0.45798170178 -0.14940998444 
0.86424532462 0.49844744668 -0.065686576304 0.88279366539 0.44013822529 -0.1641557916 0.87601151051 0.47656241784 -0.073188701348 
0.88210835754 0.438708056 -0.17145183188 0.88447091252 0.45874684757 -0.084618886283 0.88441029619 0.4372543007 -0.16233461402 
0.87392112823 0.47173256713 0.007773769807 0.88911956342 0.43464742081 -0.14297388433 0.86702379229 0.47703751927 0.078730838006 
0.89262432955 0.41555342182 -0.17315731003 0.88177095567 0.44578346311 0.10589525503 0.90777934916 0.39204453502 -0.12769840372 
0.8973084999 0.41307203386 0.12663302726 0.9277120772 0.36766941647 -0.045631373069 0.91493786601 0.37220706729 0.15382842773 
0.90185789371 0.37421216523 -0.18056973459 0.92862839962 0.34033917243 0.14354019667 0.89187417065 0.37279892712 -0.24837095324 
0.94001550787 0.3183034465 0.10790584602 0.9181168154 0.35322512534 -0.16292300564 0.94105996776 0.32726968228 0.010271801699 
0.92396417453 0.35435505695 -0.13818940457 0.93449559686 0.34529199089 -0.071668045867 0.90714851116 0.37849075495 -0.18092093387 
0.91665310704 0.37603962695 -0.12818128762 0.91429992034 0.3591174355 -0.18410775357 0.92090521641 0.3619879922 -0.13889352811 
0.93019630774 0.32385104911 -0.17275893802 0.9372942441 0.3187564751 -0.12169937249 0.93302374758 0.31170580423 -0.1793368216 
0.96037722384 0.24839339647 -0.09299063156 0.9361684382 0.29904484193 -0.18458873592 0.96803421912 0.21169246965 -0.11475355009 
0.94007762941 0.28514112061 -0.1866453728 0.9757860431 0.17415699397 -0.12314113968 0.93557768356 0.28991698983 -0.20031364121 
0.98205459896 0.12602663809 -0.13180561125 0.9254838536 0.30727191361 -0.2214955529 0.98546508344 0.088573795943 -0.14236416074 
0.92860738013 0.30626217213 -0.20930310417 0.97361370054 0.12990945138 -0.17989743342 0.93878522747 0.26018992626 -0.21467960893 
0.95505941689 0.19763475946 -0.20452580278 0.95660203232 0.16532055805 -0.2390811187 0.93118904216 0.27733069544 -0.22967822088 
0.93252409963 0.24880657675 -0.25356840585 0.92270655695 0.29635331497 -0.24355798662 0.90550146152 0.3312015874 -0.25910366418 
0.91484367315 0.30618506724 -0.26201360016 0.87769973085 0.4044431252 -0.25696995915 0.90735746345 0.30742308877 -0.28562710111 
0.8770166464 0.38988102682 -0.2801132485 0.90187218934 0.29921777866 -0.31076666018 0.87561197011 0.37679485259 -0.30173670248 
0.89659828865 0.29345408483 -0.33096703071 0.87355850286 0.36491875757 -0.32203323022 0.89174058103 0.28082997046 -0.3539749752 
0.87520017385 0.32310499454 -0.35768614491 0.89087046709 0.28329273224 -0.3545090878 0.87573383506 0.29725785998 -0.38038068047 
0.88871605364 0.27925505927 -0.36167417959 0.87488118483 0.29138773317 -0.38686204735 0.88315521938 0.24213092292 -0.40086524813 
0.87660336437 0.26720341617 -0.39956268708 0.86950021748 0.2219244302 -0.43970864838 0.87568070865 0.2534515908 -0.41092949111 
0.84896708685 0.20426486162 -0.48597974735 0.86908317562 0.26426713496 -0.4181176206 0.81883927742 0.19802240945 -0.53469671034 
0.85247745469 0.27108147977 -0.44625132302 0.75873377112 0.21457511331 -0.61046449964 0.85164326573 0.28078188329 -0.44085771083 
0.70253524248 0.25466908079 -0.6629059169 0.87298974819 0.29493217578 -0.3883715531 0.66435443423 0.32386274384 -0.67321181513 
0.87210967514 0.3182521377 -0.37120953114 0.62960788674 0.40705816266 -0.65725275846 0.87930756614 0.3306624587 -0.34153482977 
0.61156566022 0.47108275817 -0.63163924478 0.89525369013 0.33008196579 -0.29665486916 0.60991788089 0.5257750641 -0.58920609641 
0.92436319759 0.30471579855 -0.22315649614 0.63449702871 0.56845070331 -0.52001532165 0.94347071376 0.27770827335 -0.17766173856 
0.65766327805 0.60075650792 -0.44772800688 0.9569296949 0.24977380595 -0.14798177209 0.68286176588 0.62993984172 -0.36870100847 
0.92985027728 0.32297750773 -0.16455509025 0.74876561147 0.58585130672 -0.29812767644 0.90162517403 0.3896288261 -0.1826123145 
0.80973078186 0.53040639504 -0.24191203061 0.87148239105 0.44531258699 -0.20315334113 0.86544183454 0.44742790315 -0.21146115148 
0.91636478014 0.31981429852 -0.2046548628 0.91400034702 0.34785664909 -0.19874593241 0.95304246803 0.2174137619 -0.21028744979 
0.9430290418 0.25812598221 -0.20358451229 0.89209596517 0.41236790992 -0.18451349752 0.88919414642 0.41054954409 -0.20150325299 
0.89660704128 0.38757041679 -0.19705306185 0.86810062195 0.45176153832 -0.20014725138 0.8771981789 0.42040535596 -0.22884982487 
0.93460208235 0.30621336419 -0.18076614147 0.85319445197 0.44507373753 -0.27049759507 0.93023074731 0.31505850186 -0.18800509879 
0.87658872014 0.40439619447 -0.2529127526 0.93279930622 0.31021230268 -0.18306667656 0.9109210993 0.34830880975 -0.21955430075 
0.93748941843 0.30104601725 -0.17442732413 0.93725129873 0.29843541019 -0.16545642135 0.94088140901 0.29291464463 -0.16929392564 
0.95676436898 0.26082440873 -0.12780117559 0.94387550559 0.28214389604 -0.16615174072 0.95094654209 0.26877768174 -0.15124300616 
0.95906298986 0.24606020311 -0.12307924572 0.94625155776 0.27039634875 -0.17606551134 0.97004842481 0.22006863991 -0.097388372997 
0.94485692624 0.25339581175 -0.20494621086 0.97216863988 0.21544880222 -0.090258932759 0.94208635686 0.24034940537 -0.23320656895 
0.96795041923 0.21525088814 -0.11193727572 0.9355521811 0.23811874257 -0.25977010557 0.95555743965 0.21764995122 -0.18589408114 
0.92974137887 0.23635811377 -0.28205844836 0.94498773137 0.21505732062 -0.24504978335 0.92496098453 0.23526702392 -0.29825700028 
0.93803762051 0.20446492772 -0.27840167265 0.9303249108 0.20412870187 -0.30205032867 0.93577005593 0.18608122842 -0.29884397588 
0.9410195369 0.15720097593 -0.29932488409 0.93262902678 0.17159634473 -0.31729243252 0.92466125133 0.11937365259 -0.35639271438 
0.91843643261 0.12551321172 -0.36984650635 0.9186020917 0.10042174955 -0.37756432448 0.91421479076 0.095009451608 -0.3900281258 
0.94526315054 0.13355414775 -0.28932792883 0.93359554331 0.099380100634 -0.34144815005 0.95628893855 0.11788580252 -0.26439594729 
0.94662177048 0.0826554981 -0.30776615845 0.95656795449 0.068674676193 -0.28297572305 0.95537567971 0.057362677711 -0.28419938428 
0.97038018833 0.07715561224 -0.2230556247 0.96996102377 0.099437432105 -0.20960148433 0.98157027459 0.089537455813 -0.16581624604 
0.97799287383 0.15138457637 -0.14325878064 0.98708972615 0.10430536033 -0.1194010814 0.97990133832 0.15304977765 -0.12747730904 
0.9883867732 0.047515285746 -0.13325781896 0.98126748791 0.084581641565 -0.13752914795 0.98181368317 0.058139073388 -0.14965241792 
0.98232297522 0.09785695861 -0.13806583536 0.96172111405 0.22322892099 -0.14926464751 0.97454293902 0.13527718886 -0.15428250655 
0.9705388068 0.12768762767 -0.18371794299 0.97672044459 0.11717740092 -0.17119614537 0.97470650265 0.087491829267 -0.2015265302 
0.9732657007 0.11522697904 -0.19301204436 0.96974027358 0.14673807477 -0.19426580251 0.96206526565 0.16045551175 -0.2134076601 
0.97233715225 0.1590205953 -0.1699505511 0.97235663508 0.13948109176 -0.16942496322 0.98150291607 0.12931975154 -0.11011079115 
0.97921789417 0.13967060394 -0.12340217144 0.99842611743 0.049917962256 -0.0062143913453 0.98862854182 0.12935256467 -0.068824795276 
0.99576431001 0.011877755872 0.0712909406 0.99279378948 0.10595689442 0.0017615127745 0.99203925199 0.034812182487 0.10830701495 
0.99240781666 0.10367934907 0.047337025922 0.98783941085 0.10771401776 0.11212042075 0.98788882892 0.1201689447 0.071166001611 
0.98336745463 0.1530312909 0.089411171973 0.98138282687 0.17883716599 0.0033609253727 0.97586442128 0.19764441357 0.024701633164 
0.97165603867 0.22598563952 -0.066873783305 0.96365110744 0.24116328954 -0.10527617082 0.96619214465 0.23794202416 -0.098139307344 
0.97058908791 0.22513215596 -0.07890423749 0.9583982445 0.24963576175 -0.1355912497 0.96697245748 0.23391373656 -0.086589214171 
0.9508045086 0.25854370247 -0.16997429798 0.94963567314 0.27647922378 -0.14741243205 0.94686391154 0.26300477996 -0.18504988274 
0.94166683011 0.30016790189 -0.15121340456 0.94382042378 0.27308014938 -0.18588009923 0.93198473976 0.32043403459 -0.16770593487 
0.93176814659 0.28529276246 -0.22092145226 0.92145478619 0.3361998454 -0.19452135311 0.9173211716 0.26676309645 -0.29405104392 
0.92215248602 0.32028697064 -0.21609022258 0.9164552537 0.28568779274 -0.27752301694 0.91778904691 0.34198593864 -0.19076280948 
0.91836302455 0.3177351664 -0.23429277781 0.90890124908 0.39730766848 -0.12351289477 0.9170514284 0.34705973178 -0.19528053512 
0.90039865242 0.42190300006 -0.10352539409 0.91577261655 0.34567882952 -0.20403237728 0.88973574023 0.44362023204 -0.10319439944 
0.91144442416 0.35182943786 -0.21084356103 0.87365311817 0.46371358638 -0.14308185293 0.90081164833 0.38538630594 -0.19677201937 
0.8771026366 0.44610860592 -0.17263452553 0.8786398928 0.43195660795 -0.18732610909 0.89487479221 0.40085997978 -0.19460885224 
0.87031607758 0.4548775351 -0.18316687202 0.8840638003 0.42695417278 -0.18644278744 0.83269744655 0.51411423147 -0.17915756296 
0.87126111644 0.45867974647 -0.17462399439 0.80010227205 0.56528452073 -0.17303915426 0.87662004158 0.44944581744 -0.17167594379 
0.79414128303 0.57524136562 -0.18447259991 0.88365752651 0.43364660898 -0.17533677833 0.82079534828 0.5323707652 -0.19772156207 
0.90799879968 0.35701591328 -0.19358284377 0.94336812714 0.23069735205 -0.22867890151 0.87422318648 0.46144073707 -0.14810391379 
0.85611528634 0.50430424622 -0.099252787692 0.84883630291 0.52437785163 -0.062630188515 0.8556743087 0.51501826723 -0.046250153995 
0.86609753406 0.49717750623 -0.041907189958 0.87639625201 0.47730953077 -0.033959342042 0.86883717973 0.48880380532 0.041439884416 
0.84305696045 0.49626119931 0.17493514748 0.81598914466 0.48797343445 0.30832360747 0.83482341827 0.44125027173 0.32678111814 
0.86514076982 0.39813160556 0.29679213849 0.90143461851 0.35659791487 0.23779448407 0.92497554964 0.34232912568 0.15843118414 
0.93936857754 0.32086285541 0.11743475818 0.94001554525 0.33056615345 0.053520421601 0.94399379078 0.31828451969 0.019601554173 
0.95821408583 0.26432498215 0.05217340011 0.97124827937 0.19255361774 0.062130676312 0.98658749071 0.097274600588 0.096562666887 
0.99363130201 -0.010668381914 0.094768657512 0.99791813751 -0.00051163336659 0.0076206878799 0.99652850875 0.017274150443 -0.054565312494 
0.99357254114 0.04250571006 -0.098724869607 0.99109924059 0.036242770832 -0.12550627056 0.98635887677 0.038832020846 -0.15488458117 
0.97690138318 0.053917059639 -0.19681046541 0.96383775887 0.0891086047 -0.23720247791 0.9482250364 0.16843770681 -0.26569121084 
0.93451284242 0.21987374843 -0.279483001 0.92067847465 0.2585660955 -0.29057832919 0.91297422596 0.26785170553 -0.30495378954 
0.90677363904 0.27334047999 -0.31634370008 0.9030493337 0.23487507604 -0.35623128599 0.89090549432 0.20399400249 -0.40175329062 
0.88945817562 0.20541108116 -0.40617058852 0.88446898003 0.20322200931 -0.41828227696 0.87766992627 0.20116341115 -0.43313420418 
0.86044696789 0.1725405452 -0.47820029341 0.81329733924 0.17115204096 -0.55335886233 0.76658519706 0.20111802589 -0.60744971232 
0.7144902848 0.24761994396 -0.65268129016 0.65175163883 0.33922842875 -0.67664876198 0.63186349577 0.43993263458 -0.63464421273 
0.62461435784 0.50830477928 -0.58961589935 0.60284934251 0.56809112852 -0.55807069491 0.62756293117 0.60023796968 -0.49225862991 
0.66431521659 0.61211336773 -0.4228035523 0.70296459509 0.61574539203 -0.35284665498 0.7262646865 0.61124367662 -0.31038765206 
0.77077949824 0.57901342345 -0.25610390766 0.85950612185 0.4578462758 -0.21039090941 0.9234594152 0.32552634911 -0.18979974571 
0.9547517751 0.22258283335 -0.19260555184 0.96087857945 0.16594621615 -0.22109339283 0.89673292927 0.37859936454 -0.22705336466 
0.86227933149 0.44513224589 -0.22899162474 0.91027272728 0.3465697357 -0.22286378835 0.91070453758 0.34483045689 -0.21941158018 
0.93134903187 0.31094197112 -0.18930068844 0.93911751404 0.2969630912 -0.17036034639 0.95011421921 0.27660409558 -0.14089792415 
0.96301869037 0.2416947365 -0.10863805205 0.97083118904 0.21643726487 -0.097665826086 0.96186418821 0.22484948249 -0.14811970058 
0.94553181457 0.22942513937 -0.21836579275 0.90922614234 0.21851842472 -0.34253270065 0.87887822919 0.19426179551 -0.43203276662 
0.85310276375 0.14934225538 -0.49671126928 0.82279481021 0.10340711807 -0.5552968354 0.82288039062 0.065715660123 -0.56197761655 
0.84176723104 0.043781162625 -0.53210532532 0.86164724284 0.021690583139 -0.49892422387 0.89934778652 0.03485669641 -0.42736503745 
0.92060205751 0.0052652462405 -0.38694518058 0.94828941601 0.017552312063 -0.31568692539 0.96433501206 0.023270574974 -0.26038189379 
0.97526294807 0.055181695398 -0.20371215102 0.98140351646 0.098177683932 -0.1567226357 0.98372434934 0.0024613740644 -0.1679540737 
0.98491392481 -0.014776986231 -0.1712227283 0.98221449053 -0.058964370062 -0.17616463369 0.9811262571 -0.01103004067 -0.18793242832 
0.97979092306 0.027613986327 -0.19301197831 0.98201338204 0.035868188037 -0.18116673431 0.99002160491 0.020940703402 -0.13557090089 
0.99504526363 0.025142638326 -0.080827361371 0.9987895096 0.028488438834 -0.017783062959 0.99516838182 0.0094792768968 0.070001867018 
0.98598268082 -0.0084500811665 0.15720721559 0.97757670751 0.0072486745897 0.2085300178 0.98281600923 0.096131422725 0.12366870033 
0.98111166693 0.15974124144 0.050492893672 0.97167298924 0.21544710228 -0.045867748963 0.96589674098 0.23673139249 -0.081673094665 
0.96051256276 0.25097220604 -0.11347029496 0.95785851563 0.26034636589 -0.12024133867 0.94735453111 0.27163771577 -0.16522100832 
0.9369824766 0.28362613974 -0.20291578033 0.92939809338 0.29697110068 -0.21698121162 0.92184015975 0.30832038236 -0.23327091472 
0.91370161574 0.32241737067 -0.24624224079 0.91052262155 0.34603994487 -0.22535874583 0.91070588213 0.3415566769 -0.23212544465 
0.9060540544 0.35770892785 -0.22464658315 0.89343124902 0.39823871704 -0.20444747159 0.87086705116 0.44811570188 -0.19004940072 
0.82888320218 0.53078937515 -0.16397514025 0.76513727965 0.61783827491 -0.15308299548 0.69205553848 0.70459894876 -0.15191127074 
0.71740700209 0.66761279975 -0.19409836528 0.76773316185 0.59881743783 -0.21755617019 0.81902910476 0.52495554003 -0.2301502306 
0.89492186474 0.41635266846 -0.15052262355 0.92761651839 0.26316015185 -0.20201938942 0.87712829597 0.4631764643 -0.10140998041 
0.87277503858 0.48162506469 -0.067572043304 0.8756572967 0.48055618349 -0.039962497826 0.88092654399 0.47255107847 -0.016795908303 
0.87041038018 0.47908438405 0.05220994601 0.8230509831 0.51494648624 0.21832841035 0.81453761349 0.49750918565 0.29449297322 
0.81403589963 0.46490206438 0.34664211836 0.82119914927 0.41880597741 0.38602499621 0.8466348526 0.37524995379 0.37248136818 
0.87644575634 0.3335592338 0.34457998986 0.90258331632 0.32283886941 0.25111085929 0.93845150506 0.33209703061 0.087213592329 
0.94319900809 0.32626588734 0.055691313496 0.95057552472 0.29929577267 0.060565096301 0.96388085728 0.22449441182 0.12410779495 
0.97397099478 0.14510725894 0.15839304291 0.98190652307 0.074451584092 0.15861287477 0.98965820869 0.051935060874 0.1219137934 
0.99392329291 -0.10451031586 0.014053880024 0.99349165411 -0.089430969968 0.059280808703 0.99538018686 -0.051392700773 -0.044517905048 
0.99430821783 -0.0085185875228 -0.1004745537 0.98862066909 0.0065162811683 -0.14692455022 0.9816348203 0.020836917965 -0.1865416743 
0.97413854091 0.034209819977 -0.22286436513 0.96123129691 0.074183923348 -0.26058379593 0.94880532956 0.11331754662 -0.28656553136 
0.93512420001 0.18976607009 -0.29336426343 0.92729056024 0.20796806976 -0.31024765161 0.92264508969 0.22212682704 -0.31388868234 
0.91517334512 0.21937985605 -0.33676245522 0.90359071918 0.19596753316 -0.37711038096 0.89239783584 0.15428972225 -0.4237840098 
0.88855934215 0.16013187056 -0.42958043965 0.88308255886 0.16572368145 -0.43842128897 0.87611047728 0.1805751862 -0.44592033588 
0.83674248932 0.17688035081 -0.51360992503 0.79847439351 0.20146814891 -0.5627926858 0.78073624127 0.24351641007 -0.57449251359 
0.76569078457 0.30551317502 -0.56211728764 0.58894285838 0.5548712561 -0.58391026867 0.58874710868 0.50231367878 -0.62934834462 
0.6040578809 0.60062941378 -0.52238215703 0.6849034242 0.58578916498 -0.42134389163 0.74033804787 0.57500520351 -0.34704180927 
0.74952920914 0.58147365897 -0.31501280556 0.77207921428 0.56568167943 -0.28537036303 0.80568753409 0.53613447304 -0.25138433914 
0.82229545246 0.52726745984 -0.21239356831 0.88199263375 0.4229912536 -0.18096849584 0.93568802901 0.2967448017 -0.17185771351 
0.95314238524 0.23388478374 -0.18636310682 0.95913479691 0.13427555317 -0.24091941257 0.99495351204 -0.034162135659 0.090226700653 
0.9934501383 0.093516653464 0.053544560884 0.68850990772 0.41834409257 -0.58623821882 0.77192642856 0.36732698095 -0.51598115174 
0.87041188159 0.40731666443 -0.27570698081 0.87771211022 0.40508600305 -0.25521062451 0.87639966955 0.3953838371 -0.27451158852 
0.89459721594 0.36511603957 -0.25242005849 0.91596691184 0.33015019783 -0.22067543249 0.93508989393 0.29718796587 -0.19219148729 
0.94607264686 0.26860244647 -0.17874241819 0.95220225614 0.24104369717 -0.17310637442 0.9260422735 0.24196503328 -0.25452342186 
0.91313588116 0.24276777857 -0.31346247776 0.87028672002 0.21917410355 -0.41684092342 0.83163571176 0.19326420835 -0.5123085355 
0.79059481326 0.13888636412 -0.58164289313 0.7564334173 0.085891863871 -0.64749302182 0.76461285016 0.044248704495 -0.6421470113 
0.80618236965 0.030006535174 -0.58544149082 0.8917314243 0.078086691127 -0.44075489102 0.91191505108 0.052716943326 -0.4064911436 
0.92951029484 0.039317717842 -0.36386664127 0.9473674436 0.032210258968 -0.31740759542 0.96139434391 0.033752133238 -0.27070850839 
0.97219485036 0.060698392423 -0.21946267937 0.97780760434 0.11327144097 -0.17188786916 0.97925178189 0.12199346029 -0.16045237151 
0.98072387255 0.088039015244 -0.16459292002 0.98305516532 0.012244227665 -0.18084856857 0.97998980066 -0.051848806316 -0.19147254605 
0.98190084582 -0.036071039455 -0.18540498432 0.98514012818 -0.023995101317 -0.16819567629 0.98981112242 -0.0040850129495 -0.14081025894 
0.99539768167 0.0068559902776 -0.079454884754 0.99842543742 0.013632450185 -0.017194204283 0.99251093368 -0.020285438731 0.082941813161 
0.98631213985 -0.037096283083 0.15652552138 0.98484028773 0.0076032906784 0.17125970695 0.98584450744 0.0675073752 0.14067781862 
0.98391333722 0.12653383407 0.097560126063 0.97736824086 0.19939659323 0.0058610995466 0.9727306186 0.22901225128 0.015172129081 
0.96755259044 0.24847724773 0.025992132047 0.960581411 0.27560046492 -0.026604542702 0.95210810817 0.28907805435 -0.074076256404 
0.94168339073 0.30294859057 -0.14136768693 0.92836480537 0.31373800632 -0.19427293644 0.91915501407 0.32308638286 -0.22276139959 
0.91131007158 0.33061435048 -0.24478129032 0.90254738412 0.36090490045 -0.23337782539 0.9015561163 0.36534969523 -0.23150094304 
0.90245820897 0.36179836389 -0.23368549253 0.88265012608 0.42138558779 -0.20009232809 0.85516107389 0.48569605258 -0.1687689944 
0.80800525392 0.567724005 -0.14004909014 0.79367994878 0.59021468573 -0.14545884694 0.75494608508 0.63314570825 -0.15803826729 
0.76218002414 0.6172363948 -0.17811756341 0.81442359836 0.54056971664 -0.20086812961 0.84498994498 0.48522995114 -0.22117917516 
0.86747075899 0.43559858144 -0.23702706437 0.72859385824 0.45249253507 -0.49860113907 0.81922177139 0.39135657742 -0.40848934405 
0.66284238518 0.51371405486 -0.53258330406 0.66497366061 0.55574261562 -0.48733893886 0.69947223791 0.57113316493 -0.41163363534 
0.79617245589 0.5291398522 -0.29104221552 0.79864829027 0.5330765305 -0.27706950514 0.82579794706 0.49815355575 -0.25665126837 
0.8459940647 0.47420389373 -0.2394344985 0.83683642375 0.4901907303 -0.2405139971 0.82296522696 0.52484389611 -0.21211358377 
0.83804119282 0.5174907573 -0.16977487579 0.88619462419 0.43786145638 -0.12397939768 0.93990047075 0.28586434144 -0.15491992115 
0.95577750487 0.22210422978 -0.18551414635 0.94676930334 0.2461494373 -0.20405188504 0.92588655399 0.32463957405 -0.17601005336 
0.90487602151 0.40649664405 -0.12217686127 0.89157226845 0.4448789752 -0.067447368745 0.88716349 0.45986133931 -0.025349123347 
0.87746591571 0.47147293683 0.040342372051 0.86728411481 0.48234754224 0.11116489294 0.84695322382 0.48354341754 0.21127479463 
0.82465883744 0.46932141893 0.30694092513 0.81972123096 0.43998423456 0.36446088882 0.82750536471 0.39944729248 0.39170384555 
0.84691487798 0.36142832621 0.38649953686 0.87603887614 0.32711560502 0.35179641733 0.90479028293 0.31764069433 0.26390370401 
0.93450181312 0.32148823394 0.14594568537 0.943479592 0.31177895513 0.10397892088 0.95226153355 0.29689623071 0.065357303554 
0.96657615641 0.23191091936 0.099361338334 0.97519306304 0.18557417143 0.10904211886 0.98214141285 0.14125777812 0.10594598806 
0.98791333645 0.13096483177 0.080068892639 0.98705743347 0.15197914466 0.027321501497 0.98928739778 0.13977087509 0.0063673977981 
0.96524553805 0.23894224181 -0.057684568587 0.99730944064 0.064377145926 0.026206672407 0.99702631019 -0.031310767851 0.028707008136 
0.99718107314 -0.052166234178 0.00412789398 0.99765658811 -0.0052272986147 -0.048183717861 0.99449691111 0.024176765479 -0.093878426905 
0.99034363703 0.022452303805 -0.13387168628 0.98453428756 0.023528820891 -0.16926799805 0.97707603778 0.027302002693 -0.21039148298 
0.96618838666 0.040538137643 -0.25196254717 0.95686567096 0.071498906583 -0.27817829578 0.95066581194 0.13587157026 -0.27631660187 
0.9405576292 0.19433228714 -0.27585475524 0.93293622534 0.23335613683 -0.27404819224 0.93042809842 0.22932626381 -0.28523455407 
0.9245478019 0.21745441556 -0.31034907809 0.91632248862 0.19163440587 -0.35076312104 0.90421424251 0.1662684339 -0.39046173888 
0.89062812778 0.15385675432 -0.42691758176 0.87541952988 0.15728542742 -0.45682730403 0.86283882467 0.18549924944 -0.46949220303 
0.8411770654 0.2145448762 -0.49400454725 0.80516570169 0.24497835423 -0.53791288808 0.79738363582 0.30003755219 -0.52246117016 
0.83696147509 0.33676688611 -0.42272999642 0.86903477431 0.37230260245 -0.3209681775 0.86986352355 0.39311559486 -0.28993318963 
0.89122794683 0.37027404867 -0.25938634929 0.83408660488 0.41043821325 -0.34753674827 0.8558279349 0.41555943483 -0.30662117522 
0.86034894579 0.41992473617 -0.28827496702 0.83875704888 0.42356637863 -0.3419912269 0.84855301174 0.39952500105 -0.34456707469 
0.85888916396 0.37259302074 -0.34755306038 0.85959500368 0.34665609747 -0.36758113995 0.87983644103 0.30834780048 -0.35862709558 
0.87545031258 0.28614692593 -0.38670412919 0.86480242114 0.26626071478 -0.42332101415 0.83887772519 0.24076535709 -0.48441563449 
0.82736875719 0.21675626785 -0.51669244059 0.82016986161 0.18017390437 -0.53727794703 0.81764817635 0.14787795968 -0.54710301343 
0.8583828455 0.14504716383 -0.48011076672 0.89751548529 0.15831669788 -0.40142823169 0.92560059388 0.19088097577 -0.32214042497 
0.93539202192 0.11387387773 -0.31783737188 0.92629268692 0.11498570263 -0.35056249866 0.94748650211 0.080628006195 -0.30005554453 
0.95812106744 0.069761337333 -0.2736372736 0.9683612372 0.076844952538 -0.23604162709 0.97452473541 0.059982604619 -0.2150267161 
0.97800683167 0.062742746032 -0.19684916508 0.98122492179 0.062870671616 -0.18119780256 0.97838032112 0.11037590337 -0.17373918123 
0.98099437708 0.042512166548 -0.179022365 0.98375753891 0.0071865967175 -0.17846597971 0.98530028767 0.012148551595 -0.16799387826 
0.99075253555 0.0091620158565 -0.13369003914 0.99596526639 -0.030387979602 -0.053342888511 0.9977318897 -0.042429757667 0.021161461968 
0.99419260133 -0.040453680577 0.086992056341 0.99053394394 -0.027709500197 0.12958213756 0.98748070023 -0.0063979035576 0.15623526737 
0.98871191913 0.056812816284 0.11748492748 0.98808248399 0.1349613342 0.047155222842 0.98053121011 0.19042198192 0.013811889768 
0.97358871076 0.22551679842 0.017931642176 0.96411230834 0.2621779787 0.027776527219 0.95655270034 0.28785816434 0.036888667467 
0.94923414033 0.30964542386 -0.013681005423 0.9401411165 0.32822825398 -0.086596038593 0.92784172091 0.35228841228 -0.11885077172 
0.91524237615 0.37722975875 -0.13861713151 0.90588589619 0.38511710597 -0.17495590081 0.90074147942 0.38548772671 -0.19917277277 
0.89833087892 0.38088193003 -0.21874339475 0.90121363912 0.37071136505 -0.22441532029 0.90275757107 0.37134422467 -0.21522498483 
0.89041412241 0.41178324329 -0.1882916831 0.87437224066 0.45008787807 -0.17138604367 0.84808436929 0.50507322243 -0.15835512829 
0.82717224581 0.53853670223 -0.15728146428 0.82087049465 0.54048426608 -0.18226156499 0.82536027525 0.52160148534 -0.20993818628 
0.86351463102 0.4507175951 -0.22205483195 0.88007929127 0.41342938085 -0.23234724514 0.87126324767 0.41650027841 -0.25869645868 
0.93291198217 0.16620438648 -0.31436846359 0.94121442506 0.26470536331 -0.18843505775 0.84474297567 0.43117915073 -0.30508349473 
0.84538197519 0.44909739804 -0.27791071247 0.851738929 0.4677588338 -0.23119106899 0.83609802621 0.48808931594 -0.24885533518 
0.8352339008 0.49108392161 -0.24640247712 0.85440343956 0.462294024 -0.23607560456 0.87628438628 0.42765739685 -0.21905517053 
0.89556263587 0.39562529543 -0.19797091679 0.88787055738 0.41907344045 -0.16910944665 0.88555680695 0.43211806218 -0.13963304454 
0.8650910572 0.49007664616 -0.10301068531 0.94318922571 0.30431583071 -0.13177654768 0.9378440733 0.32861834096 -0.1047980282 
0.94240577903 0.29425976421 -0.15838966969 0.93033678228 0.33317693941 -0.14254794744 0.91902773238 0.37149515714 -0.12445270972 
0.9094271469 0.40112747365 -0.085031565927 0.89318923925 0.44267751933 -0.0098316391198 0.87452060953 0.47512261003 0.082919881933 
0.86705152826 0.47623689618 0.1455069458 0.86680313102 0.45517289787 0.20181315101 0.84140797791 0.43982435847 0.30350064964 
0.82799974509 0.41671180381 0.37384784673 0.83822366262 0.38478474824 0.38517630471 0.86109665373 0.35416760231 0.36275374233 
0.88818731104 0.33306951969 0.31279872314 0.91283308823 0.31712456104 0.25000740028 0.93294280857 0.3029065029 0.18629864605 
0.94768394507 0.28361369363 0.14179204697 0.9615955288 0.254715687 0.10136110789 0.97174143002 0.21866038493 0.081421241941 
0.97757306664 0.19343950884 0.079942604893 0.97984065269 0.18051882405 0.078697293096 0.98498301215 0.16026946283 0.059787912547 
0.97453223912 0.21383339017 -0.034532547057 0.94230927932 0.30175201202 -0.13506292943 0.92050992035 0.35274119626 -0.15227915859 
0.88919429553 0.4011596645 -0.21401081987 0.97295710001 0.21706702351 -0.054782277847 0.99202527093 0.10945813679 -0.012640887862 
0.99810627586 0.037592023725 0.0086505099675 0.99809445874 0.036369208201 -0.011569396923 0.99672073171 0.047214214247 -0.048838469658 
0.99370279441 -0.015663863253 -0.070475785874 0.98846762017 -0.10849559468 -0.093174754722 0.98705109584 -0.010054603931 -0.14683194451 
0.98061945419 0.01549770303 -0.1943747195 0.97331399403 0.040119937355 -0.22329906297 0.96609078109 0.092850775376 -0.24007579642 
0.95950295731 0.11727068031 -0.25524222768 0.9503115003 0.17473779476 -0.2486249341 0.94054352005 0.24091520454 -0.23778791522 
0.93804145581 0.25164374256 -0.23620530331 0.93615950567 0.24114521595 -0.25425859875 0.93464237163 0.23046722144 -0.27048965172 
0.92434107995 0.2114697932 -0.31515558602 0.90762385683 0.19641318125 -0.36983292069 0.88569202388 0.18871835605 -0.42330751519 
0.8675419991 0.21645147759 -0.44530070842 0.84751663607 0.2297923311 -0.47544730534 0.82808922086 0.25679391326 -0.49479091562 
0.86190135247 0.28371592118 -0.41672990434 0.88846355411 0.33321342401 -0.3085618629 0.90999561558 0.34188604935 -0.23121961151 
0.91957667565 0.34885318599 -0.17845448832 0.90161220533 0.37024449664 -0.21815779891 0.9331847805 0.33446048934 -0.11635484318 
0.8879593043 0.39835422676 -0.22823863655 0.89975709643 0.42544507649 -0.073816063645 0.85362944495 0.51530122383 -0.068933164065 
0.9420127681 0.22908921333 -0.24007237216 0.94158465665 0.29486255312 -0.15239732655 0.94510795048 0.21123666415 -0.24795201259 
0.94990004194 0.21339217957 -0.22622452047 0.95493746172 0.18844167055 -0.22028534221 0.95921823846 0.14434798191 -0.23581735545 
0.9639752452 0.13572849963 -0.22535444455 0.96974122424 0.12878386965 -0.20702066215 0.97276693862 0.12844598092 -0.19238873609 
0.97594716956 0.13203933752 -0.16827037086 0.98081220786 0.10389185281 -0.16458572966 0.98017485919 0.1195163507 -0.15739559629 
0.98406905315 0.08613477843 -0.14924517272 0.98646120358 0.093816696412 -0.12929632227 0.99378094355 0.050371846019 -0.08993388833 
0.99787961478 0.0012133301222 -0.038919164932 0.9976035717 -0.031674833151 0.018895787406 0.99491531704 -0.052949015545 0.078228680686 
0.99398042793 -0.030461427581 0.10104484378 0.99302433188 -0.0018919926517 0.11585509293 0.99251219372 0.061184312512 0.068937855007 
0.99069607561 0.12361034351 0.041859265434 0.98278188946 0.16418611596 0.077414344524 0.9733418575 0.2089905988 0.083509196843 
0.95986911714 0.26149021103 0.098351100658 0.94638840739 0.30324926664 0.10684510851 0.93565424842 0.34157234316 0.064828356754 
0.93062006078 0.36512908861 -0.0076958815526 0.92282121569 0.37620805194 -0.067885092702 0.91264759456 0.39257825934 -0.1100483131 
0.90106627739 0.41613496952 -0.11931636395 0.89924584971 0.41064233392 -0.1454421961 0.90302062449 0.38675712621 -0.18539084254 
0.9067887008 0.36799107626 -0.20481275237 0.91338060845 0.35115558297 -0.20534406521 0.91765061502 0.34068703308 -0.20339841395 
0.91768072358 0.34679103663 -0.19075212162 0.90375408336 0.38195559714 -0.18169432612 0.88179260875 0.4343108732 -0.17468324407 
0.86158201963 0.46524549575 -0.18828609532 0.84498479667 0.49362127124 -0.20307331453 0.86526687538 0.45175697694 -0.21272631243 
0.84732135464 0.46412820972 -0.25203075821 0.82745720998 0.47915620343 -0.2902487712 0.85017795198 0.42984870224 -0.2978779609 
0.86567502223 0.3902523147 -0.3128691441 0.85279210312 0.38596428269 -0.35051503408 0.82731104112 0.39813019868 -0.39531267957 
0.80342997414 0.39633431366 -0.44401625262 0.78476586051 0.38589828935 -0.48275797688 0.77445187723 0.37168774316 -0.51005247159 
0.80810732227 0.33215225439 -0.48028432329 0.85439254112 0.29060309613 -0.4299360761 0.86961640725 0.26313920447 -0.41603020349 
0.89307225096 0.2435771201 -0.37134249343 0.90592114142 0.22818669707 -0.35076674771 0.91603678069 0.22372473431 -0.32152038784 
0.93035749922 0.22288182623 -0.28306519453 0.9383019131 0.24063573472 -0.23695725229 0.94301134978 0.28807995426 -0.15695578167 
0.93588052261 0.341507383 -0.063051669643 0.93012109143 0.34855090444 -0.031870265841 0.93592393736 0.32054613162 -0.11576536738 
0.92655983554 0.37336304638 -0.018634777376 0.94287439652 0.26372154909 -0.19949262704 0.88616639458 0.41550459967 -0.20379844808 
0.87457896577 0.43356665409 -0.21637650822 0.86694594298 0.4423860776 -0.22892584433 0.86972120689 0.43489505753 -0.22956647749 
0.9023432913 0.37468160897 -0.19576609954 0.92997852783 0.3212465718 -0.16298030217 0.94887528859 0.27906937932 -0.13184069421 
0.95528734787 0.27104353011 -0.11312518514 0.95348507915 0.28255241753 -0.098260785968 0.93894492767 0.33005586653 -0.088804738185 
0.90725354337 0.40212155546 -0.061388855732 0.8578527159 0.51209255501 -0.032370278622 0.88910131921 0.44782514556 -0.058411398445 
0.89652485655 0.43250769239 -0.054478184592 0.92989690617 0.35724787982 -0.083462582858 0.9352677594 0.33729424358 -0.10395789297 
0.93366849068 0.33802129198 -0.1104902804 0.9294756564 0.34507105769 -0.11675060433 0.92536979888 0.35606017181 -0.1268650793 
0.91571231156 0.38195989672 -0.085290799847 0.89598296287 0.42931695624 -0.00015002584351 0.876967451 0.47070445027 0.089547616511 
0.87203398913 0.4651468408 0.14389591183 0.87457226051 0.44967544289 0.18004065326 0.88148633382 0.39415602769 0.25272730394 
0.87812360092 0.40797444427 0.24815613578 0.89250424708 0.37652224487 0.2343567108 0.89721422204 0.35893651811 0.24002735209 
0.90212409821 0.34613185355 0.24015594015 0.92872141056 0.33979142544 0.14006875662 0.94048148297 0.31278957737 0.12583847462 
0.9461698933 0.29015762235 0.14209782261 0.95779769825 0.25038931856 0.13092144 0.98206923399 0.18280866226 0.034471901849 
0.98064881995 0.1853889537 0.044753271791 0.8843563696 0.41817227611 0.20467618206 0.89309732464 0.42004346775 0.15816761062 
0.97531256698 0.19542738413 0.088139392008 0.96679497324 0.2391164052 0.057826229537 0.926789223 0.31308245196 -0.20260797831 
0.96453639888 0.24410153767 -0.082055976424 0.90153589565 0.35684740811 -0.23907194471 0.88164961489 0.411033226 -0.22997292581 
0.88875231732 0.38098858671 -0.25310877727 0.88189096542 0.4277372346 -0.19740807362 0.94522527982 0.29705747933 -0.11871521139 
0.98455714638 0.16293880906 -0.056457209091 0.98743484725 0.14009074962 -0.066655329866 0.98237669145 0.1547254652 -0.096652683336 
0.98746271824 0.0089264943698 -0.10547775698 0.98855285645 -0.013566521397 -0.13709584992 0.98432909865 0.010769317559 -0.17418466083 
0.97912329675 0.029553005695 -0.1982641725 0.97318878274 0.066386729174 -0.21554106808 0.966894234 0.11739765431 -0.22428620519 
0.95780779589 0.1870374466 -0.20540126233 0.94598833691 0.27072543443 -0.17714716477 0.94372811091 0.27292467776 -0.18581574446 
0.94171688091 0.26265471791 -0.20587778421 0.94185396283 0.22931840979 -0.24430262184 0.93341717615 0.2152573964 -0.28418025024 
0.91996854343 0.21395244429 -0.32494054622 0.90100065474 0.23381855039 -0.36449600291 0.8906024518 0.28832419234 -0.3494911262 
0.87398014669 0.29249023069 -0.3862119405 0.90694713255 0.32810945214 -0.25232997029 0.92671619941 0.34192136883 -0.15186786904 
0.94283253281 0.32070458484 -0.073381061866 0.96165457515 0.26621664686 -0.0021213739206 0.9536794844 0.28556411695 -0.083106753532 
0.97791530695 0.2024387058 0.024159494713 0.91028218558 0.37109501808 -0.18188573338 0.94385593508 0.25941694337 -0.20141982827 
0.94522333263 0.25454445319 -0.2028328598 0.94901682246 0.24874630966 -0.19303719167 0.95355991773 0.23120269049 -0.19057925543 
0.95625854926 0.21145601549 -0.19784691393 0.96262916151 0.18310025141 -0.19208386091 0.96512921996 0.18773523443 -0.17601979481 
0.96858098845 0.19347846652 -0.15294302874 0.97667638876 0.16766795338 -0.13372996354 0.9786893851 0.16506952871 -0.11855446807 
0.98161858852 0.15678986062 -0.10653158949 0.98501572801 0.14588386457 -0.090014688506 0.99099671829 0.1137305735 -0.061873841551 
0.99893335323 -0.0010292721154 0.0045156816543 0.99957908128 -0.017940194071 -0.0023397559494 0.99928628419 -0.0097678659034 0.035141808544 
0.99920894126 0.0053871741348 0.036223183354 0.99858041484 0.016484874306 0.047125216183 0.99666150348 0.059954640285 0.041349624479 
0.99203088729 0.10414888041 0.054245227731 0.98356513325 0.1474044079 0.093689064311 0.97105624703 0.20432153513 0.11050778014 
0.9565439817 0.26827669613 0.11173842585 0.94337336604 0.31577010702 0.096792305141 0.92717298239 0.36824674921 0.039234010964 
0.92085149944 0.38632624268 -0.041343156736 0.91639558412 0.39172739448 -0.077646140153 0.91412077536 0.39185359392 -0.10244179652 
0.91306866399 0.38848141397 -0.12348722799 0.91284697523 0.36939122835 -0.16204705169 0.91678666254 0.34366084294 -0.20104070443 
0.92385629244 0.31698730092 -0.21424193149 0.92808947196 0.32546385499 -0.17902035353 0.92332812303 0.34641839316 -0.16548737135 
0.92706261035 0.3319134034 -0.17361350031 0.9374887176 0.30023175607 -0.17351129806 0.93844976383 0.29950946415 -0.17048882544 
0.9033676463 0.38384616821 -0.17949810736 0.83743740331 0.49133530618 -0.20867972811 0.8125417088 0.52843735595 -0.23595542117 
0.77885298904 0.56197281553 -0.27682938087 0.7816005958 0.53985816358 -0.30531951383 0.84206808007 0.43988919495 -0.3046037504 
0.85580054198 0.39619546728 -0.33031302688 0.84509643681 0.38594405454 -0.36920542553 0.81972049121 0.3915698069 -0.41378725262 
0.84002794488 0.34650316836 -0.40776000715 0.86036668433 0.31967380605 -0.39254905058 0.85890059154 0.32505195631 -0.38701827605 
0.86517191063 0.32342999301 -0.37108072511 0.89302009368 0.29697060123 -0.33431596823 0.91385783918 0.2851716346 -0.26577058365 
0.93770283878 0.26923712839 -0.20946152862 0.94217349302 0.27893900785 -0.12202155711 0.94922299613 0.2817703433 -0.066056505241 
0.94354844616 0.30347178045 -0.049692567806 0.9402873835 0.32828956089 -0.006931659813 0.93712803372 0.34655941891 0.011067253842 
0.92912979037 0.36461739686 0.036513544344 0.93106935908 0.36362597209 0.018840108344 0.93341806774 0.35783547016 -0.01378763705 
0.92719895647 0.37218188733 -0.039683691288 0.92946185779 0.36791681871 -0.0061435479982 0.93395899207 0.33795859486 -0.094089575354 
0.99762101591 0.030979057096 -0.018084980573 0.9940025377 0.10158297011 -0.037592784562 0.92130299839 0.33387582063 -0.14741008442 
0.92416505916 0.34378798297 -0.15068014635 0.97521895775 0.14524794585 -0.14666241727 0.96182757248 0.21760401985 -0.14337442805 
0.97963275836 0.12145352712 -0.15239828758 0.9750667014 0.13589337172 -0.16170336086 0.97348039704 0.12684240694 -0.18284874725 
0.97045810112 0.13619213561 -0.19535819782 0.9650602162 0.16978066662 -0.19598223364 0.95793845257 0.2162033947 -0.18732325705 
0.9513672151 0.24333925285 -0.18796506842 0.94711075947 0.2528997502 -0.19686562346 0.94340741102 0.2566979903 -0.2093439665 
0.93732351695 0.25433497698 -0.23692399032 0.9294213859 0.26586386508 -0.25472559446 0.92098922179 0.30097554582 -0.24612587441 
0.91369333341 0.33121138308 -0.23308009983 0.91090334179 0.34459693157 -0.22288772934 0.91595868041 0.36013565798 -0.17627558496 
0.92113722702 0.3527630563 -0.16228251398 0.9285086791 0.33220393014 -0.15667718808 0.93679126957 0.30593621349 -0.15116421755 
0.96113267986 0.24657596332 -0.11788546178 0.96972339488 0.22310028856 -0.096151221991 0.97062401658 0.225629153 -0.083125124716 
0.96595000851 0.24549491708 -0.079481676398 0.96121459517 0.26630613036 -0.070974446939 0.94962499605 0.30307591983 -0.069803630408 
0.93829475286 0.33863744615 -0.069572185948 0.95214289747 0.2929026583 -0.074694191127 0.91294762754 0.38504017587 -0.056535305313 
0.9675560785 0.22776637684 -0.10389156647 0.84747436382 0.52938832056 -0.012564522353 0.8736738119 0.47789740123 -0.020271411541 
0.92429028136 0.3754732667 -0.056799329837 0.92565512251 0.3681082063 -0.063589878426 0.91961352892 0.38439733538 -0.057858995531 
0.92190375634 0.37890734361 -0.076552797361 0.89996842156 0.4295678597 0.0047527408166 0.8890968459 0.45362534164 0.055627507092 
0.88818245546 0.44773596436 0.089799891831 0.88520494937 0.44513296018 0.12910000623 0.89410459672 0.42778615938 0.12555359236 
0.91624250776 0.38493940873 0.10716658005 0.92190688255 0.38278360535 0.054727887821 0.91760613816 0.37514890742 0.088435078976 
0.92265953765 0.37299852103 0.083333682504 0.92402028841 0.37131363819 0.088702157212 0.92740911968 0.36086627707 0.089212365466 
0.92871025643 0.35200212617 0.10612168607 0.91563368758 0.30748792921 -0.25654134666 0.94948331654 0.25266913018 -0.17659105594 
0.89380508309 0.34475076054 -0.28330040422 0.84578990303 0.46385596506 -0.25867714418 0.86936008034 0.407211366 -0.27760198026 
0.87431523318 0.44167577257 -0.19977771413 0.93928375068 0.31603827444 -0.1216202479 0.9445204355 0.29191019637 -0.14772157809 
0.94801688674 0.27569139947 -0.15826828459 0.94950966643 0.26987090805 -0.15767000833 0.94811539652 0.27870396334 -0.14673337183 
0.95037661544 0.27688517451 -0.13466932859 0.95474548993 0.26766156488 -0.11636633218 0.98719105049 0.11701839326 -0.083597232355 
0.99079851572 0.10535134259 -0.067700625754 0.98441241355 0.16303033592 -0.060982776658 0.98717109228 0.1506110586 -0.043855739663 
0.99924366014 0.0069220722441 0.0047529516374 0.99887400188 0.035638433233 -0.020032127637 0.99940334168 -0.0048242544906 0.01958909549 
0.99963235804 0.017933128564 0.01090336852 0.99699786028 0.056917308803 -0.00059476089014 0.99548572428 0.078241059398 0.019855002722 
0.99207283417 0.09717227417 0.063022260082 0.98261319407 0.14637086134 0.10088945003 0.97019086642 0.21201757627 0.10664169224 
0.95354581434 0.28090010151 0.098548312604 0.94258951251 0.31879866338 0.073948053816 0.93455484652 0.35063514225 -0.011221041752 
0.92323494345 0.35463666922 -0.13859362505 0.91778895539 0.36954371302 -0.13901451549 0.92680799969 0.34208095518 -0.15066601154 
0.92821805759 0.3232931799 -0.18233080369 0.92974368854 0.30592318509 -0.20325855733 0.93229291257 0.28558441498 -0.2208218001 
0.93494443969 0.29189661301 -0.19952460677 0.93588020126 0.30999587652 -0.16667437563 0.92289280922 0.36052774832 -0.13456888958 
0.92334913913 0.35668307119 -0.1417130697 0.9328250772 0.32774810407 -0.14286961375 0.94036723025 0.30084590893 -0.15475966614 
0.90661809042 0.38366830349 -0.16549922239 0.84728922288 0.47585950816 -0.19653547649 0.74912451361 0.6018971168 -0.24902874913 
0.78391685323 0.56041843462 -0.26105104551 0.91902588977 0.36965283864 -0.12686278557 0.91741890065 0.36793503695 -0.14979844948 
0.93911076504 0.3071972778 -0.14229410048 0.89571390063 0.40810697641 -0.17058600992 0.92645105032 0.34991898905 -0.13450823771 
0.93599765365 0.32282964638 -0.13584986624 0.86510892229 0.38859031588 -0.31426497609 0.86754563683 0.36436900555 -0.33554269572 
0.89707423624 0.30705533008 -0.30727046093 0.93630379234 0.23723332624 -0.2575833636 0.9409142201 0.24703179146 -0.22723250991 
0.93445120253 0.27199703158 -0.22301304328 0.92088279444 0.30065372507 -0.24108558677 0.92263684323 0.3071694548 -0.23095928315 
0.93763594622 0.29895300833 -0.16681489985 0.94999968656 0.29287642659 -0.10430613821 0.9500687666 0.30216787615 -0.021703837374 
0.94791704621 0.31120369416 0.058319395558 0.94152577457 0.32839905771 0.070740276252 0.93510299214 0.34446637224 0.07971837247 
0.9322848106 0.35238895358 0.066938050599 0.93395168655 0.35065058288 0.056528191371 0.94048554375 0.33825956282 -0.011526397181 
0.93502981745 0.35314807957 0.010965243187 0.91810675444 0.39461473755 0.017298390628 0.94195098397 0.31859707442 0.099738411891 
0.93590749876 0.34555272189 0.049060428597 0.94560473743 0.29988258445 0.12384914912 0.95156254057 0.28878673499 0.097946663223 
0.95279079771 0.29222371255 0.0045285942831 0.95622319524 0.26651399337 -0.10629889554 0.94548409167 0.29402124914 -0.13419545518 
0.95310399122 0.2545047398 -0.12082731001 0.99539150673 0.073542462379 -0.037223488235 0.99680699984 0.054137560627 -0.026991683626 
0.99285243276 0.10559908885 -0.03917106067 0.99343801535 0.10307792295 0.0038071020825 0.99125757395 0.11382790489 0.049044092752 
0.98231506809 0.14921004632 0.096799133772 0.96885460822 0.21477810223 0.099980206879 0.94292839894 0.3229123128 -0.025273822035 
0.92664232525 0.35219594061 -0.12605526457 0.9378884843 0.3139784128 -0.14446574195 0.94071258174 0.31609999759 -0.11740131979 
0.94448090557 0.31736618144 -0.080160014393 0.94536597739 0.31993720892 -0.023558648412 0.94600504523 0.32262427776 0.02805755473 
0.93986101559 0.3354612813 0.056871492683 0.93375016325 0.34843792793 0.081580866645 0.94638969044 0.3200471257 -0.035498229838 
0.93240582188 0.3577820318 0.027759838024 0.93761849414 0.34599490096 0.010312932051 0.94055025692 0.33925304518 -0.010114707605 
0.93847159969 0.34429435052 -0.022221527176 0.93568614682 0.35103807778 -0.015875398099 0.93399164867 0.35549063372 0.015369406602 
0.92237608678 0.38289925579 -0.03153684194 0.91871174085 0.38996210158 -0.04216873313 0.91916164318 0.38610281274 -0.05735857593 
0.91879689216 0.38427083993 -0.073405155289 0.91806956726 0.38345706814 -0.077119540245 0.92606530497 0.36348105032 -0.088539744473 
0.92048312254 0.38197727913 -0.073762202239 0.8922961022 0.45095649207 0.010612333312 0.8893925256 0.45299114027 0.046241839488 
0.88593285752 0.45572927679 0.084861815474 0.89899332875 0.42544978402 0.060440317437 0.86932496664 0.49189590634 -0.02329160653 
0.87415310695 0.48232411962 -0.01035052889 0.89025393352 0.45500489606 -0.0083250248228 0.90350095838 0.42545656258 -0.012804906392 
0.93981832635 0.34052817509 -0.016140023965 0.93897710343 0.34003722854 -0.036282398508 0.93884120535 0.33377747486 -0.077315357345 
0.93861391936 0.33475008554 -0.07469534652 0.93855400395 0.34050453084 -0.044332784587 0.94129689198 0.33081846891 0.00041365555076 
0.94637656849 0.31166332981 0.051604427198 0.94597217493 0.3187311595 -0.047342342357 0.97019547097 0.22828124707 -0.079872803244 
0.96700788324 0.23797871577 -0.067879509325 0.96434608538 0.24732789926 -0.059068961761 0.96333012978 0.2537177515 -0.064779867084 
0.99614670604 0.075950465557 -0.035354078293 0.98455114425 0.15106995452 -0.057725790665 0.97265001949 0.2140834123 -0.062070348526 
0.97083201949 0.21303759789 -0.099041935153 0.97015892369 0.2063753181 -0.12613125842 0.97511794647 0.19392047016 -0.10458766391 
0.97945626899 0.18065196154 -0.089300352918 0.9948955858 0.086866492211 -0.048550646366 0.96506051626 0.24955825294 -0.074927109994 
0.91734188147 0.35246573996 -0.18362829095 0.91909303862 0.3423078842 -0.19498030024 0.9241452981 0.33285029177 -0.18726031221 
0.92930452763 0.31827020822 -0.1866689673 0.9337909503 0.3023244872 -0.19099582135 0.93828425382 0.28023386317 -0.20080667757 
0.94321337738 0.25367966568 -0.21356606763 0.94249161534 0.27102805407 -0.1919878933 0.94230445187 0.2923346539 -0.16086523401 
0.94752007822 0.28116592314 -0.14919288196 0.94235013411 0.30659957205 -0.1321117534 0.95427800822 0.24803788653 -0.16428680023 
0.93351862851 0.33653854633 -0.12211772368 0.93108615036 0.34069592086 -0.12934421431 0.93045101156 0.33956271128 -0.13759532777 
0.93549504639 0.32468748092 -0.1372251474 0.9351767049 0.32027953882 -0.14257482693 0.89656352353 0.40646956845 -0.16150085886 
0.87216986359 0.45277821965 -0.18026979593 0.84829439323 0.48686332868 -0.20218223827 0.85188355931 0.47261467984 -0.21632816583 
0.88109221396 0.43687749536 -0.172411122 0.90747581638 0.38602994442 -0.15592953482 0.93924742 0.30708272849 -0.14288791337 
0.95799375409 0.24826182827 -0.14056536552 0.95578139281 0.25677853308 -0.13625545628 0.95312425749 0.26824478223 -0.13423849125 
0.95433228977 0.2531644181 -0.14667713238 0.9577302298 0.23374659562 -0.15751519453 0.95184201827 0.25342238056 -0.17157104763 
0.95437208777 0.23717796301 -0.18068418642 0.94895287359 0.25441203484 -0.18314588041 0.94654634137 0.2278527725 -0.22610318353 
0.93822274686 0.26586686328 -0.21398557519 0.93406820659 0.29790165228 -0.19528321336 0.92422923971 0.32688477261 -0.19553726889 
0.91901673549 0.34528781561 -0.18949515664 0.98834770551 0.14885569232 0.020527976922 0.93923996102 0.27436774893 -0.20495104173 
0.94302314974 0.26339555894 -0.20303510565 0.94570307839 0.26109180401 -0.19332830082 0.94765086437 0.26044565265 -0.183370505 
0.94807882718 0.26623063643 -0.17069694999 0.9378414383 0.32314449739 -0.12355647899 0.93990829677 0.31749982832 -0.12434354305 
0.94232957453 0.30728904562 -0.13001740797 0.94673122378 0.29133694247 -0.13570773005 0.908959936 0.41209178276 -0.049552065983 
0.90073447483 0.43242776029 -0.033000558716 0.91135062373 0.41091292226 -0.016599151328 0.90308630871 0.42933160463 -0.0086760943205 
0.91778559468 0.39613297193 -0.021401786067 0.94193570886 0.327797273 -0.069935031137 0.93953145598 0.33195209029 -0.08276950612 
0.94147286821 0.33134163053 -0.050929744168 0.9429712893 0.33240008585 -0.016960087066 0.9462552168 0.3213323389 -0.032668601508 
0.95611188008 0.24345405711 -0.15888262739 0.94862361936 0.2826720197 -0.13908352366 0.94420733979 0.30133475153 -0.12991086646 
0.99159870244 0.11162603749 -0.05261096958 0.99326859856 0.10073120978 -0.050339043993 0.98384030876 0.14313837688 -0.08284124108 
0.98820998535 0.13102185303 -0.058596527647 0.99128185133 0.12442950197 -0.02027816888 0.9918949236 0.1213952424 0.0054919400817 
0.8898862943 0.4556521273 -0.0058881839608 0.89003862387 0.36107304532 -0.27536268865 0.97958463418 0.1822830156 -0.05504455649 

Motion 1 1116 double
0 0 0 0 0 0 0 0 0 
0 0 0 0 0 0 0 0 0 
0 0 0 0 0 0 0 0 0 
0 0 0 0 0 0 0 0 0 
0 0 0 0 0 0 0 0 0 
0 0 0 0 0 0 0 0 0 
0 0 0 0 0 0 0 0 0 
0 0 0 0 0 0 0 0 0 
0 0 0 0 0 0 0 0 0 
0 0 0 0 0 0 0 0 0 
0 0 0 0 0 0 0 0 0 
0 0 0 0 0 0 0 0 0 
0 0 0 0 0 0 0 0 0 
0 0 0 0 0 0 0 0 0 
0 0 0 0 0 0 0 0 0 
0 0 0 0 0 0 0 0 0 
0 0 0 0 0 0 0 0 0 
0 0 0 0 0 0 0 0 0 
0 0 0 0 0 0 0 0 0 
0 0 0 0 0 0 0 0 0 
0 0 0 0 0 0 0 0 0 
0 0 0 0 0 0 0 0 0 
0 0 0 0 0 0 0 0 0 
0 0 0 0 0 0 0 0 0 
0 0 0 0 0 0 0 0 0 
0 0 0 0 0 0 0 0 0 
0 0 0 0 0 0 0 0 0 
0 0 0 0 0 0 0 0 0 
0 0 0 0 0 0 0 0 0 
0 0 0 0 0 0 0 0 0 
0 0 0 0 0 0 0 0 0 
0 0 0 0 0 0 0 0 0 
0 0 0 0 0 0 0 0 0 
0 0 0 0 0 0 0 0 0 
0 0 0 0 0 0 0 0 0 
0 0 0 0 0 0 0 0 0 
0 0 0 0 0 0 0 0 0 
0 0 0 0 0 0 0 0 0 
0 0 0 0 0 0 0 0 0 
0 0 0 0 0 0 0 0 0 
0 0 0 0 0 0 0 0 0 
0 0 0 0 0 0 0 0 0 
0 0 0 0 0 0 0 0 0 
0 0 0 0 0 0 0 0 0 
0 0 0 0 0 0 0 0 0 
0 0 0 0 0 0 0 0 0 
0 0 0 0 0 0 0 0 0 
0 0 0 0 0 0 0 0 0 
0 0 0 0 0 0 0 0 0 
0 0 0 0 0 0 0 0 0 
0 0 0 0 0 0 0 0 0 
0 0 0 0 0 0 0 0 0 
0 0 0 0 0 0 0 0 0 
0 0 0 0 0 0 0 0 0 
0 0 0 0 0 0 0 0 0 
0 0 0 0 0 0 0 0 0 
0 0 0 0 0 0 0 0 0 
0 0 0 0 0 0 0 0 0 
0 0 0 0 0 0 0 0 0 
0 0 0 0 0 0 0 0 0 
0 0 0 0 0 0 0 0 0 
0 0 0 0 0 0 0 0 0 
0 0 0 0 0 0 0 0 0 
0 0 0 0 0 0 0 0 0 
0 0 0 0 0 0 0 0 0 
0 0 0 0 0 0 0 0 0 
0 0 0 0 0 0 0 0 0 
0 0 0 0 0 0 0 0 0 
0 0 0 0 0 0 0 0 0 
0 0 0 0 0 0 0 0 0 
0 0 0 0 0 0 0 0 0 
0 0 0 0 0 0 0 0 0 
0 0 0 0 0 0 0 0 0 
0 0 0 0 0 0 0 0 0 
0 0 0 0 0 0 0 0 0 
0 0 0 0 0 0 0 0 0 
0 0 0 0 0 0 0 0 0 
0 0 0 0 0 0 0 0 0 
0 0 0 0 0 0 0 0 0 
0 0 0 0 0 0 0 0 0 
0 0 0 0 0 0 0 0 0 
0 0 0 0 0 0 0 0 0 
0 0 0 0 0 0 0 0 0 
0 0 0 0 0 0 0 0 0 
0 0 0 0 0 0 0 0 0 
0 0 0 0 0 0 0 0 0 
0 0 0 0 0 0 0 0 0 
0 0 0 0 0 0 0 0 0 
0 0 0 0 0 0 0 0 0 
0 0 0 0 0 0 0 0 0 
0 0 0 0 0 0 0 0 0 
0 0 0 0 0 0 0 0 0 
0 0 0 0 0 0 0 0 0 
0 0 0 0 0 0 0 0 0 
0 0 0 0 0 0 0 0 0 
0 0 0 0 0 0 0 0 0 
0 0 0 0 0 0 0 0 0 
0 0 0 0 0 0 0 0 0 
0 0 0 0 0 0 0 0 0 
0 0 0 0 0 0 0 0 0 
0 0 0 0 0 0 0 0 0 
0 0 0 0 0 0 0 0 0 
0 0 0 0 0 0 0 0 0 
0 0 0 0 0 0 0 0 0 
0 0 0 0 0 0 0 0 0 
0 0 0 0 0 0 0 0 0 
0 0 0 0 0 0 0 0 0 
0 0 0 0 0 0 0 0 0 
0 0 0 0 0 0 0 0 0 
0 0 0 0 0 0 0 0 0 
0 0 0 0 0 0 0 0 0 
0 0 0 0 0 0 0 0 0 
0 0 0 0 0 0 0 0 0 
0 0 0 0 0 0 0 0 0 
0 0 0 0 0 0 0 0 0 
0 0 0 0 0 0 0 0 0 
0 0 0 0 0 0 0 0 0 
0 0 0 0 0 0 0 0 0 
0 0 0 0 0 0 0 0 0 
0 0 0 0 0 0 0 0 0 
0 0 0 0 0 0 0 0 0 
0 0 0 0 0 0 0 0 0 
0 0 0 0 0 0 0 0 0 
0 0 0 0 0 0 0 0 0 

Normal 3 1116 float
-0.236738 0.965547 -0.0195108 -0.225269 0.941055 0.182692 -0.237366 0.945011 0.185936 
-0.226348 0.97152 0.0243656 -0.226018 0.902222 0.364897 -0.283131 0.897578 0.324402 
-0.230717 0.861712 0.446681 -0.31984 0.838879 0.433219 -0.218116 0.825316 0.518008 
-0.319552 0.792914 0.514018 -0.188705 0.792915 0.579176 -0.311764 0.747629 0.584526 
-0.208311 0.736834 0.640222 -0.299898 0.704702 0.641012 -0.201905 0.67159 0.708593 
-0.266182 0.639767 0.714723 -0.164808 0.596817 0.785177 -0.203917 0.53528 0.813755 
-0.0410419 0.418163 0.892757 -0.083638 0.351998 0.926021 0.0372721 0.282518 0.955209 
-0.0423275 0.231872 0.969348 0.0768768 0.187682 0.979188 -0.0390133 0.174531 0.982341 
0.0990012 0.174084 0.979594 -0.074597 0.159634 0.982228 0.0886876 0.137419 0.985437 
-0.0963512 0.100535 0.98741 0.0617117 0.0907008 0.993738 -0.125743 0.0333797 0.991281 
0.113951 0.126091 0.983919 -0.0967504 -0.0113009 0.994079 0.161146 0.110262 0.976261 
-0.0426417 -0.0723868 0.993161 0.196827 -0.0224781 0.973538 0.0502707 -0.152353 0.981248 
0.242852 -0.171608 0.943647 0.149544 -0.251747 0.947326 0.300371 -0.338951 0.883569 
0.255879 -0.376789 0.882308 0.331834 -0.455578 0.819989 0.306215 -0.472843 0.822048 
0.352674 -0.551955 0.755396 0.322156 -0.553332 0.766655 0.349701 -0.616592 0.701701 
0.300186 -0.630643 0.710263 0.346634 -0.686692 0.633212 0.303837 -0.704389 0.632715 
0.343337 -0.769958 0.529069 0.29529 -0.788035 0.533749 0.341504 -0.845451 0.38567 
0.258333 -0.868776 0.397281 0.340253 -0.914968 0.214808 0.215821 -0.945581 0.22222 
0.308611 -0.938869 0.00874143 0.178892 -0.976663 0.00637733 0.248553 -0.953558 -0.143314 
0.186779 -0.963358 -0.165155 0.157725 -0.958272 -0.236881 0.202739 -0.93721 -0.282233 
0.162009 -0.943857 -0.285773 0.218998 -0.917436 -0.32958 0.185858 -0.911833 -0.357285 
0.217471 -0.897413 -0.381123 0.223126 -0.862592 -0.452971 0.192187 -0.875996 -0.441408 
0.168564 -0.798775 -0.568686 0.125103 -0.829916 -0.536094 0.0988598 -0.732557 -0.666443 
0.048561 -0.771793 -0.627821 0.0151774 -0.664265 -0.747299 -0.036807 -0.702576 -0.708884 
-0.0608404 -0.624263 -0.775896 -0.0803253 -0.647926 -0.755244 -0.12911 -0.57675 -0.804339 
-0.12122 -0.597551 -0.791031 -0.187687 -0.519839 -0.832587 -0.178341 -0.545454 -0.817727 
-0.24403 -0.445808 -0.858024 -0.24245 -0.481568 -0.83911 -0.297466 -0.363369 -0.880357 
-0.312159 -0.412832 -0.85327 -0.346022 -0.269659 -0.89759 -0.406799 -0.335074 -0.848484 
-0.382974 -0.228952 -0.894274 -0.489332 -0.288933 -0.8197 -0.405523 -0.168381 -0.896133 
-0.564367 -0.230556 -0.789506 -0.411556 -0.0725945 -0.908381 -0.626229 -0.126685 -0.768736 
-0.434492 0.11262 -0.885232 -0.6732 0.0334937 -0.729652 -0.448377 0.295784 -0.832502 
-0.706797 0.197997 -0.664334 -0.446802 0.468329 -0.758544 -0.721144 0.34773 -0.585831 
-0.401736 0.600037 -0.68416 -0.723063 0.445518 -0.516492 -0.356113 0.685696 -0.631117 
-0.706047 0.514477 -0.475641 -0.310174 0.745349 -0.590125 -0.690878 0.565359 -0.448573 
-0.345074 0.759469 -0.549748 -0.634144 0.630762 -0.439723 -0.391712 0.770476 -0.499013 
-0.583702 0.693211 -0.417706 -0.457999 0.776272 -0.43094 -0.510175 0.777912 -0.364775 
-0.400721 0.835882 -0.363079 -0.420174 0.857044 -0.287041 -0.319749 0.903034 -0.243162 
-0.325689 0.921061 -0.156819 0.43815 -0.890494 0.118401 0.465399 -0.842762 0.248082 
0.436703 -0.848115 0.285649 0.492706 -0.85488 0.147615 0.484967 -0.781922 0.378144 
0.38586 -0.815995 0.419669 0.489992 -0.70693 0.504237 0.373491 -0.749005 0.54104 
0.430198 -0.664283 0.601871 0.356949 -0.684568 0.629767 0.356384 -0.629146 0.690205 
0.339876 -0.62301 0.703973 0.307209 -0.589229 0.743433 0.306374 -0.576653 0.75458 
0.268868 -0.532369 0.798476 0.270485 -0.526494 0.80433 0.270779 -0.412549 0.860258 
0.219497 -0.448587 0.860866 0.272546 -0.29598 0.912586 0.18514 -0.355813 0.914928 
0.27389 -0.188963 0.937127 0.214321 -0.245769 0.940208 0.278258 -0.0978642 0.954969 
0.24081 -0.155826 0.957076 0.290895 -0.0503048 0.954487 0.320185 -0.0864904 0.939514 
0.297036 0.00204497 0.953844 0.372727 -0.0146327 0.925827 0.293922 0.0612183 0.952971 
0.388875 0.0606127 0.916786 0.283735 0.18839 0.929981 0.387826 0.181639 0.894863 
0.269831 0.351293 0.895369 0.377535 0.339176 0.859503 0.230045 0.526427 0.800134 
0.315191 0.521694 0.771748 0.17772 0.680454 0.704851 0.240986 0.690296 0.67681 
0.0934577 0.773226 0.617577 0.169152 0.785715 0.585619 0.0502328 0.850191 0.51334 
0.117581 0.857421 0.491056 0.0352146 0.916289 0.397443 0.0795432 0.91749 0.386006 
-0.0116709 0.942109 0.328277 0.00456957 0.951075 0.297776 -0.0481467 0.966698 0.230548 
-0.0619583 0.969435 0.230228 -0.0638101 0.992249 0.0788773 -0.0827545 0.986549 0.124647 
-0.076136 0.996314 0.0143823 -0.0643807 0.995504 0.0267795 -0.10929 0.992635 -0.0231536 
-0.0352084 0.997248 -0.0486501 -0.183432 0.981874 -0.0404738 -0.0555625 0.995453 -0.0587015 
-0.148943 0.979975 -0.114958 -0.0965378 0.984978 -0.129312 -0.150671 0.954417 -0.227814 
-0.13209 0.954356 -0.243417 -0.210594 0.897746 -0.38319 -0.164571 0.905268 -0.387436 
-0.182188 0.812177 -0.538387 -0.142859 0.840457 -0.512695 -0.114288 0.757878 -0.63769 
-0.111405 0.790469 -0.601094 -0.00352965 0.746233 -0.665325 -0.0591111 0.785164 -0.616157 
0.0205989 0.806714 -0.586432 -0.0170449 0.826227 -0.560217 0.000286999 0.833775 -0.550574 
-0.00516442 0.831211 -0.554104 -0.0552556 0.831457 -0.552835 -0.0182293 0.805459 -0.590326 
-0.0943807 0.686451 -0.70188 -0.0732906 0.659496 -0.727116 -0.12774 0.502792 -0.836724 
-0.129859 0.473213 -0.85915 -0.15214 0.259066 -0.949497 -0.14429 0.248099 -0.951032 
-0.123118 0.129182 -0.979952 -0.150596 0.106538 -0.979112 -0.118075 0.0330422 -0.991176 
-0.153737 0.0172672 -0.987138 -0.144185 -0.0377553 -0.988464 -0.157196 -0.0338231 -0.986679 
-0.10497 -0.180357 -0.972708 -0.147921 -0.142633 -0.975857 -0.058185 -0.342673 -0.926563 
-0.119871 -0.317011 -0.934037 -0.00376333 -0.518675 -0.853627 -0.0880543 -0.490361 -0.864661 
0.0760423 -0.641222 -0.75331 -0.0252362 -0.606411 -0.78846 0.157023 -0.70278 -0.690765 
0.0685428 -0.701781 -0.70799 0.239056 -0.709818 -0.661987 0.127318 -0.740036 -0.659478 
0.288407 -0.744137 -0.598177 0.16283 -0.777943 -0.603164 0.326981 -0.782863 -0.525391 
0.201462 -0.81405 -0.543248 0.344715 -0.827622 -0.436648 0.275021 -0.833131 -0.473007 
0.349355 -0.858277 -0.373844 0.360261 -0.833628 -0.416328 0.344394 -0.878593 -0.330061 
0.453385 -0.805377 -0.377325 0.384562 -0.884042 -0.252428 0.523617 -0.789737 -0.303747 
0.426839 -0.887683 -0.167273 0.556617 -0.792369 -0.230354 0.433585 -0.895656 -0.0694449 
0.591009 -0.794838 -0.0665904 0.437182 -0.896183 0.0256278 0.559409 -0.821097 0.0712021 
-0.310366 0.903082 0.278939 -0.249104 0.951095 0.152148 -0.347894 0.846756 0.395696 
-0.38721 0.764312 0.512833 -0.374501 0.703418 0.602019 -0.343581 0.655943 0.670447 
-0.280597 0.565267 0.764726 -0.210383 0.427095 0.876121 -0.204183 0.289354 0.929729 
-0.252577 0.191543 0.944113 -0.321032 0.121025 0.93846 -0.291026 0.0707179 0.952653 
-0.247983 0.0198865 0.966315 -0.206115 -0.0314961 0.975793 -0.13193 -0.0919265 0.983351 
-0.0597283 -0.164899 0.982159 0.0525416 -0.253564 0.958464 0.136852 -0.3586 0.920486 
0.159308 -0.453823 0.871584 0.1399 -0.526903 0.832146 0.0809554 -0.585323 0.802186 
-0.0198575 -0.660105 0.747529 0.058952 -0.739966 0.661324 0.0912171 -0.823138 0.554157 
0.100037 -0.902064 0.401838 0.0822941 -0.967559 0.197768 0.0755787 -0.988952 -0.0296443 
0.0724947 -0.974547 -0.190701 0.0920798 -0.948308 -0.293504 0.125723 -0.931552 -0.335906 
0.147199 -0.912668 -0.378698 0.12264 -0.886663 -0.443295 0.0851186 -0.841213 -0.527448 
0.0112504 -0.783361 -0.618403 -0.0625831 -0.725667 -0.681771 -0.139744 -0.660705 -0.735902 
-0.174974 -0.613798 -0.769189 -0.229863 -0.571425 -0.785965 -0.287393 -0.51723 -0.805248 
-0.37718 -0.447673 -0.809416 -0.460908 -0.399017 -0.790424 -0.530473 -0.347482 -0.772174 
-0.592234 -0.278427 -0.752762 -0.656311 -0.167733 -0.732974 -0.733317 0.0477666 -0.672031 
-0.77256 0.214371 -0.587203 -0.789611 0.35418 -0.497835 -0.772697 0.446522 -0.445417 
-0.74994 0.519178 -0.406284 -0.720513 0.579135 -0.379177 -0.685111 0.6423 -0.337093 
-0.603101 0.732834 -0.303513 -0.502189 0.821893 -0.252385 -0.371291 0.901547 -0.198187 
-0.25122 0.961101 -0.0756893 -0.224177 0.972384 0.0578536 0.477813 -0.789682 0.379315 
0.525866 -0.797462 0.285924 0.452005 -0.751344 0.477695 0.424321 -0.669102 0.602163 
0.375928 -0.599372 0.705697 0.332281 -0.545737 0.766714 0.27718 -0.486024 0.827399 
0.249037 -0.431476 0.864678 0.241616 -0.374808 0.892924 0.241849 -0.309273 0.917159 
0.272887 -0.246583 0.926152 0.374219 -0.176752 0.90657 0.461929 -0.0999439 0.873999 
0.534281 -0.00350067 0.841936 0.560759 0.130426 0.809188 0.551354 0.2851 0.779332 
0.483587 0.481645 0.718607 0.353989 0.685991 0.62504 0.242007 0.799209 0.544762 
0.16316 0.867003 0.465771 0.0911243 0.928847 0.353804 0.0446463 0.961968 0.261171 
-0.00752019 0.980419 0.191279 -0.0551266 0.987837 0.142615 -0.0395638 0.995696 0.0570814 
-0.00963021 0.998668 -0.00912413 0.0221254 0.996165 -0.0834749 -0.00701133 0.987448 -0.149585 
-0.0508299 0.961788 -0.25989 -0.0756096 0.919611 -0.379576 -0.0780914 0.860985 -0.497134 
-0.0664771 0.81838 -0.569207 -0.0346072 0.811781 -0.579913 0.031792 0.845757 -0.53066 
0.0767319 0.846147 -0.525776 0.0979506 0.812023 -0.572132 0.067179 0.688362 -0.711771 
0.0164736 0.487689 -0.856993 -0.0460625 0.259335 -0.960751 -0.0773397 0.0853868 -0.991639 
-0.0713075 0.00811663 -0.996414 -0.0892426 -0.0613977 -0.993593 -0.0861667 -0.209758 -0.966036 
-0.070729 -0.363883 -0.923771 -0.0401776 -0.491792 -0.866341 0.00030111 -0.593164 -0.800654 
0.046798 -0.673062 -0.7359 0.096374 -0.724811 -0.68068 0.137387 -0.761596 -0.63197 
0.190822 -0.79147 -0.579331 0.266305 -0.803443 -0.526981 0.348063 -0.799457 -0.486218 
0.422207 -0.779272 -0.458531 0.502248 -0.757563 -0.404513 0.582181 -0.739978 -0.33464 
0.626877 -0.760794 -0.109734 0.611781 -0.779274 0.0796527 0.575185 -0.792542 0.193149 
-0.378625 0.84584 0.369898 -0.29746 0.911356 0.246008 -0.383815 0.7801 0.482271 
-0.372013 0.716247 0.586703 -0.353143 0.657425 0.6637 -0.308556 0.590795 0.740677 
-0.292198 0.498549 0.81125 -0.304612 0.369938 0.873798 -0.38423 0.259101 0.880851 
-0.423188 0.155969 0.890553 -0.419525 0.054263 0.90389 -0.361653 -0.0353162 0.92894 
-0.267938 -0.110657 0.954193 -0.159211 -0.175086 0.9687 -0.0214017 -0.225061 0.972246 
0.0306811 -0.300954 0.950652 0.050112 -0.378549 0.922689 -0.00765314 -0.465024 0.880496 
-0.0674191 -0.535451 0.839953 -0.0827308 -0.574384 0.812624 -0.0770163 -0.598069 0.794437 
-0.0250102 -0.869829 0.489294 -0.07613 -0.790672 0.600322 0.00105801 -0.938179 0.30199 
0.0157967 -0.98758 0.100428 -0.00836604 -0.98787 -0.0951279 -0.0204322 -0.973843 -0.214113 
-0.0255404 -0.954481 -0.296496 0.00662085 -0.940867 -0.335118 0.037645 -0.922309 -0.382 
0.0618337 -0.896479 -0.436673 0.0498036 -0.858005 -0.508647 0.00159881 -0.813936 -0.57793 
-0.0900585 -0.748618 -0.651708 -0.164919 -0.689965 -0.701881 -0.226142 -0.638261 -0.735376 
-0.258075 -0.594576 -0.760317 -0.296951 -0.541732 -0.785366 -0.338791 -0.502748 -0.7949 
-0.41276 -0.454667 -0.786901 -0.485161 -0.399776 -0.774713 -0.543887 -0.308895 -0.777802 
-0.53851 -0.249434 -0.799078 -0.767638 0.238884 -0.584418 -0.746702 0.10181 -0.651081 
-0.767717 0.392434 -0.502717 -0.732185 0.509605 -0.443012 -0.694713 0.595782 -0.399018 
-0.667524 0.647723 -0.3644 -0.632652 0.709986 -0.295521 -0.585733 0.784523 -0.198548 
-0.485686 0.86164 -0.119162 -0.358399 0.926427 -0.0423253 -0.244053 0.968289 0.0244782 
-0.194162 0.977758 0.0663133 -0.220284 0.96676 0.127073 -0.0979416 -0.697983 0.708178 
-0.0279271 -0.675393 0.73134 -0.661574 -0.060631 -0.739763 -0.532494 -0.144045 -0.828986 
0.485804 -0.715509 0.495038 0.481893 -0.777969 0.40028 0.485576 -0.624099 0.603694 
0.463913 -0.549285 0.692183 0.440728 -0.495301 0.744154 0.413267 -0.443991 0.793793 
0.367845 -0.404846 0.834046 0.34449 -0.358058 0.866361 0.365637 -0.32592 0.867932 
0.436918 -0.259603 0.859989 0.494199 -0.223661 0.837121 0.554526 -0.16005 0.813084 
0.58983 -0.057512 0.802875 0.598475 0.0878173 0.785143 0.558611 0.262447 0.780828 
0.454053 0.454691 0.741479 0.221894 0.722968 0.641545 0.189193 0.82576 0.528998 
0.14764 0.874495 0.45558 0.1005 0.9181 0.374522 0.0386874 0.960881 0.254618 
-0.0148959 0.983806 0.173474 -0.0532176 0.990112 0.127269 -0.0697431 0.992342 0.100206 
-0.0753267 0.994652 0.0528926 -0.0760276 0.996275 -0.0215308 -0.0252237 0.990756 -0.129097 
-0.0355843 0.962359 -0.254209 -0.0486559 0.924809 -0.370563 -0.0632149 0.87789 -0.472999 
-0.0401959 0.845516 -0.531253 0.00695761 0.852541 -0.521291 0.0567031 0.872036 -0.484111 
0.0928781 0.847629 -0.5181 0.0843195 0.776338 -0.620848 0.0559828 0.599602 -0.779734 
0.0145739 0.385751 -0.914596 -0.0206876 0.199894 -0.974368 -0.0121992 0.109819 -0.992411 
0.00608497 0.042555 -0.998176 0.0157661 -0.0456662 -0.997851 0.00450304 -0.167763 -0.982883 
0.00262063 -0.304369 -0.94743 0.0204173 -0.44951 -0.891278 0.0437195 -0.543328 -0.833887 
0.067286 -0.629401 -0.772757 0.105719 -0.69634 -0.708034 0.13811 -0.73723 -0.65973 
0.161216 -0.769007 -0.618536 0.21548 -0.776586 -0.589958 0.27451 -0.778872 -0.561114 
0.352249 -0.770084 -0.528309 0.441901 -0.772884 -0.444787 0.533906 -0.788504 -0.287393 
0.582125 -0.799417 -0.0394066 0.557558 -0.810416 0.159448 0.500881 -0.817771 0.277467 
0.484409 -0.803627 0.34269 -0.609803 0.0236563 -0.778311 -0.489103 -0.0318953 -0.864833 
-0.689536 0.0856937 -0.712839 -0.736247 0.229259 -0.615902 -0.744474 0.405556 -0.51403 
-0.675891 0.579086 -0.451281 -0.635123 0.652179 -0.407882 -0.597485 0.703734 -0.380705 
-0.576017 0.749087 -0.319019 -0.577024 0.787144 -0.213141 -0.555837 0.824106 -0.0584853 
-0.499019 0.860353 0.0731438 -0.381015 0.906187 0.168181 -0.260987 0.955248 0.112276 
-0.206086 0.972672 0.0956882 -0.222509 0.96133 0.153497 -0.280015 0.904981 0.285894 
-0.330132 0.826567 0.447732 -0.343505 0.743912 0.567423 -0.336262 0.671264 0.657546 
-0.352954 0.592888 0.721132 -0.377456 0.48619 0.786045 -0.434371 0.384734 0.810733 
-0.468975 0.269062 0.839803 -0.462439 0.155505 0.869505 -0.43586 0.0357327 0.896001 
-0.383086 -0.0813565 0.914327 -0.317401 -0.180869 0.927635 -0.224766 -0.242937 0.936072 
-0.0931943 -0.302805 0.948205 -0.0187881 -0.323553 0.944166 0.0305642 -0.339879 0.939642 
0.00587915 -0.396951 0.916691 -0.0204402 -0.458768 0.886157 -0.0431888 -0.524906 0.846495 
-0.019468 -0.56981 0.820147 0.0435567 -0.602026 0.792757 0.0588358 -0.701608 0.707365 
0.142648 -0.66899 0.722831 -0.0220686 -0.773011 0.626996 -0.0615357 -0.829751 0.542363 
-0.0569316 -0.885202 0.448836 -0.0166737 -0.951748 0.274986 0.00984025 -0.991247 0.0764778 
-0.00162274 -0.993103 -0.0813872 -0.0156162 -0.97606 -0.20134 -0.0297146 -0.956676 -0.288746 
-0.0425668 -0.941034 -0.332396 -0.03281 -0.920291 -0.387003 -0.00529068 -0.897216 -0.440311 
0.0151648 -0.867924 -0.493598 0.0211099 -0.834094 -0.550116 -0.00994528 -0.782832 -0.619555 
-0.0667954 -0.732759 -0.672983 -0.14254 -0.680404 -0.718316 -0.206796 -0.625502 -0.749436 
-0.258451 -0.576196 -0.774464 -0.292342 -0.535943 -0.791963 -0.330114 -0.500734 -0.7992 
-0.37394 -0.452862 -0.806617 -0.428787 -0.384741 -0.814549 -0.468919 -0.272979 -0.838246 
-0.427665 -0.207791 -0.872292 -0.37745 -0.0700311 -0.915929 -0.428052 0.068882 -0.888622 
-0.339807 0.117075 -0.927797 -0.516554 0.117741 -0.833249 0.511335 -0.595767 0.611893 
0.513144 -0.69699 0.492313 0.512244 -0.497038 0.699621 0.514028 -0.428299 0.739374 
0.51555 -0.359403 0.776314 0.522886 -0.310393 0.791878 0.512024 -0.288364 0.808741 
0.503965 -0.293833 0.811825 0.499076 -0.291347 0.814966 0.520143 -0.245542 0.816827 
0.510695 -0.198378 0.834444 0.475927 -0.0669954 0.865128 0.428967 0.0858313 0.891511 
0.334583 0.267572 0.885504 0.218825 0.429904 0.861236 0.0913393 0.548914 0.818425 
0.000493241 0.889013 0.446481 0.0246047 0.838125 0.537815 -0.0356328 0.936754 0.338423 
-0.0467916 0.970564 0.220602 -0.0580433 0.987557 0.14375 -0.0673724 0.990711 0.116891 
-0.0834068 0.992783 0.0782936 -0.0917951 0.99491 0.0354661 -0.0994227 0.994565 -0.0114234 
-0.0902254 0.984996 -0.131725 -0.090963 0.951741 -0.277554 -0.0865065 0.913949 -0.394731 
-0.0660101 0.872518 -0.481588 0.00953835 0.876858 -0.477655 0.0545118 0.886999 -0.458462 
0.0711078 0.882074 -0.465359 0.0911479 0.847075 -0.518619 0.0750703 0.742375 -0.656641 
0.0472441 0.551529 -0.818768 0.0111108 0.321644 -0.940432 0.00924944 0.182156 -0.980902 
0.024179 0.0895559 -0.994406 0.0492255 0.0344486 -0.996836 0.079477 -0.0493974 -0.993769 
0.0820617 -0.176274 -0.975569 0.0734275 -0.325196 -0.939881 0.0826667 -0.447668 -0.886575 
0.115605 -0.549925 -0.824782 0.143509 -0.635298 -0.758153 0.15808 -0.698126 -0.695735 
0.167317 -0.742058 -0.648525 0.177787 -0.764641 -0.619258 0.178064 -0.777536 -0.602525 
0.213919 -0.786057 -0.57857 0.257322 -0.795202 -0.545582 0.345823 -0.815866 -0.438331 
0.462221 -0.841168 -0.249016 0.516412 -0.835177 0.0153753 0.533756 -0.813276 0.226123 
0.520173 -0.800987 0.29421 0.493697 -0.797224 0.346277 0.508611 -0.769227 0.383185 
0.00880965 0.7378 0.659377 -0.0797681 0.684806 0.714737 -0.543935 0.214846 -0.802278 
-0.558043 0.379609 -0.717717 -0.559714 0.561348 -0.5996 -0.571178 0.645326 -0.494467 
-0.552866 0.710604 -0.434008 -0.531153 0.740301 -0.410897 -0.502946 0.781308 -0.36461 
-0.479121 0.823457 -0.30032 -0.475885 0.859421 -0.152723 -0.477391 0.870863 0.0216587 
-0.469844 0.851565 0.22858 -0.267874 0.956901 0.098876 -0.312705 0.939986 0.124378 
-0.277234 0.937384 0.207362 -0.291241 0.890015 0.324016 -0.307678 0.844254 0.427187 
-0.322063 0.78753 0.516704 -0.342659 0.715321 0.60257 -0.376739 0.636458 0.669077 
-0.405956 0.560986 0.720096 -0.465542 0.440426 0.764929 -0.476701 0.297184 0.820669 
-0.474028 0.157293 0.86255 -0.417592 0.0138156 0.901435 -0.349075 -0.120142 0.926328 
-0.234779 -0.234726 0.934847 -0.129185 -0.317566 0.936794 -0.0552609 -0.352149 0.931616 
-0.0130296 -0.363132 0.931296 -0.000106868 -0.364849 0.93105 0.00716632 -0.374898 0.926899 
0.000374553 -0.429646 0.900753 -0.000314272 -0.486176 0.871844 0.0228664 -0.507204 0.85959 
0.101476 -0.57758 0.808232 0.22001 -0.605214 0.757589 0.277374 -0.694467 0.654845 
0.38066 -0.655868 0.648908 0.153679 -0.772021 0.603385 0.0544677 -0.809197 0.575794 
-0.00279065 -0.843201 0.530143 0.0119571 -0.884276 0.445146 0.0336316 -0.945116 0.292915 
0.00404854 -0.985306 0.112209 -0.0316533 -0.996498 -0.0602997 -0.0400387 -0.973721 -0.20566 
-0.047767 -0.95167 -0.301248 -0.0390654 -0.925117 -0.373794 -0.0289729 -0.895094 -0.442874 
-0.00313773 -0.868252 -0.494095 0.0210046 -0.838219 -0.542878 0.0349522 -0.806598 -0.589962 
0.0248195 -0.77355 -0.631177 -0.0105103 -0.737927 -0.673593 -0.0791534 -0.690372 -0.716453 
-0.148512 -0.639996 -0.751509 -0.220367 -0.586568 -0.777502 -0.272617 -0.548724 -0.789314 
-0.315958 -0.502063 -0.803967 -0.364631 -0.433849 -0.822014 -0.407003 -0.366208 -0.831314 
-0.365818 -0.358028 -0.856829 -0.31527 -0.218906 -0.918383 -0.262652 -0.105164 -0.953335 
-0.22906 -0.00863091 -0.971277 -0.339873 0.224304 -0.904402 -0.238747 0.186231 -0.94528 
-0.414044 0.236999 -0.870861 -0.394192 0.886169 0.229311 -0.426309 0.857073 0.287527 
-0.101197 0.794292 0.590838 -0.175754 0.661485 0.719896 -0.0944866 0.850821 0.509858 
-0.113186 0.88929 0.434902 -0.12674 0.926596 0.345946 -0.126484 0.955109 0.25749 
-0.126126 0.973484 0.18208 -0.126858 0.983614 0.12333 -0.143167 0.98477 0.0944196 
-0.142258 0.987533 0.0538064 -0.13343 0.990537 0.00359715 -0.142508 0.983512 -0.0968512 
-0.147078 0.955436 -0.242048 -0.131758 0.919711 -0.365124 -0.0794576 0.897498 -0.432988 
-0.0347527 0.893113 -0.446658 -0.00424359 0.893445 -0.447264 0.0277819 0.897308 -0.439732 
0.0496571 0.837437 -0.53008 0.0546998 0.751803 -0.654311 0.0315471 0.543559 -0.817226 
0.0201677 0.351354 -0.930526 0.0392425 0.217297 -0.971487 0.0679238 0.13712 -0.987239 
0.0915919 0.0573157 -0.993501 0.117003 -0.0938207 -0.983725 0.127142 -0.232607 -0.959021 
0.120189 -0.381115 -0.916267 0.126199 -0.466158 -0.872497 0.144213 -0.54577 -0.824084 
0.165847 -0.625335 -0.76083 0.181229 -0.689658 -0.699501 0.172087 -0.746823 -0.641156 
0.163147 -0.773735 -0.611892 0.163814 -0.78842 -0.592663 0.176907 -0.799816 -0.573402 
0.183152 -0.814121 -0.550685 0.220641 -0.841815 -0.481655 0.280731 -0.879238 -0.377261 
0.392941 -0.885674 -0.091536 0.487777 -0.854544 0.144969 0.525114 -0.792172 0.307419 
0.55023 -0.771067 0.317376 0.576082 -0.742234 0.335515 0.547966 -0.703047 0.447627 
0.523156 -0.625797 0.568773 0.53146 -0.530993 0.65843 0.563467 -0.434653 0.698109 
0.591174 -0.333962 0.733736 0.565793 -0.289932 0.769321 0.542358 -0.253087 0.800645 
0.526561 -0.258108 0.809703 0.496654 -0.267337 0.823174 0.438421 -0.266063 0.856739 
0.365816 -0.246574 0.89155 0.313912 -0.150369 0.931839 0.232971 -0.0216069 0.961435 
0.142834 0.168789 0.960645 0.0316604 0.356613 0.924155 -0.07841 0.492337 0.85061 
-0.179179 0.501079 0.841244 -0.209698 0.589846 0.772309 -0.216208 0.707724 0.667988 
-0.232201 0.64314 0.72155 -0.178279 0.748032 0.631935 -0.423931 0.43333 -0.784946 
-0.474403 0.590205 -0.641797 -0.497129 0.685646 -0.522334 -0.501197 0.750846 -0.429013 
-0.45518 0.795169 -0.395152 -0.406282 0.836645 -0.362476 -0.360805 0.873818 -0.318977 
-0.339884 0.906773 -0.23775 -0.332426 0.927835 -0.134943 -0.353727 0.929222 0.00693971 
-0.409631 0.888223 0.1735 -0.44848 0.846508 0.283581 -0.45498 0.843287 0.272029 
-0.380308 0.902534 0.1754 -0.331243 0.93678 0.108974 -0.317379 0.940804 0.112484 
-0.296086 0.932647 0.174986 -0.300506 0.888641 0.327946 -0.329577 0.830027 0.440481 
-0.34639 0.803273 0.482455 -0.373292 0.749587 0.538291 -0.401774 0.686998 0.600062 
-0.420483 0.632586 0.646783 -0.429994 0.572818 0.695822 -0.407505 0.208083 0.87581 
-0.431107 0.36756 0.820051 -0.355894 0.0368128 0.929704 -0.283956 -0.100683 0.94219 
-0.221573 -0.206668 0.945558 -0.11005 -0.278436 0.950888 -0.0405937 -0.361805 0.930027 
-0.0237199 -0.394344 0.918501 -0.0233141 -0.391554 0.919798 0.0443143 -0.480807 0.871671 
0.0208281 -0.410534 0.911164 -0.413856 0.461193 0.781617 -0.398788 0.518992 0.753335 
-0.0124596 -0.38698 0.921668 0.0166023 -0.369229 0.927921 0.330714 -0.593221 0.731886 
0.12429 -0.500046 0.853042 0.388568 -0.605278 0.689066 0.444179 -0.665051 0.596705 
0.454976 -0.645438 0.611886 0.370459 -0.755037 0.526373 0.261519 -0.796595 0.539546 
0.0945458 -0.908488 0.396209 0.121885 -0.937892 0.30451 0.126838 -0.969318 0.144662 
-0.036273 -0.983395 -0.141738 -0.0510125 -0.95769 -0.267848 -0.0416194 -0.937304 -0.34425 
-0.0433582 -0.91679 -0.393361 -0.0414044 -0.891143 -0.448836 -0.0277199 -0.856059 -0.513526 
0.0157812 -0.816753 -0.574709 0.0655739 -0.78783 -0.610879 0.069937 -0.760796 -0.644755 
0.0382381 -0.742296 -0.667447 -0.0216412 -0.712483 -0.700584 -0.092915 -0.663305 -0.739524 
-0.16229 -0.60844 -0.775089 -0.204889 -0.55121 -0.808299 -0.221971 -0.449062 -0.862492 
-0.29906 -0.400752 -0.861371 -0.221948 -0.272431 -0.930456 -0.160938 -0.160967 -0.96969 
-0.132039 0.0150039 -0.982817 -0.110695 0.118832 -0.982395 -0.253698 0.371711 -0.885605 
-0.0935891 0.241545 -0.954524 -0.351576 0.354588 -0.859563 -0.178225 0.791038 0.571814 
-0.180007 0.848392 0.49095 -0.18785 0.89409 0.397551 -0.189771 0.934844 0.294122 
-0.203517 0.957454 0.19409 -0.20594 0.968664 0.131874 -0.214844 0.969728 0.107104 
-0.21532 0.971771 0.0869511 -0.187639 0.979592 0.05814 -0.145387 0.987242 -0.0519185 
-0.154519 0.967089 -0.178835 -0.156093 0.943365 -0.289401 -0.126422 0.924153 -0.358137 
0.00763689 0.907181 -0.420424 -0.0381115 0.911872 -0.408143 0.0176394 0.882608 -0.468827 
0.00767739 0.759356 -0.624709 0.00505235 0.610685 -0.788188 0.0214876 0.432686 -0.885222 
0.0419177 0.289046 -0.954538 0.068284 0.208818 -0.973408 0.0846249 0.144209 -0.984686 
0.0952577 0.0881459 -0.991376 0.104415 -0.0336313 -0.991013 0.0694426 -0.291447 -0.95026 
0.102073 -0.395554 -0.90982 0.111347 -0.471513 -0.872305 0.123775 -0.541475 -0.828099 
0.132533 -0.624369 -0.76828 0.140318 -0.705791 -0.689286 0.136362 -0.765993 -0.627977 
0.128402 -0.783503 -0.607696 0.162312 -0.768836 -0.618028 0.184675 -0.784546 -0.591094 
0.209562 -0.80808 -0.550126 0.206007 -0.848651 -0.480048 0.270288 -0.907412 -0.305446 
0.388321 -0.897987 -0.0678781 0.539085 -0.822226 0.160066 0.620927 -0.736853 0.254703 
0.632949 -0.708932 0.306345 0.603167 -0.69764 0.378075 0.545798 -0.665215 0.50313 
0.523627 -0.619251 0.58215 0.51795 -0.577414 0.630463 0.508603 -0.500618 0.69553 
0.44812 -0.422078 0.782899 0.421889 -0.350056 0.831634 0.420616 -0.289795 0.855367 
0.428582 -0.258087 0.863065 0.377127 -0.256081 0.889603 0.310733 -0.247013 0.914209 
0.247454 -0.226625 0.941805 0.149582 -0.161468 0.966909 0.0675795 -0.0690089 0.992429 
-0.0185611 0.0701235 0.984805 -0.101727 0.190949 0.972173 -0.157912 0.302673 0.927882 
-0.199315 0.44273 0.865259 -0.191832 0.49567 0.845263 -0.221059 0.559398 0.791564 
-0.256848 0.678482 0.68361 -0.293184 0.651692 0.690556 -0.231052 0.777953 0.575615 
-0.0727293 0.91704 -0.390941 -0.144917 0.920777 -0.358623 0.274404 -0.88246 0.354648 
0.324371 -0.908904 0.23768 0.0534826 -0.944734 -0.309203 0.124053 -0.957314 -0.236611 
0.0109228 -0.931005 -0.359308 -0.00172556 -0.90895 -0.413786 -0.011233 -0.86898 -0.489007 
-0.00227606 -0.825721 -0.560691 0.022226 -0.790914 -0.610005 0.0435554 -0.758763 -0.649551 
0.0792963 -0.766807 -0.636636 0.0681866 -0.759176 -0.646696 0.0381848 -0.739121 -0.671954 
-0.00558632 -0.696922 -0.713985 -0.053556 -0.639442 -0.764589 -0.0935475 -0.567413 -0.816623 
-0.0976805 -0.487636 -0.863982 -0.147808 -0.361403 -0.915229 -0.0654839 -0.352129 -0.928982 
-0.376856 0.494458 -0.768856 -0.398345 0.655846 -0.625149 -0.393899 0.779999 -0.476783 
-0.342711 0.848402 -0.39849 -0.28432 0.890468 -0.352787 -0.255731 0.913601 -0.31418 
-0.278522 0.928817 -0.236391 -0.294188 0.93851 -0.176664 -0.317041 0.939456 -0.0984939 
-0.335162 0.937782 -0.0276855 -0.329253 0.932384 0.0825903 -0.397989 0.889335 0.213379 
-0.280855 0.944326 0.148876 -0.472328 0.85509 0.205695 -0.435546 0.883236 0.157418 
-0.373638 0.921328 0.0947313 -0.361463 0.912916 0.180387 -0.340188 0.892176 0.279371 
-0.301657 0.887494 0.344199 -0.356666 0.827995 0.416154 -0.406999 0.753145 0.510272 
-0.431339 0.673204 0.593721 -0.42466 0.631984 0.643653 -0.397898 0.612316 0.678657 
-0.348216 0.503855 0.78825 -0.289272 0.533005 0.787281 -0.311261 0.425739 0.841482 
-0.273528 0.290426 0.9143 -0.207551 0.114677 0.956195 -0.151273 -0.0389581 0.984595 
-0.118602 -0.161643 0.971254 0.330607 -0.525833 0.779732 0.22794 -0.46931 0.848763 
0.425648 -0.600684 0.67476 0.508695 -0.708815 0.483722 0.480366 -0.656298 0.580064 
0.455054 -0.745838 0.475354 -0.25273 0.828032 0.490985 -0.270469 0.879015 0.379901 
-0.28521 0.915598 0.271065 -0.292634 0.934307 0.195476 -0.301175 0.941213 0.14445 
-0.296365 0.944995 0.130194 -0.257058 0.955741 0.132192 -0.186449 0.974803 -0.066397 
-0.17697 0.962862 -0.187837 -0.197992 0.941469 -0.264506 -0.218039 0.932614 -0.28157 
-0.0483747 0.890706 -0.44523 -0.0733484 0.908547 -0.405214 -0.0347208 0.855899 -0.50468 
-0.0465394 0.777441 -0.618702 -0.0423678 0.648424 -0.746468 -0.028265 0.490322 -0.860247 
0.0143667 0.354224 -0.930964 0.0547638 0.235206 -0.966863 0.0760754 0.125973 -0.987467 
0.0568848 0.0268871 -0.996389 0.0530616 -0.0730184 -0.989237 0.00933192 -0.133989 -0.985581 
0.0512371 -0.536649 -0.839915 0.0373767 -0.4626 -0.884947 0.0639678 -0.617742 -0.780552 
0.0770653 -0.704602 -0.701944 0.0911203 -0.7498 -0.653811 0.103116 -0.781267 -0.615272 
0.120219 -0.770996 -0.624552 0.126941 -0.756943 -0.640724 0.222868 -0.821915 -0.523519 
0.218206 -0.792269 -0.568413 0.239639 -0.859634 -0.441191 0.274442 -0.899725 -0.329725 
0.370445 -0.907301 -0.129813 0.48134 -0.864952 0.0329731 0.580205 -0.788225 0.17507 
0.572717 -0.742422 0.329322 0.0071177 -0.360604 -0.926276 -0.0443267 -0.330506 -0.939959 
0.22727 -0.958847 -0.0946429 0.377131 -0.904592 0.106194 0.178055 -0.757592 -0.627512 
0.132865 -0.745323 -0.652068 0.470496 -0.612035 0.631877 0.454014 -0.576329 0.677392 
0.417355 -0.532334 0.730986 0.359417 -0.464355 0.80857 0.318869 -0.40202 0.854224 
0.282252 -0.330614 0.899905 0.26426 -0.275602 0.922458 0.256961 -0.239319 0.934869 
0.189901 -0.208833 0.956069 0.121647 -0.168885 0.976056 0.0310924 -0.087819 0.989569 
-0.0563436 0.00298138 0.996473 -0.111877 0.126089 0.976419 -0.156856 0.242757 0.952225 
-0.182095 0.328287 0.922169 -0.165958 0.345038 0.917646 -0.15144 0.411733 0.894497 
-0.231772 0.514719 0.824639 -0.350634 0.661273 0.655283 -0.00275342 -0.327588 0.943674 
0.00467216 -0.242843 0.966797 -0.00076124 -0.365487 0.930109 0.0152824 -0.353303 0.935187 
0.0620126 -0.340378 0.936541 0.134189 -0.348464 0.926923 0.173512 -0.298209 0.936983 
0.156508 -0.386876 0.903866 -0.102484 0.725306 -0.667245 -0.116227 0.82158 -0.544245 
-0.0828444 0.598188 -0.790047 -0.0386806 0.474511 -0.869363 -0.0140564 0.380187 -0.91999 
0.00457337 0.290671 -0.949783 0.0070037 0.145301 -0.984582 -0.042505 -0.062157 -0.993132 
-0.0896596 -0.185292 -0.974232 0.196603 -0.255653 0.945576 0.175845 -0.203719 0.961138 
0.141783 -0.150276 0.97721 0.084394 -0.075913 0.988591 0.0251535 0.0037507 0.998825 
-0.0337692 0.104258 0.986515 -0.0965927 0.211778 0.971301 -0.126655 0.352563 0.921512 
-0.173175 0.394193 0.891485 -0.190479 0.364979 0.904459 -0.163061 0.287583 0.933519 
-0.113326 0.170985 0.966038 -0.0530676 0.0254724 0.99285 -0.0174913 -0.108893 0.987096 
-0.329444 0.769196 0.538617 -0.359674 0.823794 0.430285 -0.384582 0.860626 0.327942 
-0.390084 0.886222 0.235036 -0.392128 0.906317 0.152622 -0.399554 0.902521 0.154258 
-0.428998 0.887734 0.164859 -0.40287 0.841035 0.358242 -0.411402 0.817383 0.393558 
-0.421578 0.779806 0.462439 -0.405806 0.712027 0.564911 -0.467247 0.85691 0.212006 
-0.45672 0.877206 0.144416 -0.411697 0.897191 0.152299 -0.393597 0.892501 0.201896 
-0.0776469 0.274797 0.956466 -0.0295817 0.180317 0.975605 0.0199968 0.0658347 0.991626 
0.04518 -0.0455042 0.993201 0.0480532 -0.151515 0.98253 0.0446048 -0.24527 0.966258 
0.0312449 -0.306513 0.948957 0.0936776 -0.264857 0.958615 -0.288654 0.954295 0.0246261 
-0.283818 0.951412 -0.0743906 -0.275884 0.939773 -0.187782 -0.256734 0.932107 -0.251369 
-0.120956 0.91999 -0.370177 -0.192981 0.914951 -0.35211 -0.224683 0.531708 -0.805049 
-0.264855 0.714609 -0.636444 -0.241806 0.816402 -0.518944 -0.240506 0.87091 -0.421277 
-0.224666 0.903374 -0.364512 -0.156141 0.887334 -0.431993 -0.253115 0.924585 -0.280569 
-0.017325 -0.458943 -0.884818 0.00938102 -0.52203 -0.85217 0.0263557 -0.574425 -0.816065 
0.0453609 -0.630964 -0.771322 0.0654688 -0.676687 -0.731171 0.076004 -0.72585 -0.680648 
0.08343 -0.770862 -0.629802 0.0983198 -0.771243 -0.62856 0.105717 -0.751077 -0.651273 
0.0909217 -0.739884 -0.666115 0.130928 -0.764717 -0.628441 0.0621318 -0.757755 -0.64932 
0.170607 -0.77449 -0.608307 0.196831 -0.793468 -0.572875 0.22298 -0.81956 -0.527507 
0.226886 -0.854916 -0.461103 0.248592 -0.891828 -0.367131 0.335066 -0.914392 -0.207752 
0.431902 -0.890332 -0.0282579 0.470032 -0.868825 0.109801 0.466092 -0.832972 0.270453 
0.368763 -0.918954 -0.0466846 0.317691 -0.933441 -0.120063 0.240126 -0.927843 -0.249797 
0.160641 -0.916343 -0.362665 0.126728 -0.891039 -0.429169 0.106541 -0.865261 -0.485924 
0.0817577 -0.834583 -0.539926 0.0495845 -0.799274 -0.594352 0.0697386 -0.768056 -0.63643 
0.0652946 -0.759931 -0.646521 0.0609043 -0.759849 -0.646032 0.032313 -0.728762 -0.683087 
0.0204398 -0.674389 -0.735145 -0.0019424 -0.594672 -0.802633 -0.0177686 -0.528145 -0.846802 
-0.0318649 -0.473554 -0.878184 -0.092619 0.411723 -0.903337 0.050284 -0.733449 -0.675369 
0.065492 -0.757067 -0.649571 0.0866813 -0.765579 -0.63706 0.0938005 -0.763641 -0.638412 
0.0911258 -0.753304 -0.650675 0.188098 -0.857176 -0.477993 0.164459 -0.825455 -0.535629 
0.206584 -0.879651 -0.422296 0.216618 -0.898527 -0.377917 -0.446361 0.881923 0.149024 
-0.455837 0.878368 0.140907 -0.394323 0.796818 0.448139 -0.412937 0.849231 0.325725 
-0.37436 0.759878 0.526726 0.0974501 -0.178954 0.975913 0.0918362 -0.0864704 0.990306 
0.0532141 0.005342 0.993815 0.0105101 0.104505 0.992449 -0.0544311 0.224082 0.964382 
0.0478224 -0.767555 -0.638584 0.0913314 -0.766689 -0.633148 0.129038 -0.79222 -0.592462 
-0.17475 0.909236 -0.37614 -0.169026 0.899494 -0.400614 -0.179866 0.79073 -0.571753 
-0.163129 0.715466 -0.669728 -0.127723 0.607752 -0.771325 -0.0906784 0.538166 -0.824582 
-0.447868 0.874136 0.178529 0.457395 -0.629891 0.624827 -0.221865 0.921759 -0.315712 

Radius 1 1116 double
0.15 0.15 1.3837835335 1.2050487856 0.15 1.4716922249 0.15 1.4920706558 0.15 
1.516783637 0.15 1.5390522029 0.15 1.5965543033 0.15 1.5884270607 0.15 1.4912132428 
0.15 1.3898288955 0.15 1.3326461442 0.15 1.2898016053 0.15 1.3698200353 0.15 
1.4011537608 0.15 1.4497232058 0.15 1.4771134761 0.15 1.4803170086 0.15 1.3909136458 
0.15 1.3213239912 0.15 1.2723519444 0.15 1.2455979952 0.15 1.2198712447 0.15 
1.2577871264 0.15 1.2571357216 0.15 1.2708769781 0.15 1.3917645769 0.15 1.5461111587 
0.15 1.7509879135 0.15 1.8097876165 0.15 1.6899546803 0.15 1.5444426666 0.15 
1.4379375214 0.15 1.3894997568 0.15 1.3607214426 0.15 1.3198558027 0.15 1.2729693451 
0.15 1.2516963147 0.15 1.2429255021 0.15 1.2463077714 0.15 1.2568230454 0.15 
1.2477925752 0.15 1.1240957667 0.14999968179 1.1306899735 0.14999934307 1.1660866887 0.14999906194 1.2202262168 
0.14999924036 1.1771800526 0.14999974081 1.1458465728 0.15 1.1099568063 0.15 1.0339176984 0.15 
1.0188822222 0.15 1.0246920434 0.15 1.1173310866 0.15 1.2601280922 0.15 1.4862431447 
0.15 1.5269719483 0.15 1.4548178925 0.15 0.15 1.3110791708 1.1694345764 0.15 
1.4284102894 0.15 1.4545459421 0.15 1.5314804842 0.15 1.6237815694 0.15 1.6574046128 
0.15 1.6383804807 0.15 1.430761641 0.15 1.2626946964 0.15 1.1561910387 0.15 
1.0744385869 0.15 1.2075961252 0.15 1.2996968653 0.15 1.3433224417 0.15 1.3723757604 
0.15 1.4003459559 0.15 1.3082670987 0.15 1.2304864537 0.15 1.3081254611 0.15 
1.3910910607 0.15 1.4955397221 0.15 1.4548280864 0.15 1.499261799 0.15 1.6633534618 
0.15 1.5870852905 0.15 1.5108017992 0.15 1.3828164523 0.15 1.4365724137 0.15 
1.571917708 0.15 1.7675853898 0.15 1.8498716027 0.15000001557 1.7995083942 0.14999990124 1.6728394445 
0.14999996128 1.7269979743 0.15 1.8624713527 0.15 2.0646505916 0.15 2.1536209679 0.15 
2.1740000492 0.15 2.0474630387 0.15 1.9671678418 0.15 1.8584803317 0.15 1.7341000193 
0.15 1.6287705747 0.15 1.5448544805 0.15 1.4703554452 0.15 1.4564928598 0.15 
1.3782902522 0.15 1.2270431634 0.15 1.2898530725 0.15 1.3609217814 0.15 1.3653179121 
0.15 1.2729056381 0.15 1.134749743 0.15 0.99838572397 0.15 0.86033473226 0.15 
1.0741444424 0.15 1.2198049203 1.7766845 1.7110235683 1.8079727563 1.7304691228 1.7013922041 1.7285638516 
1.6502627387 1.5249342545 1.3810758208 1.3160700405 1.3148170252 1.3711686483 1.4054996411 1.4412536609 1.4863595923 
1.5273131771 1.53653957 1.5400587352 1.5304894514 1.5201050558 1.4991479505 1.5968195686 1.5473378575 1.4962386911 
1.5104739878 1.604895218 1.7919227521 1.8823552423 1.785845393 1.6259120989 1.5357741452 1.5163142908 1.4798450916 
1.4333932427 1.3643876073 1.3982090856 1.4032180223 1.3834638156 1.3555961269 1.3446607322 1.2676728451 1.2901282622 
1.3476242526 1.3674822746 1.2682280852 1.2638122471 1.2634548592 1.237906645 1.2167792347 1.1906859323 1.2174108817 
1.3346799356 1.6348269215 1.7972708549 1.7214998123 1.5418441013 1.7035336596 1.6502619093 1.7243675606 1.8190025536 
1.90156205 1.9403788666 1.935088479 1.6795913412 1.4352435955 1.3173322638 1.2360893693 1.3105726342 1.3798692684 
1.4320581958 1.4594746787 1.4814039828 1.4506708515 1.4350838047 1.3965584579 1.4625213933 1.5570865438 1.5258633438 
1.6162889293 1.8032210161 1.689536794 1.554934819 1.4386454293 1.5199022917 1.6901804937 1.825811414 1.9034125672 
1.8086044562 1.633695201 1.6972022587 1.9078224438 2.1688136782 2.2420336073 2.2180155119 2.1135365906 2.0113648658 
1.9175667308 1.7978199941 1.6806252726 1.5852731043 1.5265539662 1.5136097715 1.4705816606 1.3838165526 1.4671132517 
1.5048272456 1.4756196828 1.3719988342 1.1888200356 1.0367996671 0.8931758427 1.1702852723 1.4122150352 1.568851332 
2.0312237151 1.9557597425 1.9103646659 1.8215306201 1.7603021825 1.6251095762 1.4852089917 1.3996163998 1.4705853364 
1.5443626512 1.5516093607 1.5193300831 1.4180590373 1.4245847713 1.4720420824 1.4958485151 1.5213463667 1.5372786944 
1.5622511821 1.6296516547 1.7427327351 1.6124664473 1.6889262576 1.5871488072 1.6242407808 1.7863041568 1.8248034428 
1.809348627 1.6382563778 1.5224666553 1.4604473024 1.4113582536 1.4071375049 1.3603836955 1.380850659 1.4257737755 
1.4222830211 1.4042733244 1.3385913613 1.3002014339 1.3231752921 1.4497797528 1.4330953491 1.113390337 1.1490945268 
1.0959792318 1.1600149477 1.2102538557 1.2392049746 1.3120290926 1.3706488024 1.553779729 1.7215872407 1.7421589301 
1.7399306482 1.8728950647 1.8206697684 1.9248994045 1.2745674399 1.3778898871 1.9527079235 1.876897671 2.0298010343 
2.1039428017 2.1292824294 2.1005991547 1.7926462143 1.5086035699 1.2854616199 1.2122529817 1.3295783778 1.4057188572 
1.4558931045 1.4884750419 1.5016214899 1.5508357482 1.6444739413 1.4514523842 1.5285734701 1.6095458973 1.6037182438 
1.674455032 1.8312640045 1.720586273 1.5858035006 1.5108002323 1.5800393397 1.7041116662 1.809703847 1.8548640623 
1.7153427482 1.5911440706 1.7690090835 1.9159365657 2.1103074181 2.1288651022 2.0963145892 2.0056232556 1.9171229482 
1.8320168277 1.752365395 1.620169535 1.5205631154 1.5388211442 1.5403038678 1.5380832431 1.5841097216 1.5836867901 
1.5970380724 1.5294963985 1.4419007688 1.3350853084 1.2845210841 1.205089031 1.3715306084 1.5597432458 1.6946771562 
1.7929568185 1.1931757996 1.330104313 1.0572637161 1.0200699732 1.0239224106 1.1095903524 1.1679136305 1.2154140977 
1.3158225418 1.4579482988 1.4997585969 1.5909740382 1.6806731572 1.7822584724 1.8726336957 2.1110331013 2.121590005 
1.9526480395 1.833971527 1.7449565987 1.6627950581 1.5433655223 1.6337549056 1.6808035002 1.7214743373 1.6795270455 
1.5798850866 1.4388811555 1.417659387 1.440309861 1.463328543 1.5021786301 1.5431042879 1.6265974256 1.7036704425 
1.8296776084 1.9928650213 2.1086728887 2.1158511218 1.9328135081 1.810557375 1.7359279583 1.6728609943 1.6850321302 
1.7708278238 1.7696754144 1.7456702632 1.5923810541 1.4623737528 1.361703463 1.3388227022 1.3427768592 1.3241367225 
1.3571819861 1.4097495612 1.4100310256 1.3833149183 1.3186972258 1.3159146726 1.3512269847 1.4454588195 1.4734240132 
1.4534192731 1.4433506627 1.2831938528 1.4300940627 1.1925364615 2.1002288504 1.9866415283 2.194890392 2.1658848833 
2.1090290935 1.8762993406 1.6144786821 1.3726721314 1.1813356807 1.347610667 1.5203472502 1.6302685002 1.7209245683 
1.735498093 1.7931537992 1.8969044509 1.5632516606 1.6006345165 1.6065178157 1.6618982744 1.7664802217 1.8909140121 
1.7632549408 1.609985788 1.5253284326 1.5819384802 1.6817180625 1.753365231 1.7825822736 1.6469731399 1.6118455086 
1.7776974469 1.9261961985 1.9822561325 1.9800731355 1.9610999109 1.9110017999 1.833087706 1.7423928452 1.6695779142 
1.5634277588 1.4590753651 1.5045059649 1.5223470623 1.5417349855 1.6057118158 1.6297118713 1.6057155198 1.4771627832 
1.4048039043 1.4029981368 1.4648624143 1.5347487827 1.6792221072 1.7682135923 1.7391028982 1.7713207545 1.8563024429 
1.7602346414 1.8116601585 1.0972968363 1.0672356991 1.0694042484 1.1787533411 1.26634537 1.3551379902 1.44883436 
1.5438419883 1.5579167027 1.5367624813 1.51247593 1.9185066714 1.6959992809 2.1844077978 2.0818413067 1.9653863777 
1.8594260728 1.7510948375 1.6714360067 1.6791339281 1.9041984667 1.9072337834 1.8646183427 1.777018283 1.6431037137 
1.5121772351 1.4437683512 1.4128069251 1.4259132904 1.4778491205 1.6298907316 1.7203155465 1.7777127871 1.8761500684 
2.0024591497 2.1374718674 2.1358255971 2.1213888319 2.1136043764 1.9863638675 1.8796495875 1.8331252683 1.7554664656 
1.7261257264 1.7583923757 1.7634657163 1.7436222047 1.6268766819 1.4741940741 1.3317603545 1.2882680749 1.3078376109 
1.3844438254 1.3880189358 1.3871660668 1.4233010998 1.437309676 1.3918944283 1.3822438214 1.3768288907 1.42340329 
1.4890540649 1.5506650617 1.5796131396 1.5636154404 1.4082769142 1.5753766411 1.2191544914 1.6867925154 1.5803747131 
1.7910054452 1.8050409976 1.74053819 1.6782741679 1.6560057402 1.6589695446 1.7527153284 1.8903293901 1.7418090473 
1.5656473075 1.4383511128 1.480658365 1.5712427165 1.6263898861 1.6909831292 1.6132608649 1.6481739171 1.7513239117 
1.7847260531 1.7995797614 1.8307098969 1.8409107058 1.8343794769 1.7562933705 1.6581368957 1.5817608841 1.5002131535 
1.4118912365 1.4418636867 1.4669690021 1.4779510465 1.5321571412 1.5508640487 1.5071280949 1.3747220401 1.2806882133 
1.3460870264 1.4932531363 1.6936647678 1.7765765585 1.7386202652 1.5994167817 1.6754657555 1.7950498365 1.9436060452 
2.0345965802 2.0687139174 2.0637790383 2.0581351112 1.8792691022 1.695336793 1.4848509649 1.3121173525 1.4826497038 
1.635902477 1.791817328 1.9140164602 1.8996094888 1.8709095679 1.8510248394 1.8264983498 1.7821913666 1.7795871218 
1.7899117051 1.775862408 1.2006102959 1.1982295983 1.3209559736 1.4761441698 1.509811613 1.5491877454 1.6036563651 
1.5973690243 1.5310171818 1.4117198341 1.3961440965 1.468555057 1.4472934788 1.5507692329 1.7309608222 1.9583042482 
2.0334123937 2.0063687146 1.9592489905 1.9060510258 1.8286928577 1.7801147858 1.8706082139 1.9752413466 1.8769306825 
1.9812646899 1.7384332348 1.6320051672 1.5393588567 1.4443864687 1.4093695963 1.4292593306 1.4866178528 1.8462094356 
1.7815273136 1.9958353334 1.9880259807 1.6320466488 1.5268259263 2.1684901472 2.012986108 2.1193206357 2.0291685328 
2.0076651853 2.0692091786 2.0659635562 1.9593357055 1.8361273579 1.7982181407 1.8050635059 1.7743076799 1.7326378054 
1.6480566053 1.5319349315 1.3779747132 1.3122126073 1.2938109121 1.4116722133 1.4725893866 1.4577558781 1.4882965149 
1.4974270262 1.4896296049 1.5225342934 1.5025421072 1.5542885213 1.5369836778 1.5842288961 1.6197102675 1.5434755619 
1.5763349041 1.3766208178 1.7368211314 1.6831389886 1.6525740027 1.6457102681 1.739898432 1.8676668523 1.6959986627 
1.5399806345 1.4382481945 1.4287458461 1.5032301586 1.5766188614 1.6065633174 1.6718153656 1.6436597707 1.7547606212 
1.7167905256 1.6922488966 1.7164268908 1.7288527953 1.7245298016 1.6518907909 1.5429958442 1.4971594722 1.4556394285 
1.3918535887 1.382241922 1.3839241959 1.409815437 1.4461907354 1.4704778888 1.416923134 1.293964132 1.2448166918 
1.28617134 1.4774188317 1.7088554316 1.6929484238 1.633777681 1.4819922711 1.5525842269 1.7052740981 1.8678434574 
1.9949564876 2.0824587258 2.1053055108 2.0705647581 1.9141205794 1.7868726313 1.6380041908 1.474740498 1.5458898195 
1.6684390273 1.722835223 1.8076741265 1.8531106905 1.8585828732 1.8359607836 1.7966403392 1.7699238951 1.7751150011 
1.8006306947 1.8361161848 1.7313595375 1.6238488629 1.5840240988 1.9432994733 1.8935766344 1.7966412739 1.8517594431 
1.7197965738 1.6193750676 1.5018672342 1.3519889684 1.3045626057 1.3121756075 1.423478711 1.5052963343 1.5297508131 
1.5356952089 1.5390558288 1.5469043977 1.5575383375 1.5692768782 1.572412459 1.398262339 1.4649359422 1.6169689602 
1.6266994846 1.5880279809 1.5568913842 1.5439811236 1.4947604776 1.4412030802 1.3846498281 1.4477356569 1.4345034281 
1.5092637451 1.3625876086 1.49366325 1.7555344611 1.8841922359 1.8790442462 1.8853977623 1.8246464151 1.8247647044 
1.9110592187 2.0125100644 2.0314076123 1.891193707 1.9028749571 1.9240846686 1.9216457681 1.7957581232 1.6494235599 
1.5427159276 2.1803296315 1.9909659192 2.1326653492 1.8423308434 1.8616155038 1.9960947293 1.6562869709 1.5916414612 
1.5736607268 1.670953728 1.7848072625 1.6216165244 1.4878288912 1.4785099633 1.4839476331 1.5070351284 1.5135000455 
1.6781663725 1.6431197049 1.6876670768 1.6363743513 1.5997576842 1.6429813236 1.6641685799 1.6527047928 1.5770748727 
1.4665836846 1.4560223725 1.429616952 1.375500109 1.4145107519 1.3603348377 1.3919598923 1.4042427627 1.4029092285 
1.353835727 1.3007978293 1.2775736917 1.2456006555 1.4761604644 1.6910617691 1.6710275088 1.645388717 1.5750740518 
1.7185217391 1.452927091 1.4955976115 1.8790349885 1.9010863584 1.2395398918 1.261493881 1.9675715302 2.0951699189 
2.1002789833 2.0325332427 1.8816550838 1.7565679184 1.6467175578 1.5328936748 1.5680410466 1.5870549886 1.6432821306 
1.6986718274 1.7499008269 1.7947897706 1.8043567339 1.7844927097 1.7570558857 1.7727808381 1.9526918406 1.4241200035 
1.4197550304 1.4261358997 1.436943654 1.4823297503 1.6086163078 1.5272208843 1.7726053854 1.573793253 1.6370618931 
1.5604172041 1.6012367422 1.6276327984 1.6218121828 1.5681492008 1.4254656995 1.5161494509 1.4671973189 1.4824239389 
1.5078650557 1.5921212264 1.6723678033 1.7269512844 1.7767402144 1.7483615665 1.8079057768 1.8317668604 1.794304412 
1.6895848282 1.5782666862 1.4910926418 1.777928066 1.7116131041 1.6127797384 1.6066110233 1.6719889399 1.5377477713 
1.3856227756 1.8066403383 1.8496594058 1.9130644593 1.9832260241 1.4469007354 1.540648468 1.6839839408 1.7639656458 
1.7677840462 1.7223769967 1.6631554308 1.573162263 1.4644196459 1.4104282384 1.4196965282 1.4439155252 1.4727323491 
1.4516569155 1.4388222511 1.448956273 1.6110222491 1.5644088088 1.5123352075 1.5208039895 1.6545818764 1.6336696943 
1.5746078734 1.6650419447 1.4842402923 1.4952639436 1.455095824 1.4221020225 1.4110522168 1.4109549299 1.3831872475 
1.3398478949 1.3271269805 1.3117210085 1.2793482135 1.2144292695 1.2488356954 1.1922699751 1.245622226 1.3032694635 
1.5094356366 1.7263085703 1.7985881785 1.8158783178 1.8684120715 1.9208169354 1.8696262131 1.8356829006 1.7677670784 
1.7289657794 1.6229042459 1.5331376577 1.4115567946 1.292150952 1.3881047499 1.303736044 1.4589297281 1.5254508066 
1.4976961914 1.4794235542 1.516282255 1.5399704862 1.5877264678 1.4798134866 1.4597379348 1.407018904 1.3566551838 
1.322681755 1.3836704011 1.3131827412 1.5296674098 1.6545938205 1.5254144658 1.6223988315 1.8218945514 1.677739307 
1.880935086 1.4504583889 1.4847610077 1.5491235004 1.613967994 1.6876346148 1.2422125007 1.2114359919 1.2405491435 
1.6040050021 1.6302919646 1.6135757177 1.5454906028 1.5445546799 1.5918398087 1.636770328 2.0300186769 1.5193556902 

STJ 1 1116 double
0 0 0 0 0 0 0 0 0 
0 0 0 0 0 0 0 0 0 
0 0 0 0 0 0 0 0 0 
0 0 0 0 0 0 0 0 0 
0 0 0 0 0 0 0 0 0 
0 0 0 0 0 0 0 0 0 
0 0 0 0 0 0 0 0 0 
0 0 0 0 0 0 0 0 0 
0 0 0 0 0 0 0 0 0 
0 0 0 0 0 0 0 0 0 
0 0 0 0 0 0 0 0 0 
0 0 0 0 0 0 0 0 0 
0 0 0 0 1 1 0 0 1 
0 1 0 1 0 1 0 1 0 
1 0 1 0 1 0 1 0 1 
0 1 0 1 0 1 0 1 0 
1 0 1 0 1 0 1 0 1 
0 1 0 1 0 1 0 1 0 
1 0 1 0 1 0 1 0 1 
0 1 0 1 0 0.99999998425 0 1.0000000999 0 
1.0000000372 0 1 0 1 0 1 0 1 
0 1 0 1 0 1 0 1 0 
1 0 1 0 1 0 1 0 1 
0 1 0 1 0 1 0 1 0 
1 0 1 0 1 0 1 0 1 
0 1 0 0 0 0 0 0 0 
0 0 0 0 0 0 0 0 0 
0 0 0 0 0 0 0 0 0 
0 0 0 0 0 0 0 0 0 
0 0 0 0 0 0 0 0 0 
0 0 0 0 0 0 0 0 0 
0 0 0 0 0 0 0 0 0 
0 0 0 0 0 0 0 0 0 
0 0 0 0 0 0 0 0 0 
0 0 0 0 0 0 0 0 0 
0 0 0 0 0 0 0 0 0 
0 0 0 0 0 0 0 0 0 
0 0 0 0 0 0 0 0 0 
0 0 0 0 0 0 0 0 0 
0 0 0 0 0 0 0 0 0 
0 0 0 0 0 0 0 0 0 
0 0 0 0 0 0 0 0 0 
0 0 0 0 0 0 0 0 0 
0 0 0 0 0 0 0 0 0 
0 0 0 0 0 0 0 0 0 
0 0 0 0 0 0 0 0 0 
0 0 0 0 0 0 0 0 0 
0 0 0 0 0 0 0 0 0 
0 0 0 0 0 0 0 0 0 
0 0 0 0 0 0 0 0 0 
0 0 0 0 0 0 0 0 0 
0 0 0 0 0 0 0 0 0 
0 0 0 0 0 0 0 0 0 
0 0 0 0 0 0 0 0 0 
0 0 0 0 0 0 0 0 0 
0 0 0 0 0 0 0 0 0 
0 0 0 0 0 0 0 0 0 
0 0 0 0 0 0 0 0 0 
0 0 0 0 0 0 0 0 0 
0 0 0 0 0 0 0 0 0 
0 0 0 0 0 0 0 0 0 
0 0 0 0 0 0 0 0 0 
0 0 0 0 0 0 0 0 0 
0 0 0 0 0 0 0 0 0 
0 0 0 0 0 0 0 0 0 
0 0 0 0 0 0 0 0 0 
0 0 0 0 0 0 0 0 0 
0 0 0 0 0 0 0 0 0 
0 0 0 0 0 0 0 0 0 
0 0 0 0 0 0 0 0 0 
0 0 0 0 0 0 0 0 0 
0 0 0 0 0 0 0 0 0 
0 0 0 0 0 0 0 0 0 
0 0 0 0 0 0 0 0 0 
0 0 0 0 0 0 0 0 0 
0 0 0 0 0 0 0 0 0 
0 0 0 0 0 0 0 0 0 
0 0 0 0 0 0 0 0 0 
0 0 0 0 0 0 0 0 0 
0 0 0 0 0 0 0 0 0 
0 0 0 0 0 0 0 0 0 
0 0 0 0 0 0 0 0 0 
0 0 0 0 0 0 0 0 0 
0 0 0 0 0 0 0 0 0 
0 0 0 0 0 0 0 0 0 
0 0 0 0 0 0 0 0 0 
0 0 0 0 0 0 0 0 0 
0 0 0 0 0 0 0 0 0 
0 0 0 0 0 0 0 0 0 
0 0 0 0 0 0 0 0 0 
0 0 0 0 0 0 0 0 0 
0 0 0 0 0 0 0 0 0 
0 0 0 0 0 0 0 0 0 
0 0 0 0 0 0 0 0 0 
0 0 0 0 0 0 0 0 0 
0 0 0 0 0 0 0 0 0 
0 0 0 0 0 0 0 0 0 
0 0 0 0 0 0 0 0 0 
0 0 0 0 0 0 0 0 0 
0 0 0 0 0 0 0 0 0 
0 0 0 0 0 0 0 0 0 
0 0 0 0 0 0 0 0 0 
0 0 0 0 0 0 0 0 0 
0 0 0 0 0 0 0 0 0 
0 0 0 0 0 0 0 0 0 
0 0 0 0 0 0 0 0 0 
0 0 0 0 0 0 0 0 0 
0 0 0 0 0 0 0 0 0 
0 0 0 0 0 0 0 0 0 
0 0 0 0 0 0 0 0 0 
0 0 0 0 0 0 0 0 0 
0 0 0 0 0 0 0 0 0 
0 0 0 0 0 0 0 0 0 
0 0 0 0 0 0 0 0 0 
0 0 0 0 0 0 0 0 0 
0 0 0 0 0 0 0 0 0 
0 0 0 0 0 0 0 0 0 
0 0 0 0 0 0 0 0 0 
0 0 0 0 0 0 0 0 0 
0 0 0 0 0 0 0 0 0 
0 0 0 0 0 0 0 0 0 
0 0 0 0 0 0 0 0 0 
0 0 0 0 0 0 0 0 0 
0 0 0 0 0 0 0 0 0 

Thickness 1 1116 double
3.0670925725 3.0670925725 2.767567067 2.4100975711 3.0670925725 2.9433842124 3.0670925725 2.98414115 3.0670925725 
3.033567274 3.0670925725 3.0781044059 3.0670925725 3.1931086065 3.0670925725 3.1768537203 3.0670925725 2.9824256829 
3.0670925725 2.7796577579 3.0670925725 2.6652920329 3.0670925725 2.5796032105 3.0670925725 2.7396400706 3.0670925725 
2.8023070154 3.0670925725 2.8994454155 3.0670925725 2.9542265673 3.0670925725 2.9606338972 3.0670925725 2.7818266259 
3.0670925725 2.6426472334 3.0670925725 2.5447037124 3.0670925725 2.4911963603 3.0670925725 2.4397432863 3.0670925725 
2.5155741932 3.0670925725 2.5142713078 3.0670925725 2.5417538591 3.0670925725 2.7835287128 3.0670925725 3.0922217471 
3.0670925725 3.5019760417 3.0670925725 3.6195749864 3.0670925725 3.3799093422 3.0670925725 3.0888853333 3.0670925725 
2.8758747951 3.0670925725 2.7789987066 3.0670925725 2.7214426189 3.0670925725 2.6397113543 3.0670925725 2.5459378964 
3.0670925725 2.503392318 3.0670925725 2.4858509151 3.0670925725 2.4926154663 3.0670925725 2.5136460208 3.0670925725 
2.4955851504 3.0670925725 2.2481915333 3.0670931903 2.2613798825 3.0670939246 2.3321736073 3.0670945033 2.4404533883 
3.067093824 2.3543608619 3.0670929879 2.2916937323 3.0670925725 2.2199136125 3.0670925725 2.0678353969 3.0670925725 
2.0377643431 3.0670925725 2.0493840583 3.0670925725 2.234662216 3.0670925725 2.5202563889 3.0670925725 2.9724869928 
3.0670925725 3.0539435752 3.0670925725 2.9096352017 3.0670925725 3.0670925725 2.6221583415 2.3388691527 3.0670925725 
2.8568205788 3.0670925725 2.9090919006 3.0670925725 3.0629609683 3.0670925725 3.2475631387 3.0670925725 3.3148092255 
3.0670925725 3.2767608632 3.0670925725 2.8615226765 3.0670925725 2.5253885106 3.0670925725 2.3123822896 3.0670925725 
2.1488779362 3.0670925725 2.4151931947 3.0670925725 2.5993942859 3.0670925725 2.6866443013 3.0670925725 2.7447509614 
3.0670925725 2.8006918782 3.0670925725 2.6165336859 3.0670925725 2.4609720818 3.0670925725 2.6162506913 3.0670925725 
2.7821821215 3.0670925725 2.9910794443 3.0670925725 2.9096559845 3.0670925725 2.9985235284 3.0670925725 3.3267063518 
3.0670925725 3.1741703872 3.0670925725 3.0216043313 3.0670925725 2.7656329363 3.0670925725 2.8731443452 3.0670925725 
3.143835036 3.0670925725 3.535171561 3.0670925725 3.6997439541 3.06709256 3.5990174472 3.0670926513 3.3456789032 
3.067092598 3.4539959629 3.0670925725 3.7249427054 3.0670925725 4.1293011832 3.0670925725 4.3072420683 3.0670925725 
4.3480000985 3.0670925725 4.0949260774 3.0670925725 3.9343356836 3.0670925725 3.7169606635 3.0670925725 3.4682000386 
3.0670925725 3.257540522 3.0670925725 3.0897087157 3.0670925725 2.9407108903 3.0670925725 2.9129859611 3.0670925725 
2.7565811861 3.0670925725 2.454085542 3.0670925725 2.5797052848 3.0670925725 2.7218426895 3.0670925725 2.7306356815 
3.0670925725 2.5458122358 3.0670925725 2.2694997262 3.0670925725 1.9967716759 3.0670925725 1.7206697272 3.0670925725 
2.1482892236 3.0670925725 2.4396098406 3.553368212 3.4220468964 3.6159448643 3.4609382456 3.4027842227 3.457127472 
3.3005259389 3.0498692577 2.7621511386 2.6321399267 2.6296349375 2.7423375995 2.8109991504 2.8825070378 2.9727188001 
3.0546258888 3.0730789863 3.0801181567 3.0609791227 3.0402096862 2.9982955715 3.1936388592 3.0946754755 2.9924773017 
3.0209479756 3.2097908243 3.5838456091 3.7647104256 3.571691249 3.2518248064 3.0715487999 3.0326283534 2.9596901833 
2.8667864854 2.7287752145 2.7964181638 2.806435264 2.7669266312 2.711191276 2.689321213 2.5353456903 2.5802565244 
2.6952485052 2.7349645492 2.5364564451 2.5276242619 2.5269090702 2.4758133711 2.4335586024 2.3813715527 2.4348212974 
2.6693593377 3.2696536744 3.5945411412 3.4429991594 3.0836880497 3.4070675189 3.3005237846 3.4487358835 3.6380053384 
3.8031245842 3.8807581836 3.8701768668 3.3591822903 2.870486768 2.6346643867 2.4721787386 2.6211452684 2.7597385368 
2.8641163916 2.9189494006 2.9628085592 2.9013423441 2.8701679571 2.7931169159 2.9250427866 3.1141730438 3.0517262093 
3.2325775659 3.6064420322 3.3790735879 3.1098696381 2.8772902269 3.0398048356 3.3803610664 3.6516222856 3.8068245821 
3.6172084892 3.267390213 3.3944050391 3.8156451581 4.3376271007 4.4840675297 4.4360312499 4.2270733204 4.0227301645 
3.8351334616 3.5956399882 3.3612499689 3.1705456427 3.053108538 3.0272202858 2.9411639294 2.7676335206 2.9342270357 
3.0096537461 2.9512386943 2.7439977607 2.3776401677 2.0735992705 1.7863516868 2.3405705445 2.8244298197 3.137702664 
4.0624473054 3.9115193067 3.8207293318 3.6430609739 3.5206037303 3.2502194109 2.9704188267 2.7992329795 2.9411705037 
3.0887254334 3.1032194299 3.0386601219 2.8361175985 2.8491692009 2.9440839723 2.9916971046 3.0426933348 3.0745573411 
3.1245014085 3.2593026076 3.4854654701 3.224932989 3.3778533484 3.174297709 3.2484815616 3.5726083135 3.6496069358 
3.6186974004 3.2765130975 3.044933318 2.920894178 2.8227165073 2.8142750098 2.7207673911 2.7617011361 2.85154686 
2.8445654252 2.8085464502 2.6771831164 2.600403188 2.6463505565 2.8995586612 2.8661903376 2.2267801814 2.2981883572 
2.1919586064 2.3200294145 2.4205070442 2.4784099549 2.6240579022 2.7412966882 3.1075592505 3.4431749197 3.4843184279 
3.4798617609 3.7457902121 3.6413396108 3.8497990515 2.5491348798 2.7557801237 3.9054163059 3.7537955092 4.0596018337 
4.207885161 4.2585646762 4.2011982298 3.5852918491 3.017206493 2.5709232398 2.4245059634 2.6591567557 2.8114375874 
2.9117855589 2.9769493056 3.0032427656 3.1016719343 3.2889477158 2.9029046928 3.0571464076 3.2190910811 3.2074369627 
3.3489102905 3.6625272382 3.4411716819 3.1716060397 3.0215995039 3.1600776795 3.4082230123 3.6194076137 3.7097280071 
3.4306856926 3.1822880108 3.5380175947 3.8318725234 4.2206142455 4.2577300239 4.1926285821 4.0112462549 3.8342459131 
3.66403371 3.5047309259 3.2403385474 3.04112567 3.0776422772 3.0806076494 3.0761665326 3.1682196199 3.1673737198 
3.1940761449 3.0589927969 2.8838013561 2.6701698552 2.5690415049 2.410177963 2.7430606566 3.1194859271 3.3893533244 
3.5859131661 2.3863521045 2.6602087406 2.1145274906 2.0401394246 2.0478440134 2.2191800546 2.3358271895 2.4308289742 
2.6316458245 2.9158972815 2.9995174796 3.1819479515 3.3613454079 3.5645170285 3.745267835 4.2220664379 4.2431800101 
3.9052960791 3.667943054 3.4899131973 3.3255902372 3.0867318562 3.2675099706 3.3616065021 3.4429485153 3.3590535941 
3.1597699116 2.8777623109 2.835318774 2.8806198138 2.9266573955 3.0043580058 3.086208602 3.2531944655 3.4073404837 
3.659355532 3.985729724 4.2173450778 4.2317019782 3.8656272669 3.6211157499 3.4718569166 3.3457226683 3.3700643457 
3.5416552951 3.5393504713 3.4913407282 3.1847614885 2.92474666 2.7234060982 2.6776449656 2.6855537184 2.6482735929 
2.7143637859 2.8194990878 2.8200620513 2.7666297722 2.637394485 2.6318287667 2.7024532466 2.8909177959 2.9468480264 
2.9068378812 2.8867009911 2.5663868581 2.8601880774 2.3850729057 4.2004567009 3.9732828716 4.3897797839 4.3317692944 
4.2180582554 3.7525989647 3.2289574367 2.7453447482 2.3626721007 2.6952212859 3.0406935629 3.2605365718 3.4418491367 
3.4709965931 3.5863083488 3.7938097841 3.1265028061 3.2012693968 3.2130351843 3.3237958081 3.5329597607 3.7818279468 
3.5265092681 3.2199706215 3.0506565814 3.1638769605 3.3634363745 3.5067304777 3.5651639193 3.2939452799 3.2236902779 
3.555395157 3.8523930188 3.9645128532 3.960147271 3.9222004004 3.8220034231 3.6661758431 3.4847859977 3.3391553935 
3.1268552846 2.9181507302 3.0090117048 3.0446935149 3.0834699709 3.2114231257 3.2594232277 3.2114313444 2.9543260233 
2.8096082514 2.8059966153 2.9297250093 3.0694982752 3.3584445158 3.5364273543 3.4782065689 3.5426416601 3.7126050389 
3.520470233 3.6233204759 2.1945933195 2.1344709191 2.1388080178 2.3575071623 2.5326914032 2.7102762235 2.89766872 
3.0876839766 3.1158334055 3.0735249627 3.02495186 3.8370128248 3.3919982869 4.3688155752 4.1636824784 3.9307724396 
3.7188517361 3.502189478 3.3428720135 3.3582673599 3.8083959528 3.8144674526 3.7292371324 3.5540368751 3.2862081103 
3.0243552806 2.8875373347 2.825613616 2.8518260895 2.9556982213 3.2597814632 3.4406309452 3.5554256195 3.7523007866 
4.0049175626 4.274943493 4.2716513482 4.2427775025 4.2272090733 3.9727270909 3.759298979 3.6662501787 3.5109327411 
3.4522512937 3.5167846509 3.5269306084 3.4872442871 3.2537534084 2.9483880997 2.6635212717 2.5765370093 2.615676044 
2.7688877545 2.7760370461 2.7743316987 2.8466020105 2.874619105 2.7837897953 2.7644882115 2.7536583871 2.8468069307 
2.9781075537 3.1013304146 3.1592268226 3.1272308809 2.8165537057 3.1507538509 2.4383081652 3.3735850308 3.1607493965 
3.5820107696 3.6100812528 3.4810762642 3.3565481371 3.3120111728 3.3179385887 3.5054304109 3.7806590544 3.4836178207 
3.1312941667 2.876701341 2.9613166049 3.1424860314 3.2527803701 3.3819655282 3.2265212675 3.2963475291 3.5026476934 
3.5694526497 3.5991605228 3.6614202105 3.6818215767 3.6687590391 3.5125865443 3.3162727914 3.1635214415 3.000426307 
2.823782473 2.8837273734 2.9339380043 2.9559026294 3.0643147018 3.1017283155 3.0142564892 2.7494442375 2.5613766607 
2.692174449 2.9865065453 3.3873295356 3.553153117 3.4772403333 3.1988330865 3.3509308247 3.5900986928 3.8872111979 
4.0691923777 4.1374272442 4.1275580766 4.1162702766 3.7585383357 3.3906738181 2.9697019298 2.6242346758 2.965298888 
3.2718043625 3.5836346157 3.8280329204 3.7992189775 3.7418192121 3.7020495702 3.6529959176 3.5643823831 3.5591733412 
3.5798231347 3.5517240893 2.4012195917 2.3964581966 2.6419110636 2.9522873397 3.0196225413 3.0983749764 3.2073120811 
3.1947373399 3.0620337393 2.8234403018 2.7922879287 2.9371095049 2.894587646 3.1015379439 3.4619209803 3.9166083249 
4.0668247874 4.0127371748 3.9184971359 3.8121012689 3.6573853396 3.5602294407 3.7412157703 3.95048243 3.7538623649 
3.9625300821 3.4768674696 3.264010607 3.0787174132 2.8887723979 2.8187393343 2.8585193816 2.9732362346 3.6924186948 
3.5630550319 3.9916704561 3.9760519956 3.2640935752 3.0536521117 4.3369794234 4.0259723985 4.2386410914 4.0583367969 
4.0153303706 4.1384186914 4.13192798 3.9186713094 3.6722545787 3.5964366854 3.6101272569 3.5486153598 3.4652754176 
3.2961124928 3.063868863 2.7559487574 2.6244254265 2.5876218385 2.8233446784 2.9451791767 2.9155119629 2.976593447 
2.9948542753 2.9792593412 3.0450685391 3.0050838584 3.1085773072 3.0739673557 3.1684582122 3.2394208919 3.0869520255 
3.152669823 2.7532413933 3.4736418113 3.3662778879 3.3051483198 3.2914212123 3.4797965994 3.7353337962 3.3919976796 
3.079960934 2.8764956556 2.8574906923 3.0064604634 3.1532384054 3.2131262172 3.3436312302 3.2873205058 3.5095212453 
3.4335811779 3.384497736 3.4328537478 3.4577057064 3.449060152 3.3037820238 3.0859917138 2.994319753 2.9112786876 
2.7837067438 2.7644829846 2.7678476608 2.8196308601 2.8923817203 2.9409557776 2.8338462526 2.587928264 2.4896331528 
2.5723418789 2.9548370861 3.4177105323 3.3858968123 3.2675560021 2.9639845513 3.1051686428 3.4105486649 3.7356869149 
3.9899129753 4.1649174515 4.2106105676 4.1411290648 3.8282406959 3.5737446281 3.2760079825 2.949480996 3.091779639 
3.3368780546 3.445670446 3.615348253 3.706221381 3.7171657464 3.6719211247 3.5932801024 3.5398483729 3.5502298743 
3.6012612803 3.6722322963 3.4627183682 3.2476977707 3.1680475157 3.8865997339 3.7871532159 3.5932827089 3.7035195161 
3.4395928392 3.238749343 3.0037337678 2.703977972 2.6091259305 2.6243521715 2.8469569533 3.0105925606 3.0595026262 
3.0713903324 3.078110896 3.0938087636 3.1150759423 3.1385531528 3.1448246667 2.796524717 2.9298717451 3.2339373516 
3.253398524 3.1760557758 3.1137835324 3.0879627829 2.9895211332 2.8824061604 2.7692996257 2.8954707985 2.8690059689 
3.0185277471 2.7251752183 2.9873267799 3.5110695468 3.7683847695 3.7580884924 3.770795426 3.6492928301 3.6495298224 
3.8221192745 4.0250207366 4.0628155396 3.7823883502 3.8057509141 3.8481684123 3.8432912912 3.5915167358 3.2988480552 
3.0854320368 4.3606591271 3.9819318349 4.2653306983 3.6846616867 3.7232310075 3.992188554 3.3125735854 3.1832829224 
3.1473215765 3.341907258 3.5696146133 3.243233218 2.9756572162 2.9570201449 2.9678952662 3.0140702568 3.027000091 
3.3563331563 3.2862396762 3.3753347621 3.272749692 3.1995157539 3.2859620427 3.3283367129 3.3054095856 3.1541498867 
2.933168225 2.9120452458 2.8592336664 2.750999218 2.8290211285 2.7206690256 2.7839204448 2.8084857957 2.8058176606 
2.7076711584 2.6015963716 2.5551472192 2.4912004448 2.9523206459 3.3821231072 3.3420545688 3.2907771251 3.1501482744 
3.4370441703 2.9058538972 2.991195223 3.7580707084 3.8021724002 2.4790796326 2.5229879304 3.9351430604 4.1903398378 
4.2005579665 4.0650664554 3.7633101675 3.5131358367 3.2934351157 3.0657873496 3.1360820932 3.1741099771 3.2865642612 
3.3973436549 3.4998013299 3.5895787787 3.6087125064 3.5689852945 3.5141124047 3.5455611838 3.9053843181 2.8482399772 
2.8395095391 2.8522721615 2.8738875925 2.9646601914 3.21723272 3.0544417685 3.5452103143 3.1475867643 3.2741244904 
3.1208344082 3.2024734843 3.2552657314 3.2436249935 3.1362992077 2.8509317371 3.0322989018 2.9343947353 2.96484846 
3.0157309447 3.1842423619 3.344734737 3.4539021073 3.5534803226 3.4967230017 3.6158121633 3.6635334676 3.5886083957 
3.3791700048 3.1565340424 2.9821849977 3.5558561477 3.4232264379 3.2255596183 3.2132220466 3.3439782132 3.0754963968 
2.7712464581 3.6132807396 3.6993185181 3.8261279264 3.9664519312 2.8938005255 3.0812965452 3.3679680493 3.5279322023 
3.5355681283 3.4447537817 3.3263101178 3.1463238765 2.9288394802 2.8208571672 2.8393936396 2.8878313387 2.945464687 
2.9033138309 2.8776447513 2.8979134005 3.2220438649 3.1288174722 3.024670985 3.0416085639 3.3091638749 3.2673393887 
3.1492157468 3.3300847347 2.9684815845 2.9905276698 2.9101914759 2.8442036457 2.8221041269 2.8219097441 2.7663741718 
2.6796949452 2.654253868 2.6234423991 2.5586963401 2.4288586467 2.4976712798 2.3845399033 2.4912439475 2.6065379511 
3.0188714491 3.4526179636 3.5971764283 3.6317568433 3.7368248346 3.8416340688 3.7392526183 3.6713659626 3.5355349067 
3.4579320143 3.2458083319 3.0662752223 2.8231136752 2.5843023629 2.7762084999 2.6074711769 2.9178589841 3.0509022863 
2.99539291 2.9588471083 3.0325639432 3.079940118 3.1754529355 2.9596277891 2.9194765596 2.8140379992 2.7133102532 
2.6453632974 2.7673398692 2.6263650983 3.0593348202 3.3091883666 3.0508289514 3.2447970366 3.6437890644 3.3554778247 
3.7618703055 2.9009169425 2.9695219688 3.0982474143 3.2279368731 3.3752696183 2.4844259153 2.422872582 2.4810985244 
3.2080094347 3.2605839013 3.2271515678 3.0909812057 3.0891093597 3.1836796175 3.2735402325 4.0600373538 3.0387119016 

Total_Motion 1 1116 double
0 0 0 0 0 0 0 0 0 
0 0 0 0 0 0 0 0 0 
0 0 0 0 0 0 0 0 0 
0 0 0 0 0 0 0 0 0 
0 0 0 0 0 0 0 0 0 
0 0 0 0 0 0 0 0 0 
0 0 0 0 0 0 0 0 0 
0 0 0 0 0 0 0 0 0 
0 0 0 0 0 0 0 0 0 
0 0 0 0 0 0 0 0 0 
0 0 0 0 0 0 0 0 0 
0 0 0 0 0 0 0 0 0 
0 0 0 0 0 0 0 0 0 
0 0 0 0 0 0 0 0 0 
0 0 0 0 0 0 0 0 0 
0 0 0 0 0 0 0 0 0 
0 0 0 0 0 0 0 0 0 
0 0 0 0 0 0 0 0 0 
0 0 0 0 0 0 0 0 0 
0 0 0 0 0 0 0 0 0 
0 0 0 0 0 0 0 0 0 
0 0 0 0 0 0 0 0 0 
0 0 0 0 0 0 0 0 0 
0 0 0 0 0 0 0 0 0 
0 0 0 0 0 0 0 0 0 
0 0 0 0 0 0 0 0 0 
0 0 0 0 0 0 0 0 0 
0 0 0 0 0 0 0 0 0 
0 0 0 0 0 0 0 0 0 
0 0 0 0 0 0 0 0 0 
0 0 0 0 0 0 0 0 0 
0 0 0 0 0 0 0 0 0 
0 0 0 0 0 0 0 0 0 
0 0 0 0 0 0 0 0 0 
0 0 0 0 0 0 0 0 0 
0 0 0 0 0 0 0 0 0 
0 0 0 0 0 0 0 0 0 
0 0 0 0 0 0 0 0 0 
0 0 0 0 0 0 0 0 0 
0 0 0 0 0 0 0 0 0 
0 0 0 0 0 0 0 0 0 
0 0 0 0 0 0 0 0 0 
0 0 0 0 0 0 0 0 0 
0 0 0 0 0 0 0 0 0 
0 0 0 0 0 0 0 0 0 
0 0 0 0 0 0 0 0 0 
0 0 0 0 0 0 0 0 0 
0 0 0 0 0 0 0 0 0 
0 0 0 0 0 0 0 0 0 
0 0 0 0 0 0 0 0 0 
0 0 0 0 0 0 0 0 0 
0 0 0 0 0 0 0 0 0 
0 0 0 0 0 0 0 0 0 
0 0 0 0 0 0 0 0 0 
0 0 0 0 0 0 0 0 0 
0 0 0 0 0 0 0 0 0 
0 0 0 0 0 0 0 0 0 
0 0 0 0 0 0 0 0 0 
0 0 0 0 0 0 0 0 0 
0 0 0 0 0 0 0 0 0 
0 0 0 0 0 0 0 0 0 
0 0 0 0 0 0 0 0 0 
0 0 0 0 0 0 0 0 0 
0 0 0 0 0 0 0 0 0 
0 0 0 0 0 0 0 0 0 
0 0 0 0 0 0 0 0 0 
0 0 0 0 0 0 0 0 0 
0 0 0 0 0 0 0 0 0 
0 0 0 0 0 0 0 0 0 
0 0 0 0 0 0 0 0 0 
0 0 0 0 0 0 0 0 0 
0 0 0 0 0 0 0 0 0 
0 0 0 0 0 0 0 0 0 
0 0 0 0 0 0 0 0 0 
0 0 0 0 0 0 0 0 0 
0 0 0 0 0 0 0 0 0 
0 0 0 0 0 0 0 0 0 
0 0 0 0 0 0 0 0 0 
0 0 0 0 0 0 0 0 0 
0 0 0 0 0 0 0 0 0 
0 0 0 0 0 0 0 0 0 
0 0 0 0 0 0 0 0 0 
0 0 0 0 0 0 0 0 0 
0 0 0 0 0 0 0 0 0 
0 0 0 0 0 0 0 0 0 
0 0 0 0 0 0 0 0 0 
0 0 0 0 0 0 0 0 0 
0 0 0 0 0 0 0 0 0 
0 0 0 0 0 0 0 0 0 
0 0 0 0 0 0 0 0 0 
0 0 0 0 0 0 0 0 0 
0 0 0 0 0 0 0 0 0 
0 0 0 0 0 0 0 0 0 
0 0 0 0 0 0 0 0 0 
0 0 0 0 0 0 0 0 0 
0 0 0 0 0 0 0 0 0 
0 0 0 0 0 0 0 0 0 
0 0 0 0 0 0 0 0 0 
0 0 0 0 0 0 0 0 0 
0 0 0 0 0 0 0 0 0 
0 0 0 0 0 0 0 0 0 
0 0 0 0 0 0 0 0 0 
0 0 0 0 0 0 0 0 0 
0 0 0 0 0 0 0 0 0 
0 0 0 0 0 0 0 0 0 
0 0 0 0 0 0 0 0 0 
0 0 0 0 0 0 0 0 0 
0 0 0 0 0 0 0 0 0 
0 0 0 0 0 0 0 0 0 
0 0 0 0 0 0 0 0 0 
0 0 0 0 0 0 0 0 0 
0 0 0 0 0 0 0 0 0 
0 0 0 0 0 0 0 0 0 
0 0 0 0 0 0 0 0 0 
0 0 0 0 0 0 0 0 0 
0 0 0 0 0 0 0 0 0 
0 0 0 0 0 0 0 0 0 
0 0 0 0 0 0 0 0 0 
0 0 0 0 0 0 0 0 0 
0 0 0 0 0 0 0 0 0 
0 0 0 0 0 0 0 0 0 
0 0 0 0 0 0 0 0 0 
0 0 0 0 0 0 0 0 0 
0 0 0 0 0 0 0 0 0 

VAJ 1 1116 double
1 1 0 0 1 0 1 0 1 
0 1 0 1 0 1 0 1 0 
1 0 1 0 1 0 1 0 1 
0 1 0 1 0 1 0 1 0 
1 0 1 0 1 0 1 0 1 
0 1 0 1 0 1 0 1 0 
1 0 1 0 1 0 1 0 1 
0 1 0 1 0 1 0 1 0 
1 0 1 0 1 0 1 0 1 
0 1 0 1.0000004533 0 1.0000009635 0 1.0000013758 0 
1.0000010013 0 1.0000003375 0 1 0 1 0 1 
0 1 0 1 0 1 0 1 0 
1 0 1 0 0 0 0 0 0 
0 0 0 0 0 0 0 0 0 
0 0 0 0 0 0 0 0 0 
0 0 0 0 0 0 0 0 0 
0 0 0 0 0 0 0 0 0 
0 0 0 0 0 0 0 0 0 
0 0 0 0 0 0 0 0 0 
0 0 0 0 0 0 0 0 0 
0 0 0 0 0 0 0 0 0 
0 0 0 0 0 0 0 0 0 
0 0 0 0 0 0 0 0 0 
0 0 0 0 0 0 0 0 0 
0 0 0 0 0 0 0 0 0 
0 0 0 0 0 0 0 0 0 
0 0 0 0 0 0 0 0 0 
0 0 0 0 0 0 0 0 0 
0 0 0 0 0 0 0 0 0 
0 0 0 0 0 0 0 0 0 
0 0 0 0 0 0 0 0 0 
0 0 0 0 0 0 0 0 0 
0 0 0 0 0 0 0 0 0 
0 0 0 0 0 0 0 0 0 
0 0 0 0 0 0 0 0 0 
0 0 0 0 0 0 0 0 0 
0 0 0 0 0 0 0 0 0 
0 0 0 0 0 0 0 0 0 
0 0 0 0 0 0 0 0 0 
0 0 0 0 0 0 0 0 0 
0 0 0 0 0 0 0 0 0 
0 0 0 0 0 0 0 0 0 
0 0 0 0 0 0 0 0 0 
0 0 0 0 0 0 0 0 0 
0 0 0 0 0 0 0 0 0 
0 0 0 0 0 0 0 0 0 
0 0 0 0 0 0 0 0 0 
0 0 0 0 0 0 0 0 0 
0 0 0 0 0 0 0 0 0 
0 0 0 0 0 0 0 0 0 
0 0 0 0 0 0 0 0 0 
0 0 0 0 0 0 0 0 0 
0 0 0 0 0 0 0 0 0 
0 0 0 0 0 0 0 0 0 
0 0 0 0 0 0 0 0 0 
0 0 0 0 0 0 0 0 0 
0 0 0 0 0 0 0 0 0 
0 0 0 0 0 0 0 0 0 
0 0 0 0 0 0 0 0 0 
0 0 0 0 0 0 0 0 0 
0 0 0 0 0 0 0 0 0 
0 0 0 0 0 0 0 0 0 
0 0 0 0 0 0 0 0 0 
0 0 0 0 0 0 0 0 0 
0 0 0 0 0 0 0 0 0 
0 0 0 0 0 0 0 0 0 
0 0 0 0 0 0 0 0 0 
0 0 0 0 0 0 0 0 0 
0 0 0 0 0 0 0 0 0 
0 0 0 0 0 0 0 0 0 
0 0 0 0 0 0 0 0 0 
0 0 0 0 0 0 0 0 0 
0 0 0 0 0 0 0 0 0 
0 0 0 0 0 0 0 0 0 
0 0 0 0 0 0 0 0 0 
0 0 0 0 0 0 0 0 0 
0 0 0 0 0 0 0 0 0 
0 0 0 0 0 0 0 0 0 
0 0 0 0 0 0 0 0 0 
0 0 0 0 0 0 0 0 0 
0 0 0 0 0 0 0 0 0 
0 0 0 0 0 0 0 0 0 
0 0 0 0 0 0 0 0 0 
0 0 0 0 0 0 0 0 0 
0 0 0 0 0 0 0 0 0 
0 0 0 0 0 0 0 0 0 
0 0 0 0 0 0 0 0 0 
0 0 0 0 0 0 0 0 0 
0 0 0 0 0 0 0 0 0 
0 0 0 0 0 0 0 0 0 
0 0 0 0 0 0 0 0 0 
0 0 0 0 0 0 0 0 0 
0 0 0 0 0 0 0 0 0 
0 0 0 0 0 0 0 0 0 
0 0 0 0 0 0 0 0 0 
0 0 0 0 0 0 0 0 0 
0 0 0 0 0 0 0 0 0 
0 0 0 0 0 0 0 0 0 
0 0 0 0 0 0 0 0 0 
0 0 0 0 0 0 0 0 0 
0 0 0 0 0 0 0 0 0 
0 0 0 0 0 0 0 0 0 
0 0 0 0 0 0 0 0 0 
0 0 0 0 0 0 0 0 0 
0 0 0 0 0 0 0 0 0 
0 0 0 0 0 0 0 0 0 
0 0 0 0 0 0 0 0 0 
0 0 0 0 0 0 0 0 0 
0 0 0 0 0 0 0 0 0 
0 0 0 0 0 0 0 0 0 
0 0 0 0 0 0 0 0 0 
0 0 0 0 0 0 0 0 0 
0 0 0 0 0 0 0 0 0 
0 0 0 0 0 0 0 0 0 
0 0 0 0 0 0 0 0 0 
0 0 0 0 0 0 0 0 0 
0 0 0 0 0 0 0 0 0 
0 0 0 0 0 0 0 0 0 
0 0 0 0 0 0 0 0 0 
0 0 0 0 0 0 0 0 0 
0 0 0 0 0 0 0 0 0 
0 0 0 0 0 0 0 0 0 
0 0 0 0 0 0 0 0 0 
0 0 0 0 0 0 0 0 0 

vtkValidPointMask 1 1116 char
1 1 1 1 1 1 1 1 1 
1 1 1 1 1 1 1 1 1 
1 1 1 1 1 1 1 1 1 
1 1 1 1 1 1 1 1 1 
1 1 1 1 1 1 1 1 1 
1 1 1 1 1 1 1 1 1 
1 1 1 1 1 1 1 1 1 
1 1 1 1 1 1 1 1 1 
1 1 1 1 1 1 1 1 1 
1 1 1 1 1 1 1 1 1 
1 1 1 1 1 1 1 1 1 
1 1 1 1 1 1 1 1 1 
1 1 1 1 1 1 1 1 1 
1 1 1 1 1 1 1 1 1 
1 1 1 1 1 1 1 1 1 
1 1 1 1 1 1 1 1 1 
1 1 1 1 1 1 1 1 1 
1 1 1 1 1 1 1 1 1 
1 1 1 1 1 1 1 1 1 
1 1 1 1 1 1 1 1 1 
1 1 1 1 1 1 1 1 1 
1 1 1 1 1 1 1 1 1 
1 1 1 1 1 1 1 1 1 
1 1 1 1 1 1 1 1 1 
1 1 1 1 1 1 1 1 1 
1 1 1 1 1 1 1 1 1 
1 1 1 1 1 1 1 1 1 
1 1 1 1 1 1 1 1 1 
1 1 1 1 1 1 1 1 1 
1 1 1 1 1 1 1 1 1 
1 1 1 1 1 1 1 1 1 
1 1 1 1 1 1 1 1 1 
1 1 1 1 1 1 1 1 1 
1 1 1 1 1 1 1 1 1 
1 1 1 1 1 1 1 1 1 
1 1 1 1 1 1 1 1 1 
1 1 1 1 1 1 1 1 1 
1 1 1 1 1 1 1 1 1 
1 1 1 1 1 1 1 1 1 
1 1 1 1 1 1 1 1 1 
1 1 1 1 1 1 1 1 1 
1 1 1 1 1 1 1 1 1 
1 1 1 1 1 1 1 1 1 
1 1 1 1 1 1 1 1 1 
1 1 1 1 1 1 1 1 1 
1 1 1 1 1 1 1 1 1 
1 1 1 1 1 1 1 1 1 
1 1 1 1 1 1 1 1 1 
1 1 1 1 1 1 1 1 1 
1 1 1 1 1 1 1 1 1 
1 1 1 1 1 1 1 1 1 
1 1 1 1 1 1 1 1 1 
1 1 1 1 1 1 1 1 1 
1 1 1 1 1 1 1 1 1 
1 1 1 1 1 1 1 1 1 
1 1 1 1 1 1 1 1 1 
1 1 1 1 1 1 1 1 1 
1 1 1 1 1 1 1 1 1 
1 1 1 1 1 1 1 1 1 
1 1 1 1 1 1 1 1 1 
1 1 1 1 1 1 1 1 1 
1 1 1 1 1 1 1 1 1 
1 1 1 1 1 1 1 1 1 
1 1 1 1 1 1 1 1 1 
1 1 1 1 1 1 1 1 1 
1 1 1 1 1 1 1 1 1 
1 1 1 1 1 1 1 1 1 
1 1 1 1 1 1 1 1 1 
1 1 1 1 1 1 1 1 1 
1 1 1 1 1 1 1 1 1 
1 1 1 1 1 1 1 1 1 
1 1 1 1 1 1 1 1 1 
1 1 1 1 1 1 1 1 1 
1 1 1 1 1 1 1 1 1 
1 1 1 1 1 1 1 1 1 
1 1 1 1 1 1 1 1 1 
1 1 1 1 1 1 1 1 1 
1 1 1 1 1 1 1 1 1 
1 1 1 1 1 1 1 1 1 
1 1 1 1 1 1 1 1 1 
1 1 1 1 1 1 1 1 1 
1 1 1 1 1 1 1 1 1 
1 1 1 1 1 1 1 1 1 
1 1 1 1 1 1 1 1 1 
1 1 1 1 1 1 1 1 1 
1 1 1 1 1 1 1 1 1 
1 1 1 1 1 1 1 1 1 
1 1 1 1 1 1 1 1 1 
1 1 1 1 1 1 1 1 1 
1 1 1 1 1 1 1 1 1 
1 1 1 1 1 1 1 1 1 
1 1 1 1 1 1 1 1 1 
1 1 1 1 1 1 1 1 1 
1 1 1 1 1 1 1 1 1 
1 1 1 1 1 1 1 1 1 
1 1 1 1 1 1 1 1 1 
1 1 1 1 1 1 1 1 1 
1 1 1 1 1 1 1 1 1 
1 1 1 1 1 1 1 1 1 
1 1 1 1 1 1 1 1 1 
1 1 1 1 1 1 1 1 1 
1 1 1 1 1 1 1 1 1 
1 1 1 1 1 1 1 1 1 
1 1 1 1 1 1 1 1 1 
1 1 1 1 1 1 1 1 1 
1 1 1 1 1 1 1 1 1 
1 1 1 1 1 1 1 1 1 
1 1 1 1 1 1 1 1 1 
1 1 1 1 1 1 1 1 1 
1 1 1 1 1 1 1 1 1 
1 1 1 1 1 1 1 1 1 
1 1 1 1 1 1 1 1 1 
1 1 1 1 1 1 1 1 1 
1 1 1 1 1 1 1 1 1 
1 1 1 1 1 1 1 1 1 
1 1 1 1 1 1 1 1 1 
1 1 1 1 1 1 1 1 1 
1 1 1 1 1 1 1 1 1 
1 1 1 1 1 1 1 1 1 
1 1 1 1 1 1 1 1 1 
1 1 1 1 1 1 1 1 1 
1 1 1 1 1 1 1 1 1 
1 1 1 1 1 1 1 1 1 
1 1 1 1 1 1 1 1 1 

Stress_X_Pt 1 1116 double
-6.184943777e-05 -4.5536375183e-05 -3.760781874e-05 -4.8024769967e-05 -2.354955086e-05 -2.0006893919e-05 -9.4783626992e-06 -6.4248360445e-06 1.045266572e-06 
3.4614767515e-06 7.8778900843e-06 9.8337719692e-06 1.4886368263e-05 1.4833123487e-05 2.3231155865e-05 2.2516952413e-05 2.6452456041e-05 2.8576435852e-05 
2.2316469767e-05 2.6268962301e-05 1.7982496502e-05 2.1367955014e-05 1.6306950783e-05 1.9102495571e-05 1.5262733996e-05 1.9083874804e-05 1.8391892354e-05 
2.3174252192e-05 2.2859790079e-05 2.8018190733e-05 1.8477058802e-05 2.5867861495e-05 8.7606952093e-06 1.7774375578e-05 -2.3487018552e-08 8.0258799926e-06 
-6.7539754127e-06 -7.8348272581e-07 -8.6481791186e-06 -5.5949047848e-06 -5.1938735623e-06 -5.0099833402e-06 -2.3054724352e-07 -1.1241217592e-06 5.2182458603e-06 
3.5112818679e-06 1.2538903775e-05 1.0017586192e-05 1.810132926e-05 1.5518639202e-05 2.0664025215e-05 1.773218878e-05 2.1078461032e-05 1.6587458049e-05 
1.584395477e-05 9.8300504021e-06 7.8819075497e-06 1.5091524972e-06 2.0216180019e-07 -5.3825407349e-06 -8.6522788934e-06 -1.1635456872e-05 -1.5451896616e-05 
-1.5652874481e-05 -1.9093901756e-05 -1.752061462e-05 -2.174193105e-05 -1.7521957716e-05 -1.9882982087e-05 -1.2716451778e-05 -1.2687997241e-05 -4.7337888134e-06 
-6.7263647452e-06 1.4778619288e-06 -2.6383295904e-06 7.1112560533e-06 4.2991438818e-06 1.6483544044e-05 1.5503912437e-05 2.9850320971e-05 3.4037498153e-05 
4.7791491397e-05 5.5282864196e-05 6.4863732405e-05 6.610220953e-05 6.9878135037e-05 6.5472660935e-05 6.5030960286e-05 6.5643398557e-05 6.0218280851e-05 
6.8160821684e-05 5.6760241023e-05 6.3208093707e-05 5.0670036217e-05 4.9616950491e-05 4.1959150622e-05 3.3828359847e-05 3.2845416627e-05 2.4277266675e-05 
2.76347414e-05 2.2667732992e-05 2.793720796e-05 2.2965508833e-05 2.9440612707e-05 1.73580097e-05 2.5313559718e-05 3.3559672374e-07 9.0819556817e-06 
-2.2836277822e-05 -1.368472374e-05 -4.889338561e-05 -3.6585008729e-05 5.1058663303e-05 3.3614135646e-05 3.4568052342e-05 4.9603595471e-05 1.4877767171e-05 
1.9201635496e-05 1.9454878384e-06 9.3639528131e-06 -1.0437147921e-05 -2.2459796867e-06 -2.1874097911e-05 -1.4937161296e-05 -3.1394347388e-05 -2.4978292686e-05 
-3.6432680645e-05 -3.0469614103e-05 -3.6388719309e-05 -3.0159424568e-05 -3.2340697544e-05 -2.5373422432e-05 -2.445246173e-05 -1.7155666796e-05 -1.5843778783e-05 
-8.1825858729e-06 -7.0335395321e-06 -9.4106661663e-07 1.9503129352e-06 5.5967042272e-06 1.0823481944e-05 1.2212688375e-05 2.1768648367e-05 2.0481931188e-05 
3.4329492337e-05 3.0170052469e-05 4.823652489e-05 4.1385964778e-05 5.4996178733e-05 4.9582127758e-05 4.6493800255e-05 4.6770874178e-05 3.6410014218e-05 
4.0148667722e-05 2.9532929148e-05 3.4631131257e-05 1.9049207822e-05 2.512740798e-05 7.3098886446e-06 1.2392743685e-05 4.0903975673e-07 3.8416433057e-06 
4.5690125319e-06 6.3778388295e-06 1.2091691133e-05 1.3773997807e-05 1.4527788153e-05 1.7794792257e-05 1.3693495021e-05 1.6376363419e-05 7.2825723691e-06 
1.0002358977e-05 2.9224070204e-06 5.2144021083e-06 3.2357241935e-06 4.3982379907e-06 1.0130521673e-05 9.8634976098e-06 2.1760277377e-05 2.0265290914e-05 
3.0743603929e-05 2.8275517707e-05 3.6513818486e-05 3.3770654227e-05 3.8680092985e-05 3.7487992813e-05 3.7782539948e-05 3.7511413211e-05 3.6607596485e-05 
3.6150968299e-05 3.5898387068e-05 3.3881598029e-05 3.2108692722e-05 2.8006426874e-05 2.7900581699e-05 2.2628381885e-05 2.4145150746e-05 2.0473414679e-05 
2.1105258384e-05 1.9208203867e-05 1.6003225483e-05 1.6060376993e-05 8.840753253e-06 9.7714569165e-06 1.1998597529e-06 1.5148302737e-06 -8.7174469172e-06 
-6.3743748342e-06 -1.7694901999e-05 -1.2378672409e-05 -2.3551521735e-05 -1.5915154336e-05 -2.1812241357e-05 -1.1476317923e-05 -6.8967468678e-06 4.5263334982e-06 
1.6299816366e-05 2.8721166302e-05 4.0874462684e-05 5.4943638588e-05 7.0040505307e-05 8.0344000708e-05 8.6529780674e-05 8.500939839e-05 7.4635292549e-05 
6.6394542955e-05 6.0026723077e-05 5.5181257267e-05 -1.2696520685e-05 -2.2993566745e-05 -1.0229570648e-06 7.6815371699e-06 1.2699359786e-05 1.5163028593e-05 
2.0867291369e-05 2.8639999528e-05 2.9468354114e-05 2.5510054911e-05 2.3587485884e-05 2.4877672331e-05 3.0273502034e-05 3.6131704292e-05 3.7083614188e-05 
3.1799230328e-05 2.1949798338e-05 1.1701807928e-05 3.815326302e-06 2.7889927878e-07 1.7740592213e-06 5.0751533252e-06 7.2486431009e-06 1.104284047e-05 
1.2037566648e-05 8.6110007942e-06 1.4008840878e-06 -5.9400421435e-06 -1.1249496538e-05 -1.3633961316e-05 -1.3102325511e-05 -1.1115073903e-05 -6.9899252253e-06 
1.1549737735e-06 1.0126504918e-05 1.7069934984e-05 2.4909833655e-05 3.6559459659e-05 5.1014914789e-05 6.5359163273e-05 7.4009627497e-05 7.1356065746e-05 
6.1877233748e-05 4.8694753787e-05 3.9839284e-05 3.2895034565e-05 2.9907611406e-05 2.899881747e-05 2.9864923363e-05 3.2369291148e-05 3.5053833926e-05 
3.4516935102e-05 2.2540335635e-05 3.1553702797e-06 -1.4779748483e-05 -2.4975090582e-05 2.4300363748e-05 3.3174071177e-05 1.9220996592e-05 9.8619450171e-06 
-3.0518475853e-06 -1.3702686715e-05 -1.982226695e-05 -1.9526146843e-05 -1.2756686559e-05 -3.1754733101e-06 4.6024942435e-06 8.5286458784e-06 1.1613276911e-05 
1.4624968799e-05 1.7972171463e-05 2.2728310341e-05 2.9236616683e-05 3.7425576465e-05 4.2224397475e-05 4.2708210458e-05 4.0779381379e-05 3.4214555399e-05 
2.1287858544e-05 1.0260039062e-05 1.1144951259e-05 1.9087586452e-05 2.4588978704e-05 2.2986917884e-05 1.6725085516e-05 1.1434102589e-05 8.9323071961e-06 
1.1716550375e-05 1.964178864e-05 2.632920814e-05 3.1732457501e-05 3.6074859054e-05 3.6078617086e-05 3.3522368085e-05 2.9068941785e-05 2.1614276193e-05 
1.5825030687e-05 1.5626310642e-05 1.7157386083e-05 1.6928830064e-05 1.2050903706e-05 4.6620878038e-06 6.0189483975e-07 -1.8808660798e-06 -2.181143941e-06 
6.1105705527e-06 2.3234603304e-05 4.6530798954e-05 6.7481480073e-05 7.725604155e-05 6.7425289672e-05 4.9668805332e-05 4.4827251259e-05 4.2899530854e-05 
4.0736025539e-06 -5.3901233059e-06 1.1356443451e-05 1.476075181e-05 1.6141837477e-05 1.9103790692e-05 2.3955964025e-05 2.5608595024e-05 2.4215776648e-05 
2.4177935302e-05 2.6421249913e-05 3.2474727959e-05 4.0438342694e-05 4.392284427e-05 4.063706092e-05 3.2644613384e-05 2.3909051379e-05 1.6977451423e-05 
1.2344002016e-05 1.139428241e-05 1.2532828805e-05 6.0927646359e-06 6.483068546e-06 5.3419374808e-06 2.390623024e-06 -1.9202445287e-06 -6.3290190724e-06 
-9.5618780733e-06 -9.117395166e-06 -5.3979067047e-06 -2.919151143e-07 6.1567597527e-06 1.4797370739e-05 2.3664113087e-05 3.2039992675e-05 4.1158591557e-05 
5.1374954637e-05 6.2407420955e-05 7.1416856372e-05 7.3994971899e-05 6.8392937465e-05 5.846330987e-05 4.7549804549e-05 2.2082526357e-05 2.7519992273e-05 
2.2072619231e-05 2.5858249046e-05 3.0423470889e-05 3.3795442505e-05 3.5928004763e-05 3.6956222175e-05 3.1975721413e-05 1.9315867291e-05 2.8229912914e-06 
-1.0615258532e-05 -1.2789285847e-05 8.4506604026e-06 1.3361579704e-05 3.3401641303e-05 3.6406416257e-05 2.2275598894e-05 2.4268475045e-05 1.6487061885e-05 
6.760734891e-06 -2.5922996869e-06 -8.0873463375e-06 -8.3731871712e-06 -1.7787875066e-06 9.1843856325e-06 1.5311087509e-05 1.5699801452e-05 1.6272083485e-05 
1.6803534436e-05 1.6149124122e-05 1.6523900058e-05 1.9186335976e-05 2.4364385536e-05 3.396457214e-05 3.936271878e-05 4.1384521865e-05 3.8421936551e-05 
2.7460458568e-05 1.6497708884e-05 1.7560481638e-05 2.5361075586e-05 3.0508994314e-05 2.9978100429e-05 2.452892204e-05 1.9278077389e-05 1.619669456e-05 
1.7484903537e-05 2.3117653654e-05 2.8273803764e-05 3.2532188015e-05 3.4239678826e-05 3.1815457533e-05 2.8316581847e-05 2.3926900212e-05 1.7990349534e-05 
1.4030458033e-05 1.4629709995e-05 1.7399411718e-05 1.8511670532e-05 1.5290251213e-05 1.1364061152e-05 1.0131055205e-05 8.6897117626e-06 9.9399115925e-06 
1.951171032e-05 3.6229708257e-05 5.35993413e-05 6.1028325945e-05 5.3993367146e-05 4.0798469399e-05 3.3795178297e-05 3.4297579077e-05 3.3576188343e-05 
2.8343672966e-05 2.1807268467e-05 2.5372862183e-05 1.6066107264e-05 1.2805954611e-05 1.6591814074e-05 2.5160578843e-05 3.3421807075e-05 3.8249953832e-05 
3.9166848183e-05 3.9016867049e-05 3.8501980271e-05 3.4288198549e-05 1.8255669511e-05 -3.4777408473e-06 -5.7786625973e-06 1.4241982456e-06 8.6460212287e-06 
1.4642401311e-05 1.741760866e-05 1.7501391994e-05 1.8039006136e-05 1.9285042981e-05 1.9737902676e-05 1.980670595e-05 2.1002562335e-05 2.4449493594e-05 
3.1010090879e-05 4.0535695007e-05 4.7445282689e-05 4.7075198381e-05 4.1407383833e-05 3.4218668588e-05 2.8543976896e-05 2.406515523e-05 2.1111037768e-05 
2.0643177777e-05 1.9765270736e-05 1.2919564369e-05 1.7624204702e-05 8.5113128989e-06 3.7350714024e-06 5.5060630189e-07 -7.2680279573e-09 -7.6362590562e-07 
-2.798301125e-06 -4.9673678291e-06 -5.0961484135e-06 -1.5847923009e-06 4.7799299523e-06 1.2264113082e-05 2.01740188e-05 2.814024765e-05 3.5647562072e-05 
4.4998361773e-05 5.5044399232e-05 6.2838134909e-05 6.931585267e-05 7.3638067988e-05 7.2946810178e-05 6.6525579314e-05 5.7029544223e-05 4.7524483307e-05 
3.7386533222e-05 2.6012525268e-05 1.4069564031e-05 1.5146851638e-05 1.3738373733e-05 2.0286976905e-05 2.2457940304e-05 1.5237524622e-05 1.0008704955e-05 
7.166806121e-06 6.8922184653e-06 1.0580150644e-05 1.9020239051e-05 2.4032817237e-05 2.2419171273e-05 2.0322062937e-05 1.8595956135e-05 1.5028142116e-05 
1.2311236333e-05 1.2122133057e-05 1.328291728e-05 3.4933494589e-05 2.8707918773e-05 3.9100591493e-05 3.8974106246e-05 3.1241617762e-05 2.2982451355e-05 
2.4438815672e-05 3.0649212476e-05 3.5029287574e-05 3.5238702367e-05 3.14122276e-05 2.7181508813e-05 2.4528933864e-05 2.5353104775e-05 2.881882665e-05 
3.1069778743e-05 3.1700229101e-05 2.926701336e-05 2.5363476198e-05 2.2962763069e-05 1.9698245069e-05 1.5905117607e-05 1.4022108871e-05 1.5324748802e-05 
1.8563135654e-05 2.0426000447e-05 1.9630736233e-05 1.9520464093e-05 2.0603983558e-05 2.0495306444e-05 2.237532658e-05 3.1021581435e-05 4.5325440624e-05 
5.5321981563e-05 5.2970437537e-05 4.0200722651e-05 2.6124136639e-05 2.2233903564e-05 2.5520131203e-05 2.584773074e-05 2.2924945824e-05 2.1856889362e-05 
2.1567439489e-05 1.4574504576e-05 8.8643851086e-06 7.7043265492e-06 1.3200546505e-05 2.3621992568e-05 3.4399854485e-05 4.0776354581e-05 4.1807373236e-05 
4.089446702e-05 4.0892770812e-05 4.2890621444e-05 4.0398268993e-05 2.0100744393e-06 1.3370315628e-06 7.4283961169e-06 1.2202224525e-05 1.7446667471e-05 
1.9707741103e-05 1.9145958504e-05 1.8019329673e-05 1.6807526663e-05 1.6043512733e-05 1.6013673758e-05 1.6935136955e-05 2.1104702682e-05 2.8326584925e-05 
3.7088771933e-05 4.6127848691e-05 5.0332064347e-05 4.7955280024e-05 4.2863626732e-05 3.5574946196e-05 3.0385773243e-05 2.6421990697e-05 2.6687419904e-05 
2.5857508717e-05 2.2964957225e-05 1.4099301097e-05 1.9048668491e-05 9.1504201691e-06 4.1365927927e-06 2.5065711876e-07 -2.3210447182e-06 -1.6193038306e-06 
-1.8353727995e-06 -3.3914479332e-06 -2.9503697121e-06 3.4350831157e-07 6.4937472075e-06 1.5053744391e-05 2.4758162454e-05 3.3771279504e-05 3.9702366848e-05 
4.3818641643e-05 5.2252811656e-05 6.2669957515e-05 6.8629016823e-05 7.110155093e-05 7.0717471317e-05 6.6807772782e-05 6.106031833e-05 5.5789549757e-05 
4.8271160267e-05 3.7902953409e-05 2.6417146728e-05 1.6196393972e-05 7.2870041095e-06 8.3686347807e-06 6.5858919243e-06 1.3037750648e-05 3.2240368e-05 
1.9143318013e-05 1.4727600728e-05 2.5738357181e-05 3.0946937386e-05 3.5383102841e-05 3.7386689655e-05 3.3335447824e-05 2.8648279567e-05 3.0905765016e-05 
3.5651555663e-05 3.8873463382e-05 3.9199891944e-05 3.6738759263e-05 3.4398249227e-05 3.4474568383e-05 3.3178711419e-05 3.3847304621e-05 3.2535866012e-05 
2.8652172205e-05 2.2911206088e-05 1.9948187401e-05 1.8946686396e-05 1.6404368353e-05 1.4809355662e-05 1.4633938463e-05 1.6337960005e-05 2.0015490009e-05 
2.339868297e-05 2.5679891678e-05 2.8985868084e-05 3.2372373425e-05 3.364002032e-05 3.5132784888e-05 4.0866560994e-05 5.0667606956e-05 5.5572560086e-05 
4.9220871006e-05 3.5304632092e-05 2.0608126533e-05 1.5087361589e-05 1.7932700985e-05 1.8855081407e-05 1.7272445575e-05 1.870094502e-05 2.1461553388e-05 
2.1934709821e-05 2.1159970856e-05 2.0887882329e-05 2.1926560294e-05 2.288209771e-05 2.4340239634e-05 2.7389568004e-05 2.908836268e-05 2.6587603315e-05 
2.2915471163e-05 1.9566681658e-05 1.5115970882e-05 1.1312164816e-05 9.2606373983e-06 9.1390063517e-06 1.0280168453e-05 1.2645207107e-05 1.5897298681e-05 
1.5276152908e-05 1.7949969636e-05 5.3007133829e-06 1.0307744105e-05 2.0967217097e-05 3.2689466934e-05 4.0947270463e-05 4.3864235522e-05 4.3135316446e-05 
4.2619157284e-05 4.4753129259e-05 4.7375050599e-05 4.4687024456e-05 2.895798707e-05 4.0562006689e-05 1.4417201214e-05 8.1263704601e-06 9.8883330679e-06 
1.3007837651e-05 1.6813090951e-05 1.9857684795e-05 2.11106385e-05 2.0781589683e-05 1.913094502e-05 1.6877851976e-05 1.5853457626e-05 1.3861637171e-05 
1.3666158793e-05 1.7937491293e-05 2.6729884667e-05 3.4219510174e-05 4.0162154619e-05 4.9616370234e-05 5.1142186749e-05 4.9860657782e-05 3.2039608413e-05 
3.7618667193e-05 1.4939356788e-05 1.5747103134e-05 4.3627089326e-05 4.8536551731e-05 2.7781501103e-05 3.1219547054e-05 2.3290751415e-05 1.5021133549e-05 
2.0251474325e-05 9.3312446552e-06 3.8135925138e-06 -8.4030358494e-07 -1.4568123206e-06 -3.1043522256e-06 -2.8589170498e-06 9.8090319511e-07 6.7301364837e-06 
1.4382166569e-05 2.4163420676e-05 3.5295215184e-05 4.4229039304e-05 4.7080444347e-05 4.7995549721e-05 5.4824684412e-05 6.460160057e-05 6.9172603617e-05 
6.8671433837e-05 6.4523134824e-05 5.4792708397e-05 5.0867819482e-05 3.8943858272e-05 2.7547140235e-05 1.7718823983e-05 1.0074310467e-05 4.6170464429e-06 
6.5739989168e-06 4.1211162625e-06 2.2710201847e-05 2.7364747893e-05 3.1802228023e-05 3.5243074308e-05 3.4042533116e-05 3.2601618841e-05 3.6043341424e-05 
3.9575195842e-05 4.1237465666e-05 4.1533817239e-05 4.0271585021e-05 3.9754547288e-05 4.1202746615e-05 3.623122393e-05 3.8741229218e-05 3.1462645893e-05 
2.4264204058e-05 1.790489614e-05 1.6153453544e-05 1.5504080011e-05 1.3916728221e-05 1.4075149238e-05 1.5088526652e-05 1.7204011783e-05 2.3141738347e-05 
2.9138509944e-05 3.4271378354e-05 3.9897307033e-05 4.4359605454e-05 4.5867223889e-05 4.6226042286e-05 4.8299245464e-05 5.5000358407e-05 5.5903456996e-05 
4.7568596528e-05 3.2714228837e-05 1.7807560653e-05 1.0386878557e-05 1.0804969406e-05 1.1712427749e-05 1.1521796296e-05 1.5271592247e-05 2.0285740447e-05 
2.3055414658e-05 2.4855906304e-05 2.7737916753e-05 3.1444775232e-05 3.370293507e-05 3.4295031583e-05 3.3978040847e-05 3.2592781281e-05 2.8869783364e-05 
2.4432530608e-05 2.0443706035e-05 1.6288955067e-05 1.2511447039e-05 9.157753766e-06 8.8592757947e-06 1.0093016044e-05 1.1090063936e-05 1.3720965171e-05 
1.7713839043e-05 1.6232223061e-05 1.9550145225e-05 4.1119577872e-05 4.4186252126e-05 2.1364683533e-07 -2.2707723204e-06 6.2336175901e-06 9.7630921658e-07 
1.2933301264e-05 2.1427808178e-05 3.1602886338e-05 4.3009948058e-05 5.094135031e-05 5.2449549548e-05 5.1780191825e-05 5.6784791923e-05 6.4104056037e-05 
6.7308770667e-05 6.5122007072e-05 5.9031818637e-05 5.0286582336e-05 3.9886493141e-05 4.0323399844e-05 8.0951726886e-06 1.8293418179e-05 3.0178122415e-05 
4.0227258069e-05 4.5110287829e-05 4.5632391266e-05 4.4659375817e-05 4.5129890168e-05 4.6112660129e-05 4.540631835e-05 4.3336556701e-05 4.0677537982e-05 
4.2374972691e-05 3.1478365599e-05 2.0014292204e-05 1.5672477502e-05 1.679859065e-05 1.9154754682e-05 2.1184057914e-05 2.2357483431e-05 2.0956303615e-05 
1.8603904664e-05 1.6912796582e-05 1.6146899725e-05 1.5389032797e-05 1.5142228904e-05 1.403192141e-05 1.2133093151e-05 1.3117214394e-05 1.7162950144e-05 
2.6822602194e-05 3.0504604638e-05 3.5838618351e-05 2.6407155929e-05 1.1658917538e-05 1.9425927348e-05 4.4842825275e-06 2.4001410566e-05 2.8461391139e-05 
3.2288773582e-05 3.307719453e-05 3.420433859e-05 3.9145242226e-05 4.233600248e-05 4.1627261453e-05 4.1861843783e-05 4.3167174226e-05 4.4715951844e-05 
3.5914816181e-05 4.1069066356e-05 2.8518895306e-05 2.0547121494e-05 1.5203685962e-05 1.3141131603e-05 1.2044748019e-05 1.1528185269e-05 1.3145344383e-05 
1.5759874941e-05 1.7660982849e-05 2.1474522327e-05 4.4506689846e-05 3.8251378101e-05 5.052380493e-05 5.4631991588e-05 5.5530820646e-05 5.4354134591e-05 
5.3773544096e-05 5.5917254031e-05 4.3830768846e-05 5.4673677369e-05 2.8740166272e-05 1.4825953485e-05 7.9896932448e-06 5.3396678048e-06 4.1355550131e-06 
5.8252268076e-06 3.2852937693e-05 2.9755611195e-05 -2.8895535138e-06 -3.2355387134e-06 6.0168721575e-05 6.0151735852e-05 2.3664393211e-05 2.6888653338e-05 
3.0604021958e-05 3.5187205867e-05 3.8933821088e-05 4.0403711864e-05 3.9431399273e-05 3.629904495e-05 3.1226575175e-05 2.5933455163e-05 2.1223130261e-05 
1.6997739749e-05 1.3717764205e-05 9.8524469649e-06 8.5352351865e-06 9.8846755918e-06 1.1372453628e-05 1.3326124417e-05 1.7743410808e-05 4.7064540922e-05 
3.8473167479e-05 5.1070700768e-05 5.0398847634e-05 4.8632783546e-05 4.5566413064e-05 4.493801498e-05 4.2111265429e-05 1.8306762286e-05 2.5254596949e-05 
1.41394612e-05 1.0732016676e-05 8.5262408902e-06 9.037151699e-06 1.1868191223e-05 1.8759166596e-05 2.8623330763e-05 4.0411594455e-05 3.3573327528e-05 
2.7022233098e-05 2.1492687665e-05 1.7026650994e-05 1.3769325051e-05 1.0612224287e-05 1.1515194274e-05 1.3313085901e-05 1.186948316e-05 1.2090403061e-05 
1.4423759694e-05 1.8385004296e-05 2.722128238e-05 2.0796817989e-05 2.5486288905e-05 2.9209287277e-05 3.0368747957e-05 3.3315046039e-05 3.929965078e-05 
4.1811304072e-05 2.360360304e-05 2.3420906473e-05 2.0854268314e-05 1.893678791e-05 3.4557982417e-05 2.5633742553e-05 2.214118058e-05 2.3033302114e-05 
1.08912897e-05 1.3116328319e-05 1.6086782125e-05 1.9913968117e-05 2.7301081445e-05 3.6615693716e-05 4.508067741e-05 4.3345670747e-05 4.203753997e-05 
4.3068520426e-05 4.4788529522e-05 4.5712236897e-05 4.4263270865e-05 4.6172037401e-05 7.9746552728e-06 1.7014051537e-05 2.8347485932e-05 3.968470719e-05 
4.5076388233e-05 3.3327955407e-05 4.5894887686e-05 4.2463250793e-05 4.7666901992e-05 5.4032715525e-05 5.9064942434e-05 6.1875416577e-05 6.1479863689e-05 
5.8887085288e-05 5.7339823798e-05 5.746257284e-05 5.7752660723e-05 6.2006227381e-05 5.8286896092e-05 5.8987659941e-05 5.0150151765e-05 3.8438211504e-05 
2.5105443456e-05 1.1889163488e-05 5.0516052568e-06 4.6461974179e-07 -8.9154763216e-07 9.9753908955e-07 -2.2510262549e-06 1.0474518319e-06 5.5514213955e-06 
1.0601680515e-05 1.8219404865e-05 2.7514405701e-05 3.7838764001e-05 4.8372528909e-05 5.6368388869e-05 5.638471066e-05 5.8918249124e-05 6.3196974224e-05 
6.4362495323e-05 6.0884963204e-05 5.4358269153e-05 4.8803693062e-05 6.3391031517e-06 6.4455423853e-05 6.3021978349e-05 5.9912462348e-05 5.8454452301e-05 
5.8591196042e-05 3.3055328458e-05 4.3837543672e-05 2.2287109459e-05 1.42289767e-05 3.6125718907e-05 3.0332955248e-05 2.3014366889e-05 2.611983291e-05 
2.0529805018e-05 3.5278714677e-05 2.7316088563e-05 2.1168742023e-05 1.6846121753e-05 1.3543439309e-05 5.6190668147e-05 5.9560226267e-05 5.3611754083e-05 
4.440868482e-05 4.0568859731e-05 2.2722773186e-05 1.7194194697e-05 1.1769094044e-05 8.5471836731e-06 2.6850377253e-05 2.3575885886e-05 4.598950818e-05 

Stress_Y_Pt 1 1116 double
-4.209411054e-05 -3.2087418731e-05 -3.9985557123e-06 -8.0891372818e-06 -1.67880753e-05 2.5277231543e-06 -7.1425764645e-06 7.049546241e-06 -5.4466215715e-07 
1.0920892066e-05 6.6694638008e-06 1.66333175e-05 1.4092865513e-05 2.346536462e-05 2.2553915187e-05 3.4685256651e-05 3.6873791032e-05 5.095294182e-05 
4.8112235163e-05 6.1599038418e-05 4.6435767217e-05 6.0933582972e-05 3.6238579014e-05 5.2639446494e-05 2.6042104764e-05 4.305739867e-05 1.9428550331e-05 
3.5414222566e-05 1.2193944713e-05 2.8922904676e-05 4.8671072364e-06 2.5075067697e-05 2.7630992463e-06 2.6096108627e-05 6.0384411427e-06 2.9407722764e-05 
1.0417735666e-05 3.2079892435e-05 1.5227039512e-05 3.4752653391e-05 2.1769558771e-05 3.863916163e-05 2.8496419873e-05 4.2665612909e-05 3.3468506444e-05 
4.2670545554e-05 3.7270119719e-05 3.9681481212e-05 4.0165670725e-05 3.6170608382e-05 4.3172709411e-05 3.5056915294e-05 4.4038470151e-05 3.5653770283e-05 
3.2945877138e-05 2.898031471e-05 1.4315136241e-05 1.729508574e-05 -1.2777793472e-06 8.4250672217e-06 -1.2840266209e-05 3.0536994018e-06 -1.8704145987e-05 
1.0362805369e-06 -2.1854125407e-05 1.593871275e-07 -2.9326514777e-05 -2.56782414e-06 -3.4482956835e-05 -4.1978732952e-06 -3.0585152672e-05 -2.228957328e-06 
-2.749527448e-05 4.6250488595e-07 -2.7312208658e-05 4.1138259803e-06 -2.3875396437e-05 1.0952504454e-05 -1.5013588836e-05 2.069568859e-05 1.6709891497e-06 
3.4242813854e-05 2.2635834739e-05 5.0285265161e-05 4.5318925913e-05 6.5817424002e-05 7.0401825724e-05 8.0757804426e-05 9.4302969956e-05 9.4345696198e-05 
0.00010905144518 0.00010374108024 0.00010772423047 0.0001051722902 8.9508339443e-05 9.6180790933e-05 6.2998977228e-05 7.8405091699e-05 4.1602930651e-05 
5.9291408434e-05 2.704687904e-05 4.3401008043e-05 1.5845155303e-05 3.0259290952e-05 7.6531218838e-06 2.0561722749e-05 -2.5667486625e-07 1.2944015907e-05 
-1.1122848264e-05 5.9910353229e-06 -3.0164899727e-05 -2.9116290534e-06 3.1982248402e-05 2.7366691029e-05 2.528018149e-05 2.5175897008e-05 1.9749491003e-05 
2.3905735816e-05 1.3995218978e-05 2.415423296e-05 6.3173365561e-06 2.1295711576e-05 1.6097249329e-06 1.8171634693e-05 -1.8472098589e-06 1.5959591693e-05 
-5.372198757e-06 1.4557954728e-05 -6.421097396e-06 1.622346042e-05 -3.1514288423e-06 2.2685343239e-05 4.1276226455e-06 3.3527197544e-05 1.3622262031e-05 
4.5568129053e-05 2.4625585866e-05 5.465983395e-05 3.5882428165e-05 6.1241269123e-05 4.7880908824e-05 6.8358714998e-05 6.0592048612e-05 7.5730486969e-05 
7.4993135058e-05 8.1435158791e-05 8.4292227257e-05 8.0393334429e-05 7.5110227044e-05 6.7481855694e-05 4.6565556659e-05 4.5012428473e-05 1.8974768864e-05 
2.5500214633e-05 1.108175411e-06 1.382142716e-05 -1.57408424e-05 3.746287689e-06 -2.8867570109e-05 -4.6571562962e-06 -3.2962914702e-05 -8.1381390373e-06 
-2.8148128877e-05 -5.5671985137e-06 -2.0694444174e-05 -7.0477472036e-07 -1.7183779164e-05 2.8675772228e-06 -2.0741834305e-05 2.7399419196e-06 -3.3399270251e-05 
-2.8406229831e-06 -4.426209307e-05 -9.0171183729e-06 -4.2122534069e-05 -9.6005601335e-06 -1.9018916092e-05 8.864383787e-07 -5.1032892685e-06 1.1279291407e-05 
1.4352231119e-06 2.002493261e-05 2.5587008167e-05 3.705307472e-05 5.0177584853e-05 5.5404725572e-05 6.5784006438e-05 6.7771788963e-05 6.7388373282e-05 
7.1732332799e-05 5.9522621086e-05 6.9734426688e-05 5.3564064729e-05 6.6849810537e-05 5.2077497458e-05 6.5758483288e-05 4.7900579375e-05 6.4595235017e-05 
4.0607279516e-05 6.1233387896e-05 3.0793210499e-05 5.4343676766e-05 1.9494400476e-05 4.4007851102e-05 9.0300000011e-06 3.2851384276e-05 -8.7783314484e-07 
2.4328396762e-05 -5.8951363826e-06 1.9908763079e-05 -6.4010405367e-06 1.7124165197e-05 -6.1423272655e-06 1.4722189803e-05 -1.8581353061e-06 1.3882980795e-05 
4.6414235157e-06 1.3850712151e-05 9.0761664069e-06 1.1619489896e-05 1.9618132683e-05 1.3710513826e-05 2.9404091947e-05 1.7299093201e-05 2.6478508516e-05 
1.3723776846e-05 2.6959412935e-05 1.6843169732e-05 2.1956968794e-05 2.1635859866e-05 2.2859992896e-05 2.5149518024e-05 3.0117970255e-05 3.762418828e-05 
5.150033212e-05 6.8310298047e-05 7.8385994129e-05 8.0000496382e-05 7.5960169852e-05 6.9298761446e-05 6.3592248807e-05 6.0714148276e-05 6.0914999267e-05 
6.2310356043e-05 6.1956689933e-05 6.0510003095e-05 5.9438370045e-05 5.949881961e-05 5.9021981542e-05 5.1187678037e-05 4.17492829e-05 3.4169063383e-05 
2.9468080811e-05 2.6979229915e-05 2.2828735382e-05 1.8404499087e-05 1.6777330757e-05 1.7983922135e-05 2.050031344e-05 2.2858316697e-05 2.5531956453e-05 
2.9414249639e-05 3.3206366425e-05 3.7122852973e-05 4.3241516323e-05 5.226916619e-05 6.2724117015e-05 7.2863493187e-05 8.2101772932e-05 8.8095091996e-05 
9.0211537099e-05 9.0734001424e-05 9.8972765045e-05 0.00010373096302 0.00010349093645 9.452519771e-05 7.8503935583e-05 6.0689540987e-05 4.4540194722e-05 
3.2828957046e-05 2.4756600851e-05 2.0999587832e-05 2.0857521122e-05 2.1529182959e-05 2.7177054108e-05 2.2156626073e-05 3.3147701743e-05 3.4911969124e-05 
3.3727555092e-05 3.2902720704e-05 3.4300225707e-05 4.0956974772e-05 5.4518602155e-05 7.2169877058e-05 8.7292246462e-05 9.3788434242e-05 9.469035831e-05 
9.4303330116e-05 9.1851783509e-05 8.4978699306e-05 7.2632048614e-05 5.7893559642e-05 4.3568691581e-05 3.2617146644e-05 2.6292956136e-05 2.2032857942e-05 
1.7445347794e-05 1.3651839708e-05 1.3840917518e-05 1.6332872747e-05 1.965374031e-05 2.3191059881e-05 2.5290062695e-05 2.5561006623e-05 2.4863482849e-05 
2.6407015412e-05 3.4335458622e-05 4.4579484893e-05 5.4600506701e-05 6.4807297349e-05 7.2301902037e-05 7.8832255895e-05 8.49159278e-05 8.8904302174e-05 
9.1195235655e-05 9.3810524049e-05 9.5632409284e-05 9.3004895461e-05 8.3189494035e-05 6.9342942879e-05 5.812622112e-05 4.8981719374e-05 4.0266986616e-05 
3.3603998872e-05 2.728787058e-05 2.0719368877e-05 1.2188379628e-05 7.7327679264e-06 1.0384825032e-05 8.7802449968e-06 1.0308779764e-05 1.8030122646e-05 
2.6896580039e-05 2.368626383e-05 3.0456106742e-05 3.5804800973e-05 4.4383776185e-05 5.7835735788e-05 7.2875051046e-05 8.2349130025e-05 8.5281741121e-05 
8.4683983005e-05 8.2898392066e-05 8.3031682152e-05 8.5124116595e-05 8.5398727606e-05 8.1707206846e-05 7.6120955782e-05 7.2192678999e-05 6.9947458542e-05 
6.7749533628e-05 6.3654366386e-05 5.6259968005e-05 3.3096097013e-05 3.760227446e-05 2.9131042538e-05 2.4233600925e-05 1.873611518e-05 1.5401095879e-05 
1.5092482954e-05 1.782839945e-05 2.2157324565e-05 2.6481362056e-05 3.116335165e-05 3.8340655919e-05 4.7385638027e-05 5.5185341807e-05 6.1078152612e-05 
6.7188379035e-05 7.4844814662e-05 8.3048182205e-05 8.9069962996e-05 9.0144754722e-05 8.6879552327e-05 8.1565500295e-05 9.7969945273e-05 9.2103440693e-05 
9.7598871434e-05 9.023050734e-05 7.7204831541e-05 6.0899804339e-05 4.4855029955e-05 3.2239895972e-05 2.2998077839e-05 1.9073690964e-05 1.8133117919e-05 
1.7217018467e-05 1.9536291802e-05 4.2138682147e-05 4.7578172598e-05 8.2817257862e-05 7.6881537098e-05 3.012487241e-05 2.4927444429e-05 3.181437387e-05 
3.1792718346e-05 3.2536264371e-05 3.6577056562e-05 4.6893800572e-05 6.469928212e-05 8.7419841293e-05 0.00010401129475 0.00010693994409 0.00010286183715 
9.7225471109e-05 8.8844144557e-05 7.7699871326e-05 6.5597298999e-05 5.1816372434e-05 4.090100083e-05 3.2371659927e-05 2.6035136216e-05 2.1253688828e-05 
1.5790323232e-05 1.1256551943e-05 1.136338301e-05 1.3644082628e-05 1.6808874534e-05 2.0731812583e-05 2.3118502213e-05 2.5245443794e-05 2.8013727842e-05 
3.4108032651e-05 4.3221133637e-05 5.1973807786e-05 6.1362768065e-05 6.9398223786e-05 7.5492314863e-05 8.3007143985e-05 9.1670517577e-05 9.9868386314e-05 
0.0001065409233 0.00011183041715 0.00011604065367 0.00011533926408 0.00010544807083 8.9966499218e-05 7.3981737842e-05 5.7957072386e-05 4.4015094318e-05 
3.4351442537e-05 2.6951301152e-05 1.8911440748e-05 9.8914927094e-06 7.39318466e-06 1.5346656483e-05 1.7576386881e-05 1.4119791103e-05 1.593774482e-05 
1.9525677544e-05 7.6119298683e-05 7.5654015745e-05 7.9567762441e-05 8.1907999629e-05 7.9991930761e-05 7.4103373663e-05 6.5758826167e-05 5.4959613408e-05 
4.2365690206e-05 3.1298442991e-05 2.2487811748e-05 1.8250112134e-05 1.6438373859e-05 1.6804739971e-05 2.0159233827e-05 2.5772306799e-05 2.9778710996e-05 
3.3807020372e-05 3.9179557461e-05 4.7342382459e-05 5.975735985e-05 7.259231279e-05 8.0321400674e-05 8.3622302554e-05 8.5201843831e-05 8.7367277956e-05 
9.1532196166e-05 9.5917888757e-05 9.570025577e-05 9.0110659585e-05 8.3982969954e-05 8.0691303083e-05 7.8362876593e-05 7.4159601354e-05 6.801123709e-05 
6.1234562054e-05 5.3550355915e-05 3.9798999751e-05 4.5056067393e-05 3.4648168821e-05 3.0001951473e-05 2.6823087865e-05 2.4575885163e-05 2.145030021e-05 
1.7091982727e-05 1.4335069636e-05 1.5172063286e-05 1.9259245619e-05 2.5141777314e-05 3.1631583624e-05 3.8608012801e-05 4.6928522352e-05 5.7091842791e-05 
6.7917658271e-05 7.5797248428e-05 7.9979798102e-05 8.3533663201e-05 8.7866814283e-05 9.09750961e-05 8.9592023869e-05 8.3921589976e-05 7.8787474195e-05 
7.6829881436e-05 7.8027002019e-05 7.6522519521e-05 8.0145029642e-05 7.4759327011e-05 2.9456919037e-05 2.7287749617e-05 3.1644180126e-05 3.6068125155e-05 
4.407376673e-05 5.6876174312e-05 7.4975358984e-05 9.7608033684e-05 0.00011351473586 0.00011246420763 0.00010272051077 9.2901836979e-05 8.2767783169e-05 
7.2970155088e-05 6.3113849137e-05 5.4353160522e-05 3.1735453831e-05 3.8150201362e-05 2.6526990496e-05 2.2277162316e-05 1.7204458572e-05 1.3147947811e-05 
1.2895270629e-05 1.4038862673e-05 1.6787461391e-05 2.0554129151e-05 2.2763732886e-05 2.5016373456e-05 2.8755174299e-05 3.6084041312e-05 4.4848059588e-05 
5.1991417422e-05 6.0528427639e-05 6.9037816502e-05 7.6180387623e-05 8.418786274e-05 9.2665177363e-05 0.00010139440565 0.00010994150216 0.00011741874368 
0.00012325114221 0.00012384296133 0.00011517208077 0.0001011619388 8.5626197688e-05 6.8482572715e-05 5.2445044275e-05 3.9544288484e-05 2.9938162243e-05 
1.9832029238e-05 9.3645854804e-06 7.113207289e-06 1.4294613948e-05 1.7973721697e-05 1.4909027868e-05 1.4043274405e-05 1.7203163225e-05 2.2669252303e-05 
4.4243510274e-05 4.9573500291e-05 7.3977700595e-05 7.1040993134e-05 6.4899472818e-05 5.696208882e-05 5.066652011e-05 4.4705266191e-05 3.6772056774e-05 
2.9267502214e-05 2.2674741558e-05 1.8164862922e-05 1.4936171738e-05 2.1320971427e-05 1.7305484107e-05 2.627746926e-05 3.0081866953e-05 3.4750755731e-05 
4.0270253521e-05 4.7806083785e-05 5.8296886891e-05 6.8094546805e-05 7.18170646e-05 7.6575728599e-05 7.9989185906e-05 8.4672483354e-05 9.0129889941e-05 
9.4651913969e-05 9.5256986242e-05 9.1787384008e-05 8.8444450739e-05 8.8164168119e-05 8.2554155597e-05 7.5914547779e-05 7.0464981642e-05 6.6470339334e-05 
5.9829400925e-05 5.1282786444e-05 3.6800900489e-05 4.2338448111e-05 3.2076722164e-05 2.8237353945e-05 2.5310058845e-05 2.3024752409e-05 2.2158820229e-05 
2.0140511424e-05 1.6060453163e-05 1.3987466446e-05 1.6095959836e-05 2.0923550437e-05 2.7572199087e-05 3.5435819882e-05 4.4356953367e-05 5.2660706388e-05 
6.0409071011e-05 7.0613006756e-05 7.9861787526e-05 8.4472547314e-05 8.7128766609e-05 8.9247754659e-05 8.9468365331e-05 8.7048658315e-05 8.342947937e-05 
8.1064601545e-05 8.1303900515e-05 8.2779184595e-05 8.3063056081e-05 7.9547024143e-05 8.0078374594e-05 7.6242631621e-05 1.4056773352e-05 1.1363283647e-05 
4.1592892558e-05 4.657847785e-05 3.8039585888e-05 3.3075001738e-05 2.8588284295e-05 2.4592409318e-05 1.9482737116e-05 1.540096514e-05 1.4469821508e-05 
1.4307531956e-05 1.6248553948e-05 1.9794660602e-05 2.1806261884e-05 2.3364417757e-05 2.7268073609e-05 3.4877861253e-05 4.2046607632e-05 4.8772081755e-05 
5.7904447203e-05 6.7589149694e-05 7.5698422734e-05 8.2904442024e-05 8.9843899332e-05 9.8236145277e-05 0.0001070801718 0.00011381745571 0.0001188815404 
0.0001206361776 0.00011483007438 0.0001043068969 9.1790750957e-05 7.6752545283e-05 6.129049325e-05 4.6143457439e-05 3.335956535e-05 2.1846139362e-05 
1.1510998547e-05 9.9359210708e-06 1.4904007685e-05 1.7067246063e-05 1.5493157662e-05 1.4386345811e-05 1.6498443074e-05 2.1761976768e-05 2.6507306302e-05 
3.0073410926e-05 3.5580594613e-05 4.4430737944e-05 5.6832694099e-05 7.2006360824e-05 8.9297378508e-05 0.00010723737796 0.00011845722292 0.00011523987087 
0.00010374191879 9.2105807198e-05 8.1536347352e-05 7.268999434e-05 6.4700221628e-05 5.8944863667e-05 5.6407195189e-05 5.4236892538e-05 4.4803500714e-05 
4.9969650718e-05 4.0888943962e-05 7.2282695328e-05 6.3295104155e-05 5.1794882893e-05 4.3159759116e-05 3.8286796553e-05 3.318903191e-05 2.7686506201e-05 
2.3114767373e-05 1.9627271286e-05 1.7586947706e-05 1.3886700799e-05 1.2261947631e-05 1.1174701285e-05 1.6418480072e-05 1.9561870886e-05 2.3218247406e-05 
2.6991702271e-05 3.1572165881e-05 3.5671303825e-05 3.9539700992e-05 4.6171261602e-05 5.4974132581e-05 6.1912283854e-05 6.2593537223e-05 7.0968853834e-05 
6.6276896177e-05 7.7834998592e-05 8.5233026766e-05 9.0453667023e-05 9.0740187443e-05 9.2310880063e-05 9.229949319e-05 9.5815721579e-05 7.3291819717e-05 
8.2637301603e-05 6.2555337536e-05 5.7569031014e-05 9.3160988399e-05 0.00010296188884 5.6822085753e-05 6.7077660788e-05 4.6173088776e-05 3.4418738778e-05 
3.9034310248e-05 2.9966896818e-05 2.596041395e-05 2.3293984214e-05 2.2070311388e-05 1.7464917983e-05 1.3593765516e-05 1.2955033981e-05 1.6771531364e-05 
2.2415670173e-05 2.9797383831e-05 3.8401723032e-05 4.7385476137e-05 5.5157161114e-05 6.1007423028e-05 6.8712271968e-05 7.7918244642e-05 8.3829905634e-05 
8.749922381e-05 8.9978375399e-05 9.0159969113e-05 8.6117186584e-05 8.785695718e-05 8.917960804e-05 8.7285705376e-05 8.1330139437e-05 7.4568035416e-05 
7.4729285188e-05 7.4935693192e-05 3.967208886e-05 3.5796321754e-05 3.1780665722e-05 2.7904377475e-05 2.2364574306e-05 1.7811024463e-05 1.6280621367e-05 
1.4887546513e-05 1.5578794319e-05 1.9032330783e-05 2.0636592581e-05 2.1476105303e-05 2.3901873647e-05 3.9130464756e-05 3.3596781577e-05 4.6371143071e-05 
5.6601399592e-05 6.655240395e-05 7.3757622886e-05 7.9766117778e-05 8.5785030024e-05 9.3525392003e-05 0.00010172393013 0.00010672513417 0.00010759936995 
0.00011080343575 0.00010823628691 0.00010155376185 9.2021853561e-05 7.9954223111e-05 6.7248331106e-05 5.4038647249e-05 4.020929191e-05 2.4912638764e-05 
1.6060639837e-05 1.4705838339e-05 1.7846950414e-05 1.8510067093e-05 1.682607558e-05 1.5029486804e-05 1.6574574374e-05 2.2473016088e-05 2.8528995699e-05 
3.4443994991e-05 4.2525521167e-05 5.4153279962e-05 6.8785587246e-05 8.4553834313e-05 9.9721741208e-05 0.00011303722204 0.00012059354958 0.00011696865477 
0.0001064750104 9.5479665106e-05 8.5099600255e-05 7.6001773778e-05 6.9156512836e-05 6.596664025e-05 6.4178605498e-05 6.0019672674e-05 5.3056190154e-05 
4.5433695959e-05 4.7619756515e-05 4.2883079004e-05 2.9548491966e-05 2.7211162433e-05 2.2194496069e-05 1.7059441689e-05 1.3007181906e-05 1.2908724557e-05 
1.6876134396e-05 2.280858962e-05 3.0496667023e-05 3.9562721213e-05 4.7800195716e-05 5.5889641226e-05 6.168139771e-05 6.7941109592e-05 7.5896745329e-05 
8.2799851953e-05 8.7581536718e-05 9.0531502792e-05 9.188057993e-05 9.2054782726e-05 9.3790389656e-05 6.5834419729e-05 5.3353452131e-05 4.245251057e-05 
3.6644296415e-05 3.2386177736e-05 2.7477200274e-05 2.3097756639e-05 2.066081106e-05 1.9868369691e-05 1.7792635617e-05 1.4638125094e-05 1.3714840179e-05 
1.4291298248e-05 1.6754970602e-05 1.974286306e-05 2.2058710783e-05 2.61967607e-05 3.1215738545e-05 3.6382152302e-05 4.3297317461e-05 5.102396517e-05 
5.5921121202e-05 5.5422889091e-05 5.196735674e-05 5.438126118e-05 5.0607361118e-05 5.72684703e-05 6.0181003391e-05 6.6106518716e-05 7.437977365e-05 
8.2919799752e-05 5.9604634771e-05 7.5960520189e-05 4.8462027735e-05 2.582795787e-05 3.3313068343e-05 2.3229689305e-05 3.9296341129e-05 3.5976621803e-05 
3.1906163258e-05 2.5794091016e-05 2.034416184e-05 1.8387393993e-05 1.6267097863e-05 1.6832185338e-05 1.8586300939e-05 2.0248789042e-05 2.271932226e-05 
3.9207789996e-05 3.4544508708e-05 4.6161666432e-05 5.6288606174e-05 6.5672722485e-05 7.1417593063e-05 7.6186928709e-05 8.1755475549e-05 8.951867494e-05 
9.7826272395e-05 0.00010232002387 0.00010051097161 0.00010078155356 0.00010213557653 9.6021498393e-05 8.8322563897e-05 7.8993880379e-05 6.980840044e-05 
6.1205670136e-05 5.4120191635e-05 1.9649474325e-05 2.7789728847e-05 1.7199056856e-05 1.8705609364e-05 2.0033923192e-05 1.8090370304e-05 1.5517951169e-05 
1.7705591517e-05 0.00010006671255 9.6974328699e-05 1.3525385157e-05 1.3942613123e-05 3.8960373786e-05 5.023286667e-05 3.9932814616e-05 4.7827351409e-05 
5.9327654526e-05 7.4040432082e-05 8.9756176749e-05 0.00010377151921 0.00011446588178 0.00011984552111 0.00011705928591 0.00010898250002 9.9675069578e-05 
9.0400169938e-05 8.2018112153e-05 7.5001442383e-05 7.1198555815e-05 7.0123049227e-05 6.3747474996e-05 5.5220340982e-05 4.7344292398e-05 9.6393518106e-05 
9.3547687356e-05 9.6440317672e-05 0.00010175142961 0.00010978961836 0.00010627562369 0.00011474858002 9.3218623078e-05 5.5945407439e-05 4.6870613915e-05 
6.4592470153e-05 6.9231251473e-05 7.215905498e-05 7.7373271779e-05 8.5179013695e-05 9.4119853748e-05 9.4172923127e-05 0.00011769551384 0.00011508804346 
0.00010882387505 0.00010064360686 9.1920355771e-05 8.3399880168e-05 7.5825229942e-05 6.7637816392e-05 5.713831888e-05 5.9272040744e-05 6.3435835727e-05 
7.0465215686e-05 7.8945806308e-05 8.7186697783e-05 4.3403968448e-05 4.0654882469e-05 3.6207203266e-05 2.8641461085e-05 2.2758182695e-05 2.0961693735e-05 
1.8338035488e-05 3.8659570237e-05 4.6145917622e-05 5.0570509302e-05 4.989437366e-05 2.0291627607e-05 2.1799105525e-05 2.5260973416e-05 3.1908631172e-05 
6.4296604251e-05 7.0576361395e-05 7.8913659308e-05 8.7665166575e-05 9.6078943898e-05 0.0001018012008 0.00010388973351 0.00011204397015 1.6413819443e-05 
1.8089051082e-05 1.9941439859e-05 2.160665008e-05 3.1587781905e-05 2.992634063e-05 6.5383048786e-05 5.4448112678e-05 4.3494257261e-05 3.6314054341e-05 
3.2657736938e-05 4.0277015614e-05 2.3202078107e-05 9.552699521e-05 9.642513578e-05 9.4651721156e-05 9.0358335001e-05 8.4940027591e-05 7.8226845289e-05 
7.1450955147e-05 6.6287346272e-05 6.2344190155e-05 5.8504936533e-05 4.875693503e-05 5.393443189e-05 3.9545011532e-05 2.9736368106e-05 2.2027644718e-05 
1.7971314264e-05 1.6497653269e-05 1.7096985403e-05 1.5379445585e-05 1.5365981653e-05 1.7840851797e-05 1.3530401702e-05 1.4373762497e-05 1.415208294e-05 
1.3921991467e-05 1.7164454448e-05 2.2867214284e-05 3.0193702059e-05 3.9059656956e-05 6.5308632657e-05 6.2286114371e-05 6.9671006713e-05 7.4945681263e-05 
8.3382164303e-05 8.992983021e-05 9.2544414656e-05 9.3260782402e-05 6.8828117946e-05 8.136243802e-05 7.638160605e-05 7.1446833317e-05 6.8054896474e-05 
6.5853768319e-05 2.2999557586e-05 3.0141728075e-05 1.785036352e-05 1.4966093355e-05 2.2416238911e-05 2.3507923743e-05 4.5366751692e-05 3.8848268741e-05 
4.6279043697e-05 0.00010984964865 0.00010413953714 9.6109148217e-05 8.7041818915e-05 7.7998942288e-05 4.7645318773e-05 4.6707013098e-05 3.9227855268e-05 
3.3172225812e-05 3.5961530557e-05 4.8386384151e-05 5.528026486e-05 6.2667941165e-05 6.654549361e-05 2.8429697522e-05 4.2671856742e-05 2.5267102956e-05 

Stress_Z_Pt 1 1116 double
3.9929969944e-06 3.5769174929e-06 3.4331939048e-05 3.7621676995e-05 2.7685225064e-06 2.9069098076e-05 2.4108763341e-06 2.5571440602e-05 4.5405589617e-06 
2.4602036035e-05 8.2010014921e-06 2.589510882e-05 1.4235121398e-05 2.8757072641e-05 2.3361824788e-05 3.4612065974e-05 3.2791970625e-05 4.0857021759e-05 
3.1744774788e-05 3.6572185763e-05 2.0546436645e-05 2.45563715e-05 1.0727211247e-05 1.5947093516e-05 4.4606521215e-06 1.1322117587e-05 4.3422684257e-06 
1.0176081616e-05 3.8172398149e-06 9.4894285496e-06 -5.6790160556e-06 6.2758471415e-06 -1.6209220576e-05 3.4474271615e-06 -2.2236195036e-05 1.8278501557e-06 
-2.4644109544e-05 9.2274603958e-07 -2.0600582502e-05 2.8529630072e-06 -7.7450148979e-06 1.0443792263e-05 1.1306940053e-05 2.4181879809e-05 3.6230924707e-05 
4.2140271489e-05 6.6343873186e-05 6.4608731009e-05 9.0547804575e-05 8.6532179921e-05 9.8176515166e-05 9.8002292361e-05 8.4050323494e-05 9.1955675089e-05 
5.7468902014e-05 7.3333371802e-05 3.4383616367e-05 5.5552704907e-05 1.6567838429e-05 4.2678609589e-05 1.1116692349e-06 3.2125930034e-05 -1.1193358432e-05 
2.2683872089e-05 -2.3221559786e-05 1.3899994428e-05 -3.0972424611e-05 8.8667788987e-06 -2.6331474146e-05 9.8204327514e-06 -1.9612998585e-05 1.030979638e-05 
-1.6820556084e-05 8.6571367319e-06 -1.3124772067e-05 8.5429294359e-06 -7.3910903211e-06 1.0206903994e-05 -7.9075562098e-08 1.1581675835e-05 8.7237629032e-06 
1.2924653333e-05 1.649673959e-05 1.478613467e-05 2.0476581994e-05 1.519870375e-05 2.289233089e-05 1.6665853991e-05 2.9223926504e-05 2.3243067062e-05 
3.8886841139e-05 3.1359324112e-05 4.7924906539e-05 3.7429246277e-05 5.1128337873e-05 4.0788735532e-05 4.6383442168e-05 4.0949718823e-05 4.0623710447e-05 
4.1652259824e-05 3.7049492676e-05 4.4621368943e-05 3.3625918149e-05 4.7273042583e-05 2.8504306101e-05 4.6715013013e-05 2.1331667995e-05 4.2612830384e-05 
1.4515313069e-05 3.8676743998e-05 8.2004773958e-06 3.7747839201e-05 9.415293971e-05 6.8505783929e-05 7.5181319517e-05 9.219264939e-05 3.5836523239e-05 
5.286990654e-05 1.6313901597e-05 3.6675750607e-05 3.7114434122e-06 2.4176796245e-05 -7.2936757647e-06 1.3885217726e-05 -1.6905095436e-05 6.8791377998e-06 
-2.3197810151e-05 3.2208045013e-06 -2.6793677534e-05 1.9850026547e-06 -2.7193043024e-05 2.1028622541e-06 -2.3046450224e-05 3.9013411879e-06 -1.3922692688e-05 
7.3545727446e-06 -3.181873808e-06 9.8993758684e-06 4.8905874337e-06 1.0895197988e-05 1.0346413546e-05 1.1766979242e-05 1.7090658275e-05 1.5547737576e-05 
2.7968540962e-05 2.3315517865e-05 4.3557080062e-05 3.4464128021e-05 5.7187031416e-05 4.5154443342e-05 5.8073510445e-05 4.9184933232e-05 5.137622793e-05 
4.9478258916e-05 4.3633248424e-05 4.9030538321e-05 3.1359856621e-05 4.5235482048e-05 1.7443038814e-05 3.8564646275e-05 8.5414499154e-06 3.3019707871e-05 
4.9124766974e-06 3.1510802387e-05 4.4800337946e-06 3.4133883332e-05 7.0584001151e-06 3.9215576635e-05 1.1075899238e-05 4.2346078772e-05 1.3723465599e-05 
4.2108945308e-05 1.5996435195e-05 4.1173533873e-05 2.0244139705e-05 4.1824201162e-05 2.7641254746e-05 4.4190071549e-05 3.5127328374e-05 4.5725228119e-05 
4.4339132728e-05 4.6603924602e-05 5.3917015975e-05 4.8062577662e-05 5.8530184106e-05 4.9397334806e-05 5.959324335e-05 5.016799787e-05 6.0757824031e-05 
5.1242940572e-05 5.690828948e-05 4.7577519581e-05 4.4427008106e-05 3.5894121083e-05 3.425284558e-05 2.6357197385e-05 2.958670575e-05 2.4195211608e-05 
2.6579744372e-05 2.5049104806e-05 2.0738400963e-05 2.4814458811e-05 1.1073703035e-05 2.0696505203e-05 2.4669665777e-06 1.5303966592e-05 -5.9802230794e-06 
1.1690742298e-05 -1.9306738068e-05 7.01631825e-06 -3.0397431146e-05 2.4560054044e-06 -3.0931670153e-05 2.9045463634e-06 -2.1005688723e-05 1.0222642686e-05 
-2.9433595046e-06 2.571882851e-05 2.5442905098e-05 5.0302033742e-05 6.8868064773e-05 8.3946321865e-05 0.00010233564171 0.00010695688616 0.00010284731252 
0.00010444447616 9.7440341051e-05 9.7168940556e-05 6.5704021836e-05 7.5827444562e-05 5.8936599999e-05 5.5027509006e-05 5.2792812312e-05 5.0448887123e-05 
4.9906844652e-05 4.947574871e-05 4.1051894186e-05 2.8120753541e-05 1.9398588847e-05 1.4679110336e-05 1.2904499954e-05 1.3371191926e-05 1.6375645146e-05 
2.0653993488e-05 2.3324541417e-05 2.5038525109e-05 2.6743549824e-05 3.0439188777e-05 3.9152117097e-05 5.2950710233e-05 6.8494530751e-05 8.687389527e-05 
0.00010072143414 0.00010254770859 9.4574357718e-05 8.5796773419e-05 8.0879481175e-05 7.7616795352e-05 7.2744473982e-05 6.6815465289e-05 6.1560204813e-05 
5.5905908994e-05 4.7994591114e-05 3.8529236008e-05 3.0895352211e-05 2.5912950605e-05 2.1077822566e-05 1.5953438151e-05 1.2870599903e-05 1.1636785757e-05 
1.2799183651e-05 1.8698384883e-05 2.5515877951e-05 2.9355604966e-05 3.2961464967e-05 3.8177013266e-05 4.7168230594e-05 5.8574764807e-05 6.9102381531e-05 
7.4601472079e-05 7.3782077379e-05 7.3827481174e-05 7.9182143963e-05 8.2495425886e-05 7.4977024269e-05 8.4456269178e-05 6.3541661802e-05 5.0711179938e-05 
3.9588785512e-05 3.3071165035e-05 3.0632238122e-05 3.097153558e-05 3.1250522625e-05 2.910180865e-05 2.4853505238e-05 1.9212542838e-05 1.4173836917e-05 
1.1204163229e-05 1.2425330397e-05 1.8311462327e-05 2.6804594654e-05 3.5445366393e-05 4.3411329898e-05 5.2072972721e-05 5.9654858887e-05 6.487380324e-05 
6.5839109993e-05 6.4587419729e-05 6.847829809e-05 7.8403262705e-05 8.7129366875e-05 8.7909935246e-05 8.2318660134e-05 7.6010088378e-05 7.1308841143e-05 
6.7823885729e-05 6.2345682636e-05 5.2945408243e-05 4.4192159294e-05 3.9691104575e-05 3.8865775423e-05 3.9055276829e-05 3.5273238609e-05 2.5691887004e-05 
1.8018868104e-05 1.8028626528e-05 2.2776055175e-05 2.8409737297e-05 3.0606587188e-05 3.0390102438e-05 3.2296056361e-05 3.5550045141e-05 3.818627556e-05 
4.146932406e-05 4.7196672313e-05 5.8106333199e-05 7.3911513027e-05 9.4303873993e-05 0.00010957049744 0.00010738515084 9.7823609394e-05 9.1215713837e-05 
7.4467703598e-05 8.063144378e-05 7.0953727118e-05 6.7161072366e-05 6.2094251007e-05 5.7102095525e-05 5.1679370699e-05 4.144894956e-05 2.8398183076e-05 
1.8366834638e-05 1.1805157783e-05 9.7897509477e-06 1.1825049341e-05 1.5097717778e-05 1.807963281e-05 2.0793528165e-05 2.4495081561e-05 2.9457626624e-05 
3.5479295548e-05 4.3376197937e-05 5.1253201491e-05 8.9401542937e-05 7.5101508628e-05 0.00010035902415 0.00010387907605 0.00010152366303 9.9091901575e-05 
9.9342907561e-05 0.00010116785234 0.00010071937686 9.5730400062e-05 8.7227192125e-05 7.7446007708e-05 6.6143556978e-05 5.2451769989e-05 3.9002386075e-05 
2.8482494145e-05 2.1445539005e-05 1.7088347704e-05 1.4837766912e-05 1.4260267562e-05 1.4954415747e-05 1.5917009705e-05 2.9670503864e-05 2.4471820325e-05 
3.5381727685e-05 4.328259547e-05 5.5056510973e-05 6.8707479841e-05 8.1268499343e-05 8.885252646e-05 9.0817326054e-05 9.3741155069e-05 9.8504118796e-05 
9.8300151876e-05 9.0407354946e-05 6.2697510657e-05 5.6439961554e-05 1.945628992e-05 1.5535941657e-05 7.5742191257e-05 8.5168630903e-05 6.3256476096e-05 
5.0403159548e-05 4.0569926568e-05 3.5441662476e-05 3.3640451875e-05 3.238802492e-05 2.9416946745e-05 2.3198711006e-05 1.5834208853e-05 1.0923726904e-05 
9.1878648618e-06 1.0962216493e-05 1.7419851474e-05 2.6118080768e-05 3.6123696191e-05 4.8228423111e-05 5.9093679738e-05 6.8293429649e-05 7.4668656453e-05 
7.6597503721e-05 7.8279712397e-05 8.7775448264e-05 0.00010282853873 0.00011314331277 0.00011245284441 0.00010364659647 9.3647657195e-05 8.6097961685e-05 
8.0297186287e-05 7.1613909313e-05 5.9064416746e-05 4.7889568123e-05 4.083987551e-05 3.7427760617e-05 3.5156671402e-05 2.9791920042e-05 2.1612475393e-05 
1.6208956595e-05 1.6376189933e-05 2.1111790375e-05 2.6953537144e-05 3.0574027733e-05 3.4029785638e-05 3.7800360587e-05 4.053862267e-05 4.4528114813e-05 
5.141650945e-05 6.0331367422e-05 7.0292867349e-05 8.0855037595e-05 9.4957042165e-05 0.00010813759218 0.00010906794705 0.00010208836466 9.653959205e-05 
9.1737607363e-05 1.6799708419e-05 1.4367054973e-05 2.0757860966e-05 2.7972442695e-05 3.7873815018e-05 4.895075017e-05 6.1655346144e-05 7.5167876275e-05 
8.6995676611e-05 9.6050540378e-05 0.0001029848263 0.00010872149869 0.00010969294235 0.00010228198335 9.4156892374e-05 8.5376717834e-05 8.0211219029e-05 
7.8469643995e-05 7.5790416304e-05 7.0381793194e-05 6.3372841396e-05 5.451503057e-05 4.2838109948e-05 3.0518813219e-05 2.0493776674e-05 1.3740504755e-05 
1.0675948943e-05 1.1951239912e-05 1.4841763459e-05 1.6796627051e-05 2.0051986667e-05 2.5648475912e-05 3.2583021948e-05 3.9482679313e-05 4.5358985517e-05 
5.0627143537e-05 5.4883144912e-05 6.0733987993e-05 5.8842214457e-05 6.5576708948e-05 7.3926499681e-05 8.3964696387e-05 9.3604150607e-05 0.0001008735162 
0.00010418900274 0.00010536076115 0.00010809904597 0.00011325134619 0.00011718779206 0.00011578653721 0.00010791959721 9.5961084298e-05 8.2435784861e-05 
6.806874535e-05 5.3091901464e-05 3.8934862914e-05 2.8214340091e-05 2.2036196242e-05 1.8940495011e-05 1.6758058564e-05 1.517366627e-05 1.4497573829e-05 
1.3493675624e-05 1.2860984043e-05 1.5265886304e-05 1.5146964415e-05 1.5913667388e-05 7.2845416071e-05 8.3968350737e-05 6.0944833422e-05 5.0485490647e-05 
4.3283357627e-05 3.8268537537e-05 3.3813983464e-05 3.015547918e-05 2.4512808977e-05 1.623751632e-05 1.0357672863e-05 9.0878872925e-06 1.0796942661e-05 
1.5985876416e-05 2.1917787763e-05 2.7511752705e-05 6.3984786721e-05 5.2887578931e-05 7.4414256233e-05 8.207805331e-05 8.591369442e-05 9.086945829e-05 
0.00010341774032 0.00011982403339 0.0001301614484 0.00012860580318 0.00011872831055 0.0001069200971 9.6874609881e-05 8.7952888862e-05 7.6099238868e-05 
6.1788530729e-05 5.0105112678e-05 4.290285051e-05 3.8032026168e-05 3.2715162433e-05 2.5101207939e-05 1.7945423451e-05 1.4559174588e-05 1.5309314222e-05 
2.0008401407e-05 2.5525472211e-05 3.003556958e-05 3.6307547816e-05 4.2719301746e-05 4.7159188398e-05 5.2690280427e-05 6.2175675339e-05 7.4621961176e-05 
8.6942385678e-05 9.6829791801e-05 0.00010470314373 0.00010873458086 0.00010877726709 0.00010809954438 0.00010568259313 0.0001004223941 9.3100716185e-05 
4.2552991545e-05 3.4133913687e-05 2.0127049538e-05 3.0247360428e-05 4.2928207222e-05 5.4587505474e-05 6.616113842e-05 7.8228516941e-05 8.9786306489e-05 
0.00010030062549 0.00011032857219 0.00011941991943 0.00012282242278 9.3078035206e-05 0.00010150445087 8.4925281044e-05 8.1127131125e-05 8.1134692664e-05 
8.0329726188e-05 7.6256572356e-05 6.8825162089e-05 5.855656309e-05 4.4983053522e-05 3.1842234421e-05 2.2491326035e-05 1.5901221786e-05 1.2387856486e-05 
1.1577281839e-05 1.2603857385e-05 1.4417672674e-05 1.920235627e-05 2.799735048e-05 3.5666314488e-05 4.1593044443e-05 4.5235171759e-05 4.8976245125e-05 
5.3879188272e-05 5.8113259001e-05 6.3760560806e-05 6.291441332e-05 6.5004200223e-05 6.8404313424e-05 7.202271081e-05 7.805469977e-05 8.6858257418e-05 
9.5488474471e-05 0.00010201215628 0.00010586460667 0.00010992568059 0.00011637460193 0.00012299964328 0.00012514454647 0.00011935768453 0.00010637605192 
8.9986935564e-05 7.5280102465e-05 6.2406502366e-05 4.8774450988e-05 3.6277415347e-05 2.7130311082e-05 2.1700971956e-05 1.8327516045e-05 1.5941953582e-05 
1.4864866444e-05 1.3451387076e-05 1.2580348766e-05 1.4274436353e-05 2.1269744138e-05 1.8535396975e-05 2.1430345896e-05 0.00010927437688 0.00012188178334 
4.6409179049e-05 4.0077811718e-05 5.6527350353e-05 6.7843563556e-05 7.9361207099e-05 8.8818032964e-05 9.4528551926e-05 0.00010106543778 0.00011474545863 
0.00013147196842 0.00014134894445 0.00013920352649 0.00012901380614 0.0001167102364 0.00010326405172 8.9449726147e-05 7.6325666669e-05 6.2414529566e-05 
5.1122640798e-05 4.3520803047e-05 3.7827998312e-05 3.0235520171e-05 2.1556253614e-05 1.6080010482e-05 1.4027294128e-05 1.4833769001e-05 1.9057838017e-05 
2.4378950457e-05 3.0462366794e-05 3.9412689148e-05 4.8631980462e-05 5.5969657296e-05 6.3150159804e-05 7.3621966294e-05 8.7384667495e-05 0.00010092896628 
0.00010954259778 0.0001110734247 0.00010681454114 0.00010391374417 0.00010744765495 0.00010938996456 0.00010390622992 9.4844019259e-05 8.5416348156e-05 
7.5708625445e-05 6.6264970883e-05 5.7757589275e-05 5.0706628826e-05 4.3994436055e-05 3.6613852899e-05 2.9706969599e-05 2.3271343707e-05 1.6086020196e-05 
1.0750682577e-05 9.3807063877e-06 1.0873714018e-05 1.4511097106e-05 1.8601217107e-05 2.3836587388e-05 3.0117990264e-05 3.6949807509e-05 4.6726629989e-05 
4.388479465e-05 4.8720664684e-05 3.259147843e-05 4.5740846872e-05 5.7163350903e-05 6.7012833824e-05 7.8573599239e-05 9.1501389761e-05 0.0001033593926 
0.00011419296789 0.00012458677156 0.00013287334878 0.00013609613598 0.00012586659432 0.00013868297538 0.00011189580255 0.00010116624799 9.1887586677e-05 
8.5010977273e-05 8.2520207798e-05 8.2286976976e-05 8.1844091255e-05 7.9126981291e-05 7.286734035e-05 6.3208477513e-05 5.2893036809e-05 2.2093993266e-05 
2.9523782359e-05 1.6222125623e-05 1.34435993e-05 1.2128644509e-05 1.1943245227e-05 1.3375031131e-05 1.8521614948e-05 2.4836134799e-05 4.6136821766e-05 
4.1953494474e-05 3.7764863919e-05 4.4599165449e-05 3.7062318825e-05 3.1810457585e-05 5.6737714658e-05 5.2201186918e-05 6.0651589592e-05 6.9947320299e-05 
6.6832804805e-05 7.0590027462e-05 7.0378329838e-05 7.330252447e-05 8.0460731624e-05 8.6808265769e-05 9.5255390988e-05 0.0001008659201 0.00010713734446 
0.00011472409824 0.00012290904306 0.0001276813382 0.00012318916924 0.00010832041335 8.9228089564e-05 7.448114593e-05 6.4209337324e-05 5.3205210861e-05 
4.1668578888e-05 3.1485041291e-05 2.289574004e-05 1.742338668e-05 1.5333656393e-05 1.3614840555e-05 1.3740579789e-05 1.6075805434e-05 2.6617948606e-05 
2.2142739908e-05 3.112715558e-05 5.7176142946e-05 6.898218453e-05 8.2147107605e-05 9.4073071523e-05 0.00010153036601 0.00010918403495 0.00012342798254 
0.00013910060079 0.0001475129684 0.00014582483709 0.00013656990632 0.00012487451932 0.00011495092804 7.3741142842e-05 8.6361789727e-05 6.1878576162e-05 
5.1986703511e-05 4.4087687456e-05 3.6618564081e-05 2.7892320304e-05 1.9924664684e-05 1.5550765283e-05 1.375660122e-05 1.4290859554e-05 1.8838464166e-05 
2.5355501748e-05 3.3200115922e-05 4.4037270527e-05 5.4595943766e-05 6.3311518716e-05 7.1662885603e-05 8.2325108451e-05 9.7690234543e-05 0.00010967087837 
0.0001155585087 0.00011201661073 0.00010344644761 9.8650041764e-05 0.00010182906408 0.00010454623771 9.8523580164e-05 8.8899283583e-05 8.0894162238e-05 
7.35211961e-05 6.6219461587e-05 5.9809151935e-05 5.4277525123e-05 4.7890704082e-05 3.9250687223e-05 3.0144923585e-05 2.2359269224e-05 1.5710502339e-05 
1.1561697193e-05 1.0848206784e-05 1.2731997685e-05 1.5942920072e-05 1.9002819954e-05 2.3877447802e-05 2.9568930586e-05 3.4091179259e-05 3.9224089051e-05 
5.0909479796e-05 4.5727182624e-05 5.5293235164e-05 9.7728290712e-05 0.00010769406799 7.6283356975e-05 8.1541769759e-05 9.6625208243e-05 9.1071737188e-05 
0.00010346491763 0.00011124728917 0.00011955235277 0.00012515796334 0.00012101218636 0.00010439762264 8.5590781964e-05 7.1463431595e-05 6.1685079345e-05 
5.2939980378e-05 4.3695728891e-05 3.4464807868e-05 2.7034586765e-05 1.8634809066e-05 2.240017966e-05 4.3845606342e-05 5.5194313973e-05 6.530837527e-05 
7.7982502262e-05 9.2073185442e-05 0.00010636232328 0.00011701444055 0.00012622877875 0.00013527477859 0.00014153234224 0.00014457525322 0.00014490592366 
0.00014832089073 0.00013289547132 0.00011587759218 0.00010155485325 9.2523141575e-05 8.6886975623e-05 8.351309225e-05 8.1743040937e-05 7.6153230111e-05 
6.6852624514e-05 5.6946651057e-05 4.8884025091e-05 3.8339047023e-05 4.1571925976e-05 3.2750872379e-05 2.6147912195e-05 2.0692823909e-05 1.5421941725e-05 
1.282239873e-05 5.5715911913e-05 4.9714147463e-05 6.0170041252e-05 8.0949254334e-05 7.411462866e-05 7.8572544226e-05 6.6905641688e-05 8.1758744273e-05 
9.6378713351e-05 0.00010664109868 0.00011575708595 0.00013076870891 0.0001451306598 0.00014564152661 0.00013934004528 0.00013094441601 0.00012320082169 
7.1686446972e-05 8.2998343714e-05 6.1098299739e-05 5.2289766245e-05 4.4213806177e-05 3.557607215e-05 2.7056779345e-05 1.9842981146e-05 1.5779721707e-05 
1.4231082105e-05 1.4075006826e-05 1.610784625e-05 3.7514533687e-05 2.9227123377e-05 4.796097528e-05 5.7958820435e-05 6.6972481363e-05 7.5887273852e-05 
8.5681838755e-05 9.5385561508e-05 0.00011645943778 0.00011511125376 0.00010994262811 0.00010107539856 9.747328113e-05 9.8161697679e-05 9.7884378192e-05 
9.2489897725e-05 2.3257246539e-05 1.9225957658e-05 8.6738036771e-05 8.7094880655e-05 0.00011002172869 0.00010461135207 6.8975601607e-05 6.306355408e-05 
5.7573652157e-05 5.2809812587e-05 4.6944878704e-05 3.8883587877e-05 2.9914275729e-05 2.1775304504e-05 1.5448428485e-05 1.241813402e-05 1.2738192936e-05 
1.5376393321e-05 1.9310237803e-05 2.1966198346e-05 2.424740948e-05 2.7463891001e-05 3.0952358429e-05 3.5377925997e-05 5.3273542107e-05 1.4528071461e-05 
1.2409125475e-05 1.7765945813e-05 2.0914511879e-05 2.5498544346e-05 3.7246707507e-05 2.913298249e-05 4.3726054173e-05 5.2181302635e-05 6.0144201598e-05 
4.4188687752e-05 3.5225043121e-05 2.7007890367e-05 2.0132496502e-05 1.5585590063e-05 1.4816089606e-05 1.6234907434e-05 2.121790294e-05 1.526014762e-05 
1.2920285599e-05 1.3772389366e-05 1.6712270508e-05 2.0941444745e-05 2.4312289497e-05 2.6171530044e-05 3.1778220546e-05 2.7879502795e-05 2.4457079235e-05 
1.9830529709e-05 1.4762099227e-05 1.2312865692e-05 6.2190769677e-05 7.9211360571e-05 9.562347077e-05 0.00010869377547 0.00011997878755 0.00013494291852 
0.00014607264529 8.6938571258e-05 8.1160840637e-05 7.1127798947e-05 6.1385128902e-05 0.00013489341291 0.00011736120541 0.00010327886775 9.3898423074e-05 
2.4636456753e-05 2.285529763e-05 1.8441003476e-05 1.4114667465e-05 1.2628641571e-05 1.3550865106e-05 1.6575153722e-05 1.9205599074e-05 0.00014418864642 
0.00014026933059 0.000134002712 0.00012682385204 9.315427269e-05 0.0001008514464 3.8616793245e-05 5.2266948842e-05 6.4056702104e-05 7.8028995631e-05 
9.0921734227e-05 6.9503226769e-05 0.00011990128648 2.6853673262e-05 3.3225543575e-05 4.1250163122e-05 5.0191706578e-05 5.9410567701e-05 6.814236076e-05 
7.6597532825e-05 8.4932993559e-05 9.2836218755e-05 0.00010056563951 0.00011364030252 0.00010963791647 0.00011666071987 0.00011726707817 0.00011462976545 
0.00010729166206 9.8068876832e-05 9.4647806691e-05 9.3176215159e-05 9.2166877948e-05 8.7022050138e-05 8.9672236451e-05 9.0327315775e-05 9.2344947916e-05 
9.6131878308e-05 0.0001021389744 0.0001093384908 0.00011643240759 0.00012100212007 8.4381366833e-05 9.5441468147e-05 7.1546804975e-05 6.129016765e-05 
5.2779223915e-05 4.3461009227e-05 3.5282948375e-05 2.9505160758e-05 2.9228165204e-05 5.9233119828e-05 6.5300139795e-05 7.4279918408e-05 8.4014667664e-05 
9.134565092e-05 0.00011106281636 0.00011618487224 0.0001039565559 9.8102029976e-05 0.00013233612602 0.00011969960724 7.5577749158e-05 9.1327814152e-05 
6.5643455552e-05 1.459723785e-05 1.2767726048e-05 1.3943050362e-05 1.7210396436e-05 2.1515621938e-05 0.00011851157069 0.00011884750469 0.00011908417582 
8.8931151064e-05 8.0306250311e-05 5.851235619e-05 5.1794883802e-05 4.2235861656e-05 3.4685286058e-05 0.00010660455519 6.4732829439e-05 0.00011563529733 

Stress_XY_Pt 1 1116 double
3.9332551751e-05 3.2079371522e-05 2.0194064746e-05 2.4280954449e-05 2.0733244128e-05 1.3078200766e-05 1.4022012692e-05 8.185715302e-06 1.0342731912e-05 
5.6201950542e-06 8.3015847849e-06 4.2808537124e-06 5.7561495623e-06 2.2404170998e-06 2.2692829873e-06 -6.3495662062e-09 4.46571417e-06 1.5198606462e-06 
1.0029309124e-05 3.5308866586e-06 1.1492961676e-05 1.5983470121e-06 8.4967052771e-06 -2.7287525199e-06 4.95064387e-06 -6.4114940415e-06 4.2201370434e-06 
-7.6958586988e-06 2.7381736345e-06 -9.4795683481e-06 -1.1259299981e-06 -1.2996951284e-05 -4.4720151209e-06 -1.5929569884e-05 -7.7584429619e-06 -1.8403316176e-05 
-1.186587042e-05 -2.0064028604e-05 -1.3595614746e-05 -1.8579486778e-05 -1.1851137515e-05 -1.3914452211e-05 -8.1956002305e-06 -7.2225470973e-06 -4.0709503537e-06 
-1.0579327778e-06 5.2611665069e-07 3.9091856365e-06 5.5210188066e-06 8.2380285562e-06 8.0390964285e-06 1.032865157e-05 6.8895187724e-06 9.6610663149e-06 
1.4519690694e-06 5.1610994092e-06 -6.676795806e-06 -2.2526787689e-06 -1.2829495063e-05 -8.5876948219e-06 -1.5156290374e-05 -1.1948335896e-05 -1.5106322735e-05 
-1.3296519683e-05 -1.6326563582e-05 -1.4923370372e-05 -1.7640792066e-05 -1.6466877241e-05 -1.5487655219e-05 -1.6195888293e-05 -1.371301596e-05 -1.6545729295e-05 
-1.5740500658e-05 -1.9851763909e-05 -2.0125544324e-05 -2.5249454211e-05 -2.6039974728e-05 -3.2004107652e-05 -3.3098965105e-05 -4.0057069327e-05 -4.2598978325e-05 
-4.9436633162e-05 -5.2448031056e-05 -5.7036025282e-05 -5.5163336583e-05 -5.7857694628e-05 -5.1586015616e-05 -5.2863782003e-05 -4.7144883865e-05 -4.5243379645e-05 
-3.8690690417e-05 -3.3249732951e-05 -2.4392144951e-05 -1.7098480171e-05 -9.3159545713e-06 -1.896871666e-06 4.0041614966e-06 9.4203733738e-06 1.479044704e-05 
1.7067071667e-05 2.1327475224e-05 2.1302360437e-05 2.3344930923e-05 2.1774279048e-05 2.1970470698e-05 1.8545451667e-05 2.1613118406e-05 1.5540828713e-05 
2.6090057872e-05 1.7000324874e-05 3.4674108974e-05 2.1746584025e-05 -2.8305387332e-06 -2.9566340345e-06 -5.8594062011e-06 -2.2069412466e-06 -1.7255263884e-06 
-7.6298623881e-06 3.415809644e-06 -5.5053720089e-06 7.6009334862e-06 -2.8347227499e-06 9.2484797278e-06 -1.208598178e-06 9.3067446869e-06 -7.6183710007e-07 
7.5829245816e-06 -1.7293915562e-06 4.7764962119e-06 -3.3555915593e-06 4.5877337698e-06 -2.3443820396e-06 8.5715921614e-06 3.001031331e-06 1.4965543414e-05 
1.0182344198e-05 1.8167223971e-05 1.3594165466e-05 1.4421693322e-05 1.1066146158e-05 7.012046126e-06 5.3559659534e-06 -1.906669695e-06 -1.7076196457e-06 
-8.1670275449e-06 -7.846270023e-06 -1.1666624687e-05 -1.3577010122e-05 -1.2652071746e-05 -1.7742241198e-05 -1.0368276889e-05 -1.7263192603e-05 -8.3322838691e-06 
-1.4000324427e-05 -7.4461088388e-06 -1.1199333926e-05 -9.9095761925e-06 -1.131133115e-05 -1.5133451598e-05 -1.4066150015e-05 -1.751866148e-05 -1.5627865196e-05 
-1.5332780094e-05 -1.2939942962e-05 -1.0808512798e-05 -7.4576529272e-06 -7.9364917838e-06 -3.997129042e-06 -9.6047706393e-06 -5.6431046005e-06 -1.4542987174e-05 
-1.1342482708e-05 -1.9668971618e-05 -1.7340144723e-05 -1.8307068331e-05 -1.8773525653e-05 -1.5432355667e-05 -1.7426144723e-05 -1.4136859136e-05 -1.5315906012e-05 
-8.2062827005e-06 -1.0932195096e-05 -4.7292303407e-07 -5.5187596786e-06 4.1896129233e-06 -1.6140568846e-06 3.588498771e-06 -1.1016144867e-06 -8.0132633684e-07 
-3.5214703189e-06 -7.4046888585e-06 -7.5157673791e-06 -9.6133812804e-06 -8.8915203378e-06 -4.8901823675e-06 -5.6072405528e-06 -1.5358136807e-07 -1.6319437179e-06 
1.1978366388e-06 -2.0631640041e-07 8.4116379639e-08 -1.4387428564e-06 -2.124849857e-06 -4.0699233637e-06 -1.0805176771e-06 -4.4855144097e-06 4.411513487e-06 
-2.319314774e-06 9.2876580311e-06 -1.0453695722e-06 1.0748881778e-05 -1.2614018488e-06 9.6173575912e-06 -2.6337888812e-06 6.6780460202e-06 -5.4444388979e-06 
1.6673432128e-06 -8.9246303787e-06 -2.6136508495e-06 -9.8519985841e-06 -2.0547524358e-06 -3.2866369999e-06 -3.2505317407e-06 3.1674678915e-06 -7.6824746884e-06 
1.3702040178e-06 -6.317670568e-06 -9.5827630275e-07 3.7083893574e-06 6.5304499799e-06 1.0553951029e-06 -7.974213645e-08 -4.9504413724e-07 -1.693633326e-06 
-2.552311571e-06 -2.8955658991e-06 -6.6490767381e-06 -1.3571099657e-05 -1.9750558977e-05 -2.4007001684e-05 -2.648217469e-05 -2.8358303553e-05 -3.0157400488e-05 
-3.1540881537e-05 -3.2329392525e-05 -3.0322571547e-05 -2.4312379082e-05 -1.5515123323e-05 -5.6026138751e-06 3.0588820835e-06 7.5147535199e-06 9.1625134928e-06 
9.9134504126e-06 1.0772547171e-05 9.6280022035e-06 4.7701824428e-06 -1.0695031492e-06 -5.2936476536e-06 -7.9902621906e-06 -1.0457214671e-05 -1.3254151099e-05 
-1.625558798e-05 -2.0200551717e-05 -2.6012456601e-05 -3.3457713926e-05 -4.1657989641e-05 -4.9976512855e-05 -5.7520434893e-05 -6.1721489146e-05 -6.0233576733e-05 
-5.3855927035e-05 -4.233104919e-05 -2.797778734e-05 -1.1068149448e-05 5.2154975805e-06 1.6423229454e-05 2.1929063223e-05 2.3638735456e-05 2.192618922e-05 
1.6404645066e-05 1.0119994272e-05 7.2275523735e-06 7.2215525506e-06 7.6067734653e-06 -1.3033142295e-05 -8.3731628138e-06 -1.4955504184e-05 -1.5085665837e-05 
-1.4171958583e-05 -1.3126761132e-05 -1.2322590464e-05 -1.1304099871e-05 -8.4066821273e-06 -1.8407216942e-06 5.3006343421e-06 7.9454482602e-06 6.3590849209e-06 
2.6319644562e-06 -2.6421344401e-06 -9.3725625447e-06 -1.7161260757e-05 -2.3103015792e-05 -2.3578230866e-05 -1.9255387542e-05 -1.4450829667e-05 -1.1385752487e-05 
-1.0358153986e-05 -1.026836776e-05 -7.3766376545e-06 -1.7214600092e-06 1.8568322986e-06 4.1531312434e-07 -5.1190935579e-06 -1.1241673178e-05 -1.5480388811e-05 
-1.7201513401e-05 -1.6985101638e-05 -1.5694993181e-05 -1.3015993318e-05 -9.7512009916e-06 -7.5871523677e-06 -7.2108068707e-06 -7.5293114605e-06 -7.4018055329e-06 
-6.2980959683e-06 -4.4785677744e-06 -3.4140627463e-06 -4.140797131e-06 -6.540485856e-06 -8.9901026286e-06 -1.118545174e-05 -1.3800451143e-05 -1.5761841269e-05 
-1.7240068019e-05 -1.917638383e-05 -1.9959898509e-05 -1.636577349e-05 -5.5530576901e-06 5.2640287436e-06 6.8319126854e-06 2.8052655381e-06 -2.333201266e-06 
-5.9667032335e-07 1.5832029967e-06 -1.5210202093e-06 -1.6929379001e-06 -2.4231076168e-06 -3.5062545294e-06 -5.7551927739e-06 -1.1634403222e-05 -1.972009386e-05 
-2.6632374556e-05 -3.1951054552e-05 -3.6004762478e-05 -3.8470687286e-05 -3.8968973968e-05 -3.8666623368e-05 -3.7515552322e-05 -3.3266420814e-05 -2.5249524697e-05 
-1.5011454252e-05 -5.6203062044e-06 1.7223626259e-07 5.6620021383e-06 6.7929655643e-06 4.7436193995e-06 6.6811174975e-06 9.1292083653e-06 7.8257993437e-06 
3.5489178245e-06 -5.0312160482e-07 -3.466878951e-06 -6.8904793125e-06 -1.1715788787e-05 -1.740563539e-05 -2.3510744541e-05 -3.0261421216e-05 -3.8056637095e-05 
-4.62529988e-05 -5.3259861488e-05 -5.8224940403e-05 -6.0205714362e-05 -5.7649821429e-05 -5.0891638239e-05 -4.2282805225e-05 -1.0003258296e-05 -2.4884427603e-05 
6.5450817033e-06 1.9306375862e-05 2.5676617042e-05 2.6759617413e-05 2.4071387543e-05 1.8274253989e-05 1.138581797e-05 6.6900079219e-06 4.9608025279e-06 
4.808303629e-06 3.90783282e-06 5.6360540839e-06 2.3887274523e-06 -3.312948138e-05 -3.3108283787e-05 -1.5447894384e-05 -1.1996139619e-05 -1.753195329e-05 
-1.806884984e-05 -1.7093420183e-05 -1.4515922203e-05 -1.0615938095e-05 -5.6881957562e-06 2.8278134323e-07 4.9618651019e-06 5.7523305941e-06 3.675065301e-06 
6.6938149246e-08 -5.3617146776e-06 -1.1790298004e-05 -1.7698379452e-05 -2.1039496278e-05 -2.104558871e-05 -1.7344175376e-05 -1.2589238167e-05 -8.4605325128e-06 
-5.8459797287e-06 -4.7683197977e-06 -2.4194592072e-06 1.7170218882e-06 4.1753053779e-06 3.1730238987e-06 -6.9852815443e-07 -5.5999807955e-06 -9.8674395304e-06 
-1.4001170939e-05 -1.7612205284e-05 -1.8482229279e-05 -1.6180733155e-05 -1.2534382222e-05 -9.8550674466e-06 -8.7100661403e-06 -7.7314557529e-06 -6.6600371156e-06 
-6.2503695517e-06 -6.0240548692e-06 -5.6747617236e-06 -5.7684094372e-06 -7.1379082556e-06 -9.8875761978e-06 -1.3268014754e-05 -1.6633444602e-05 -1.9251496724e-05 
-2.0914263132e-05 -2.1547634788e-05 -1.9996244646e-05 -1.4527940266e-05 -6.1794953581e-06 4.4534925792e-07 2.8713886877e-06 1.4138028064e-06 -2.4375430598e-06 
-7.276486258e-06 -2.4857091375e-05 -2.4479961667e-05 -1.8731916953e-05 -6.1867471857e-06 8.0276036272e-06 1.9407698801e-05 2.5434666895e-05 2.6391999199e-05 
2.3829232759e-05 1.8875526166e-05 1.27827509e-05 7.705518442e-06 4.8087274536e-06 3.7875885255e-06 3.3087341649e-06 1.5356667356e-06 -7.1717074011e-07 
-1.9734570742e-06 -2.3452589062e-06 -3.0827511637e-06 -4.58815299e-06 -7.3473769362e-06 -1.2626650687e-05 -2.0023474917e-05 -2.7524855795e-05 -3.3975792576e-05 
-3.9382251998e-05 -4.3014911171e-05 -4.3819593884e-05 -4.2742301957e-05 -3.9629806452e-05 -3.3062851344e-05 -2.3814627184e-05 -1.4438790231e-05 -7.3160321676e-06 
-3.0758796612e-06 -1.12651135e-06 2.1161215358e-06 -7.8058452857e-07 4.0844674345e-06 4.4052823682e-06 2.5584076297e-06 8.408838994e-07 2.6005781137e-06 
6.5086723566e-06 7.5825803378e-06 4.7378146633e-06 9.6795037052e-07 -2.5045778784e-06 -6.9253671882e-06 -1.3324995052e-05 -2.1020818167e-05 -2.8226433187e-05 
-3.4060934468e-05 -3.9633775486e-05 -4.5663785386e-05 -5.1123600315e-05 -5.4725845075e-05 -5.5266165873e-05 -5.198146664e-05 -4.535928656e-05 -3.7326381062e-05 
-2.9336182251e-05 -2.216106077e-05 -1.7850890799e-05 -1.6928456262e-05 -1.9164453988e-05 -1.7977546122e-05 -1.5129975282e-05 -1.9572466499e-05 -1.8941505914e-05 
-1.5507201624e-05 -1.0180942695e-05 -3.9096604638e-06 1.2910036702e-06 3.1261876643e-06 1.9786003236e-06 -6.2009539192e-07 -4.1859448459e-06 -8.8159158622e-06 
-1.3034272797e-05 -1.6473557253e-05 -1.8421536424e-05 -1.4127331269e-05 -1.762509055e-05 -9.5225829e-06 -5.1792572151e-06 -2.4682542232e-06 -1.4769684622e-06 
3.1126458744e-07 3.3316991619e-06 5.0113080761e-06 4.3906840688e-06 1.7653064788e-06 -2.0984831508e-06 -6.5594826424e-06 -1.1985302763e-05 -1.7026418845e-05 
-1.8664267373e-05 -1.6276841961e-05 -1.2531279708e-05 -1.0589674048e-05 -9.9528911051e-06 -8.5438226733e-06 -7.1056924753e-06 -6.7382486577e-06 -6.6202829885e-06 
-6.1210997728e-06 -6.0327774918e-06 -7.1000698654e-06 -9.5173497812e-06 -1.2932733853e-05 -1.654716084e-05 -1.9674739633e-05 -2.2140830879e-05 -2.2296893803e-05 
-1.8642563646e-05 -1.1917678194e-05 -4.5578683441e-06 2.2673732047e-07 1.7354728925e-06 8.1882586755e-07 -1.9569046117e-06 -6.4433596663e-06 -1.1307196019e-05 
-1.8815944259e-05 -1.8328980786e-05 -1.4562205024e-05 -6.0957127346e-06 4.1928418284e-06 1.3302590673e-05 1.9293896457e-05 2.1607060717e-05 2.0792023406e-05 
1.7911108444e-05 1.3761933587e-05 9.3323459396e-06 6.5482889795e-06 3.6081981989e-06 3.8373185589e-06 1.783764958e-06 -4.6867896231e-07 -1.7688881258e-06 
-2.3275178194e-06 -3.2038203699e-06 -4.7339800631e-06 -7.1406911957e-06 -1.2269699437e-05 -1.9917867576e-05 -2.7573815714e-05 -3.4819044231e-05 -4.0526462726e-05 
-4.3853311581e-05 -4.4652412726e-05 -4.3257806283e-05 -3.8882926674e-05 -2.8948042745e-05 -1.9414961116e-05 -1.244174473e-05 -8.5244159891e-06 -6.1650600287e-06 
-4.3124167064e-06 -4.0051213546e-06 -1.804156156e-06 -4.7033000783e-06 1.9058377632e-07 1.4129773973e-06 2.2078815505e-06 5.9111117423e-07 -7.7835255752e-07 
3.753708171e-07 3.9608489573e-06 5.5869456901e-06 3.6103821515e-06 4.1855631139e-07 -3.2002973285e-06 -8.3071337258e-06 -1.5760276028e-05 -2.3959359169e-05 
-3.0766567761e-05 -3.500476214e-05 -3.7939992581e-05 -4.131793321e-05 -4.4637154133e-05 -4.6664118599e-05 -4.6152988034e-05 -4.3510971409e-05 -4.090047878e-05 
-3.4415520986e-05 -2.6809987503e-05 -2.0227940695e-05 -1.5842074163e-05 -1.3691946151e-05 -1.2665998611e-05 -1.3653279439e-05 3.8564247689e-06 5.0458577334e-06 
-1.6604652046e-05 -1.7717564788e-05 -1.4937837932e-05 -1.1256684957e-05 -6.6630626634e-06 -2.2766673453e-06 1.8870687768e-07 6.7504874046e-07 1.7963527643e-06 
4.256302816e-06 5.883509516e-06 5.5536612535e-06 3.8621828367e-06 1.205456357e-06 -2.6717701019e-06 -9.675267961e-06 -1.4593836795e-05 -1.606447313e-05 
-1.460233625e-05 -1.2588363916e-05 -1.1806249177e-05 -1.1202126188e-05 -9.4215174613e-06 -7.7982568882e-06 -7.2220658467e-06 -6.7427374688e-06 -5.4777299283e-06 
-5.1866281865e-06 -6.8938541062e-06 -9.5628106465e-06 -1.2787761762e-05 -1.5821852912e-05 -1.8564563106e-05 -2.1511817977e-05 -2.1534207463e-05 -1.7068822217e-05 
-1.0239390917e-05 -3.1332772608e-06 7.109727278e-07 5.9933233842e-07 -8.4237488807e-07 -2.7831041933e-06 -6.6769378009e-06 -1.1228745279e-05 -1.4597558675e-05 
-1.7203877633e-05 -1.8845492377e-05 -1.8420809283e-05 -1.563554315e-05 -1.1459776488e-05 -6.5510466953e-06 -2.8424817202e-06 -2.2812445764e-06 -4.1152438257e-06 
-6.8523222012e-06 -9.9066321582e-06 -1.2955650845e-05 -1.5254383925e-05 -1.7429456193e-05 -1.8735742287e-05 -1.971489246e-05 -2.0598547508e-05 -1.6401828816e-05 
-1.9016040824e-05 -1.5128185017e-05 -8.9029285846e-06 -2.2704528533e-06 4.3778708232e-06 1.0296785092e-05 1.431686178e-05 1.5795996887e-05 1.5463686168e-05 
1.3609218286e-05 1.0590410284e-05 8.1589946603e-06 6.5405532723e-06 3.8191283807e-06 5.1479306649e-06 3.4517673271e-06 4.0957636429e-06 3.4402266351e-06 
1.2570840013e-06 -6.4508574127e-07 -1.4723283357e-06 -1.8639881887e-06 -2.66915049e-06 -3.9517530581e-06 -5.8981052007e-06 -8.9126642706e-06 -2.9296599678e-05 
-2.2796861231e-05 -3.5684546674e-05 -4.0885598537e-05 -4.3363915514e-05 -4.2503095028e-05 -4.103734409e-05 -3.6947228182e-05 -3.0691021038e-05 -9.6765827493e-06 
-1.4354602854e-05 -1.751578111e-05 -1.4225378663e-05 -1.9845167117e-05 -2.4006209969e-05 -6.9610667879e-06 -7.6103013953e-06 -7.4942776109e-06 -5.7878978623e-06 
-8.6337123548e-06 -3.0523444536e-06 -1.4865966875e-06 -6.1955530839e-07 -1.2937957479e-06 -8.6909240906e-07 1.7813930704e-06 3.0228196408e-06 1.7274939381e-06 
-1.1842652583e-06 -4.7179449609e-06 -9.7066871376e-06 -1.7257892296e-05 -2.461872009e-05 -2.9824743706e-05 -3.2699188523e-05 -3.3900210838e-05 -3.5460134313e-05 
-3.7151064134e-05 -3.7426393646e-05 -3.3870901825e-05 -3.4047262943e-05 -2.5525764158e-05 -1.8404748289e-05 -1.3476027789e-05 -1.0563534943e-05 -1.0511327901e-05 
-9.9914241218e-06 -1.0435335184e-05 -1.3134244227e-05 -9.1872212806e-06 -4.2767195012e-06 1.650423016e-07 2.3299658096e-06 2.1774199013e-06 2.6483776878e-06 
4.7709615387e-06 6.2044686047e-06 6.5180188358e-06 6.0504942212e-06 4.6426629581e-06 3.4866489571e-06 -1.0612144251e-05 -6.5764845658e-06 -1.2215974493e-05 
-1.2617718767e-05 -1.3313668205e-05 -1.3349753317e-05 -1.1919479448e-05 -9.7961080883e-06 -7.9239332536e-06 -6.8830637474e-06 -6.4213464839e-06 -6.3036359279e-06 
-5.9063918343e-06 -8.1185901308e-06 -1.0906691159e-05 -1.3467607459e-05 -1.5719530438e-05 -1.7682518319e-05 -1.9240127131e-05 -1.9555066683e-05 -1.6099440018e-05 
-9.9712588053e-06 -3.1434699466e-06 4.3282323503e-07 -3.2140485473e-07 -2.3829412044e-06 -4.0892555262e-06 -6.6755026182e-06 -1.0138459629e-05 -1.3256466218e-05 
-1.5540857021e-05 -1.663604462e-05 -1.6362548649e-05 -1.4986947917e-05 -1.3129598301e-05 -1.1007929857e-05 -9.4483120847e-06 -9.4875101695e-06 -1.1199243204e-05 
-1.3883904558e-05 -1.6678342263e-05 -1.873084716e-05 -1.9885547772e-05 -2.1149799522e-05 -2.2086703211e-05 -2.3405446882e-05 -2.4334271075e-05 -2.1847731659e-05 
-1.4508042568e-05 -1.6238930584e-05 -1.3137431779e-05 -1.1844407695e-06 4.3795510933e-06 -1.8665321875e-06 -2.2025941746e-06 1.3964830288e-06 8.0237607492e-07 
1.4440513496e-07 -2.8210284455e-06 -6.4036724439e-06 -1.0553724451e-05 -1.6746114625e-05 -2.3775707086e-05 -2.8336625746e-05 -2.9754598927e-05 -2.9622726743e-05 
-2.9838248793e-05 -3.0468446766e-05 -2.9943731079e-05 -2.6892153073e-05 -2.3909422907e-05 -2.0949207737e-05 -6.4165319031e-06 -1.7737414169e-06 3.3881593708e-06 
8.0259707147e-06 1.1046357031e-05 1.1633380382e-05 1.2261104075e-05 1.0817035673e-05 9.2777331702e-06 7.944678373e-06 6.8870091354e-06 4.1476610022e-06 
5.8253774114e-06 3.9335323549e-06 4.6191833576e-06 4.5720362891e-06 2.8467812001e-06 5.8591060537e-07 -1.0502680894e-06 -1.6717253288e-06 -2.6463609686e-06 
-4.2739320065e-06 -7.1218706807e-06 -1.1885753565e-05 -2.1536638087e-05 -1.8641240104e-05 -2.4755620416e-05 -2.8459545774e-05 -3.2582141557e-05 -3.6604506022e-05 
-4.0097832425e-05 -9.7440970421e-06 -1.1204166367e-05 -1.042758413e-05 -7.1843919613e-06 -1.0761829799e-05 -3.5971266925e-06 -8.0441823229e-06 -2.4577146078e-06 
2.2558636132e-06 4.3064284796e-06 3.3912407957e-06 2.8284067639e-06 4.1591667355e-06 7.6188017601e-06 7.8830299799e-06 7.3487816508e-06 7.2888154818e-06 
-6.6142821424e-06 -3.1707556083e-06 -9.1121238484e-06 -1.1239395462e-05 -1.3446089952e-05 -1.3818388652e-05 -1.1907058024e-05 -9.6059136467e-06 -7.7536720937e-06 
-6.8972157123e-06 -6.7311305732e-06 -8.6375551973e-06 -1.2440341834e-05 -1.0803214877e-05 -1.4169575479e-05 -1.5436397462e-05 -1.6946213009e-05 -1.8298947452e-05 
-1.8254920633e-05 -1.9205094759e-05 -9.2590905751e-06 -1.501149768e-05 -3.2586086007e-06 -3.2143169904e-07 -1.329636774e-06 -3.4215162259e-06 -4.5146782668e-06 
-5.4988148577e-06 -1.1201637221e-05 -1.3800776287e-05 -8.5514632886e-07 -2.1430408026e-06 -1.8731853288e-05 -2.0559867153e-05 -1.3076109553e-05 -1.3663613345e-05 
-1.3070015029e-05 -1.3024521422e-05 -1.3840931388e-05 -1.4481060362e-05 -1.4879745095e-05 -1.6112306412e-05 -1.8645932641e-05 -2.1690966605e-05 -2.4243724056e-05 
-2.5545035896e-05 -2.5756719879e-05 -2.5749504402e-05 -2.5299746994e-05 -2.6954946861e-05 -2.7935270737e-05 -2.5066769467e-05 -1.0026171935e-05 -3.7555273593e-05 
-3.8835069063e-05 -3.562399191e-05 -3.1781138659e-05 -2.630362269e-05 -1.8401819943e-05 -2.0431702978e-05 -1.5297320488e-05 -1.0456952623e-05 -7.0463453312e-06 
-1.3035045185e-05 -1.3048358369e-05 -1.121186915e-05 -9.4620525033e-06 -8.4428836544e-06 -1.001715018e-05 -1.6426495677e-05 -2.2574635295e-05 -2.5516578262e-05 
-2.8442766052e-05 -3.0319324651e-05 -3.0798771604e-05 -3.0407457871e-05 -2.9365558476e-05 -3.154975675e-05 -2.8316788757e-05 -3.1402860714e-05 -3.3482314393e-05 
-3.528657362e-05 -3.710281635e-05 -3.8368602873e-05 -7.266110515e-06 -1.3428553274e-06 3.0943831035e-06 5.3564954214e-06 4.2204414967e-06 2.9351646162e-06 
3.3262365378e-06 6.2935981759e-08 -7.8734362319e-07 -2.5675628308e-06 -5.4823150322e-06 4.4631215701e-06 5.7374484186e-06 4.9101074069e-06 2.5611502394e-06 
-3.3725402318e-05 -3.4687515836e-05 -3.5813132854e-05 -3.6339248254e-05 -3.6100354009e-05 -3.516151537e-05 -3.3434700526e-05 -2.8485172606e-05 8.2767719505e-06 
8.5958474756e-06 8.9439054136e-06 9.5921391221e-06 1.2501332343e-06 6.5330286247e-06 -8.9130963715e-06 -5.7633696429e-06 -1.7436913851e-06 3.6151993719e-06 
6.5566077865e-06 -3.4918608698e-06 1.0476681382e-05 -1.8193344658e-05 -1.7726335045e-05 -1.8508006633e-05 -1.8940009795e-05 -1.9069413611e-05 -1.9747698389e-05 
-2.0652776584e-05 -2.0539012894e-05 -2.1177500912e-05 -2.2496124529e-05 -1.8921308765e-05 -2.0728963591e-05 -1.652333458e-05 -1.267470725e-05 -7.570219509e-06 
-3.0822094317e-06 -1.4803916315e-07 -1.1968292242e-06 -2.8428493692e-06 -3.3208510217e-06 -3.5141194417e-06 -1.6084379316e-06 -4.8659553897e-07 9.6871532662e-07 
8.0492071675e-07 -1.2459032916e-06 -4.2154768209e-06 -7.9025602417e-06 -1.1342571497e-05 -2.7317374588e-05 -2.5463299608e-05 -2.7101054002e-05 -2.6019438792e-05 
-2.4267628032e-05 -2.4409421712e-05 -2.3864508421e-05 -2.308974581e-05 -1.0300015219e-05 -2.2096225318e-05 -2.2929232273e-05 -2.3892363515e-05 -2.4302513339e-05 
-2.4217034176e-05 -5.7029899949e-06 -9.842881127e-06 -2.4868190707e-06 -2.170165961e-07 4.1107061103e-06 5.218102217e-06 -1.2324909022e-06 2.199849439e-06 
-3.8389407564e-06 -3.0946919651e-05 -3.2991467833e-05 -3.4148683881e-05 -3.4090964618e-05 -3.31950896e-05 -1.578829756e-05 -1.5930654323e-05 -1.3457782643e-05 
2.8517897164e-06 1.3766346996e-07 -6.1807939649e-06 -8.8708319481e-06 -1.0910778428e-05 -1.1267279357e-05 5.2782175999e-06 -1.0872701144e-05 8.7024550339e-06 

Stress_YZ_Pt 1 1116 double
1.4030047168e-07 3.533200811e-06 1.0227894052e-06 3.7356352323e-07 4.2841968479e-06 -1.4931788428e-07 2.8664421734e-06 -3.2988743897e-06 6.3644432657e-07 
-7.2016019033e-06 -3.236383975e-06 -1.2034320577e-05 -8.1065534232e-06 -1.7662391542e-05 -1.2808649899e-05 -2.2810338805e-05 -2.0076391593e-05 -2.78456464e-05 
-2.8101636417e-05 -3.1231347748e-05 -2.8562331863e-05 -2.8183736049e-05 -2.0728096388e-05 -1.9830686597e-05 -1.1589002952e-05 -1.1853958085e-05 -4.447792719e-06 
-5.8355938393e-06 2.9784891353e-06 7.848701955e-07 9.1234271622e-06 7.0374694019e-06 1.2618311757e-05 1.176774731e-05 1.5958020413e-05 1.6664995201e-05 
2.039132869e-05 2.1897892111e-05 2.4409738216e-05 2.612682556e-05 2.6525818612e-05 2.8730469694e-05 2.7490598768e-05 3.0645815514e-05 2.616058373e-05 
3.1102619687e-05 1.8441056909e-05 2.6316987032e-05 3.4182680793e-06 1.4853642597e-05 -1.344021166e-05 -5.6177958641e-07 -2.2545769752e-05 -1.2084507091e-05 
-2.3179536583e-05 -1.6186894868e-05 -2.4343479708e-05 -1.8388212311e-05 -2.7154587769e-05 -2.0906858026e-05 -2.7102629247e-05 -2.1978734821e-05 -2.2858580451e-05 
-2.0284576749e-05 -1.8801741135e-05 -1.761923977e-05 -1.5222532966e-05 -1.4646436512e-05 -7.4946527775e-06 -9.7664339478e-06 3.8980715544e-07 -5.2033362863e-06 
2.2600257239e-06 -3.9638984788e-06 -2.5598313869e-07 -5.1011995481e-06 -3.8338611148e-06 -6.6604397375e-06 -7.9890662619e-06 -7.8272597648e-06 -1.1989743598e-05 
-7.7740342874e-06 -1.4673363239e-05 -5.649529129e-06 -1.1691563941e-05 3.9148756059e-07 -2.0948853034e-06 1.0193596268e-05 1.0897965467e-05 2.1025887122e-05 
2.5413448384e-05 3.1426129681e-05 3.6595267375e-05 3.9547790948e-05 3.8887961637e-05 4.321648521e-05 3.3500503378e-05 4.2562900944e-05 2.5920944609e-05 
3.8469775973e-05 1.8856531824e-05 3.2467712117e-05 1.2847709513e-05 2.5551425097e-05 7.3109570167e-06 1.740480468e-05 3.3566830098e-06 1.002517547e-05 
1.3119296511e-06 4.8968243647e-06 -6.9853101081e-07 1.3876231577e-06 1.803228588e-05 1.8780460778e-05 2.1245103653e-05 1.9771817733e-05 1.6874965695e-05 
2.0989245513e-05 1.2548898212e-05 1.7618292759e-05 7.2586619808e-06 1.2758614616e-05 3.294027124e-06 8.3369137087e-06 1.4050987147e-06 5.361254523e-06 
-6.6014138156e-08 3.7799854624e-06 -1.8839776317e-06 3.4395777391e-06 -3.0525383181e-06 4.3493678845e-06 -1.1204485872e-07 6.855763047e-06 6.6168070134e-06 
9.0950858294e-06 1.0051672689e-05 7.6885018814e-06 8.9060508799e-06 3.4757052561e-06 5.2919790505e-06 -1.7780656663e-06 -2.4454357117e-07 -8.2865392415e-06 
-8.225696547e-06 -1.6136421436e-05 -1.8401816305e-05 -2.3875719762e-05 -2.388455141e-05 -2.7564182346e-05 -1.9704570605e-05 -2.4824600814e-05 -8.9375056405e-06 
-1.6708947612e-05 2.0768535478e-06 -7.3722580396e-06 7.9747887867e-06 -9.5206655715e-07 8.6250329332e-06 2.0008181991e-06 1.0325631592e-05 4.1502415797e-06 
1.2152894669e-05 5.9735979221e-06 9.2338968898e-06 6.2943159946e-06 5.6196486184e-06 6.9246634666e-06 2.7330392811e-06 7.9580758978e-06 5.3562755653e-07 
8.5286750284e-06 1.8769669694e-06 9.4361494156e-06 9.8304883522e-07 9.5788453223e-06 4.2041577899e-06 1.2426588171e-05 1.2438631074e-05 1.8605270952e-05 
1.5499851088e-05 2.314513381e-05 1.8116713363e-05 2.6118406367e-05 1.9429385247e-05 2.6164872452e-05 1.5807834643e-05 2.2514336706e-05 9.6895701063e-06 
1.7764783934e-05 6.9558102496e-06 1.4968450273e-05 5.7701770402e-06 1.1483396179e-05 5.0373671456e-07 4.0539253519e-06 -6.4935435375e-06 -4.623972643e-06 
-1.1256479866e-05 -1.1762846725e-05 -1.271803103e-05 -1.5885165794e-05 -1.261998932e-05 -1.7357281649e-05 -1.2785826584e-05 -1.7600208139e-05 -1.299099722e-05 
-1.6949854626e-05 -1.1845351764e-05 -1.4934284536e-05 -9.7394140539e-06 -1.2259083633e-05 -7.4123720424e-06 -9.64857702e-06 -5.5219293245e-06 -7.8091120486e-06 
-5.2355248954e-06 -7.429997595e-06 -6.4825073878e-06 -7.8491660815e-06 -7.9290985013e-06 -6.7459669708e-06 -7.8640457559e-06 -3.2027882071e-06 -1.0608930552e-06 
4.7938824537e-06 1.1110480955e-05 1.4856165308e-05 -1.008869674e-05 -5.9440437497e-06 -1.5024415461e-05 -2.1218505026e-05 -2.7662853881e-05 -3.4012995457e-05 
-3.8759620111e-05 -4.0195503971e-05 -3.8109118577e-05 -3.1961840705e-05 -2.3733454327e-05 -1.6714498543e-05 -1.0872059306e-05 -4.3066011131e-06 3.2231840805e-06 
1.1155229686e-05 1.8938438643e-05 2.5496497074e-05 3.0105939913e-05 3.337140015e-05 3.6382049075e-05 3.8447813131e-05 3.6125634324e-05 2.9200788049e-05 
1.6963505971e-05 4.1014225758e-06 -4.7979758619e-06 -1.0424411585e-05 -1.4362132561e-05 -1.80925922e-05 -2.1064777229e-05 -2.2455276394e-05 -2.2814566591e-05 
-2.2924911491e-05 -2.2704438834e-05 -2.1392647568e-05 -1.9326873371e-05 -1.711943969e-05 -1.4065018149e-05 -9.0077358834e-06 -1.6011677815e-06 7.1643257797e-06 
1.5981440811e-05 2.3997424432e-05 3.6616743273e-05 4.3627817831e-05 4.9036774726e-05 5.2571125707e-05 5.2111710829e-05 4.7682502554e-05 3.9851795918e-05 
2.892017028e-05 1.8213006115e-05 9.8828842283e-06 3.7563098374e-06 -1.3031605022e-06 2.8149100217e-05 2.6347561743e-05 2.6777181574e-05 2.3403059458e-05 
1.9406426873e-05 1.5881157651e-05 1.4643747932e-05 1.6508958083e-05 1.979385911e-05 2.0716830932e-05 1.6422968201e-05 8.5192554877e-06 1.4447712715e-07 
-7.9196810816e-06 -1.6071927575e-05 -2.3325351776e-05 -2.7718773254e-05 -2.9912559057e-05 -3.0153733405e-05 -2.6137582608e-05 -1.9651996581e-05 -1.349396166e-05 
-7.9940638216e-06 -4.4445439471e-06 -1.7863695803e-06 3.0403327855e-06 1.0010166989e-05 1.6581736645e-05 2.0744099857e-05 2.2405883556e-05 2.4401631435e-05 
2.7681711799e-05 3.1936939195e-05 3.6687734337e-05 3.8129332097e-05 3.5025493162e-05 3.0732870073e-05 2.7888082059e-05 2.5259023005e-05 1.8983608015e-05 
8.7506939508e-06 -2.4900321023e-06 -1.3271938087e-05 -2.1964430289e-05 -2.7405764286e-05 -2.9521242141e-05 -2.8682404263e-05 -2.6008611258e-05 -2.2490077299e-05 
-1.8963185084e-05 -1.6230811298e-05 -1.4271615328e-05 -1.2550282918e-05 -8.150427675e-06 -3.001417781e-07 1.0442249163e-05 1.9978833734e-05 2.3859559406e-05 
-2.3017491458e-05 -1.8229655325e-05 -2.9816955248e-05 -3.6956209442e-05 -4.3116397137e-05 -4.6789534281e-05 -4.6595628191e-05 -4.3128115067e-05 -3.7444058762e-05 
-3.0723831514e-05 -2.4091488285e-05 -1.7034120219e-05 -8.691914843e-06 1.1749152122e-06 1.1710838066e-05 2.135128716e-05 2.8678944091e-05 3.3661776797e-05 
3.7411856283e-05 4.0047144466e-05 4.0595976316e-05 3.13382684e-05 3.6209485188e-05 2.2515859428e-05 1.1838295336e-05 1.3295413623e-06 -7.6705236438e-06 
-1.4440757241e-05 -2.0721236069e-05 -2.7107616916e-05 -3.2789108445e-05 -3.7210074879e-05 -4.031086246e-05 -4.1710603e-05 -3.9863575694e-05 -3.5207796827e-05 
-2.9835755868e-05 -2.4361906981e-05 -1.7989498247e-05 -1.0107847515e-05 -1.8114384659e-06 4.7416663165e-06 7.6770097053e-06 4.1710684854e-05 3.228253172e-05 
4.8049425459e-05 5.1034341595e-05 5.0680364438e-05 4.7134088163e-05 3.9834227209e-05 2.9534091482e-05 1.9105931415e-05 9.7531575989e-06 1.2977344568e-06 
-6.6679871793e-06 -1.3601580235e-05 3.7901756514e-05 3.8795158616e-05 1.9685563757e-05 7.4232046074e-06 3.2354821542e-05 3.2309353628e-05 3.0992723168e-05 
2.9016051485e-05 2.6899994737e-05 2.6199563308e-05 2.8181158996e-05 3.124363775e-05 3.0901906939e-05 2.4318474971e-05 1.4157473061e-05 4.3072106735e-06 
-4.8000629533e-06 -1.3379802795e-05 -2.0407752118e-05 -2.4520204988e-05 -2.7817807859e-05 -3.0221209727e-05 -2.8248220133e-05 -2.3671764666e-05 -1.8763991648e-05 
-1.3241648276e-05 -8.3786624145e-06 -3.9316310563e-06 2.9567599427e-06 1.2094814338e-05 2.0156669962e-05 2.5629643005e-05 2.9521484066e-05 3.324463205e-05 
3.7827181586e-05 4.2271090933e-05 4.4811334192e-05 4.3334486691e-05 3.831209051e-05 3.3612854168e-05 3.0873436572e-05 2.7454382234e-05 2.0066409888e-05 
9.2677642556e-06 -2.7133366416e-06 -1.4994329604e-05 -2.6452928978e-05 -3.5449986171e-05 -4.0221956624e-05 -4.0413018723e-05 -3.7781574974e-05 -3.3712921322e-05 
-2.9584374261e-05 -2.5891523364e-05 -2.1867120722e-05 -1.7379072005e-05 -1.0169831569e-05 -6.2488783215e-07 9.9228237787e-06 1.9907071191e-05 2.5990667382e-05 
2.9849107705e-05 1.6601341031e-05 8.3443090944e-06 2.681547403e-05 3.6114577142e-05 4.2824078264e-05 4.5406609388e-05 4.4943030844e-05 4.2056793973e-05 
3.5922749703e-05 2.7399315059e-05 1.7858707452e-05 7.7363393416e-06 -4.0070227897e-06 -1.3362781715e-05 -1.9221912453e-05 -2.2902594083e-05 -2.7201896501e-05 
-3.3114250073e-05 -3.9910964006e-05 -4.5874839088e-05 -4.9201463298e-05 -4.8285918638e-05 -4.3937338887e-05 -3.8737565774e-05 -3.3535160583e-05 -2.7499810585e-05 
-1.9662919613e-05 -9.8854142152e-06 1.300369604e-06 1.2443748005e-05 2.2632997116e-05 3.0974227229e-05 3.6593726691e-05 4.0050578718e-05 4.1643937038e-05 
4.1595157199e-05 4.0302370508e-05 3.6040126361e-05 3.8287992538e-05 3.4272444282e-05 3.2683825793e-05 2.9187825021e-05 2.2806729703e-05 1.3768789358e-05 
2.841870014e-06 -7.5317738037e-06 -1.6219311874e-05 -2.4230275812e-05 -3.2778810237e-05 -4.1165708353e-05 -4.7704538702e-05 -5.1788513701e-05 -5.3537996791e-05 
-5.1905735745e-05 -4.6792167268e-05 -3.9940216084e-05 -3.2813697089e-05 -2.5546574307e-05 -1.7442026547e-05 -9.4414663465e-06 -4.1906641854e-06 -2.3530275826e-06 
-9.67269699e-07 3.275718143e-06 1.3817532363e-05 1.1050429976e-05 1.6963005388e-05 3.5075734559e-05 3.4786314245e-05 3.5379896872e-05 3.5283580473e-05 
3.52419911e-05 3.6238799112e-05 3.7429125769e-05 3.6059111153e-05 2.9314830499e-05 1.8529946601e-05 7.9488044378e-06 -1.1790219503e-06 -9.3486526112e-06 
-1.6426205775e-05 -2.1434368136e-05 -2.5097304842e-05 -2.9599742447e-05 -3.0794966733e-05 -2.6400654406e-05 -2.2248463665e-05 -1.6979469592e-05 -1.1467593708e-05 
-5.5424305856e-06 2.4221044441e-06 1.1728917343e-05 1.9915401481e-05 2.629219307e-05 3.1646430216e-05 3.6559402361e-05 4.1612806854e-05 4.5688871978e-05 
4.6693118747e-05 4.4176567826e-05 3.9849152927e-05 3.5405389099e-05 3.1438292353e-05 2.6356576655e-05 1.8183382053e-05 7.7401826104e-06 -3.5667492e-06 
-1.5938278921e-05 -2.8629368444e-05 -3.9292134716e-05 -4.5772134399e-05 -4.7453377192e-05 -4.5402296564e-05 -4.1104994125e-05 -3.6822815673e-05 -3.3157383768e-05 
-2.805591339e-05 -2.0452173885e-05 -9.3709552118e-06 1.8307220273e-06 9.8440463034e-06 1.7648021185e-05 2.5399816423e-05 3.1245735045e-05 3.414152161e-05 
-2.9876354802e-05 -2.8270670555e-05 2.4159544409e-05 3.3393806461e-05 3.9883115278e-05 4.166691815e-05 4.0429900764e-05 3.7447563045e-05 3.2577901493e-05 
2.6028831599e-05 1.8244429384e-05 9.5048000048e-06 8.4246058307e-07 -2.4047306397e-05 -1.9246781449e-05 -2.7210688131e-05 -3.0398466606e-05 -3.4559631786e-05 
-4.0119740333e-05 -4.5517914259e-05 -4.8684638386e-05 -4.7578118028e-05 -4.2078913975e-05 -3.7385713767e-05 -3.2960872886e-05 -2.6990944207e-05 -1.87184678e-05 
-8.7936765567e-06 2.1231959408e-06 1.3208087921e-05 2.3912757115e-05 3.4584152672e-05 4.0038438783e-05 4.1899924327e-05 4.2356876899e-05 4.2540812501e-05 
4.1930450607e-05 4.064742825e-05 3.6086335058e-05 3.9156861021e-05 3.32767695e-05 3.1681103792e-05 3.0943953485e-05 2.7943377518e-05 2.2042991077e-05 
1.3581735629e-05 2.4603747875e-06 -8.8514171352e-06 -1.8854320842e-05 -2.8071756333e-05 -3.7933798922e-05 -4.7851919589e-05 -5.5646989495e-05 -5.9721808611e-05 
-6.023306014e-05 -5.823428728e-05 -5.3926080909e-05 -4.7675945098e-05 -4.0520236325e-05 -3.2704759633e-05 -2.4187371309e-05 -1.5926033484e-05 -1.0328200612e-05 
-9.9449317759e-06 -7.2744838349e-06 -1.3715394012e-06 7.4680419111e-06 2.1158221443e-05 1.7414876083e-05 2.306337683e-05 -1.2960728441e-05 -6.7678491114e-06 
-3.1754015708e-05 -3.0990230698e-05 -3.2081416066e-05 -3.1735220546e-05 -2.9756443382e-05 -2.6161947517e-05 -2.0816507458e-05 -1.4781375739e-05 -8.2875431531e-06 
-9.7338272553e-08 9.5693535513e-06 1.840939558e-05 2.5305002055e-05 3.096657565e-05 3.624056335e-05 4.144903869e-05 4.4567841542e-05 4.5006529035e-05 
4.2894571379e-05 3.9526194087e-05 3.5070977901e-05 3.01838204e-05 2.4339169613e-05 1.611237667e-05 6.122221972e-06 -4.5426318174e-06 -1.6598748743e-05 
-2.9750816338e-05 -4.1308641812e-05 -4.9222097914e-05 -5.2894378314e-05 -5.2522352235e-05 -4.9045883316e-05 -4.4800179239e-05 -4.0748608626e-05 -3.4371018955e-05 
-2.404845327e-05 -1.0390674476e-05 1.8944703868e-06 9.3516622428e-06 1.6042254856e-05 2.4457751806e-05 3.1650954497e-05 3.5039307477e-05 3.6491126593e-05 
3.7995090679e-05 3.9979261601e-05 4.1696225708e-05 4.2779345677e-05 4.3370869207e-05 4.2336314436e-05 3.8779884562e-05 3.1337978271e-05 2.0678992087e-05 
1.0077733009e-05 8.9857888952e-07 -6.8951384833e-06 -1.3415024569e-05 -1.8678597371e-05 -2.2982977498e-05 -2.6957462978e-05 -3.026076638e-05 -3.3319980503e-05 
-3.2700511838e-05 -3.3057824718e-05 3.2886751796e-05 3.9494535486e-05 4.1378359128e-05 3.9352165913e-05 3.5769191527e-05 3.1788286378e-05 2.6820712264e-05 
2.0768036393e-05 1.4085374232e-05 7.2823224464e-06 8.8549775867e-07 -1.3809437746e-05 -5.4454754377e-06 -1.9698755295e-05 -2.4770988148e-05 -2.9030134101e-05 
-3.1760935599e-05 -3.3920970964e-05 -3.5798074047e-05 -3.9528255002e-05 -4.4046256335e-05 -4.7012680625e-05 -4.6173018745e-05 -4.2183697587e-05 -2.961009659e-05 
-3.3849375995e-05 -2.3363343189e-05 -1.5194471644e-05 -8.1039215729e-06 1.5392527558e-06 1.4607266394e-05 2.438938327e-05 3.2014002954e-05 4.3257849939e-05 
4.3274573727e-05 -3.672432922e-05 -3.7901290852e-05 4.1611873712e-05 3.777479742e-05 4.2241502342e-05 4.3388487939e-05 4.1043356759e-05 3.732530331e-05 
4.0184836507e-05 3.3614281165e-05 3.0554382192e-05 2.8723185551e-05 2.3600347049e-05 1.3660618333e-05 1.1610165984e-06 -1.0052401308e-05 -2.0597155299e-05 
-3.0483927276e-05 -4.1123080337e-05 -5.1887393056e-05 -6.0205309637e-05 -6.3605677497e-05 -6.2357961724e-05 -5.9512893131e-05 -5.6104930081e-05 -5.1336224715e-05 
-4.5159415095e-05 -3.7671541577e-05 -2.7638073516e-05 -1.7446422589e-05 -1.3886511624e-05 -7.065189795e-06 2.6603585574e-06 1.3205078403e-05 2.6543252261e-05 
2.2419762445e-05 3.0806744235e-05 -3.3648890167e-05 -3.4105009945e-05 -3.3081864331e-05 -3.0072779737e-05 -2.4846450742e-05 -1.8645308955e-05 -1.22440631e-05 
-4.1979208163e-06 5.9427350152e-06 1.5182047036e-05 2.2183848614e-05 2.8028001907e-05 3.2006708807e-05 4.2091780415e-05 3.9978162931e-05 4.2504326302e-05 
4.1305090235e-05 3.8356255573e-05 3.3797355172e-05 2.8729971746e-05 2.2737693143e-05 1.4698783161e-05 4.9629334988e-06 -5.1963587886e-06 -1.8962864488e-05 
-3.2677750369e-05 -4.3706618271e-05 -5.1783471463e-05 -5.6422407397e-05 -5.7575514802e-05 -5.5790071201e-05 -5.2506688917e-05 -4.9628027773e-05 -3.9691334678e-05 
-2.7545414923e-05 -1.3421155359e-05 -1.4874225087e-06 6.4342039252e-06 1.3702432625e-05 2.2199591967e-05 2.9939386422e-05 3.4988786865e-05 3.808098063e-05 
4.0225032535e-05 4.2381034291e-05 4.4646571951e-05 4.6390448915e-05 4.6658875362e-05 4.4167340093e-05 3.8883738853e-05 3.0622209124e-05 2.0475303472e-05 
1.0595616232e-05 1.6295118144e-06 -6.0469970435e-06 -1.2339313116e-05 -1.7702631339e-05 -2.1738115265e-05 -2.5671778076e-05 -2.9599208119e-05 -3.2016562727e-05 
-3.4605051042e-05 -3.4103572034e-05 -3.4788583434e-05 3.7162420995e-05 3.3892562897e-05 2.6229262403e-05 1.9587977249e-05 -1.1035248235e-05 -9.6256519555e-07 
-2.1091193048e-05 -3.1320677408e-05 -4.2427305743e-05 -5.3656099226e-05 -6.2042063291e-05 -6.4993773412e-05 -6.2404033997e-05 -5.9146067542e-05 -5.6133869293e-05 
-5.2595573834e-05 -4.7433162763e-05 -4.0742838792e-05 -3.3940681078e-05 -2.1342278842e-05 -2.8057687814e-05 3.7740171138e-05 4.0807208279e-05 3.9577854295e-05 
3.6357295357e-05 3.304029633e-05 2.9668760544e-05 2.3969514586e-05 1.8824983044e-05 1.3592678442e-05 8.756949228e-06 4.2321499336e-06 -1.1481616582e-05 
3.800176728e-07 -1.965323986e-05 -2.5746877327e-05 -3.0889450045e-05 -3.4639192563e-05 -3.7052377593e-05 -3.8619543375e-05 -4.3253228796e-05 -4.5773072998e-05 
-4.4655750571e-05 -4.1098364818e-05 -3.7451906792e-05 -3.4020597923e-05 -3.4208113902e-05 -3.2420728076e-05 -2.9592300962e-05 -2.4834527721e-05 -1.7700277112e-05 
-8.8526550108e-06 4.3209562136e-05 4.4975020865e-05 4.1916709961e-05 3.4186601988e-05 3.9349666622e-05 2.9300507776e-05 -3.59271653e-05 -3.6332820855e-05 
-3.437981286e-05 -2.9374265978e-05 -2.321011516e-05 -1.7259269498e-05 -9.9448395758e-06 1.161930436e-05 1.8083759869e-05 2.4012067115e-05 2.8088370073e-05 
4.0283498492e-05 3.8835111809e-05 4.0815943066e-05 4.0203394747e-05 3.7423937101e-05 3.3073726627e-05 2.8033601666e-05 2.1634248697e-05 1.3191583207e-05 
3.1617661875e-06 -4.6731834876e-06 -1.2484045669e-05 -4.6347916395e-05 -3.7413477912e-05 -5.3279130043e-05 -5.7736858253e-05 -5.9993843024e-05 -6.0093191678e-05 
-5.8529619309e-05 -5.8430254285e-05 -2.9731841551e-05 -4.2927798859e-05 -1.6124262174e-05 -4.9540137468e-06 3.2973513555e-06 1.0415897464e-05 1.8102733293e-05 
2.6392930522e-05 -2.8749281682e-05 -2.1813115609e-05 8.1053691474e-06 1.3759350622e-05 -5.352676817e-05 -6.0795254285e-05 4.1345869249e-05 4.2622359615e-05 
4.4394487304e-05 4.6416319492e-05 4.6513017878e-05 4.3349880798e-05 3.7331399653e-05 2.8838610433e-05 1.9132431589e-05 9.5365537049e-06 5.0214026714e-07 
-7.3522218145e-06 -1.3724328483e-05 -1.9035678179e-05 -2.1885512372e-05 -2.414527853e-05 -2.7528036298e-05 -3.100736194e-05 -3.6877097955e-05 1.7113079593e-05 
7.6246340122e-06 2.3482030277e-05 2.723866146e-05 3.1639023746e-05 4.1657191105e-05 3.5160599964e-05 4.5098257942e-05 3.9580782868e-05 4.0041370085e-05 
3.6817065848e-05 3.3013850953e-05 2.8105286674e-05 2.0973809114e-05 1.1717215443e-05 -2.3203790988e-06 -1.4490062085e-05 2.6546073514e-05 1.6833738982e-05 
6.9476111761e-06 -2.2697397313e-06 -1.0074644024e-05 -1.6291749034e-05 -2.1253703835e-05 -2.4302508973e-05 -2.9588315556e-05 -2.8293989089e-05 -2.5393755095e-05 
-1.9764605213e-05 -1.2017034692e-05 -2.5613247736e-06 -3.726525174e-05 -3.9561024096e-05 -3.9144187213e-05 -3.4312779007e-05 -2.789036489e-05 -2.251085516e-05 
-1.7095007706e-05 -4.2404785745e-05 -4.4953032557e-05 -4.3580861529e-05 -4.0235507186e-05 -2.3688299734e-05 -2.9955733226e-05 -3.6122169149e-05 -4.0274516323e-05 
-2.491221979e-05 -2.1541699425e-05 -1.5670459561e-05 -7.9566777345e-06 1.3211355849e-06 1.122236938e-05 2.0223367756e-05 2.3563350169e-05 1.0297289312e-05 
1.4172313968e-05 1.9165264121e-05 2.3641229291e-05 3.6808415643e-05 3.4200056689e-05 3.4398244679e-05 3.97095464e-05 3.9602833567e-05 3.7256948417e-05 
3.5014836612e-05 3.9293946429e-05 2.6329693962e-05 -3.4066471471e-05 -4.0952237214e-05 -4.7997053116e-05 -5.3562071116e-05 -5.7505046243e-05 -6.0478745581e-05 
-6.2066699684e-05 -6.2198499108e-05 -6.271251641e-05 -6.4664567617e-05 -6.198185838e-05 -6.5388725488e-05 -5.4568856285e-05 -4.3745162657e-05 -3.0735167911e-05 
-1.8017732373e-05 -6.6397194018e-06 3.1625280741e-06 9.2807997589e-06 1.5530267092e-05 2.2712638838e-05 1.0101154506e-05 5.4001592531e-06 -2.8963522567e-06 
-1.1851359659e-05 -2.0976304768e-05 -3.1526599741e-05 -4.2883365495e-05 -5.3898388614e-05 -6.2775337028e-05 -6.4890960857e-05 -5.987636996e-05 -5.6831832808e-05 
-5.375379842e-05 -4.835764139e-05 -4.20708202e-05 -3.6939326189e-05 2.9524104775e-05 -5.6791371511e-05 -5.8970637838e-05 -6.1560273934e-05 -6.3264422351e-05 
-6.4171166741e-05 -3.1308065445e-05 -4.3311877562e-05 -1.9933153908e-05 -1.2621218654e-05 -2.6039672472e-05 -3.0817520383e-05 -4.2122181185e-05 -4.2656722508e-05 
-3.9855061914e-05 1.407816103e-05 4.0873021803e-06 -5.1196889004e-06 -1.2763804079e-05 -1.8735746835e-05 -6.1973385527e-05 -6.0765377081e-05 -5.4086347518e-05 
3.6518591514e-05 3.7950203478e-05 4.0143212876e-05 3.9443793867e-05 3.6195149733e-05 3.3208563157e-05 -3.7446937313e-05 4.1465134321e-05 2.9856801575e-05 

Stress_XZ_Pt 1 1116 double
7.9397872241e-06 1.7060839035e-06 -8.6931811616e-07 7.7159035214e-06 -1.5979174215e-06 -4.6174107116e-06 -3.8018238229e-06 -6.5776166593e-06 -4.8039810281e-06 
-7.699865364e-06 -5.8760379034e-06 -8.3801542132e-06 -5.3527489854e-06 -7.6866919017e-06 -3.1419104971e-06 -6.2723325414e-06 -3.3718064287e-06 -5.6470118466e-06 
-2.0852528877e-06 -3.3415629659e-06 1.8319845623e-06 -1.3253951892e-07 4.3229507583e-06 1.4013845941e-06 5.7550059864e-06 1.9503463022e-06 4.3407977728e-06 
8.9342779575e-07 1.5878405293e-06 -1.1767270962e-06 2.9205575629e-06 -8.2916756128e-07 7.2241764428e-06 2.2008794076e-06 1.1033870578e-05 5.7300164258e-06 
1.3352970655e-05 8.8893306724e-06 1.3275596302e-05 1.0698306482e-05 1.0750845377e-05 1.0143271766e-05 6.9901450388e-06 7.7682030906e-06 2.2083270892e-06 
4.2216351233e-06 -3.2963004628e-06 -1.1885726678e-06 -7.0915937158e-06 -6.4118851242e-06 -7.3316987255e-06 -8.4377513758e-06 -3.2899293814e-06 -6.9165192187e-06 
-1.6628296606e-07 -4.5410758069e-06 -3.3447613035e-06 -5.5560882153e-06 -1.1141965842e-05 -1.0332507827e-05 -1.8713739337e-05 -1.5043615804e-05 -2.2320962671e-05 
-1.6639155319e-05 -2.2141644877e-05 -1.4868921312e-05 -2.1167445084e-05 -1.1130285429e-05 -1.8510089831e-05 -6.0640630863e-06 -1.377149465e-05 -9.103391676e-07 
-1.0655035112e-05 2.3364862045e-06 -8.8335905275e-06 4.414822115e-06 -5.973396128e-06 6.6960894856e-06 -1.5230609733e-06 9.1246032525e-06 2.2166362896e-06 
9.4650799269e-06 3.7917044438e-06 5.9098617839e-06 3.50015614e-06 3.1623960695e-07 1.5579722543e-06 -5.1094618314e-06 -1.1614511237e-06 -9.4980132488e-06 
-2.9425398225e-06 -1.1253490698e-05 -2.5861785389e-06 -8.7157386019e-06 -2.5327148023e-07 -2.5580859244e-06 4.8473220318e-06 5.4083259045e-06 1.2374887774e-05 
1.3650647588e-05 1.9351503397e-05 2.0815530206e-05 2.3437934942e-05 2.6054426144e-05 2.3088457965e-05 2.7334023798e-05 1.9559525754e-05 2.4635354293e-05 
1.5184516542e-05 2.0210268076e-05 1.2586868252e-05 1.5758143491e-05 -1.7603302695e-05 -1.5839639218e-05 -2.1058701577e-05 -2.0190759187e-05 -1.5037457615e-05 
-1.8880369907e-05 -1.5348873603e-05 -1.6118950953e-05 -1.4953746359e-05 -1.3461794879e-05 -1.7443494471e-05 -1.3711462088e-05 -2.3311136829e-05 -1.7129384787e-05 
-2.8206066418e-05 -2.0562142709e-05 -2.8395175832e-05 -2.0795196633e-05 -2.4368594495e-05 -1.6977029418e-05 -2.0691094505e-05 -1.2293765991e-05 -1.8502784769e-05 
-8.9580052816e-06 -1.4700013708e-05 -5.6656603533e-06 -1.0178188859e-05 -2.3063432764e-06 -4.6789396038e-06 1.3606064613e-06 3.1117672279e-06 5.9919008208e-06 
1.2334187659e-05 1.1236113892e-05 2.2456579245e-05 1.7566187353e-05 3.0244194932e-05 2.5778071858e-05 3.2640313293e-05 3.3232356145e-05 3.0942082049e-05 
3.5609446513e-05 2.5423196348e-05 3.261989059e-05 1.8207282665e-05 2.7085693091e-05 1.2245657672e-05 2.0491519081e-05 6.7206708536e-06 1.4328568227e-05 
4.1839123242e-06 1.0832467638e-05 5.4274059949e-06 8.7185323991e-06 2.6768510395e-06 3.8661360833e-06 -2.5956536831e-06 -2.0656660098e-06 -3.6585510088e-06 
-5.3881173585e-06 -6.0898283891e-06 -8.6011789904e-06 -7.3986300322e-06 -1.1552209912e-05 -1.1109882735e-05 -1.6335945588e-05 -1.659109148e-05 -2.0829000732e-05 
-1.4008223843e-05 -1.9296679056e-05 -9.723947187e-06 -1.5638092918e-05 -9.570392649e-06 -1.4297708731e-05 -1.3236626728e-05 -1.5741471998e-05 -1.7399448552e-05 
-1.7944714273e-05 -2.0084811695e-05 -1.9339578103e-05 -1.8994489437e-05 -1.8243718841e-05 -1.5130679458e-05 -1.5155708752e-05 -1.1588225334e-05 -1.2190907228e-05 
-8.4915991465e-06 -9.5980522019e-06 -3.6702313935e-06 -5.4996462922e-06 4.3988078744e-06 1.6134805065e-06 1.34212587e-05 1.0264330172e-05 2.1239373382e-05 
1.846695568e-05 2.5913858735e-05 2.4760658562e-05 2.7531690648e-05 2.8635508443e-05 2.7677738217e-05 3.0859607705e-05 2.5005345378e-05 3.1303371543e-05 
2.173714347e-05 3.1805726394e-05 2.1289646611e-05 3.5011395084e-05 2.3659255021e-05 3.5732547076e-05 2.2529253329e-05 2.3954784865e-05 9.0255001624e-06 
4.1644909174e-06 -9.6154805078e-06 -1.1839790034e-05 -5.0729788086e-06 -1.0112829472e-06 -7.5755742728e-06 -9.738967492e-06 -1.0566645187e-05 -1.0109253026e-05 
-9.2837319698e-06 -6.5028387439e-06 -2.1114154265e-06 -1.1621011708e-08 -8.1150551523e-07 -2.3875336979e-06 -3.7158711734e-06 -5.0887766179e-06 -5.9007003301e-06 
-5.1297877235e-06 -3.1934819731e-06 -6.9128708446e-07 2.0490073211e-06 4.1694140904e-06 5.4347048248e-06 6.2315817559e-06 4.5232751518e-06 -7.4249214777e-08 
-4.5448519472e-06 -7.4039416518e-06 -7.6672520208e-06 -7.059192626e-06 -7.7195661561e-06 -8.1285751321e-06 -6.1883241642e-06 -1.427776283e-06 5.3445630783e-06 
1.1938598732e-05 1.6537776219e-05 1.9189066052e-05 2.0845715426e-05 2.1613137051e-05 2.0466517071e-05 1.6004172949e-05 7.4499004654e-06 -2.241199752e-06 
-9.6877671467e-06 -1.3911060887e-05 -1.5758737845e-05 -1.1043121219e-05 -2.246428096e-06 7.032569215e-06 1.4790240812e-05 2.1181976081e-05 2.6705716664e-05 
2.9743612231e-05 2.8574530461e-05 2.3893570415e-05 1.7032055666e-05 7.4964296601e-06 -2.231110966e-05 -2.2944280317e-05 -1.8572391582e-05 -1.4237311916e-05 
-1.1383532183e-05 -1.0636606476e-05 -1.0996493756e-05 -1.050357298e-05 -7.6794017332e-06 -3.4080276521e-06 3.4364532553e-08 2.3693320799e-06 4.4678201334e-06 
6.2724577674e-06 7.9539628359e-06 1.000076827e-05 1.3385793181e-05 2.1178056386e-05 3.24173634e-05 3.9181210923e-05 3.9533463678e-05 3.6340276893e-05 
3.0047219752e-05 2.3610282824e-05 1.8291576907e-05 1.188609599e-05 4.4892848089e-06 -2.4188344944e-06 -8.0668276041e-06 -1.2270372508e-05 -1.6877941789e-05 
-2.2799857561e-05 -2.6682072985e-05 -2.6502081255e-05 -2.3928068458e-05 -2.1261946586e-05 -1.9458625502e-05 -1.7966613996e-05 -1.6435327325e-05 -1.4845023088e-05 
-1.2923721897e-05 -1.0912959851e-05 -9.0913059694e-06 -6.620250133e-06 -1.7363807672e-06 5.8882110636e-06 1.4491251704e-05 2.2629583782e-05 2.9239236028e-05 
3.4079474972e-05 3.8311871322e-05 4.2919411499e-05 4.7610726142e-05 4.5256120757e-05 2.7876761578e-05 5.9414050497e-06 -8.4052572333e-06 -1.7889053197e-05 
-4.4522600717e-06 -1.1232442318e-06 -7.3717943678e-06 -8.879806046e-06 -8.7983651156e-06 -7.2070233728e-06 -2.7920490879e-06 2.1698070896e-06 3.0945134597e-06 
5.866527033e-07 -2.3597060022e-06 -4.5734084893e-06 -6.1547018504e-06 -7.3821616979e-06 -8.0384572811e-06 -8.3697937043e-06 -8.30649617e-06 -6.8537449351e-06 
-4.0465003863e-06 -6.3831104313e-07 2.1763117104e-06 7.1666854637e-06 9.3211669991e-06 2.2959582395e-06 -2.1038251816e-06 -3.8149406976e-06 -3.8057776806e-06 
-3.3705374491e-06 -1.9082161131e-06 1.9752247908e-06 8.3204893144e-06 1.5414372683e-05 2.0996340481e-05 2.4172361009e-05 2.5375752102e-05 2.5760287826e-05 
2.5179279874e-05 2.216779194e-05 1.6009941191e-05 7.4851493537e-06 -5.5622513173e-07 -5.7538811689e-06 -7.7150183415e-06 -4.4379798965e-06 -9.5548361969e-06 
2.9626966125e-06 9.8254964769e-06 1.5192251567e-05 1.9302748569e-05 2.2569595785e-05 2.5015872325e-05 2.5024268325e-05 2.0876861981e-05 1.4039548887e-05 
7.4879827707e-06 2.5500195306e-06 7.8100290466e-06 3.4840404055e-06 -1.0193877188e-05 -6.6620389703e-06 -2.0182931621e-05 -1.990904957e-05 -1.7773574655e-05 
-1.4459529439e-05 -1.1305090538e-05 -8.7069477104e-06 -6.3172159344e-06 -3.9489565609e-06 -2.122365089e-06 -8.5699167585e-07 6.4106795605e-07 2.4559296179e-06 
4.2822088062e-06 6.3581669565e-06 8.9232411256e-06 1.2581670717e-05 1.8801659462e-05 2.8992910302e-05 3.5542752812e-05 3.7380928916e-05 3.5761892832e-05 
3.1246753679e-05 2.5017620374e-05 1.7872711851e-05 1.0362616194e-05 3.1728725284e-06 -3.1644566539e-06 -8.2781765514e-06 -1.2781010128e-05 -1.7821147594e-05 
-2.3981948743e-05 -2.8423395179e-05 -2.8843272503e-05 -2.6784397505e-05 -2.3940679512e-05 -2.0577116629e-05 -1.6235051817e-05 -1.2140940726e-05 -9.749824244e-06 
-8.4489258825e-06 -6.958591257e-06 -5.2094175658e-06 -3.9236631721e-06 -1.2813616763e-06 4.4805426853e-06 1.2071402239e-05 2.0356632831e-05 2.8275459954e-05 
3.4430761843e-05 3.9310184548e-05 4.2776884584e-05 4.3310292313e-05 4.0292590711e-05 3.1797640986e-05 1.7502142271e-05 3.448473251e-06 -7.3118978889e-06 
-1.554946698e-05 -6.0138187337e-06 -3.9790466246e-06 -4.7205890894e-06 -2.6135182907e-09 6.1666959823e-06 1.1274433746e-05 1.4604613852e-05 1.6586342099e-05 
1.7603533934e-05 1.8522764094e-05 1.9001014834e-05 1.67578728e-05 1.2604922813e-05 7.9516910318e-06 3.7263555726e-06 4.5457649378e-07 -2.1308587037e-06 
-4.3481857404e-06 -5.8183837837e-06 -5.4106195648e-06 -2.903400258e-06 1.4409392008e-06 4.8278302529e-06 4.3584810214e-06 1.5968766292e-06 -1.1146295975e-06 
-3.3686889083e-06 -5.0450453841e-06 -6.7891023718e-06 -8.8440078798e-06 -1.0883205732e-05 -1.2243642686e-05 -1.1217508927e-05 -8.3258369159e-06 -5.4711612734e-06 
-3.1296683289e-06 -1.4211709072e-06 3.9478919405e-06 -4.1691035335e-07 8.2876628085e-06 1.0200763427e-05 9.102386457e-06 6.3443550005e-06 3.6721000356e-06 
2.3321699416e-06 1.7108774841e-06 1.8684709246e-06 3.6182009993e-06 7.8024432923e-06 1.4294686252e-05 2.1340648345e-05 2.6471630918e-05 2.8625347113e-05 
2.8507523893e-05 2.7754218536e-05 2.649810358e-05 2.3347451588e-05 1.7179966108e-05 8.9227854687e-06 1.9502759017e-06 -1.7482551158e-06 -2.6535159385e-06 
-1.9531114255e-06 -1.0240151376e-06 -2.2347190054e-06 -1.195983149e-06 -3.139811497e-06 -1.9443186375e-05 -1.9448794319e-05 -1.7383623572e-05 -1.3959085209e-05 
-1.0100241525e-05 -6.4782227582e-06 -3.5780830387e-06 -2.4622226817e-06 -2.4403642414e-06 -1.2177915636e-06 1.0895879541e-06 3.2832684269e-06 5.2803002291e-06 
7.3658825386e-06 1.0138671087e-05 1.2933656308e-05 3.0501923447e-05 2.5824771001e-05 3.297339299e-05 3.2890265175e-05 2.9696583169e-05 2.3388202862e-05 
1.5276369822e-05 7.7243993246e-06 1.7298104211e-06 -2.8500794116e-06 -6.6594665213e-06 -1.0912525227e-05 -1.6438803868e-05 -2.3000246983e-05 -2.7708640573e-05 
-2.8580051094e-05 -2.6790758511e-05 -2.3501697797e-05 -1.8799697045e-05 -1.3149529423e-05 -8.3060891711e-06 -5.6726655089e-06 -4.6937205411e-06 -3.2622396517e-06 
-1.0920190547e-06 -8.0938463043e-08 1.1876776966e-06 4.9257480441e-06 1.0814381312e-05 1.9000394332e-05 2.8399601433e-05 3.5926846067e-05 4.0538571739e-05 
4.2096514335e-05 4.0473925765e-05 3.8342066546e-05 3.4561462599e-05 2.5167887998e-05 1.3115920638e-05 1.4868518008e-06 -9.0990958199e-06 -1.6329202708e-05 
1.9619142677e-05 1.4669885104e-05 -1.922660573e-06 1.0665222874e-06 5.0046102729e-06 8.3255763457e-06 1.0498294387e-05 1.1417031601e-05 1.1461230088e-05 
1.1556110849e-05 1.2033876601e-05 1.1862883639e-05 1.2174497442e-05 3.4043434027e-06 7.4190096484e-06 1.0165248909e-06 -4.9970003602e-07 -2.0481320746e-06 
-2.7145202068e-06 -1.6072220319e-06 1.1837914826e-06 4.6569550989e-06 6.5834264205e-06 4.9036260634e-06 2.5568461837e-06 5.4383006898e-07 -8.8961583344e-07 
-2.4469239435e-06 -5.0563671721e-06 -8.7646666316e-06 -1.2272014828e-05 -1.4955405823e-05 -1.3607799701e-05 -1.0615510064e-05 -8.1292951108e-06 -7.3279775279e-06 
-5.6695705553e-06 -4.3948723487e-06 -3.0364230952e-07 -4.4118719416e-06 4.0763599145e-06 8.4553155375e-06 1.0263220247e-05 1.0268242022e-05 1.0374287058e-05 
9.7019587884e-06 8.1020230027e-06 7.2236553024e-06 7.4614123378e-06 9.0618104878e-06 1.2767493558e-05 1.8664961544e-05 2.5140644084e-05 2.9425129924e-05 
3.0123570923e-05 2.8662303066e-05 2.7074851459e-05 2.5551319595e-05 2.2790954972e-05 1.7402411459e-05 1.0193459389e-05 4.2871556332e-06 1.2956268733e-06 
1.5028385256e-06 1.7506801235e-06 1.2456224674e-06 -4.807710674e-07 -2.2731477145e-06 -2.5472746472e-06 -1.8187470232e-06 1.1562855661e-05 1.3575267985e-05 
1.9043691282e-05 1.5375794874e-05 2.3031749151e-05 2.5968275168e-05 2.8234210276e-05 2.8725901757e-05 2.6228742627e-05 2.0455715912e-05 1.298078314e-05 
6.2506634322e-06 1.3795020148e-06 -1.9547250023e-06 -4.7347514283e-06 -8.0177205746e-06 -1.2859650815e-05 -2.0760214738e-05 -2.5202194138e-05 -2.6073969821e-05 
-2.459085681e-05 -2.1275013296e-05 -1.5906791305e-05 -1.0066271898e-05 -5.7282771309e-06 -3.2908867809e-06 -2.2709254779e-06 -6.6325130632e-07 1.8918972913e-06 
3.3621826105e-06 4.4334855431e-06 7.1687122727e-06 1.2268106161e-05 2.009949776e-05 2.9466092201e-05 3.6922166146e-05 4.1535572564e-05 4.3366944737e-05 
4.205510686e-05 3.9840163481e-05 3.6672987335e-05 2.9356305731e-05 1.8636000505e-05 6.749411483e-06 -4.9113430975e-06 -1.3574137029e-05 -1.8211893348e-05 
-1.967715707e-05 -1.8801224996e-05 -1.6171515881e-05 -1.2836042515e-05 -9.5216166756e-06 -6.4982706363e-06 -4.6778629894e-06 -4.1373175463e-06 -2.5559460113e-06 
5.1790546252e-07 3.3452918728e-06 5.1576229225e-06 6.825719197e-06 9.0490402727e-06 1.0963092564e-05 1.2558906747e-05 1.3724984001e-05 1.5621069224e-05 
1.420142712e-05 1.7656629401e-05 -6.5019898443e-07 1.1578107575e-06 3.0434784861e-06 4.6465659693e-06 5.0124683355e-06 4.8439135014e-06 5.0477652849e-06 
6.139677339e-06 7.8238177821e-06 9.8305562233e-06 1.2214291701e-05 1.3039897794e-05 1.2767201042e-05 9.237606605e-06 5.189014189e-06 3.0665981967e-06 
1.6090960742e-06 2.9562938231e-07 -8.1248401074e-07 -4.185168283e-07 1.1000394124e-06 3.6781174515e-06 6.3233597984e-06 8.1035427684e-06 4.504692015e-06 
6.0868424043e-06 2.8789168596e-06 1.6024021505e-06 -4.4112785721e-08 -2.4488955912e-06 -8.2664909087e-06 -1.2465920008e-05 -1.5594261868e-05 -1.1053507251e-05 
-1.4465581671e-05 7.8051674564e-06 9.3576638847e-06 -1.6612388663e-05 -1.693650529e-05 -8.2663152625e-06 -9.6041795814e-06 -8.2615953261e-06 -4.9399993145e-06 
-9.4396473287e-06 3.3097563801e-07 5.6324405477e-06 9.6195852848e-06 1.1636926956e-05 1.2576424342e-05 1.2231497749e-05 1.2623622297e-05 1.3380673181e-05 
1.4842303699e-05 1.7690446157e-05 2.2103611627e-05 2.6620701647e-05 2.9211527362e-05 2.902095639e-05 2.7219055482e-05 2.5271544473e-05 2.3359321403e-05 
2.0655937988e-05 1.6323032696e-05 1.011507693e-05 5.1311884022e-06 4.7554282787e-06 3.3662118142e-06 7.367003505e-07 -2.3383942036e-06 -4.4987207275e-06 
-5.000281817e-06 -3.0002088636e-06 1.9356871235e-05 2.1408292469e-05 2.2990365323e-05 2.3387106467e-05 2.1594437385e-05 1.7217144887e-05 1.1700468349e-05 
6.8142315968e-06 2.9479325629e-06 1.603820774e-07 -1.9313759623e-06 -4.1199807299e-06 -6.0253761944e-06 -2.1557515538e-05 -1.802480142e-05 -2.2163583253e-05 
-2.0685994059e-05 -1.7791330265e-05 -1.338123252e-05 -8.5044423486e-06 -4.8253598948e-06 -2.3398277165e-06 -7.1973428817e-07 8.5130611183e-07 4.4683609076e-06 
6.5593634417e-06 8.229179798e-06 1.0978879459e-05 1.5648975932e-05 2.2255539989e-05 2.9579683996e-05 3.6007094423e-05 3.9924636803e-05 4.3468320655e-05 
4.2966882575e-05 3.9747871597e-05 3.5533636037e-05 2.972070979e-05 2.1928794013e-05 1.1215665552e-05 -9.4309126553e-07 -1.0145054603e-05 -1.572747351e-05 
-1.817374141e-05 -1.7936452878e-05 -1.6083435185e-05 -1.4038758081e-05 -1.2174989251e-05 -9.8952760936e-06 -7.5058571838e-06 -5.475513035e-06 -2.9647852102e-06 
4.7264677505e-07 3.7603481928e-06 5.873510986e-06 7.3443146675e-06 9.0468047347e-06 1.0468707387e-05 1.1734433656e-05 1.2802456922e-05 1.3045596006e-05 
1.398571726e-05 1.2368560192e-05 1.6150906959e-05 -1.2561639096e-05 -7.0519971587e-06 8.4067124817e-06 1.1131586575e-05 1.8218008563e-05 1.6790177597e-05 
1.8984350845e-05 2.0074483928e-05 2.1996546366e-05 2.4557162305e-05 2.6261925086e-05 2.6874906689e-05 2.7007004064e-05 2.6447804885e-05 2.4324391688e-05 
2.1461165034e-05 1.8406250547e-05 1.4937619881e-05 1.1454675359e-05 7.2654754604e-06 9.0851507366e-06 -2.898924933e-06 -1.9229919559e-06 -9.9213229987e-07 
-9.0367612415e-07 -1.1253420951e-06 -1.2201654044e-06 2.0204900579e-06 4.4733902769e-06 6.3517663875e-06 8.4567861904e-06 9.1088498948e-06 1.1124674984e-05 
6.9576611168e-06 1.0535047522e-05 6.420613488e-06 3.567080455e-06 3.0240812521e-06 2.1421941057e-06 9.1863568308e-07 2.4154670655e-06 4.6985961717e-06 
7.0169545552e-06 8.7520411398e-06 1.0121599871e-05 1.0460429166e-05 1.1429811138e-05 9.1043928023e-06 7.8721903947e-06 6.5587948939e-06 4.6919187184e-06 
2.2058793232e-06 -1.1879316389e-05 -1.3488132754e-05 -1.1892873545e-05 -4.4946065373e-06 -1.2065276678e-05 3.1869128065e-06 1.6730137077e-05 1.6797896478e-05 
1.6548391613e-05 1.5664390958e-05 1.3522877452e-05 1.058313137e-05 8.3368403239e-06 3.192923387e-06 1.2963549665e-06 -3.3014005396e-07 -2.0054627754e-06 
-1.7357729803e-05 -1.5047891111e-05 -1.7680373276e-05 -1.6257990183e-05 -1.4022281903e-05 -1.1341335949e-05 -8.1012399278e-06 -5.023876156e-06 -2.0310302382e-06 
4.7717686513e-07 1.5583107142e-06 3.9893745338e-06 1.1991707879e-05 9.5713355677e-06 1.5089077579e-05 1.9073406975e-05 2.4020049295e-05 2.8938411106e-05 
3.3712741242e-05 3.5771198782e-05 4.061366144e-05 4.1127269469e-05 3.6412905501e-05 3.1419527204e-05 2.6761215395e-05 2.1626051876e-05 1.3778765947e-05 
4.1974453779e-06 8.3024564219e-06 7.1906246149e-06 1.5766689785e-05 1.4924389916e-05 3.7823193452e-05 3.3765862554e-05 -1.508918831e-05 -1.5292335775e-05 
-1.4485971406e-05 -1.4129861484e-05 -1.4230245142e-05 -1.3299996453e-05 -1.0720603768e-05 -7.2980743653e-06 -3.3825293428e-06 6.6948589961e-07 4.1726834752e-06 
6.5844450319e-06 8.1196986912e-06 9.4038002771e-06 1.0343501951e-05 1.10317701e-05 1.1951630313e-05 1.2211918147e-05 1.0852040759e-05 -8.4703680159e-06 
-3.3211210027e-06 -1.1895649247e-05 -1.3527469491e-05 -1.447030786e-05 -1.584608458e-05 -1.3357248235e-05 -1.5872347831e-05 -1.2438400972e-05 -1.3043789068e-05 
-1.117301349e-05 -9.9901783415e-06 -7.907414215e-06 -5.2234330497e-06 -1.9866099414e-06 2.0840748817e-06 5.4399268379e-06 -8.905784739e-06 -3.8374433302e-06 
9.2818504527e-07 4.6837616878e-06 7.3142614383e-06 9.0931162049e-06 1.0213214864e-05 1.1284240281e-05 1.1370514358e-05 1.0688240991e-05 9.7025601917e-06 
7.9457971651e-06 5.4880737252e-06 1.7094534681e-06 1.2358277309e-05 1.1298546042e-05 9.9384136547e-06 9.3756531214e-06 9.1848689863e-06 8.6476823071e-06 
9.2185184712e-06 3.117626818e-06 5.1498344078e-06 7.5354674891e-06 9.2548093562e-06 7.936303291e-06 4.9483805924e-06 3.1849658626e-06 3.1828236615e-06 
1.1477049156e-05 1.0605531088e-05 8.6944393161e-06 5.845142482e-06 1.3989743763e-06 -4.0183364547e-06 -9.2808038517e-06 -9.6246906196e-06 5.702051188e-06 
4.5841101723e-06 2.8126711555e-06 1.0428494051e-06 -1.140218842e-05 -6.888398957e-06 -5.9511329709e-06 -5.6625647176e-06 -7.007110662e-06 -6.286288567e-06 
-6.2837145265e-06 -1.2407223949e-05 -1.9278335609e-07 1.0318638715e-05 1.1997855154e-05 1.5043169924e-05 1.8465936137e-05 2.1475602807e-05 2.4894150556e-05 
2.8254914923e-05 3.1029431739e-05 3.2343551538e-05 3.0392297958e-05 3.1367994779e-05 2.7868623874e-05 3.4826114643e-05 3.6758110582e-05 3.6120994992e-05 
3.2551583899e-05 2.6992167113e-05 2.2622552478e-05 1.858310543e-05 1.4043617512e-05 8.3551876742e-06 1.7537310365e-05 1.9360766601e-05 2.1644585104e-05 
2.307564182e-05 2.3809698178e-05 2.4922899684e-05 2.6048498967e-05 2.7207231597e-05 2.7073012006e-05 2.7805215268e-05 2.6463225822e-05 2.3906647584e-05 
2.0700126333e-05 1.6946962887e-05 1.3710268149e-05 1.1695742311e-05 -7.3937927709e-06 2.2232605261e-05 2.4286737244e-05 2.7152817438e-05 2.8935186947e-05 
2.9778596703e-05 3.0540394164e-05 3.1126577142e-05 2.8474638839e-05 2.6411800718e-05 6.8411312289e-06 5.682595372e-06 8.350615758e-06 5.5616170812e-06 
9.6727771961e-06 -4.1631561203e-06 1.169730524e-06 5.4287769444e-06 8.2865653894e-06 1.0157469205e-05 2.7499821044e-05 3.0105446058e-05 3.0923158192e-05 
-9.9600147223e-06 -1.1207537455e-05 -9.9196374019e-06 -8.9586872036e-06 -8.5065255462e-06 -8.9679100104e-06 4.8073338803e-06 -1.2310508282e-05 -2.8457026531e-06 

Disp_X 1 1116 double
0 0 -5.0660109991e-05 -6.6735032306e-05 0 -4.0593262383e-05 0 -2.3793114451e-05 0 
-8.748484106e-06 0 1.8351001927e-06 0 1.2023121599e-05 0 1.8901180738e-05 0 1.837858872e-05 
0 2.3409593268e-05 0 2.790216422e-05 0 3.4488712117e-05 0 3.4358341509e-05 0 
3.5091132304e-05 0 3.4398890421e-05 0 3.3227275708e-05 0 2.7199006581e-05 0 1.8496077246e-05 
0 1.0816770555e-05 0 1.1868127331e-05 0 1.5726342099e-05 0 1.8406186427e-05 0 
2.4019616831e-05 0 2.5735327654e-05 0 2.9133694625e-05 0 3.3364034607e-05 0 3.2756513974e-05 
0 3.569430919e-05 0 3.5161665437e-05 0 3.4057342418e-05 0 3.2374809962e-05 0 
2.8169515645e-05 0 1.7854124962e-05 0 1.1015618838e-05 0 1.9357839847e-06 0 -1.3555219311e-06 
0 -5.1367824199e-06 0 -1.2603990399e-05 0 -1.6983722162e-05 0 -1.6812453396e-05 0 
-1.7928436137e-05 0 -1.383288145e-05 0 -7.9352575995e-06 0 -5.3190119615e-06 0 -8.8200476966e-07 
0 8.164411156e-06 0 9.4642009572e-06 0 1.1293874422e-06 0 -1.0492672118e-05 0 
-2.0723224225e-05 0 -2.4343738914e-05 0 -2.4644068617e-05 0 -3.1589945138e-05 0 -4.5948978368e-05 
0 -5.909058018e-05 0 -6.5482236096e-05 0 0 -7.6827649309e-07 -1.0184799976e-05 0 
9.3513763204e-06 0 2.520081398e-05 0 3.5832450521e-05 0 4.7541561798e-05 0 5.2378494729e-05 
0 5.6670891354e-05 0 5.0232581998e-05 0 4.8046673328e-05 0 3.154807564e-05 0 
2.1866882889e-05 0 1.1760162124e-05 0 4.0652794269e-06 0 -4.4665052883e-06 0 -1.5122726836e-05 
0 -1.8637410903e-05 0 -2.1859936169e-05 0 -1.6031000996e-05 0 -1.5046272893e-05 0 
-1.6603826225e-05 0 -1.2230194443e-05 0 -2.0534762371e-05 0 -2.2227821319e-05 0 -1.9279128537e-05 
0 -3.0068225897e-05 0 -4.7812474804e-05 0 -5.5167110986e-05 0 -5.1782833907e-05 0 
-4.6538541937e-05 0 -3.955154898e-05 0 -5.0508213462e-05 -2.4994176783e-05 -5.4138527048e-05 0 -5.9416470322e-05 
0 -5.7419874793e-05 0 -5.4953325161e-05 0 -4.8902053095e-05 0 -4.6083583584e-05 0 
-4.4386459194e-05 0 -4.5143373427e-05 0 -5.1884551795e-05 0 -5.2382572903e-05 0 -5.0111611927e-05 
0 -4.4246542529e-05 0 -3.6204794014e-05 0 -2.3179838536e-05 0 -8.7483558673e-06 0 
1.060393879e-05 0 2.5003757401e-05 0 3.8950649468e-05 0 5.193620018e-05 0 4.7718905989e-05 
0 3.9783404645e-05 0 1.8707552954e-05 0 1.8232403818e-06 0 -1.4705316062e-05 0 
-2.2668315069e-05 0 -1.9258361135e-05 -7.2871007433e-05 -9.0487672423e-05 -4.970828013e-05 -2.4317920179e-05 -2.7533958473e-06 1.4312341591e-05 
2.691060763e-05 3.3586213249e-05 4.1010156565e-05 4.7374178394e-05 5.1859966334e-05 5.4101663409e-05 5.6121800299e-05 5.3354684496e-05 4.7967139835e-05 
3.4230666643e-05 2.766549369e-05 2.086278073e-05 2.5997567718e-05 3.0158164009e-05 3.1635365303e-05 2.9434237149e-05 3.0852188502e-05 3.490637755e-05 
4.1779818275e-05 4.6853561798e-05 5.3734471294e-05 5.8684421674e-05 6.0976672103e-05 5.8992987761e-05 5.1853887271e-05 3.7695768697e-05 2.4616090741e-05 
8.1638572738e-06 -1.6412117532e-07 -6.3183624661e-06 -1.5450523279e-05 -2.7036772735e-05 -3.4182488889e-05 -3.4756132663e-05 -2.9360244298e-05 -2.481230149e-05 
-2.198014954e-05 -1.3487172509e-05 4.4713283387e-06 8.0888357843e-06 -2.507070576e-06 -2.2107877157e-05 -4.0428803914e-05 -5.1700098993e-05 -5.5590651755e-05 
-6.4551932155e-05 -7.7896438597e-05 -9.0208501206e-05 -9.8408505437e-05 -9.812060307e-05 1.1023614206e-05 -6.0928355197e-06 3.2241747249e-05 5.2232229791e-05 
6.8088840635e-05 7.7765980677e-05 8.2164893684e-05 7.4308802141e-05 6.387616304e-05 4.578390508e-05 3.3292613807e-05 2.0162231522e-05 8.3677341536e-06 
-6.4007354013e-06 -1.8295117115e-05 -2.3987979148e-05 -2.3583339498e-05 -1.7002688764e-05 -1.5941788661e-05 -1.6917763787e-05 -1.576408431e-05 -2.529752237e-05 
-3.1161296647e-05 -4.079224891e-05 -5.565673564e-05 -6.8514396844e-05 -7.7405042248e-05 -7.8897544881e-05 -7.6435331721e-05 -7.3907111073e-05 -7.6344702393e-05 
-8.1761900219e-05 -8.7594002252e-05 -8.7211446953e-05 -8.1898942881e-05 -7.33078341e-05 -6.762346311e-05 -6.4710518927e-05 -6.6692649852e-05 -7.330403605e-05 
-7.5987976743e-05 -7.2564318543e-05 -6.4895066316e-05 -5.2900410083e-05 -3.7727608287e-05 -1.7803860828e-05 7.6205569712e-06 3.1166211556e-05 5.3431362176e-05 
7.165021816e-05 7.2549111792e-05 6.4580024628e-05 4.5631699322e-05 1.6584868717e-05 -2.161665725e-05 -4.0003302274e-05 -3.4215401683e-05 -2.2349091523e-05 
-6.937510625e-05 -9.1305366368e-05 -3.9646976802e-05 -1.2818118194e-05 9.5693558251e-06 2.7470412533e-05 3.9725007809e-05 4.8150512157e-05 5.4913572967e-05 
6.0149355704e-05 6.3664723712e-05 6.5184241976e-05 6.1191654822e-05 4.9522903282e-05 3.6114954128e-05 3.2377392927e-05 3.2863321394e-05 3.6879984691e-05 
3.794613076e-05 3.5584864236e-05 2.8918348107e-05 2.4463724912e-05 1.9619510567e-05 3.4307344322e-05 4.7501704103e-05 6.0216185375e-05 6.9021349191e-05 
7.2849252319e-05 7.2336297308e-05 6.5793887188e-05 5.3340052546e-05 3.7763191358e-05 1.6225860236e-05 -3.5307959223e-08 -1.220289505e-05 -2.4064480385e-05 
-3.4126529499e-05 -4.187270315e-05 -4.4446100219e-05 -3.9589082007e-05 -3.4629909351e-05 -3.2195184758e-05 -2.6904142942e-05 3.8378748286e-06 1.0292668549e-06 
-9.8989485195e-06 -3.5733773984e-05 -6.1308412114e-05 -7.8144286817e-05 -8.7217900727e-05 -9.8288524896e-05 -0.00010536829359 -0.00011458552035 -0.00012304499978 
-0.00011872652249 -0.00011345525127 1.6759482605e-05 2.1399146135e-05 -1.206133129e-05 -2.1637173631e-05 3.8730682718e-05 1.2289941878e-05 6.1691287556e-05 
8.0206133134e-05 8.9463384938e-05 9.2850561487e-05 8.4813822468e-05 7.5446929259e-05 6.2236736994e-05 4.3778902182e-05 2.8369449865e-05 1.0943296729e-05 
-7.275900316e-06 -2.1410634872e-05 -2.6537225494e-05 -2.2334474124e-05 -1.2355350918e-05 -1.2405849702e-05 -1.6452051568e-05 -2.0856865376e-05 -3.4636097553e-05 
-4.8941619752e-05 -6.8018423917e-05 -8.3824597823e-05 -9.339407552e-05 -9.703017713e-05 -9.7797732451e-05 -9.9095377664e-05 -9.9211814813e-05 -0.00010019032925 
-0.0001027369799 -0.00010351419041 -9.8053984402e-05 -9.2567344836e-05 -8.559635171e-05 -8.0502963101e-05 -7.6590331446e-05 -7.6739757787e-05 -7.7975681052e-05 
-7.7491706179e-05 -7.3358765803e-05 -6.5000269387e-05 -5.3573952755e-05 -3.9554313844e-05 -2.0054232664e-05 6.3930269789e-06 3.3998363506e-05 6.0385271354e-05 
8.2224360085e-05 8.9662520622e-05 8.6710882897e-05 6.6947388405e-05 3.1332623621e-05 -1.0786742678e-05 -4.3559412006e-05 -4.5171807869e-05 -3.182718865e-05 
-1.1182391063e-05 -9.8976242953e-06 -1.5162097952e-05 -3.0039950616e-06 -3.1534380014e-06 -2.05092947e-05 -5.130574209e-05 -8.0453828559e-05 -0.00010217750969 
-0.00011595895194 -0.00012519634038 -0.00012760212121 -0.00013271028001 -0.0001461301581 -0.00013835694699 -0.0001213323485 -0.00010494692833 -8.2558908616e-05 
-5.3742747696e-05 -2.3973490897e-05 1.482576522e-06 2.17347133e-05 3.6777808418e-05 4.7984631237e-05 5.7134260715e-05 6.3274987042e-05 6.6254789999e-05 
6.5598302172e-05 5.7991164795e-05 4.5365632104e-05 3.6413366615e-05 3.8443220546e-05 4.4003627409e-05 4.7517856729e-05 4.4189226173e-05 4.0916762373e-05 
3.4484150092e-05 2.9405777241e-05 1.2538163901e-05 2.2392450774e-05 9.0015755632e-06 9.5109726317e-06 1.3180082533e-05 2.4028706321e-05 4.1633611545e-05 
6.0008438595e-05 7.3048962804e-05 7.9356090282e-05 7.9885045125e-05 7.4757692346e-05 6.4183725044e-05 4.4899014028e-05 1.9051967683e-05 -2.64913092e-06 
-2.1771124011e-05 -3.5194909287e-05 -4.0462247853e-05 -4.4858195906e-05 -4.5511304052e-05 -4.3566265958e-05 -3.8374950236e-05 -3.3797201468e-05 -2.9598948458e-05 
-2.2847352739e-05 -1.7378624761e-05 -1.1113768778e-05 -1.4537235984e-05 -8.5340952864e-06 6.8334607931e-05 4.2051502533e-05 8.8134234829e-05 9.7599695437e-05 
0.00010041240603 9.4330905995e-05 8.3406477643e-05 6.8214147177e-05 4.8938763939e-05 2.7928368581e-05 6.496954029e-06 -1.2944585251e-05 -2.6880497899e-05 
-2.9307266232e-05 -2.3541406335e-05 -1.4759451915e-05 -1.8170214389e-05 -1.1404835277e-05 -2.8046799343e-05 -4.6046825446e-05 -6.6863816755e-05 -8.8420267275e-05 
-0.00010459887562 -0.00011332205759 -0.00011715658911 -0.00011385758989 -0.00011616826669 -0.00011975957023 -0.00012038964633 -0.0001172353368 -0.00011137453839 
-0.00010284307791 -9.5952105767e-05 -9.0080822702e-05 -8.5599407612e-05 -8.1138459791e-05 -7.7710188634e-05 -7.4082818173e-05 -6.990035763e-05 -6.3683452026e-05 
-5.5307507864e-05 -4.4652937504e-05 -3.226688932e-05 -1.4116058992e-05 9.7818574432e-06 3.5483553802e-05 6.3492501795e-05 8.6210835434e-05 9.7996206023e-05 
9.503349429e-05 7.536252815e-05 4.4021187932e-05 6.9954585342e-06 -3.0332608731e-05 -4.3589072448e-05 -3.5274628317e-05 -1.3963252968e-05 1.2766716281e-05 
-7.9633855421e-06 -6.4769769779e-06 -5.4021543292e-06 -8.4903722382e-06 -2.8286296583e-05 -6.0520997067e-05 -9.3267430202e-05 -0.0001192871714 -0.00013587587455 
-0.00014502489648 -0.00014449309674 -0.00014413543977 -0.00015246686235 -0.00012747776054 -0.00014440815721 -0.00011112128414 -8.4549494204e-05 -5.9547892306e-05 
-3.5341126932e-05 -1.0580123671e-05 1.0708231457e-05 2.719942313e-05 4.1029186832e-05 5.431847967e-05 6.0514921643e-05 6.1729988374e-05 5.7929719333e-05 
4.869728582e-05 3.6522858863e-05 3.276746429e-05 4.0580725909e-05 5.7608023781e-05 5.8702869865e-05 5.1458588132e-05 4.5827087888e-05 4.4856078603e-05 
3.9752801968e-05 3.4913096897e-05 1.4567630387e-05 2.8537082471e-05 5.7686888795e-06 3.2011785152e-06 4.0860531954e-06 5.1505758165e-06 1.3496300198e-05 
3.2526644645e-05 5.5795735534e-05 7.3537696153e-05 8.2886203018e-05 8.5214320279e-05 8.1332043919e-05 7.0906178735e-05 5.1822262321e-05 2.4985378332e-05 
-1.8431178432e-06 -2.5895373255e-05 -4.003558206e-05 -4.4809650717e-05 -4.6033539547e-05 -4.3717849621e-05 -4.0488092054e-05 -3.6508881749e-05 -3.2673240639e-05 
-2.8776736144e-05 -2.1700525394e-05 -1.7443599063e-05 -1.8593667846e-05 -1.7127968022e-05 -2.4900056815e-05 -9.3119797384e-06 -0.00015701926895 -0.00015812691709 
-4.9227555792e-06 -1.6835024326e-06 -1.1878461009e-05 -2.2755471946e-05 -3.9299167838e-05 -5.9808357037e-05 -8.3354439994e-05 -0.00010630010365 -0.00012209400302 
-0.00012980835163 -0.00013014495198 -0.00012796801457 -0.00013116998889 -0.00013686579769 -0.00014004448894 -0.00012766946747 -0.00011444156553 -0.0001036005051 
-9.5818686532e-05 -9.0419409389e-05 -8.6065869255e-05 -7.9794692283e-05 -7.2901333624e-05 -6.5550644649e-05 -5.8382454881e-05 -5.054605208e-05 -4.0020546294e-05 
-3.0731083825e-05 -2.1328305593e-05 -6.4846403802e-06 1.436164348e-05 3.8977650547e-05 6.5734086093e-05 8.6549545813e-05 9.863449668e-05 9.4756629551e-05 
7.7268814493e-05 5.3178315284e-05 2.591464181e-05 -9.8501777757e-06 -3.0388882806e-05 -3.0629045796e-05 -1.2927825992e-05 1.3309703718e-05 4.2299012421e-05 
6.8385423219e-05 8.7520595116e-05 9.7023868875e-05 9.960236639e-05 9.5148192486e-05 8.4951898316e-05 6.8839945015e-05 4.7517358325e-05 2.3719027013e-05 
6.1933462803e-07 -1.7345189917e-05 -2.9808936233e-05 -2.9573398933e-05 -2.4262839361e-05 -1.4939933862e-05 -5.5637719925e-06 1.5666336139e-06 -1.293653213e-06 
4.8364595386e-06 -5.4154029385e-06 -1.4585142708e-05 -3.1791791116e-05 -6.2349259679e-05 -9.7496857052e-05 -0.00012618399342 -0.00014601334988 -0.00015557520965 
-0.00015459423594 -0.0001507831912 -0.00014881938114 -0.00015003162844 -0.00015879199782 -0.00015212612925 -0.0001569686865 -0.00014506661682 -0.00012743537081 
-0.00010435212607 -8.0337093095e-05 -6.2940700445e-05 -4.8198973673e-05 -2.6601801437e-05 -5.1654142226e-06 1.1208820979e-05 2.2866923246e-05 5.3454765293e-05 
4.99830021e-05 5.1683397032e-05 4.6345925512e-05 4.0298578824e-05 2.6007815904e-05 2.6472098398e-05 3.6031990021e-05 4.9004502216e-05 5.5697109929e-05 
6.5078340413e-05 4.1291790694e-05 2.8893751733e-05 6.8014822318e-05 5.9514688473e-05 4.8690217227e-05 5.4339470807e-05 4.4593023631e-05 2.2072232241e-05 
3.9936632675e-05 6.3377356128e-06 -1.4972224562e-06 -1.4119701746e-06 2.5771059882e-06 2.1170797481e-05 5.5097614677e-05 7.4154573667e-05 8.5421037511e-05 
8.9093977294e-05 8.6483916675e-05 7.7331875218e-05 5.9413760027e-05 3.4771597711e-05 7.5191233009e-06 -1.8091724996e-05 -3.5295841371e-05 -4.0210739826e-05 
-4.1426479584e-05 -3.8937178033e-05 -3.2076150092e-05 -2.9628563425e-05 -2.1024252419e-05 -1.6932333892e-05 -2.1487039703e-05 -3.1203460821e-05 -3.4084496292e-05 
-4.1886920371e-05 -2.3817872716e-05 -1.2109319869e-05 -2.4683664378e-05 -4.5525415771e-05 -6.9525187428e-05 -9.5940980827e-05 -0.00011958651885 -0.00013560288062 
-0.00014087585441 -0.00013898251927 -0.00013749818027 -0.00014092074707 -0.0001471213327 -0.00015313294716 -0.00011604268366 -0.00013063168444 -0.00010320966976 
-9.3907634437e-05 -8.7355714641e-05 -8.1972953922e-05 -7.4194802437e-05 -6.5499771154e-05 -5.5912154494e-05 -4.697751865e-05 -3.8189078623e-05 -2.4234157536e-05 
-1.8068396457e-05 -1.0935606042e-05 8.2070692997e-07 1.7619449864e-05 3.7934529246e-05 6.1593680584e-05 8.1367114035e-05 9.6213756478e-05 9.4955961686e-05 
7.9982906755e-05 6.1472012021e-05 4.1171435441e-05 8.0837025962e-06 -1.4879487026e-05 -2.225188291e-05 -1.1305626685e-05 1.2537066141e-05 4.0688311856e-05 
6.4504129114e-05 8.1084959675e-05 9.0309782536e-05 9.3360540632e-05 9.0191620984e-05 8.0354890088e-05 6.43389576e-05 4.2616833525e-05 1.9738414267e-05 
-2.6585078103e-06 -1.7413944079e-05 -2.6964127755e-05 -2.5838950023e-05 -2.1158302843e-05 -1.293000787e-05 -2.331634505e-06 7.5447146628e-06 1.2656847503e-05 
3.6396863834e-07 1.0700883649e-05 -8.0303907453e-06 -0.00014504104911 -0.00015608499234 -3.8338725972e-06 1.7357176603e-06 7.6989388617e-05 5.8038629504e-05 
8.7911146693e-05 9.2795162345e-05 9.0872454166e-05 8.4151623014e-05 7.1842878242e-05 5.2712508477e-05 2.1882964575e-05 -4.0396962504e-06 -2.2882275516e-05 
-3.028309402e-05 -3.2881780498e-05 -3.12370139e-05 -2.6324469218e-05 -2.0556663003e-05 -2.0096351363e-05 -3.8681904698e-05 -6.4541767642e-05 -9.735157073e-05 
-0.00012737474754 -0.00014781326172 -0.00015940082085 -0.00015821767738 -0.00015346954751 -0.00014815735631 -0.00014503127022 -0.00014542060671 -0.00015200259804 
-0.00014493514027 -0.00015657643962 -0.00015181818162 -0.00013730577484 -0.00011520185217 -8.8753651653e-05 -6.6420921939e-05 -4.5328422857e-05 -2.3975542717e-05 
-6.2750214056e-06 6.8243871283e-06 1.5662009901e-05 3.1133749872e-05 2.0943705749e-05 3.9153128455e-05 4.407682718e-05 4.4198066462e-05 3.8940939703e-05 
3.2373198337e-05 6.4757681685e-05 7.0433874498e-05 5.9305788454e-05 9.345266335e-06 3.794348595e-05 -3.3182170682e-06 -2.2362964955e-05 -4.5401651732e-05 
-7.2423237725e-05 -0.00010219095566 -0.0001273129019 -0.00014357668988 -0.0001485053217 -0.0001408012904 -0.00014389950957 -0.00015028555936 -0.00015646140673 
-0.00011515308142 -0.00013020944607 -0.00010087799456 -8.9668872533e-05 -8.1432925072e-05 -7.5002804806e-05 -6.6983746365e-05 -5.7378591009e-05 -4.674165757e-05 
-3.6720401113e-05 -3.0996699934e-05 -2.1710950023e-05 -6.7671517172e-06 -1.2570451872e-05 3.0714397781e-06 1.6528429114e-05 3.2764008211e-05 5.208958828e-05 
6.9944158895e-05 8.3527324023e-05 8.4812767454e-05 9.28962545e-05 7.0991642133e-05 5.3185132856e-05 2.2928559702e-05 -6.7318484298e-07 -1.3280186977e-05 
-1.150283606e-05 -1.6181435058e-05 -1.7204192773e-05 3.4388813219e-05 1.3796956409e-05 9.6550829767e-05 8.855672786e-05 5.8542500483e-05 7.1404007031e-05 
7.9841775005e-05 8.3309038018e-05 8.245929348e-05 7.2388320405e-05 5.6531956943e-05 3.5767174268e-05 1.4866979654e-05 -3.6285832721e-06 -1.4518313947e-05 
-1.9843106202e-05 -1.7221551389e-05 -1.2934186088e-05 -8.6319232651e-06 5.9753443793e-07 1.2613842955e-05 2.0516736186e-05 1.9086098746e-06 2.3422267986e-05 
1.7070064132e-05 3.2086547435e-05 3.786234447e-05 4.4201617129e-05 6.5125568653e-05 4.9274887715e-05 7.4369578215e-05 -8.2968952483e-05 -9.5501098258e-05 
-7.3677911132e-05 -6.7032837251e-05 -5.8577992604e-05 -4.9072412367e-05 -3.7730151234e-05 -2.4551995011e-05 -1.7098400349e-05 3.0092056477e-05 1.2710514056e-05 
-1.3484133206e-06 -7.0883415901e-06 -8.8315628091e-06 -4.3070863285e-06 -6.5896165324e-07 1.6367921489e-05 2.6822830478e-05 3.2458727219e-05 3.4688593587e-05 
3.1755153032e-05 2.5271019695e-05 1.9875395083e-05 -1.5188373254e-05 -4.1616222006e-05 -7.1427755756e-05 -0.00010533975001 -0.0001310978696 -0.00014552767971 
-0.00015152079868 -6.7703644163e-05 -4.510204235e-05 -2.325067544e-05 -8.006310054e-06 -0.00015067581262 -0.0001425586961 -0.00012347415031 -9.4797644124e-05 
2.4771279641e-05 2.2633243134e-05 1.7569806005e-05 1.2831567801e-05 1.029210398e-05 1.4208627363e-05 2.5488821848e-05 2.6781513952e-05 -0.00014272157568 
-0.00014436744095 -0.00014931167243 -0.00015487447672 -0.00014353675942 -0.00015356513904 -4.9103888159e-05 -6.916984421e-05 -9.8604738014e-05 -0.00012524126214 
-0.00014348595869 -0.00011059050303 -0.00015791495389 -1.8035474568e-05 -1.5130362044e-05 -1.0522750927e-05 -6.9581227535e-07 1.1119946976e-05 2.4520020816e-05 
4.0418690332e-05 5.6291471992e-05 6.8327499321e-05 7.2684997576e-05 8.8617773145e-05 7.7047319792e-05 9.3444476079e-05 9.2210459115e-05 8.9024506451e-05 
7.9221950728e-05 6.4284991822e-05 3.5985609429e-05 1.2737924408e-05 -1.4775879436e-06 -6.8850786192e-06 2.1852702048e-05 4.0073238779e-05 6.1661579821e-05 
7.9083612945e-05 8.8532127847e-05 9.4579991128e-05 9.3657377874e-05 8.9435481641e-05 3.2800111512e-05 5.319414413e-05 1.2908129975e-05 -3.9613619265e-06 
-1.1721874216e-05 -2.09269474e-05 -2.2192838514e-05 -2.2398067813e-05 -5.2098112064e-05 4.9506811592e-06 1.4092648598e-05 2.7997200959e-05 4.3011001253e-05 
5.4747062677e-05 9.2782618594e-05 9.3524453405e-05 8.62421075e-05 7.8267279605e-05 -0.00014398881467 -0.00013355388364 -3.7446985516e-05 -7.0273585152e-05 
-1.970770245e-05 1.211288054e-05 3.0743465231e-06 2.0712566311e-06 4.3863415158e-06 9.7831098174e-06 8.3318831457e-05 8.8551307272e-05 9.1524387244e-05 
-0.00013852096163 -0.00012641427747 -8.8583692559e-05 -7.5828655099e-05 -6.4616986492e-05 -6.0338483308e-05 -0.00011027135042 5.310409324e-05 -0.00015922098828 

Disp_Y 1 1116 double
0 0 0.00011094921501 0.0001179136234 0 0.00010328452481 0 9.7859432572e-05 0 
9.2045105703e-05 0 8.5634143034e-05 0 7.9311925219e-05 0 6.9131820055e-05 0 6.2014398281e-05 
0 6.8797256972e-05 0 7.0771799074e-05 0 6.5551445005e-05 0 5.3366551583e-05 0 
3.8740807213e-05 0 2.5128128982e-05 0 1.1606218322e-05 0 -4.5918800424e-06 0 -2.1303601898e-05 
0 -3.6877081584e-05 0 -4.7369074309e-05 0 -5.5252428865e-05 0 -5.9741989389e-05 0 
-5.596599658e-05 0 -4.1503793909e-05 0 -2.1840343834e-05 0 -9.8036898635e-06 0 -1.5124463062e-05 
0 -3.7867823266e-05 0 -6.548222882e-05 0 -8.9446002676e-05 0 -0.0001068112615 0 
-0.0001190846815 0 -0.00012835398957 0 -0.00013842037879 0 -0.00014403004025 0 -0.00014247729268 
0 -0.0001417852618 0 -0.00013456614397 0 -0.00012089268421 0 -0.00010336448759 0 
-8.3196027845e-05 0 -6.7420711275e-05 0 -5.1482798881e-05 0 -3.2011448639e-05 0 -1.405850162e-05 
0 -3.2331079183e-06 0 5.2275868256e-06 0 2.0259318262e-05 0 4.6622695663e-05 0 
7.7288386819e-05 0 0.00010061475768 0 0.00011178103887 0 0.00011328726396 0 0.00011449483281 
0 0.00011842332606 0 0.00011979067494 0 0 -7.0761503594e-05 -6.360730913e-05 0 
-8.1343539932e-05 0 -9.0403096692e-05 0 -9.8541779153e-05 0 -9.9423930806e-05 0 -9.6362513432e-05 
0 -8.5422325355e-05 0 -7.1876631409e-05 0 -5.4833046306e-05 0 -4.5187633077e-05 0 
-3.7916022848e-05 0 -2.9202479709e-05 0 -1.4711616132e-05 0 1.4444257204e-06 0 1.3885319277e-05 
0 2.1923888198e-05 0 2.1439227567e-05 0 2.0065397621e-05 0 3.2788702811e-05 0 
5.839667574e-05 0 8.2846308942e-05 0 0.00011266895308 0 0.00013961018703 0 0.00015936337877 
0 0.00017035951896 0 0.00016984442482 0 0.00016172190954 0 0.00015899285791 0 
0.00016186242283 0 0.00016222801059 0 0.00015844740847 4.3733722123e-05 0.00013813460828 0 0.00012287691061 
0 9.1712849098e-05 0 5.7599638239e-05 0 2.7217174647e-05 0 9.3741355158e-06 0 
1.4689655927e-06 0 1.2855364275e-06 0 -7.682742762e-07 0 -8.6591908257e-06 0 -1.7969345208e-05 
0 -2.3385997338e-05 0 -2.6154992156e-05 0 -3.1218405638e-05 0 -4.6876863053e-05 0 
-7.0253117883e-05 0 -0.00010153548646 0 -0.00012859395065 0 -0.00015049132344 0 -0.00016488901747 
0 -0.00016466043598 0 -0.0001530302834 0 -0.00012430195056 0 -9.0190609626e-05 0 
-7.3442744906e-05 0 -6.5332387749e-05 0.00017888042203 0.00019660097314 0.00015995354624 0.00014497128723 0.00013347405184 0.00012172853167 
0.00010731098882 9.9417455203e-05 0.00010503001977 0.0001055210887 9.6703435702e-05 8.120356506e-05 6.149992987e-05 4.0829545469e-05 1.7787127945e-05 
-9.0180083134e-06 -3.7174977479e-05 -6.6702130425e-05 -8.7146509031e-05 -0.0001040385614 -0.00011504128634 -0.00011527787865 -7.1552974987e-05 -3.7970450649e-05 
-1.8791051843e-05 -2.9041273592e-05 -6.5394997364e-05 -0.00010865219519 -0.00014681091125 -0.00017778390611 -0.00020292171394 -0.00022528185218 -0.00024170045799 
-0.00025341531727 -0.0002568444761 -0.00025108503178 -0.00023290432 -0.00020347368263 -0.00016694563965 -0.00012886693003 -9.3960530648e-05 -6.396536628e-05 
-3.5420518543e-05 -1.1530658412e-05 9.1062389629e-07 9.643782505e-06 2.7149177185e-05 6.0416103224e-05 0.00010370559903 0.00013974719332 0.00016499176854 
0.00017895796918 0.00019619280647 0.00021391229529 0.00021818962705 0.00021166817169 -0.00013011366536 -0.00011269993411 -0.00014833983732 -0.00016470279661 
-0.00017184441094 -0.00016786160995 -0.0001530203881 -0.00013108221174 -0.0001053932574 -8.2654281869e-05 -5.9370031522e-05 -3.5477769416e-05 -6.0781067077e-06 
1.7168673367e-05 3.4596421756e-05 3.9216549339e-05 3.4732591303e-05 3.7402009184e-05 5.7991714129e-05 9.438109555e-05 0.00013770700025 0.00018656511384 
0.0002345781395 0.00027114702971 0.00028733344516 0.00028230916359 0.00026740384055 0.00025993693271 0.00026178098051 0.00026333442656 0.0002525325981 
0.00022707898461 0.00018645527598 0.00013716577087 8.4487379354e-05 4.1288891225e-05 1.3849726201e-05 5.395169751e-07 -1.1687044434e-06 -2.8700594612e-06 
-1.4184394786e-05 -2.7902697184e-05 -3.5762692278e-05 -3.805502638e-05 -4.8973830417e-05 -8.1338075688e-05 -0.00012807642634 -0.00018236169126 -0.00023636929109 
-0.00027586193755 -0.00029552794877 -0.00028751886566 -0.00025108185946 -0.00018912489759 -0.00012381916167 -9.5924347988e-05 -9.1704758233e-05 -9.7755160823e-05 
0.00021214601293 0.00024911400396 0.00018484875909 0.00016364001203 0.00014654191909 0.00013001776824 0.00012013970991 0.00012037686247 0.00011689801613 
0.00010847251542 9.4594041002e-05 7.5365780503e-05 5.4512733186e-05 2.8581556762e-05 -6.6626034823e-06 -5.0264749007e-05 -9.3940849183e-05 -0.00012816635717 
-0.00015095932758 -0.00016559979122 -0.00017624060274 -4.71496096e-05 -8.7279644504e-05 -2.5904704671e-05 -3.8634105294e-05 -8.2867751189e-05 -0.00013868094538 
-0.00019148027059 -0.00023631450313 -0.00027480226709 -0.00030836372753 -0.00033446770976 -0.00035121044493 -0.00035468122223 -0.00034298372339 -0.00031464308267 
-0.00027158550802 -0.00021830083278 -0.00016350332589 -0.0001154148631 -7.6569347584e-05 -4.5375101763e-05 -2.3413123927e-05 8.0725722e-06 1.1956414028e-06 
2.6087887818e-05 6.4312080212e-05 0.00011595773685 0.00016373750987 0.00020087401208 0.00022713845829 0.00026257021818 0.00029629189521 0.00031746632885 
0.00030759049696 0.00028021860635 -0.00013806519564 -0.0001856576273 -2.049876457e-06 -7.0325504566e-06 -0.00018852174981 -0.00015990922111 -0.00021331789321 
-0.000227082739 -0.00022572970192 -0.00021015232778 -0.00018435201491 -0.0001477101614 -0.00010807277431 -7.3598217568e-05 -3.273254697e-05 7.7394470281e-06 
3.84772502e-05 5.2979328757e-05 5.2324656281e-05 4.2272458813e-05 4.5346478146e-05 7.5903342804e-05 0.00012299259834 0.0001799602469 0.00024600120378 
0.00031116115861 0.00035912118619 0.00037894395064 0.00037018829607 0.00034899680759 0.00033656778396 0.00033898212132 0.00034117363975 0.00032634922536 
0.00028865336208 0.00022995816835 0.00015840957349 9.231500735e-05 4.1964245611e-05 1.3107342056e-05 -7.03419758e-08 -1.098960638e-06 -5.405970569e-06 
-1.7170445062e-05 -3.0771796446e-05 -3.9135051338e-05 -4.2660980398e-05 -6.4496227424e-05 -0.00011580750288 -0.00018231394642 -0.00025995349279 -0.00033573937253 
-0.0003887861385 -0.00040811489453 -0.00038477790076 -0.00032168303733 -0.00022592808818 -0.00013116947957 -8.567696932e-05 -8.7844600785e-05 -0.00010668682808 
-0.00013263705478 1.8726391318e-06 1.3876978073e-06 1.7292240955e-06 3.5199652757e-06 2.0340574338e-05 6.4246851252e-05 0.00012663561211 0.00018331730098 
0.00022949557751 0.00026602452272 0.00030752501334 0.00035503317486 0.00041761202738 0.00039495137753 0.00035201050923 0.00030123017495 0.00025219123927 
0.00021441241552 0.00018639118935 0.00016402246547 0.00014299858594 0.00012743269326 0.00011923420971 0.00011318239558 0.00010694396769 9.8001837614e-05 
8.4136561782e-05 6.8430192186e-05 4.2476873205e-05 -1.4364296703e-06 -5.8795616496e-05 -0.00012064969633 -0.00016542105004 -0.00019012708799 -0.00020214369579 
-0.00021760413074 -0.00022457767045 -0.00018400227418 -0.00022451499535 -0.00013825525821 -9.4576105766e-05 -5.8386547607e-05 -3.6834950151e-05 -4.742803867e-05 
-9.3262984592e-05 -0.00015727983555 -0.00022208310838 -0.00027942762244 -0.00033054230153 -0.00037572890869 -0.000413294998 -0.00043765490409 -0.00043850604561 
-0.00041532097384 -0.00037350811181 -0.0003173542791 -0.00025102047948 -0.00018433234072 -0.00012402664288 -8.1170495832e-05 -5.317790783e-05 -2.8687996746e-05 
-1.2825827071e-05 5.5882100014e-07 2.9028904009e-06 2.758791652e-06 2.034773388e-06 -0.00024555640994 -0.0002144689206 -0.00026341550983 -0.00026372121647 
-0.00024810578907 -0.00021911595832 -0.00017686467618 -0.00012493548275 -7.505971007e-05 -2.5602319511e-05 2.247739576e-05 5.4105752497e-05 6.8625951826e-05 
6.2654995418e-05 5.1096623793e-05 4.6412827942e-05 0.00014618193381 9.74858267e-05 0.00021170466789 0.00028750070487 0.00036321851076 0.00041937097558 
0.00044297470595 0.00043324331637 0.00040749038453 0.00038990820758 0.00039117890992 0.00039444866707 0.00037773619988 0.00032702006865 0.000252322905 
0.00016670054174 9.0575049398e-05 3.577640382e-05 8.780598364e-06 4.3188094878e-07 -1.9305732124e-08 -8.108370821e-06 -1.9867999072e-05 -2.9455715776e-05 
-3.8600908738e-05 -4.6247514547e-05 -8.0157566117e-05 -0.00014555404778 -0.0002276483574 -0.00032492409809 -0.00041632255306 -0.00047995412024 -0.00049675261835 
-0.00045544828754 -0.00036509774509 -0.00024460462737 -0.00013814681733 -7.824786735e-05 -7.4996620242e-05 -0.00010177007789 -0.0001384945499 -0.00017639446014 
6.5395353886e-05 5.2826220781e-05 2.8626746484e-07 -5.0852560207e-07 1.4053725863e-05 6.5964086389e-05 0.00013589589798 0.00020267210493 0.00025929976255 
0.00030166300712 0.00034036417492 0.00038259426947 0.00044019156485 0.00039711539284 0.00045461565605 0.00033548430656 0.00028329811175 0.00023916689679 
0.00020990321354 0.00018230949354 0.00015560595784 0.00013129020226 0.00010979274521 0.00010217283852 9.9755452538e-05 9.6561801911e-05 9.003157902e-05 
7.9361612734e-05 5.7287772506e-05 9.2656273409e-06 -5.6607354054e-05 -0.00014314132568 -0.00020011288871 -0.00022038514726 -0.000223209252 -0.00024151333491 
-0.00025618693326 -0.00025738411932 -0.00020903909171 -0.00024575265707 -0.00016707334726 -0.00012659782078 -9.8913136753e-05 -7.3919327406e-05 -4.9409234634e-05 
-5.6030094129e-05 -0.00010108645802 -0.00017067328736 -0.00024223366927 -0.00030966379563 -0.00037259340752 -0.00043094117427 -0.00048109385534 -0.0005143271992 
-0.00051250308752 -0.00047518141218 -0.00041529949522 -0.00034232067992 -0.00026179716224 -0.00018553320842 -0.00011936487863 -7.5433556049e-05 -5.4729356634e-05 
-3.5109485907e-05 -1.5125992832e-05 -4.1474459067e-06 3.211711828e-06 -1.5292832813e-06 -1.4230574834e-06 -4.0220828623e-07 0.0004907148541 0.00049949251115 
8.256930596e-05 6.6753178544e-05 0.00011520167027 0.00016511941794 0.0002334608871 0.00031232420588 0.00039389770245 0.00045667495579 0.00048549872008 
0.0004780893214 0.0004494166642 0.00042617018335 0.00042376833153 0.00042733366718 0.00041020908975 0.00034102451173 0.00025247284793 0.00015965609055 
8.0898869783e-05 2.6824771339e-05 7.601670859e-06 2.6524414807e-06 1.4565154061e-07 -1.0391041542e-05 -2.014554957e-05 -2.412516551e-05 -3.179700434e-05 
-4.8981630243e-05 -9.781440167e-05 -0.00017506736913 -0.00026520874235 -0.00037349719787 -0.00047694082605 -0.00054958363762 -0.0005626839702 -0.00050112220924 
-0.00038523768308 -0.00025209464366 -0.00014613040548 -7.8480392403e-05 -6.4853586082e-05 -9.1860310931e-05 -0.00013631465845 -0.00018447794719 -0.00023013266036 
-0.00026453693863 -0.0002840073721 -0.00028441648465 -0.0002680493053 -0.00023489998421 -0.00018613427528 -0.00012856935791 -7.1382863098e-05 -1.6295647583e-05 
3.0875493394e-05 6.076194768e-05 7.6485026511e-05 6.901454617e-05 5.8686608099e-05 4.9807920732e-05 4.9846945331e-05 6.0324127844e-05 8.6961503257e-05 
7.8429708083e-05 9.6770650998e-05 -3.9177843973e-06 8.1393891378e-06 5.9739140852e-05 0.00013463242794 0.00021484582976 0.00028334002127 0.00033402862027 
0.00036905056913 0.00039825955173 0.00043582284707 0.00048255483853 0.00053740927251 0.00051998713752 0.00052373140352 0.00047710130457 0.00041396918823 
0.00034794723615 0.00029218848795 0.0002545293828 0.00023378262995 0.00020503616543 0.00017259536253 0.00014309529797 0.00011634355906 9.3500064395e-05 
9.1172776592e-05 9.5959789178e-05 9.2003821919e-05 8.3313512732e-05 7.3653776781e-05 2.149368629e-05 -3.7128396798e-05 -9.2766065791e-05 -0.00024874176597 
-0.00023624238383 9.1902504209e-05 9.4790324511e-05 -0.0001926569239 -0.00013475876767 -0.00028045306681 -0.00027326043346 -0.00027070596116 -0.00022034409631 
-0.0002567069314 -0.00017920133541 -0.00013842037879 -9.9865996162e-05 -6.7605848017e-05 -5.9467223764e-05 -0.00011206947238 -0.00018344685668 -0.00025887129596 
-0.00033173870179 -0.00040303659625 -0.00047316643759 -0.00053840712644 -0.00058070017258 -0.00057405239204 -0.00052243151003 -0.0004446124949 -0.00035588158062 
-0.00026215359685 -0.00017340728664 -8.9608074632e-05 -5.1699305914e-05 -2.577581472e-05 -8.7013349912e-06 -2.4066544029e-06 -3.4757746903e-07 -7.2488714977e-06 
-4.5143819989e-06 -7.7446566138e-06 0.00012533082918 0.00017264625058 0.00024070664949 0.0003201632353 0.00040607966366 0.00047498007189 0.0005105950404 
0.0005090974737 0.00048030065955 0.00044973069453 0.00043989843107 0.00043987520621 0.00042955388199 0.0002311685239 0.00031345261959 0.00014094327344 
6.7123066401e-05 1.718600106e-05 5.3072471928e-06 2.4765915896e-06 -1.1366614672e-06 -1.0926292816e-05 -1.7491796825e-05 -1.7889256924e-05 -2.0524403226e-05 
-5.7861045207e-05 -0.00012245282414 -0.00020495893841 -0.00029794260627 -0.00041296193376 -0.00051901000552 -0.00059941696236 -0.00062076927861 -0.00051941658603 
-0.00038608838804 -0.00025390880182 -0.00015367474407 -8.519707626e-05 -6.2384075136e-05 -8.2570542872e-05 -0.00012908619829 -0.00018848177569 -0.00023949619208 
-0.00027471774956 -0.00029377132887 -0.00029376338352 -0.00027643205249 -0.00023951426556 -0.00018729663861 -0.00012744413107 -6.6251646786e-05 -1.3145355297e-05 
3.3613567211e-05 5.9260164562e-05 7.4320741987e-05 6.8359411671e-05 6.1307939177e-05 5.3620475228e-05 5.135565516e-05 5.6821871112e-05 7.107903366e-05 
0.00010810444655 9.2278358352e-05 0.00012025544129 0.00037532293936 0.00040096323937 -9.9160555692e-05 -7.042731886e-05 -0.00019944256928 -0.00013254597434 
-0.00027262547519 -0.00034874668927 -0.00042485227459 -0.00050142558757 -0.00057700061006 -0.00063657562714 -0.00061415991513 -0.00055032694945 -0.00046120843035 
-0.00035797400051 -0.00025447047665 -0.00016935772146 -0.00010311177903 -3.7338199036e-05 -5.4239077144e-05 1.3779006736e-07 4.5055516239e-05 0.00012473852257 
0.00021779956296 0.00029671227094 0.0003676864726 0.00039326315164 0.00041398327448 0.00043608443229 0.00046239953372 0.00049010518705 0.00054005655693 
0.00050621019909 0.00054817809723 0.0005244872882 0.00047072596499 0.00040172840818 0.00033424486173 0.00027529647923 0.00024444752489 0.00020283184131 
0.00016482381034 0.00013185340504 0.00010425695655 7.7411641541e-05 8.1905483967e-05 8.0355966929e-05 8.383092063e-05 8.8842331024e-05 9.510973905e-05 
8.9490429673e-05 -0.00029271631502 -0.00027425790904 -0.00028742261929 -0.00018545436615 -0.00024629069958 -0.00013659810065 0.00016894226428 0.00023641149164 
0.00031592109008 0.00040521560004 0.00047939136857 0.0005216129357 0.00053023255896 0.00046310259495 0.00044629751937 0.00043993955478 0.00042915419908 
0.00019584255642 0.00027212989517 0.00011766255193 5.2336570661e-05 1.2757715922e-05 3.2555649341e-06 5.011516464e-07 -2.2350186555e-06 -9.0335215646e-06 
-1.3009299437e-05 -1.3860372746e-05 -1.2972063814e-05 -0.00016129373398 -9.1870024335e-05 -0.00024592771661 -0.00033548512147 -0.00044243468437 -0.00054414971964 
-0.00061994016869 -0.00065353402169 -0.00037596721086 -0.00049777643289 -0.00025709305191 -0.00016204279382 -9.4361850643e-05 -6.5572465246e-05 -7.4194620538e-05 
-0.00011560294661 -4.6595188905e-05 -2.3429931389e-05 -8.3361999714e-05 -6.5856263973e-05 -0.0005997265107 -0.00065118609928 -0.00027744547697 -0.00029479997465 
-0.00029571165214 -0.00027700295323 -0.00023676497221 -0.00018009744235 -0.00011875938071 -5.6041553762e-05 -4.2073493205e-06 3.6605699279e-05 5.8898491261e-05 
6.944550114e-05 6.5228654421e-05 6.0177295381e-05 5.5981319747e-05 5.5371045164e-05 5.8026489569e-05 6.5818028816e-05 0.00012257226626 2.0087138182e-05 
6.1711405579e-05 -1.9767599952e-05 -4.5769294957e-05 -7.3853567301e-05 -0.00016293257067 -9.8789627373e-05 -0.00022363549215 4.2502379074e-05 9.6641349955e-05 
1.0107622074e-05 5.4609364497e-07 -2.5039344109e-06 -3.1233744267e-06 -4.2887263589e-06 -7.9024121078e-06 -1.6613839762e-05 -3.9723450755e-05 7.5154639489e-06 
4.3019565055e-05 5.9780446463e-05 6.8089379056e-05 6.3890794991e-05 5.9967682319e-05 6.2563056417e-05 6.7565502832e-05 7.2755632573e-05 7.7485601651e-05 
8.4272774984e-05 8.8767919806e-05 8.1859550846e-05 0.00015758480004 0.00022897734016 0.00031053903513 0.00040581569192 0.00047978572547 0.00052166316891 
0.00054124533199 0.0002963070292 0.00024715755717 0.00019357012934 0.00015472494124 0.00053617684171 0.00050622969866 0.00044697913108 0.0003670094884 
6.8360059231e-05 7.2128656029e-05 7.8394310549e-05 7.8191937064e-05 6.8792789534e-05 4.3569056288e-05 1.1971484355e-06 -1.8152204575e-05 0.00046690696036 
0.00045136001427 0.00043786340393 0.00042468437459 0.00032908338471 0.00035666560871 -5.0475982789e-06 3.4612130548e-05 0.00012032006634 0.00022118369816 
0.00029634259408 0.00016106174735 0.0004099633079 -8.4266292106e-05 -0.00013343458704 -0.00020491519535 -0.00029060916859 -0.00037030156818 -0.00046378144179 
-0.0005564877647 -0.00062447821256 -0.00065958773484 -0.0006658580387 -0.00062081217766 -0.00064146064688 -0.00056214205688 -0.00047058719792 -0.00036636702134 
-0.0002661391045 -0.00017351873976 -0.00010131834279 -6.9956266088e-05 -6.7473956733e-05 -9.0990120952e-05 -7.5727271906e-05 -9.9492965091e-05 -0.00015178803005 
-0.00021432936774 -0.00028280151309 -0.00035964220297 -0.00043902546167 -0.00051719555631 -0.00062510027783 -0.00065636943327 -0.00056174903875 -0.00046978265163 
-0.00035421494977 -0.00023957893427 -0.0001634646469 -0.00011366320541 -6.0847823988e-06 -0.00039851479232 -0.00047766900389 -0.00056156486971 -0.0006226101541 
-0.00065098580671 -0.00036482070573 -0.00045093568042 -0.00028417751309 -0.00022474337311 0.00051687087398 0.00048439161037 0.0002237331646 0.00030916271498 
0.00017663052131 2.5572411687e-05 5.5214102758e-05 6.7258122726e-05 7.1003305493e-05 6.7389322794e-05 -0.00058802816784 -0.00058297131909 -0.00052975845756 
0.00028909763205 0.00023596570827 8.1392856373e-05 3.5632947402e-05 6.2760359469e-06 -8.0770951172e-07 0.00041727471398 -0.00027567017241 0.00040704343701 

Disp_Z 1 1116 double
0 0 2.040860636e-05 1.2441875697e-05 0 2.9759270546e-05 0 3.8406233216e-05 0 
4.4204236474e-05 0 4.8785044783e-05 0 5.2107327065e-05 0 5.3399300668e-05 0 5.0980201195e-05 
0 5.2790852351e-05 0 6.492711691e-05 0 8.0588513811e-05 0 9.5216222689e-05 0 
0.00010488796397 0 0.000109136221 0 0.0001129724842 0 0.00011255904246 0 0.00011077201634 
0 0.00010691722855 0 9.7706943052e-05 0 8.1456826592e-05 0 5.9712623624e-05 0 
3.1026775105e-05 0 -2.8653391837e-06 0 -2.220672468e-05 0 -2.5008885132e-05 0 -1.2222221812e-05 
0 -9.3531862149e-06 0 -2.1334390112e-05 0 -3.9997394197e-05 0 -5.8153760619e-05 0 
-7.3290742876e-05 0 -8.4262472228e-05 0 -0.00010129284055 0 -0.00011536412057 0 -0.00012827652972 
0 -0.00014555663802 0 -0.00015836246894 0 -0.00016438057355 0 -0.00016197771765 0 
-0.00015027457266 0 -0.00013336935081 0 -0.00011288942187 0 -9.176023741e-05 0 -6.7461565777e-05 
0 -4.5742413931e-05 0 -4.0975082811e-05 0 -4.7173874918e-05 0 -5.56230043e-05 0 
-5.4930926126e-05 0 -4.6169949201e-05 0 -3.5430486605e-05 0 -2.7521147786e-05 0 -2.106957254e-05 
0 -1.0038246728e-05 0 1.9991318823e-06 0 0 2.2272593924e-05 2.0491585019e-05 0 
3.6915072997e-05 0 5.041591794e-05 0 6.8351524533e-05 0 8.8694789156e-05 0 0.00011175176041 
0 0.00012870856153 0 0.00014025442943 0 0.00014319801994 0 0.00014205138723 0 
0.00013588467846 0 0.00012647808762 0 0.00011363554222 0 9.3914808531e-05 0 6.9842659286e-05 
0 4.3330892368e-05 0 2.6028212233e-05 0 2.3027294446e-05 0 3.4420252632e-05 0 
3.9873208152e-05 0 4.2707470129e-05 0 4.3494997954e-05 0 3.8238791603e-05 0 2.3872175007e-05 
0 5.2265090744e-06 0 -8.0299860201e-06 0 -1.4574214219e-05 0 -1.6946896721e-05 0 
-2.177319584e-05 0 -3.3180796891e-05 0 -4.4973316108e-05 5.1110419008e-06 -5.8519315644e-05 0 -6.4538420702e-05 
0 -6.573562132e-05 0 -6.0477454099e-05 0 -4.9147005484e-05 0 -3.455582555e-05 0 
-2.4021432182e-05 0 -2.0016457711e-05 0 -2.3956959922e-05 0 -3.3110994991e-05 0 -4.1054234316e-05 
0 -4.9243666581e-05 0 -6.1687722337e-05 0 -8.2073231169e-05 0 -0.00010529385327 0 
-0.00012789708853 0 -0.00014471977192 0 -0.00014800127246 0 -0.0001375527936 0 -0.00011275510042 
0 -8.1312740804e-05 0 -4.8178804718e-05 0 -1.4374336388e-05 0 -2.657585128e-06 0 
1.2224047623e-06 0 1.5936715499e-05 5.6514410971e-05 3.8108235458e-05 6.911688979e-05 7.5114534411e-05 7.7369491919e-05 7.855273725e-05 
7.7888173109e-05 7.2537986853e-05 7.3682473158e-05 9.0782028565e-05 0.00011439280934 0.00013668794418 0.00015396031085 0.00016541573859 0.00017415257753 
0.00018171063857 0.00018877272669 0.00018874298257 0.00017687519721 0.00015135435387 0.00011536700913 6.3471357862e-05 -8.307920325e-07 -2.9296248613e-05 
-2.7952575692e-05 -9.277110621e-06 -6.3571210376e-06 -2.6252793759e-05 -5.6865352235e-05 -8.7823260401e-05 -0.00011535856902 -0.00013967318228 -0.00016740860883 
-0.00019378072466 -0.00022149254801 -0.00025088121765 -0.00027421474806 -0.00028274700162 -0.0002745622769 -0.0002522621071 -0.00021994765848 -0.00018281834491 
-0.00014417014609 -0.00010191857291 -6.4598345489e-05 -5.9840345784e-05 -6.9455476478e-05 -8.1194899394e-05 -8.2224789367e-05 -7.2884024121e-05 -5.9231857449e-05 
-5.1073577197e-05 -4.2565367039e-05 -2.2900050681e-05 1.0518532463e-06 2.0401626898e-05 5.6999066146e-05 3.53064097e-05 7.9073324741e-05 0.00010945522808 
0.00014790114074 0.00018674130843 0.00021853623912 0.00024023200967 0.00024688232224 0.00024068643688 0.00022703805007 0.00020759797189 0.00018062838353 
0.00014465143613 0.00010311007645 6.5628206357e-05 4.5164571929e-05 4.6883360483e-05 6.1222999648e-05 7.5355434092e-05 8.6176063633e-05 8.718931349e-05 
7.7021737525e-05 5.0605354772e-05 1.6395395505e-05 -1.2444079402e-05 -2.6799059924e-05 -3.1087092793e-05 -4.1322178731e-05 -6.0010388552e-05 -8.2836253569e-05 
-0.00010276729154 -0.00011422926036 -0.00011469747551 -0.00010530098371 -8.5969375505e-05 -6.2589169829e-05 -4.3708369049e-05 -3.4520209738e-05 -3.7283218262e-05 
-4.8630223318e-05 -6.0219041188e-05 -7.3966235504e-05 -9.9703371234e-05 -0.00014150378411 -0.00018927223573 -0.00023110958864 -0.00025811593514 -0.00026103510754 
-0.00023944779241 -0.00019582308596 -0.00013566066627 -6.9378751505e-05 -3.9699129957e-06 2.403126382e-05 1.1959253243e-05 1.4495508367e-05 2.147696614e-05 
9.9284829048e-05 8.3484126662e-05 0.00010195633513 9.9739314464e-05 9.5097304438e-05 8.8282482466e-05 7.8624594607e-05 7.7034274e-05 9.1817833891e-05 
0.00011503841233 0.00014067413576 0.00016401824541 0.00018523090694 0.00020918507653 0.00023562008573 0.00025810874649 0.00026347560924 0.00024860017584 
0.00021382044361 0.00017153348017 0.00012732738105 -3.2430478313e-05 -9.5669165603e-06 -2.6887313652e-05 -5.7270117395e-06 -1.1941656339e-06 -2.2893342248e-05 
-5.9580506786e-05 -0.00010285335884 -0.00014373559679 -0.00018333962362 -0.00022597622592 -0.00026612036163 -0.00030539961881 -0.00034223680268 -0.00036908802576 
-0.00037773084478 -0.00036396304495 -0.00032976752846 -0.00028220043168 -0.00023072210024 -0.00018582383927 -0.00014661467867 -5.8449328208e-05 -6.0509701143e-05 
-7.3444083682e-05 -9.1137233539e-05 -9.724960546e-05 -9.1073285148e-05 -7.8012948507e-05 -7.1151298471e-05 -6.2967956183e-05 -4.1326453356e-05 -8.4845923993e-06 
2.6992074709e-05 5.9908656112e-05 3.4408159991e-05 9.0319335868e-05 -8.369020361e-05 -0.00011529658514 9.7739059129e-05 6.8289518822e-05 0.00014177124831 
0.00019351528317 0.00024755852064 0.00029128402821 0.00032170148916 0.00033247799729 0.00032300341991 0.00029913513572 0.00026642429293 0.0002240024769 
0.00017248121731 0.00011867494322 7.5184281741e-05 5.0320271839e-05 5.7753601141e-05 8.0899837485e-05 0.00010323529568 0.00012079389126 0.00012400037667 
0.00011028493464 7.3850089393e-05 2.7064448659e-05 -1.232309296e-05 -3.4485983633e-05 -4.1532373871e-05 -5.39712928e-05 -8.0267425801e-05 -0.00011131499923 
-0.00013756705448 -0.00015069155779 -0.00015088930377 -0.0001331656822 -0.00010632845078 -7.5263233157e-05 -5.1238843298e-05 -3.976068183e-05 -4.1928764404e-05 
-5.2746428992e-05 -6.7328430305e-05 -8.9637389465e-05 -0.00013167054567 -0.00019484962104 -0.000262548303 -0.00032184243901 -0.00035816887976 -0.0003603187215 
-0.0003271404421 -0.0002622360189 -0.00017259563901 -7.5345960795e-05 9.6670200946e-06 4.634420111e-05 2.2541409635e-05 1.1950695807e-05 1.8497263227e-05 
3.9612561523e-05 -6.9368048571e-05 -8.663799963e-05 -5.4523628933e-05 -5.6606157159e-05 -7.7973454609e-05 -0.00010130435112 -0.00011062323028 -0.00010789764201 
-9.7354277386e-05 -8.8726323156e-05 -7.9728888522e-05 -6.597590982e-05 -2.7587529985e-05 3.9000737161e-05 8.373480523e-05 0.00011268236267 0.00012515789422 
0.0001262017613 0.0001185241199 0.00010761700105 9.488422802e-05 7.929919957e-05 7.2409857239e-05 8.1124286226e-05 0.00010079903586 0.0001248583867 
0.00015228726261 0.00018295343034 0.0002237157023 0.00027115584817 0.00030928204069 0.00032472546445 0.00030274037272 0.00025945765083 0.00021730580193 
0.0001806854707 0.00014635932166 5.3719984862e-05 0.00010627201118 1.3133265384e-05 -1.6203963241e-05 -3.0170795071e-05 -2.2792926757e-05 -3.2910425034e-06 
3.4149502426e-06 -1.8201933926e-05 -5.7789278799e-05 -0.00010764950275 -0.00015874233213 -0.00021307634597 -0.00026907600113 -0.00032416149043 -0.00037754204823 
-0.00042066708556 -0.00044481767691 -0.00044832780259 -0.0004269866331 -0.00038250404759 -0.00032251371886 -0.00026359889307 -0.0002161385928 -0.0001791685936 
-0.00014237085998 -0.00010372747784 -6.2302322476e-05 -6.6679400334e-05 -5.9316975239e-05 0.00016263882571 0.00010987901624 0.00022372846433 0.00028777585248 
0.00033972063102 0.000375662843 0.00039000008837 0.00037890521344 0.00034638491343 0.00030216338928 0.00024867846514 0.00018714019097 0.00012622248323 
8.0173384049e-05 5.4624757468e-05 5.1752533182e-05 0.0001263825543 0.00010290618957 0.00014810690482 0.00015328456357 0.00013674305228 9.4039743999e-05 
3.91124413e-05 -8.405590961e-06 -3.6870813346e-05 -4.775479465e-05 -6.0641723394e-05 -9.0702509624e-05 -0.00013036200835 -0.00016187068832 -0.00017597523401 
-0.00017198406567 -0.00014813657617 -0.00011507131421 -7.7107550169e-05 -5.0260503485e-05 -4.0447721403e-05 -4.4484655518e-05 -5.5236872868e-05 -7.359997835e-05 
-0.00010671494238 -0.00016543343372 -0.00024607611704 -0.00032901484519 -0.000400068413 -0.0004412632552 -0.00044299990986 -0.00039902832941 -0.00031321519054 
-0.00019758447888 -7.8116296208e-05 1.6427027731e-05 5.3392952395e-05 3.1514678994e-05 1.2052732018e-05 1.3534795471e-05 3.790984556e-05 7.3211005656e-05 
7.9470089986e-05 6.2413142587e-05 -5.0061502407e-05 -5.3649924666e-05 -8.2810220192e-05 -0.00011093830835 -0.00012673172751 -0.00012802307901 -0.00011759384506 
-0.0001048479462 -9.16129502e-05 -8.2293707237e-05 -7.2762130003e-05 0.00011390709551 6.9575602538e-05 0.00013771999511 0.00014338624896 0.00014363015362 
0.00013587120338 0.00012211446301 0.00010366665083 8.412655734e-05 6.5728010668e-05 6.813267828e-05 8.3575403551e-05 0.0001067719204 0.00013734358072 
0.00017354308511 0.0002237666049 0.0002862267429 0.00034085172229 0.00037798780249 0.00034035014687 0.00028906235821 0.00024735959596 0.0002319993655 
0.00020129843324 0.00016434882127 6.599882181e-05 0.00012129873357 2.4972765459e-05 -3.2730868043e-06 -1.8945267584e-05 -2.7075639082e-05 -2.0026029233e-05 
-6.3261444438e-07 8.7395092123e-06 -1.271826477e-05 -5.2749448514e-05 -0.00010590284364 -0.00016271116328 -0.00022683941643 -0.00029910777812 -0.00037197506754 
-0.00044082681416 -0.00049153371947 -0.00051167613128 -0.00050371803809 -0.00046985771041 -0.00041260159924 -0.00034207844874 -0.00027542171301 -0.00023366748064 
-0.00020782854699 -0.00016663325368 -0.00011963503493 -7.4296993262e-05 -4.0476985305e-05 -4.1497001803e-05 -4.4523254473e-05 1.0397256119e-05 -4.3498090236e-05 
9.6211238997e-05 7.9288067354e-05 0.00011728759273 0.00014174333774 0.0001623511489 0.00017216756532 0.00015702753444 0.00011185766925 5.283603241e-05 
-1.8083842406e-06 -3.7613033783e-05 -5.0382881454e-05 -6.2888357206e-05 -9.3450529675e-05 -0.00014402056695 -0.00017934665084 -0.00019344306202 -0.00018547786749 
-0.0001536962227 -0.00011527374591 -7.0626061643e-05 -4.5530057832e-05 -4.0196267946e-05 -4.6296780056e-05 -5.8029883803e-05 -8.1369704276e-05 -0.00013061867503 
-0.00020641373703 -0.00029796193121 -0.00038867842522 -0.0004658937396 -0.0005115949898 -0.00051259313477 -0.00046072562691 -0.00035522389226 -0.00021685965476 
-8.61843655e-05 7.3074443208e-06 4.7961901146e-05 3.4298416722e-05 1.4134266166e-05 9.3356275102e-06 3.1888812373e-05 7.0903552114e-05 0.0001155261707 
0.00017768860562 0.00024485666654 0.00031276638038 0.00036721493234 0.00040510611143 0.00042020142428 0.00040856521809 0.00037207841524 0.00031967586256 
0.00025835886481 0.00019191329193 0.00012908065401 8.2430131442e-05 5.4219755839e-05 4.6824905439e-05 5.1116148825e-05 6.2716986577e-05 9.6656905953e-05 
8.1557744124e-05 0.00010664331785 -4.5775261242e-05 -7.6195690781e-05 -0.0001168573508 -0.00014623986499 -0.00015159169561 -0.00014112620556 -0.00012207469263 
-0.00010045242379 -8.7363790954e-05 -8.2962520537e-05 -7.1089896664e-05 -1.0167221944e-06 -4.3262163672e-05 5.3889478295e-05 0.00010762371676 0.00014366213873 
0.00015728177095 0.00015992723638 0.00015423021978 0.00015288403665 0.0001416305895 0.00012207157852 9.9768432847e-05 7.9969562648e-05 7.1176727943e-05 
5.7948545873e-05 9.4829134468e-05 0.00012899412832 0.00016591891472 0.00020542988204 0.0002870929311 0.00034435783164 0.00038440802018 0.00028970450512 
0.00035133166239 5.6652283092e-05 6.6365566454e-05 0.00039692016435 0.00040889799129 0.00022179327789 0.00026647464256 0.00017904337437 8.3583174273e-05 
0.00014098132669 3.2148138416e-05 -1.9455535494e-06 -2.077668978e-05 -1.8529248337e-05 6.0549723457e-06 1.9681372578e-05 -5.1238175729e-06 -4.7220692068e-05 
-9.9804710771e-05 -0.00016025501827 -0.0002302169014 -0.00031253611087 -0.0004114198382 -0.00049634522293 -0.0005521250423 -0.00056708074408 -0.00054597243434 
-0.00049804284936 -0.00042637012666 -0.00032790366095 -0.00025095778983 -0.00019790255465 -0.0001375106367 -8.3958380856e-05 -4.5609129302e-05 -3.0767554563e-05 
-3.1711333577e-05 -3.6438275856e-05 0.00012339442037 0.00014842087694 0.00017078386736 0.0001846117957 0.00017239541921 0.00012876780238 6.7383851274e-05 
8.1004827734e-06 -3.5889897845e-05 -5.3657222452e-05 -6.3608073106e-05 -8.6815372924e-05 -0.00012010723003 -0.00020095524087 -0.00019428311498 -0.00018718237698 
-0.00014943622227 -0.00010440891492 -6.2026199885e-05 -4.1167644667e-05 -3.9455673686e-05 -4.8093355872e-05 -6.2551895098e-05 -9.0214300144e-05 -0.00016352250532 
-0.00026086831349 -0.00035711910459 -0.00044582301052 -0.0005213842378 -0.00056427333038 -0.00056622148259 -0.00051275111036 -0.00039054517401 -0.0002147717023 
-8.9729750471e-05 -7.3972473729e-06 3.6119981814e-05 3.2570995245e-05 1.7371268768e-05 7.0210353442e-06 2.1904546884e-05 5.9838239395e-05 0.00011876894132 
0.00018503358297 0.0002507402678 0.00031860155286 0.00037421280285 0.00041440955829 0.00043052696856 0.00041845339001 0.00037982829963 0.00032202046714 
0.00025681452826 0.00018815402291 0.00012836656242 8.1799567852e-05 5.4454449128e-05 4.3323398131e-05 4.2891377234e-05 5.0495913456e-05 6.5808977524e-05 
0.00010679978732 8.719105972e-05 0.00011790976714 -0.00017241558817 -0.00014888362784 -1.1572262338e-05 -5.0595499488e-06 -1.2992318261e-06 2.0995070372e-05 
-4.0047292714e-05 -9.0517496574e-05 -0.00015350097965 -0.00022456646548 -0.00031670395401 -0.00044873924344 -0.00054676254513 -0.00059719226556 -0.00060691306135 
-0.00057532044593 -0.00051426445134 -0.00043694014312 -0.00035611566273 -0.00024017530086 -0.00028077841853 -6.6776687163e-05 -0.00011988695769 -0.00016207779117 
-0.00017445796402 -0.00016451145348 -0.00014025243581 -0.00010771163943 -8.9879387815e-05 -7.8396733443e-05 -7.318972348e-05 -6.0175112594e-05 -2.2165970677e-06 
-3.7261419493e-05 4.2470193875e-05 9.522648179e-05 0.0001416557061 0.00016851379769 0.00017230925732 0.00016592883912 0.00015849265037 0.0001444559166 
0.00012183437502 0.00010214426584 8.5439918621e-05 5.3703974118e-05 6.8247398303e-05 4.7741312301e-05 5.0785976782e-05 6.5119464125e-05 9.3696340628e-05 
0.0001386225922 0.00027679011691 0.00034345986205 0.00022232923948 4.6267334255e-05 0.0001209064867 5.7737861425e-06 0.00014602276497 0.00017288522213 
0.00019214104395 0.00018371733313 0.00014288704551 8.3985229139e-05 2.2113314117e-05 -6.1066712078e-05 -6.6386142862e-05 -8.0481753685e-05 -0.0001038653063 
-0.00020080538525 -0.00020119169494 -0.00018110107339 -0.00014194630785 -9.3391347036e-05 -5.5059503211e-05 -3.7983736547e-05 -3.7712830817e-05 -4.9471869715e-05 
-7.0063550083e-05 -9.5198614872e-05 -0.00013541820226 -0.000415949733 -0.00033106454066 -0.00049793015933 -0.00056307768682 -0.00060093851062 -0.0006010463112 
-0.00056052906439 -0.00048342667287 -8.4069979494e-05 -0.00018577685114 -1.6635511201e-05 2.5067201932e-05 2.9342412745e-05 1.9733921363e-05 6.8830358941e-06 
6.8805911724e-06 -0.00025264415308 -0.00020168987976 2.2767078917e-05 1.1707232261e-05 -0.00029927460128 -0.00039806123823 0.00018480469589 0.00024319626391 
0.00030807370786 0.00036825952702 0.00041372401756 0.00043076666771 0.00041688667261 0.0003750200558 0.0003131517733 0.0002438226511 0.0001751492382 
0.00011723213538 7.5172618381e-05 5.1399045333e-05 4.2996907723e-05 3.8647529436e-05 4.0235452616e-05 5.1987019106e-05 0.00010888084944 0.00029208001797 
0.00022329269268 0.00033520022407 0.00036164067569 0.00038617863902 0.00042296363972 0.00040485689533 0.00040646296111 -0.00012908877397 -0.00016771949595 
-8.4523198893e-05 -5.2157349273e-05 -3.6234167055e-05 -3.4931803384e-05 -4.9675061746e-05 -9.1708374384e-05 -0.00016287568724 0.00035951856989 0.00029425384128 
0.00022260588594 0.00015539697779 0.00010026610107 6.3068633608e-05 4.3084797653e-05 3.6786073906e-05 4.2064802983e-05 4.1889601562e-05 4.8084988521e-05 
6.5446132794e-05 0.00010065278184 0.00015294225886 0.00013451748237 0.0001670675847 0.00019093324954 0.00018590793479 0.00014862210082 0.00010069839482 
4.9909343943e-05 0.00017678455333 0.00016455959121 0.0001463467197 0.00012360418623 8.4345847426e-05 0.00012634704763 0.00016407726798 0.00018307720893 
4.1642004362e-05 4.936226469e-05 7.2205009928e-05 0.00011477843509 0.00017343407671 0.00024484167807 0.00031225912971 0.00033731441363 -6.4841697167e-05 
-6.9609741331e-05 -7.8377168393e-05 -9.3447881227e-05 -0.00018724692927 -0.00016678516113 -5.5079777667e-05 -0.00011919010285 -0.000172350512 -0.00018793463823 
-0.00018125679344 -0.00019327308109 -0.00010907447722 -0.00032287460635 -0.00039148906944 -0.00047144078417 -0.00054441741668 -0.00059317197884 -0.0006226025871 
-0.0006217113696 -0.00058777839877 -0.00052950857207 -0.00046367262257 -0.00032402423676 -0.00038230780046 -0.00024370754545 -0.00016145690461 -8.224852354e-05 
-2.7094656616e-05 1.5853207515e-05 2.8718333851e-05 2.0913477783e-05 8.622583664e-06 -2.6236523354e-06 2.1663250664e-05 2.6648658604e-05 1.9202654585e-05 
-4.0457942418e-07 -3.8495505578e-05 -8.3707673184e-05 -0.00014649174409 -0.00021525703778 -0.00058190809796 -0.00052026222693 -0.00062139611691 -0.00062590709422 
-0.00058671156876 -0.00050917541375 -0.0004302476882 -0.00037099531619 -3.8380367187e-05 -0.0006098402082 -0.00063169409987 -0.00062811817043 -0.00059616361978 
-0.00055251998128 -8.4187246102e-05 -0.00014773351722 -3.7743375287e-05 -5.6688641052e-06 0.0001125370618 0.00014607862977 0.00016163279361 0.00018685348914 
0.00014220940648 0.00026991314371 0.00019772375526 0.00013368864893 8.378898201e-05 5.195092308e-05 -0.00029292734689 -0.00027418573154 -0.00021638674662 
-0.00019160099328 -0.00019829999655 -0.00015334344062 -0.00012004320888 -7.7018536103e-05 -5.2541734476e-05 0.00017983825819 0.00018410712073 -0.00012662279187 

Disp_FEB 3 1116 double
0 0 0 0 0 0 -5.0660109991e-05 0.00011094921501 2.040860636e-05 
-6.6735032306e-05 0.0001179136234 1.2441875697e-05 0 0 0 -4.0593262383e-05 0.00010328452481 2.9759270546e-05 
0 0 0 -2.3793114451e-05 9.7859432572e-05 3.8406233216e-05 0 0 0 
-8.748484106e-06 9.2045105703e-05 4.4204236474e-05 0 0 0 1.8351001927e-06 8.5634143034e-05 4.8785044783e-05 
0 0 0 1.2023121599e-05 7.9311925219e-05 5.2107327065e-05 0 0 0 
1.8901180738e-05 6.9131820055e-05 5.3399300668e-05 0 0 0 1.837858872e-05 6.2014398281e-05 5.0980201195e-05 
0 0 0 2.3409593268e-05 6.8797256972e-05 5.2790852351e-05 0 0 0 
2.790216422e-05 7.0771799074e-05 6.492711691e-05 0 0 0 3.4488712117e-05 6.5551445005e-05 8.0588513811e-05 
0 0 0 3.4358341509e-05 5.3366551583e-05 9.5216222689e-05 0 0 0 
3.5091132304e-05 3.8740807213e-05 0.00010488796397 0 0 0 3.4398890421e-05 2.5128128982e-05 0.000109136221 
0 0 0 3.3227275708e-05 1.1606218322e-05 0.0001129724842 0 0 0 
2.7199006581e-05 -4.5918800424e-06 0.00011255904246 0 0 0 1.8496077246e-05 -2.1303601898e-05 0.00011077201634 
0 0 0 1.0816770555e-05 -3.6877081584e-05 0.00010691722855 0 0 0 
1.1868127331e-05 -4.7369074309e-05 9.7706943052e-05 0 0 0 1.5726342099e-05 -5.5252428865e-05 8.1456826592e-05 
0 0 0 1.8406186427e-05 -5.9741989389e-05 5.9712623624e-05 0 0 0 
2.4019616831e-05 -5.596599658e-05 3.1026775105e-05 0 0 0 2.5735327654e-05 -4.1503793909e-05 -2.8653391837e-06 
0 0 0 2.9133694625e-05 -2.1840343834e-05 -2.220672468e-05 0 0 0 
3.3364034607e-05 -9.8036898635e-06 -2.5008885132e-05 0 0 0 3.2756513974e-05 -1.5124463062e-05 -1.2222221812e-05 
0 0 0 3.569430919e-05 -3.7867823266e-05 -9.3531862149e-06 0 0 0 
3.5161665437e-05 -6.548222882e-05 -2.1334390112e-05 0 0 0 3.4057342418e-05 -8.9446002676e-05 -3.9997394197e-05 
0 0 0 3.2374809962e-05 -0.0001068112615 -5.8153760619e-05 0 0 0 
2.8169515645e-05 -0.0001190846815 -7.3290742876e-05 0 0 0 1.7854124962e-05 -0.00012835398957 -8.4262472228e-05 
0 0 0 1.1015618838e-05 -0.00013842037879 -0.00010129284055 0 0 0 
1.9357839847e-06 -0.00014403004025 -0.00011536412057 0 0 0 -1.3555219311e-06 -0.00014247729268 -0.00012827652972 
0 0 0 -5.1367824199e-06 -0.0001417852618 -0.00014555663802 0 0 0 
-1.2603990399e-05 -0.00013456614397 -0.00015836246894 0 0 0 -1.6983722162e-05 -0.00012089268421 -0.00016438057355 
0 0 0 -1.6812453396e-05 -0.00010336448759 -0.00016197771765 0 0 0 
-1.7928436137e-05 -8.3196027845e-05 -0.00015027457266 0 0 0 -1.383288145e-05 -6.7420711275e-05 -0.00013336935081 
0 0 0 -7.9352575995e-06 -5.1482798881e-05 -0.00011288942187 0 0 0 
-5.3190119615e-06 -3.2011448639e-05 -9.176023741e-05 0 0 0 -8.8200476966e-07 -1.405850162e-05 -6.7461565777e-05 
0 0 0 8.164411156e-06 -3.2331079183e-06 -4.5742413931e-05 0 0 0 
9.4642009572e-06 5.2275868256e-06 -4.0975082811e-05 0 0 0 1.1293874422e-06 2.0259318262e-05 -4.7173874918e-05 
0 0 0 -1.0492672118e-05 4.6622695663e-05 -5.56230043e-05 0 0 0 
-2.0723224225e-05 7.7288386819e-05 -5.4930926126e-05 0 0 0 -2.4343738914e-05 0.00010061475768 -4.6169949201e-05 
0 0 0 -2.4644068617e-05 0.00011178103887 -3.5430486605e-05 0 0 0 
-3.1589945138e-05 0.00011328726396 -2.7521147786e-05 0 0 0 -4.5948978368e-05 0.00011449483281 -2.106957254e-05 
0 0 0 -5.909058018e-05 0.00011842332606 -1.0038246728e-05 0 0 0 
-6.5482236096e-05 0.00011979067494 1.9991318823e-06 0 0 0 0 0 0 
-7.6827649309e-07 -7.0761503594e-05 2.2272593924e-05 -1.0184799976e-05 -6.360730913e-05 2.0491585019e-05 0 0 0 
9.3513763204e-06 -8.1343539932e-05 3.6915072997e-05 0 0 0 2.520081398e-05 -9.0403096692e-05 5.041591794e-05 
0 0 0 3.5832450521e-05 -9.8541779153e-05 6.8351524533e-05 0 0 0 
4.7541561798e-05 -9.9423930806e-05 8.8694789156e-05 0 0 0 5.2378494729e-05 -9.6362513432e-05 0.00011175176041 
0 0 0 5.6670891354e-05 -8.5422325355e-05 0.00012870856153 0 0 0 
5.0232581998e-05 -7.1876631409e-05 0.00014025442943 0 0 0 4.8046673328e-05 -5.4833046306e-05 0.00014319801994 
0 0 0 3.154807564e-05 -4.5187633077e-05 0.00014205138723 0 0 0 
2.1866882889e-05 -3.7916022848e-05 0.00013588467846 0 0 0 1.1760162124e-05 -2.9202479709e-05 0.00012647808762 
0 0 0 4.0652794269e-06 -1.4711616132e-05 0.00011363554222 0 0 0 
-4.4665052883e-06 1.4444257204e-06 9.3914808531e-05 0 0 0 -1.5122726836e-05 1.3885319277e-05 6.9842659286e-05 
0 0 0 -1.8637410903e-05 2.1923888198e-05 4.3330892368e-05 0 0 0 
-2.1859936169e-05 2.1439227567e-05 2.6028212233e-05 0 0 0 -1.6031000996e-05 2.0065397621e-05 2.3027294446e-05 
0 0 0 -1.5046272893e-05 3.2788702811e-05 3.4420252632e-05 0 0 0 
-1.6603826225e-05 5.839667574e-05 3.9873208152e-05 0 0 0 -1.2230194443e-05 8.2846308942e-05 4.2707470129e-05 
0 0 0 -2.0534762371e-05 0.00011266895308 4.3494997954e-05 0 0 0 
-2.2227821319e-05 0.00013961018703 3.8238791603e-05 0 0 0 -1.9279128537e-05 0.00015936337877 2.3872175007e-05 
0 0 0 -3.0068225897e-05 0.00017035951896 5.2265090744e-06 0 0 0 
-4.7812474804e-05 0.00016984442482 -8.0299860201e-06 0 0 0 -5.5167110986e-05 0.00016172190954 -1.4574214219e-05 
0 0 0 -5.1782833907e-05 0.00015899285791 -1.6946896721e-05 0 0 0 
-4.6538541937e-05 0.00016186242283 -2.177319584e-05 0 0 0 -3.955154898e-05 0.00016222801059 -3.3180796891e-05 
0 0 0 -5.0508213462e-05 0.00015844740847 -4.4973316108e-05 -2.4994176783e-05 4.3733722123e-05 5.1110419008e-06 
-5.4138527048e-05 0.00013813460828 -5.8519315644e-05 0 0 0 -5.9416470322e-05 0.00012287691061 -6.4538420702e-05 
0 0 0 -5.7419874793e-05 9.1712849098e-05 -6.573562132e-05 0 0 0 
-5.4953325161e-05 5.7599638239e-05 -6.0477454099e-05 0 0 0 -4.8902053095e-05 2.7217174647e-05 -4.9147005484e-05 
0 0 0 -4.6083583584e-05 9.3741355158e-06 -3.455582555e-05 0 0 0 
-4.4386459194e-05 1.4689655927e-06 -2.4021432182e-05 0 0 0 -4.5143373427e-05 1.2855364275e-06 -2.0016457711e-05 
0 0 0 -5.1884551795e-05 -7.682742762e-07 -2.3956959922e-05 0 0 0 
-5.2382572903e-05 -8.6591908257e-06 -3.3110994991e-05 0 0 0 -5.0111611927e-05 -1.7969345208e-05 -4.1054234316e-05 
0 0 0 -4.4246542529e-05 -2.3385997338e-05 -4.9243666581e-05 0 0 0 
-3.6204794014e-05 -2.6154992156e-05 -6.1687722337e-05 0 0 0 -2.3179838536e-05 -3.1218405638e-05 -8.2073231169e-05 
0 0 0 -8.7483558673e-06 -4.6876863053e-05 -0.00010529385327 0 0 0 
1.060393879e-05 -7.0253117883e-05 -0.00012789708853 0 0 0 2.5003757401e-05 -0.00010153548646 -0.00014471977192 
0 0 0 3.8950649468e-05 -0.00012859395065 -0.00014800127246 0 0 0 
5.193620018e-05 -0.00015049132344 -0.0001375527936 0 0 0 4.7718905989e-05 -0.00016488901747 -0.00011275510042 
0 0 0 3.9783404645e-05 -0.00016466043598 -8.1312740804e-05 0 0 0 
1.8707552954e-05 -0.0001530302834 -4.8178804718e-05 0 0 0 1.8232403818e-06 -0.00012430195056 -1.4374336388e-05 
0 0 0 -1.4705316062e-05 -9.0190609626e-05 -2.657585128e-06 0 0 0 
-2.2668315069e-05 -7.3442744906e-05 1.2224047623e-06 0 0 0 -1.9258361135e-05 -6.5332387749e-05 1.5936715499e-05 
-7.2871007433e-05 0.00017888042203 5.6514410971e-05 -9.0487672423e-05 0.00019660097314 3.8108235458e-05 -4.970828013e-05 0.00015995354624 6.911688979e-05 
-2.4317920179e-05 0.00014497128723 7.5114534411e-05 -2.7533958473e-06 0.00013347405184 7.7369491919e-05 1.4312341591e-05 0.00012172853167 7.855273725e-05 
2.691060763e-05 0.00010731098882 7.7888173109e-05 3.3586213249e-05 9.9417455203e-05 7.2537986853e-05 4.1010156565e-05 0.00010503001977 7.3682473158e-05 
4.7374178394e-05 0.0001055210887 9.0782028565e-05 5.1859966334e-05 9.6703435702e-05 0.00011439280934 5.4101663409e-05 8.120356506e-05 0.00013668794418 
5.6121800299e-05 6.149992987e-05 0.00015396031085 5.3354684496e-05 4.0829545469e-05 0.00016541573859 4.7967139835e-05 1.7787127945e-05 0.00017415257753 
3.4230666643e-05 -9.0180083134e-06 0.00018171063857 2.766549369e-05 -3.7174977479e-05 0.00018877272669 2.086278073e-05 -6.6702130425e-05 0.00018874298257 
2.5997567718e-05 -8.7146509031e-05 0.00017687519721 3.0158164009e-05 -0.0001040385614 0.00015135435387 3.1635365303e-05 -0.00011504128634 0.00011536700913 
2.9434237149e-05 -0.00011527787865 6.3471357862e-05 3.0852188502e-05 -7.1552974987e-05 -8.307920325e-07 3.490637755e-05 -3.7970450649e-05 -2.9296248613e-05 
4.1779818275e-05 -1.8791051843e-05 -2.7952575692e-05 4.6853561798e-05 -2.9041273592e-05 -9.277110621e-06 5.3734471294e-05 -6.5394997364e-05 -6.3571210376e-06 
5.8684421674e-05 -0.00010865219519 -2.6252793759e-05 6.0976672103e-05 -0.00014681091125 -5.6865352235e-05 5.8992987761e-05 -0.00017778390611 -8.7823260401e-05 
5.1853887271e-05 -0.00020292171394 -0.00011535856902 3.7695768697e-05 -0.00022528185218 -0.00013967318228 2.4616090741e-05 -0.00024170045799 -0.00016740860883 
8.1638572738e-06 -0.00025341531727 -0.00019378072466 -1.6412117532e-07 -0.0002568444761 -0.00022149254801 -6.3183624661e-06 -0.00025108503178 -0.00025088121765 
-1.5450523279e-05 -0.00023290432 -0.00027421474806 -2.7036772735e-05 -0.00020347368263 -0.00028274700162 -3.4182488889e-05 -0.00016694563965 -0.0002745622769 
-3.4756132663e-05 -0.00012886693003 -0.0002522621071 -2.9360244298e-05 -9.3960530648e-05 -0.00021994765848 -2.481230149e-05 -6.396536628e-05 -0.00018281834491 
-2.198014954e-05 -3.5420518543e-05 -0.00014417014609 -1.3487172509e-05 -1.1530658412e-05 -0.00010191857291 4.4713283387e-06 9.1062389629e-07 -6.4598345489e-05 
8.0888357843e-06 9.643782505e-06 -5.9840345784e-05 -2.507070576e-06 2.7149177185e-05 -6.9455476478e-05 -2.2107877157e-05 6.0416103224e-05 -8.1194899394e-05 
-4.0428803914e-05 0.00010370559903 -8.2224789367e-05 -5.1700098993e-05 0.00013974719332 -7.2884024121e-05 -5.5590651755e-05 0.00016499176854 -5.9231857449e-05 
-6.4551932155e-05 0.00017895796918 -5.1073577197e-05 -7.7896438597e-05 0.00019619280647 -4.2565367039e-05 -9.0208501206e-05 0.00021391229529 -2.2900050681e-05 
-9.8408505437e-05 0.00021818962705 1.0518532463e-06 -9.812060307e-05 0.00021166817169 2.0401626898e-05 1.1023614206e-05 -0.00013011366536 5.6999066146e-05 
-6.0928355197e-06 -0.00011269993411 3.53064097e-05 3.2241747249e-05 -0.00014833983732 7.9073324741e-05 5.2232229791e-05 -0.00016470279661 0.00010945522808 
6.8088840635e-05 -0.00017184441094 0.00014790114074 7.7765980677e-05 -0.00016786160995 0.00018674130843 8.2164893684e-05 -0.0001530203881 0.00021853623912 
7.4308802141e-05 -0.00013108221174 0.00024023200967 6.387616304e-05 -0.0001053932574 0.00024688232224 4.578390508e-05 -8.2654281869e-05 0.00024068643688 
3.3292613807e-05 -5.9370031522e-05 0.00022703805007 2.0162231522e-05 -3.5477769416e-05 0.00020759797189 8.3677341536e-06 -6.0781067077e-06 0.00018062838353 
-6.4007354013e-06 1.7168673367e-05 0.00014465143613 -1.8295117115e-05 3.4596421756e-05 0.00010311007645 -2.3987979148e-05 3.9216549339e-05 6.5628206357e-05 
-2.3583339498e-05 3.4732591303e-05 4.5164571929e-05 -1.7002688764e-05 3.7402009184e-05 4.6883360483e-05 -1.5941788661e-05 5.7991714129e-05 6.1222999648e-05 
-1.6917763787e-05 9.438109555e-05 7.5355434092e-05 -1.576408431e-05 0.00013770700025 8.6176063633e-05 -2.529752237e-05 0.00018656511384 8.718931349e-05 
-3.1161296647e-05 0.0002345781395 7.7021737525e-05 -4.079224891e-05 0.00027114702971 5.0605354772e-05 -5.565673564e-05 0.00028733344516 1.6395395505e-05 
-6.8514396844e-05 0.00028230916359 -1.2444079402e-05 -7.7405042248e-05 0.00026740384055 -2.6799059924e-05 -7.8897544881e-05 0.00025993693271 -3.1087092793e-05 
-7.6435331721e-05 0.00026178098051 -4.1322178731e-05 -7.3907111073e-05 0.00026333442656 -6.0010388552e-05 -7.6344702393e-05 0.0002525325981 -8.2836253569e-05 
-8.1761900219e-05 0.00022707898461 -0.00010276729154 -8.7594002252e-05 0.00018645527598 -0.00011422926036 -8.7211446953e-05 0.00013716577087 -0.00011469747551 
-8.1898942881e-05 8.4487379354e-05 -0.00010530098371 -7.33078341e-05 4.1288891225e-05 -8.5969375505e-05 -6.762346311e-05 1.3849726201e-05 -6.2589169829e-05 
-6.4710518927e-05 5.395169751e-07 -4.3708369049e-05 -6.6692649852e-05 -1.1687044434e-06 -3.4520209738e-05 -7.330403605e-05 -2.8700594612e-06 -3.7283218262e-05 
-7.5987976743e-05 -1.4184394786e-05 -4.8630223318e-05 -7.2564318543e-05 -2.7902697184e-05 -6.0219041188e-05 -6.4895066316e-05 -3.5762692278e-05 -7.3966235504e-05 
-5.2900410083e-05 -3.805502638e-05 -9.9703371234e-05 -3.7727608287e-05 -4.8973830417e-05 -0.00014150378411 -1.7803860828e-05 -8.1338075688e-05 -0.00018927223573 
7.6205569712e-06 -0.00012807642634 -0.00023110958864 3.1166211556e-05 -0.00018236169126 -0.00025811593514 5.3431362176e-05 -0.00023636929109 -0.00026103510754 
7.165021816e-05 -0.00027586193755 -0.00023944779241 7.2549111792e-05 -0.00029552794877 -0.00019582308596 6.4580024628e-05 -0.00028751886566 -0.00013566066627 
4.5631699322e-05 -0.00025108185946 -6.9378751505e-05 1.6584868717e-05 -0.00018912489759 -3.9699129957e-06 -2.161665725e-05 -0.00012381916167 2.403126382e-05 
-4.0003302274e-05 -9.5924347988e-05 1.1959253243e-05 -3.4215401683e-05 -9.1704758233e-05 1.4495508367e-05 -2.2349091523e-05 -9.7755160823e-05 2.147696614e-05 
-6.937510625e-05 0.00021214601293 9.9284829048e-05 -9.1305366368e-05 0.00024911400396 8.3484126662e-05 -3.9646976802e-05 0.00018484875909 0.00010195633513 
-1.2818118194e-05 0.00016364001203 9.9739314464e-05 9.5693558251e-06 0.00014654191909 9.5097304438e-05 2.7470412533e-05 0.00013001776824 8.8282482466e-05 
3.9725007809e-05 0.00012013970991 7.8624594607e-05 4.8150512157e-05 0.00012037686247 7.7034274e-05 5.4913572967e-05 0.00011689801613 9.1817833891e-05 
6.0149355704e-05 0.00010847251542 0.00011503841233 6.3664723712e-05 9.4594041002e-05 0.00014067413576 6.5184241976e-05 7.5365780503e-05 0.00016401824541 
6.1191654822e-05 5.4512733186e-05 0.00018523090694 4.9522903282e-05 2.8581556762e-05 0.00020918507653 3.6114954128e-05 -6.6626034823e-06 0.00023562008573 
3.2377392927e-05 -5.0264749007e-05 0.00025810874649 3.2863321394e-05 -9.3940849183e-05 0.00026347560924 3.6879984691e-05 -0.00012816635717 0.00024860017584 
3.794613076e-05 -0.00015095932758 0.00021382044361 3.5584864236e-05 -0.00016559979122 0.00017153348017 2.8918348107e-05 -0.00017624060274 0.00012732738105 
2.4463724912e-05 -4.71496096e-05 -3.2430478313e-05 1.9619510567e-05 -8.7279644504e-05 -9.5669165603e-06 3.4307344322e-05 -2.5904704671e-05 -2.6887313652e-05 
4.7501704103e-05 -3.8634105294e-05 -5.7270117395e-06 6.0216185375e-05 -8.2867751189e-05 -1.1941656339e-06 6.9021349191e-05 -0.00013868094538 -2.2893342248e-05 
7.2849252319e-05 -0.00019148027059 -5.9580506786e-05 7.2336297308e-05 -0.00023631450313 -0.00010285335884 6.5793887188e-05 -0.00027480226709 -0.00014373559679 
5.3340052546e-05 -0.00030836372753 -0.00018333962362 3.7763191358e-05 -0.00033446770976 -0.00022597622592 1.6225860236e-05 -0.00035121044493 -0.00026612036163 
-3.5307959223e-08 -0.00035468122223 -0.00030539961881 -1.220289505e-05 -0.00034298372339 -0.00034223680268 -2.4064480385e-05 -0.00031464308267 -0.00036908802576 
-3.4126529499e-05 -0.00027158550802 -0.00037773084478 -4.187270315e-05 -0.00021830083278 -0.00036396304495 -4.4446100219e-05 -0.00016350332589 -0.00032976752846 
-3.9589082007e-05 -0.0001154148631 -0.00028220043168 -3.4629909351e-05 -7.6569347584e-05 -0.00023072210024 -3.2195184758e-05 -4.5375101763e-05 -0.00018582383927 
-2.6904142942e-05 -2.3413123927e-05 -0.00014661467867 3.8378748286e-06 8.0725722e-06 -5.8449328208e-05 1.0292668549e-06 1.1956414028e-06 -6.0509701143e-05 
-9.8989485195e-06 2.6087887818e-05 -7.3444083682e-05 -3.5733773984e-05 6.4312080212e-05 -9.1137233539e-05 -6.1308412114e-05 0.00011595773685 -9.724960546e-05 
-7.8144286817e-05 0.00016373750987 -9.1073285148e-05 -8.7217900727e-05 0.00020087401208 -7.8012948507e-05 -9.8288524896e-05 0.00022713845829 -7.1151298471e-05 
-0.00010536829359 0.00026257021818 -6.2967956183e-05 -0.00011458552035 0.00029629189521 -4.1326453356e-05 -0.00012304499978 0.00031746632885 -8.4845923993e-06 
-0.00011872652249 0.00030759049696 2.6992074709e-05 -0.00011345525127 0.00028021860635 5.9908656112e-05 1.6759482605e-05 -0.00013806519564 3.4408159991e-05 
2.1399146135e-05 -0.0001856576273 9.0319335868e-05 -1.206133129e-05 -2.049876457e-06 -8.369020361e-05 -2.1637173631e-05 -7.0325504566e-06 -0.00011529658514 
3.8730682718e-05 -0.00018852174981 9.7739059129e-05 1.2289941878e-05 -0.00015990922111 6.8289518822e-05 6.1691287556e-05 -0.00021331789321 0.00014177124831 
8.0206133134e-05 -0.000227082739 0.00019351528317 8.9463384938e-05 -0.00022572970192 0.00024755852064 9.2850561487e-05 -0.00021015232778 0.00029128402821 
8.4813822468e-05 -0.00018435201491 0.00032170148916 7.5446929259e-05 -0.0001477101614 0.00033247799729 6.2236736994e-05 -0.00010807277431 0.00032300341991 
4.3778902182e-05 -7.3598217568e-05 0.00029913513572 2.8369449865e-05 -3.273254697e-05 0.00026642429293 1.0943296729e-05 7.7394470281e-06 0.0002240024769 
-7.275900316e-06 3.84772502e-05 0.00017248121731 -2.1410634872e-05 5.2979328757e-05 0.00011867494322 -2.6537225494e-05 5.2324656281e-05 7.5184281741e-05 
-2.2334474124e-05 4.2272458813e-05 5.0320271839e-05 -1.2355350918e-05 4.5346478146e-05 5.7753601141e-05 -1.2405849702e-05 7.5903342804e-05 8.0899837485e-05 
-1.6452051568e-05 0.00012299259834 0.00010323529568 -2.0856865376e-05 0.0001799602469 0.00012079389126 -3.4636097553e-05 0.00024600120378 0.00012400037667 
-4.8941619752e-05 0.00031116115861 0.00011028493464 -6.8018423917e-05 0.00035912118619 7.3850089393e-05 -8.3824597823e-05 0.00037894395064 2.7064448659e-05 
-9.339407552e-05 0.00037018829607 -1.232309296e-05 -9.703017713e-05 0.00034899680759 -3.4485983633e-05 -9.7797732451e-05 0.00033656778396 -4.1532373871e-05 
-9.9095377664e-05 0.00033898212132 -5.39712928e-05 -9.9211814813e-05 0.00034117363975 -8.0267425801e-05 -0.00010019032925 0.00032634922536 -0.00011131499923 
-0.0001027369799 0.00028865336208 -0.00013756705448 -0.00010351419041 0.00022995816835 -0.00015069155779 -9.8053984402e-05 0.00015840957349 -0.00015088930377 
-9.2567344836e-05 9.231500735e-05 -0.0001331656822 -8.559635171e-05 4.1964245611e-05 -0.00010632845078 -8.0502963101e-05 1.3107342056e-05 -7.5263233157e-05 
-7.6590331446e-05 -7.03419758e-08 -5.1238843298e-05 -7.6739757787e-05 -1.098960638e-06 -3.976068183e-05 -7.7975681052e-05 -5.405970569e-06 -4.1928764404e-05 
-7.7491706179e-05 -1.7170445062e-05 -5.2746428992e-05 -7.3358765803e-05 -3.0771796446e-05 -6.7328430305e-05 -6.5000269387e-05 -3.9135051338e-05 -8.9637389465e-05 
-5.3573952755e-05 -4.2660980398e-05 -0.00013167054567 -3.9554313844e-05 -6.4496227424e-05 -0.00019484962104 -2.0054232664e-05 -0.00011580750288 -0.000262548303 
6.3930269789e-06 -0.00018231394642 -0.00032184243901 3.3998363506e-05 -0.00025995349279 -0.00035816887976 6.0385271354e-05 -0.00033573937253 -0.0003603187215 
8.2224360085e-05 -0.0003887861385 -0.0003271404421 8.9662520622e-05 -0.00040811489453 -0.0002622360189 8.6710882897e-05 -0.00038477790076 -0.00017259563901 
6.6947388405e-05 -0.00032168303733 -7.5345960795e-05 3.1332623621e-05 -0.00022592808818 9.6670200946e-06 -1.0786742678e-05 -0.00013116947957 4.634420111e-05 
-4.3559412006e-05 -8.567696932e-05 2.2541409635e-05 -4.5171807869e-05 -8.7844600785e-05 1.1950695807e-05 -3.182718865e-05 -0.00010668682808 1.8497263227e-05 
-1.1182391063e-05 -0.00013263705478 3.9612561523e-05 -9.8976242953e-06 1.8726391318e-06 -6.9368048571e-05 -1.5162097952e-05 1.3876978073e-06 -8.663799963e-05 
-3.0039950616e-06 1.7292240955e-06 -5.4523628933e-05 -3.1534380014e-06 3.5199652757e-06 -5.6606157159e-05 -2.05092947e-05 2.0340574338e-05 -7.7973454609e-05 
-5.130574209e-05 6.4246851252e-05 -0.00010130435112 -8.0453828559e-05 0.00012663561211 -0.00011062323028 -0.00010217750969 0.00018331730098 -0.00010789764201 
-0.00011595895194 0.00022949557751 -9.7354277386e-05 -0.00012519634038 0.00026602452272 -8.8726323156e-05 -0.00012760212121 0.00030752501334 -7.9728888522e-05 
-0.00013271028001 0.00035503317486 -6.597590982e-05 -0.0001461301581 0.00041761202738 -2.7587529985e-05 -0.00013835694699 0.00039495137753 3.9000737161e-05 
-0.0001213323485 0.00035201050923 8.373480523e-05 -0.00010494692833 0.00030123017495 0.00011268236267 -8.2558908616e-05 0.00025219123927 0.00012515789422 
-5.3742747696e-05 0.00021441241552 0.0001262017613 -2.3973490897e-05 0.00018639118935 0.0001185241199 1.482576522e-06 0.00016402246547 0.00010761700105 
2.17347133e-05 0.00014299858594 9.488422802e-05 3.6777808418e-05 0.00012743269326 7.929919957e-05 4.7984631237e-05 0.00011923420971 7.2409857239e-05 
5.7134260715e-05 0.00011318239558 8.1124286226e-05 6.3274987042e-05 0.00010694396769 0.00010079903586 6.6254789999e-05 9.8001837614e-05 0.0001248583867 
6.5598302172e-05 8.4136561782e-05 0.00015228726261 5.7991164795e-05 6.8430192186e-05 0.00018295343034 4.5365632104e-05 4.2476873205e-05 0.0002237157023 
3.6413366615e-05 -1.4364296703e-06 0.00027115584817 3.8443220546e-05 -5.8795616496e-05 0.00030928204069 4.4003627409e-05 -0.00012064969633 0.00032472546445 
4.7517856729e-05 -0.00016542105004 0.00030274037272 4.4189226173e-05 -0.00019012708799 0.00025945765083 4.0916762373e-05 -0.00020214369579 0.00021730580193 
3.4484150092e-05 -0.00021760413074 0.0001806854707 2.9405777241e-05 -0.00022457767045 0.00014635932166 1.2538163901e-05 -0.00018400227418 5.3719984862e-05 
2.2392450774e-05 -0.00022451499535 0.00010627201118 9.0015755632e-06 -0.00013825525821 1.3133265384e-05 9.5109726317e-06 -9.4576105766e-05 -1.6203963241e-05 
1.3180082533e-05 -5.8386547607e-05 -3.0170795071e-05 2.4028706321e-05 -3.6834950151e-05 -2.2792926757e-05 4.1633611545e-05 -4.742803867e-05 -3.2910425034e-06 
6.0008438595e-05 -9.3262984592e-05 3.4149502426e-06 7.3048962804e-05 -0.00015727983555 -1.8201933926e-05 7.9356090282e-05 -0.00022208310838 -5.7789278799e-05 
7.9885045125e-05 -0.00027942762244 -0.00010764950275 7.4757692346e-05 -0.00033054230153 -0.00015874233213 6.4183725044e-05 -0.00037572890869 -0.00021307634597 
4.4899014028e-05 -0.000413294998 -0.00026907600113 1.9051967683e-05 -0.00043765490409 -0.00032416149043 -2.64913092e-06 -0.00043850604561 -0.00037754204823 
-2.1771124011e-05 -0.00041532097384 -0.00042066708556 -3.5194909287e-05 -0.00037350811181 -0.00044481767691 -4.0462247853e-05 -0.0003173542791 -0.00044832780259 
-4.4858195906e-05 -0.00025102047948 -0.0004269866331 -4.5511304052e-05 -0.00018433234072 -0.00038250404759 -4.3566265958e-05 -0.00012402664288 -0.00032251371886 
-3.8374950236e-05 -8.1170495832e-05 -0.00026359889307 -3.3797201468e-05 -5.317790783e-05 -0.0002161385928 -2.9598948458e-05 -2.8687996746e-05 -0.0001791685936 
-2.2847352739e-05 -1.2825827071e-05 -0.00014237085998 -1.7378624761e-05 5.5882100014e-07 -0.00010372747784 -1.1113768778e-05 2.9028904009e-06 -6.2302322476e-05 
-1.4537235984e-05 2.758791652e-06 -6.6679400334e-05 -8.5340952864e-06 2.034773388e-06 -5.9316975239e-05 6.8334607931e-05 -0.00024555640994 0.00016263882571 
4.2051502533e-05 -0.0002144689206 0.00010987901624 8.8134234829e-05 -0.00026341550983 0.00022372846433 9.7599695437e-05 -0.00026372121647 0.00028777585248 
0.00010041240603 -0.00024810578907 0.00033972063102 9.4330905995e-05 -0.00021911595832 0.000375662843 8.3406477643e-05 -0.00017686467618 0.00039000008837 
6.8214147177e-05 -0.00012493548275 0.00037890521344 4.8938763939e-05 -7.505971007e-05 0.00034638491343 2.7928368581e-05 -2.5602319511e-05 0.00030216338928 
6.496954029e-06 2.247739576e-05 0.00024867846514 -1.2944585251e-05 5.4105752497e-05 0.00018714019097 -2.6880497899e-05 6.8625951826e-05 0.00012622248323 
-2.9307266232e-05 6.2654995418e-05 8.0173384049e-05 -2.3541406335e-05 5.1096623793e-05 5.4624757468e-05 -1.4759451915e-05 4.6412827942e-05 5.1752533182e-05 
-1.8170214389e-05 0.00014618193381 0.0001263825543 -1.1404835277e-05 9.74858267e-05 0.00010290618957 -2.8046799343e-05 0.00021170466789 0.00014810690482 
-4.6046825446e-05 0.00028750070487 0.00015328456357 -6.6863816755e-05 0.00036321851076 0.00013674305228 -8.8420267275e-05 0.00041937097558 9.4039743999e-05 
-0.00010459887562 0.00044297470595 3.91124413e-05 -0.00011332205759 0.00043324331637 -8.405590961e-06 -0.00011715658911 0.00040749038453 -3.6870813346e-05 
-0.00011385758989 0.00038990820758 -4.775479465e-05 -0.00011616826669 0.00039117890992 -6.0641723394e-05 -0.00011975957023 0.00039444866707 -9.0702509624e-05 
-0.00012038964633 0.00037773619988 -0.00013036200835 -0.0001172353368 0.00032702006865 -0.00016187068832 -0.00011137453839 0.000252322905 -0.00017597523401 
-0.00010284307791 0.00016670054174 -0.00017198406567 -9.5952105767e-05 9.0575049398e-05 -0.00014813657617 -9.0080822702e-05 3.577640382e-05 -0.00011507131421 
-8.5599407612e-05 8.780598364e-06 -7.7107550169e-05 -8.1138459791e-05 4.3188094878e-07 -5.0260503485e-05 -7.7710188634e-05 -1.9305732124e-08 -4.0447721403e-05 
-7.4082818173e-05 -8.108370821e-06 -4.4484655518e-05 -6.990035763e-05 -1.9867999072e-05 -5.5236872868e-05 -6.3683452026e-05 -2.9455715776e-05 -7.359997835e-05 
-5.5307507864e-05 -3.8600908738e-05 -0.00010671494238 -4.4652937504e-05 -4.6247514547e-05 -0.00016543343372 -3.226688932e-05 -8.0157566117e-05 -0.00024607611704 
-1.4116058992e-05 -0.00014555404778 -0.00032901484519 9.7818574432e-06 -0.0002276483574 -0.000400068413 3.5483553802e-05 -0.00032492409809 -0.0004412632552 
6.3492501795e-05 -0.00041632255306 -0.00044299990986 8.6210835434e-05 -0.00047995412024 -0.00039902832941 9.7996206023e-05 -0.00049675261835 -0.00031321519054 
9.503349429e-05 -0.00045544828754 -0.00019758447888 7.536252815e-05 -0.00036509774509 -7.8116296208e-05 4.4021187932e-05 -0.00024460462737 1.6427027731e-05 
6.9954585342e-06 -0.00013814681733 5.3392952395e-05 -3.0332608731e-05 -7.824786735e-05 3.1514678994e-05 -4.3589072448e-05 -7.4996620242e-05 1.2052732018e-05 
-3.5274628317e-05 -0.00010177007789 1.3534795471e-05 -1.3963252968e-05 -0.0001384945499 3.790984556e-05 1.2766716281e-05 -0.00017639446014 7.3211005656e-05 
-7.9633855421e-06 6.5395353886e-05 7.9470089986e-05 -6.4769769779e-06 5.2826220781e-05 6.2413142587e-05 -5.4021543292e-06 2.8626746484e-07 -5.0061502407e-05 
-8.4903722382e-06 -5.0852560207e-07 -5.3649924666e-05 -2.8286296583e-05 1.4053725863e-05 -8.2810220192e-05 -6.0520997067e-05 6.5964086389e-05 -0.00011093830835 
-9.3267430202e-05 0.00013589589798 -0.00012673172751 -0.0001192871714 0.00020267210493 -0.00012802307901 -0.00013587587455 0.00025929976255 -0.00011759384506 
-0.00014502489648 0.00030166300712 -0.0001048479462 -0.00014449309674 0.00034036417492 -9.16129502e-05 -0.00014413543977 0.00038259426947 -8.2293707237e-05 
-0.00015246686235 0.00044019156485 -7.2762130003e-05 -0.00012747776054 0.00039711539284 0.00011390709551 -0.00014440815721 0.00045461565605 6.9575602538e-05 
-0.00011112128414 0.00033548430656 0.00013771999511 -8.4549494204e-05 0.00028329811175 0.00014338624896 -5.9547892306e-05 0.00023916689679 0.00014363015362 
-3.5341126932e-05 0.00020990321354 0.00013587120338 -1.0580123671e-05 0.00018230949354 0.00012211446301 1.0708231457e-05 0.00015560595784 0.00010366665083 
2.719942313e-05 0.00013129020226 8.412655734e-05 4.1029186832e-05 0.00010979274521 6.5728010668e-05 5.431847967e-05 0.00010217283852 6.813267828e-05 
6.0514921643e-05 9.9755452538e-05 8.3575403551e-05 6.1729988374e-05 9.6561801911e-05 0.0001067719204 5.7929719333e-05 9.003157902e-05 0.00013734358072 
4.869728582e-05 7.9361612734e-05 0.00017354308511 3.6522858863e-05 5.7287772506e-05 0.0002237666049 3.276746429e-05 9.2656273409e-06 0.0002862267429 
4.0580725909e-05 -5.6607354054e-05 0.00034085172229 5.7608023781e-05 -0.00014314132568 0.00037798780249 5.8702869865e-05 -0.00020011288871 0.00034035014687 
5.1458588132e-05 -0.00022038514726 0.00028906235821 4.5827087888e-05 -0.000223209252 0.00024735959596 4.4856078603e-05 -0.00024151333491 0.0002319993655 
3.9752801968e-05 -0.00025618693326 0.00020129843324 3.4913096897e-05 -0.00025738411932 0.00016434882127 1.4567630387e-05 -0.00020903909171 6.599882181e-05 
2.8537082471e-05 -0.00024575265707 0.00012129873357 5.7686888795e-06 -0.00016707334726 2.4972765459e-05 3.2011785152e-06 -0.00012659782078 -3.2730868043e-06 
4.0860531954e-06 -9.8913136753e-05 -1.8945267584e-05 5.1505758165e-06 -7.3919327406e-05 -2.7075639082e-05 1.3496300198e-05 -4.9409234634e-05 -2.0026029233e-05 
3.2526644645e-05 -5.6030094129e-05 -6.3261444438e-07 5.5795735534e-05 -0.00010108645802 8.7395092123e-06 7.3537696153e-05 -0.00017067328736 -1.271826477e-05 
8.2886203018e-05 -0.00024223366927 -5.2749448514e-05 8.5214320279e-05 -0.00030966379563 -0.00010590284364 8.1332043919e-05 -0.00037259340752 -0.00016271116328 
7.0906178735e-05 -0.00043094117427 -0.00022683941643 5.1822262321e-05 -0.00048109385534 -0.00029910777812 2.4985378332e-05 -0.0005143271992 -0.00037197506754 
-1.8431178432e-06 -0.00051250308752 -0.00044082681416 -2.5895373255e-05 -0.00047518141218 -0.00049153371947 -4.003558206e-05 -0.00041529949522 -0.00051167613128 
-4.4809650717e-05 -0.00034232067992 -0.00050371803809 -4.6033539547e-05 -0.00026179716224 -0.00046985771041 -4.3717849621e-05 -0.00018553320842 -0.00041260159924 
-4.0488092054e-05 -0.00011936487863 -0.00034207844874 -3.6508881749e-05 -7.5433556049e-05 -0.00027542171301 -3.2673240639e-05 -5.4729356634e-05 -0.00023366748064 
-2.8776736144e-05 -3.5109485907e-05 -0.00020782854699 -2.1700525394e-05 -1.5125992832e-05 -0.00016663325368 -1.7443599063e-05 -4.1474459067e-06 -0.00011963503493 
-1.8593667846e-05 3.211711828e-06 -7.4296993262e-05 -1.7127968022e-05 -1.5292832813e-06 -4.0476985305e-05 -2.4900056815e-05 -1.4230574834e-06 -4.1497001803e-05 
-9.3119797384e-06 -4.0220828623e-07 -4.4523254473e-05 -0.00015701926895 0.0004907148541 1.0397256119e-05 -0.00015812691709 0.00049949251115 -4.3498090236e-05 
-4.9227555792e-06 8.256930596e-05 9.6211238997e-05 -1.6835024326e-06 6.6753178544e-05 7.9288067354e-05 -1.1878461009e-05 0.00011520167027 0.00011728759273 
-2.2755471946e-05 0.00016511941794 0.00014174333774 -3.9299167838e-05 0.0002334608871 0.0001623511489 -5.9808357037e-05 0.00031232420588 0.00017216756532 
-8.3354439994e-05 0.00039389770245 0.00015702753444 -0.00010630010365 0.00045667495579 0.00011185766925 -0.00012209400302 0.00048549872008 5.283603241e-05 
-0.00012980835163 0.0004780893214 -1.8083842406e-06 -0.00013014495198 0.0004494166642 -3.7613033783e-05 -0.00012796801457 0.00042617018335 -5.0382881454e-05 
-0.00013116998889 0.00042376833153 -6.2888357206e-05 -0.00013686579769 0.00042733366718 -9.3450529675e-05 -0.00014004448894 0.00041020908975 -0.00014402056695 
-0.00012766946747 0.00034102451173 -0.00017934665084 -0.00011444156553 0.00025247284793 -0.00019344306202 -0.0001036005051 0.00015965609055 -0.00018547786749 
-9.5818686532e-05 8.0898869783e-05 -0.0001536962227 -9.0419409389e-05 2.6824771339e-05 -0.00011527374591 -8.6065869255e-05 7.601670859e-06 -7.0626061643e-05 
-7.9794692283e-05 2.6524414807e-06 -4.5530057832e-05 -7.2901333624e-05 1.4565154061e-07 -4.0196267946e-05 -6.5550644649e-05 -1.0391041542e-05 -4.6296780056e-05 
-5.8382454881e-05 -2.014554957e-05 -5.8029883803e-05 -5.054605208e-05 -2.412516551e-05 -8.1369704276e-05 -4.0020546294e-05 -3.179700434e-05 -0.00013061867503 
-3.0731083825e-05 -4.8981630243e-05 -0.00020641373703 -2.1328305593e-05 -9.781440167e-05 -0.00029796193121 -6.4846403802e-06 -0.00017506736913 -0.00038867842522 
1.436164348e-05 -0.00026520874235 -0.0004658937396 3.8977650547e-05 -0.00037349719787 -0.0005115949898 6.5734086093e-05 -0.00047694082605 -0.00051259313477 
8.6549545813e-05 -0.00054958363762 -0.00046072562691 9.863449668e-05 -0.0005626839702 -0.00035522389226 9.4756629551e-05 -0.00050112220924 -0.00021685965476 
7.7268814493e-05 -0.00038523768308 -8.61843655e-05 5.3178315284e-05 -0.00025209464366 7.3074443208e-06 2.591464181e-05 -0.00014613040548 4.7961901146e-05 
-9.8501777757e-06 -7.8480392403e-05 3.4298416722e-05 -3.0388882806e-05 -6.4853586082e-05 1.4134266166e-05 -3.0629045796e-05 -9.1860310931e-05 9.3356275102e-06 
-1.2927825992e-05 -0.00013631465845 3.1888812373e-05 1.3309703718e-05 -0.00018447794719 7.0903552114e-05 4.2299012421e-05 -0.00023013266036 0.0001155261707 
6.8385423219e-05 -0.00026453693863 0.00017768860562 8.7520595116e-05 -0.0002840073721 0.00024485666654 9.7023868875e-05 -0.00028441648465 0.00031276638038 
9.960236639e-05 -0.0002680493053 0.00036721493234 9.5148192486e-05 -0.00023489998421 0.00040510611143 8.4951898316e-05 -0.00018613427528 0.00042020142428 
6.8839945015e-05 -0.00012856935791 0.00040856521809 4.7517358325e-05 -7.1382863098e-05 0.00037207841524 2.3719027013e-05 -1.6295647583e-05 0.00031967586256 
6.1933462803e-07 3.0875493394e-05 0.00025835886481 -1.7345189917e-05 6.076194768e-05 0.00019191329193 -2.9808936233e-05 7.6485026511e-05 0.00012908065401 
-2.9573398933e-05 6.901454617e-05 8.2430131442e-05 -2.4262839361e-05 5.8686608099e-05 5.4219755839e-05 -1.4939933862e-05 4.9807920732e-05 4.6824905439e-05 
-5.5637719925e-06 4.9846945331e-05 5.1116148825e-05 1.5666336139e-06 6.0324127844e-05 6.2716986577e-05 -1.293653213e-06 8.6961503257e-05 9.6656905953e-05 
4.8364595386e-06 7.8429708083e-05 8.1557744124e-05 -5.4154029385e-06 9.6770650998e-05 0.00010664331785 -1.4585142708e-05 -3.9177843973e-06 -4.5775261242e-05 
-3.1791791116e-05 8.1393891378e-06 -7.6195690781e-05 -6.2349259679e-05 5.9739140852e-05 -0.0001168573508 -9.7496857052e-05 0.00013463242794 -0.00014623986499 
-0.00012618399342 0.00021484582976 -0.00015159169561 -0.00014601334988 0.00028334002127 -0.00014112620556 -0.00015557520965 0.00033402862027 -0.00012207469263 
-0.00015459423594 0.00036905056913 -0.00010045242379 -0.0001507831912 0.00039825955173 -8.7363790954e-05 -0.00014881938114 0.00043582284707 -8.2962520537e-05 
-0.00015003162844 0.00048255483853 -7.1089896664e-05 -0.00015879199782 0.00053740927251 -1.0167221944e-06 -0.00015212612925 0.00051998713752 -4.3262163672e-05 
-0.0001569686865 0.00052373140352 5.3889478295e-05 -0.00014506661682 0.00047710130457 0.00010762371676 -0.00012743537081 0.00041396918823 0.00014366213873 
-0.00010435212607 0.00034794723615 0.00015728177095 -8.0337093095e-05 0.00029218848795 0.00015992723638 -6.2940700445e-05 0.0002545293828 0.00015423021978 
-4.8198973673e-05 0.00023378262995 0.00015288403665 -2.6601801437e-05 0.00020503616543 0.0001416305895 -5.1654142226e-06 0.00017259536253 0.00012207157852 
1.1208820979e-05 0.00014309529797 9.9768432847e-05 2.2866923246e-05 0.00011634355906 7.9969562648e-05 5.3454765293e-05 9.3500064395e-05 7.1176727943e-05 
4.99830021e-05 9.1172776592e-05 5.7948545873e-05 5.1683397032e-05 9.5959789178e-05 9.4829134468e-05 4.6345925512e-05 9.2003821919e-05 0.00012899412832 
4.0298578824e-05 8.3313512732e-05 0.00016591891472 2.6007815904e-05 7.3653776781e-05 0.00020542988204 2.6472098398e-05 2.149368629e-05 0.0002870929311 
3.6031990021e-05 -3.7128396798e-05 0.00034435783164 4.9004502216e-05 -9.2766065791e-05 0.00038440802018 5.5697109929e-05 -0.00024874176597 0.00028970450512 
6.5078340413e-05 -0.00023624238383 0.00035133166239 4.1291790694e-05 9.1902504209e-05 5.6652283092e-05 2.8893751733e-05 9.4790324511e-05 6.6365566454e-05 
6.8014822318e-05 -0.0001926569239 0.00039692016435 5.9514688473e-05 -0.00013475876767 0.00040889799129 4.8690217227e-05 -0.00028045306681 0.00022179327789 
5.4339470807e-05 -0.00027326043346 0.00026647464256 4.4593023631e-05 -0.00027070596116 0.00017904337437 2.2072232241e-05 -0.00022034409631 8.3583174273e-05 
3.9936632675e-05 -0.0002567069314 0.00014098132669 6.3377356128e-06 -0.00017920133541 3.2148138416e-05 -1.4972224562e-06 -0.00013842037879 -1.9455535494e-06 
-1.4119701746e-06 -9.9865996162e-05 -2.077668978e-05 2.5771059882e-06 -6.7605848017e-05 -1.8529248337e-05 2.1170797481e-05 -5.9467223764e-05 6.0549723457e-06 
5.5097614677e-05 -0.00011206947238 1.9681372578e-05 7.4154573667e-05 -0.00018344685668 -5.1238175729e-06 8.5421037511e-05 -0.00025887129596 -4.7220692068e-05 
8.9093977294e-05 -0.00033173870179 -9.9804710771e-05 8.6483916675e-05 -0.00040303659625 -0.00016025501827 7.7331875218e-05 -0.00047316643759 -0.0002302169014 
5.9413760027e-05 -0.00053840712644 -0.00031253611087 3.4771597711e-05 -0.00058070017258 -0.0004114198382 7.5191233009e-06 -0.00057405239204 -0.00049634522293 
-1.8091724996e-05 -0.00052243151003 -0.0005521250423 -3.5295841371e-05 -0.0004446124949 -0.00056708074408 -4.0210739826e-05 -0.00035588158062 -0.00054597243434 
-4.1426479584e-05 -0.00026215359685 -0.00049804284936 -3.8937178033e-05 -0.00017340728664 -0.00042637012666 -3.2076150092e-05 -8.9608074632e-05 -0.00032790366095 
-2.9628563425e-05 -5.1699305914e-05 -0.00025095778983 -2.1024252419e-05 -2.577581472e-05 -0.00019790255465 -1.6932333892e-05 -8.7013349912e-06 -0.0001375106367 
-2.1487039703e-05 -2.4066544029e-06 -8.3958380856e-05 -3.1203460821e-05 -3.4757746903e-07 -4.5609129302e-05 -3.4084496292e-05 -7.2488714977e-06 -3.0767554563e-05 
-4.1886920371e-05 -4.5143819989e-06 -3.1711333577e-05 -2.3817872716e-05 -7.7446566138e-06 -3.6438275856e-05 -1.2109319869e-05 0.00012533082918 0.00012339442037 
-2.4683664378e-05 0.00017264625058 0.00014842087694 -4.5525415771e-05 0.00024070664949 0.00017078386736 -6.9525187428e-05 0.0003201632353 0.0001846117957 
-9.5940980827e-05 0.00040607966366 0.00017239541921 -0.00011958651885 0.00047498007189 0.00012876780238 -0.00013560288062 0.0005105950404 6.7383851274e-05 
-0.00014087585441 0.0005090974737 8.1004827734e-06 -0.00013898251927 0.00048030065955 -3.5889897845e-05 -0.00013749818027 0.00044973069453 -5.3657222452e-05 
-0.00014092074707 0.00043989843107 -6.3608073106e-05 -0.0001471213327 0.00043987520621 -8.6815372924e-05 -0.00015313294716 0.00042955388199 -0.00012010723003 
-0.00011604268366 0.0002311685239 -0.00020095524087 -0.00013063168444 0.00031345261959 -0.00019428311498 -0.00010320966976 0.00014094327344 -0.00018718237698 
-9.3907634437e-05 6.7123066401e-05 -0.00014943622227 -8.7355714641e-05 1.718600106e-05 -0.00010440891492 -8.1972953922e-05 5.3072471928e-06 -6.2026199885e-05 
-7.4194802437e-05 2.4765915896e-06 -4.1167644667e-05 -6.5499771154e-05 -1.1366614672e-06 -3.9455673686e-05 -5.5912154494e-05 -1.0926292816e-05 -4.8093355872e-05 
-4.697751865e-05 -1.7491796825e-05 -6.2551895098e-05 -3.8189078623e-05 -1.7889256924e-05 -9.0214300144e-05 -2.4234157536e-05 -2.0524403226e-05 -0.00016352250532 
-1.8068396457e-05 -5.7861045207e-05 -0.00026086831349 -1.0935606042e-05 -0.00012245282414 -0.00035711910459 8.2070692997e-07 -0.00020495893841 -0.00044582301052 
1.7619449864e-05 -0.00029794260627 -0.0005213842378 3.7934529246e-05 -0.00041296193376 -0.00056427333038 6.1593680584e-05 -0.00051901000552 -0.00056622148259 
8.1367114035e-05 -0.00059941696236 -0.00051275111036 9.6213756478e-05 -0.00062076927861 -0.00039054517401 9.4955961686e-05 -0.00051941658603 -0.0002147717023 
7.9982906755e-05 -0.00038608838804 -8.9729750471e-05 6.1472012021e-05 -0.00025390880182 -7.3972473729e-06 4.1171435441e-05 -0.00015367474407 3.6119981814e-05 
8.0837025962e-06 -8.519707626e-05 3.2570995245e-05 -1.4879487026e-05 -6.2384075136e-05 1.7371268768e-05 -2.225188291e-05 -8.2570542872e-05 7.0210353442e-06 
-1.1305626685e-05 -0.00012908619829 2.1904546884e-05 1.2537066141e-05 -0.00018848177569 5.9838239395e-05 4.0688311856e-05 -0.00023949619208 0.00011876894132 
6.4504129114e-05 -0.00027471774956 0.00018503358297 8.1084959675e-05 -0.00029377132887 0.0002507402678 9.0309782536e-05 -0.00029376338352 0.00031860155286 
9.3360540632e-05 -0.00027643205249 0.00037421280285 9.0191620984e-05 -0.00023951426556 0.00041440955829 8.0354890088e-05 -0.00018729663861 0.00043052696856 
6.43389576e-05 -0.00012744413107 0.00041845339001 4.2616833525e-05 -6.6251646786e-05 0.00037982829963 1.9738414267e-05 -1.3145355297e-05 0.00032202046714 
-2.6585078103e-06 3.3613567211e-05 0.00025681452826 -1.7413944079e-05 5.9260164562e-05 0.00018815402291 -2.6964127755e-05 7.4320741987e-05 0.00012836656242 
-2.5838950023e-05 6.8359411671e-05 8.1799567852e-05 -2.1158302843e-05 6.1307939177e-05 5.4454449128e-05 -1.293000787e-05 5.3620475228e-05 4.3323398131e-05 
-2.331634505e-06 5.135565516e-05 4.2891377234e-05 7.5447146628e-06 5.6821871112e-05 5.0495913456e-05 1.2656847503e-05 7.107903366e-05 6.5808977524e-05 
3.6396863834e-07 0.00010810444655 0.00010679978732 1.0700883649e-05 9.2278358352e-05 8.719105972e-05 -8.0303907453e-06 0.00012025544129 0.00011790976714 
-0.00014504104911 0.00037532293936 -0.00017241558817 -0.00015608499234 0.00040096323937 -0.00014888362784 -3.8338725972e-06 -9.9160555692e-05 -1.1572262338e-05 
1.7357176603e-06 -7.042731886e-05 -5.0595499488e-06 7.6989388617e-05 -0.00019944256928 -1.2992318261e-06 5.8038629504e-05 -0.00013254597434 2.0995070372e-05 
8.7911146693e-05 -0.00027262547519 -4.0047292714e-05 9.2795162345e-05 -0.00034874668927 -9.0517496574e-05 9.0872454166e-05 -0.00042485227459 -0.00015350097965 
8.4151623014e-05 -0.00050142558757 -0.00022456646548 7.1842878242e-05 -0.00057700061006 -0.00031670395401 5.2712508477e-05 -0.00063657562714 -0.00044873924344 
2.1882964575e-05 -0.00061415991513 -0.00054676254513 -4.0396962504e-06 -0.00055032694945 -0.00059719226556 -2.2882275516e-05 -0.00046120843035 -0.00060691306135 
-3.028309402e-05 -0.00035797400051 -0.00057532044593 -3.2881780498e-05 -0.00025447047665 -0.00051426445134 -3.12370139e-05 -0.00016935772146 -0.00043694014312 
-2.6324469218e-05 -0.00010311177903 -0.00035611566273 -2.0556663003e-05 -3.7338199036e-05 -0.00024017530086 -2.0096351363e-05 -5.4239077144e-05 -0.00028077841853 
-3.8681904698e-05 1.3779006736e-07 -6.6776687163e-05 -6.4541767642e-05 4.5055516239e-05 -0.00011988695769 -9.735157073e-05 0.00012473852257 -0.00016207779117 
-0.00012737474754 0.00021779956296 -0.00017445796402 -0.00014781326172 0.00029671227094 -0.00016451145348 -0.00015940082085 0.0003676864726 -0.00014025243581 
-0.00015821767738 0.00039326315164 -0.00010771163943 -0.00015346954751 0.00041398327448 -8.9879387815e-05 -0.00014815735631 0.00043608443229 -7.8396733443e-05 
-0.00014503127022 0.00046239953372 -7.318972348e-05 -0.00014542060671 0.00049010518705 -6.0175112594e-05 -0.00015200259804 0.00054005655693 -2.2165970677e-06 
-0.00014493514027 0.00050621019909 -3.7261419493e-05 -0.00015657643962 0.00054817809723 4.2470193875e-05 -0.00015181818162 0.0005244872882 9.522648179e-05 
-0.00013730577484 0.00047072596499 0.0001416557061 -0.00011520185217 0.00040172840818 0.00016851379769 -8.8753651653e-05 0.00033424486173 0.00017230925732 
-6.6420921939e-05 0.00027529647923 0.00016592883912 -4.5328422857e-05 0.00024444752489 0.00015849265037 -2.3975542717e-05 0.00020283184131 0.0001444559166 
-6.2750214056e-06 0.00016482381034 0.00012183437502 6.8243871283e-06 0.00013185340504 0.00010214426584 1.5662009901e-05 0.00010425695655 8.5439918621e-05 
3.1133749872e-05 7.7411641541e-05 5.3703974118e-05 2.0943705749e-05 8.1905483967e-05 6.8247398303e-05 3.9153128455e-05 8.0355966929e-05 4.7741312301e-05 
4.407682718e-05 8.383092063e-05 5.0785976782e-05 4.4198066462e-05 8.8842331024e-05 6.5119464125e-05 3.8940939703e-05 9.510973905e-05 9.3696340628e-05 
3.2373198337e-05 8.9490429673e-05 0.0001386225922 6.4757681685e-05 -0.00029271631502 0.00027679011691 7.0433874498e-05 -0.00027425790904 0.00034345986205 
5.9305788454e-05 -0.00028742261929 0.00022232923948 9.345266335e-06 -0.00018545436615 4.6267334255e-05 3.794348595e-05 -0.00024629069958 0.0001209064867 
-3.3182170682e-06 -0.00013659810065 5.7737861425e-06 -2.2362964955e-05 0.00016894226428 0.00014602276497 -4.5401651732e-05 0.00023641149164 0.00017288522213 
-7.2423237725e-05 0.00031592109008 0.00019214104395 -0.00010219095566 0.00040521560004 0.00018371733313 -0.0001273129019 0.00047939136857 0.00014288704551 
-0.00014357668988 0.0005216129357 8.3985229139e-05 -0.0001485053217 0.00053023255896 2.2113314117e-05 -0.0001408012904 0.00046310259495 -6.1066712078e-05 
-0.00014389950957 0.00044629751937 -6.6386142862e-05 -0.00015028555936 0.00043993955478 -8.0481753685e-05 -0.00015646140673 0.00042915419908 -0.0001038653063 
-0.00011515308142 0.00019584255642 -0.00020080538525 -0.00013020944607 0.00027212989517 -0.00020119169494 -0.00010087799456 0.00011766255193 -0.00018110107339 
-8.9668872533e-05 5.2336570661e-05 -0.00014194630785 -8.1432925072e-05 1.2757715922e-05 -9.3391347036e-05 -7.5002804806e-05 3.2555649341e-06 -5.5059503211e-05 
-6.6983746365e-05 5.011516464e-07 -3.7983736547e-05 -5.7378591009e-05 -2.2350186555e-06 -3.7712830817e-05 -4.674165757e-05 -9.0335215646e-06 -4.9471869715e-05 
-3.6720401113e-05 -1.3009299437e-05 -7.0063550083e-05 -3.0996699934e-05 -1.3860372746e-05 -9.5198614872e-05 -2.1710950023e-05 -1.2972063814e-05 -0.00013541820226 
-6.7671517172e-06 -0.00016129373398 -0.000415949733 -1.2570451872e-05 -9.1870024335e-05 -0.00033106454066 3.0714397781e-06 -0.00024592771661 -0.00049793015933 
1.6528429114e-05 -0.00033548512147 -0.00056307768682 3.2764008211e-05 -0.00044243468437 -0.00060093851062 5.208958828e-05 -0.00054414971964 -0.0006010463112 
6.9944158895e-05 -0.00061994016869 -0.00056052906439 8.3527324023e-05 -0.00065353402169 -0.00048342667287 8.4812767454e-05 -0.00037596721086 -8.4069979494e-05 
9.28962545e-05 -0.00049777643289 -0.00018577685114 7.0991642133e-05 -0.00025709305191 -1.6635511201e-05 5.3185132856e-05 -0.00016204279382 2.5067201932e-05 
2.2928559702e-05 -9.4361850643e-05 2.9342412745e-05 -6.7318484298e-07 -6.5572465246e-05 1.9733921363e-05 -1.3280186977e-05 -7.4194620538e-05 6.8830358941e-06 
-1.150283606e-05 -0.00011560294661 6.8805911724e-06 -1.6181435058e-05 -4.6595188905e-05 -0.00025264415308 -1.7204192773e-05 -2.3429931389e-05 -0.00020168987976 
3.4388813219e-05 -8.3361999714e-05 2.2767078917e-05 1.3796956409e-05 -6.5856263973e-05 1.1707232261e-05 9.6550829767e-05 -0.0005997265107 -0.00029927460128 
8.855672786e-05 -0.00065118609928 -0.00039806123823 5.8542500483e-05 -0.00027744547697 0.00018480469589 7.1404007031e-05 -0.00029479997465 0.00024319626391 
7.9841775005e-05 -0.00029571165214 0.00030807370786 8.3309038018e-05 -0.00027700295323 0.00036825952702 8.245929348e-05 -0.00023676497221 0.00041372401756 
7.2388320405e-05 -0.00018009744235 0.00043076666771 5.6531956943e-05 -0.00011875938071 0.00041688667261 3.5767174268e-05 -5.6041553762e-05 0.0003750200558 
1.4866979654e-05 -4.2073493205e-06 0.0003131517733 -3.6285832721e-06 3.6605699279e-05 0.0002438226511 -1.4518313947e-05 5.8898491261e-05 0.0001751492382 
-1.9843106202e-05 6.944550114e-05 0.00011723213538 -1.7221551389e-05 6.5228654421e-05 7.5172618381e-05 -1.2934186088e-05 6.0177295381e-05 5.1399045333e-05 
-8.6319232651e-06 5.5981319747e-05 4.2996907723e-05 5.9753443793e-07 5.5371045164e-05 3.8647529436e-05 1.2613842955e-05 5.8026489569e-05 4.0235452616e-05 
2.0516736186e-05 6.5818028816e-05 5.1987019106e-05 1.9086098746e-06 0.00012257226626 0.00010888084944 2.3422267986e-05 2.0087138182e-05 0.00029208001797 
1.7070064132e-05 6.1711405579e-05 0.00022329269268 3.2086547435e-05 -1.9767599952e-05 0.00033520022407 3.786234447e-05 -4.5769294957e-05 0.00036164067569 
4.4201617129e-05 -7.3853567301e-05 0.00038617863902 6.5125568653e-05 -0.00016293257067 0.00042296363972 4.9274887715e-05 -9.8789627373e-05 0.00040485689533 
7.4369578215e-05 -0.00022363549215 0.00040646296111 -8.2968952483e-05 4.2502379074e-05 -0.00012908877397 -9.5501098258e-05 9.6641349955e-05 -0.00016771949595 
-7.3677911132e-05 1.0107622074e-05 -8.4523198893e-05 -6.7032837251e-05 5.4609364497e-07 -5.2157349273e-05 -5.8577992604e-05 -2.5039344109e-06 -3.6234167055e-05 
-4.9072412367e-05 -3.1233744267e-06 -3.4931803384e-05 -3.7730151234e-05 -4.2887263589e-06 -4.9675061746e-05 -2.4551995011e-05 -7.9024121078e-06 -9.1708374384e-05 
-1.7098400349e-05 -1.6613839762e-05 -0.00016287568724 3.0092056477e-05 -3.9723450755e-05 0.00035951856989 1.2710514056e-05 7.5154639489e-06 0.00029425384128 
-1.3484133206e-06 4.3019565055e-05 0.00022260588594 -7.0883415901e-06 5.9780446463e-05 0.00015539697779 -8.8315628091e-06 6.8089379056e-05 0.00010026610107 
-4.3070863285e-06 6.3890794991e-05 6.3068633608e-05 -6.5896165324e-07 5.9967682319e-05 4.3084797653e-05 1.6367921489e-05 6.2563056417e-05 3.6786073906e-05 
2.6822830478e-05 6.7565502832e-05 4.2064802983e-05 3.2458727219e-05 7.2755632573e-05 4.1889601562e-05 3.4688593587e-05 7.7485601651e-05 4.8084988521e-05 
3.1755153032e-05 8.4272774984e-05 6.5446132794e-05 2.5271019695e-05 8.8767919806e-05 0.00010065278184 1.9875395083e-05 8.1859550846e-05 0.00015294225886 
-1.5188373254e-05 0.00015758480004 0.00013451748237 -4.1616222006e-05 0.00022897734016 0.0001670675847 -7.1427755756e-05 0.00031053903513 0.00019093324954 
-0.00010533975001 0.00040581569192 0.00018590793479 -0.0001310978696 0.00047978572547 0.00014862210082 -0.00014552767971 0.00052166316891 0.00010069839482 
-0.00015152079868 0.00054124533199 4.9909343943e-05 -6.7703644163e-05 0.0002963070292 0.00017678455333 -4.510204235e-05 0.00024715755717 0.00016455959121 
-2.325067544e-05 0.00019357012934 0.0001463467197 -8.006310054e-06 0.00015472494124 0.00012360418623 -0.00015067581262 0.00053617684171 8.4345847426e-05 
-0.0001425586961 0.00050622969866 0.00012634704763 -0.00012347415031 0.00044697913108 0.00016407726798 -9.4797644124e-05 0.0003670094884 0.00018307720893 
2.4771279641e-05 6.8360059231e-05 4.1642004362e-05 2.2633243134e-05 7.2128656029e-05 4.936226469e-05 1.7569806005e-05 7.8394310549e-05 7.2205009928e-05 
1.2831567801e-05 7.8191937064e-05 0.00011477843509 1.029210398e-05 6.8792789534e-05 0.00017343407671 1.4208627363e-05 4.3569056288e-05 0.00024484167807 
2.5488821848e-05 1.1971484355e-06 0.00031225912971 2.6781513952e-05 -1.8152204575e-05 0.00033731441363 -0.00014272157568 0.00046690696036 -6.4841697167e-05 
-0.00014436744095 0.00045136001427 -6.9609741331e-05 -0.00014931167243 0.00043786340393 -7.8377168393e-05 -0.00015487447672 0.00042468437459 -9.3447881227e-05 
-0.00014353675942 0.00032908338471 -0.00018724692927 -0.00015356513904 0.00035666560871 -0.00016678516113 -4.9103888159e-05 -5.0475982789e-06 -5.5079777667e-05 
-6.916984421e-05 3.4612130548e-05 -0.00011919010285 -9.8604738014e-05 0.00012032006634 -0.000172350512 -0.00012524126214 0.00022118369816 -0.00018793463823 
-0.00014348595869 0.00029634259408 -0.00018125679344 -0.00011059050303 0.00016106174735 -0.00019327308109 -0.00015791495389 0.0004099633079 -0.00010907447722 
-1.8035474568e-05 -8.4266292106e-05 -0.00032287460635 -1.5130362044e-05 -0.00013343458704 -0.00039148906944 -1.0522750927e-05 -0.00020491519535 -0.00047144078417 
-6.9581227535e-07 -0.00029060916859 -0.00054441741668 1.1119946976e-05 -0.00037030156818 -0.00059317197884 2.4520020816e-05 -0.00046378144179 -0.0006226025871 
4.0418690332e-05 -0.0005564877647 -0.0006217113696 5.6291471992e-05 -0.00062447821256 -0.00058777839877 6.8327499321e-05 -0.00065958773484 -0.00052950857207 
7.2684997576e-05 -0.0006658580387 -0.00046367262257 8.8617773145e-05 -0.00062081217766 -0.00032402423676 7.7047319792e-05 -0.00064146064688 -0.00038230780046 
9.3444476079e-05 -0.00056214205688 -0.00024370754545 9.2210459115e-05 -0.00047058719792 -0.00016145690461 8.9024506451e-05 -0.00036636702134 -8.224852354e-05 
7.9221950728e-05 -0.0002661391045 -2.7094656616e-05 6.4284991822e-05 -0.00017351873976 1.5853207515e-05 3.5985609429e-05 -0.00010131834279 2.8718333851e-05 
1.2737924408e-05 -6.9956266088e-05 2.0913477783e-05 -1.4775879436e-06 -6.7473956733e-05 8.622583664e-06 -6.8850786192e-06 -9.0990120952e-05 -2.6236523354e-06 
2.1852702048e-05 -7.5727271906e-05 2.1663250664e-05 4.0073238779e-05 -9.9492965091e-05 2.6648658604e-05 6.1661579821e-05 -0.00015178803005 1.9202654585e-05 
7.9083612945e-05 -0.00021432936774 -4.0457942418e-07 8.8532127847e-05 -0.00028280151309 -3.8495505578e-05 9.4579991128e-05 -0.00035964220297 -8.3707673184e-05 
9.3657377874e-05 -0.00043902546167 -0.00014649174409 8.9435481641e-05 -0.00051719555631 -0.00021525703778 3.2800111512e-05 -0.00062510027783 -0.00058190809796 
5.319414413e-05 -0.00065636943327 -0.00052026222693 1.2908129975e-05 -0.00056174903875 -0.00062139611691 -3.9613619265e-06 -0.00046978265163 -0.00062590709422 
-1.1721874216e-05 -0.00035421494977 -0.00058671156876 -2.09269474e-05 -0.00023957893427 -0.00050917541375 -2.2192838514e-05 -0.0001634646469 -0.0004302476882 
-2.2398067813e-05 -0.00011366320541 -0.00037099531619 -5.2098112064e-05 -6.0847823988e-06 -3.8380367187e-05 4.9506811592e-06 -0.00039851479232 -0.0006098402082 
1.4092648598e-05 -0.00047766900389 -0.00063169409987 2.7997200959e-05 -0.00056156486971 -0.00062811817043 4.3011001253e-05 -0.0006226101541 -0.00059616361978 
5.4747062677e-05 -0.00065098580671 -0.00055251998128 9.2782618594e-05 -0.00036482070573 -8.4187246102e-05 9.3524453405e-05 -0.00045093568042 -0.00014773351722 
8.62421075e-05 -0.00028417751309 -3.7743375287e-05 7.8267279605e-05 -0.00022474337311 -5.6688641052e-06 -0.00014398881467 0.00051687087398 0.0001125370618 
-0.00013355388364 0.00048439161037 0.00014607862977 -3.7446985516e-05 0.0002237331646 0.00016163279361 -7.0273585152e-05 0.00030916271498 0.00018685348914 
-1.970770245e-05 0.00017663052131 0.00014220940648 1.211288054e-05 2.5572411687e-05 0.00026991314371 3.0743465231e-06 5.5214102758e-05 0.00019772375526 
2.0712566311e-06 6.7258122726e-05 0.00013368864893 4.3863415158e-06 7.1003305493e-05 8.378898201e-05 9.7831098174e-06 6.7389322794e-05 5.195092308e-05 
8.3318831457e-05 -0.00058802816784 -0.00029292734689 8.8551307272e-05 -0.00058297131909 -0.00027418573154 9.1524387244e-05 -0.00052975845756 -0.00021638674662 
-0.00013852096163 0.00028909763205 -0.00019160099328 -0.00012641427747 0.00023596570827 -0.00019829999655 -8.8583692559e-05 8.1392856373e-05 -0.00015334344062 
-7.5828655099e-05 3.5632947402e-05 -0.00012004320888 -6.4616986492e-05 6.2760359469e-06 -7.7018536103e-05 -6.0338483308e-05 -8.0770951172e-07 -5.2541734476e-05 
-0.00011027135042 0.00041727471398 0.00017983825819 5.310409324e-05 -0.00027567017241 0.00018410712073 -0.00015922098828 0.00040704343701 -0.00012662279187 

