# vtk DataFile Version 5.1
vtk output
ASCII
DATASET POLYDATA
POINTS 1114 double
77.883888245 63.633712769 45.870170593 76.773333956 63.759042593 46.914537704 76.65212859 64.925041763 46.544442598 
77.750616978 64.853534064 45.520242658 76.052685314 63.742539141 48.241610567 75.810015367 64.991351171 47.801084573 
75.645244427 63.810728703 49.69871468 75.341683762 65.173899728 49.25141003 75.554734073 63.972231077 51.204890887 
75.231742779 65.431409692 50.880525284 75.706403021 64.097291744 52.717641114 75.485983432 65.513694014 52.587317628 
75.937207929 64.015878561 54.227555696 75.712302452 65.432651943 54.206497634 76.507160437 63.921378574 55.643157781 
76.145280917 65.379340445 55.706058979 77.041176383 63.9893319 57.069868407 76.705912183 65.392521195 57.187980011 
77.687672929 64.077753906 58.441439573 77.367284422 65.42255396 58.615012059 78.537834663 64.115911402 59.709814494 
78.248686271 65.474482877 59.914146521 79.524997629 64.209041705 60.864075682 79.318322358 65.553100232 61.055360895 
80.773618795 64.217482177 61.729630471 80.594578142 65.628149907 61.952220788 82.194266183 64.296340511 62.290326254 
82.012955141 65.720117846 62.623539679 83.653443003 64.357193878 62.714732344 83.532643835 65.819816915 63.000326814 
85.172110587 64.424088021 62.851153267 85.093141173 65.862822575 63.165600804 86.70059268 64.422940754 62.904962665 
86.656871273 65.867144347 63.157350616 88.211586248 64.415493907 62.757999455 88.193521347 65.851372633 63.013348193 
89.689888952 64.461040356 62.375866788 89.672089876 65.894598653 62.610206704 91.168900575 64.551039963 62.005494507 
91.109015759 65.960460809 62.073582645 92.647833129 64.648399989 61.675763489 92.519402883 65.981814457 61.547005488 
93.883115126 64.710640095 60.775793704 93.786653043 66.021718042 60.681104249 94.978504605 64.635316943 59.71793585 
94.949959109 66.034413065 59.667254115 95.836845387 64.56474155 58.477284646 95.917327042 66.040072778 58.480653399 
96.426778912 64.53703061 57.073815221 96.661894883 66.072471309 56.999695286 96.770356718 64.521312615 55.588570604 
96.982414397 65.85616885 55.398109559 96.496693872 64.095107748 54.145241427 96.732822345 65.560132277 53.906334131 
96.110096576 63.780277154 52.701914084 96.232427276 65.276762206 52.462420262 95.549691724 63.539747892 51.306576541 
95.609595645 65.033892715 51.08194464 94.839226187 63.344262843 49.966942103 94.900930259 64.829148722 49.754906524 
94.05979962 63.177045951 48.661964402 94.107462054 64.661523374 48.476557592 93.143121763 63.095765823 47.440147598 
93.197399297 64.54305482 47.2865555 92.012151216 62.974508533 46.431543568 92.101996849 64.456663967 46.256464261 
90.744721026 62.917566069 45.590515886 90.882290181 64.419059012 45.362068548 89.38377626 62.946203916 44.898867815 
89.520126742 64.452150618 44.684751151 87.94505292 62.988807811 44.381179575 88.097427226 64.520031886 44.123551683 
86.466563396 63.125891989 44.015371083 86.585970722 64.652934878 43.775711201 84.955811085 63.193054034 43.800198767 
85.022238181 64.792976535 43.621483729 83.433736043 63.293541137 43.753079774 83.441753264 64.896633486 43.557304403 
81.925030236 63.429659877 43.917356593 81.876662934 64.91406318 43.733751396 80.452650087 63.504456898 44.298166224 
80.364026307 64.871654069 44.088578666 79.066386115 63.503596276 44.908656401 78.945554258 64.80846025 44.621823514 
78.394554138 88.998214722 37.739414215 79.94793385 88.9803362 37.552772427 79.93683386 87.391216754 37.798728005 
78.378033372 87.376742982 37.890331196 81.499705556 88.957122121 37.472893773 81.492521525 87.399654179 37.770712126 
83.046802354 88.918396133 37.703404341 83.048531069 87.398229795 37.930358527 84.598482841 88.887464742 37.899217477 
84.596005959 87.386212122 38.12625265 86.154197192 88.863392968 38.064495226 86.132935466 87.367841789 38.374761404 
87.659142973 88.889521145 38.487304216 87.628010689 87.397589971 38.824282009 89.13084009 88.953344403 39.002014441 
89.089795361 87.456083435 39.359328831 90.553534205 89.073357615 39.642078197 90.501835643 87.543835453 40.00322593 
91.847936713 89.200396762 40.505951903 91.807970315 87.65833603 40.831342758 92.993838164 89.314410758 41.539355885 
93.053864495 87.779943534 41.731569364 93.94075645 89.406624836 42.78152562 94.153901548 87.891229022 42.809156594 
94.911466589 89.538733994 44.001449174 95.282776231 88.055291617 43.877682446 95.882878038 89.670725915 45.220903809 
96.312516412 88.199727671 45.051558738 96.827620898 89.79258893 46.457099595 97.236830064 88.301940299 46.333710537 
97.433851849 89.819700779 47.89928277 97.881067093 88.279785779 47.801202189 97.97745738 89.844231133 49.365391634 
98.476685562 88.304725145 49.318527316 98.43575501 89.880436479 50.856251488 98.972268442 88.45833592 50.849345196 
98.640201475 89.983774837 52.404045452 99.249977984 88.641826222 52.421109067 98.50148612 90.036561189 53.942683816 
99.151258461 88.738212344 54.017414316 98.143919913 90.062885822 55.460298182 98.719484761 88.748709464 55.525721439 
97.497419331 90.079046687 56.885050494 97.981148515 88.697403745 56.925272763 96.705091192 90.087544397 58.228603793 
97.137576864 88.64275814 58.264733832 95.8219156 90.096302196 59.519602595 96.194393462 88.484748734 59.572367159 
94.867565778 90.131937054 60.758993535 95.08258554 88.088521917 61.115981215 93.844097239 90.154501761 61.94015879 
93.893906617 88.695222605 62.251838644 92.769338267 90.167209308 63.074295007 92.888601427 88.738698322 63.275638183 
91.432639641 90.1261911 63.886512722 91.654858393 88.650289832 64.137114015 90.023403954 90.103145525 64.527880445 
90.307700848 88.631019159 64.891226357 88.509215585 90.10610426 64.922048122 88.851918683 88.66516433 65.516052982 
87.004487728 90.097138083 65.350343373 87.318964723 88.66168273 66.011006947 85.495272886 90.084592833 65.752417426 
85.731497985 88.654466435 66.416140644 83.940568464 90.072104894 65.928148866 84.103053848 88.663609394 66.703120512 
82.3812759 90.087486744 66.009991594 82.372202926 88.648919703 66.798416993 80.817298624 90.131324969 65.995969501 
80.681676978 88.826932573 66.64816197 79.473562931 90.09424758 65.259278453 79.308635127 88.728552117 65.780009492 
78.18652372 90.049858013 64.373636125 78.028483036 88.646492346 64.79800104 76.994954399 90.037799779 63.359653641 
76.820470602 88.564941335 63.754470631 75.789318922 89.983838333 62.364759111 75.653542344 88.465148217 62.687151724 
74.572542007 89.896257411 61.385008004 74.509136634 88.352708412 61.609631965 73.398589531 89.806672181 60.354496773 
73.371378301 88.257345178 60.526881456 72.344136051 89.673558394 59.224268978 72.361762278 88.121854922 59.357260888 
71.477897921 89.471885515 57.936983897 71.493700138 87.954851419 58.065800372 70.797122026 89.232386503 56.554993075 
70.787599554 87.765016239 56.678593243 70.192267869 88.999583484 55.133968582 70.128973528 87.636080135 55.247022388 
69.656665451 89.160854386 53.672713959 69.492980726 87.66014655 53.790483079 69.165587257 89.254693077 52.195101872 
68.898422237 87.709963769 52.31299437 68.771733841 89.201284246 50.681771005 68.477579838 87.714017506 50.790849702 
68.749895201 89.160779409 49.154829971 68.445310657 87.669826647 49.194139672 69.034997634 89.130921371 47.61665949 
68.701656235 87.63491525 47.62403707 69.549654092 89.075712353 46.145090127 69.241821252 87.573167709 46.116061538 
70.140680504 89.014648987 44.701212275 69.861736726 87.54070961 44.636691579 71.154967877 88.967733225 43.510765568 
70.830814017 87.479851127 43.380977572 72.171076557 88.934675772 42.3216402 71.839202013 87.448092684 42.149694099 
73.192309079 88.940605587 41.136232127 72.9343738 87.427924113 41.001319396 74.348433058 88.955000908 40.102087804 
74.142619329 87.407062119 39.976963694 75.641778882 88.978007986 39.221820469 75.428599233 87.387066255 39.051954562 
77.004904788 88.990172068 38.458408879 76.887398468 87.361799803 38.407924834 75.435751065 66.176655084 47.174325003 
76.378247219 66.108200983 46.024850702 74.796539096 66.439424871 48.622525469 74.496100352 67.030426398 50.478796313 
74.834863751 66.873000871 52.608130079 75.178929201 66.788333766 54.309327107 75.680880093 66.767824715 55.876226186 
76.260581904 66.769309041 57.379412864 76.95859206 66.783492926 58.841803949 77.82884098 66.81603248 60.224537764 
78.964610244 66.906118733 61.405251763 80.299423519 67.021144998 62.337570685 81.788863205 67.1740038 63.025382947 
83.371427564 67.280587318 63.50414152 85.014550649 67.278624395 63.719126144 86.656056158 67.234205058 63.745627814 
88.267311957 67.181497069 63.624377493 89.81424376 67.192784631 63.252377052 91.297046624 67.248252802 62.699333398 
92.717756345 67.308514498 62.022949403 94.043221235 67.372873763 61.149758492 95.28480745 67.405442887 60.15441689 
96.505741609 67.452957121 58.96254627 97.597929161 67.787367179 57.099703138 97.512645137 67.318294588 55.093676348 
97.089673855 66.992209272 53.520406129 96.522870586 66.711644826 52.101546479 95.855943586 66.462921243 50.738915184 
95.106577456 66.257922193 49.438555522 94.27731293 66.098206851 48.197676584 93.376835437 65.968472583 47.011593387 
92.276058001 65.903225809 45.99349026 91.058029994 65.886351163 45.101157836 89.725342389 65.925668953 44.360804726 
88.294103062 66.015951659 43.770945973 86.74854785 66.175790701 43.406507992 85.145536447 66.36343167 43.272796003 
83.421856813 66.508983667 43.206299504 81.774299431 66.429529909 43.502797961 80.159727312 66.257237329 43.8879456 
78.746305353 66.08177523 44.285866037 77.467798401 66.010564012 45.004260125 81.515993739 85.844428145 37.70624468 
79.920270411 85.805918985 37.672731253 83.088052212 85.861916271 37.884098556 84.62812864 85.857598473 38.195814745 
86.139215284 85.85563672 38.603221693 87.6365168 85.877201766 39.067792176 89.104144648 85.921661132 39.604848736 
90.537381907 85.997525546 40.227489592 91.880918596 86.109424609 41.010012136 93.233684154 86.252055856 41.786757038 
94.572393805 86.449171831 42.585506185 95.808105064 86.653463785 43.573102996 96.980619549 86.867373584 44.684480931 
97.947674292 86.964263695 45.997173035 98.685829264 86.939260494 47.501790326 99.358246628 86.91008728 49.145472243 
99.848509844 87.153771838 50.831659979 100.03160497 87.334635527 52.482999138 99.859767408 87.420576522 54.138265533 
99.384707381 87.427246761 55.661169324 98.660587043 87.393056686 57.069536908 97.822425397 87.32636264 58.373216601 
96.862067167 87.006307422 59.491401258 95.948393216 86.406182044 60.687286244 93.11303403 87.390516799 63.515926839 
93.826919626 87.608292224 62.683732191 92.013163231 87.225945116 64.460617783 90.742442008 87.209621406 65.450245821 
89.301253025 87.304213837 66.25728391 87.753992846 87.42285629 66.935545804 86.146969313 87.478362709 67.422712858 
84.418780719 87.453601974 67.815019241 82.302858015 87.206428858 68.152408453 80.278666102 87.531278757 67.442062104 
78.852450645 87.473600776 66.471423183 77.587739484 87.370664964 65.461877688 76.410344963 87.210318312 64.358843837 
75.240614702 87.091067854 63.266879341 74.146894236 86.937023137 62.108912281 73.022947388 86.827531801 60.980192024 
72.046850611 86.666937886 59.734504362 71.21146411 86.482946922 58.387644753 70.557716602 86.300190625 56.92526383 
69.955919581 86.174818498 55.424600876 69.246458027 86.152728128 53.957015258 68.600099355 86.164402559 52.444615072 
68.015835773 86.210897837 50.933853766 67.889808732 86.190874927 49.213630402 68.176262582 86.146985755 47.591614085 
68.787018707 86.076025353 46.035998503 69.508013155 86.03161325 44.546145451 70.445350322 85.980046462 43.216799746 
71.433442515 85.958032348 41.921446731 72.526217166 85.932382899 40.719216251 73.803246213 85.86248424 39.682942288 
75.16979675 85.791867846 38.778837908 76.721056567 85.715295783 38.176715941 78.314758651 85.764435549 37.736559959 
94.495517972 86.755767535 62.288546761 95.257097105 85.487468809 61.88795745 74.250054459 68.23276426 52.947425432 
73.88058536 68.461357559 51.313574624 74.653224425 68.160835668 54.546813104 75.15677853 68.139734641 56.098016228 
75.826813426 68.163231093 57.580886347 76.6092314 68.207005103 59.017580022 77.488141337 68.251111371 60.4206575 
78.603320487 68.325333558 61.680803625 79.911991293 68.447141833 62.701200782 81.432075204 68.629463255 63.484817789 
83.167072634 68.793356328 64.140764279 84.999372392 68.687031905 64.431579947 86.706131314 68.585792718 64.470682963 
88.39245531 68.493441685 64.350597941 90.005583579 68.466525999 64.011583373 91.548132993 68.499654263 63.457136774 
93.027306131 68.53309537 62.776949386 94.430682051 68.57678445 61.929777671 95.740428094 68.645091455 60.934423351 
96.987276579 68.791485719 59.877310734 98.033375707 69.356070496 58.4907846 97.465211776 68.412070258 53.016867171 
97.966471469 68.798882693 54.439062683 96.84844123 68.104138055 51.636998052 96.142551061 67.853681428 50.323411205 
95.351155271 67.656203769 49.072621536 94.509204683 67.499055217 47.859551035 93.59192908 67.377890908 46.698468697 
92.530132263 67.311928665 45.649306924 91.330923322 67.309205721 44.733843093 90.009638465 67.365507352 43.95809402 
88.579518325 67.4749349 43.333706613 87.06112104 67.631491059 42.87989216 85.39436827 67.870097999 42.566077341 
83.338434179 68.244476837 42.184679214 81.33780429 67.808354084 42.635790752 79.669992607 67.330103812 42.951958227 
78.21628546 67.048388056 43.45165452 76.939725712 66.92856516 44.197140545 75.914631262 67.144184435 45.261244242 
74.993246752 67.326374243 46.425356185 98.413044475 69.38652702 55.934948984 98.815274455 70.341108016 57.251206012 
93.650170104 86.07885945 63.428166407 94.360468674 84.58307051 63.089155897 92.552414414 85.649984321 64.713288003 
91.215823886 85.700592579 65.986291684 89.779187797 85.863777348 67.004243017 88.235167042 86.106051692 67.842170432 
86.633567717 86.255881891 68.395788938 85.03774367 86.264017453 68.834365777 83.497606519 85.949610879 69.307139486 
78.235930518 86.293254561 67.23207131 79.544509675 86.283835958 68.179435676 76.965530114 86.19986943 66.225497741 
75.743470213 86.087639121 65.167858501 74.685641004 85.819999627 63.960384519 73.634946211 85.602570518 62.736821162 
72.583652478 85.429810296 61.509250168 71.667716145 85.21539565 60.168777103 70.921636346 84.977157253 58.742892487 
70.455171929 84.749398511 57.14445741 69.915425468 84.632365487 55.558856831 69.210269299 84.592157097 54.037081776 
68.461301176 84.576355358 52.530750494 67.694045646 84.564347339 51.056783112 67.540696055 84.541658324 49.255538028 
67.802157492 84.518942829 47.5778403 68.440391483 84.506807845 45.981853901 69.164594187 84.481752991 44.45893977 
70.035658801 84.457570094 43.048410234 71.043097469 84.435467536 41.729379672 72.146383574 84.396185644 40.490774343 
73.449605446 84.290417541 39.411014867 74.838678525 84.172961517 38.445756819 76.536976714 84.019021921 37.797257495 
78.312895785 84.148416077 37.394645252 79.958061323 84.247621969 37.377733983 81.589515827 84.315651828 37.482495933 
83.175625996 84.341088719 37.732684965 84.721873204 84.337462241 38.083030397 86.23490258 84.323425711 38.541992256 
87.747055634 84.333212357 39.026028346 89.241310359 84.36760221 39.557447841 90.711304216 84.432299696 40.18038788 
92.181866871 84.565922777 40.814535025 93.624044582 84.752357213 41.516709144 95.046019019 85.006210682 42.253576822 
96.386197698 85.261260131 43.191480007 97.648296235 85.518969914 44.261159208 98.655266234 85.631790172 45.561324188 
99.50427343 85.561655523 47.102556441 100.38232508 85.194613549 48.972765671 100.74275098 85.745085388 50.950236902 
100.70417646 85.935787956 52.704009177 100.5243592 86.038926935 54.347517116 100.06947971 86.077848107 55.881679372 
99.297966259 86.058004537 57.262657125 98.494119892 86.056521721 58.502155468 97.54810832 85.795748057 59.411299041 
96.812519679 85.127246227 60.330109573 96.101253214 84.219878538 61.292428803 95.215658435 83.20596096 62.304135156 
93.05308467 83.543861109 64.664652549 94.261953981 82.047953385 63.375333046 81.004987503 85.934784403 69.059924223 
82.236280418 85.057511557 69.754165361 98.964660534 70.662662792 55.004631411 99.441744759 71.392545605 56.218149066 
98.531233033 70.109678147 53.670350214 97.935914431 69.74962189 52.366212152 97.291961929 69.416250147 51.064914969 
96.554745801 69.16400904 49.803445697 95.744311984 68.97313668 48.59919195 94.838399525 68.847311301 47.448691114 
93.894425148 68.744354376 46.320394568 92.84401309 68.697148471 45.275066732 91.649066309 68.724207635 44.365437631 
90.385366275 68.773444441 43.502342896 88.98611052 68.888900689 42.815653142 87.506761804 69.013591564 42.236413855 
86.025460422 69.17363413 41.693335339 84.531202617 69.452345723 41.042396478 78.965301536 67.981486975 41.779871062 
80.502321398 68.60947661 41.345649156 77.476640914 67.507952375 42.318979036 76.179566558 67.546560833 43.169611518 
75.143081207 67.896904367 44.291611352 74.276881831 68.226102227 45.496507802 73.865522002 69.602283976 53.244027425 
73.468017844 69.718285095 51.790743549 74.301783895 69.573685833 54.737571015 74.81139907 69.583528902 56.25136618 
75.487036817 69.625231138 57.704766736 76.321119596 69.675094789 59.099449835 77.254756797 69.720656081 60.457447418 
78.283771509 69.78293074 61.733309181 79.503541496 69.912599889 62.896531973 80.944947154 70.156040299 63.89536731 
82.872066308 70.569362146 65.001302024 85.102010086 70.130768171 65.271879268 86.922281177 69.928449784 65.281271842 
88.614107307 69.807516698 65.144955162 90.249158735 69.7724744 64.782678449 91.821442557 69.798965331 64.219613369 
93.322978128 69.830425952 63.521139954 94.764608196 69.868885095 62.703781922 96.047924227 69.957458445 61.718553422 
97.239549654 70.171912424 60.637066714 98.301204876 70.696282237 59.456591199 99.044237791 71.459718737 58.302618732 
99.757398248 72.327015546 57.293532513 100.20891115 72.252392518 55.331734231 100.47469628 73.136082358 56.339771581 
99.798990495 71.666164864 54.135453732 73.425088974 68.979560721 49.971576806 73.108527926 69.950738121 50.541017185 
72.90531685 69.587461711 49.046962174 72.7473162 70.079749643 49.737471209 82.072429481 69.104862292 40.783329564 
83.326558174 69.966814466 40.11231901 91.431353081 83.917911664 66.402248272 89.974871456 84.271684854 67.61000376 
88.53443908 84.635421631 68.573039375 87.0230716 84.943133377 69.189107432 85.505898346 85.033701848 69.591977448 
84.224598047 84.808674742 69.836992749 83.212013645 84.067552564 70.241680841 81.250589458 83.983073284 70.084540867 
82.299937869 83.07542044 70.439381534 80.058616649 84.767424443 69.612062026 78.818661949 85.087865591 68.834782155 
77.544899918 85.154187192 68.001655177 76.334133224 85.000523203 66.989892111 75.117226847 84.839325496 65.920000989 
74.095343847 84.543637904 64.685145257 73.080685918 84.279242523 63.410794218 72.063004495 84.052830923 62.118593378 
71.315540142 83.717551738 60.617688746 70.740473137 83.394634551 59.047094979 70.342123616 83.133181741 57.375708622 
69.914404016 83.043259026 55.688358036 69.244700954 83.010004857 54.09455393 68.503002475 82.980483723 52.541328955 
67.712866401 82.947100205 51.058958435 67.513703251 82.929428249 49.277193857 67.613282303 82.913827278 47.56784833 
68.199195891 82.902484172 45.934393423 68.867961719 82.895956062 44.380600108 69.671420167 82.900401649 42.918217572 
70.602912541 82.905133599 41.531375541 71.684501231 82.868397893 40.253810771 72.948464045 82.731310369 39.146751066 
74.374614994 82.514986217 38.075876368 76.338082206 81.979941997 37.0687633 78.478539559 82.472109983 36.90036939 
80.170025933 82.736798371 36.88937412 81.772988985 82.832267855 37.089548008 83.339758458 82.853513373 37.41988745 
84.874001936 82.83437709 37.826524616 86.401503419 82.811235472 38.265904221 87.92267997 82.801217206 38.761941266 
89.455258299 82.821793448 39.291418584 90.989748952 82.874221447 39.885626043 92.563674316 83.027326926 40.42362873 
94.096978197 83.2769652 41.071373723 95.588760449 83.576211104 41.802211273 96.985135646 83.855312449 42.734484228 
98.318311807 84.15324856 43.792483565 99.227317481 84.225165728 45.149233226 100.07633345 84.196764992 46.521587941 
100.71641807 83.794490504 47.804300436 101.34874761 84.527748614 53.015148211 101.52016628 84.310454872 51.459763476 
101.052634 84.564459123 54.618226506 100.55633734 84.577128602 56.155174659 99.729256986 84.653087543 57.56908887 
98.865946376 84.812778516 58.703286491 98.063345407 84.929886494 59.377176649 97.67322265 84.131037865 59.89243754 
97.024444608 83.112346585 60.583661296 96.190600807 82.007137836 61.431405084 95.259836264 80.858586355 62.30306188 
93.45012372 80.589805567 64.261807366 94.373659516 79.602925112 63.127287884 92.425475018 81.546568604 65.552800424 
91.207657416 82.106197538 67.010606661 89.895715478 82.532777092 68.159459919 88.465727422 83.001627596 69.082271111 
87.028332636 83.467183907 69.726890958 85.669044846 83.791359574 70.077239225 97.313973098 80.933569769 60.620110145 
98.269002716 82.172955564 59.852047453 96.338597833 79.770175889 61.434277667 95.390339739 78.555492578 62.199946191 
93.544464147 78.262076335 63.766855737 94.430059014 77.284615317 62.772772145 92.709919434 79.120986513 64.952522612 
91.851548389 79.858053323 66.242976485 90.776212374 80.382771208 67.535342892 89.626597192 80.797168269 68.781611982 
88.135020772 81.383630427 69.590142623 86.726908764 81.987393854 70.187229844 85.292637751 82.580532613 70.399021217 
101.41302186 83.697338123 49.913703495 101.36630121 82.78278695 48.635042997 99.34092008 71.156469251 52.868874508 
98.697637794 70.833147733 51.605107268 97.98312897 70.543347781 50.361862409 97.181174945 70.317472344 49.164443613 
96.289126782 70.172536545 48.027124514 95.345189132 70.078709618 46.916932463 94.321475833 70.043926866 45.855344729 
93.24979752 70.037504583 44.827778987 92.093897481 70.066040997 43.854272068 90.850681164 70.135095571 42.950704451 
89.482977216 70.252591134 42.19289279 88.055431956 70.347138741 41.541179635 86.658637833 70.444034072 40.909233493 
85.360942112 70.570430986 40.254382334 84.306740577 70.868292113 39.521539017 82.421130633 70.589504671 39.062793208 
83.559442123 71.507954747 38.683805205 81.147887448 69.71146977 39.524867534 79.728453876 68.995340284 39.963994178 
78.183634005 68.592211796 40.559454398 76.638205411 68.211426957 41.220519389 75.365685638 68.37258788 42.178100279 
74.262009514 68.707629509 43.316103123 73.377129108 69.076470667 44.602533131 73.574221204 68.514296704 46.761334136 
72.696171937 69.3963721 45.97277001 73.198982342 69.027413082 48.013487426 72.308370976 69.827549367 47.299277303 
72.158182272 70.326174295 48.520056005 72.171620922 70.724559933 49.632138995 72.537276996 70.894046737 50.738147306 
73.00774125 70.937040452 52.025312016 73.436314265 70.940168639 53.418728772 73.925113772 70.972481186 54.874497022 
74.475431181 71.027055638 56.339845576 75.140836669 71.091589187 57.783561912 75.98530215 71.14019557 59.149968779 
76.900687348 71.156757799 60.501289597 77.857543765 71.195457469 61.82864988 78.872453791 71.279046249 63.092705581 
80.055279334 71.538029957 64.235741324 81.31574466 71.939265794 65.434725496 87.237590783 71.288099664 66.051388617 
85.584278566 71.496326691 66.161520702 88.904524949 71.20802355 65.82689347 90.497868966 71.22742085 65.378926499 
92.034464948 71.241847895 64.778448009 93.512562035 71.271873702 64.043395595 94.937883129 71.329240055 63.227670931 
96.129360588 71.385580378 62.220062354 97.225273727 71.578130526 61.187589253 98.150740343 72.095016989 60.132921064 
98.896181058 72.796882215 59.049748901 99.770710885 73.545663094 58.131430126 100.57901877 74.275963599 57.162475103 
101.20907778 73.786802126 55.511794894 101.30882505 74.864568577 56.124016079 100.95843899 73.149231455 54.522793366 
100.67766355 72.605157513 53.351091793 83.875495512 71.941000738 66.254041715 82.35877299 72.692469826 66.61498081 
83.401147416 82.148859589 70.691302645 84.13035887 83.181037641 70.422766243 81.395028819 82.015423204 70.568116164 
82.48219165 81.018588219 70.710629069 80.402585081 82.932596465 70.27443536 79.465633779 83.594102203 69.755433936 
78.340450471 83.81199764 69.245612113 76.991163995 83.890885638 68.668402866 75.83110257 83.706027962 67.714935022 
74.611350885 83.504625237 66.653626283 73.596036084 83.195151286 65.401582615 72.579685144 82.910239881 64.094558085 
71.661347267 82.590916045 62.689426174 70.965651878 82.196105029 61.085026279 70.577821648 81.775046081 59.419840599 
70.374726496 81.430163333 57.590425881 69.993118713 81.423240262 55.734569237 69.335931351 81.426606516 54.113381142 
68.562570544 81.384617512 52.545440366 67.750065244 81.318572399 51.056225076 67.628025405 81.292124715 49.265133096 
67.595998814 81.273577896 47.509831749 68.091300309 81.264670601 45.899207187 68.589744478 81.290493388 44.292731728 
69.314992243 81.31169168 42.805504489 70.149978994 81.350012637 41.366664084 71.146894762 81.350228405 40.055666051 
72.306236583 81.250004289 38.851389063 73.517482823 80.990459711 37.739065272 74.957641308 80.359477258 36.81921744 
80.550832802 81.238091229 36.447510712 79.002542125 80.938579254 36.329676515 82.038058526 81.354134938 36.769709305 
83.549554883 81.381276277 37.112390254 85.047845716 81.340796682 37.527679265 86.54358707 81.275949514 38.008427955 
88.074884879 81.249424501 38.494953119 89.654113178 81.262101179 38.97079209 91.245117165 81.328505045 39.448553252 
92.954141213 81.463830399 39.943497566 94.637721847 81.793004778 40.596756999 96.118994706 82.093809196 41.41399387 
97.520233679 82.353746678 42.424397361 98.795212096 82.61873163 43.495907115 99.713162142 82.787670293 44.89050498 
100.46273808 82.920629177 46.153762298 100.81681454 82.916276207 47.154088292 101.21546147 82.014771081 47.521562563 
101.9320825 81.55505933 49.350171018 101.62292686 80.733663315 48.064243471 102.04166088 82.396846216 50.605473719 
102.02900229 83.01052837 51.895407082 101.86354072 83.122503944 53.275866863 101.53146476 83.121554404 54.812549411 
100.85288767 83.056273489 56.39701654 99.856735148 83.119866063 57.953115728 98.761459055 83.559149913 59.217997314 
77.49578858 80.284141607 36.139399512 76.183601358 79.234634416 36.110659827 84.634272954 81.319002517 70.622614013 
83.727959005 80.094436351 70.751758358 81.397346373 79.949273818 70.685377999 82.624599166 78.952230717 70.647955768 
80.368428927 81.062892985 70.597474719 79.548208772 82.051839558 70.278258912 79.015499951 82.787885784 69.97563265 
78.081531836 82.670095512 69.736127727 76.810966194 82.491998925 69.225258128 75.686767452 82.219108085 68.282419762 
74.497355017 81.920421334 67.224616262 73.449346089 81.621598888 65.978600871 72.41748565 81.325450891 64.637827231 
71.660612408 80.998840759 63.135511407 71.016461328 80.56783549 61.557038654 70.665654583 80.068358016 59.858168366 
70.503407289 79.368346076 57.777870302 70.065923521 79.775418132 55.685636386 69.524882674 79.873492202 53.983137004 
68.706667938 79.810480766 52.46093168 67.877027439 79.674740955 50.914192614 67.655468673 79.634158621 49.220393264 
67.599361145 79.619154329 47.487214506 67.958176713 79.611576786 45.857248795 68.394929243 79.634790961 44.24631894 
68.980549315 79.682816048 42.711837105 69.723597616 79.764519947 41.244692597 70.600492424 79.828596509 39.887950541 
71.640894799 79.764542572 38.646394039 72.723774164 79.489902966 37.525647396 74.028622794 78.846300883 36.668177672 
75.197468991 78.028446499 36.119497136 77.239847617 78.042536383 35.704597491 76.210827857 77.051284659 35.791882194 
78.354144295 78.938201017 35.845278367 79.618038002 79.507819797 36.025283542 80.969942834 79.797491267 36.220519715 
82.340091543 79.880852718 36.579563632 83.743926071 79.915454123 36.915450745 85.154394464 79.827565914 37.361215599 
86.611599453 79.713791747 37.829970087 88.132024086 79.667397054 38.298848483 89.67246168 79.635499576 38.801985888 
91.29651187 79.626787079 39.315041335 93.230641181 79.462149016 39.801159411 95.124544432 80.141954239 40.487930046 
96.600655415 80.486172305 41.376389297 97.92936256 80.747946279 42.453558675 99.200816388 80.992664704 43.589887798 
100.10011369 81.283008804 44.934020039 100.85019348 81.623578989 46.280707839 101.06228716 80.179245229 46.716416112 
101.95738638 79.34202242 48.728317323 101.23935067 78.688062449 47.319268554 102.36960363 80.206736936 50.19241206 
102.55049612 81.292446131 51.34046954 102.29410166 82.009563099 52.177163721 102.21294154 81.77429203 53.265122694 
101.92811062 81.590362184 54.800133687 101.14334521 81.399292958 56.425878027 99.754806343 81.162422378 58.42475872 
100.21253564 72.166751354 52.078958199 99.569922398 71.82745751 50.819316116 98.767862834 71.582602099 49.613554442 
97.915955164 71.35551368 48.456152527 96.964952025 71.235597551 47.363984743 96.000204174 71.174001112 46.276120689 
94.943065716 71.202700386 45.245559941 93.841275064 71.243767141 44.226015757 92.678290247 71.305489775 43.219199546 
91.390907245 71.466412852 42.330076487 90.013129437 71.627586953 41.523040445 88.567363396 71.712428321 40.829917431 
87.152933987 71.737747933 40.205729622 85.885767594 71.689845902 39.624162505 84.954645745 71.631857851 39.209879057 
84.648651018 72.324576779 38.521479585 82.811606698 72.299160264 37.783611966 84.057687537 73.353734559 37.674562813 
81.595909117 71.322429163 38.083857469 80.282678289 70.519746196 38.50146696 78.891477824 69.795528493 38.824180692 
77.355202151 69.380041665 39.379508318 75.815289362 69.120497253 40.157469292 74.500896987 69.232703818 41.164809107 
73.318560787 69.527673506 42.34532682 72.232205185 69.905753715 43.671794498 71.591881351 70.292606845 45.220724314 
71.262715876 70.704249433 46.780771996 71.229756108 71.192302572 48.163315438 71.400941985 71.59771821 49.501954834 
71.823673007 71.920672617 50.771886362 72.331800423 72.100125633 52.119655654 72.839979538 72.222468954 53.53186735 
73.351036585 72.313143572 54.996558083 73.843419485 72.389753111 56.49755646 74.452697444 72.454090834 57.987844016 
75.263775219 72.470993348 59.392074078 76.145891477 72.474150342 60.772487681 77.038702798 72.461340793 62.13618933 
77.963357661 72.471416652 63.47496494 78.996057677 72.624880753 64.716076526 80.030618985 72.956410285 65.944233942 
81.035845299 73.485111235 67.113410213 83.263924791 73.568850877 67.660369798 81.971452774 74.255650504 68.137013875 
84.617627358 73.030898434 67.233401331 86.100629421 72.791182766 66.944717741 87.623152028 72.697508514 66.682820931 
89.17989743 72.704683155 66.301438514 90.66442967 72.777338974 65.660372524 92.111156034 72.795874116 64.95999724 
93.486723993 72.839402918 64.167095358 94.81577649 72.966772632 63.285406299 96.015649399 72.879023163 62.305452462 
96.979791045 72.916724433 61.427523175 97.80436408 73.413589601 60.548944415 98.631494429 74.104966219 59.665694826 
99.522678661 74.861978339 58.769417326 100.43922099 75.603662913 57.801853545 101.23914968 76.215784834 56.601063869 
101.99844185 75.20767536 55.098942074 102.01779473 76.568567922 55.328174636 101.71908122 74.28605897 54.853714163 
101.67684663 73.998966441 53.946044799 101.584383 73.562559491 52.728784237 78.444707665 81.481072584 70.040768878 
77.038708293 81.060595923 69.670640932 75.933781585 80.66147743 68.662355634 74.770073527 80.34067277 67.573293236 
73.702610853 80.035814476 66.328486312 72.620036842 79.719580331 65.039211324 71.867077944 79.400044329 63.588372865 
71.210246669 78.997956715 62.052228243 71.022823997 78.462444521 60.537287916 71.018624643 77.672820884 59.029521981 
69.763829073 78.402252358 53.767710303 70.266331014 78.286980467 55.29037569 68.976655679 78.296859072 52.341832383 
68.326674723 78.161232834 50.805735822 67.91694434 78.05368118 49.182992571 67.662411622 77.975218439 47.470407834 
68.003027879 77.949044871 45.859041352 68.380880679 77.959600328 44.253635413 68.82958834 78.017219666 42.691192327 
69.423432833 78.127359036 41.176706241 70.250474567 78.261583578 39.856425389 71.192371425 78.242549543 38.616643679 
72.272713267 77.914447532 37.612338918 73.391509642 77.451391243 36.744656749 74.51202589 76.811543548 36.386155976 
75.474448619 75.983037203 36.155634626 77.201907317 76.023509933 35.78516917 76.361947926 75.035018907 36.037252434 
78.121265016 76.962123421 35.804636439 79.094369618 77.751996051 35.882601036 80.107168261 78.315361817 35.906908091 
81.264288485 78.460756863 36.119950328 82.587189018 78.432020932 36.438955735 83.873407499 78.533828376 36.772206181 
85.13458836 78.35428901 37.199710655 86.534081761 78.149505951 37.705832983 88.002403789 78.04060206 38.368464863 
89.502169238 78.030441201 38.972389795 90.986913269 78.012125481 39.423140721 92.345578865 77.814052501 39.840501334 
96.875453989 78.966330783 41.701152621 95.539476243 78.691405841 40.90205211 98.139528674 79.15595967 42.769516463 
99.382337093 79.35987722 43.944226134 100.30330032 79.730550382 45.31981507 70.704250307 77.856802975 56.701434808 
71.251011519 76.722761978 57.669246494 100.38601789 78.163869962 45.863887213 101.37096759 77.174120124 47.964387313 
100.502759 76.582735383 46.475904887 102.10712539 77.807110917 49.557525592 102.75580391 78.658996711 51.536708629 
102.57669964 80.45787433 52.685879713 101.08035599 73.251778123 51.351112991 100.40871616 72.888882508 50.030169078 
99.517984107 72.655767282 48.859033495 98.607867404 72.414384925 47.734652283 97.643820369 72.268711383 46.706003692 
96.702665528 72.241099806 45.639372847 95.658431141 72.303422806 44.615544985 94.530832837 72.39643982 43.606661882 
93.322405474 72.544241268 42.622888864 92.027926698 72.797022168 41.726023207 90.549047362 73.086074476 40.866830812 
88.971004235 73.171720561 40.157009785 87.440935796 73.084018908 39.434067831 85.943334287 72.873513943 38.832145885 
85.640186918 74.587446882 37.93312365 83.015702412 74.37813155 37.052331525 84.085720717 75.635226377 37.079725481 
81.931894144 73.225907394 37.024978795 80.746103624 72.16610686 37.191983796 79.480427741 71.385519179 37.567512707 
78.11167218 70.756735341 37.879140244 76.584537287 70.434333885 38.373233876 75.002480042 70.151767559 39.109506251 
73.685111694 70.23101649 40.121308304 72.412493902 70.511796505 41.285293295 70.953221235 71.212004463 42.58432819 
70.432840589 71.473894466 44.646843608 70.213579882 71.804138404 46.390181448 70.214951839 72.183558747 47.925595992 
70.43847708 72.560445725 49.401706192 70.91874875 72.907965392 50.805811674 71.481421688 73.169874407 52.204439689 
72.083437243 73.396530183 53.608281024 72.562172477 73.527623602 55.113664808 72.978153 73.636009038 56.636341258 
73.53646572 73.758461636 58.246633589 74.374351377 73.657509714 59.75910637 75.204295087 73.573663821 61.162121161 
76.007483594 73.47247263 62.576685762 76.885279503 73.477046917 63.937021252 77.827848019 73.580406622 65.239186509 
78.815566781 73.852684946 66.462259099 79.79921846 74.339678009 67.617455014 80.744635309 75.059160158 68.597236373 
82.911129977 75.163414998 68.97124074 81.663005331 75.945457207 69.467102219 84.130928618 74.46704334 68.515623435 
85.249112387 74.017870598 68.018220092 86.486797891 73.915139904 67.767770788 87.908644472 74.069926396 67.319961299 
89.40485926 74.233794239 66.715821568 90.81878814 74.354928468 65.879690108 92.131471865 74.280333767 64.961190978 
93.313402729 74.279125655 64.076981498 94.644924208 74.77557418 63.017905007 95.989840556 74.246638876 62.10518537 
96.792493848 73.904036604 61.522699483 97.327282737 74.543480916 60.953743058 98.192307435 75.337435206 60.291085641 
99.090325251 76.183666209 59.398531992 99.992736667 76.975712425 58.334725896 100.95610257 77.674064448 57.083184484 
101.8186939 78.1001444 55.628420135 102.49087206 76.670107761 53.704800772 102.5006641 78.388968646 53.876273097 
102.22183778 75.163564867 53.735594793 98.530390306 79.791112622 59.809942852 97.407835512 78.627786583 60.689769383 
96.396265017 77.490218926 61.447984815 95.492019362 76.265365583 62.183208613 93.689206105 76.136768598 63.502064022 
92.728035956 76.958363261 64.259292979 91.866689888 77.66681457 65.444510143 91.121743597 78.406937215 66.601320189 
90.200027379 78.750284355 67.833620476 88.967003922 79.031370295 69.171769263 87.466952068 79.784874063 70.021180487 
86.015539633 80.563723338 70.486304307 85.03252819 79.219392339 70.547356917 83.937110849 78.026949746 70.461883698 
81.461632695 77.888904446 70.409452876 82.754360322 76.955512397 70.081838731 80.13920773 78.924093573 70.494241208 
79.152438866 80.238330046 70.347376173 101.07638673 74.186945488 49.287054047 101.77089435 74.530202811 50.705294326 
100.08848966 73.882429703 48.121731179 99.13454113 73.541168175 47.03413982 98.215092017 73.294149003 46.137745154 
97.399052422 73.341930883 45.125640879 96.391786601 73.4678165 44.111143948 95.257225528 73.583041443 43.103033358 
94.069401037 73.79301675 42.149017454 92.776985725 74.160061183 41.213286237 91.230189143 74.883554083 40.255543075 
89.272001795 74.749027325 39.507730147 87.612766449 74.686055109 38.748272212 82.729630511 76.791872849 36.622391535 
83.839089384 77.416522705 36.841991861 84.848945783 76.962403699 37.238495725 81.880902353 75.358213852 36.547425714 
80.943115206 74.1973009 36.48884001 79.884046015 73.178728897 36.62854665 78.758977776 72.337757872 36.83978233 
77.524027525 71.795783106 37.122356686 75.908040172 71.963435073 37.385537522 74.311760061 71.45964534 38.264059333 
73.106600625 71.438419986 39.266988974 71.923867492 71.651022604 40.19981048 70.954271593 72.270924353 41.036464875 
69.275986522 73.192181231 46.146280362 69.471756385 73.033655682 44.459238272 69.250282122 73.420054341 47.738176409 
69.502477619 73.689286576 49.347162533 70.017885496 74.002095382 50.819266533 70.599412613 74.259610692 52.265910935 
71.271844474 74.537664446 53.650952822 71.756029754 74.727133311 55.101522399 72.093824087 74.925094911 56.651188584 
72.328044084 75.248716986 58.576310486 74.221557315 74.57196242 61.662863574 73.399459192 74.762552624 60.248333849 
74.990230311 74.474221776 63.051981852 75.835393165 74.511749681 64.403557411 76.686340626 74.570254805 65.736722158 
77.690158691 74.859966224 66.935715857 78.657563671 75.21770577 68.106403563 79.584024582 75.914283617 68.973987418 
80.329447771 76.833945095 69.819187752 69.740677258 73.04959994 42.768600569 70.174690614 73.485882625 41.271611059 
94.322730446 78.130985869 40.278073909 93.416902735 77.112180337 40.266484266 102.38113673 80.078919824 54.390239745 
101.51468535 79.723658013 56.041894324 100.47305414 79.278418915 57.651425122 99.358967319 78.386646074 58.973058499 
98.355136361 77.442453882 60.010842995 97.368609003 76.43232394 60.825706609 96.590264503 75.39171725 61.582160263 
77.750529496 79.540341868 69.949025207 76.367152772 79.083781224 68.964209932 75.17513199 78.747195253 67.85633508 
74.125769207 78.470878584 66.569959442 73.153160842 78.201295233 65.269419759 72.400007087 77.957023081 63.858459217 
71.791253904 77.606059996 62.48357661 71.627336911 77.236652365 61.1285488 71.763888605 76.427884983 59.932973465 
71.319271512 76.117721276 56.347812215 70.83972938 77.006309162 56.017572335 70.53279878 77.059337042 54.992762127 
70.048064529 77.01350233 53.655263467 69.285044548 76.831021865 52.31160617 68.588954502 76.613750244 50.828303818 
68.150273982 76.445371026 49.237911647 67.884222748 76.293629124 47.513045514 68.204341553 76.276151441 45.899969461 
68.545728932 76.272298728 44.296500312 68.965790669 76.369217724 42.7456038 69.498959042 76.511078307 41.273685768 
70.265388132 76.68089531 40.012406846 71.113480227 76.663867573 38.832400397 72.10283708 76.51559934 37.909932139 
73.02888344 76.198487093 37.092953616 74.01208408 75.805634052 36.67191327 74.797686105 75.049567694 36.524649701 
75.596284268 74.123642682 36.496592642 78.097024639 75.070621317 35.989054605 77.28006607 74.104114723 36.067296014 
78.958990185 76.010545309 35.983867853 79.788011326 76.824022861 35.999332077 80.397958802 77.451656733 36.013638837 
81.29108477 77.22506542 36.232130446 86.432776112 78.215891122 70.175578224 85.138610266 77.069799051 69.97016749 
83.982753385 76.05682602 69.676820821 84.971846267 75.359521662 69.028560389 85.616631302 74.795317008 68.517076746 
86.629529273 75.005854249 68.508082239 88.077499238 75.438906083 68.104759065 89.579326225 75.747835264 67.230416667 
90.977527659 76.128321126 65.975209049 92.171247157 75.691734932 64.761654097 93.033570326 75.374119839 64.093113032 
86.25823692 76.523271283 37.775539403 87.825879652 76.411949141 38.478602318 89.354392976 76.435896053 39.168763921 
90.828919074 76.533847834 39.65394938 91.911350423 76.786856035 39.955843321 92.6161317 76.010287468 40.331638404 
94.430052353 76.45717626 40.733149856 93.692374525 75.360127493 40.914690991 94.826031435 77.350906235 40.77017194 
95.693854293 77.44708726 41.318020462 96.872768156 77.521037189 42.099335162 98.074504665 77.606216862 43.151891548 
99.33567019 77.756775646 44.463220401 99.15457049 75.883741103 45.007144712 100.42376758 75.161102266 47.342349362 
99.421556113 74.690273177 46.288480184 101.36810577 75.645880071 48.639750656 102.08743098 76.115323181 50.143981248 
90.585693869 77.25407318 66.812999871 89.712891188 77.203301905 67.798756264 87.947659631 77.155248933 69.035993102 
78.737153899 77.844742256 69.865721201 71.052740397 75.908226421 55.019967384 70.553582779 75.732775425 53.651530573 
69.841794005 75.476611232 52.302878805 69.181809779 75.212214628 50.852316524 68.670290352 74.966787763 49.318310588 
68.398173596 74.747748363 47.617154985 68.584894658 74.683407263 45.980261499 68.872685661 74.654975706 44.362953988 
69.209591309 74.718494217 42.776385364 69.739581539 74.951044356 41.324396516 70.41293755 75.169467573 40.136836781 
71.152671647 75.256815882 39.027420097 74.097570425 74.306172209 36.904252509 73.653461043 75.062177209 36.888874626 
79.943218466 75.099813576 36.183908766 79.015887024 74.147451309 36.2503323 80.743742242 76.130768973 36.177484466 
77.04146949 77.53157795 68.90950495 75.845818103 77.23836886 67.768659497 74.795861442 76.987836415 66.513208807 
73.873205814 76.768312663 65.227756835 73.15180002 76.6461785 63.814988482 72.556519027 76.498836627 62.562144838 
72.175250683 76.407972744 61.577133133 72.617760112 75.705509686 60.965258549 73.302542677 75.508708312 62.189541504 
74.000235983 75.478849437 63.516912863 74.789150957 75.538922837 64.87543625 75.668209276 75.679635532 66.184077777 
76.666942988 75.92131701 67.412166353 77.676858544 76.228711672 68.493075438 78.629406897 76.601752271 69.237549272 
95.423590569 76.219473125 41.507723393 96.588350731 76.106978667 42.370100419 97.806777375 76.040734198 43.476641844 
78.099790399 73.278738976 36.392117828 77.334980669 72.684320009 36.56331626 76.479902587 73.21121081 36.529073653 
72.640898937 72.670907742 38.657220626 73.649778846 72.750104215 37.763567681 71.69969511 72.720290195 39.484244327 
71.095071699 72.9382952 40.221493276 70.715671947 73.867702713 40.196747199 94.822501245 74.989420504 41.774055818 
98.61808759 74.153023604 45.716300667 98.118540869 74.463152376 44.771291354 97.102501991 74.668070077 43.720098996 
86.147947533 76.038699762 69.309172736 95.988215808 74.802010622 42.689186577 72.299130697 73.934760591 38.368843101 
73.187693927 74.004266836 37.542617109 71.393217045 73.91558466 39.185922404 74.195633446 67.525835694 47.682936984 
73.792237341 68.112696075 48.987736763 84.679269406 83.938041631 70.129841789 102.3191696 74.825611261 52.171210413 
102.67258447 76.509615684 51.809117766 72.95697152 75.114559043 37.40256792 72.10608234 75.200200012 38.162588965 
74.766491818 73.215222601 36.991834773 
POLYGONS 1065 4256
OFFSETS vtktypeint64
0 4 8 12 16 20 24 28 32 
36 40 44 48 52 56 60 64 68 
72 76 80 84 88 92 96 100 104 
108 112 116 120 124 128 132 136 140 
144 148 152 156 160 164 168 172 176 
180 184 188 192 196 200 204 208 212 
216 220 224 228 232 236 240 244 248 
252 256 260 264 268 272 276 280 284 
288 292 296 300 304 308 312 316 320 
324 328 332 336 340 344 348 352 356 
360 364 368 372 376 380 384 388 392 
396 400 404 408 412 416 420 424 428 
432 436 440 444 448 452 456 460 464 
468 472 476 480 484 488 492 496 500 
504 508 512 516 520 524 528 532 536 
540 544 548 552 556 560 564 568 572 
576 580 584 588 592 596 600 604 608 
612 616 620 624 628 632 636 640 644 
648 652 656 660 664 668 672 676 680 
684 688 692 696 700 704 708 712 716 
720 724 728 732 736 740 744 748 752 
756 760 764 768 772 776 780 784 788 
792 796 800 804 808 812 816 820 824 
828 832 836 840 844 848 852 856 860 
864 868 872 876 880 884 888 892 896 
900 904 908 912 916 920 924 928 932 
936 940 944 948 952 956 960 964 968 
972 976 980 984 988 992 996 1000 1004 
1008 1012 1016 1020 1024 1028 1032 1036 1040 
1044 1048 1052 1056 1060 1064 1068 1072 1076 
1080 1084 1088 1092 1096 1100 1104 1108 1112 
1116 1120 1124 1128 1132 1136 1140 1144 1148 
1152 1156 1160 1164 1168 1172 1176 1180 1184 
1188 1192 1196 1200 1204 1208 1212 1216 1220 
1224 1228 1232 1236 1240 1244 1248 1252 1256 
1260 1264 1268 1272 1276 1280 1284 1288 1292 
1296 1300 1304 1308 1312 1316 1320 1324 1328 
1332 1336 1340 1344 1348 1352 1356 1360 1364 
1368 1372 1376 1380 1384 1388 1392 1396 1400 
1404 1408 1412 1416 1420 1424 1428 1432 1436 
1440 1444 1448 1452 1456 1460 1464 1468 1472 
1476 1480 1484 1488 1492 1496 1500 1504 1508 
1512 1516 1520 1524 1528 1532 1536 1540 1544 
1548 1552 1556 1560 1564 1568 1572 1576 1580 
1584 1588 1592 1596 1600 1604 1608 1612 1616 
1620 1624 1628 1632 1636 1640 1644 1648 1652 
1656 1660 1664 1668 1672 1676 1680 1684 1688 
1692 1696 1700 1704 1708 1712 1716 1720 1724 
1728 1732 1736 1740 1744 1748 1752 1756 1760 
1764 1768 1772 1776 1780 1784 1788 1792 1796 
1800 1804 1808 1812 1816 1820 1824 1828 1832 
1836 1840 1844 1848 1852 1856 1860 1864 1868 
1872 1876 1880 1884 1888 1892 1896 1900 1904 
1908 1912 1916 1920 1924 1928 1932 1936 1940 
1944 1948 1952 1956 1960 1964 1968 1972 1976 
1980 1984 1988 1992 1996 2000 2004 2008 2012 
2016 2020 2024 2028 2032 2036 2040 2044 2048 
2052 2056 2060 2064 2068 2072 2076 2080 2084 
2088 2092 2096 2100 2104 2108 2112 2116 2120 
2124 2128 2132 2136 2140 2144 2148 2152 2156 
2160 2164 2168 2172 2176 2180 2184 2188 2192 
2196 2200 2204 2208 2212 2216 2220 2224 2228 
2232 2236 2240 2244 2248 2252 2256 2260 2264 
2268 2272 2276 2280 2284 2288 2292 2296 2300 
2304 2308 2312 2316 2320 2324 2328 2332 2336 
2340 2344 2348 2352 2356 2360 2364 2368 2372 
2376 2380 2384 2388 2392 2396 2400 2404 2408 
2412 2416 2420 2424 2428 2432 2436 2440 2444 
2448 2452 2456 2460 2464 2468 2472 2476 2480 
2484 2488 2492 2496 2500 2504 2508 2512 2516 
2520 2524 2528 2532 2536 2540 2544 2548 2552 
2556 2560 2564 2568 2572 2576 2580 2584 2588 
2592 2596 2600 2604 2608 2612 2616 2620 2624 
2628 2632 2636 2640 2644 2648 2652 2656 2660 
2664 2668 2672 2676 2680 2684 2688 2692 2696 
2700 2704 2708 2712 2716 2720 2724 2728 2732 
2736 2740 2744 2748 2752 2756 2760 2764 2768 
2772 2776 2780 2784 2788 2792 2796 2800 2804 
2808 2812 2816 2820 2824 2828 2832 2836 2840 
2844 2848 2852 2856 2860 2864 2868 2872 2876 
2880 2884 2888 2892 2896 2900 2904 2908 2912 
2916 2920 2924 2928 2932 2936 2940 2944 2948 
2952 2956 2960 2964 2968 2972 2976 2980 2984 
2988 2992 2996 3000 3004 3008 3012 3016 3020 
3024 3028 3032 3036 3040 3044 3048 3052 3056 
3060 3064 3068 3072 3076 3080 3084 3088 3092 
3096 3100 3104 3108 3112 3116 3120 3124 3128 
3132 3136 3140 3144 3148 3152 3156 3160 3164 
3168 3172 3176 3180 3184 3188 3192 3196 3200 
3204 3208 3212 3216 3220 3224 3228 3232 3236 
3240 3244 3248 3252 3256 3260 3264 3268 3272 
3276 3280 3284 3288 3292 3296 3300 3304 3308 
3312 3316 3320 3324 3328 3332 3336 3340 3344 
3348 3352 3356 3360 3364 3368 3372 3376 3380 
3384 3388 3392 3396 3400 3404 3408 3412 3416 
3420 3424 3428 3432 3436 3440 3444 3448 3452 
3456 3460 3464 3468 3472 3476 3480 3484 3488 
3492 3496 3500 3504 3508 3512 3516 3520 3524 
3528 3532 3536 3540 3544 3548 3552 3556 3560 
3564 3568 3572 3576 3580 3584 3588 3592 3596 
3600 3604 3608 3612 3616 3620 3624 3628 3632 
3636 3640 3644 3648 3652 3656 3660 3664 3668 
3672 3676 3680 3684 3688 3692 3696 3700 3704 
3708 3712 3716 3720 3724 3728 3732 3736 3740 
3744 3748 3752 3756 3760 3764 3768 3772 3776 
3780 3784 3788 3792 3796 3800 3804 3808 3812 
3816 3820 3824 3828 3832 3836 3840 3844 3848 
3852 3856 3860 3864 3868 3872 3876 3880 3884 
3888 3892 3896 3900 3904 3908 3912 3916 3920 
3924 3928 3932 3936 3940 3944 3948 3952 3956 
3960 3964 3968 3972 3976 3980 3984 3988 3992 
3996 4000 4004 4008 4012 4016 4020 4024 4028 
4032 4036 4040 4044 4048 4052 4056 4060 4064 
4068 4072 4076 4080 4084 4088 4092 4096 4100 
4104 4108 4112 4116 4120 4124 4128 4132 4136 
4140 4144 4148 4152 4156 4160 4164 4168 4172 
4176 4180 4184 4188 4192 4196 4200 4204 4208 
4212 4216 4220 4224 4228 4232 4236 4240 4244 
4248 4252 4256 
CONNECTIVITY vtktypeint64
0 1 2 3 1 4 5 2 4 
6 7 5 6 8 9 7 8 10 
11 9 10 12 13 11 12 14 15 
13 14 16 17 15 16 18 19 17 
18 20 21 19 20 22 23 21 22 
24 25 23 24 26 27 25 26 28 
29 27 28 30 31 29 30 32 33 
31 32 34 35 33 34 36 37 35 
36 38 39 37 38 40 41 39 40 
42 43 41 42 44 45 43 44 46 
47 45 46 48 49 47 48 50 51 
49 50 52 53 51 52 54 55 53 
54 56 57 55 56 58 59 57 58 
60 61 59 60 62 63 61 62 64 
65 63 64 66 67 65 66 68 69 
67 68 70 71 69 70 72 73 71 
72 74 75 73 74 76 77 75 76 
78 79 77 78 80 81 79 80 82 
83 81 82 0 3 83 84 85 86 
87 85 88 89 86 88 90 91 89 
90 92 93 91 92 94 95 93 94 
96 97 95 96 98 99 97 98 100 
101 99 100 102 103 101 102 104 105 
103 104 106 107 105 106 108 109 107 
108 110 111 109 110 112 113 111 112 
114 115 113 114 116 117 115 116 118 
119 117 118 120 121 119 120 122 123 
121 122 124 125 123 124 126 127 125 
126 128 129 127 128 130 131 129 130 
132 133 131 132 134 135 133 134 136 
137 135 136 138 139 137 138 140 141 
139 140 142 143 141 142 144 145 143 
144 146 147 145 146 148 149 147 148 
150 151 149 150 152 153 151 152 154 
155 153 154 156 157 155 156 158 159 
157 158 160 161 159 160 162 163 161 
162 164 165 163 164 166 167 165 166 
168 169 167 168 170 171 169 170 172 
173 171 172 174 175 173 174 176 177 
175 176 178 179 177 178 180 181 179 
180 182 183 181 182 184 185 183 184 
186 187 185 186 188 189 187 188 190 
191 189 190 192 193 191 192 194 195 
193 194 196 197 195 196 198 199 197 
198 84 87 199 2 5 200 201 5 
7 202 200 7 9 203 202 9 11 
204 203 11 13 205 204 13 15 206 
205 15 17 207 206 17 19 208 207 
19 21 209 208 21 23 210 209 23 
25 211 210 25 27 212 211 27 29 
213 212 29 31 214 213 31 33 215 
214 33 35 216 215 35 37 217 216 
37 39 218 217 39 41 219 218 41 
43 220 219 43 45 221 220 45 47 
222 221 47 49 223 222 49 51 224 
223 51 53 225 224 53 55 226 225 
55 57 227 226 57 59 228 227 59 
61 229 228 61 63 230 229 63 65 
231 230 65 67 232 231 67 69 233 
232 69 71 234 233 71 73 235 234 
73 75 236 235 75 77 237 236 77 
79 238 237 79 81 239 238 81 83 
240 239 83 3 241 240 3 2 201 
241 86 89 242 243 89 91 244 242 
91 93 245 244 93 95 246 245 95 
97 247 246 97 99 248 247 99 101 
249 248 101 103 250 249 103 105 251 
250 105 107 252 251 107 109 253 252 
109 111 254 253 111 113 255 254 113 
115 256 255 115 117 257 256 117 119 
258 257 119 121 259 258 121 123 260 
259 123 125 261 260 125 127 262 261 
127 129 263 262 129 131 264 263 131 
133 265 264 135 137 266 267 137 139 
268 266 139 141 269 268 141 143 270 
269 143 145 271 270 145 147 272 271 
147 149 273 272 149 151 274 273 151 
153 275 274 153 155 276 275 155 157 
277 276 157 159 278 277 159 161 279 
278 161 163 280 279 163 165 281 280 
165 167 282 281 167 169 283 282 169 
171 284 283 171 173 285 284 173 175 
286 285 175 177 287 286 177 179 288 
287 179 181 289 288 181 183 290 289 
183 185 291 290 185 187 292 291 187 
189 293 292 189 191 294 293 191 193 
295 294 193 195 296 295 195 197 297 
296 197 199 298 297 199 87 299 298 
87 86 243 299 133 135 267 300 265 
133 300 301 203 204 302 303 204 205 
304 302 205 206 305 304 206 207 306 
305 207 208 307 306 208 209 308 307 
209 210 309 308 210 211 310 309 211 
212 311 310 212 213 312 311 213 214 
313 312 214 215 314 313 215 216 315 
314 216 217 316 315 217 218 317 316 
218 219 318 317 219 220 319 318 220 
221 320 319 221 222 321 320 222 223 
322 321 224 225 323 324 225 226 325 
323 226 227 326 325 227 228 327 326 
228 229 328 327 229 230 329 328 230 
231 330 329 231 232 331 330 232 233 
332 331 233 234 333 332 234 235 334 
333 235 236 335 334 236 237 336 335 
237 238 337 336 238 239 338 337 239 
240 339 338 240 241 340 339 241 201 
341 340 201 200 342 341 223 224 324 
343 322 223 343 344 301 300 345 346 
300 267 266 345 266 268 347 345 268 
269 348 347 269 270 349 348 270 271 
350 349 271 272 351 350 272 273 352 
351 273 274 353 352 275 276 354 355 
276 277 356 354 277 278 357 356 278 
279 358 357 279 280 359 358 280 281 
360 359 281 282 361 360 282 283 362 
361 283 284 363 362 284 285 364 363 
285 286 365 364 286 287 366 365 287 
288 367 366 288 289 368 367 289 290 
369 368 290 291 370 369 291 292 371 
370 292 293 372 371 293 294 373 372 
294 295 374 373 295 296 375 374 296 
297 376 375 297 298 377 376 298 299 
378 377 299 243 379 378 243 242 380 
379 242 244 381 380 244 245 382 381 
245 246 383 382 246 247 384 383 247 
248 385 384 248 249 386 385 249 250 
387 386 250 251 388 387 251 252 389 
388 252 253 390 389 253 254 391 390 
254 255 392 391 255 256 393 392 256 
257 394 393 257 258 395 394 258 259 
396 395 259 260 397 396 260 261 398 
397 261 262 399 398 262 263 400 399 
263 264 401 400 264 265 402 401 265 
301 403 402 301 346 404 403 346 405 
406 404 346 345 347 405 274 275 355 
407 353 274 407 408 344 343 409 410 
343 324 411 409 324 323 412 411 323 
325 413 412 325 326 414 413 326 327 
415 414 327 328 416 415 328 329 417 
416 329 330 418 417 330 331 419 418 
331 332 420 419 332 333 421 420 333 
334 422 421 334 335 423 422 335 336 
424 423 337 338 425 426 338 339 427 
425 339 340 428 427 340 341 429 428 
341 342 430 429 303 302 431 432 302 
304 433 431 304 305 434 433 305 306 
435 434 306 307 436 435 307 308 437 
436 308 309 438 437 309 310 439 438 
310 311 440 439 311 312 441 440 312 
313 442 441 313 314 443 442 314 315 
444 443 315 316 445 444 316 317 446 
445 317 318 447 446 318 319 448 447 
319 320 449 448 320 321 450 449 321 
322 451 450 322 344 452 451 344 410 
453 452 410 454 455 453 410 409 456 
454 457 303 432 458 459 457 458 460 
336 337 426 461 424 336 461 462 347 
348 463 405 348 349 464 463 349 350 
465 464 350 351 466 465 351 352 467 
466 352 353 468 467 353 408 469 468 
408 470 471 469 408 407 472 470 407 
355 473 472 355 354 474 473 354 356 
475 474 356 357 476 475 357 358 477 
476 358 359 478 477 359 360 479 478 
360 361 480 479 361 362 481 480 362 
363 482 481 363 364 483 482 364 365 
484 483 365 366 485 484 366 367 486 
485 367 368 487 486 368 369 488 487 
369 370 489 488 370 371 490 489 371 
372 491 490 372 373 492 491 373 374 
493 492 374 375 494 493 375 376 495 
494 376 377 496 495 377 378 497 496 
378 379 498 497 379 380 499 498 380 
381 500 499 381 382 501 500 382 383 
502 501 383 384 503 502 384 385 504 
503 385 386 505 504 386 387 506 505 
387 388 507 506 388 389 508 507 389 
390 509 508 390 391 510 509 391 392 
511 510 392 393 512 511 393 394 513 
512 395 396 514 515 396 397 516 514 
397 398 517 516 398 399 518 517 399 
400 519 518 400 401 520 519 401 402 
521 520 402 403 522 521 403 404 523 
522 404 406 524 523 406 525 526 524 
406 405 527 525 405 463 528 527 463 
464 529 528 464 465 530 529 465 466 
531 530 466 467 532 531 522 523 533 
534 523 524 535 533 524 526 536 535 
526 537 538 536 526 525 539 537 525 
527 540 539 527 528 541 540 528 529 
542 541 529 530 543 542 530 531 544 
543 531 532 545 544 394 395 515 546 
513 394 546 547 409 411 548 456 411 
412 549 548 412 413 550 549 413 414 
551 550 414 415 552 551 415 416 553 
552 416 417 554 553 417 418 555 554 
418 419 556 555 419 420 557 556 420 
421 558 557 421 422 559 558 422 423 
560 559 423 424 561 560 424 462 562 
561 462 563 564 562 462 461 565 563 
461 426 566 565 426 425 567 566 425 
427 568 567 427 428 569 568 428 429 
570 569 429 430 571 570 430 572 573 
571 572 574 575 573 574 459 576 575 
459 460 577 576 460 458 578 577 458 
432 579 578 432 431 580 579 431 433 
581 580 433 434 582 581 434 435 583 
582 435 436 584 583 436 437 585 584 
437 438 586 585 438 439 587 586 439 
440 588 587 440 441 589 588 442 443 
590 591 443 444 592 590 444 445 593 
592 445 446 594 593 446 447 595 594 
447 448 596 595 448 449 597 596 449 
450 598 597 450 451 599 598 451 452 
600 599 452 453 601 600 453 455 602 
601 455 603 604 602 455 454 605 603 
454 456 606 605 441 442 591 607 589 
441 607 608 469 471 609 610 471 611 
612 609 471 470 613 611 470 472 614 
613 472 473 615 614 473 474 616 615 
474 475 617 616 475 476 618 617 476 
477 619 618 477 478 620 619 478 479 
621 620 479 480 622 621 480 481 623 
622 481 482 624 623 482 483 625 624 
483 484 626 625 484 485 627 626 485 
486 628 627 486 487 629 628 487 488 
630 629 488 489 631 630 489 490 632 
631 490 491 633 632 491 492 634 633 
492 493 635 634 493 494 636 635 494 
495 637 636 495 496 638 637 497 498 
639 640 498 499 641 639 499 500 642 
641 500 501 643 642 501 502 644 643 
502 503 645 644 503 504 646 645 504 
505 647 646 505 506 648 647 506 507 
649 648 507 508 650 649 508 509 651 
650 509 510 652 651 510 511 653 652 
511 512 654 653 512 513 655 654 513 
547 656 655 547 657 658 656 547 546 
659 657 546 515 660 659 515 514 661 
660 514 516 662 661 516 517 663 662 
517 518 664 663 518 519 665 664 519 
520 521 665 496 497 640 666 638 496 
666 667 610 609 668 545 609 612 669 
668 612 670 671 669 612 611 672 670 
611 613 673 672 613 614 674 673 614 
615 675 674 615 616 676 675 616 617 
677 676 617 618 678 677 618 619 679 
678 619 620 680 679 620 621 681 680 
621 622 682 681 622 623 683 682 623 
624 684 683 624 625 685 684 625 626 
686 685 626 627 687 686 627 628 688 
687 628 629 689 688 629 630 690 689 
630 631 691 690 631 632 692 691 632 
633 693 692 633 634 694 693 634 635 
695 694 635 636 696 695 636 637 697 
696 637 638 698 697 638 667 699 698 
667 700 701 699 667 666 702 700 666 
640 703 702 640 639 704 703 639 641 
705 704 641 642 706 705 642 643 707 
706 643 644 708 707 644 645 709 708 
645 646 710 709 646 647 711 710 647 
648 712 711 648 649 713 712 649 650 
714 713 650 651 715 714 651 652 716 
715 652 653 717 716 653 654 718 717 
654 655 656 718 656 658 719 718 658 
720 721 719 658 657 722 720 657 659 
723 722 659 660 724 723 660 661 725 
724 661 662 726 725 662 663 727 726 
663 664 728 727 664 665 534 728 665 
521 522 534 456 548 729 606 548 549 
730 729 549 550 731 730 550 551 732 
731 551 552 733 732 552 553 734 733 
553 554 735 734 554 555 736 735 555 
556 737 736 556 557 738 737 557 558 
739 738 558 559 740 739 559 560 741 
740 560 561 742 741 561 562 743 742 
562 564 744 743 564 745 746 744 564 
563 747 745 563 565 748 747 565 566 
749 748 566 567 750 749 567 568 751 
750 568 569 752 751 569 570 753 752 
570 571 754 753 571 573 755 754 573 
575 756 755 575 576 757 756 576 577 
758 757 577 578 759 758 578 579 760 
759 579 580 761 760 580 581 762 761 
581 582 763 762 582 583 764 763 583 
584 765 764 584 585 766 765 585 586 
767 766 586 587 768 767 587 588 769 
768 588 589 770 769 589 608 771 770 
608 772 773 771 608 607 774 772 607 
591 775 774 591 590 776 775 590 592 
777 776 592 593 778 777 593 594 779 
778 594 595 780 779 595 596 781 780 
596 597 782 781 597 598 783 782 598 
599 784 783 599 600 785 784 600 601 
786 785 601 602 787 786 602 604 788 
787 604 789 790 788 604 603 791 789 
603 605 792 791 605 606 793 792 674 
675 794 673 675 676 795 794 676 677 
796 795 677 678 797 796 678 679 798 
797 679 680 799 798 680 681 800 799 
681 682 801 800 682 683 802 801 683 
684 803 802 685 686 804 805 686 687 
806 804 687 688 807 806 688 689 808 
807 689 690 809 808 690 691 810 809 
691 692 811 810 692 693 812 811 693 
694 813 812 694 695 814 813 695 696 
815 814 696 697 816 815 697 698 817 
816 698 699 818 817 699 701 819 818 
701 820 821 819 701 700 822 820 700 
702 823 822 702 703 824 823 703 704 
825 824 704 705 826 825 705 706 827 
826 706 707 828 827 707 708 829 828 
708 709 830 829 709 710 831 830 710 
711 832 831 711 712 833 832 713 714 
834 835 714 715 836 834 715 716 837 
836 716 717 838 837 717 718 719 838 
684 685 805 839 803 684 839 840 719 
721 841 838 721 842 843 841 721 720 
844 842 720 722 845 844 722 723 846 
845 723 724 725 846 606 729 847 793 
729 730 848 847 730 731 849 848 731 
732 850 849 732 733 851 850 733 734 
852 851 734 735 853 852 735 736 854 
853 736 737 855 854 737 738 856 855 
738 739 857 856 739 740 858 857 740 
741 859 858 741 742 860 859 744 746 
861 860 746 862 863 861 746 745 864 
862 745 747 865 864 747 748 866 865 
748 749 867 866 749 750 868 867 750 
751 869 868 751 752 870 869 752 753 
871 870 753 754 872 871 754 755 873 
872 755 756 874 873 756 757 875 874 
757 758 876 875 758 759 877 876 759 
760 878 877 760 761 879 878 761 762 
880 879 762 763 881 880 763 764 882 
881 764 765 883 882 765 766 884 883 
766 767 885 884 767 768 886 885 768 
769 887 886 769 770 888 887 770 771 
889 888 771 773 890 889 773 891 892 
890 773 772 893 891 772 774 894 893 
774 775 895 894 775 776 896 895 776 
777 897 896 777 778 898 897 778 779 
899 898 779 780 900 899 780 781 901 
900 781 782 902 901 782 783 903 902 
783 784 904 903 784 785 905 904 785 
786 906 905 786 787 907 906 787 788 
908 907 788 790 909 908 790 910 911 
909 791 792 912 789 534 533 913 728 
533 535 914 913 535 536 915 914 536 
538 916 915 538 917 901 916 538 537 
918 917 537 539 919 918 539 540 920 
919 540 541 921 920 541 542 922 921 
542 543 923 922 543 544 924 923 544 
545 668 924 668 669 925 924 669 671 
926 925 671 927 928 926 671 670 929 
927 670 672 930 929 672 673 794 930 
847 848 931 932 848 849 933 931 849 
850 934 933 850 851 935 934 851 852 
936 935 852 853 937 936 853 854 938 
937 854 855 939 938 855 856 940 939 
856 857 941 940 857 858 942 941 858 
859 943 942 859 860 861 943 863 944 
945 946 863 862 947 944 862 864 948 
947 864 865 949 948 865 866 950 949 
866 867 951 950 867 868 952 951 868 
869 953 952 869 870 954 953 870 871 
955 954 871 872 956 955 873 874 957 
958 874 875 959 957 875 876 960 959 
876 877 961 960 877 878 962 961 878 
879 963 962 879 880 964 963 880 881 
965 964 881 882 966 965 883 884 967 
968 884 885 969 967 885 886 970 969 
886 887 971 970 887 888 972 971 888 
889 973 972 889 890 974 973 890 892 
975 974 892 928 927 975 882 883 968 
966 872 873 958 976 956 872 976 977 
712 713 835 978 833 712 978 979 725 
726 980 846 726 727 981 980 727 728 
982 981 728 913 983 982 913 914 984 
983 914 915 985 984 915 916 986 985 
916 901 902 986 794 795 987 930 795 
796 988 987 796 797 989 988 797 798 
990 989 798 799 991 990 799 800 992 
991 800 801 993 992 801 802 994 993 
802 803 995 994 803 840 966 995 966 
840 996 965 840 839 997 996 839 805 
998 997 805 804 999 998 804 806 1000 
999 806 807 1001 1000 807 808 1002 1001 
808 809 1003 1002 809 810 1004 1003 810 
811 1005 1004 811 812 1006 1005 812 813 
1007 1006 813 814 1008 1007 814 815 1009 
1008 815 816 1010 1009 816 817 1011 1010 
817 818 1012 1011 818 819 1013 1012 819 
821 1014 1013 821 820 1015 1016 820 822 
1017 1015 822 823 1018 1017 823 824 1019 
1018 824 825 1020 1019 825 826 944 1020 
826 827 945 944 827 828 946 945 902 
903 904 986 924 925 1021 923 925 926 
1022 1021 926 928 1023 1022 928 892 891 
1023 891 893 1024 1023 893 894 1025 1024 
894 895 1026 1025 895 896 1027 1026 896 
897 1028 1027 897 898 1029 1028 898 899 
1030 1029 899 900 1031 1030 900 901 917 
1031 828 829 1032 946 829 830 1033 1032 
830 831 1034 1033 831 832 1035 1034 832 
833 1036 1035 833 979 1037 1036 979 1038 
1039 1037 979 978 1040 1038 978 835 1041 
1040 835 834 1042 1041 834 836 1043 1042 
836 837 1044 1043 837 838 841 1044 904 
905 985 986 917 918 1030 1031 841 843 
1045 1044 843 1046 1047 1045 843 842 1048 
1046 842 844 1049 1048 845 846 980 911 
980 981 909 911 981 982 908 909 982 
983 907 908 984 985 905 906 906 907 
983 984 918 919 1029 1030 919 920 1050 
1029 920 921 1051 1050 921 922 1052 1051 
922 923 1021 1052 927 929 1053 975 929 
930 987 1053 965 996 1054 964 998 999 
1055 1054 999 1000 1056 1055 1000 1001 1057 
1056 1001 1002 1058 1057 1002 1003 1059 1058 
1003 1004 1060 1059 1004 1005 1061 1060 1005 
1006 1062 1061 1006 1007 1063 1062 1007 1008 
1064 1063 1008 1009 1065 1064 1012 1013 1066 
1067 1015 1017 1068 1069 1017 1018 1070 1068 
1018 1019 1020 1070 1020 944 947 1070 987 
988 1071 1053 988 989 1072 1071 989 990 
1073 1072 990 991 1074 1073 991 992 1075 
1074 992 993 1076 1075 993 994 1077 1076 
994 995 1078 1077 995 966 968 1078 947 
948 1068 1070 968 967 1079 1078 967 969 
1080 1079 969 970 1081 1080 970 971 1082 
1081 971 972 1083 1082 972 973 1084 1083 
973 974 1085 1084 974 975 1053 1085 948 
949 1069 1068 1040 1041 1086 1038 1041 1042 
1087 1086 1042 1043 1088 1087 1043 1044 1045 
1088 949 950 1089 1069 950 951 1090 1089 
951 952 1091 1090 953 954 1092 1093 954 
955 1094 1092 955 956 1095 1094 956 977 
1096 1095 977 1063 1064 1096 977 976 1062 
1063 976 958 1061 1062 958 957 1060 1061 
957 959 1059 1060 959 960 1058 1059 960 
961 1057 1058 1032 1033 943 861 1033 1034 
942 943 1034 1035 941 942 1035 1036 1037 
941 1037 1039 940 941 789 912 910 790 
932 931 1048 1049 931 933 1046 1048 940 
1039 1097 939 1039 1038 1086 1097 961 962 
1056 1057 933 934 1047 1046 1045 1047 1098 
1099 1047 934 935 1098 935 936 1099 1098 
962 963 1055 1056 936 937 1100 1099 1023 
1024 1101 1022 1024 1025 1026 1101 1026 1027 
1052 1101 1027 1028 1051 1052 1028 1029 1050 
1051 937 938 1102 1100 939 1097 1102 938 
1086 1087 1102 1097 1021 1022 1101 1052 1053 
1071 1084 1085 1071 1072 1083 1084 1089 1090 
1091 1016 1093 1092 1103 1104 1092 1094 1105 
1103 1094 1095 1096 1105 1064 1065 1105 1096 
1072 1073 1082 1083 1073 1074 1081 1082 1074 
1075 1080 1081 1079 1080 1075 1076 1076 1077 
1078 1079 342 1106 572 430 1106 1107 574 
572 1107 457 459 574 1106 342 200 202 
1107 1106 202 203 457 1107 203 303 467 
468 1108 532 468 469 610 1108 1108 610 
545 532 743 744 860 742 861 863 946 
1032 792 793 1109 912 793 847 932 1109 
1109 932 1049 1110 912 1109 1110 910 910 
1110 845 911 1110 1049 844 845 1016 1015 
1069 1089 1016 1091 1014 821 1067 1111 1011 
1012 1111 1112 1010 1011 1112 1065 1009 1010 
1065 1112 1103 1105 1102 1087 1088 1100 1100 
1088 1045 1099 1054 1055 963 964 1054 996 
997 998 1104 1066 1113 1093 1066 1013 1014 
1113 1113 1014 1091 952 1093 1113 952 953 
1104 1103 1112 1111 1111 1067 1066 1104 
CELL_DATA 1064
FIELD FieldData 6
Stress_X 1 1064 double
0.018098028377 0.010293645784 0.0051814089529 0.0027217071038 -0.0013208137825 0.0036434829235 9.4600191005e-06 -0.00028194795595 0.001130824443 
0.0027541965246 0.0041281580925 0.0043378728442 0.0056594884954 0.0064650671557 0.0073692617007 0.0079038795084 0.007910083048 0.0074152317829 
0.0063889934681 0.0053206924349 0.0052760355175 0.0061122509651 0.0069996486418 0.007441659458 0.0078114755452 0.0057496195659 0.0025706815068 
0.0010223822901 0.00024166247749 -2.6480296583e-05 -0.00075731240213 -0.0017361615319 -0.0017960999394 -0.0015899911523 -0.0010842445772 0.00010546392878 
0.0016561156372 0.004261831753 0.008201812394 0.01252337452 0.015260657296 0.016393076628 0.0078282440081 0.0046897595748 0.0022563089151 
0.00067542190664 -0.00067994632991 -0.0011631707894 -0.00079259369522 -0.00030603469349 0.00021056528203 0.0012277429923 0.0033217908349 0.0070936605334 
0.0090564796701 0.0091506941244 0.0081499870867 0.0071723358706 0.0073459269479 0.0083546061069 0.0092201139778 0.0099311908707 0.0088058952242 
0.0067843445577 0.0045480541885 0.0023870212026 0.00052425864851 -0.00053099764045 0.0014356267639 0.0046279015951 0.0088988859206 0.013439040631 
0.017345076427 0.021487489343 0.024911016226 0.0270991344 0.021145798266 0.013751048595 0.0069383913651 0.001636157278 -0.0058972989209 
-0.0043350714259 -0.0043836468831 -0.0040460037999 -0.0031354587991 -0.0023521976545 0.0013260563137 0.0039029542822 0.0044718561694 0.0046339994296 
0.0047218813561 0.0045560211875 0.0054384847172 0.0072385887615 0.0096820099279 0.012946348637 0.014916453511 0.017043324187 0.016370899975 
0.012329491787 0.0080678835511 0.0060104862787 0.0045630754903 0.0031263318378 0.0018670889549 0.0047453227453 0.0058936798014 0.0067881988361 
0.0088135618716 0.011226793751 0.01310276147 0.013125158846 0.013898488134 0.014711066149 0.015400111675 0.015376055613 0.013844009489 
0.011579710059 0.0095836827531 0.0072984369472 0.0056746359915 0.0047205640003 0.0035514531191 0.0035336965229 0.0024393966887 0.0026444895193 
0.0040588942356 0.0048810848966 0.0057277372107 0.0071664554998 0.0083560580388 0.0090763559565 0.010785117745 0.012647355907 0.013915292919 
0.01379135903 0.013378703035 0.014000031166 0.01596657373 0.018299436197 0.018277173862 0.012881524861 0.016440266743 0.0154653145 
0.014868175611 0.014794542454 0.01404267922 0.012822274119 0.012186818756 0.011741535738 0.011859903112 0.012095883489 0.0089118843898 
0.0069873575121 0.0059222476557 0.0047487569973 0.0031514535658 0.0024735466577 0.0020852147136 0.0012430415954 0.0010588120203 0.0018817558885 
0.0050743133761 0.0086685270071 0.0095018269494 0.011745855212 0.013949001208 0.018266865984 0.021697549149 0.022092321888 0.021995769814 
0.021364405751 0.020790992305 0.021433735266 0.02052266337 0.015018780716 0.011627652682 0.010053182021 0.010125085711 0.0096649229527 
0.011467306875 0.01135900896 0.0096348756924 0.0083625586703 0.0057851769961 0.0023184544407 0.0027869055048 0.0029207533225 0.0027728315908 
0.0032466768753 0.0048894826323 0.0061400709674 0.0075886640698 0.010476415977 0.013354452327 0.016277942806 0.018239894882 0.019107352942 
0.018233181909 0.010979537852 0.0095588704571 0.0025615293998 0.0026359467302 0.0023867385462 0.0040588746779 0.0064044236206 0.0095809968188 
0.013534317724 0.015764536336 0.015729198232 0.015722461045 0.016819365323 0.017456319183 0.017861269414 0.01739204675 0.0153907286 
0.011942855082 0.0086412867531 0.0057229073718 0.0035557427909 0.003032846842 0.0027177042793 0.002116844058 0.0026620184071 0.0036786810961 
0.0049658790231 0.0070166918449 0.0091362036765 0.011226503178 0.013574266806 0.015812510625 0.017091412097 0.017029682174 0.015936462209 
0.014269574545 0.014541284181 0.016330588609 0.019472081214 0.023608405143 0.018709564582 0.0045870761387 0.0032706281636 0.011524843983 
0.010546247475 0.013700990006 0.016899077222 0.019239488989 0.02079186216 0.02049670741 0.019204096869 0.017804471776 0.016723083332 
0.014435365796 0.012341191061 0.011318374425 0.010790068656 0.011718584225 0.011856666766 0.010269769467 0.0078854095191 0.0057662222534 
0.0042703105137 0.0029417108744 0.0026595427189 0.0024881928694 0.0028413855471 0.0035925423726 0.0047475993633 0.006570616737 0.0089708818123 
0.011695064604 0.0144478539 0.017620000988 0.019516175613 0.019827900454 0.020449522883 0.021210825071 0.02172149159 0.022142400965 
0.021525785327 0.019235098734 0.016002854332 0.014497996308 0.013766297139 0.012881255709 0.012317743152 0.011072180234 0.0087879346684 
0.0068392162211 0.0047069941647 0.0029863808304 0.002614084864 0.002931448631 0.0028546312824 0.0029595417436 0.0038715549745 0.0055389120243 
0.0069534396753 0.0082943309098 0.010879406705 0.012578938156 0.011889201589 0.012258990668 0.017210070044 0.014159171842 0.0040923985653 
0.0034096969757 0.0024612257257 0.0017606420442 0.0023864607792 0.003763561137 0.0056709740311 0.0081028603017 0.010963787325 0.013664690778 
0.016145566478 0.018413996324 0.01954712905 0.019507691264 0.017740642652 0.012210688554 0.012565374374 0.014174195006 0.018256636336 
0.019201919436 0.0027973081451 0.0024598238524 0.0039341622032 0.0064627411775 0.0095220282674 0.012915199623 0.016780285165 0.019618066028 
0.019005944952 0.018422877416 0.018195109442 0.018673961982 0.019338941202 0.019323403016 0.017615562305 0.014966407791 0.011790417135 
0.0085087567568 0.0049856081605 0.0027590433601 0.0021742382087 0.0041509163566 0.0047986600548 0.0037331993226 0.0034274137579 0.0040859775618 
0.013494194485 0.016289753839 0.013449101709 0.014858983457 0.015443745069 0.015467231162 0.014910817146 0.013241919689 0.012286500074 
0.011324892752 0.011876408942 0.012640167028 0.013688201085 0.013166251592 0.012356316671 0.011280833744 0.010315095074 0.010778512806 
0.01222040318 0.0095630139112 0.0067642391659 0.0060318442993 0.0044381855987 0.002485968871 0.0022031262051 0.0026804141235 0.0030263448134 
0.0034009178635 0.0044301296584 0.0063715237193 0.0085532162338 0.010815786198 0.013137655333 0.01626288332 0.017876138911 0.019092388451 
0.020698154345 0.022769382223 0.025679307058 0.027251660824 0.026590200141 0.023132329807 0.019031517208 0.016085585579 0.014813576825 
0.013432524167 0.012330734171 0.01102845557 0.0092981075868 0.0072037978098 0.00520143006 0.0038128423039 0.0026691418607 0.0028788440395 
0.0035177238751 0.0042285579257 0.0059188180603 0.0071245147847 0.0094237066805 0.011012102477 0.01101018209 0.011230932549 0.010699102655 
0.01021301467 0.010509130545 0.011571262032 0.012294021435 0.012577580288 0.012178461999 0.0089630763978 0.0094443941489 0.010137697682 
0.0087998593226 0.010471396148 0.010279589333 0.0096819018945 0.010289258324 0.011941823177 0.01250724867 0.012262553908 0.0025878387969 
0.0028409315273 0.0026328824461 0.0017979536206 0.0016243791906 0.0024354716297 0.0039618830197 0.0062337568961 0.0091743236408 0.0121389376 
0.014625005424 0.017060365528 0.019255815074 0.020503785461 0.021513298154 0.021391911432 0.019712466747 0.017919320613 0.015397051349 
0.013108693995 0.01149594225 0.010164755397 0.0098320152611 0.012175382115 0.013300713152 0.012401913293 0.0095880227163 0.006660557352 
0.0048760520294 0.0037625420373 0.0027184064966 0.0018264626851 0.0019810302183 0.0033789644949 0.0060363835655 0.010077430867 0.015259579755 
0.020504895598 0.022730676457 0.021793881431 0.019964719191 0.020186347887 0.021034292877 0.020522754639 0.01954944618 0.017409317195 
0.014489979483 0.011433343403 0.0085733244196 0.0051844413392 0.0046676150523 0.0055299843661 0.0058484617621 0.0044343322515 0.0038740839809 
0.0030047900509 0.019965000451 0.019518410787 0.010853102431 0.010079422034 0.010648079216 0.011570044793 0.012061469257 0.012438362464 
0.012171908282 0.011331424117 0.010333292186 0.0088066570461 0.0081752538681 0.0080622844398 0.0067517552525 0.0054011801258 0.0057549788617 
0.0049977544695 0.0024869283661 0.0022509156261 0.003033046145 0.0033650626428 0.0034008866642 0.0043472372927 0.005593391601 0.0076181264594 
0.0094112893566 0.01147271134 0.01373261027 0.015075690113 0.020411482081 0.023411817849 0.026881545782 0.028983168304 0.028298564255 
0.025360507891 0.021981997415 0.019764540717 0.01732743904 0.015129104257 0.012661756948 0.010548683815 0.0085493121296 0.0069250874221 
0.0051788729616 0.0041777659208 0.0036035310477 0.003168302821 0.0026988624595 0.0025112931617 0.0023662627209 0.0028892308474 0.0039881747216 
0.0050738332793 0.0068012755364 0.0083070239052 0.017713004723 0.014604498632 0.011091007851 0.010160056874 0.008681521751 0.0091937035322 
0.0097135398537 0.010575824417 0.01130496338 0.011110108346 0.010701076128 0.0096160089597 0.0083125270903 0.0066173817031 0.0058028963394 
0.0054831313901 0.0042403517291 0.004165483173 0.0055172885768 0.0054386579432 0.0029662894085 0.0019811731763 0.0025506766979 0.0033824392594 
0.0033598111477 0.0035512449685 0.004735019058 0.0062157711945 0.0077105737291 0.0090396599844 0.010464595631 0.011174990796 0.01234152168 
0.012814023532 0.014821792953 0.01689774543 0.019890027121 0.022928511724 0.026269346476 0.028290405869 0.02839573659 0.02741977945 
0.026005886495 0.024005368352 0.020909944549 0.016998674721 0.01333355438 0.010368288495 0.0082409698516 0.0064877984114 0.0051259803586 
0.0041691297665 0.0040465784259 0.003573769005 0.0029169186018 0.0022579538636 0.0011754229199 0.0031088429969 0.0031578864437 0.0041326070204 
0.0055445884354 0.0071456120349 0.008478552103 0.0018853342626 0.0015718000941 0.001943170093 0.0029712782707 0.00470310729 0.0071691069752 
0.010177658871 0.013104716316 0.015954064205 0.018468171358 0.020098758861 0.021631814539 0.022930270061 0.022840054706 0.021243928 
0.020167829469 0.019049838185 0.016522906721 0.014107609168 0.012190314941 0.010666143149 0.0099215433002 0.0090680718422 0.008872654289 
0.0095260832459 0.0090339947492 0.0077796699479 0.0059405085631 0.0041262251325 0.003145785071 0.0021516096313 0.0017627152847 0.0022829438094 
0.0036750636064 0.0062618898228 0.01021818351 0.016236547381 0.022142106667 0.023503465578 0.021320693195 0.019482268021 0.017079532146 
0.0152410632 0.0188276954 0.02232202515 0.023154538125 0.023005519062 0.023187926039 0.021268935874 0.018994450569 0.016093958169 
0.013556267135 0.010157559067 0.0073594558053 0.0065179020166 0.0059160012752 0.005234176293 0.0050598722883 0.0038739750162 0.0014629977522 
0.0031679910608 0.0024913575035 0.0097464732826 0.010170143098 0.0093408878893 0.0080772973597 0.0067365509458 0.0053697242402 0.0046240980737 
0.0049579082988 0.0044116219506 0.0046974234283 0.0051644360647 0.0028132840525 0.002297639614 0.0027768558357 0.0031878519803 0.0027447356842 
0.0029590029735 0.0036566497292 0.0045829373412 0.0054757674225 0.0067835757509 0.0080824904144 0.0099281389266 0.010533725843 0.012005843222 
0.013043908402 0.014008129947 0.015189180151 0.017007859424 0.019249789417 0.021821606904 0.0244790297 0.026747332886 0.027752047405 
0.028151802719 0.027197569609 0.024940358475 0.022097405046 0.013866767287 0.010580898263 0.0080680754036 0.0062463046052 0.0049851452932 
0.0055311932229 0.0061089508235 0.0046500861645 0.0044018845074 0.0032381932251 0.0025511740241 0.0023744762875 0.0024192216806 0.001752405311 
0.0018334257184 0.0025399951264 0.0036907659378 0.0054748803377 0.0078471321613 0.010604925454 0.013612409122 0.017383016646 0.020164826885 
0.021617764607 0.0227321852 0.023986950517 0.023984085768 0.022147154436 0.021566480398 0.017810599878 0.015177824534 0.013361644 
0.011838961393 0.01027945336 0.0091077163815 0.0075577334501 0.0065916916355 0.0059754000977 0.0060389679857 0.0057009393349 0.0048322663642 
0.003520157421 0.0023626217153 0.0017993638758 0.0020312578417 0.0026996156666 0.004924250301 0.0069554536603 0.0099529922009 0.015114611946 
0.020298836753 0.02066735737 0.018423860893 0.016179796308 0.014314122498 0.012422485277 0.01129400637 0.014039692469 0.017221098766 
0.020690444857 0.024213813245 0.024763559923 0.022773342207 0.020813435316 0.018025992438 0.014336945489 0.010505542159 0.0088602676988 
0.0073616201989 0.0061632678844 0.0057207508944 0.0049920212477 0.0051783095114 0.0044013769366 0.0039833895862 0.0023344957735 0.0071086701937 
0.007853332907 0.0077614146285 0.0060594938695 0.0078404508531 0.0068188956939 0.0087766181678 0.0094062881544 0.0093097593635 0.008957455866 
0.010315562598 0.011577158235 0.011727454141 0.010093399324 0.0087145073339 0.0073204343207 0.0076803686097 0.0080576082692 0.0092908116058 
0.0022135935724 0.0032292085234 0.0044180243276 0.0060329176486 0.0081638302654 0.010558897629 0.013515109196 0.017893543467 0.021560965106 
0.023563725874 0.025289889425 0.026338214055 0.025173611939 0.022963933647 0.020051112399 0.017009383067 0.01428661868 0.012556221336 
0.011636112817 0.010699721053 0.0088038863614 0.0069412454031 0.0055272029713 0.0045604063198 0.0039957221597 0.0036816420034 0.0028325049207 
0.0018767894944 0.0018108667573 0.0029856027104 0.0046745091677 0.005758842919 0.0072282832116 0.012818798423 0.015886837617 0.016814928502 
0.014577521011 0.012944628485 0.011817838997 0.010379436426 0.0088758524507 0.0081634949893 0.0092003885657 0.0036870320328 0.003707011696 
0.018643347546 0.021066874266 0.0031138584018 0.0038204968441 0.0052542495541 0.0063627953641 0.0070005594753 0.0061914161779 0.0068514770828 
0.0090231467038 0.008927565068 0.0084998067468 0.0070072878152 0.0060112937354 0.0054572597146 0.0049787182361 0.0048634032719 0.005402951967 
0.0062048682012 0.0069545996375 0.0070773926564 0.0064843986183 0.0064232377335 0.0052480758168 0.0033402768895 0.002532518236 0.0026837063488 
0.0026082315017 0.0025273088831 0.0027543520555 0.0032324146014 0.0040219328366 0.0049770902842 0.006177901756 0.0078361853957 0.0091322278604 
0.010491923429 0.011442763731 0.011540339328 0.013192307204 0.01454110723 0.015990817919 0.017303390428 0.018695093691 0.020652765408 
0.023207483813 0.025174502283 0.0070216353051 0.0098763890564 0.00763703743 0.0096536288038 0.0095051219687 0.012678863481 0.015610706061 
0.017258785665 0.018594432622 0.019852532074 0.018495392054 0.015702240169 0.014038698748 0.010910615325 0.026082288474 0.026017703116 
0.025382256135 0.023872395977 0.023082097992 0.022502854466 0.021557278931 0.020880950615 0.018092339858 0.014520022087 0.010851325467 
0.0079747680575 0.0060054305941 0.0070431511849 0.0091696232557 0.0059086983092 0.0058228005655 0.0044397548772 0.0031464390922 0.0034938682802 
0.0042156944983 0.0047797570005 0.0055756079964 0.0065949675627 0.0059241619892 0.0095118843019 0.0094451745972 0.010066266172 0.010945230722 
0.0082841739058 0.0069164671004 0.0077160224319 0.0064375428483 0.0059483796358 0.0041323341429 0.002837423468 0.0017786584795 0.0018071207451 
0.0024663561489 0.0026751081459 0.0031641842797 0.004088266287 0.0050113867037 0.0060142907314 0.0095975594595 0.014384613372 0.016283519566 
0.017880991101 0.019080024213 0.0075533054769 0.0065489816479 0.0062387171201 0.0061325407587 0.006224444136 0.0063951970078 0.0067888488993 
0.007344075013 0.0084191365167 0.016371296719 0.010285991244 0.012146063149 0.012427075766 0.011150685139 0.010056438856 0.009450122714 
0.0086350776255 0.0077323266305 0.014099065214 0.017868217081 0.014457939193 0.011130823754 0.0081465113908 0.012315977365 0.010976203717 
0.010230955668 0.007003701292 0.0054427091964 0.0043713273481 0.0039013316855 0.0042241709307 0.003593395697 0.0031212605536 0.0030495729297 
0.002833165694 0.002192416694 0.0016940105706 0.025454767048 0.026465868577 0.026099067181 0.024126362056 0.024251896888 0.0030241103377 
0.0027164379135 0.0039842482656 0.021519133821 0.019634008408 0.0024253290612 0.0051623103209 0.0072323922068 0.0064573562704 0.0081382794306 
0.0041504218243 0.010010083206 0.01044339221 0.014026641846 0.013014705852 0.013140277006 0.012672880664 0.012879074551 0.017133481801 
0.015488002449 0.012064938433 0.0074063539505 0.007458306849 0.011195206083 0.0071351276711 0.0056632272899 0.0046966145746 0.0051683802158 
0.007665051613 0.0081129902974 0.0086834356189 0.0088810436428 0.0085160043091 0.014382814988 0.0095250867307 0.0065758028068 0.010447437875 
0.0064877523109 0.0038987742737 0.012142481282 0.011559658684 0.011448004283 0.022304734215 0.023695938289 0.0017388495617 0.0014528718311 
0.0018679712666 0.0023657355923 0.0035034562461 0.0025169325527 0.012410691008 0.011401568539 0.0097786849365 0.0089607089758 0.0071939243935 
0.0063573676161 0.011852267198 0.008905489929 0.0059099067003 0.0066945562139 0.0082360478118 0.0096704196185 0.0094814179465 0.0088406382129 
0.0077738007531 0.0088624032214 
Stress_Y 1 1064 double
0.02504392527 0.012000826187 0.00012986968795 0.0011385130929 -0.0045077474788 0.0016961424844 -0.0058033848181 -0.0061697745696 -0.0038483720273 
-0.0018837759271 -0.00070137175499 -0.0010495294118 0.00022228539456 0.0010022264905 0.0024021835998 0.0039389114827 0.0045445412397 0.0053276615217 
0.0018130701501 -5.0752641982e-05 0.00059709779453 0.0014159785351 0.0038625826128 0.0061879456043 0.0078762453049 0.0061386716552 0.0010402667103 
-0.0024220026098 -0.0040366803296 -0.0043878355063 -0.0050527825952 -0.0051242657937 -0.0046027088538 -0.0046491129324 -0.0047424221411 -0.0054181190208 
-0.0067757903598 -0.0067133218981 -0.0039899386466 0.0019883711357 0.010235196911 0.01679428108 0.0032618965488 0.0022734580562 0.0024797464721 
0.0036347901914 0.0018684393726 -0.00015491984959 -0.0009339954704 -0.0015912868548 -0.00099684367888 0.0010312052909 0.0053054587916 0.0091462358832 
0.010243905708 0.0084660975263 0.0077767842449 0.0082030901685 0.010192195885 0.013071233407 0.014804415405 0.014554512687 0.011952633038 
0.0094070266932 0.0054361633956 -0.001197691774 -0.0042737838812 -0.0060438895598 -0.0040526143275 0.002035520738 0.0079901833087 0.010524666868 
0.0098554054275 0.010623350739 0.012162227184 0.016138030216 0.015069587156 0.0045098694973 -0.0013188070152 -0.0012265618425 0.0018052754458 
0.0068919952027 0.0065929237753 0.0065542864613 0.006533682812 0.0074745002203 0.0077481758781 0.0082354936749 0.0086343614385 0.0086560733616 
0.0089947413653 0.0082677910104 0.0078690126538 0.0086224498227 0.010036249645 0.011137085967 0.010483384132 0.011718810536 0.010927463882 
0.0068458830938 0.014758666977 0.0062161660753 0.0015487169148 0.00071343017044 -0.0021071112715 -0.0032090828754 -0.0046966602094 -0.0027983046602 
0.00049793819198 0.0024993359111 0.0032455769833 0.0023639344145 0.0031084087677 0.0043656616472 0.0056072734296 0.0067435763776 0.0062461169437 
0.0038747247308 0.0021391685586 0.0015781510156 0.0022306989413 0.0042375442572 0.0055099781603 0.0064441575669 0.0048288889229 0.0006846995675 
-0.0021626106463 -0.0036545679905 -0.0041312077083 -0.0035071612801 -0.002880273154 -0.0029835973401 -0.0025877023581 -0.0025835477281 -0.0031745629385 
-0.0047873412259 -0.0052579380572 -0.0036486312747 0.0021762901451 0.010685694404 0.018210193142 0.019913809374 0.0022249163594 0.0031973840669 
0.0038675887045 0.0033610111568 0.0011076396331 -0.00091851141769 -0.00094209233066 0.00015440498828 0.0028738735709 0.0082033649087 0.0098716216162 
0.010160359554 0.0089566223323 0.0073457579128 0.0071716727689 0.0089960647747 0.010455083102 0.010799897835 0.011521275155 0.011683597229 
0.0119857518 0.0098642352968 0.0033758084755 -0.0031811962835 -4.6084682253e-05 0.0065080192871 0.011473997496 0.011051236652 0.0091317687184 
0.0078800553456 0.0075701614842 0.010856133886 0.010962077416 0.0054535022937 0.00097458978416 -0.0001958575449 0.0019898302853 0.0064409309998 
0.011382962577 0.011974401772 0.010753166862 0.011571969837 0.012217592448 0.010544167832 0.011542927474 0.010307987221 0.0090461671352 
0.0079195443541 0.0077324127778 0.0082647698 0.0089007234201 0.009999322705 0.0098331449553 0.010791706853 0.0098527688533 0.0072116130032 
0.0042910045013 -0.0023182649165 -0.00032381591154 0.0021851994097 0.0013769149082 -0.00050436524907 -0.00065972638549 -9.6037780168e-05 0.0020237087738 
0.0043095625006 0.005071440246 0.0037946931552 0.0032578399405 0.0043861032464 0.0052527943626 0.0059910551645 0.0057085845619 0.0050483127125 
0.0043298094533 0.0038706425112 0.0040514916182 0.0039887772873 0.00345880026 0.003092678031 0.00077780027641 -0.0010877497261 -0.0018803684507 
-0.0018727232236 -0.00074008910451 2.7688922273e-05 0.00025043296046 0.00048140136641 0.00069947895827 0.0005928442115 -1.477322985e-05 2.553952072e-05 
2.311084063e-05 0.003255620366 0.0069350511767 0.0092691481113 0.012165867724 0.010175386444 0.0045292014256 0.003689893987 0.0012332121842 
-0.0013690988999 0.0026943010744 0.0079857613891 0.01111605484 0.011087464169 0.0086935870349 0.00700684404 0.006624693051 0.0075712879188 
0.0053566587158 0.0032397741452 0.0023993230425 0.0027820586693 0.0073007759638 0.012702149339 0.014070454985 0.012636838481 0.011359104887 
0.011894599535 0.011982259341 0.011665255763 0.0094360904768 0.0084510995075 0.007782000117 0.0073215011507 0.0075247236528 0.0074920603074 
0.007538728416 0.0074731493369 0.0080280527472 0.007986725308 0.0065172626637 0.0050263861194 0.0039543509483 0.0045769005083 0.0056352773681 
0.0054916017689 0.0035987705924 0.001060706214 0.0011644777842 0.0031509096734 0.0056282053702 0.0090402550995 0.010324965231 0.0096772443503 
0.0086643267423 0.0073875673115 0.007181994617 0.0078377556056 0.0083858501166 0.0085819279775 0.0091605745256 0.010383311659 0.011490108445 
0.011395013891 0.0076210834086 0.004778333474 0.0037878563162 0.0040209051222 0.0031712769996 0.0079706991091 0.0058473814279 0.0049109258689 
0.0038961900864 0.0026067229919 0.0008716348093 -8.1513826444e-05 -0.00037038515438 -1.8002015167e-07 0.00099359103478 0.0021257090848 0.0024938250426 
0.0027369542513 0.0032068591099 0.0032259337604 0.0035723797046 0.0033200436737 0.0029762091581 0.0036156997085 0.0027109610382 0.0041309799999 
0.0060000279918 0.0038364985958 0.0021525584161 0.0012979047606 0.0012081272434 0.0017669477966 0.0032649312634 0.0053322236054 0.0060351486318 
0.004357795231 0.0035278941505 0.0041069341823 0.005388523452 0.0058772945777 0.0057995002717 0.0056459410116 0.0058765183203 0.0057861418463 
0.0058307810687 0.0043406640179 0.0028177874628 0.0030624382198 0.0046232650056 0.0047807581723 0.0045963246375 0.0043564066291 0.0046604499221 
0.0026481226087 0.0036263780203 0.008192951791 0.011558958329 0.010567774065 0.0082541583106 0.0066227349453 0.006098899059 0.0061110304669 
0.0056528407149 0.005888839718 0.0062651936896 0.0066696372814 0.0055496557616 0.004915876314 0.0044311699457 0.0041534868069 0.0075381104834 
0.01347812172 0.014493917115 0.013215213083 0.012436576188 0.012456806377 0.012617109343 0.011510775425 0.0091540422291 0.0080268690363 
0.0074025713839 0.0070179095492 0.0068045370281 0.00635034265 0.0058450899087 0.0054993852973 0.006095981691 0.0059165195562 0.0056900382042 
0.0054119126871 0.0054715177976 0.0067905476317 0.0080073475838 0.0082864286378 0.0066679655574 0.0048194332048 0.004783266224 0.0066458499059 
0.0081623485312 0.0093942321837 0.009386648424 0.0086524207145 0.0077362498268 0.0072931614704 0.0070825563744 0.0062974607572 0.0065975962207 
0.007358152885 0.0086885513738 0.010800551623 0.011984243989 0.010838012211 0.0085538588464 0.0062675373629 0.0051570297219 0.0043254732154 
0.0047615808435 0.0083817923442 0.010795225389 0.01008431334 0.0080654881895 0.0061683109961 0.0086264470592 0.0064677358605 0.0051840166561 
0.0035722320899 0.0039586457424 0.0063111879863 0.0086961351335 0.010091942735 0.0096413353458 0.0072596883401 0.0056711421348 0.0065390956588 
0.0066703762859 0.0036454962101 0.0026466760319 0.0017067518784 0.0010657670209 0.00089852011297 0.001272509573 0.0022030405235 0.0032077573705 
0.0038529564627 0.0045767403208 0.0050495020114 0.0051313610747 0.0059652044438 0.0064666732214 0.0065132151358 0.0069117909297 0.0054489877075 
0.0042195562273 0.003447645111 0.0019453992136 -0.00018589664251 0.0010666336166 0.0024570212699 0.0043353666551 0.0054879430681 0.0054183294997 
0.0055850660428 0.0054473509081 0.0053284405731 0.0043953605928 0.0029616372194 0.001997227082 0.0019419629825 0.0027242659125 0.0046455282718 
0.0065953843296 0.0064311446622 0.0048144040629 0.0032703427132 0.0057520354167 0.0063983071595 0.0059459898621 0.0061073615216 0.0064055030234 
0.0064461627044 0.0061959372833 0.005448079668 0.0033414410427 0.0035945044365 0.004746729508 0.0046811136417 0.004516640678 0.0040224725381 
0.0040088440292 0.0042983167805 0.0030418459792 0.0054495390505 0.0053030545823 0.0056282957084 0.0058371182531 0.0062137693167 0.0065440498292 
0.0062908809632 0.0060507943854 0.0060755629092 0.005991821643 0.0080010890961 0.011789096519 0.014288856648 0.01370541472 0.013370914385 
0.013887494802 0.013036843389 0.011434343643 0.0092570986599 0.008003748022 0.0071199429221 0.0067733763717 0.0059088300914 0.0054444181733 
0.0045387321152 0.0041655837558 0.0041948752478 0.0045204549097 0.0060820253566 0.0069651817903 0.0084582883865 0.010002334602 0.010509932414 
0.0096681900322 0.0086939772591 0.0092517407611 0.0098923817277 0.010062626563 0.0092431930825 0.008527350612 0.0076594105922 0.007427951321 
0.0071814013645 0.0071442001499 0.0069119893014 0.0064258985221 0.0057997400872 0.0050407219678 0.004666111432 0.0051967953332 0.0063222567551 
0.0083607202396 0.010495067574 0.011979755946 0.0053138635121 0.0044290157966 0.005083499942 0.0051978798583 0.0052097947337 0.0055663152598 
0.0056570991874 0.005985640455 0.0062345648184 0.006248716265 0.0065800286829 0.0069375489838 0.0072552156635 0.0072340504266 0.0085458755493 
0.010938595049 0.012649139389 0.013151521794 0.013189109974 0.014098719694 0.013528172858 0.011277734302 0.0092541314662 0.0082077793777 
0.0071368650533 0.0061775990762 0.0055001797155 0.0046860510483 0.0038272985257 0.003240470076 0.0030711158179 0.0030619369354 0.0037100070622 
0.003666397417 0.004910913296 0.0059285378084 0.0070231170394 0.0081924414262 0.0098408367485 0.011438209563 0.012314341962 0.012526311912 
0.012783339247 0.013052311726 0.012541924603 0.010688066483 0.0087627219036 0.0078637460247 0.0074030840769 0.0072627565823 0.0072677303106 
0.0070806713775 0.0070334994234 0.0065186372958 0.0056166979484 0.0044432976283 0.0028051147237 0.004378051497 0.0040144654922 0.0054069971666 
0.0083580780774 0.010807617567 0.010926635936 0.0033773707692 0.0029926493298 0.0025920690969 0.0021482710727 0.0020119680557 0.0023870496079 
0.0030722469091 0.0038968082517 0.0052542872727 0.006495446898 0.0069109112956 0.0076289842837 0.0084655443206 0.0087547665462 0.0084751704708 
0.0088560292497 0.0096240006387 0.0076646851376 0.0059075192548 0.0047071268782 0.0029931624886 0.0016015098663 0.00032636104152 0.00050071865553 
0.001844819868 0.0032944045961 0.0050383801572 0.0062798289582 0.0062467507087 0.0064583914354 0.0060296440497 0.0054907356389 0.0046340031549 
0.003584865015 0.0033323518001 0.0037980193738 0.0057100779377 0.0073617366143 0.0064327805303 0.0046065603383 0.0038165273145 0.0029785439838 
0.0030577960424 0.0031775215175 0.005076108966 0.0068046683446 0.0069655086845 0.0069472547621 0.0060981311835 0.0061837150715 0.0061068488285 
0.0060469312593 0.0055460534059 0.0043205632828 0.0051511507481 0.0062668919563 0.0058938264847 0.0056726518087 0.0041717062704 0.0024181937333 
0.0036685348023 0.0037098734174 0.0059712580405 0.0059395269491 0.0060913846828 0.0067990920506 0.0072218286805 0.00736054359 0.0078621357679 
0.0099221486598 0.01148001384 0.011940247379 0.013748133555 0.013118580915 0.011245955713 0.0097224730998 0.0082605518401 0.0068512484431 
0.0061971591786 0.0052162213251 0.0042432919145 0.0032851144206 0.0028953510337 0.0024502156302 0.0023357993923 0.0024775408674 0.0031255469657 
0.0030414368957 0.0040157670155 0.0053566503339 0.0065447078086 0.0076768104918 0.00919654686 0.010743253864 0.012391386554 0.013732252643 
0.015180140734 0.015783771873 0.015532276593 0.013917538337 0.0077761262655 0.0074942517094 0.007180633489 0.0071989987046 0.0072718383744 
0.012426446192 0.011396433227 0.0072154770605 0.0069008548744 0.0058063534088 0.0041362242773 0.0026767961681 0.0033479440026 0.0032288671937 
0.0031327938195 0.0031733987853 0.0030777191278 0.0031659845263 0.0035373507999 0.0039777928032 0.0045633981936 0.0063178623095 0.0081160729751 
0.0093371924013 0.01075307373 0.011686197482 0.01162459515 0.011969379149 0.011848272756 0.0099914362654 0.008022300899 0.0060849743895 
0.0044553349726 0.0025728389155 0.0010288839694 -3.1056246371e-05 0.00014246326464 0.00094131752849 0.0023622738663 0.0047444771044 0.0066971438937 
0.0074135619216 0.0072977915406 0.0071105551906 0.0070544444025 0.0064328680746 0.0062217875384 0.0057337442413 0.0053941309452 0.0059562022798 
0.007018932607 0.0057089501061 0.004277204629 0.0036618681625 0.0035463855602 0.0033428189345 0.0037925874349 0.0030850779731 0.0033370945603 
0.0049041425809 0.0076567372307 0.0085447384045 0.0076110833324 0.00653971266 0.0054512140341 0.0051852320321 0.0049754204229 0.00512785092 
0.0051482128911 0.0062964702956 0.0076878606342 0.0074416212738 0.0071499194019 0.0051869601011 0.0036113604438 0.003649208229 0.010470954701 
0.0082553727552 0.0062998705544 0.0043271556497 0.0034485028591 0.0025755048264 0.0040490855463 0.0066385231912 0.0087478132918 0.010426367633 
0.0084938872606 0.0061504836194 0.0054432861507 0.0047613042407 0.0051250322722 0.0049531632103 0.0057627409697 0.0056620147079 0.0057657975703 
0.0033661227208 0.0039432081394 0.0042320550419 0.0043735359795 0.0047261347063 0.0049666729756 0.0052654868923 0.0068504191004 0.0090654073283 
0.011933327653 0.014576447196 0.01526353322 0.014260223135 0.011351136491 0.010096333921 0.009072881192 0.0076911747456 0.0059369839728 
0.0042067384347 0.0027515140828 0.0010471519781 0.00013281965221 0.00035132252378 0.0007049049018 0.004970239941 0.0070915482938 0.0081620281562 
0.0083221755922 0.0084733432159 0.0089127756655 0.0089545929804 0.0089299809188 0.0083849281073 0.006663844455 0.0062453583814 0.0053761140443 
0.0040543889627 0.0037296919618 0.0037602169905 0.0040803747252 0.0043807672337 0.0050478591584 0.0069450065494 0.0029565289151 0.0015318180667 
0.0097743952647 0.011547359638 0.0033972114325 0.0043944367208 0.0079362764955 0.0095994723961 0.01010026224 0.0077964910306 0.006008092314 
0.0048799165525 0.005545431748 0.0057809515856 0.0062538976781 0.006826790981 0.0071659670211 0.0077238217928 0.0087856622413 0.010064297356 
0.010289862752 0.010219496675 0.0098973391578 0.010865085758 0.012270591222 0.01300102938 0.012652215548 0.011353002861 0.010100698099 
0.0083751603961 0.0071384818293 0.006232177373 0.0048453975469 0.0036803758703 0.0029129125178 0.0023512821645 0.0022891701665 0.0017986028688 
0.0016483742511 0.0025079594925 0.0026769565884 0.0036687196698 0.0047342013568 0.0058622532524 0.0068461089395 0.0079026389867 0.009284619242 
0.0108694667 0.012300095521 0.0048810672015 0.005774827674 0.0041059176438 0.0041277240962 0.0037143279333 0.0034254551865 0.0039607323706 
0.0044966777787 0.0065259854309 0.0097065577284 0.008927680552 0.0063489456661 0.0045064250007 0.0037294658832 0.013916174881 0.015639478341 
0.016859343275 0.016491292045 0.015289135277 0.013280971907 0.010690920055 0.0092488173395 0.008691707626 0.0077040609904 0.0073010758497 
0.0073911552317 0.0073791029863 0.0066963923164 0.0030006617308 0.0074687404558 0.0068757468835 0.0062474813312 0.0048278379254 0.0024802603293 
0.0040587806143 0.0065468279645 0.0083345603198 0.0089931096882 0.0091623244807 0.0050381282344 0.0071284780279 0.0094335880131 0.010268661194 
0.0063820546493 0.0056910603307 0.0057386988774 0.010462991893 0.012470433488 0.012041540816 0.011239797808 0.009972625412 0.0087019493803 
0.0076993452385 0.006027828902 0.0043927091174 0.0032008863054 0.0024179622997 0.001905627083 0.0013013046701 0.005611859262 0.0065809334628 
0.0074548758566 0.0086414627731 0.005694206804 0.0056986771524 0.0062243747525 0.0064794872887 0.0070487530902 0.0078004314564 0.0083804167807 
0.009154163301 0.0086317146197 0.0077425758354 0.0072521674447 0.0063058380038 0.0053489264101 0.0044855629094 0.0040748328902 0.0040922206827 
0.0041413404979 0.0051987925544 0.0067628878169 0.0083183851093 0.0077792583033 0.0074697900563 0.0075712604448 0.0054441802204 0.0038062680978 
0.0032783527859 0.00064380961703 0.00069294904824 0.00074212165782 0.0011180691654 0.0017455453053 0.0026043811813 0.0038486602716 0.0055461456068 
0.0075100408867 0.0086347768083 0.0093048559502 0.015290329233 0.016995050013 0.016623744741 0.015080067329 0.01271996554 0.003412084654 
0.0040028183721 0.005161406938 0.0090241096914 0.008480835706 0.010060465895 0.0056149740703 0.0065775811672 0.0055682817474 0.0057815066539 
0.010974476114 0.0059000472538 0.0031487452798 0.0043890778907 0.0058724130504 0.0092426976189 0.010106638074 0.0060909991153 0.0069553172216 
0.0073646367528 0.0057028289884 0.0047610346228 0.0048516131938 0.0035741054453 0.0013942612568 0.0010935211321 0.0010594321648 0.0014209316578 
0.0049875630066 0.0053281337023 0.0057918955572 0.0067334249616 0.0079348264262 0.0053546577692 0.0046756942756 0.0051459972747 0.0058136931621 
0.0042904713191 0.0033562621102 0.0059255235828 0.0057218880393 0.0054270965047 0.010509242304 0.012999154627 0.0033571165986 0.0030211803969 
0.0028905626386 0.0029792746063 0.0024109182414 0.0028864291962 0.0045111267827 0.0032551002223 0.00082791422028 0.0019988336135 0.0017625478795 
0.0014695127029 0.00705269631 0.0068969726562 0.011400038376 0.01151392702 0.0013879868202 0.0021072928794 0.0020821902435 0.0016111048171 
0.0018155778525 0.0012103811605 
Stress_Z 1 1064 double
0.017905367538 0.019486786798 0.016657456756 0.013055947609 0.0098318308592 0.005759678781 -0.0026492930483 -1.726202936e-05 0.001634274493 
0.0026153761428 0.0025798997376 0.0021262289956 0.0017445911653 0.0011491264449 0.00094204663765 0.0010471304413 0.0011569053167 0.0014833208406 
0.00095200503711 0.0023183375597 0.0025223386474 0.0051658353768 0.0086856363341 0.012405266985 0.016388267279 0.014714761637 0.0083545213565 
0.0039258808829 0.0011738276808 -0.00054923049174 -0.002073834883 -0.002338910941 -0.0020263595507 -0.001944744261 -0.0015987996012 -0.001690749079 
-0.001876611379 -0.0013863398926 -0.00027639861219 0.0026083097328 0.0070576765575 0.01042055618 -0.00025436122087 -0.0021182228811 -0.0029448950663 
-0.0028955070302 -0.0043280078098 -0.0060689621605 -0.0072216349654 -0.0080204773694 -0.0074810362421 -0.0058696921915 -0.0027557348367 0.0004924669629 
0.0036960768048 0.0057891644537 0.009019959718 0.012782445177 0.018431833014 0.024657541886 0.027664832771 0.02485912852 0.017370296642 
0.0098755210638 0.0044503859244 0.0018964352785 5.1713472203e-05 -0.0023375663441 -0.0019407605287 0.00095690833405 0.0037238809746 0.0046724658459 
0.004621643573 0.0052898190916 0.0058354539797 0.010816829279 0.011562369764 0.0045232013799 0.0049443612806 0.0071602677926 0.0079669188708 
0.003807331901 0.0027167638764 0.0029242904857 0.004200888332 0.0058425562456 0.0053647602908 0.0073044155724 0.010816629976 0.014543346129 
0.016828360036 0.016992662102 0.016330011189 0.015639951453 0.013964715414 0.01183922682 0.0088357003406 0.0070126843639 0.0051186564378 
0.002691083122 0.014187174849 0.015951970592 0.016562428325 0.018527742475 0.016947455704 0.018517825752 0.016876738518 0.014835553244 
0.011952403001 0.0087734851986 0.0067483372986 0.0047992067412 0.0042471773922 0.0037579182535 0.0031510069966 0.0033105576877 0.0036640223116 
0.004586498253 0.0055857570842 0.0061458596028 0.0071909017861 0.0099220834672 0.013402299024 0.01602419652 0.016373103485 0.014548664913 
0.013030184433 0.012041167356 0.0112643959 0.010684153065 0.0094710644335 0.0076527921483 0.0064330361784 0.0053269057535 0.0047951950692 
0.0043821078725 0.0040115765296 0.003323484445 0.003655471839 0.0047288280912 0.0055874679238 0.0086905388162 0.0039142579772 0.0040854378603 
0.0043373391964 0.0050922534429 0.0051291952841 0.0051225614734 0.0056690513156 0.0063663553447 0.0078377714381 0.010450917296 0.011183053255 
0.012778300792 0.013966124505 0.014585961588 0.01664181985 0.019561454654 0.02130754292 0.021719191223 0.022740801796 0.02283488214 
0.020853789523 0.017727518454 0.014117213897 0.010756660253 0.010797213763 0.0099367406219 0.0071925302036 0.0030565736815 0.0013897009194 
0.0011855369667 0.001782323583 0.0059677800164 0.0059880954213 0.0052061975002 0.0054162028246 0.0051623927429 0.0044777351432 0.0053193266504 
0.0087843434885 0.011754003353 0.014558766037 0.018796002492 0.020546901971 0.019928025082 0.020904503763 0.020058719441 0.018194008619 
0.016455769539 0.01535128057 0.014534223825 0.01312030293 0.01160837058 0.0094803208485 0.0075680925511 0.0056240339763 0.0050783753395 
0.0048580933362 0.011397789232 0.011853567325 0.021227873862 0.023237703368 0.0217857752 0.02027060464 0.01729063876 0.013410562649 
0.009695106186 0.0065627684817 0.0038848919794 0.0024562936742 0.0023341297638 0.0018760657404 0.0019726487808 0.0022821626626 0.0031385882758 
0.0045988406055 0.0062731890939 0.0085747521371 0.011738898233 0.015335397795 0.016985697672 0.015094163828 0.014288608916 0.014050501399 
0.013631435111 0.012710470706 0.01064625103 0.0080871805549 0.0057471864857 0.0036810548045 0.0022548020352 0.0016243543942 0.0023035614286 
0.0022343860473 0.0031032017432 0.0052494481206 0.0098714958876 0.016512840986 0.018851980567 0.018572796136 0.018372751772 0.010241786949 
0.0096421111375 0.0095179136842 0.0092061683536 0.007497290615 0.0057188495994 0.0032094495837 0.0021461800206 0.0030755277257 0.0049540144391 
0.0037743090652 0.0042051523924 0.0052521638572 0.0062098898925 0.0092832846567 0.012920929119 0.01541293785 0.017557006329 0.019100569189 
0.020951509476 0.022066794336 0.021576715633 0.019934095442 0.019023515284 0.017859546468 0.015945388004 0.014836800285 0.013853999786 
0.012294301763 0.010219589807 0.0085317902267 0.0068343039602 0.0044857622124 0.003315056907 0.0025790778454 0.0024758744985 0.0026576791424 
0.0032936232165 0.0040218057111 0.004311284516 0.0055962395854 0.0074391574599 0.0087114823982 0.010804117657 0.013067281805 0.013987367041 
0.014100715518 0.014457828365 0.016086967662 0.018334943801 0.020263178274 0.020967785269 0.02153923735 0.021644506603 0.019948910922 
0.01719080843 0.014242261648 0.013063881546 0.011282437481 0.0078786443919 0.0089618191123 0.0062975222245 0.0039763827808 0.01890207082 
0.018375014886 0.017845595255 0.016472946852 0.016026834026 0.016331819817 0.016506602988 0.015995746478 0.014394614846 0.011359069496 
0.008116979152 0.0055153598078 0.0035061903764 0.0031479871832 0.003500059247 0.0044878046028 0.0080449655652 0.010303976946 0.014761762694 
0.017045365646 0.020518055186 0.021247081459 0.021705534309 0.020996654406 0.018631262705 0.014921477996 0.011589453556 0.0091345589608 
0.0057272613049 0.0031813981477 0.0022713490762 0.0022595340852 0.002281366149 0.0024391319603 0.0031807594933 0.0052977632731 0.0078233191743 
0.010388405062 0.012161083519 0.015563452616 0.017812075093 0.020128894597 0.01896975562 0.018592087552 0.01801421307 0.014955717139 
0.0030414012726 0.0034745496232 0.007578029763 0.0075900913216 0.0059634638019 0.0041926396079 0.0028406302445 0.0025457439478 0.0030932747759 
0.0031211380847 0.0039841327816 0.0041234060191 0.0040682903491 0.0037266991567 0.0046347007155 0.0062298974954 0.0084231002256 0.013020609505 
0.01768312417 0.017671285197 0.017713431269 0.019438354298 0.021070959046 0.021842014045 0.021125972271 0.019745994359 0.019041163847 
0.01797801815 0.016269305721 0.015069840476 0.013628507033 0.01183628384 0.010017259978 0.0088746696711 0.0067548188381 0.0041714245453 
0.0028694134671 0.002301792847 0.0026224176399 0.0028939000331 0.0037916384172 0.0048570311628 0.0056141354144 0.0066462466493 0.0080123981461 
0.0089968182147 0.010479338467 0.011719508097 0.012635845691 0.012911996804 0.013261453249 0.014339465648 0.018462864682 0.019271066412 
0.019641183317 0.01888759248 0.018190361559 0.017080629244 0.015129206702 0.013268810697 0.011081692763 0.0089075937867 0.006969041191 
0.0055506527424 0.0054473970085 0.0059574921615 0.0056520882063 0.0045509114861 0.0029201710131 0.011609815992 0.0098165748641 0.0083867385983 
0.0058168093674 0.0054690376855 0.0046059172601 0.0040890672244 0.0041399197653 0.0048722452484 0.0044010248967 0.003369085025 0.016875999048 
0.014643997885 0.018260862678 0.017874803394 0.017482070252 0.017190361395 0.017394095659 0.017774928361 0.017673395574 0.016246048734 
0.013299885206 0.010163701139 0.0073190541007 0.0050345356576 0.0045572025701 0.0050575868227 0.0049542165361 0.0040943161584 0.0036992200185 
0.0039396849461 0.0054203751497 0.0069605289027 0.0084314132109 0.012676316313 0.014508653432 0.014624380507 0.014114337973 0.013455347158 
0.013739540242 0.014683820307 0.01600904949 0.016825491562 0.016856295988 0.016901496798 0.017200106755 0.01726808399 0.01618603617 
0.013829858042 0.010891024955 0.0078029991128 0.0045574638061 0.0025364365429 0.0028955091257 0.0028190512676 0.0041673765518 0.0067311734892 
0.0092941373587 0.010957289487 0.012721728534 0.014466194436 0.017785135657 0.020617077127 0.018057746813 0.014159934595 0.016034679487 
0.016566127539 0.0025470326655 0.0030668110121 0.0026042493992 0.0025096188765 0.0030133910477 0.0035826493986 0.0039066919126 0.00376981101 
0.0039627263322 0.0050791287795 0.0071072587743 0.0097842477262 0.013855219819 0.016262410209 0.016502778977 0.01701634191 0.019067136571 
0.021744303405 0.02266407758 0.021889794618 0.020623821765 0.019598288462 0.018577245995 0.017006944865 0.015208645724 0.013658958487 
0.01164434012 0.0098365908489 0.0084856143221 0.0068199858069 0.0026120375842 0.0023382324725 0.0024357067887 0.0028142721858 0.0036643757485 
0.0046394304372 0.0055260118097 0.0070742494427 0.007883111015 0.0085937185213 0.0091478358954 0.010063151829 0.01098142378 0.011732298881 
0.012058869004 0.012707897462 0.013089773245 0.012862875126 0.014530860819 0.016057990491 0.016433911398 0.017325844616 0.018270492554 
0.017972456291 0.01631610468 0.01579226926 0.0033870639745 0.0040046148933 0.0025834394619 0.0025830222294 0.0024209273979 0.0025563910604 
0.002698145574 0.0031701957341 0.0033989460208 0.0034183647949 0.0040719741955 0.0055565908551 0.0076596233994 0.010187095962 0.013365752064 
0.015335318632 0.014533900656 0.01508018095 0.018032262102 0.02213755995 0.023738425225 0.021890385076 0.020436558872 0.019765662029 
0.018513411283 0.016251463443 0.014741682447 0.013171182014 0.011233409867 0.0090309912339 0.0072480984963 0.0054980055429 0.0042937765829 
0.0030413682107 0.0031242959667 0.0027562258765 0.0026005846448 0.0024868461769 0.0027352930047 0.0030694925226 0.0037259620149 0.0047983718105 
0.0061988309026 0.0072556370869 0.0072470372543 0.0072821024805 0.0082411887124 0.009447388351 0.01034556888 0.010873298161 0.011366137303 
0.011998303235 0.011837448925 0.011431828141 0.012702908367 0.013701444492 0.015180197544 0.016303090379 0.016453215852 0.016597062349 
0.016315422952 0.015198466368 0.013180273585 0.016828203574 0.017267283052 0.017323508859 0.017008949071 0.016971712932 0.017294568941 
0.017291156575 0.016461430117 0.014869468287 0.012452701107 0.0094663659111 0.0072633819655 0.0060657006688 0.0057144518942 0.0054172812961 
0.0051154443063 0.0046331523918 0.0040170839056 0.0036881107371 0.0041128089651 0.0048056654632 0.0066152238287 0.0095406901091 0.012146057561 
0.013487270102 0.013088743202 0.012417056598 0.012615771964 0.013199064881 0.014457080513 0.015339526348 0.015547281131 0.015169870108 
0.014226324856 0.014045281336 0.01479510963 0.015607427806 0.014540379867 0.011740767397 0.0087606171146 0.0065253153443 0.0044808471575 
0.0038546344731 0.0029257782735 0.0035501592793 0.0041605569422 0.0041336575523 0.0047731441446 0.0055715274066 0.0079110898077 0.010101153515 
0.011349274777 0.012179383077 0.013590144925 0.016136027873 0.016565725207 0.014997936785 0.012541665696 0.011477768421 0.010536446236 
0.012832237408 0.014034345746 0.0027367523871 0.0034367898479 0.0042325225659 0.0058966190554 0.0078663434833 0.0099811479449 0.012251597829 
0.014267688617 0.014183634892 0.014501767233 0.021493472159 0.023208646104 0.021911650896 0.020432746038 0.018864231184 0.016800122336 
0.014906196855 0.013435950503 0.012040087022 0.010129396804 0.008238629438 0.006381762214 0.005392448511 0.0040514627472 0.0036525200121 
0.0031049337704 0.0028395261616 0.0026786066592 0.002524016425 0.0024744623806 0.0026115472429 0.0028540070634 0.0033335417975 0.0040988782421 
0.0054037896916 0.0060998746194 0.006168203894 0.0056163584813 0.0084871398285 0.0097401533276 0.010268736631 0.01052135136 0.01098599378 
0.017287319526 0.016409529373 0.010797692463 0.010686192662 0.011294831522 0.012646797113 0.01431005355 0.01471193321 0.014888863079 
0.01553419698 0.015898464248 0.015624156222 0.015533539467 0.015778077766 0.015823982656 0.015316356905 0.014865539968 0.013659402728 
0.010765929706 0.0086412001401 0.0071192006581 0.0061368471943 0.0057422006503 0.0046109217219 0.0042999233119 0.0038163214922 0.0035924348049 
0.003737405641 0.0044048125856 0.0065270210616 0.0084634134546 0.010307678953 0.010593501851 0.010504668579 0.011450003833 0.012599183246 
0.013770490885 0.015144054778 0.016276007518 0.016610041261 0.015834774822 0.014876314439 0.013213977218 0.012810496613 0.013019827195 
0.013179143891 0.011324479245 0.0090640345588 0.0071579953656 0.0058627021499 0.0046493741684 0.0042746518739 0.0037648114376 0.0033619252499 
0.003933373373 0.0059706573375 0.0067050410435 0.0060056354851 0.0063259997405 0.0072576818056 0.0081304935738 0.0090269241482 0.010376645252 
0.011726308614 0.012523077428 0.01304807514 0.012660817243 0.013229038566 0.012958438136 0.013320237398 0.010533442721 0.013517243788 
0.010604571551 0.0086306119338 0.005438900087 0.0057056271471 0.0026787295938 0.002470837906 0.0028012190014 0.0027877755929 0.0033653865103 
0.0036965277977 0.0036225155927 0.003237494966 0.0026096752845 0.002780099865 0.0028979061171 0.0028819411527 0.00255726045 0.0028139080387 
0.01332778018 0.013662924059 0.01368264854 0.013856602833 0.014206954278 0.014195875265 0.013732871041 0.013650916517 0.012927641161 
0.011089481413 0.0092224311084 0.0081139896065 0.0064773578197 0.0034230765887 0.0031885418575 0.0034888992086 0.0034399451688 0.0033061648719 
0.0033621347975 0.0041679530405 0.0054204920307 0.0071343267336 0.0082689691335 0.0083294734359 0.011854960583 0.013191807084 0.014661103487 
0.016358749941 0.018130104989 0.019655043259 0.019612733275 0.017725380138 0.014865482226 0.011530055664 0.011406213976 0.010842077434 
0.0088653946295 0.0073998691514 0.006149711553 0.0051705539227 0.004257848952 0.0038295339327 0.012376774102 0.010393420234 0.0096243862063 
0.0083839381114 0.0059167519212 0.014860486612 0.014956684783 0.016304954886 0.014649367891 0.012418263592 0.0090826088563 0.0082691218704 
0.0079253856093 0.0031588042621 0.0043124225922 0.0055002421141 0.0072169373743 0.0090611316264 0.010632554069 0.012049283832 0.013409631327 
0.014139591716 0.015392930247 0.016519270837 0.018155070022 0.018845858052 0.021793050691 0.022581277415 0.020862556994 0.01889514178 
0.016709003597 0.015025284141 0.013785533607 0.012641914189 0.011427653022 0.010052623227 0.0084699243307 0.0071829082444 0.0057196961716 
0.0050338716246 0.0047026295215 0.0036689711269 0.0028921882622 0.0027847366873 0.0024747964926 0.0023748790845 0.0024452875368 0.0026359516196 
0.0030630691908 0.0035696472041 0.0092134252191 0.0033786352724 0.0024809250608 0.0036608867813 0.0036408863962 0.0038461594377 0.0041929506697 
0.0040994775482 0.0054957526736 0.0068437797017 0.0052701225504 0.0046570873819 0.0056086424738 0.0061823022552 0.0043106134981 0.0047112908214 
0.0054582534358 0.0053939931095 0.0051450855099 0.0055805626325 0.0072033638135 0.0076647098176 0.008760701865 0.0095976265147 0.010106425732 
0.010485157371 0.01056096144 0.010719386861 0.0030422999989 0.010781595483 0.011218326166 0.011113166809 0.011408184655 0.014047371224 
0.014738668688 0.015180451795 0.014304826036 0.011713908054 0.012811521068 0.0016839116579 0.0016206357395 0.0025020730682 0.0042261718772 
0.0033279757481 0.0032982856501 0.0030850428157 0.019673665985 0.022736717016 0.022640774027 0.019736466929 0.016741035506 0.014821888879 
0.013892688788 0.012781537138 0.011962455697 0.011220535263 0.010125759058 0.0088090524077 0.0044354619458 0.0024898187257 0.0024130858947 
0.0025239423849 0.0027254258748 0.0041629462503 0.0051178866997 0.0066064503044 0.0081777675077 0.0099583892152 0.011611965485 0.012745367363 
0.01339690201 0.013389089145 0.0027054648381 0.011693502776 0.011012934148 0.010166182183 0.0087329866365 0.0071791801602 0.0059942314401 
0.0048829056323 0.0041272467934 0.0028387627099 0.0084586702287 0.0095934122801 0.010486242361 0.010876362212 0.0030048873741 0.0030097470153 
0.0031700606924 0.0060837785713 0.0069074947387 0.0076739238575 0.008685558103 0.0093568712473 0.010397776961 0.011539868079 0.012508610263 
0.013464406133 0.014751159586 0.016715651378 0.0055729653686 0.0069675147533 0.0082488739863 0.0069436742924 0.0095370551571 0.011247832328 
0.0117513109 0.011932711117 0.011131395586 0.008875134401 0.019506277516 0.012163219973 0.011892219074 0.012576351874 0.012850938365 
0.022358747199 0.012655673549 0.0032129995525 0.0038553946652 0.0052574840374 0.0046968227252 0.0033038668334 0.012206926942 0.011818706058 
0.010221973993 0.0050171609037 0.0045367833227 0.0054910508916 0.0028049417306 0.005742337089 0.0067668007687 0.0078074494377 0.0082619050518 
0.0067634396255 0.0082397311926 0.0096787400544 0.011249920353 0.012690725736 0.016047144309 0.015699131414 0.016046453267 0.01781238243 
0.018392613158 0.018619323149 0.002706755884 0.0027306932025 0.0025910367258 0.0057243234478 0.0042299269699 0.011322512291 0.012463323772 
0.01190513093 0.011660655029 0.013875828125 0.012973204255 0.0027381824329 0.0031462488696 0.0050098947249 0.0065407529473 0.0074318349361 
0.007214368321 0.011038586497 0.011445673183 0.022545918822 0.019866516814 0.0046936180443 0.0041795135476 0.0034337835386 0.0050358902663 
0.0062490804121 0.0050602550618 
Stress_XY 1 1064 double
0.0057447524741 0.00084960530512 0.00053764588665 -0.0013513531303 -0.0019906181842 0.00060501060216 -8.9932473202e-06 -0.0010583695257 -0.00018260734214 
0.00011489927419 9.5872246675e-06 -0.0011460428359 -0.001945371856 -0.0020828323904 -0.0022666526493 -0.0020198083948 -0.0020180034917 -0.0022165349219 
-0.00044218165567 -0.0011524189031 -0.00059695221717 -0.000655098469 -0.0016199137317 -0.0027473280206 -0.0031339137349 -0.0024205530062 -0.00048049748875 
0.0010826353682 0.001465258305 0.0010904403171 0.001014783862 0.0015021280851 0.0019524355885 0.0027306408156 0.0039060504641 0.0051809349097 
0.0059070899151 0.0053553348407 0.0040272497572 0.0028036343865 0.0023338955361 0.0042703738436 -0.0023908386938 -0.0025448470842 -0.0023835320026 
-0.0030022701249 -0.0027304489631 -0.0011831503361 -0.0009327660664 -0.00084861495998 -0.00023979329853 0.00078967201989 0.002869005315 0.0038295632694 
0.0038440688513 0.0034230460878 0.0033259538468 0.0028396658599 0.0026346542872 0.0031819141004 0.0036668889225 0.0036419297103 0.0032732351683 
0.002361540217 0.00046240753727 -0.0013310912764 -0.0021605377551 -0.0022377211135 -0.0024677142501 -0.0029384098016 -0.0047496487387 -0.004438792821 
-0.0025074111763 -0.00039193310658 0.0026432657614 0.0039085973985 0.00085240055341 0.0024728046264 0.0019410368986 0.0035586198792 0.0041822418571 
0.0076327021234 0.0062157269567 0.0039868368767 0.0024820170365 0.0025071674027 0.0012464370811 -0.00064708647551 -0.0012284406694 -0.0014335536398 
-0.0010738815181 -0.0005208235234 -0.00015607647947 0.00031921398477 -0.00064958876465 -0.0021951070521 -0.0037006663624 -0.0049064992927 -0.0052246591076 
-0.0046229828149 -0.0019275583327 -0.0010358708678 -0.00069174997043 0.00035661863512 0.0010649061296 0.0028510205448 0.0028864589985 0.0023572568316 
0.0024083298631 0.0019044122892 0.00017028908769 -0.0013618658995 -0.001647390076 -0.0020106192678 -0.0019755333196 -0.0017805324169 -0.00097806984559 
-0.00051431055181 -0.0012410131749 -0.0016463253414 -0.0020533429924 -0.0024290678557 -0.001965188887 -0.00083295354852 -0.0012373615755 -0.001772728865 
-0.0017560287379 -0.0017642331077 -0.0019254739163 -0.0019375646953 -0.0011514757061 6.1937789724e-05 0.0014836044284 0.0031771259382 0.0050875223242 
0.0068741701543 0.0079169562086 0.0081491898745 0.0073512513191 0.0061230217107 0.0044202920981 0.00011291175906 -0.005612954963 -0.0050679109991 
-0.0044803540222 -0.0032078353688 -0.0013440633193 0.00010767843196 0.00096798373852 0.0025572024751 0.0044095194899 0.0056050657295 0.0058549572714 
0.0044922605157 0.0034409996588 0.0027540596202 0.0018277766649 0.00034036111902 -0.0011498070089 -0.0016220891848 -0.00050938752247 0.0016182422405 
0.0033598914742 0.0037534064613 0.0030093316454 -0.00065956264734 -0.001671815291 -0.0037813948002 -0.0056768395007 -0.005442771595 -0.0039594471455 
-0.0019339181017 0.00057572615333 0.0038711989764 0.0059316358529 0.0054486170411 0.0040630227886 0.0031883975025 0.003007349791 0.0034056149889 
0.0033211240079 0.0016961311921 0.00021011759236 -0.0010266716126 -0.0014327679528 -0.0019967446569 -0.0020537667442 -0.0015287622809 -0.00066796323517 
3.3409694879e-05 0.00044447692926 0.0006009148201 0.0002505579323 -0.0011064290302 -0.0028156167828 -0.0044530294836 -0.006333086174 -0.0068555660546 
-0.0064323991537 -2.5948673283e-05 0.00072688027285 -0.00037304361467 0.0015033406671 0.0024269556161 0.002868338488 0.0025354628451 0.0017232629471 
0.00049646932166 -0.00090822990751 -0.0014887844445 -0.0015074119437 -0.0012583967764 -0.0011574391974 -0.00090132316109 -0.00034837675048 -6.4021616708e-05 
-0.00016425654758 -0.00059349701041 -0.0012093515834 -0.0016171627212 -0.0014062428381 -0.00014230901434 -0.0012512870599 -0.0018741047243 -0.0021360714454 
-0.0021359503735 -0.0019033214776 -0.001475661993 -0.00043331366032 0.00090333691332 0.0023492358159 0.003862993326 0.0053952252492 0.0066089532338 
0.0070769358426 0.0069282245822 0.0052035171539 0.0024855819065 -0.00092260306701 -0.0037761728745 0.00039794901386 -0.00027535500703 -0.00069927138975 
-0.0009750345489 -0.002456134418 -0.0045952252112 -0.005747132469 -0.0057528121397 -0.0043935626745 -0.0024332180619 -0.00058057357091 0.0050210747868 
0.0050562131219 0.0041047274135 0.0029351387639 0.0026538351085 0.0030935253017 0.0032716798596 0.0026463971008 0.001356705674 -0.00035104993731 
-0.0013052177383 -0.0015286966227 -0.0012761167018 -0.00075512792682 -0.00037117800093 0.00017021877284 0.00042505166493 0.00045292938012 0.00026037372299 
-0.00037811542279 -0.0015761619434 -0.003137889551 -0.0048797423951 -0.0061334623024 -0.0068037174642 -0.0065836193971 -0.0059640943073 -0.005041026976 
-0.0036852357443 -0.0015033102827 0.00071928434772 0.0027039286215 0.0044831661507 0.0061453296803 0.0062923864461 0.0052166474052 0.0039037337992 
0.0025462636258 0.0016388898948 0.00098639714997 -4.0558345063e-05 -0.00078098260565 -0.00091227161465 -0.00023967970628 0.00085660512559 0.0020272112451 
0.0028444344644 0.0029678887222 0.0019582184032 0.00057641445892 -0.00022717271349 -0.0016486921813 0.0033018682152 0.00048399722436 0.00036910065683 
0.00055712996982 -0.00029710147646 -0.0011880486272 -0.001715654158 -0.0019395563286 -0.0018985446077 -0.0016889739782 -0.0013143102406 -0.0006354637444 
0.00034501112532 0.0016316892579 0.0028154577594 0.004121077247 0.005005357787 0.004810040351 0.0032791104168 0.0017049758462 -0.00085814198246 
-0.0049633556046 -0.0005185045884 0.0011034127092 0.0021665154491 0.0026196397375 0.002403405495 0.0012297689682 -0.00052084896015 -0.0017138115363 
-0.001404620125 -0.0004609808384 0.00011373117741 0.00024288160785 0.0001095311236 0.00021009299962 0.00034009257797 9.80309851e-05 -0.0002266204101 
-0.00039826013381 -0.00073264865205 -0.001036278205 -0.00097242172342 -0.00082247244427 -0.00037891842658 -4.5263124775e-05 -0.001924035023 -0.0030502658337 
0.0052545727231 0.0048301583156 -0.0027487960178 -0.0042759440839 -0.004924507346 -0.0041770786047 -0.0026622267906 -0.0011777114123 -0.00034986680839 
-6.1654754973e-05 0.00061935762642 0.0023034578189 0.0035603318829 0.0036757579073 0.0033288605046 0.0029217894189 0.0025167537387 0.0029046479613 
0.0037438794971 0.0031193839386 0.0016194832278 -0.00018991023535 -0.001567842206 -0.001623183256 -0.00096790160751 -0.00026324595092 0.00010436386219 
0.00054152129451 0.00078870536527 0.00090438261395 0.00085687020328 0.00041210476775 -0.00052088405937 -0.0018274981994 -0.0035277649295 -0.0051432861947 
-0.0059615382925 -0.0061164461076 -0.0059731593356 -0.0054953359067 -0.0043063312769 -0.0021709264256 0.00059099646751 0.0034153931774 0.0054786768742 
0.0064063593745 0.0059199775569 0.0043123406358 0.00267273793 0.0014862916432 0.00094346544938 0.00047424007789 -0.00046904388 -0.0007058235351 
-0.00038791407133 0.00036065143649 0.0013816311257 0.0023922375403 0.0025592572056 0.0022036181763 0.0014627675992 0.0010854125721 0.0011123329168 
0.00026862756931 -0.0011050595203 -0.0020167639013 -0.0025853852276 -0.0027930648066 -0.0021587454248 0.0012809543405 0.0014624444302 0.0015095185954 
0.0021411855705 0.0016657313099 0.0011370722204 0.00066806940595 -0.00028285820736 -0.0010256586829 -0.0014289225219 -0.0012117378647 -0.0001603779383 
0.00024093933462 -0.00011443755648 -0.00057628093055 -0.0010024304502 -0.0011891048634 -0.0011976816459 -0.0011087412713 -0.0009486717172 -0.00080757989781 
-0.00047034761519 0.00041636193055 0.0014521350386 0.0025846424978 0.0038169501349 0.0045606503263 0.0049256891944 0.0048812525347 0.0046649761498 
0.0043443385512 0.0034325909801 0.002143464284 0.0013817927102 -0.00051732122665 -0.0032040958758 -0.0043802242726 -0.0043370327912 -0.0039429245517 
-0.0034328221809 -0.0028431538958 -0.0021364558488 -0.00086736126104 0.00020228516951 0.00084792909911 0.0010239740368 0.00067506468622 -0.00042698471225 
-0.0019514688756 -0.0021984935738 -0.0011196192354 0.00025384209584 0.0017301900079 0.0014702524059 0.00082701619249 0.0003729860764 0.00018469648785 
0.00019427704683 0.00046938002924 0.0004578656808 0.00033656464075 -0.00020482963009 -0.00053840735927 -3.1641415262e-05 0.00036405958235 -0.00037529459223 
-0.00032564924913 0.0018273877213 0.0014267967781 -0.00045014955685 -0.00011524468573 -6.8904621003e-05 0.00040514071588 0.00088949245401 0.0015959936427 
0.0025656446815 0.0029334807768 0.0028189520817 0.0025964803062 0.0030346272979 0.003644048702 0.0030838060193 0.0011417432688 -0.00082821620163 
-0.0016029506223 -0.0018333260668 -0.0011931244517 -0.00021283922251 0.00055945391068 0.0010041097412 0.0012236760231 0.0012490807567 0.0013013218995 
0.00097181927413 0.00030579333543 -0.00089409673819 -0.0022666840814 -0.0052014263347 -0.0055467924103 -0.0058116992004 -0.0054828729481 -0.0042264368385 
-0.0020853977185 0.00075298995944 0.0037721912377 0.0061077363789 0.0062724612653 0.0049721254036 0.003139445791 0.0017472812906 0.00092456693528 
0.00060917116934 0.00040203880053 0.00035131076584 0.00030528908246 0.00013067956024 -5.0736089179e-06 -0.00027247075923 -0.00036781921517 -0.00018254251336 
0.00010512104927 0.00074492767453 0.0015010642819 -0.0043399482965 -0.0030604782514 -0.0005828581634 -6.6914219587e-07 0.00039377628127 0.00016962598602 
7.0565642091e-05 4.8685542424e-05 0.00037275918294 0.0010952712037 0.001976165222 0.0023748734966 0.0022652021144 0.0021246769466 0.0025709557813 
0.0021205323283 0.00090899370844 -0.00027447813773 -0.0015596433077 -0.0022981546354 -0.0020424679387 -0.001233030227 -0.00032512555481 0.00053903687513 
0.0011750252452 0.0013187365839 0.0014207882341 0.0014936634107 0.0012997221202 0.00069718132727 -0.00011984808225 -0.0010953859892 -0.0016971904552 
-0.001768283546 -0.0028925924562 -0.003807580797 -0.0045654065907 -0.0050537805073 -0.0051130885258 -0.0045169382356 -0.0031907304656 -0.0011745339725 
0.0015386897139 0.0042286464013 0.0057248175144 0.0055821430869 0.0040212357417 0.0024222191423 0.0014512243215 0.00089903816115 0.00051599479048 
0.00042236407171 0.00044165193685 0.00042820221279 0.00019016157603 1.5261100998e-05 0.00021684766398 -4.6692068281e-05 -0.00018116498541 -4.6964185458e-05 
-0.0004130427551 0.00052575109294 0.001306337188 -0.00035940000089 -0.00051633582916 -0.00058940064628 -0.0005355089088 -0.00038546361611 -0.00015457236441 
-2.6148296456e-05 -0.00016099239292 -0.00018366987933 0.00031475813012 0.0011510094628 0.0024598678574 0.0040758950636 0.0051460973918 0.0053530544974 
0.005091117695 0.0044288816862 0.0042747221887 0.0040370561182 0.0035432125442 0.0028482570779 0.0019275401719 0.0013366790954 -4.0051950236e-06 
-0.0015360524412 -0.0027384473942 -0.0035307880025 -0.0035992669873 -0.0032584210858 -0.0029235230759 -0.0023332575802 -0.0014656017302 -0.00062638038071 
-0.00043574496522 -0.00087148603052 -0.0016587759601 -0.0029290253296 -0.0037619371433 -0.0028338639531 -0.0010893971194 0.00027224730002 0.00095827825135 
0.0012936545536 0.0019092422444 0.0031301984563 0.0034320123959 0.0026618163101 0.001581084216 0.00052384723676 0.00049630313879 0.00090161524713 
0.0015416557435 0.0023357705213 0.0019278490217 0.001100124442 0.00073796650395 0.0010522226803 0.0010249564657 0.00038065045374 0.00012356109801 
-0.00026182699366 -0.00042726541869 0.00026387532125 0.00075768778333 0.0013941894285 0.001430134871 0.0012776723597 0.0010564426193 0.00090302433819 
0.0002242019109 -0.00088957342086 -0.0018726397539 -0.0023864947725 -0.0023700918537 -0.0014993983787 -0.00021895923419 0.00037701765541 0.00088238937315 
0.0010475997115 0.0011022000108 0.0011142711155 0.00098552880809 0.00070343411062 0.00016571712331 -0.00019660228281 -0.00071204919368 -0.00066086777952 
-0.00048324870295 -0.0012478731805 -0.0023517659865 -0.0030487012118 -0.0035971822217 -0.0038637507241 -0.0037012782414 -0.0029838858172 -0.0016000989126 
0.00031825847691 0.0021219539922 0.0034182979725 0.004356412217 0.00327611994 0.0021035559475 0.0013056654716 0.00083117862232 0.00055860949215 
-0.0016390649835 -0.002608673647 0.00059465202503 0.00076324539259 0.00046753237257 0.00015098036965 0.00019565175171 9.2227332061e-05 -0.00042978388956 
-0.00034120996133 -0.00019600214728 3.2808544347e-05 0.00033456945675 0.0006505191559 0.00080753915245 0.00063809775747 0.00028673780616 7.6418553363e-05 
0.00064031983493 0.0022325210739 0.0040210904554 0.0052494364791 0.0043633002788 0.0024662041105 0.0033381117973 0.0034366894979 0.0033045201562 
0.0028006008361 0.0023986746091 0.001836771029 0.0010891641723 0.00014714903955 -0.0010690104682 -0.0021565656643 -0.0028792053927 -0.0029910677113 
-0.0028123550583 -0.0027347034775 -0.0025764445309 -0.0022328121122 -0.0016622660914 -0.0019203735283 -0.0023178190459 -0.0033187179361 -0.0047096107155 
-0.0052815042436 -0.0037745726295 -0.0018832675414 -0.00050949072465 0.00041713946848 0.00088070437778 0.00094823999098 0.0015725173289 0.0023348915856 
0.0033592041582 0.0046743028797 0.0042085526511 0.0025412451942 0.0012038126588 0.0010440321639 0.0019909343682 0.0027146118227 0.0028820787556 
0.0025268115569 0.0018122135662 0.0012385670561 0.00124546187 0.00084581412375 0.00040415255353 -0.00052560697077 -0.00022064772202 0.00059802562464 
0.0011413644534 0.00149446656 0.0022733646911 0.0027812013868 0.0024647440296 0.0028626397252 0.0026301082689 0.0020839606877 0.00087281584274 
-0.00036886078306 -0.00025283714058 -0.00063613598468 5.3613417549e-05 0.00067969842348 0.00074728805339 0.00068135990296 0.00042768113781 0.00030493535451 
-0.00011446468852 0.00021843344439 0.00055610958952 0.00088695547311 0.0011655732524 0.0013096467592 0.0011707443045 0.00064766948344 9.2284069979e-05 
0.00058366800658 0.0018487088382 0.0034640664235 0.0040426389314 -0.00017451995518 0.00070688163396 0.0017102502752 0.0023590039928 0.0025513567962 
0.0022688037716 0.0017820594367 0.0013451310806 0.00094938982511 0.00021973697585 -0.00048399795196 -0.002032184042 -0.0020755219739 -0.0021258220077 
-0.0022571098525 -0.0025021990295 -0.0026585892774 -0.0024304706603 -0.0023454120383 -0.0029030465521 -0.0052389842458 -0.0054735965095 -0.0043665943667 
-0.0026271843817 -0.0012493943796 -0.00015248869022 0.0005098907277 0.00065889244433 0.00082575588021 -0.0041397497989 -0.0014310926199 -0.0010312795639 
0.0040282448754 0.0043574767187 -0.00017701783509 -0.00043713502237 -4.3482032197e-05 0.00015246581461 0.0010113789467 0.0019110585563 0.0027223513462 
0.0033224304207 0.00075647019548 0.000771072926 0.00045417173533 1.3272095202e-05 -0.00034782421426 -0.00066036189673 -0.0015289414441 -0.0024904056918 
-0.0031645530835 -0.0030641595367 -0.0028745771851 -0.0021368796006 -0.0020129478071 -0.0025201637764 -0.0028190372977 -0.0018600818003 -0.00065830611857 
0.00021317832579 0.00046432731324 0.00039962554001 0.00039141406887 0.00045027380111 0.00051354122115 0.00042453143396 0.00023703732586 3.5540269891e-05 
-0.00020269262313 -0.00018173900025 5.7386427216e-05 0.00012122259068 -0.00069068826269 -0.0015317812795 -0.0022646868601 -0.0024497513659 -0.0021086845081 
-0.0018566815415 -0.0011660719756 0.0026919061784 0.00034016784048 0.000422057783 0.0010271021165 0.0011414424516 0.0016110872384 0.0024512677919 
0.0030637052841 0.0043357321993 0.0052756187506 0.0039694532752 0.0020475282799 0.0016097642947 0.0024700700305 -7.708571502e-05 0.00098134565633 
0.0020080397371 0.0028621132951 0.0031717258971 0.0028792978264 0.0021672311705 0.0033222432248 0.0029985308647 0.0023563816212 0.0018127455842 
0.001208582893 0.00086314743385 0.0025137502234 0.0021743231919 0.0011185411131 0.001199358725 0.00083569204435 0.0003480980231 -0.00037675746717 
-0.00041878069169 0.00020034528279 0.00048697224702 0.0020437252242 0.0010983283864 0.0030740101356 0.0038284300826 0.0032195267268 0.0024569376837 
0.0011323067592 0.00070777913788 0.00075747736264 -0.0025011915714 -0.0025959445629 -0.0029308788944 -0.0022074682638 -0.0012071388774 -0.00048502904247 
-0.00030438110116 -0.00036961882142 -0.00017392721202 0.0001401714544 0.00029479403747 0.00028987825499 0.00039218674647 -1.1981030184e-05 -0.00068044336513 
-0.00158745097 -0.00064917927375 0.00042002162081 -0.00033905572491 -0.0012449128553 -0.0018048268976 -0.0021951836534 -0.002673048526 -0.0034124995582 
-0.0037415099796 -0.0040693175979 0.00032865846879 -0.0048074689694 -0.0048332815059 -0.0040623885579 -0.0028142381925 -0.0017027253052 -0.00065196322976 
0.00012060759764 0.00045771428267 0.0011485503055 0.0022601720411 0.0018802703125 0.0016054323642 0.001402869937 0.0016772840172 0.0019026978407 
0.0014310867991 0.00055338256061 0.00016365428746 -0.00022711815836 -0.00038668123307 -9.7425101558e-05 -0.00023628986673 -0.00067489681533 -0.0011139092967 
-0.001176800346 -0.0013035718584 -0.0016913029831 0.002136010211 0.0023750578985 0.0025178708602 0.0020573197398 0.00082349369768 -0.00065244926373 
0.00010514006135 0.00058194657322 0.00047065777471 0.0016364926705 -0.0022949923296 0.00097580841975 0.0015180906048 0.0012479745783 0.0014783524675 
-0.0028147953562 0.001581149525 0.0023087842856 0.0032501702663 0.0033180040773 0.0038836989552 0.0037496157456 0.0015585700748 0.0011146191973 
0.0016469416441 0.0016781628365 8.2456994278e-05 -0.00074792467058 0.0013421075419 0.00011155869288 0.00011818684288 -5.1464809076e-05 7.5855321484e-05 
-0.0017733409768 -0.0025977746118 -0.0034253709018 -0.0038406967651 -0.0038859711494 -0.00558214169 -0.0046698087826 -0.0037588723935 -0.0033447816968 
-0.0025838925503 -0.0020811990835 -0.0013335767435 -0.00082598190056 -0.0012111155083 0.0054558371194 0.0013120117364 -0.00038189638872 -0.00037917037844 
-0.00045834708726 -0.00087338977028 -0.00062228145543 -0.00025655928766 0.00066329480615 0.00064204673981 0.00046047536307 0.00027088838397 0.00022450914548 
0.00017778344045 0.0017679454759 0.0016895218287 -0.0025805188343 -0.0025041194167 0.00043175765313 0.00062304019229 0.00086547591491 0.00063532224158 
0.00027446114109 0.00034169797436 
Stress_YZ 1 1064 double
0.0046188016422 0.0067222956568 0.001097852597 0.0038002515212 0.002630145289 0.003363679396 0.0064866985194 0.0057374788448 0.0045680869371 
0.0035037447233 0.0029012940358 0.0021762540564 0.0020034152549 0.002105682157 0.0018334591296 0.0014291208936 0.0010505935643 0.0011195124825 
0.00081785162911 0.0014254837297 0.0012813793728 -1.8597429516e-05 -0.0013110057916 -0.001711573801 -0.0014866346028 -0.0007694090018 -0.001276576193 
-0.0027788234875 -0.0040662866086 -0.00475458242 -0.0046605365351 -0.0036261964124 -0.0026298132725 -0.0021124118939 -0.0018142763292 -0.0022365502082 
-0.003226909088 -0.0037678375375 -0.0031107270624 -0.00084483542014 0.0021391266491 0.0038433179725 0.00086799630662 0.0016673157224 0.0019137392519 
0.0016638142988 0.002101695165 0.0030530386139 0.0036631659605 0.0041506895795 0.0043542529456 0.0043815034442 0.0051051820628 0.0050514964387 
0.0051875421777 0.0052723893896 0.0057778945193 0.004583242815 0.0027640624903 0.0014305595541 0.00027529118233 -0.0012389094336 -0.0023777405731 
-0.0033275175374 -0.0037444685586 -0.0047118780203 -0.0060745305382 -0.0065152342431 -0.0046053766273 -0.0022935809102 -0.00035041375668 0.00027313086321 
0.00034641707316 0.00069302041084 0.0016332776286 0.0031136889011 0.0022561009973 0.0020734530408 0.0010456424206 0.001442007022 0.00040048547089 
0.0028023375198 0.0026372275315 0.00088934309315 -0.00081103871344 -0.0024945226032 -0.0038911446463 -0.0032905112021 -0.0035597505048 -0.0050546508282 
-0.0056148488075 -0.0048129688948 -0.0033796629868 -0.0032209889032 -0.0019535480533 -0.00063866126584 -0.00019426796644 -0.00021359257516 -0.0003279982775 
0.00028678192757 0.0039050220512 0.0053440723568 0.0059947343543 0.0068369475193 0.0075901937671 0.007276892662 0.0047793821432 0.0035169147886 
0.0025493518915 0.001249274821 -6.5949934651e-05 -0.00074977584882 -0.00092315452639 -0.0010433284333 -0.00091614661505 -0.0007111368468 -0.00077686499571 
-0.0007109552389 3.8586204028e-05 0.0006337686209 0.0008487253217 0.00073954055551 -8.518845425e-05 -0.0018898545532 -0.00309189572 -0.0030677136965 
-0.0030039448757 -0.0032232634258 -0.0034049528185 -0.0027966457419 -0.0012244856916 2.3917935323e-05 0.00093244609889 0.00147335988 0.0013976587215 
0.00066776399035 1.3321797269e-05 -0.00030567939393 -6.6299784521e-05 0.00035973396734 -0.00036635715514 0.00015805772273 0.00031500856858 0.00038021159708 
0.00034483769559 0.00078537105583 0.0020541762933 0.0035729133524 0.0044412901625 0.0048651583493 0.0048774797469 0.0046943263151 0.0052163549699 
0.0050798407756 0.0049653183669 0.0051006539725 0.0051940628327 0.0047346358187 0.0029278348666 -5.6943761592e-05 -0.0035272524692 -0.0058735283092 
-0.0064551476389 -0.0055798427202 -0.0043774917722 -0.0023759189062 -0.00052787933964 0.0014304622309 0.001343319891 0.00026524419081 -0.00062307494227 
-0.0014480195241 -0.0021859519184 -0.001784996246 0.00086960016051 0.0034398166463 0.0037248532753 0.0031582559459 0.0033405369613 0.0040620416403 
0.0040371627547 0.0024184905924 0.00019601265376 -0.0018606776139 -0.0030926368199 -0.0044577307999 -0.0053622783162 -0.0056775249541 -0.0051142564043 
-0.0041722557507 -0.0034694825299 -0.0027702790685 -0.0017908591544 -0.00033727355185 0.00049462669995 0.0007897245232 0.00078207999468 0.00034304437577 
0.0002359180944 -0.002696986543 -0.0031810356304 0.0070580979809 0.0064974483103 0.0058370246552 0.0048850304447 0.003434114391 0.0023397214245 
0.001023174962 -0.00021337675571 -0.00092924857745 -0.0012814836809 -0.00092725176364 -0.00037483038614 1.2029438949e-05 3.8176503949e-06 -4.24282116e-05 
0.00022952629661 0.0009523347253 0.0015670382418 0.0014512391062 8.0970559793e-05 -0.0015395979863 -0.0017949761823 -0.0019944815431 -0.0021859020926 
-0.0021793837659 -0.001800595317 -0.00092607346596 0.00010424189531 0.00076477765106 0.001053875545 0.00088101660367 0.0004398029705 3.7804220483e-05 
-0.00048638638691 -0.0011693262495 -0.0018342441181 -0.00081018940546 0.0013528072741 0.0035235113464 -0.00101197802 -0.00017363337975 -0.0010979257058 
-0.0011832531309 0.00019002407498 0.00044381903717 -0.0001261553989 -0.00033837533556 -0.00069757609162 -0.0012335539795 -0.0017082456034 0.00022110366262 
0.0021934935357 0.0032993641216 0.0033155716956 0.0034787983168 0.0033843596466 0.0029872003943 0.0024324080441 0.0011914779898 -0.00050081481459 
-0.0025550427381 -0.0045021227561 -0.0056786509231 -0.0051580006257 -0.0046122870408 -0.0041239652783 -0.0035600634292 -0.0028989796992 -0.0020017798524 
-0.00084521964891 0.00027812222834 0.00093750021188 0.0010746747721 0.00058761617402 0.00014200253645 -0.00029024900869 -0.00049540580949 -0.00045159325236 
-0.00014995381935 0.00061035359977 0.0019324503373 0.0030718205962 0.0040437281132 0.0049665872939 0.0053978594951 0.0053392210975 0.004923587665 
0.0042780921794 0.0038318559527 0.0038628578186 0.0034190141596 0.0016255736118 -0.00059644592693 -0.0030843098648 -0.0056718564592 -0.006735952571 
-0.0063023627736 -0.0051275556907 -0.0034303814173 -0.0012694485486 -2.279490036e-05 0.00074037513696 -0.0013964393875 -0.0022648631129 0.0013807397336 
0.00014555900998 -0.00051087513566 -0.00062320497818 -0.00068531930447 -0.00083828618517 -0.0010086589027 -0.0011001273524 -0.00085424486315 -0.00036687063402 
-1.6305961253e-05 0.00012592786516 -2.8795717299e-05 -0.00062810245436 -0.0012447035406 -0.0021926176269 -0.0019258450484 0.00015059161524 0.0017765684752 
0.0041732187383 0.0052512823604 0.0048123574816 0.0043664597906 0.0038050962612 0.0030595250428 0.0019595930353 0.00077814765973 -0.00019508821424 
-0.00087380158948 -0.001115870662 -0.0006346560549 1.180345771e-05 0.00031495469739 0.00025833622203 0.00026190388598 0.00051917432575 0.0010558076901 
0.0016658562236 0.0014180319849 0.0009101878386 0.0010364066111 0.0032513081096 0.0036357664503 0.0020403990056 0.0057659493759 0.005584188737 
-0.0015619499609 -0.0016014884459 -0.00010988965369 -0.00077052548295 -0.00092176586622 -0.00087615923258 -0.0010951632867 -0.0015338705853 -0.0016828562366 
-0.0015903472668 -0.0022232453339 -0.0015633763978 -0.00015782030823 0.0012860267889 0.0023005453404 0.0029722850304 0.0031739519909 0.003322399687 
0.0040262048133 0.0035608892795 0.0026836558245 0.00099736324046 -0.0016291887732 -0.0037321310956 -0.0044300211594 -0.0045989332721 -0.0046995538287 
-0.004160059616 -0.0038341388572 -0.0033992331009 -0.0024221949279 -0.0011874260381 1.3878657228e-05 0.00092818756821 0.0012388860341 0.00068258796819 
0.00013172259787 -0.00020330773259 -0.00044887367403 -0.00056959752692 -0.00030836492078 0.00029763558996 0.0013738734415 0.002722321311 0.0039173313417 
0.0046927682124 0.0051203710027 0.0049301958643 0.0040861796588 0.0032073839102 0.002782904543 0.0026233941317 0.00068086478859 -0.0014569521882 
-0.0033814935014 -0.0048181996681 -0.0057494095527 -0.005622304976 -0.0045180423185 -0.0026071337052 -0.0010389619274 -8.2236612798e-05 6.6397566115e-05 
0.00013047087123 -0.00016918576148 -0.001170683885 -0.0012644395465 -0.0009517527651 -0.00072971906047 -0.00057447765721 0.00027156440774 0.00072977162199 
0.00079041183926 0.00028671775362 0.0001277505944 -0.00013030963601 -0.00067749520531 -0.00073645822704 -0.00042627993389 -0.00045658875024 0.0019602854736 
0.0020654834807 0.00095569266705 0.00025172045571 3.1561976357e-05 2.7806639991e-05 -9.0259607532e-05 -0.00042027092422 -0.00086605374236 -0.0013173102634 
-0.0014777060132 -0.0013632113114 -0.0014292049455 -0.0017083614366 -0.0021322204266 -0.0024632255081 -0.0025386894122 -0.0025611692108 -0.0023033423349 
-0.0022060510237 -0.0019584018737 -0.00054762954824 0.0015655534808 0.0026343297213 0.0036856068764 0.005141611211 0.0054457830265 0.0051390300505 
0.0049627698027 0.0048611564562 0.004758045543 0.0044455402531 0.0035864196252 0.0027569024824 0.0022810730152 0.0017672684044 0.0010876051383 
0.00046510284301 0.00018178518803 -7.075630856e-05 -0.00027233382571 0.0004521033552 0.00061338959495 0.00052017124835 0.00058789149625 0.00083684991114 
0.0012293421896 0.0015741357347 0.001453531906 0.00092710228637 0.0020370210987 0.0041820853949 0.0045562121086 0.0041749011725 0.0029795938171 
0.0017603124725 3.6640492908e-05 -7.8389319242e-05 -0.00091252959101 -0.00060386222322 -0.0011971408967 -0.001368039404 -0.0010144072585 -0.00021884356102 
0.00082738808123 0.0018280774821 0.0025918155443 0.0029821328353 0.0030622610357 0.0036160775926 0.0038588887546 0.0031625370029 0.0019809778314 
-0.00046212482266 -0.0024924708996 -0.0033430701587 -0.0036041196436 -0.0039553912356 -0.0042138942517 -0.0040160706267 -0.0034452651162 -0.0025959082413 
-0.0014883015538 -0.0003926664358 0.00057139777346 0.0011491036275 0.00034342170693 0.00012147974485 -5.5386458371e-06 -0.00022614230693 -0.0001843066857 
0.00027737393975 0.0014039435191 0.0029101744294 0.0038601842243 0.0040510287508 0.0038252777886 0.0036236813758 0.0031575767789 0.0026409344282 
0.0022019192111 0.001967410557 0.0017701934557 0.0015333577758 0.0013949148124 0.00075515551725 -0.00023896463972 -0.001513387775 -0.0033059115522 
-0.0042520551942 -0.004271381069 -0.00401633 0.00074756529648 0.0010586295975 -0.00037060852628 -5.2304145356e-05 0.00045629436499 -0.00012822909048 
-0.00064930756344 -0.00087482359959 -0.00049281335669 0.00011714344873 0.00088918855181 0.0017249824014 0.0024031302892 0.0027817802038 0.0030597876757 
0.0026214171667 0.002349000657 0.0021560001187 0.0016258731484 0.00039730389835 -0.0011463806732 -0.0021954574622 -0.0029840313364 -0.0034083554056 
-0.0035694560502 -0.0031827948987 -0.0029942146502 -0.0024539255537 -0.0015679651406 -0.00052667135606 0.00033662305214 0.00091389595764 0.00086620106595 
0.00041979530943 0.00045677978778 0.00049614952877 0.00041514166514 0.00031499669421 0.00010196442599 -0.00028045568615 -0.00044004010851 7.7158787462e-05 
0.0014148143819 0.0024344471749 0.0026178769767 0.0025311228819 0.0020607071929 0.0021919182036 0.0023844686802 0.0023186705075 0.0019807659555 
0.0018031044165 0.0016657857923 0.0013782795286 0.0011690104147 0.00079641211778 7.2847629781e-05 -0.00063481437974 -0.0015012011863 -0.0026235596742 
-0.0028780933935 -0.0020756165031 -0.0019481078489 0.00098891765811 0.00039087806363 2.7544265322e-05 -6.2867860834e-05 -0.00012545660138 -0.00032911568996 
-0.0007840016624 -0.0014491846086 -0.002100023441 -0.0025976498146 -0.0029120328836 -0.0031322371215 -0.0033192941919 -0.0035134823993 -0.0033810054883 
-0.0031534503214 -0.002901638858 -0.0025649750605 -0.0023230784573 -0.0020957819652 -0.0013422145275 0.00022260504193 0.0018657470355 0.002428895561 
0.0028770654462 0.0036350018345 0.0040975473821 0.0041804444045 0.0041636866517 0.0044130929746 0.0046086334623 0.0040528667159 0.0030056803953 
0.0015190647682 3.0650920962e-05 -0.00084486912237 -0.00095368654002 -0.00040984584484 0.00027595830034 0.00063407828566 0.00057987991022 0.00056910607964 
0.00078668945935 0.00023354435689 0.0001759591687 0.00061119382735 0.00087641272694 0.0010232527275 0.0012509791413 0.0017170746578 0.0016507263063 
0.0015135969734 0.0012509729713 0.00076082797023 0.0020455187187 0.0034572121222 0.0039337901399 0.0036169025116 0.0028496270534 0.0037422827445 
0.0024570529349 0.00146124803 -0.00026152961073 0.00030660475022 0.00096862285864 0.0015294475015 0.0021056332625 0.0021947934292 0.0018711218145 
0.0016374989646 0.0012738350779 0.0006887706113 0.00080400879961 6.8404864578e-05 -0.0010060591158 -0.0021392947529 -0.0025245524012 -0.002232441213 
-0.0022045783699 -0.0021678591147 -0.0017130768392 -0.0009612358408 -0.00034728038008 0.00019757648988 0.00022154967883 0.0003457191051 0.0002451952605 
0.00011238852312 0.0001433348516 0.00024399504764 0.00031829092768 0.000275323604 0.00011285155779 -0.00025740428828 -0.00078916351777 -0.00096819770988 
-0.00058605492814 0.00010775520059 0.0011249250965 0.0013730826322 0.0013143178076 0.0014225289924 0.0016612238251 0.0018489528447 0.0018028839258 
0.0011918368982 0.00060145696625 0.0013436841546 0.00080630806042 0.00094818178331 0.00094798824284 0.00043025429477 -2.5163628379e-05 0.00066110712942 
-2.6079940653e-05 -0.00051957654068 -0.00059312127996 -0.00049277348444 -0.00050668872427 -0.00077297718963 -0.0013534874888 -0.0023132576607 -0.0036546341144 
-0.0043767285533 -0.0044018425979 -0.004331311211 -0.0040475134738 -0.0035534668714 -0.0025875566062 -0.0025359641295 -0.0023124725558 -0.0020119233523 
-0.001572901383 -0.00095883110771 2.5545567041e-05 0.00096347311046 0.0012210306013 0.001587632345 0.0023581036367 0.0028205648996 0.0031258240342 
0.0035099419765 0.0040803425945 0.0045740059577 0.0040744263679 0.0027514449321 0.00085537758423 -0.0011384958634 -0.0024078486022 -0.0023745412473 
-0.001370672835 -1.7059415768e-05 0.00076851097401 0.0010399168823 0.0011839342769 0.0012808148749 0.0013817185536 0.00094769342104 0.00068055500742 
0.00049689423759 0.00073176174192 0.0015593357384 0.0020700546447 0.0021425820887 0.0020303097554 0.001439826563 0.0011093656067 0.00085704936646 
0.00079469749471 0.0014646275667 0.0020996045787 0.0018681542715 0.0021265824325 0.0017292377306 0.0014902683906 0.0026938344818 -0.00066502031405 
0.00031895999564 0.0011719493195 0.00092822144506 0.00036448807805 0.00026534253266 0.00024440698326 0.00012823661382 -3.2268842915e-05 0.00019244887517 
0.00017438322539 -1.5572497432e-05 -0.00010068377014 0.0003667040146 0.00097912596539 0.0015342362458 0.0010633922648 0.0004258696863 -2.5694496799e-05 
-0.00054481608095 -0.00090937328059 -0.00086006848142 -0.00066231493838 -0.00057797628688 -0.00071340362774 -0.00114572444 -0.0020891153254 -0.0036578774452 
-0.0050542643294 -0.0045406348072 -0.0044841943309 -0.0037418135908 -0.0015340724494 -0.001639745431 -0.0018488182686 -0.0018697825726 -0.001680467627 
-0.0011644240003 -0.00061428901972 -0.00019125740801 0.00013949681306 0.00034528502147 0.00067679031054 0.0015473716194 0.0020759829786 0.0026891606394 
0.0036964209285 0.0044568320736 0.0043396935798 0.0027201820631 0.00067703664536 -0.00082621863112 -0.0027290645521 -0.0017375394236 -0.00043805432506 
0.00057118583936 0.0011109064799 0.0013302000007 0.0015635458985 0.0016765298788 0.0017155210953 -0.0022719250992 0.0011061492842 0.00062754901592 
0.00030578620499 -4.1630257329e-05 -0.0012357276864 -0.0017404144164 -0.00071106129326 -0.00067787017906 0.00017406391271 0.00057023193222 0.00042933048098 
0.0005237981095 0.00045452400809 0.00076642923523 0.0013882846106 0.0016517214244 0.0016529486747 0.0012734336779 0.00060927151935 -0.00019426720974 
-0.00068941782229 -0.00083093019202 0.00019083829829 0.00080242485274 0.0014582801377 0.0015825271839 0.0012983485358 0.00018327290309 -0.00059194548521 
-0.00082161772298 -0.0011927762534 -0.0015429457417 -0.0013334011892 -0.0009176369058 -0.00053507363191 -0.00017124152509 7.9566394561e-05 0.0001528790599 
0.00018619318143 0.00019015745784 0.00010616051441 -6.8532855948e-05 -5.6822096667e-05 4.2250821934e-06 5.7934466895e-05 -6.5438063757e-05 -0.00038345417124 
-0.00083528045798 -0.0012800147524 0.00076729478315 0.00069611170329 0.0013668590691 0.0015187865356 0.0015822433634 0.0011690094834 0.00093399884645 
0.0010719047859 0.0015632133 0.0022401819006 0.0028359317221 0.0018552084221 0.0012243245728 0.00080240680836 -0.0017220519949 -0.0020101475529 
-0.0018681717338 -0.0015028518392 -0.00078930048039 -0.0014376273612 -0.0020101186819 -0.00051356083713 -7.945154357e-05 0.00046308521996 0.00081204390153 
0.0010169498855 0.0012573386775 0.00089928304078 0.00028707794263 0.00061607314274 1.7161837604e-05 0.00025906172232 0.00057353178272 -7.1742317232e-05 
0.0001784566266 0.00052103417693 0.00050862669013 0.00047025331878 0.00042021574336 0.00067766569555 0.00081530137686 0.0012387672905 0.0010206943844 
0.0010920878267 0.00154653145 0.00096295156982 0.0011818975909 0.0025415681303 0.0028716011439 0.0023114774376 0.0013861763291 0.00041132274782 
-0.00069256487768 -0.00093664985616 -0.00086863368051 -0.00068014545832 -0.00039335730253 -6.8942317739e-05 0.00012122220505 -0.00052332732594 -0.00045401614625 
-0.00030954903923 -0.00088664208306 0.0011017693905 0.0014739648905 0.0014095980441 0.0012087041978 0.00075234490214 -9.0940542577e-05 -0.0010205336148 
-0.0016533412272 -0.0019385750638 -0.0011158778798 -0.0023533885833 -0.001579769305 -0.00041248704656 0.00058746128343 0.0011005346896 0.0013798152795 
0.0016026117373 0.0016628965968 -0.0012413994409 -0.00079410220496 -0.00046896885033 9.5529912869e-06 0.00036659376929 -0.001166033675 -0.00097152584931 
-0.00054515607189 -7.6290916695e-06 0.0001034704037 0.00031059252797 0.00018756803183 -0.00024428320467 -0.0002941499406 -9.4528681075e-05 0.00021009150078 
0.00070977868745 0.0016357974382 0.0029664295726 -0.0033019031398 -0.0035465175752 -0.0040000844747 -0.0029222001322 -0.0039062215947 0.0024619144388 
-0.00011310616537 -0.00048522025463 -0.0027265632525 -0.0013235079823 0.0039149522781 -0.00052508432418 -0.00023183743178 -0.00049826584291 -0.00043589141569 
0.0040770070627 -0.00053630536422 0.0014728158712 0.001235199743 0.0017430152511 0.0023965744767 0.0021893384401 -0.00085654680151 -0.0015822270652 
-0.0011354119051 0.0011115582893 0.0016395046841 0.0014731680276 -0.00044378064922 0.00027955599944 0.00015508661454 0.00013258177205 4.7771241952e-05 
0.0012709469302 0.00084614939988 -9.8201217043e-06 -0.00092033582041 -0.0016351594822 0.0065403110348 0.0065263155848 0.0062091480941 0.00596570177 
0.0067959516309 0.0067184334621 -0.00092466647038 -0.00099700922146 -0.00065594963962 -0.003615569789 -0.0023387933616 0.0016762776067 0.00031875603599 
0.000787516532 0.0017496686196 0.0012988313101 0.00096618104726 -0.00048223658814 -8.142630395e-05 0.00015876324323 0.00032383424696 0.00020890434098 
0.00021469641069 -0.00048379137297 -0.00016028621758 0.0029144398868 0.001854077098 0.00023760957993 -6.3218118157e-05 -0.00039945519529 3.7119851186e-05 
0.0003209374845 0.00041250433424 
Stress_XZ 1 1064 double
-0.005154856015 -0.0061856824905 -0.0055444156751 -0.0021770366002 -0.0032342222985 -0.001098755165 0.0020675035194 0.0025067212991 0.0029215372633 
0.0031963591464 0.0032807246316 0.0031275490765 0.0023798421025 0.0019370373338 0.0014555760426 0.0011527071474 0.00044080225052 -0.00036692313734 
-0.00059400760802 -0.0028418423608 -0.0031071908306 -0.0031412667595 -0.0029182799626 -0.0027537683491 -0.0014353854349 -0.00010233199282 0.0014733505668 
0.002010521479 0.0020602741279 0.0017350328853 0.0015242415247 0.0010323477909 0.00053572532488 0.00048624663032 0.00076114927651 0.00094194884878 
0.0014407869894 0.0010855525034 7.0812144259e-05 -0.0013994363835 -0.0026928288862 -0.004439283628 0.0019876840524 0.0026965779252 0.0034010654781 
0.0032146412414 0.0026697977446 0.0020381989889 0.0015178029425 0.0013745818287 0.001623878954 0.0018610393163 0.0018656406319 0.0026811358985 
0.0037207095884 0.0048567187041 0.0055715874769 0.0058911973611 0.0050140568055 0.0026532465126 -0.001058715512 -0.0042924811132 -0.0055921538733 
-0.0052506006323 -0.0043129855767 -0.0040443995968 -0.0032902921084 -0.0031205168925 -0.0032772864215 -0.0034897532314 -0.0034848370124 -0.0033572695684 
-0.0030045849271 -0.0015812969068 0.00096038501943 0.0050366511568 0.0062824795023 0.0058006360196 0.0043948427774 0.0023310382385 0.0017948540626 
0.0014780031051 0.00066831329605 0.00047380416072 0.0013136368943 0.0032901917584 0.0053927064873 0.0039896089584 0.0028545130044 0.0023170395289 
0.0010313111125 -0.00096626864979 -0.0027752760798 -0.0046872384846 -0.0062612388283 -0.0065717827529 -0.0058950236998 -0.004024786409 -0.0014852557797 
0.00068898533937 -0.010396361351 -0.0089265918359 -0.0066012134776 -0.004606094677 -0.0015156064183 0.0011198208667 0.0026537405793 0.004490822088 
0.0057411920279 0.0055786613375 0.0042331474833 0.003065388184 0.0023087784648 0.0016871583648 0.00026090806932 -0.0016525910469 -0.0034507540986 
-0.0049334205687 -0.0049097426236 -0.0049012191594 -0.0053134215996 -0.0058671105653 -0.0054202363826 -0.0033638319001 -0.00058537250152 0.0020064185373 
0.0027284871321 0.0028817658313 0.0032042874955 0.0035571120679 0.0036528864875 0.0034914682619 0.0029288863298 0.0018736770144 0.00012657171465 
-0.0015402775025 -0.0026473721955 -0.0030337257776 -0.0043155872263 -0.0064329481684 -0.0095357941464 -0.011409235187 -0.0010026278906 -0.00029117218219 
0.00087865750538 0.002260184614 0.0031060860492 0.0036412717309 0.0039441674016 0.0042498768307 0.0049212086014 0.0056780707091 0.0066132824868 
0.0065728551708 0.0058836201206 0.005648328457 0.0051365895197 0.0036786671262 0.0017196938861 -3.1688046874e-05 -0.0020605304744 -0.0048152310774 
-0.0069567640312 -0.0071177813224 -0.006874374114 -0.0051660975441 -0.0060653793626 -0.0064911087975 -0.0055192229338 -0.0035440649372 -0.0015774501953 
4.147439904e-05 0.0018763238331 0.0033275685273 0.0041699991561 0.005958891008 0.0056954999454 0.0048772576265 0.0044861868955 0.0044052568264 
0.0051950314082 0.0063957977109 0.0071859261952 0.0067328959703 0.0047888625413 0.0025892967824 1.4269837266e-05 -0.0019699675031 -0.0036501123104 
-0.0051720151678 -0.0063632484525 -0.0073819551617 -0.0087790656835 -0.0095765981823 -0.0098061840981 -0.0086995344609 -0.0065221884288 -0.0039381235838 
-0.002275648294 -0.0055316938087 -0.007390385028 -0.0027035626117 0.0013138386421 0.0045163123868 0.0072232736275 0.0089340675622 0.009544102475 
0.0088356574997 0.0068839690648 0.0050678523257 0.0040203826502 0.0030140718445 0.0013773133978 -0.00083311228082 -0.0031350033823 -0.0050696092658 
-0.0060450695455 -0.0061589539982 -0.0061260834336 -0.006171955727 -0.0051230746321 0.00068911578273 0.0027890494093 0.0041133030318 0.0052101565525 
0.0063408464193 0.0073349918239 0.007867638953 0.0076669696718 0.0067481556907 0.0049734134227 0.0023465491831 -0.00082234566798 -0.0041510662995 
-0.0060814609751 -0.0074936137535 -0.0095323910937 -0.012523805723 -0.014050032943 -0.013184458017 -0.0015158907045 -0.0024821567349 -0.0082032661885 
-0.0078655732796 -0.0082658771425 -0.0078571876511 -0.0065019405447 -0.0050441571511 -0.0031392124947 -0.0010152739706 0.00095113791758 0.0035341887269 
0.0051677641459 0.0061548599042 0.0067637693137 0.0078038726933 0.0088254734874 0.0093097714707 0.0095871686935 0.009258646518 0.0083657447249 
0.006586227566 0.0043782875873 0.0015937961871 -0.0006906169001 -0.0027544815093 -0.0047970912419 -0.0064602503553 -0.0077264681458 -0.0090506924316 
-0.0097285918891 -0.0098713571206 -0.0091758137569 -0.0077967206016 -0.0058967922814 -0.0040839719586 -0.002409532899 -0.00055846571922 0.0014454438351 
0.0035466069821 0.0052414671518 0.0061802938581 0.0067519210279 0.0073244636878 0.0079763391986 0.0084541477263 0.0089248614386 0.0082519128919 
0.0071700531989 0.0062222927809 0.0048488634638 0.0029204699676 0.0012532672845 -0.00049253727775 -0.002782787662 -0.0053480006754 -0.0075026703998 
-0.0085104759783 -0.0090508256108 -0.0091346222907 -0.0088274795562 -0.0075070313178 -0.0081246495247 0.0028499562759 0.0016585610574 -0.00091400597012 
5.8560890466e-05 0.0013687696774 0.0029655238613 0.0043603894301 0.0058087520301 0.0073837861419 0.0087972125039 0.0097203589976 0.0097314706072 
0.00852971524 0.0062675266527 0.0032510247547 -0.00044162484119 -0.0036794643383 -0.008837477304 -0.010611010715 -0.011986471713 -0.011181215756 
-0.010966238566 -0.0010650128825 0.0022763004526 0.0054483036511 0.0084715280682 0.010789393447 0.011731688865 0.010833410546 0.0087692001835 
0.0068624843843 0.0054230289534 0.0038804467767 0.0020626871847 -0.00010097112681 -0.0024657093454 -0.0046163303778 -0.0061853714287 -0.0068029467948 
-0.0063776494935 -0.006168177817 -0.0051643494517 -0.0029055369087 -0.0018715391634 -0.0015288818395 -0.00056371686514 -0.0034675057977 -0.0046054753475 
-0.0069276713766 -0.0048076598905 -0.0070484662428 -0.0059667360038 -0.0048403646797 -0.0035049060825 -0.0019688198809 -0.00062569393776 0.0002559380664 
0.00045751873404 0.0015388098545 0.0022324209567 0.0034067521337 0.0050518158823 0.0063590984792 0.0073929782957 0.0086927087978 0.0096436263993 
0.0097397277132 0.0090591302142 0.0083421692252 0.0077104154043 0.0062995892949 0.0046178591438 0.0023390941788 0.00021688637207 -0.0017475001514 
-0.0038291134406 -0.0057837623172 -0.0073904762976 -0.0086052641273 -0.0091727748513 -0.0093083204702 -0.0089264661074 -0.0077617298812 -0.0061344555579 
-0.0045059230179 -0.0027575474232 -0.00062098004855 0.0019848709926 0.0045276596211 0.0064621758647 0.0074803591706 0.0082495836541 0.0088294250891 
0.0094134937972 0.0094835264608 0.008941533044 0.0080787399784 0.0069773946889 0.0058204745874 0.0044056554325 0.00046996716992 -0.001034521265 
-0.0030775931664 -0.0053219394758 -0.0071668503806 -0.0085880924016 -0.0094741238281 -0.0094661125913 -0.0085933571681 -0.0074018966407 -0.0062184897251 
-0.0062214559875 -0.00561384717 -0.0052261222154 -0.0047046286054 -0.0037007406354 -0.0025277801324 -0.008554155007 -0.0076055275276 -0.0063780057244 
-0.0048714322038 -0.0050976504572 -0.0048410235904 -0.0045082918368 -0.0043414481916 -0.004178928677 -0.0036106649786 -0.0027408683673 0.00182248489 
0.0030346896965 0.00051650637761 0.0017200547736 0.0031541783828 0.0046633956954 0.0062637296505 0.008113367483 0.0099025405943 0.011024479754 
0.011050618254 0.0098749427125 0.0077167362906 0.0046924110502 0.0013104064856 -0.0012947221985 -0.0021164899226 -0.0016208821908 -0.0039804871194 
-0.005915759597 -0.0075174910016 -0.0084613738582 -0.0088608022779 -0.0073384009302 -0.0067140781321 -0.0063872602768 -0.0059773405083 -0.0053016031161 
-0.004687578883 -0.0038405426312 -0.0027616575826 -0.00061084801564 0.0022182920948 0.0052443118766 0.0081785898656 0.010997705162 0.013055158779 
0.012693396769 0.010282210074 0.0082564782351 0.0066792173311 0.002103228122 9.9375436548e-05 -0.0023499524686 -0.0047895442694 -0.006551487837 
-0.007366431877 -0.007034514565 -0.006583281327 -0.0059575559571 -0.0046119149774 -0.00366575527 -0.0030360999517 -0.0016804067418 -0.0013328734785 
-0.00066550250631 0.003954895772 0.0051570273936 -0.00040902427281 -0.00022040317708 0.00053540611407 0.0013862771448 0.0023904279806 0.0035803657956 
0.0048459786922 0.0060671144165 0.0071185212582 0.0079366564751 0.0080211386085 0.0075315837748 0.0070049087517 0.0067711602896 0.006889263168 
0.0060334582813 0.0047139464878 0.0026865357067 0.00066486577271 -0.0011300652986 -0.0029208729975 -0.0047739655711 -0.0063346931711 -0.0074867941439 
-0.0080797644332 -0.0081492234021 -0.0078237429261 -0.00679681357 -0.003484987421 -0.001876170747 0.0003375732922 0.0031473424751 0.0056037050672 
0.0072158267722 0.0082317711785 0.0091853607446 0.010016108863 0.010148656555 0.0096007436514 0.008450246416 0.0073214103468 0.0062299445271 
0.0051506557502 0.0041810749099 0.0034368659835 0.0026685064659 0.0017566067399 0.00081360759214 -0.00011925816216 -0.0017166330945 -0.0034843678586 
-0.0055170287378 -0.0074213668704 -0.0088730398566 -0.0046337726526 -0.0046292729676 -0.0012265860569 -0.00085307308473 -0.00041832900024 3.9668124373e-05 
0.00048734320444 0.0012250880245 0.0021099634469 0.0030454401858 0.0041957278736 0.0052331849001 0.0059275757521 0.0061698216014 0.0059048407711 
0.0055689080618 0.005307384301 0.0055225789547 0.0058306874707 0.0053731515072 0.0047363243066 0.0028680891264 0.00092835928081 -0.00067057390697 
-0.0020879923832 -0.0034914698917 -0.0048571848311 -0.0058878413402 -0.0064982031472 -0.0064615248702 -0.006023245398 -0.0051223426126 -0.0040321210399 
-0.0028445385396 -0.0028138894122 -0.0024626906961 -0.0015864626039 -0.00012600471382 0.0019230524777 0.0042379833758 0.0062138587236 0.0075362282805 
0.0084618153051 0.0090829236433 0.0096861505881 0.0094937374815 0.0090148411691 0.0079354504123 0.0067662210204 0.0056759188883 0.0046659591608 
0.0038911160082 0.0034945025109 0.0030920731369 0.0020349759143 0.00076665403321 0.00012635914027 -0.00059572438477 -0.0021653326694 -0.0041420874186 
-0.0060152076185 -0.0079148355871 -0.0088998805732 0.00046306088916 0.0017161248252 0.0031660075765 0.0046848598868 0.0063006337732 0.0081654908136 
0.010077561252 0.011571409181 0.012053601444 0.01113425754 0.0091196233407 0.006353570614 0.0034802034497 0.0012381477281 0.00022107899713 
0.00051478284877 0.0014435177436 -0.00068828690564 -0.0027163971681 -0.0043137515895 -0.005712879356 -0.0069867027923 -0.0073835318908 -0.0059870379046 
-0.0048600872979 -0.0042924592271 -0.0042272931896 -0.0041172159836 -0.0037856269628 -0.0033471225761 -0.0024944341276 -0.00071076425957 0.0021039173007 
0.0050669200718 0.0078107146546 0.01045682095 0.012848851271 0.013002301566 0.0106809875 0.008583358489 0.0069293654524 0.0050448118709 
0.0030889753252 0.0030409439933 0.0028826566413 0.0015719454968 -0.00055257504573 -0.003089627251 -0.0055834264494 -0.0072171487845 -0.0081326588988 
-0.0079708192497 -0.0073121585883 -0.0071129268035 -0.0064666974358 -0.0053056143224 -0.0044628521428 -0.0034612533636 -0.0028937656898 -0.0018157523591 
-0.0011571130017 -0.00046574088628 0.0014371933648 0.0024850200862 0.003544858424 0.0044044191018 0.0048237275332 0.0049205911346 0.0049599865451 
0.0050663128495 0.0049434565008 0.0050727897324 0.0048047578894 0.0044057685882 0.0029360109475 0.0011889790185 -0.00016979998327 -0.0013471652055 
-0.0025092423894 -0.0035274317488 -0.004337167833 -0.0048929825425 -0.0050928578712 -0.004894384183 -0.004634657409 -0.0039340597577 -0.0031304678414 
-0.0023917627987 -0.0019750371575 -0.0014580270508 -0.00078496022616 0.00012665602844 0.0014895504573 0.0032178694382 0.0049468264915 0.0065514780581 
0.0078081442043 0.0082422224805 0.008281330578 0.0083876308054 0.0086839376017 0.0077245710418 0.0065806657076 0.0054402579553 0.0043781707063 
0.0057840179652 0.0055686286651 0.004108121153 0.0038567385636 0.0027694434393 0.0012514406117 -1.7629316062e-05 -0.00068408204243 0.00049521500478 
0.0016768081114 0.003041212447 0.0044602700509 0.0059929839335 0.0077728074975 0.009623340331 0.01139854081 0.012549350038 0.012176964432 
0.010245084763 0.0079121729359 0.0054559437558 0.0034804623574 0.0035821162164 0.0039975414984 0.0019610312302 1.1666148566e-05 -0.00173885189 
-0.0031129822601 -0.0043330336921 -0.0054920413531 -0.0055765165016 -0.0043213339522 -0.0031250240281 -0.0025501342025 -0.0027649633121 -0.002843713155 
-0.0027021367569 -0.0024762649555 -0.0018430715427 -0.00030837822123 0.0024142656475 0.005429438781 0.0081952363253 0.0099728517234 0.011529456824 
0.011603418738 0.0095890099183 0.0075865015388 0.0060573462397 0.0046117575839 0.003032696899 0.0014846760314 0.0012778792297 0.0010591680184 
0.00077014236012 0.00026476118364 -0.0013016335433 -0.0040447711945 -0.006301773712 -0.0075634601526 -0.0080332448706 -0.0078680207953 -0.0074510867707 
-0.0071998252533 -0.0065830592066 -0.006093504373 -0.0056403209455 -0.0050884047523 -0.0041977600195 -0.002978191711 -0.0012319780653 -0.007965776138 
-0.0076181348413 -0.0065260198899 -0.0051605212502 -0.0057802954689 -0.0040020388551 -0.0037926558871 -0.0037745255977 -0.003731806064 -0.0032448533457 
-0.0034039465245 -0.0030533159152 -0.0022679276299 -0.0016031037085 -0.00089310092153 -0.00017055215721 0.00011422786338 0.00035327373189 0.00081694324035 
0.0017975125229 0.0030719067436 0.0043646888807 0.005715385545 0.0073062167503 0.0089198919013 0.010600879788 0.012181007303 0.012450004928 
0.010644610971 0.0088604437187 0.0070546218194 0.0056049800478 0.0042058508843 0.0030696648173 0.0018832719652 0.00046866133926 -0.0010493695736 
-0.0024466107134 -0.0032722777687 -0.004037541803 -0.0042020073161 -0.003427142743 -0.0027168598026 -0.0014993040822 -0.0015515865525 -0.0015626635868 
-0.0012350830948 -0.00058129848912 0.00080042635091 0.0032659957651 0.0059458795004 0.0077045382932 0.0098443878815 0.0094228219241 0.0077822520398 
0.0061527998187 0.0049651493318 0.0040129306726 0.0028444160707 0.0016063372605 0.00067614408908 0.0089426375926 -0.0016786915949 -0.0021345783025 
0.0094211772084 0.0084262145683 -0.0023074094206 -0.0040851477534 -0.0058449874632 -0.0072320760228 -0.0070965336636 -0.0063323606737 -0.006205283571 
-0.0068044308573 0.0017222921597 0.0029174110387 0.0036120561417 0.003913231194 0.0042131445371 0.0045774499886 0.0048916074447 0.0053857080638 
0.0058128847741 0.0065439809114 0.0066591114737 0.0059431293048 0.0057839392684 0.004726939369 0.0041976710781 0.0030145440251 0.0014454756165 
6.7778878474e-06 -0.00098516023718 -0.0018685470568 -0.002802121453 -0.0036680735648 -0.0043412814848 -0.004724629689 -0.0047625401057 -0.0045243562199 
-0.0043159388006 -0.0035923044197 -0.0028243048582 -0.0016655708896 -0.0011222835165 -0.00041676303954 0.000236567299 0.0010046137031 0.0022647054866 
0.0036781663075 0.0050109373406 -0.0068883136846 -0.0023884533439 -0.0015571367694 -0.0007545336266 0.00030284860986 -0.00028210008168 -0.00043766235467 
-0.00092457671417 -0.00089498324087 -0.0017694761045 -0.0036838552915 -0.0054289349355 -0.0066358470358 -0.0068335602991 0.0063282595947 0.007374772802 
0.0079074371606 0.0078165596351 0.0075365910307 0.0079454090446 0.0090569853783 0.0094825094566 0.0092592351139 0.0089726587757 0.0078622382134 
0.0065352050588 0.0052745547146 -0.0065919486806 -0.0051042954437 0.005098734051 0.0049044932239 0.0036837374792 0.0026028139982 -0.002058632439 
-0.0036427376326 -0.0050184447318 -0.0061991317198 -0.0063403691165 -0.0064298990183 -0.0038573788479 -0.0033152110409 -0.0029028428253 -0.0026790557895 
-0.0027927733026 0.00078299688175 0.001148377778 0.005801640451 0.0046818205155 0.0037450406235 0.0025340460707 0.0011366399704 3.5914086766e-05 
-0.00052719237283 -0.0011904473649 -0.002199488692 -0.0032249134965 -0.0039965915494 -0.0044540441595 -0.0040385969914 -0.00015138869639 0.00046194915194 
0.0009953310946 0.001954180887 0.0021830815822 0.0028497190215 0.003153963713 0.0036449164618 0.004407112021 0.005384601187 0.0062230615877 
0.0065721967258 0.0077314339578 0.0012597010937 0.0083529055119 0.0077305380255 0.0063552469946 0.0049230121076 0.0040047275834 0.0032992411871 
0.0026231862139 0.0017223212635 0.0004545362608 0.0092368749902 0.0089615127072 0.0080621270463 0.00661897799 -0.00067546381615 -0.0019074121956 
-0.0024358555675 -0.0036709918641 -0.0033046763856 -0.0030595369171 -0.0028845306952 -0.0033263084479 -0.0025508282706 -0.0014643335016 -0.00082264293451 
-0.00053740071598 -0.00039912378998 6.1498685682e-05 0.0067238649353 0.0078504001722 0.0083497911692 0.0084226634353 0.010095032863 -0.0021181304473 
0.0022806935012 0.0033880053088 0.011611836962 0.010013269261 0.0010476717725 0.0045232693665 0.0060515147634 0.0056572603062 0.0068779354915 
0.0024748793803 0.0081229442731 -0.0011390710715 -0.0012817954412 -0.0019062859938 -0.0019784383476 -0.0027549518272 0.0095350258052 0.011030110531 
0.0095861423761 -0.0020654571708 0.0021619331092 0.0028076253366 -0.0016185340937 -0.0036847360898 -0.0036404924467 -0.0033780629747 -0.0038661912549 
0.0032566869631 0.0040127234533 0.0051486794837 0.0063922908157 0.0072593474761 -0.0099624153227 -0.0078393947333 -0.0059296619147 -0.011090564542 
-0.0082177305594 -0.0053589250892 -0.001418398344 -0.00062484591035 -0.0015669837594 0.0020822929218 0.005515940953 -0.00038007239345 0.00061538128648 
0.00093389215181 -0.00084846600657 -0.0013059114572 0.00089244521223 -0.00086339982226 -0.0020713780541 -0.0046277563088 -0.0044227829203 -0.0046021584421 
-0.0041715884581 0.0085226278752 0.0071589532308 0.0041939173825 0.00561033329 -0.0037085667718 -0.0034418459982 -0.0028111636639 -0.0036426386796 
-0.0040346579626 -0.0041656880639 
POINT_DATA 1114
FIELD FieldData 31
Circ_Strain_Pt 1 1114 double
0.94436204061 0.96975952108 0.97891380056 0.95714596977 1.0037972188 0.99714778596 1.0202539095 1.0094951228 1.0085436282 
0.99466477553 0.97752218679 0.96648407351 0.94842050285 0.92938213944 0.92707611325 0.90348036222 0.92786777029 0.9142517484 
0.95758073738 0.95499901292 1.011007433 1.0022081752 1.0615538747 1.0450745892 1.0762835921 1.046708687 1.0544878365 
1.0429204631 1.0524590808 1.0437989688 1.031543028 1.0100358129 1.0293333625 1.0053966311 1.0370791896 1.0170281891 
1.0291150259 1.02402589 1.0228477276 1.0297229423 1.0251416021 1.0290168068 1.0386772169 1.0296435429 1.0463116461 
1.0343094138 1.0485890643 1.0386359055 1.040328383 1.0385701369 1.0125387403 1.0153546822 0.98324640204 0.98709169486 
0.9569209315 0.95110461815 0.93904437679 0.93123665378 0.93331055988 0.93225200175 0.94199604654 0.94243732143 0.9632605445 
0.95539536334 0.97356568118 0.96538081297 0.98231341892 0.97128266759 0.99312097466 0.9813340286 1.0043758072 0.98006596823 
0.99943827205 0.99014500005 1.0209515989 0.99512445004 1.0175782343 0.98064374144 0.99430170757 0.97914508796 0.97226940217 
0.97582701828 0.95739605738 0.95886355205 0.95987565427 0.95933133293 0.95061931724 0.95187861757 0.96384714825 0.95513720819 
0.9830741455 0.97703822656 0.99828624528 1.0010319493 1.0099650448 1.0303187609 1.0147946526 1.0256865652 1.0199856013 
1.0218505534 1.0263464749 1.0238736388 1.0202270916 1.0181724546 1.0109324831 1.0077824656 0.99969891053 0.99798296958 
0.97999861994 0.98351404704 0.96932105941 0.96968224588 0.96786079427 0.96953245913 0.96698732378 0.97119195565 0.96409767923 
0.96352952105 0.96143375082 0.94556702965 0.96577874784 0.95273184697 0.96891314071 0.96423659913 0.97513765184 0.97836679514 
1.002000841 0.99693867198 1.0245810631 1.015739169 1.0445966569 1.0333126809 1.0631517631 1.0401199229 1.0613837889 
1.0465559117 1.0466471917 1.0341492047 1.0108587884 1.0121041 0.98112478479 0.98860368708 0.9601507925 0.97016805391 
0.95758936503 0.95850566301 0.96169512423 0.95110430244 0.97278944466 0.95990299943 0.96481023685 0.96805603233 0.93735605383 
0.96084977244 0.95309610811 0.97237220193 0.97511589708 0.98348838672 0.99172632651 0.99369855814 1.0020438637 1.0027015978 
1.0072588621 1.0087128672 0.99597081232 0.99961612581 0.98280049018 0.98607131272 0.96666551926 0.96858532624 0.95606020423 
0.9562261289 0.94846260786 0.94845310067 0.95662317005 0.96725856392 0.96793803059 0.98179216919 0.98614073624 0.99620626258 
1.0029833365 1.0115556402 1.0187037442 1.027623327 1.0173551099 1.0313135432 1.0120116464 1.02575057 1.0149417937 
1.0262064568 1.0175022761 1.0270414061 1.0190227889 1.0274985879 1.0178387102 1.0221591061 1.0139033153 1.0062963326 
0.99057509599 0.97909200926 0.98625262286 0.97091836198 1.0000136103 0.99906849251 0.96077254985 0.91112518558 0.89080815269 
0.90575642617 0.93952371471 0.98112711389 1.0114558456 1.0201201233 1.0273045761 1.0173411166 1.0005530352 0.98917407015 
0.99314311547 1.010344267 1.0235900493 1.024161305 1.0278245877 1.0310670349 1.0337842275 1.0376255352 1.0216246714 
0.99116785836 0.95687086515 0.93787752434 0.93374429346 0.9381481694 0.94581769288 0.95436468395 0.96639166664 0.96497146446 
0.96817588551 0.97287040334 0.97058686377 0.95044622356 0.96269642712 0.96752065012 0.96714685387 0.95885345361 0.93759304709 
0.93100496417 0.95425755255 0.98378602531 1.0160099351 1.0347274668 1.0319681775 1.0198297055 1.0184374872 1.0003201679 
0.98645880395 0.97918356299 0.97266100801 0.96553180173 0.96326647304 0.95505759216 0.95245595693 0.95132014159 0.96283028123 
0.97933371437 0.99262598891 1.0033898145 1.014682826 1.019903476 1.0382109522 1.0393215558 1.0195253085 0.99929930364 
0.98004106308 0.96723446804 0.95837679285 0.96801949259 0.98589850071 0.98287002777 0.984098137 0.98377716054 0.98758871044 
0.99920875394 1.0078403865 1.0003871754 0.98445859614 0.96795105493 0.95719138479 0.95174002708 0.96749951422 0.98500889903 
0.99213071904 1.0044743226 1.0344540566 1.0424539899 1.0378370569 1.0321099777 1.031772392 1.0360736279 1.0234632151 
1.0044845995 0.9683256235 0.94089975169 1.0328894366 1.0077916383 0.96145234809 0.9924337965 0.92481903523 0.89643643587 
0.89840537166 0.92274961927 0.96072895213 0.99025691209 0.99806615525 1.0083109398 0.99670528386 0.99079769924 0.98526326558 
0.97599425351 0.98630006422 1.001875847 1.009744308 1.0173544595 1.0223498322 1.0262430087 1.0373510212 0.99990526567 
1.026745064 0.96378704702 0.9430133434 0.93902320666 0.93720314423 0.94039152583 0.95122176773 0.96141732875 0.95751816528 
0.95611766769 0.95572318448 0.94747168719 0.94507271325 0.9499757085 0.95317164321 0.95940944805 0.95656186726 0.96620327905 
0.97870251477 1.0441239687 1.0436117393 1.025646887 1.008937728 1.0187634399 1.0045643277 0.99208712566 0.98108605006 
0.9749558632 0.98093807625 0.99730326111 0.9836837466 0.9891107321 0.98533138539 0.98953663293 0.99470444762 0.99904195387 
0.99217773062 0.97637147955 0.95656137355 0.95046006492 0.95605647295 0.97138529012 0.97791480515 0.97603754818 0.99215445291 
1.0132763078 1.033334674 1.045640649 1.0393389535 1.0344683533 1.0268474605 1.0074603737 0.97833466099 0.94202512462 
0.91484800102 0.90905053814 0.92368966861 0.95209039174 0.98299733959 1.0195485968 1.0345673703 1.0301508431 1.0190278704 
1.0026332194 0.99012614844 0.98153922005 0.9777341702 0.97625995984 0.97276385949 0.96406776765 0.94924736109 0.94553590274 
0.95196580982 0.96311276005 0.97914771833 0.9934208003 1.0040387874 1.0042264715 1.0019827047 0.99592804207 0.98644388812 
1.0168731151 0.98283093756 0.99752948275 1.01107281 1.0407725668 1.0390733792 1.013390326 0.98136530728 0.95482852778 
0.94755779189 0.94770539057 0.95418933868 0.95207785827 0.96005129425 0.95723685518 0.95553616417 0.95648623817 0.94749956174 
0.93780933484 0.94079364769 0.94885503798 0.94714031172 0.95208829654 0.95766141344 0.96306557951 0.97350110101 0.95126003939 
0.97863723313 0.92439165339 0.90420689452 0.90482604473 0.92530398049 0.95194088533 0.9737733388 0.98649714137 0.99162099568 
0.98552714742 0.98849208099 0.9757010725 0.96814557109 0.96955699796 0.98156021396 0.99517902589 1.0049258122 1.0063134426 
1.0067541282 1.0258287595 1.0275741562 1.02227521 1.0324268327 1.0211257463 1.0221438626 0.99852954543 0.98774278774 
0.98848375205 0.98278328528 0.95537611449 0.95257996912 1.0069166619 0.99874213814 0.99140055603 0.98716894711 0.99103446403 
0.99974885312 1.0161603649 1.0245044905 1.0319118687 1.0111186711 0.99552463958 0.99218848512 0.98487571476 0.98068326259 
0.98904443977 0.99106252391 0.975008575 0.95589307212 0.9494649129 0.95328418325 0.9623308381 0.97857221208 0.98866129637 
0.99658762402 1.0192372363 1.0461228812 1.052133886 1.049242475 1.0420884367 1.0303343125 1.0110094926 0.97987447954 
0.93859158059 0.90732159238 0.89324591104 0.90825704208 0.93169228554 0.96185339551 0.98898084176 1.0153452967 1.0242905747 
1.0225570944 1.0067662186 0.99095992871 0.97717543108 0.96973150508 0.97035624915 0.97406543333 0.97909420256 0.97493775711 
0.97107246679 0.95787903262 0.94720031583 0.9696313029 0.98181605272 0.98817226555 0.99522647893 0.99807753543 0.99041470617 
0.97337691318 0.96288749527 0.96128669751 0.99013553838 0.95509269216 1.0081199602 1.0138611716 1.0020382351 0.99149152719 
0.99456607876 0.99967444101 0.94315260711 0.95639317103 0.9295746183 0.93869799042 0.96935718705 0.93150248554 0.98819350907 
1.0008409631 1.0017375036 0.99161831574 0.98709884825 0.98701652757 1.0093778259 0.95617958253 0.96939936748 1.0039667167 
0.98322991657 0.96685642971 0.95189242948 0.95668098711 0.96530160886 0.96779482047 0.96556631141 0.9630903495 0.96642415072 
0.97381276179 0.96196179768 0.94987755463 0.95022345482 0.95295315386 0.9624897143 0.96249199719 0.96769363337 0.97232412588 
0.95846424404 0.95798478963 0.96957351387 0.97942492459 0.98414314996 0.98188648213 0.9847491213 0.98626282096 0.98191632576 
0.98065612609 0.9786753748 0.97817663942 0.97295948704 0.95464386721 0.93497828986 0.91845651896 0.91092111637 0.91981569196 
0.93808951645 0.96127073228 0.97677574477 0.98504718118 0.99519246926 0.97741971556 0.99765785982 0.96769744799 0.96860905426 
0.96974854245 0.97921280414 0.98738808919 0.98650230117 0.98689408149 0.98787742681 0.999022441 0.99935701288 0.99841970996 
1.0205399881 1.0030022431 1.0261476899 1.0237570531 1.0108535484 1.0203909395 1.0283891002 1.0243410013 1.0434437289 
1.0517551496 1.0239588892 1.0122312047 0.99847335303 0.978182033 0.97335812649 0.9810677568 0.99211610189 0.9972619323 
0.97820321759 0.95760419956 0.94497031314 0.95002371892 0.97134235749 0.98989826617 0.98901398663 0.98732270375 1.0160345854 
1.0414635472 1.0485300224 1.0504568402 1.0453615499 1.0373751639 1.0232538817 0.99239610089 0.9460376299 0.90220524012 
0.90999702148 0.90038830675 0.92904029996 0.95121715262 0.98125983581 1.0060122897 1.0171853516 1.0135182517 1.0007418026 
0.97846984456 0.96191215607 0.95903131222 0.96623863657 0.97978298534 0.98457418122 0.98632555923 0.97999827782 0.98726865941 
0.9809739001 0.99671496028 0.96116724445 0.95556506729 0.96363608148 0.97516396873 0.9816239906 0.97711270017 0.97617050113 
0.88856713774 0.88587336989 1.0163743694 1.0531331633 1.0620409193 1.0530082928 1.052360396 1.0343973873 1.0102233774 
1.0005465342 0.98729609068 0.97674514449 0.96953426134 0.99221403764 1.0087271399 1.0015354139 0.98457763173 0.96307612516 
0.96622826064 0.98150760697 0.98244403549 0.98698761753 0.99550769577 1.0059636474 1.021816198 1.0372992117 1.0471931981 
1.0528694281 1.0474847432 1.0347229484 1.0048410142 0.97312985207 0.91964460588 0.9046895219 0.90274532824 0.90494558719 
0.90289246649 0.90575796696 0.91799589577 0.93608666506 0.95767987852 0.97939046091 1.0003600009 1.0064410733 1.0082757805 
1.0014351692 0.97645121722 0.95887432175 0.94804624264 0.9563418463 0.96870197182 0.98422513452 0.99402303339 1.00239766 
1.0026761701 1.0039794297 0.98962182183 0.97346738911 0.9630538428 0.96825237076 0.97650414092 0.9790302754 0.9638603215 
1.0094491276 0.98242543447 0.96182851068 0.95802796856 0.96431107207 0.97073048838 0.97185501341 0.97170098903 0.97488690061 
0.98067743826 0.97836759385 0.97009246053 0.96284704852 0.95889437241 0.95732620239 0.96455096828 0.96935600524 0.97224796003 
0.971731907 0.97430899677 0.98033993675 0.98098330756 0.98061304595 0.99307430587 1.0007282156 1.0015977383 0.99436469468 
0.98599693286 0.97938998497 0.97906956306 0.98101854482 0.97815085711 0.97007884871 0.95530232176 0.94072197727 0.92900553199 
0.92651339469 0.93780324733 0.95616618898 0.97045006674 0.98284239967 0.99562358564 1.023584945 1.046180143 1.0563502584 
1.0355208106 1.0126569197 0.9953760085 0.97903691223 0.96764993751 0.96720057022 0.96620473134 0.96429961772 0.96205546459 
0.96311978849 0.96443801394 0.9616258672 0.97599084048 0.98164143406 0.98794383375 1.0089094773 0.99621229471 1.017589209 
1.0229291366 1.0180645616 1.020302923 0.9806969095 0.98280318541 0.98848670366 1.0054701707 1.0211554891 1.0040590004 
0.98632519643 0.97593289908 0.96898372945 0.99212780767 0.98822149435 0.99104672048 0.99421367705 1.0022042303 1.014253435 
1.0385707531 1.0557627514 1.056526769 1.0502368399 1.0298672427 0.99942199246 0.95798951849 0.93101764417 0.93585617008 
0.92410244793 0.92686344554 0.94617112497 0.91488877002 0.92027604888 0.92997182497 0.94196081908 0.95762083043 0.97101283693 
0.98386634887 0.99568039964 0.99840378572 1.0017039334 0.99668727415 0.98667279057 0.94992054269 0.95331546001 0.96114826387 
0.9796509094 0.99693594069 0.98145925974 0.9730661866 0.98683269955 1.006761038 0.9905560058 1.0116966772 1.0032911538 
0.98402263963 0.99986109606 0.98093411765 0.96905738782 0.95954991676 0.96128915587 0.96512650487 0.97131608723 0.97955029841 
0.98933415029 0.98961263366 0.98490242453 0.97627296367 0.96818784851 0.96522408465 0.97662117 0.96974199827 0.97799245214 
0.97439723624 0.97635216842 0.98068091001 0.98407707825 0.98441877093 0.98810348181 0.99755804442 1.0104235315 1.0191566476 
1.0070374467 0.99678785201 0.98958850373 0.98696769651 0.98849162806 0.9880851884 0.98520499014 0.97784446595 0.96490229953 
0.94036870797 0.94050086424 0.94630744823 0.9565115646 0.97069605278 0.98310346667 1.0014245463 1.0303543317 1.0480800381 
1.063919613 1.0723335524 1.0549973829 1.0306133087 1.010831374 0.99572342536 0.98350066405 0.98050869735 0.9762121578 
0.9642640218 0.93730330017 0.94222181943 0.94756569025 0.94202324358 0.949046304 0.95022640227 0.96215654187 0.97443856787 
0.98669161667 1.0061370578 0.99869640219 1.0131226035 0.94131624415 0.92790444143 0.91844329947 0.92858172706 0.95369521518 
0.97229355824 0.98437318173 0.99107331693 0.98992845871 0.98522380208 0.99565263116 1.0081472433 1.0219227741 1.0608436535 
1.0717069892 1.07119232 1.0703886768 1.031989321 0.99618517892 1.0075321968 0.97363152554 0.95876603663 0.96017444684 
0.96297886586 0.97229507571 0.98078103722 0.98587056305 0.98683921708 0.99253690681 0.98362922973 0.98034205734 0.95638299683 
0.96497733 0.97352614517 0.96485290496 0.96606803215 0.97253238511 0.97775823006 0.98266102203 0.98470677839 0.99352140954 
1.0069172049 1.0178022298 1.0222601219 1.0098690838 1.026729882 0.99403560176 0.9869153087 0.98697434378 0.99579695943 
0.99883953232 0.98970160986 0.97799578927 0.96188223399 0.95969262045 0.95411391549 0.97065036325 0.97662903198 0.9868319302 
0.99641003375 1.0110652701 1.0422579298 1.0668148683 1.0333430812 1.0375879596 0.96462143153 0.97568208799 0.98210671091 
0.97702749885 0.96850908782 0.95445768531 0.93900887486 0.92484024635 0.92571488581 1.0220281823 1.0018958237 0.98256401047 
1.0018860832 1.0198319816 1.0182599341 1.0102136362 0.98997676435 0.97424620959 0.9798811415 0.98825200738 0.99322757094 
0.99554425275 0.99618053425 0.9952039984 0.99276031934 0.99874951224 1.0186017647 1.038434058 1.05324322 1.0556920753 
1.047800652 1.0320808736 0.99882651673 0.96691271521 0.94522052833 0.9471819862 0.96008907518 0.94948065052 0.95847698924 
0.94108529914 0.93038847576 0.93277137804 0.94055009 1.0060406159 1.0386427848 1.0551738941 1.0486087142 1.0377278156 
1.0256519716 0.99298501626 0.99772150025 0.99744003328 0.97588995932 0.96219039514 0.98741039642 0.98806200897 0.99280946785 
0.99320525888 0.99010076394 0.98326294278 0.96587260599 0.98187873925 0.96429249837 0.95833285475 0.95520889823 0.96035777248 
0.968592645 0.9635034714 0.97777764998 0.96676991421 1.0017881532 1.0133767157 0.99566813329 0.99801291245 1.0042314893 
1.0275448343 0.99521918996 1.0003720083 0.99804110983 0.99352784078 0.98782503652 0.99325470985 1.0128578013 1.0340662103 
1.0455024848 1.0484910813 1.0306569304 1.0156100449 0.96374983945 0.94745810828 0.9572679097 0.96109651765 0.94885402275 
0.99601171052 0.99565873338 1.001578382 1.0107305504 1.0074626044 0.99295129094 0.98162191211 0.97668094988 0.98279907836 
0.98955666019 0.99539176557 0.99145105499 0.99405927068 1.0145773223 1.0386907336 0.96481784733 0.96281770878 0.95965970793 
0.96985288226 0.9754835971 0.97038786615 1.0040109204 0.99330183285 1.019339817 1.0269486264 1.0371543213 0.97647355518 
0.95933376433 0.95706231883 0.9659409525 1.0143127582 0.9702486067 1.0101950713 0.98923596253 1.0260159648 0.9872584531 
0.99563606413 1.0042248925 1.0187568728 1.0150324036 0.96485702224 0.98859015684 0.98321017407 
Circumferential 3 1114 double
0.79358564266 -0.098704155666 -0.60039929832 0.68525854698 -0.10456992218 -0.7173956823 0.64441752524 -0.10376320717 -0.74991944892 
0.79095036529 -0.042612288592 -0.60736057163 0.45373711772 -0.13330052976 -0.86369045155 0.45738539554 -0.15936607994 -0.8625158899 
0.20679685355 -0.1547474061 -0.9555842885 0.21477221696 -0.22703515801 -0.94305348754 -6.5806296421e-05 -0.15092806195 -0.98372081087 
0.0047503129604 -0.25278999135 -0.96565152139 -0.15054955479 -0.126857535 -0.9794528459 -0.10430076932 -0.22750475351 -0.96736814031 
-0.24344611856 -0.110691781 -0.963484949 -0.21479123163 -0.16982378841 -0.95994482865 -0.3469497324 -0.13648253549 -0.92558559048 
-0.31225018302 -0.14752564286 -0.9377772803 -0.41282112405 -0.12852259355 -0.90105265456 -0.40352443847 -0.13360475328 -0.90309573466 
-0.49101108567 -0.10001326185 -0.8617664647 -0.51114398177 -0.11532568841 -0.85012176181 -0.60563701766 -0.067688275804 -0.79023984287 
-0.62652854781 -0.10713874094 -0.76890322389 -0.71969176811 -0.042783790605 -0.68610435937 -0.76010534567 -0.08718608106 -0.64118590747 
-0.86293086955 -0.039591131241 -0.49892790242 -0.8731284791 -0.064270897985 -0.4799873271 -0.93783703088 -0.00012524002745 -0.33895000727 
-0.94512177884 -0.04768283846 -0.31824471409 -0.98249520049 0.026355956815 -0.16546781308 -0.98863698513 -0.024543020086 -0.13898958337 
-0.99674760255 0.060460043468 -0.032463121234 -0.99838038695 0.030015494566 0.0017821385036 -0.99516737608 0.07370370481 0.049628229006 
-0.98899869291 0.10179991693 0.086626228438 -0.97442453813 0.077694405187 0.18889142064 -0.95886468052 0.13158154182 0.2373493415 
-0.95769592064 0.089507849031 0.27346618045 -0.91727204599 0.15930587145 0.36087844658 -0.95038546498 0.054504207529 0.29917490345 
-0.88996757666 0.19553218229 0.40608278672 -0.92711942679 -0.023624151049 0.36508222238 -0.86390908336 0.19616977619 0.45912603731 
-0.79900233201 0.0099293851687 0.58937629224 -0.77757882507 0.18096399361 0.5935085977 -0.67223957432 0.031516663876 0.73142685869 
-0.6635728242 0.19016844352 0.71501227563 -0.51242198099 0.046586266775 0.84658956957 -0.49525915448 0.17906576239 0.83736205414 
-0.31519746894 0.061885800759 0.94025159734 -0.26865774109 0.13514268073 0.94589201778 -0.097774170297 0.087238529845 0.99019705668 
0.019103247276 0.076093329335 0.9933932468 0.16326945097 0.10916842994 0.97179120239 0.24516502926 0.079950768514 0.96245653532 
0.33873375492 0.13204745963 0.92661374237 0.3969576925 0.099509697586 0.90899038672 0.45602860457 0.14569332061 0.87573830426 
0.50526957428 0.11205182982 0.85390807584 0.53950926485 0.14800138751 0.82774932071 0.57645172506 0.12597741688 0.80625230249 
0.60915867323 0.14344517777 0.77957687244 0.64208436045 0.13891648888 0.75363233746 0.69413249976 0.14099675933 0.7036495905 
0.72736292752 0.12541133478 0.6717185832 0.79013412534 0.12655718638 0.59124853818 0.81681833299 0.10600002292 0.56068218332 
0.87409995314 0.10133491917 0.46600230745 0.89078405273 0.086904233828 0.44229737596 0.93441817727 0.072210967236 0.34635521994 
0.93977047485 0.060787203589 0.33371610384 0.96397032432 0.059285638462 0.25862747708 0.97009492172 0.039317604438 0.23731751415 
0.98443780026 0.039322391048 0.16607638125 0.99173085719 0.025589128795 0.11528991762 0.99586607048 0.022009629519 0.072045751114 
0.9986893115 0.010605535239 0.032678432351 0.99787455998 -0.011468489329 -0.024615221937 0.99639255649 -0.0024169615165 -0.0577558512 
0.98685437628 -0.038961677849 -0.13834487754 0.98330168197 -0.023018664243 -0.17223509417 0.95640182002 -0.046121380879 -0.27467967659 
0.95034313002 -0.028488093503 -0.28515201107 0.89722752021 -0.052193643657 -0.42872731941 0.8826162885 -0.032014455215 -0.4590246765 
0.97207656075 -0.061768886805 -0.22638852592 0.98708426783 -0.018908468057 -0.06351440386 0.99281049416 -0.029452190456 -0.02931437051 
0.98510561643 -0.065802089947 -0.15475395977 0.99728984241 0.0069794301153 0.067669749432 0.99600254483 0.001647023419 0.081229429538 
0.99353432269 -0.016476366538 0.10672261671 0.9907090983 -0.0088754464001 0.129932408 0.98685045755 -0.023679032121 0.15426477217 
0.98316545307 -0.0035370041466 0.17815067259 0.97758950948 -0.016578171109 0.20927790407 0.9728536315 0.019596476388 0.23018155417 
0.95317758275 0.0052763626568 0.29394186334 0.95049648842 0.030009409466 0.30366313301 0.91943381676 0.02778529066 0.38520746707 
0.92152067952 0.040342404879 0.38142406035 0.87201413981 0.050074153286 0.48451738188 0.88146926593 0.048360671699 0.46825123856 
0.77947913581 0.081059160597 0.60938951564 0.82537852424 0.081483973856 0.55190559876 0.69982602153 0.11051585747 0.7042721385 
0.7734423772 0.11761859374 0.62155459789 0.6508097456 0.13554261466 0.74672991888 0.73342855573 0.13508220619 0.66428177104 
0.62520568252 0.1510242836 0.7653913254 0.65926278352 0.16998918083 0.72865086125 0.55302362448 0.18372837493 0.80660278095 
0.55710111092 0.19056556634 0.80372453898 0.43693357144 0.22893187916 0.8693223228 0.42896564048 0.17901972112 0.883844649 
0.34724626487 0.21421774218 0.91085469419 0.32872331397 0.18795711986 0.92324436582 0.25328595176 0.21048756438 0.94141861948 
0.2531023617 0.20956686773 0.94234396148 0.13730232061 0.20558909692 0.96348887942 0.15986223194 0.21897235527 0.96198771012 
-0.07876393759 0.16282014773 0.97403196491 -0.06019411355 0.17869830691 0.96896040093 -0.26229749775 0.14742526994 0.94448391015 
-0.27016236194 0.14523198936 0.94166120761 -0.41920563664 0.14605704071 0.89466885307 -0.44919856977 0.12493328824 0.88344005851 
-0.51576127488 0.14849643867 0.8408247402 -0.5533629514 0.12480368618 0.81871098344 -0.58321527101 0.1526979679 0.79635382583 
-0.6236009047 0.13715093962 0.76877560982 -0.63276728134 0.15651624118 0.75805517945 -0.65237190746 0.16113342592 0.73986662324 
-0.66950058545 0.15218695644 0.7263564183 -0.66733266542 0.16841107988 0.72517574638 -0.72955678263 0.13432133226 0.66499827173 
-0.72211230496 0.15479752461 0.67102706897 -0.80365942189 0.10862962183 0.58391058033 -0.78081915268 0.13756244408 0.60905429535 
-0.87976035167 0.090423517387 0.45081922588 -0.83980007574 0.1180101503 0.52223547885 -0.93266413011 0.071116801293 0.35122079821 
-0.89422272523 0.096143128794 0.43300119561 -0.95200433137 0.050217628287 0.30008273607 -0.93279372687 0.082758476314 0.34480585957 
-0.96764730852 0.040501597169 0.24431274915 -0.95883764352 0.064009661881 0.270140799 -0.98170619703 0.030999036026 0.18316285507 
-0.97836953184 0.040615984086 0.19947019556 -0.99284009541 0.0019475505445 0.097287923288 -0.99171449618 0.022019717564 0.096286789107 
-0.99818920995 0.010235960507 0.028739016016 -0.98625522983 -0.032260745862 -0.054815548979 -0.99763178635 0.05665017129 -0.022119200067 
-0.93199320476 -0.1407105802 -0.31711089313 -0.90285022422 -0.071086968155 -0.2929069896 -0.85441807801 -0.18143395967 -0.46832173073 
-0.80740272444 -0.19999733934 -0.55475548801 -0.78757138883 -0.20038543773 -0.58220801031 -0.78874273437 -0.18669668797 -0.58504686483 
-0.76387531623 -0.18637440973 -0.61714190518 -0.77380661521 -0.17057058183 -0.60962435085 -0.74798577108 -0.17258384812 -0.64062845005 
-0.7616435254 -0.15226798022 -0.6298025379 -0.73636588813 -0.16059878603 -0.65697992411 -0.68481405074 -0.16113756218 -0.70559778573 
-0.6770840375 -0.15720056586 -0.71583456926 -0.59753695994 -0.16490880879 -0.77965841013 -0.59969049596 -0.15661761142 -0.78067135259 
-0.49380448623 -0.16064998816 -0.85098693828 -0.51086823537 -0.15040449594 -0.84386651224 -0.42647546561 -0.16086425378 -0.88875851364 
-0.4585070571 -0.14760588785 -0.87558926416 -0.37370331997 -0.16181766858 -0.91319325482 -0.42597415965 -0.14294487352 -0.89293358862 
-0.32816732256 -0.14434536341 -0.93246292831 -0.37826306908 -0.12614856066 -0.91562679272 -0.24276018982 -0.13162209414 -0.95386748928 
-0.30107755925 -0.11170249334 -0.94224719732 -0.070288938991 -0.12926899914 -0.97993387124 -0.11920503096 -0.12189903162 -0.9751780937 
0.090564500349 -0.11880923095 -0.98089231042 0.063838234645 -0.13162278808 -0.98209578008 0.24183234326 -0.101660828 -0.96113474754 
0.21903333342 -0.13086244227 -0.9634849408 0.3813789641 -0.13059762806 -0.90480607612 0.35725196777 -0.12607809624 -0.91822170408 
0.51503659262 -0.16831169109 -0.84019121774 0.49519216343 -0.1181937279 -0.86003496012 0.58012160035 -0.13627820702 -0.79974444451 
0.57339989501 -0.12649021564 -0.80594436553 0.64625750838 -0.11058563676 -0.75266891867 0.64017378406 -0.12412354972 -0.75606080262 
0.71534989066 -0.10273181687 -0.68694487203 0.71473221191 -0.10981885936 -0.68612164196 0.78120688385 -0.09864404481 -0.6104757585 
0.79012358622 -0.10305205889 -0.59738655982 0.84377259326 -0.098387382964 -0.52307594591 0.86307489705 -0.10024001403 -0.48883893598 
0.90767125002 -0.082961121193 -0.38446493679 0.93068196122 -0.084448287597 -0.31977949667 0.52367310231 -0.088920192005 -0.83916906096 
0.70587217872 -0.0059539657399 -0.70337857912 0.24262986472 -0.20951423571 -0.94076055806 0.011586628613 -0.22945131786 -0.97112500323 
-0.10680664528 -0.1763744129 -0.97782312028 -0.23111417951 -0.1703021211 -0.95686771905 -0.35100919597 -0.15627511924 -0.92230285483 
-0.42205873637 -0.12532750513 -0.89653212263 -0.51039679091 -0.10447617154 -0.85142485645 -0.62150642197 -0.08583512551 -0.77433441343 
-0.74624622158 -0.087686555552 -0.65529345243 -0.85708767075 -0.080304279588 -0.50427656423 -0.93556624853 -0.065163037187 -0.34010683013 
-0.98064921978 -0.032789441713 -0.17977130515 -0.99764823732 0.017473786147 -0.024893937509 -0.99073497013 0.08800595393 0.087683579384 
-0.9603458995 0.12004756909 0.24487548246 -0.90765923477 0.13248420461 0.39612121635 -0.85820993584 0.17522096 0.48225298662 
-0.785506676 0.18985945908 0.5856452413 -0.7033487639 0.19720468039 0.67943174099 -0.61502283551 0.18818954857 0.76065697576 
-0.45326743867 0.14168584468 0.87269077709 -0.15497331375 0.044182930916 0.97784629652 0.14236273943 0.031185111112 0.98697967141 
0.30908602644 0.047158724461 0.94870276812 0.42505689311 0.073212527354 0.89976038016 0.51277651283 0.095510211328 0.85070589689 
0.58700553571 0.11552426972 0.79971300471 0.64631322136 0.12823131955 0.7514872816 0.71653512668 0.11848713243 0.68633428442 
0.80517150617 0.10320356798 0.5788439543 0.88108551202 0.078012948926 0.46115793268 0.93248309018 0.055634595023 0.3547663219 
0.96823168969 0.032173920778 0.24397732871 0.99196123951 0.013147119754 0.11171494635 0.99930150797 0.0072026501286 0.021647715843 
0.99603335342 0.02603172655 -0.066680260457 0.98224605998 0.036589585577 -0.18013125338 0.95586000121 0.13266611355 -0.24835108414 
0.89366570797 0.1505504293 -0.39793295173 0.81256968984 0.062122831004 -0.57721981427 0.99351443696 -0.060723578386 0.074550976577 
0.99230886346 -0.081762559749 -0.037142534068 0.98566308886 -0.040829371945 0.15867401595 0.97391742393 -0.025809302756 0.22113556663 
0.96453374573 -0.0035106893791 0.26344959712 0.95229722117 0.0081589461618 0.30438022547 0.93368615086 0.022075178654 0.35431495923 
0.9116185695 0.043779333837 0.40831895933 0.88333377121 0.072854459782 0.45978139118 0.85618753836 0.10615464317 0.49867444571 
0.81099663855 0.15460670489 0.56127102228 0.72555804856 0.181397015 0.65237016161 0.59174921981 0.19444259166 0.77708588044 
0.42136236638 0.17385432125 0.88332728042 0.30854818828 0.17745004739 0.93298298359 0.2362335691 0.20088056958 0.94968025609 
0.13600723619 0.21585744935 0.96488666658 -0.035421623349 0.18727263369 0.97728841699 -0.23854729296 0.1539343586 0.9494548712 
-0.42014210211 0.11380712543 0.89655964705 -0.54392294252 0.093574080194 0.82890171854 -0.64965256595 0.089545956389 0.75216450906 
-0.69884572165 0.12168581921 0.70286968479 -0.69634899442 0.15106937489 0.70148066888 -0.72745029234 0.16490370556 0.66581110077 
-0.70311471662 0.16860578989 0.68961372843 -0.76945403815 0.16006604647 0.61425691583 -0.81848398421 0.15511475931 0.55077837496 
-0.86977653416 0.14095793232 0.46224671294 -0.9303412459 0.12238294809 0.33385332404 -0.9706788442 0.083292612604 0.2194664265 
-0.98920166674 0.034913259331 0.093092732613 -0.97819602895 -0.070790699648 -0.11530867619 -0.94066274514 -0.13885496439 -0.2921471744 
-0.85650719866 -0.21251289887 -0.45929734885 -0.80219087673 -0.21896533137 -0.55282188687 -0.75988463771 -0.2123467973 -0.61285614654 
-0.73746545478 -0.2007354819 -0.64328311514 -0.71751228077 -0.16178113266 -0.67701713544 -0.68163494269 -0.14420502031 -0.71604570903 
-0.60909094322 -0.15005775816 -0.77502212949 -0.51733504738 -0.15976897378 -0.83827012479 -0.45593383732 -0.15131625674 -0.87495844843 
-0.41631139515 -0.1366638917 -0.89874176236 -0.40128736869 -0.10766322275 -0.90895020664 -0.35701098685 -0.10531122798 -0.92197962894 
-0.30614071262 -0.05104061536 -0.94202949684 -0.17179652343 -0.028594512109 -0.94005721595 0.20694810599 -0.12130992784 -0.95564836047 
0.35662111622 -0.12594437181 -0.92211478266 0.45555919698 -0.11193757497 -0.88142318592 0.5434498972 -0.11035662057 -0.82938840116 
0.61707289638 -0.10813939112 -0.7766507667 0.68738501608 -0.11246461998 -0.71528942639 0.77107855798 -0.10791146078 -0.61794891899 
0.85311185204 -0.10076409812 -0.50876668363 0.92311426412 -0.10576057436 -0.3488828569 0.97385524434 -0.09618865026 -0.18960043843 
-0.69322321492 0.16662925759 0.70076655091 -0.68569059733 0.1547561514 0.71112512301 -0.18054192931 -0.13734133676 -0.97187799444 
-0.094341824327 -0.17931379135 -0.97801034464 -0.2879137092 -0.11868469599 -0.94787035886 -0.39184656742 -0.11462173878 -0.91232703696 
-0.45300394365 -0.11064759841 -0.88303889366 -0.51149101724 -0.11129634482 -0.85065084647 -0.59844233915 -0.095788618874 -0.79393044808 
-0.71962398915 -0.094423848945 -0.68467167961 -0.82899922226 -0.082614981932 -0.54716958069 -0.91595495352 -0.067624762007 -0.39000330304 
-0.96537494312 -0.015681280776 -0.24878383594 -0.99407743864 0.031907344489 -0.070626898815 -0.99194877323 0.089680778189 0.066552221863 
-0.97111690872 0.13172559625 0.19072669662 -0.93034697587 0.12880432882 0.34216173985 -0.87930560641 0.14200783855 0.45139568048 
-0.81312488717 0.14948845425 0.55637077717 -0.7270721533 0.1526732804 0.66530353696 -0.64327596066 0.15060984041 0.7488972229 
-0.49187624057 0.10575890567 0.85838803069 -0.29092224154 0.060893754042 0.94190308784 0.31914764982 0.023174092584 0.94572842062 
0.19813526688 0.013920407331 0.97602813739 0.4293868239 0.037754374573 0.90130047145 0.5310010916 0.045636382624 0.84422433442 
0.61863589644 0.070506297294 0.78118749859 0.67166204916 0.093794332604 0.73438386711 0.7415409069 0.10381195287 0.66023243128 
0.81532709649 0.096527952333 0.56585586392 0.87912734784 0.073996747067 0.46810056494 0.92184301216 0.060121256217 0.38105190299 
0.95576006642 0.0642414272 0.28421444286 0.98324824138 0.036568630219 0.1721216168 0.99366732194 0.06803831423 0.053408707973 
0.98055578368 0.16013315395 -0.077916512804 0.92509612809 0.21310161519 -0.27379427733 0.89830557661 0.26528022949 -0.32020392622 
0.81591347462 0.19162788385 -0.52601717867 0.74236112325 0.02037299902 -0.66561418294 0.63718096792 -0.048618541511 -0.76110654792 
0.51643132758 -0.092042631063 -0.84213383678 0.080842846904 -0.00286380407 0.99164069931 -0.14971367642 0.033128321963 0.98399842993 
-0.70128044853 0.15821601771 0.69458981851 -0.67523397199 0.14253264856 0.72352181925 -0.70822151129 0.15746453407 0.68769503435 
-0.74613806087 0.1611253601 0.64356656311 -0.7953569103 0.17474916177 0.57394119178 -0.86035051046 0.16870052941 0.46587112754 
-0.93206553078 0.13307136389 0.31695592719 -0.97515154176 0.074872743692 0.17259342492 -0.99593629147 -0.0043338073372 0.028174619562 
-0.86704759147 -0.2139826751 -0.44523839757 -0.93022235322 -0.13990733142 -0.31602665554 -0.80821061128 -0.22633269511 -0.53803082614 
-0.75633029469 -0.23372058254 -0.61057310361 -0.7039441265 -0.20949343409 -0.67450989909 -0.66561145232 -0.176919211 -0.72414655084 
-0.63855418649 -0.1539920252 -0.7524117546 -0.55457461868 -0.15624086479 -0.80966932994 -0.4342700492 -0.1712851036 -0.88083163731 
-0.36991105733 -0.16824765901 -0.91210319259 -0.38584029657 -0.15675932019 -0.9084645312 -0.40967791651 -0.15855362612 -0.89826427644 
-0.41932461568 -0.12713206538 -0.897263598 -0.42977517788 -0.067526465083 -0.89886895032 -0.16328369651 -0.076704795354 -0.93509076127 
0.18409899242 -0.11373886149 -0.97400549179 0.31464835013 -0.11102730587 -0.93640360883 0.43678897551 -0.10898243963 -0.89139688207 
0.52542217556 -0.10351852375 -0.8432914402 0.61249814372 -0.10517162358 -0.78005786515 0.70034233511 -0.11394980762 -0.70099785486 
0.7843222254 -0.12550336123 -0.60039950773 0.86243886355 -0.137733613 -0.4826856864 0.92310753475 -0.1303300625 -0.3396505223 
0.9742523986 -0.1193017607 -0.16535382517 0.99065215491 -0.11196398184 -0.016960222406 0.98835195393 -0.082361583701 0.10229794757 
0.97622232739 -0.053932526447 0.20248286674 0.96309556909 -0.040366176754 0.26368696169 0.95434773312 -0.0067777722042 0.29829484446 
0.94918702888 0.0061414330924 0.31423773881 0.9394678963 0.024446460935 0.34069178153 0.92745876905 0.053017035751 0.36943343406 
0.91951493174 0.096668599153 0.37894147545 0.89746600676 0.14030059455 0.41199331409 0.85841867465 0.20176697336 0.46850054886 
0.77671419638 0.21654525148 0.57917959058 0.66835603872 0.21601930564 0.70457476815 0.50042824345 0.19456938219 0.83529712298 
0.34720238826 0.17496851162 0.91592558699 0.22320860079 0.17856316159 0.95730116485 0.13080682547 0.19952958225 0.97038806785 
-0.058471198069 0.17548119359 0.97384281005 -0.2401009555 0.14315906437 0.95365208801 -0.39371232216 0.10465403793 0.90974069734 
-0.54289324419 0.083224598178 0.82598728588 -0.67025003433 0.068547107766 0.73793135837 -0.71256038856 0.08390022648 0.69391480445 
-0.74755046062 0.10844931865 0.65510701037 -0.70647321996 0.13972534276 0.69318070448 -0.68039382922 0.1233893416 0.72174677173 
-0.64313812611 0.10490284068 0.75832888646 -0.6470389324 0.098456695713 0.75528426294 -0.96835379294 -0.094854412995 -0.19918683158 
-0.99260221009 -0.049681467026 -0.060629610572 0.064856818885 -0.0020558530257 0.99662168622 -0.046680383295 0.027698797604 0.99590321075 
0.19158373323 -0.0088025977438 0.97967338233 0.31513940638 -0.037304570126 0.94591759142 0.41957464305 -0.03116062767 0.90623263625 
0.51996874606 -0.0103681642 0.84959285039 0.60843881222 0.013925136288 0.78930956023 0.6817731231 0.039601437724 0.72881667365 
0.73374716969 0.064383982079 0.67371338928 0.80966044818 0.069660951653 0.57904607143 0.86612530848 0.059097030533 0.49284991023 
0.91061504398 0.052555517853 0.40927124578 0.94633566707 0.051494368355 0.31287003119 0.9692834744 0.075918127613 0.22547976142 
0.97848895098 0.12963639558 0.14099991382 0.97248407856 0.21532562061 0.072404703675 0.84888231988 0.31819772395 -0.41592104173 
0.88538802024 0.31492740778 -0.32696069178 0.81080213777 0.19329934111 -0.5283637759 0.71638826748 -0.01259235156 -0.68862702585 
0.5869007419 -0.10980452706 -0.79984288849 0.47071467669 -0.14768844319 -0.86693330972 -0.28441457864 -0.1291568441 -0.94841566275 
-0.22093377499 -0.16008340233 -0.96139786932 -0.35403881525 -0.11223182719 -0.9273713134 -0.42649545434 -0.10928228398 -0.89739569329 
-0.50357981792 -0.11914607855 -0.85469027588 -0.54511356222 -0.1109325107 -0.83066219692 -0.5931809965 -0.09774755461 -0.79758363623 
-0.66428130715 -0.086468681983 -0.73812599343 -0.77981505515 -0.060870919173 -0.61968633773 -0.88661021059 -0.042184975975 -0.45885433703 
-0.95413001467 0.0093388742821 -0.28875556361 -0.99528108369 0.027283807007 -0.060251710071 -0.9943870318 0.056317571586 0.071513519108 
-0.97562643969 0.08054665112 0.20020128249 -0.94768124303 0.090417273404 0.30339456938 -0.91077360618 0.097852829039 0.39626550432 
-0.86038978675 0.10301008771 0.49384301227 -0.79124470674 0.10257111616 0.59772893435 -0.70175840829 0.10049390251 0.70158897842 
-0.58926066213 0.066448757926 0.79662550429 -0.3929192369 0.024681646395 0.91275588437 -0.32160368539 0.067445962593 0.93657661216 
-0.30303768274 0.11055024742 0.94158877668 -0.066648997363 0.088521230957 0.99214563143 -0.22000026231 0.10823812614 0.95903743401 
0.077544869526 0.029868222604 0.99342501939 -0.069694375312 -0.24226923315 -0.96594786476 -0.14726484521 -0.23465241876 -0.95546962436 
-0.019053424868 -0.27782384482 -0.95672591567 -0.085229716374 -0.26709279025 -0.95613221574 0.94742134939 0.27738054497 -0.14358009614 
0.94742216352 0.2977466214 0.014885718748 -0.68295129882 0.10839404928 0.72222820796 -0.75757096702 0.11971596038 0.63298715102 
-0.83722318836 0.11795768933 0.52242536494 -0.91574781499 0.08670917389 0.37224969119 -0.96640274935 0.040986176702 0.22544207454 
-0.98621400164 -0.0038642222031 0.12399171921 -0.99718227719 -0.053197982684 0.033320796729 -0.98525442516 -0.073769736833 -0.12453860902 
-0.99132112091 -0.084792130914 -0.057132552731 -0.96167214903 -0.1020390572 -0.24198451215 -0.90687428878 -0.15649104331 -0.37926619499 
-0.8450485202 -0.20236419875 -0.49198631682 -0.77423561024 -0.22375392952 -0.58365192136 -0.70320506437 -0.23700313015 -0.66946537803 
-0.65989492516 -0.22128923485 -0.71595009908 -0.62044124574 -0.19249390387 -0.75719403144 -0.52734840884 -0.19309103765 -0.82208543466 
-0.3992110536 -0.20094631989 -0.88587708574 -0.28383297811 -0.1792090277 -0.93882065247 -0.29280729627 -0.16709717223 -0.94076816534 
-0.33820958139 -0.15935662755 -0.92687148877 -0.40333569228 -0.16198667492 -0.89963587341 -0.32956995224 -0.16230478063 -0.91782021928 
-0.20014966182 -0.15453061546 -0.95898480642 -0.0057444268416 -0.14300990755 -0.98048482492 0.18351430039 -0.12371457343 -0.97226732413 
0.31483191282 -0.10863352001 -0.93933871307 0.4239277372 -0.099211025433 -0.89962271508 0.51851530511 -0.09942615673 -0.84524276669 
0.61133480322 -0.10770205206 -0.77840758594 0.70330358742 -0.12868091047 -0.69305324694 0.78778523186 -0.15106873238 -0.58525201966 
0.86732122743 -0.17624874887 -0.46133731207 0.91881942461 -0.18374157044 -0.33593142731 0.9784029207 -0.15120425351 -0.098493114549 
0.98235438273 -0.1452932337 0.051027613555 0.97593963098 -0.11826998925 0.16287750279 0.96398997035 -0.071497862823 0.24827412695 
0.9571113148 -0.0431456891 0.28537585845 0.95225645464 -0.020924376627 0.30452712363 0.947885496 0.0096483604242 0.31747324838 
0.94642666002 0.042708127493 0.31861069892 0.94805262409 0.076562454382 0.30842435397 0.93296075453 0.13053802071 0.33097867527 
0.90768591967 0.16296816044 0.38256478483 0.86031294134 0.18245696647 0.4714832975 0.78092249945 0.19225701905 0.58483365276 
0.66300037903 0.18817806891 0.7217545558 0.52012355442 0.16698317553 0.82998842936 0.38736825834 0.15036133267 0.90633244008 
0.31298282469 0.16192536238 0.93216883263 -0.16340240175 0.12608074836 0.96942804761 0.017452293305 0.1571392614 0.98419881532 
-0.32371670717 0.10988275755 0.93406740818 -0.4666336818 0.097676729922 0.87304370382 -0.60508967594 0.081148938582 0.78041072129 
-0.70793631779 0.075142438668 0.69820477207 -0.73011730017 0.086711617695 0.67639389793 -0.73269555029 0.10421641495 0.6714611958 
-0.76104756928 0.11409867077 0.63745155676 -0.74204635507 0.12308623321 0.65646148239 -0.69179220272 0.10344677161 0.71127285491 
-0.60302296734 0.044982281228 0.79510504695 -0.69171601622 0.06145723517 0.71783844929 -0.5995308313 0.05417635331 0.79764953242 
-0.64222405207 0.070765141347 0.76030967911 -0.73686859333 0.063117995436 0.66200570116 -0.84036047868 0.031477051648 0.5257890103 
-0.91798833278 0.0077971330893 0.36640853369 -0.965739437 -0.017714276897 0.23410973433 -0.76524956582 0.10673487675 0.63412186212 
-0.75894985753 0.1201046454 0.63980330587 -0.77646196558 0.079305578327 0.62424998334 -0.73944755562 0.056495616326 0.66815906303 
-0.66994238806 0.014033507838 0.73979905424 -0.77651522726 0.040233895688 0.62864214863 -0.6175962252 -0.0057084850955 0.78607312163 
-0.61113215531 -0.033530625334 0.79023292244 -0.65202613574 -0.013284015357 0.75346231451 -0.71437803336 0.0232182264 0.69704747796 
-0.82113662107 -0.012067536912 0.54162553086 -0.92108084947 -0.054691612087 0.37523709169 -0.9710512903 -0.059978343836 0.20537915308 
0.18585757979 0.17695502052 0.96338585811 0.26623233338 0.15335026516 0.95147679404 0.17521320811 0.010930751514 0.98377570789 
0.28040956758 -0.0032825820885 0.95574572513 0.3879340366 -0.015511288283 0.91758075784 0.51400604882 -0.031480094339 0.85530343926 
0.61554533773 -0.034737856257 0.78355227334 0.69420832802 -0.018793926732 0.71842395897 0.75542817334 0.01042488122 0.65267392319 
0.80391081636 0.038723980188 0.59127469746 0.84775219381 0.053117416482 0.52584047652 0.89240453755 0.061749527593 0.44538261652 
0.93182294542 0.070553909107 0.35434328811 0.94748058914 0.09891424896 0.29947016538 0.95177071767 0.16489738449 0.25737623615 
0.95182217613 0.23018815136 0.18303089586 0.94456599561 0.29077974139 0.14691313585 0.94383605389 0.3214213692 0.025977702553 
0.93541851827 0.30826625694 0.14601955576 0.937605872 0.31685270469 -0.096944957298 0.91495415478 0.3158310852 -0.24241688808 
0.87159830436 0.26039067987 -0.40007756252 0.80773948196 0.12946504083 -0.55589920927 0.68323933728 -0.028589567873 -0.71683663423 
0.56147622754 -0.11664070682 -0.81129767758 0.44567610409 -0.16009100988 -0.87739549924 0.26518890521 -0.23908811984 -0.92731257872 
0.30310949347 -0.19834178299 -0.9275214697 0.10292233243 -0.26945001134 -0.94855879746 0.1284487592 -0.26966202 -0.94561739603 
-0.023984566425 -0.32084984587 -0.94103289511 -0.13442938897 -0.33099165966 -0.92923175185 -0.20114186122 -0.28569818406 -0.93144643949 
-0.2638026162 -0.23005619976 -0.9345118967 -0.31957470966 -0.17283638508 -0.92905694104 -0.37853715423 -0.1406156812 -0.91415203016 
-0.42445945343 -0.13774190649 -0.89429107195 -0.48200824284 -0.1244254749 -0.86649131415 -0.52276448418 -0.10930310819 -0.84483951121 
-0.55666058278 -0.058118537078 -0.82656320532 -0.6051698382 0.0034951363173 -0.79274480631 -0.6888133125 0.049982290057 -0.72216322155 
-0.81309191892 0.050610716184 -0.57387140644 -0.91177849962 0.0081041582762 -0.39693064103 -0.99130921868 0.029899736123 0.12011033909 
-0.99691305912 0.0090414323943 0.00510595041 -0.9684541891 0.035650783428 0.24352111473 -0.93712607458 0.022156385565 0.3448996796 
-0.91393563619 0.016502636832 0.40297033006 -0.87522259121 0.011231736702 0.47905119456 -0.82652251492 -0.0067736108243 0.56162146167 
-0.75416449016 -0.022668905192 0.65144409125 -0.68015332016 -0.024823319872 0.72743025496 -0.5974563874 -0.00083734574448 0.80019936435 
-0.49527989492 0.05232892177 0.85729586743 -0.48648173154 0.10794667626 0.85989332676 -0.48451581898 0.15301529334 0.85423641542 
-0.20666541506 0.12884783243 0.96324642486 -0.3805554758 0.12701649334 0.90534371764 -0.0391158344 0.10573816702 0.98933600023 
0.058486959042 0.093952621443 0.98988700055 -0.98856962936 -0.028077955499 -0.11655555884 -0.96311726377 -0.022403103942 -0.25276953939 
-0.99364711671 -0.084101859304 0.061153647738 -0.98749087728 -0.071498939959 0.073808015057 -0.99256333809 -0.077855220222 -0.054907628017 
-0.99305114434 -0.092469980787 -0.0056104507193 -0.97853276348 -0.093485936349 -0.17484347379 -0.953828887 -0.10467612159 -0.25787552896 
-0.91525235649 -0.12834801911 -0.35829254625 -0.85606577698 -0.16058394859 -0.48553564152 -0.7748336634 -0.20260922363 -0.58664871612 
-0.68536917923 -0.24737307592 -0.68346337535 -0.62136696009 -0.23744101345 -0.74284112021 -0.55341555632 -0.21951715586 -0.80198106965 
-0.4440352116 -0.20421337325 -0.86556137395 -0.31702498838 -0.19707504288 -0.9234471682 -0.21242323926 -0.18132814801 -0.95815771585 
-0.21490295627 -0.16313302303 -0.96263374438 -0.29278109291 -0.14832555175 -0.94149194624 -0.37172069971 -0.15331638776 -0.91376334053 
-0.36395597636 -0.14794574493 -0.91829823839 -0.29875897878 -0.13722818444 -0.94250062285 -0.062184604311 -0.13228113105 -0.97547994932 
0.13123226752 -0.11188902502 -0.98388279881 0.24900756821 -0.098044190585 -0.95813469121 0.3506525728 -0.090213810756 -0.93037234446 
0.43757894802 -0.084962716152 -0.89118835163 0.53353952064 -0.090029869155 -0.83665245776 0.62764360717 -0.10895958434 -0.76651308683 
0.71910391099 -0.13441435888 -0.67298387274 0.81306117183 -0.17729143357 -0.54479241432 0.90068426343 -0.20120487943 -0.34874379363 
0.98306349229 -0.12795449188 0.11134263889 0.97512276185 -0.17212426431 0.011654960152 0.97417201503 -0.099445751489 0.18968589776 
0.96326594776 -0.065042023218 0.2576843051 0.95418005144 -0.034857784537 0.29568044067 0.95149335208 0.0078993891454 0.30651284778 
0.95504814254 0.038198664386 0.29364458512 0.95937612771 0.05749343363 0.27487887104 0.96199659252 0.099434362914 0.25263852015 
0.93995928296 0.13365107877 0.30617975224 0.90233237184 0.14918490331 0.39776082361 0.84708526379 0.14683923375 0.50423462918 
0.75417676804 0.13639395617 0.62769978198 0.64694304573 0.12103303848 0.74995435406 0.50973197417 0.11642295527 0.84223414627 
0.39403680725 0.11895670348 0.90993579898 0.33612291415 0.13138964724 0.9297194267 0.34342689891 0.1322865237 0.92815860295 
0.25714142899 0.15308908988 0.95077786557 0.35599095053 0.13506840973 0.92227025117 0.080827581497 0.13552137094 0.97932607708 
-0.0048951493334 0.14879160766 0.98150370559 -0.16637068884 0.12155438179 0.97125190189 -0.33956240464 0.10166954947 0.92931718468 
-0.48663052409 0.1043275977 0.86262469306 -0.60732144328 0.098334216386 0.78167041259 -0.70281826587 0.094011354375 0.70371887539 
0.96940375291 -0.19337847419 -0.10961911534 0.95308580121 -0.13561957628 -0.25281989394 -0.97768775842 -0.082722632794 0.15827643084 
-0.99160874288 -0.1031076159 0.052304374936 -0.9906341963 -0.092265155007 -0.068356178396 -0.99188814704 -0.099390623763 0.031891196011 
-0.98911993664 -0.076860258608 -0.12114708884 -0.97387217088 -0.08365391822 -0.1809346839 -0.95451607426 -0.099492386532 -0.26607333328 
-0.93124934726 -0.10766810937 -0.33166036666 -0.8822106715 -0.12522879295 -0.43506274554 -0.79395928714 -0.15529194366 -0.55962774183 
-0.69782304606 -0.1849258131 -0.69026036765 -0.62262940838 -0.18690033171 -0.75419077176 -0.54034077702 -0.18410888032 -0.81789486701 
-0.43759183814 -0.16204979808 -0.87773722362 -0.31889426064 -0.1485137632 -0.93134134926 -0.19325882419 -0.14145644515 -0.96724629742 
-0.13902002852 -0.11952119263 -0.98265489793 -0.28827080633 -0.14292554219 -0.94327445433 -0.38651846161 -0.17339786308 -0.9044151085 
-0.35399930046 -0.18161798447 -0.91403877936 -0.272987716 -0.17691916041 -0.94175593888 -0.12585781335 -0.12769039761 -0.97613126296 
0.026681632989 -0.10126066553 -0.99015514971 0.16698624846 -0.10534200517 -0.9735714495 0.28433810732 -0.098955998615 -0.95159689304 
0.36809080745 -0.07734875922 -0.92444473122 0.47363407584 -0.072971113723 -0.87254709507 0.58612722113 -0.077933853616 -0.80425034883 
0.68388863672 -0.10111775415 -0.71140411764 0.7690880195 -0.12158670651 -0.61414906371 0.88385795125 -0.12371015718 -0.42834293158 
0.94338928978 -0.13659158366 -0.23043331778 0.97974306545 -0.15318970682 -0.030466412422 0.97318101438 -0.032426337616 -0.19597798368 
0.98207053894 -0.15865220082 0.0089996638923 0.98361309327 -0.1260435215 0.046640915958 0.98268590504 -0.10510671221 0.13841701955 
0.96963184277 -0.07308795981 0.21680126843 0.95765096232 -0.038944436327 0.28458657322 0.95104407406 -0.023763244301 0.30692222995 
0.94771385496 0.0060756627405 0.31832727443 0.95211247129 0.03035020337 0.3028748688 0.95972916566 0.051223822308 0.27452217589 
0.97162939591 0.057734951105 0.22829759739 0.95832103414 0.091686456949 0.2581548653 0.91184652755 0.10794251334 0.37984730625 
0.85321707119 0.099345435146 0.50854842201 0.77815170282 0.096274160294 0.61108376937 0.69513826502 0.094374721931 0.71045049389 
0.57600810255 0.11032214013 0.7985727689 0.44503791515 0.12073587804 0.88490426948 0.42249173916 0.10281321637 0.89805410102 
0.35286778237 0.10772386406 0.92873771781 0.4516674689 0.086536464387 0.88537024043 0.21134920871 0.13095135486 0.95941704472 
0.12321588467 0.1586805871 0.9782255311 -0.058198106536 0.13046998835 0.98219384575 -0.16867006799 0.12394184799 0.96860553861 
-0.3294268981 0.1080837185 0.93155488794 -0.49475396675 0.099961667577 0.8563244486 -0.64458903671 0.10995743041 0.75065234669 
0.18377866745 0.055281385188 0.97479427717 0.32769737072 -0.0034797187024 0.94122333527 0.4534950653 -0.035603884186 0.88538766402 
0.55236102376 -0.059727786852 0.82998023787 0.63387025812 -0.056817530657 0.76675662 0.70854469926 -0.049811812048 0.70235849224 
0.76181657411 -0.027816694555 0.64469375795 0.81165096048 -0.0055616630189 0.58048487166 0.86069780404 0.020556438224 0.50784393851 
0.90015004278 0.040778619496 0.42983663279 0.92611919788 0.071264882753 0.36731783512 0.93912753311 0.11656002212 0.32076379309 
0.93575323639 0.18590433656 0.29644430446 0.93166307628 0.24671119123 0.25618562433 0.93040820397 0.28678737085 0.21694592922 
0.93286170112 0.25703667645 0.24566304885 0.94908488062 0.24342438267 0.19185652878 0.92946699994 0.19126516332 0.31429679497 
0.94393455867 0.32293942569 0.0088532542537 0.93795237885 0.32657604315 -0.081858596533 0.93090386218 0.28339195273 -0.22385477024 
0.86869050811 0.17278912313 -0.42268675905 0.78718860865 0.061507175491 -0.60410678715 0.6664285675 -0.040184452587 -0.73258750892 
0.5331313467 -0.11935994136 -0.82844832058 0.39443788464 -0.17206948215 -0.90055265715 0.23061210262 -0.22030589502 -0.93693756626 
0.084837387429 -0.27767185777 -0.9500730352 -0.029804529762 -0.3209983472 -0.94021001512 -0.13386632893 -0.33048199833 -0.93174451989 
-0.20556103901 -0.31942011475 -0.92199804377 -0.2719736102 -0.27479311966 -0.9204919781 -0.32027772003 -0.2072879202 -0.92257628147 
-0.34228942401 -0.15880052608 -0.92557702523 -0.36946597708 -0.11729483621 -0.92115036901 -0.43452098471 -0.099518568701 -0.89483889646 
-0.49726440448 -0.070929862769 -0.86218003758 -0.53623137734 0.0006104179233 -0.84021315 -0.59986239963 0.068786281874 -0.79619570484 
-0.69870922182 0.073555736169 -0.706887931 -0.79055304025 0.058097538139 -0.60118143648 -0.87060957515 0.039831800317 -0.48275630845 
-0.9366286815 -0.02403352886 -0.33597110272 -0.9876018984 -0.076953857889 -0.097903042705 -0.97663536175 -0.096611967517 -0.17336818881 
-0.99615594568 -0.045063099823 -0.027047565716 -0.99287049462 -0.037943015787 0.08165959397 -0.97738184122 -0.021095485803 0.19383797449 
-0.93868800766 -0.02756790172 0.33399452032 -0.89397067272 -0.025153493765 0.44424442802 -0.86484275883 -0.035416335952 0.49973181065 
-0.837319204 -0.053136779639 0.54162298584 -0.78710556898 -0.060165441447 0.61362948926 -0.73792757423 -0.042798223185 0.67076086091 
-0.68858562058 -0.017353750946 0.72316011992 -0.66615187941 0.035351279957 0.74099206013 -0.65815499077 0.098969187764 0.74474203451 
-0.60265135418 0.086565478102 0.78710033526 -0.55723348105 0.080145019123 0.82427370396 -0.49570844653 0.086267633394 0.85943587275 
-0.25828635511 0.12312368123 0.95643279237 -0.39372357458 0.092884211804 0.90986568734 -0.22169492187 0.14607417963 0.95712363165 
-0.064854542719 0.11926581607 0.9818113405 0.11013185568 0.068340421522 0.98806059255 -0.94968921189 -0.09115507919 -0.27556507882 
-0.8510625115 -0.12927520511 -0.50237903741 -0.7524896267 -0.14343071306 -0.62710385042 -0.66269380965 -0.14875577119 -0.73325384234 
-0.58385439659 -0.14801650236 -0.79251804388 -0.50058605932 -0.14816077009 -0.85160768356 -0.37079334155 -0.13662671972 -0.90935709212 
-0.25191339553 -0.11798822673 -0.95976772004 -0.19840446839 -0.075217601594 -0.97483532316 -0.17083273766 -0.03021864418 -0.98412435579 
-0.36345761858 -0.17054193901 -0.91471595765 -0.25211452347 -0.12588871086 -0.95517359975 -0.36515975769 -0.18741593697 -0.91058502811 
-0.27842073212 -0.18681944148 -0.93738028918 -0.10606441782 -0.14355567133 -0.96871986477 0.062323292517 -0.10913905758 -0.98941789134 
0.17186468326 -0.10635989012 -0.97403532399 0.27690518227 -0.10040286594 -0.95273468351 0.3772022856 -0.084913886696 -0.91662691616 
0.48940988317 -0.073720890077 -0.86320268769 0.59972856568 -0.078871406138 -0.78641537547 0.70971083563 -0.087485665153 -0.68676013377 
0.80241929049 -0.083340558219 -0.56603462724 0.87299108519 -0.064089889633 -0.46823512379 0.89182441972 -0.018312106731 -0.40283750931 
0.9531088221 0.020413216204 -0.26088363357 0.99028938089 0.04761065028 -0.064473763405 0.97829719008 0.087851137946 -0.10829699961 
0.98492330827 -0.0023993690486 -0.034379524762 0.98052879219 -0.068247126137 0.091237404052 0.97607985743 -0.075863776796 0.18012807679 
0.9691518794 -0.062408595184 0.23375530417 0.9582206913 -0.04797747682 0.27655204979 0.94910852756 -0.033688555703 0.31293174718 
0.94087500359 -0.0035118040275 0.33627533791 0.93281274407 0.03462480991 0.35795055537 0.93925807669 0.045364308972 0.33829542116 
0.95389477995 0.04682018259 0.29328947334 0.96943649534 0.02702469482 0.23957413128 0.96737716825 0.010975348107 0.24755417608 
0.81561657168 0.048568450769 0.57552184262 0.87708697769 0.047045236362 0.46819086545 0.72859323162 0.054676140983 0.67368237781 
0.62059360799 0.060952226415 0.78040826275 0.50922793716 0.077566516082 0.85140727064 -0.17613302738 -0.085032799499 -0.97979226926 
-0.19553068795 -0.028914214242 -0.97965686645 0.5571459316 0.065241359278 0.82395671328 0.42880185167 0.093320086508 0.89540517504 
0.53007772959 0.080627550046 0.84241226166 0.34043745313 0.10010033129 0.93107308044 0.15597398524 0.11305816235 0.97770135634 
-0.083830815651 0.12938810595 0.97736704237 0.2811904569 0.016442839165 0.94972615846 0.40513671655 -0.017474637052 0.91315880217 
0.49103063171 -0.01608071951 0.86689634041 0.5677390273 -0.011432708962 0.82206141505 0.63640433553 -0.020066933506 0.76639826698 
0.70564966458 -0.023911699187 0.70628956798 0.7616168613 -0.021791719239 0.64434830614 0.8158884744 -0.012144348775 0.57526550596 
0.86561576927 -0.0013047721324 0.49919492659 0.91091444519 0.0075948792664 0.40847416054 0.93242232405 0.045533239431 0.35646698473 
0.93537714469 0.10480729436 0.3374843289 0.92436380163 0.1650144305 0.34149070723 0.92282538534 0.2099593068 0.32229359547 
0.93007960602 0.12643950187 0.34248547785 0.9538360593 0.1323283833 0.26107450571 0.94112159212 0.060774036184 0.33205283749 
0.95912356836 0.1733711475 0.21429780149 0.96073185204 0.24135341102 0.067111394258 0.9474036342 0.27125965884 -0.12716026041 
0.93586881369 0.27321516555 -0.2103176015 0.89893039475 0.21614278644 -0.3557332729 0.83009608321 0.14845442118 -0.51790542764 
0.71048348988 0.059785905222 -0.68326324122 0.57204514576 -0.025318487754 -0.80923692736 0.35602649886 -0.11898132608 -0.9228191506 
0.15593764662 -0.18570031397 -0.96114540541 0.0070288333801 -0.24409120282 -0.96585846113 -0.095547246654 -0.30154280653 -0.94327293416 
-0.18329030199 -0.32901407126 -0.92495691579 -0.2442584767 -0.32616836505 -0.91152222704 -0.29409145343 -0.29293914428 -0.90761255001 
-0.33190835747 -0.22145294052 -0.91502437288 -0.33029529183 -0.15202249737 -0.9299443237 -0.3297340851 -0.090456071283 -0.93901019807 
-0.39064362607 -0.056012981651 -0.91782524004 -0.45931503256 -0.012985198579 -0.88573183909 -0.51312708367 0.049947296234 -0.85431413461 
-0.57033355085 0.10935754022 -0.81331225215 -0.65932889215 0.11543370797 -0.73755968077 -0.74868240744 0.091986571367 -0.65026646406 
-0.83980243265 0.031777661027 -0.53162843523 -0.91270794495 -0.048093429881 -0.38359909866 -0.95038508454 -0.069740469451 -0.2840707815 
-0.98473192261 -0.093064288426 -0.092050686974 -0.98391397608 -0.1109692593 -0.11877564401 -0.99289289011 -0.11341957736 0.013433028102 
-0.97764925349 -0.12705436205 0.11942454346 -0.96049524679 -0.13093344444 0.23671592503 -0.92244196652 -0.12020334517 0.35311117967 
-0.87733830765 -0.094892048612 0.46586219515 -0.81397356863 -0.049659129414 0.57451810554 -0.7981634291 -0.02049628334 0.59798873085 
-0.79762195746 -0.024387132365 0.60122789536 -0.79271002221 -0.030165265544 0.60860512086 -0.76525698829 -0.025525699664 0.64239053196 
-0.74432432468 -0.011850107635 0.66598003405 -0.72683754915 0.0019951492583 0.67956289085 -0.704307857 0.013917361562 0.70560559872 
-0.69885730103 0.045024745959 0.71011829907 -0.65714490855 0.067969733503 0.74657589098 -0.56330016652 0.096682207188 0.81690171879 
-0.40173812431 0.10747679583 0.8974378935 -0.1881017676 0.10133750387 0.95848937271 -0.1516006632 0.1124308667 0.96383407165 
-0.076158762675 0.1021322774 0.97646719479 -0.73933045143 0.1214607995 0.66085661215 -0.7717166842 0.086643311227 0.62846489876 
-0.79721778365 0.061903181923 0.60045675743 -0.78984184125 0.00026780130866 0.61287959556 -0.75362219405 0.00071791347929 0.65569169559 
-0.69552764009 -0.025336586143 0.71714371628 -0.64535883407 -0.0826280615 0.75720074396 -0.63853200104 -0.14176436597 0.75494217434 
-0.70122450666 -0.13997476617 0.6892195167 -0.79476019126 -0.09946042009 0.58340397774 -0.90870829192 -0.071675473277 0.36972459885 
-0.96732508608 -0.082839100412 0.22581800919 -0.97038603921 -0.093962282921 0.18581609964 -0.99060365362 -0.095507609515 0.075861150739 
-0.98749860522 -0.087855132197 -0.091975315836 -0.98934433033 -0.10748831221 -0.011675898221 -0.98531102173 -0.095505000806 -0.10988005278 
-0.94706227136 -0.091896805828 -0.25912597547 0.42026408412 0.052753977723 0.90273701831 0.297792117 0.06747180261 0.94412234229 
0.52282230548 0.013837540656 0.84760378401 0.61336518784 -0.0010622804916 0.78816188463 0.67763251922 -0.021536927483 0.73058193423 
0.73348055054 -0.02731648948 0.67784533302 0.78099185257 -0.024897653922 0.62026922887 0.8267851505 -0.025502184139 0.56000028825 
0.86351223715 -0.022860846692 0.50165340183 0.90740027996 -0.0093105677024 0.41462525618 0.94804799399 0.016952892224 0.31692160003 
0.92825922809 0.079340238836 0.36243756456 0.922842902 0.10745563661 0.36910707608 0.96369236066 0.057732691326 0.25550966953 
0.95322103377 0.036039962864 0.29680199877 0.94530508415 0.067750842048 0.31699561216 0.9622244463 0.068857378405 0.25649829235 
0.97789016448 0.11142348517 0.16979926117 0.97383987958 0.16561723286 0.078413444907 0.96523876062 0.22613053984 -0.043008730042 
0.94775416917 0.22129111973 -0.21054172723 0.91468399623 0.1831665921 -0.32986116935 0.82755418934 0.10167312513 -0.54135625082 
0.72117638107 0.04004158209 -0.6757984767 0.61905253495 -0.0058841925191 -0.77873239442 0.54193156239 -0.017173338347 -0.82422311216 
0.059065007971 -0.14721461497 -0.9823768618 0.16389201351 -0.10519462079 -0.97603152637 -0.034775550105 -0.21226137696 -0.97168141353 
-0.16003567779 -0.25455518946 -0.94810739463 -0.26850970841 -0.28426372625 -0.91774094269 -0.3395850899 -0.27558848508 -0.89780033715 
-0.34326571261 -0.20938308907 -0.91442899767 -0.30900326656 -0.13835685544 -0.9390199138 -0.27216503673 -0.07106235801 -0.95920662054 
-0.30218975114 -0.012042965006 -0.95196297512 -0.49165518066 0.066068921918 -0.86644934862 -0.41606641254 0.033482114796 -0.90598039907 
-0.55833256603 0.095066338235 -0.82263500277 -0.62936145203 0.10333481838 -0.76636298891 -0.71181810035 0.090651152424 -0.69592246718 
-0.79123553539 0.050861207268 -0.59926712807 -0.86558900224 0.0083263209399 -0.49371419693 -0.93855818949 -0.078347960649 -0.32099107389 
-0.97115535196 -0.10262121995 -0.18965427841 0.31459071154 -0.071874517195 -0.93912601951 0.4172920955 -0.052121136116 -0.89440063729 
0.94121485986 0.013280083594 0.33267324553 0.95638190552 0.0052756722769 0.28922815613 -0.3583137723 0.077012242452 0.92508948483 
-0.51241023789 0.09298848938 0.84385880421 -0.62766610227 0.10886933855 0.76913617006 -0.68288843435 0.095082533522 0.72178686027 
-0.73516199067 0.070548741559 0.67215761078 -0.77926281886 0.01923425558 0.62460124255 -0.77542452669 -0.043522569661 0.62864654829 
-0.93044376273 -0.094517554631 -0.34129520249 -0.82990931706 -0.097807088747 -0.51230060872 -0.70784574415 -0.097993429837 -0.69446768866 
-0.61918689709 -0.083978572058 -0.7753319627 -0.53354499795 -0.069951555952 -0.84068556023 -0.44026332857 -0.055622633873 -0.89038344722 
-0.35137992835 -0.033287934652 -0.93434780013 -0.28584635012 -0.0023906251258 -0.95530612908 -0.25289137542 0.014195354686 -0.96623312873 
-0.22279299675 -0.063810872906 -0.9713815212 -0.24024464177 -0.093525362042 -0.96395451698 -0.3034647975 -0.13342940705 -0.93939422293 
-0.37367600279 -0.16532117094 -0.91161234425 -0.4011368765 -0.16277933084 -0.90039980186 -0.37970141996 -0.15776129524 -0.90533567007 
-0.23561320364 -0.13220961118 -0.95329798941 -0.051607279307 -0.10409219569 -0.98498050223 0.12633660327 -0.095024879717 -0.98019581874 
0.2331855679 -0.089896332019 -0.96607296356 0.30936173216 -0.092342519665 -0.94343481519 0.41631845724 -0.077398364408 -0.89894735848 
0.52353565883 -0.059832597441 -0.8384292231 0.63627161866 -0.041694979015 -0.76416598392 0.72725951441 -0.024864962686 -0.66940518648 
0.81971614912 -0.0023595059325 -0.56555133732 0.8916699387 0.020038674536 -0.42570283927 0.93548722488 0.065395681192 -0.28142120815 
0.94020402703 0.087686554235 -0.29314138116 0.98943641967 0.089864148686 0.03810998703 0.98274122358 0.11029658682 -0.11628392239 
0.98816192871 0.067257107361 0.085598177891 0.98563635017 0.040115699079 0.10687799368 0.9816562771 0.000548631058 0.17225626729 
0.9764695915 0.028798472426 0.20217566101 -0.94402841272 -0.10631264318 0.29969117596 -0.97442821226 -0.12028608536 0.16026157876 
-0.98925497009 -0.12131344597 0.068744568688 -0.98256549163 -0.11951479598 0.099554256449 -0.97694376059 -0.12697594299 0.1331175594 
-0.9660372189 -0.13657711539 0.21501009507 -0.8908041974 -0.15118158266 0.42153390805 -0.77771502726 -0.18451251542 0.59509341423 
-0.69774738799 -0.10026278288 0.70732109561 -0.7330405337 -0.015053318544 0.67841584758 -0.76976224635 -0.01164269617 0.63741669551 
0.92919484238 0.075163230034 0.36132920021 0.92660916077 0.068742788882 0.36913867776 0.94220005071 0.056787060266 0.32821496311 
0.96092478994 0.026721002557 0.27092979407 0.96686014507 0.011507618884 0.25334397937 0.94648966062 0.021672384288 0.30971406084 
0.90450082764 0.026771369748 0.4237935815 0.92731942641 -0.018716412445 0.36868533133 0.91538650006 0.0091263559618 0.38870375651 
0.87259241356 0.024076083905 0.477052482 0.81662087698 0.034783045687 0.57437700424 0.75006018517 0.041767382072 0.65587951299 
0.65612487283 0.055275026456 0.74703967452 0.67057074709 0.046382958324 0.73577888162 0.55591655127 0.052473399882 0.82727705412 
0.61459908991 0.039855907095 0.7846369899 0.46881125253 0.075969571305 0.87818294827 0.32054122316 0.084851104233 0.9379125513 
-0.68332700675 -0.14444280582 0.71207769658 -0.75888020781 -0.16316390713 0.6237825022 -0.87936631463 -0.15014752333 0.42283593424 
-0.90542261108 -0.066167070587 -0.37601040271 -0.32524234184 -0.13835711255 -0.93154210566 -0.40105390782 -0.20255734691 -0.89319583396 
-0.37531531159 -0.22899587773 -0.89691588551 -0.32866566155 -0.23157098664 -0.91176858585 -0.21896167679 -0.19220040072 -0.94843129291 
-0.049628343412 -0.14936020595 -0.98082179038 0.094600613103 -0.11230113554 -0.98603869804 0.20543327855 -0.098987756446 -0.97101164708 
0.32483780232 -0.081288625215 -0.93684381615 0.47803378205 -0.059705379665 -0.87198096477 0.59543482191 -0.042803204588 -0.78991312718 
0.68742555799 -0.026899119973 -0.72352605529 0.89039457106 0.057774453858 -0.43332221477 0.90183369344 0.045062216823 -0.42416099805 
0.97964546707 0.075735593043 0.15711675273 0.98364091951 0.11313725595 0.030285901275 0.97758138722 0.051586490908 0.20144074565 
-0.81586211022 -0.036926312321 -0.56697348844 -0.71425464294 -0.024045098166 -0.6886138157 -0.62046950079 -0.011246972831 -0.78008308368 
-0.5397757209 -0.00030458565676 -0.83850480889 -0.46890646511 0.0064883468033 -0.88174209139 -0.39065501758 0.023356054897 -0.91723013077 
-0.33041756517 0.022174353106 -0.94323230668 -0.38149563592 0.03028723259 -0.92198158963 -0.46080250947 0.063788503299 -0.88223478239 
-0.52485430442 0.076052962213 -0.84430648348 -0.59328645227 0.073996834305 -0.79544359549 -0.67519850788 0.060426035219 -0.72930759943 
-0.76318566638 0.01584487315 -0.63596254057 -0.86156458864 -0.032832969613 -0.48954030671 -0.92549441767 -0.082288782253 -0.34817679711 
0.86072055015 0.026662468279 0.49947836653 0.81234861137 0.026464568576 0.58181040287 0.75749905288 0.036719953035 0.64861668462 
0.97494730967 0.15410751239 -0.082727840938 0.96711494619 0.19488608617 -0.14441347975 0.95373514584 0.12947295923 -0.23900974251 
0.74812732856 0.035516404082 -0.65258889729 0.82482786488 0.076585544393 -0.54598937614 0.66559331749 0.010540146328 -0.74323886354 
0.5771172893 -0.016675581283 -0.80650601284 0.53682728461 -0.035289076255 -0.83185036878 0.87515945129 -0.014467860473 0.47571238786 
0.65553888357 0.023572293623 0.7516803638 0.69869376182 0.029177452746 0.71423674677 0.76807101534 0.013657664051 0.6363600085 
-0.93901682524 -0.15889904003 0.28045887104 0.82293397734 0.001705062389 0.56704131652 0.72781355506 0.0066437125781 -0.67018316044 
0.81351875491 0.031704878889 -0.56805030032 0.64368831953 -0.01670868796 -0.7609677808 0.33654710705 -0.15370192453 -0.9239512813 
0.10917282295 -0.19257946916 -0.96705749461 -0.9817944771 -0.038552216258 0.15309721703 0.13823641154 0.091393042527 0.98266582342 
0.089017689477 0.10000894725 0.98490348684 0.84743344773 0.028409023748 -0.50860913646 0.7715422835 0.0010388421798 -0.61223317132 
0.87932919158 0.0829754987 -0.43555637669 
Curv_Gaussian 1 1114 double
3.789728558 3.4331480966 -0.030647605349 -0.01796017523 3.9729482928 -0.031345389645 4.2502460463 -0.031890468954 4.017144902 
-0.024360096024 3.7036395776 -0.0029023667552 4.0503657185 -0.021359786877 4.5605137418 -0.0084153199954 4.5149007545 -0.0029031314404 
4.2786695259 -0.0064683946446 4.1381017483 -0.0062076249818 4.0765176257 -0.019959552556 4.5307972889 -0.016991785663 4.6639755981 
-0.0082471034905 5.0125843445 -0.013684802262 5.0135367748 -0.01097282336 5.0320841858 -0.009748362575 5.4588946766 -0.026275286604 
5.7798475949 -0.012196783911 5.8751608936 -0.01530203663 6.0162685564 -0.071449057786 6.029984918 -0.040643642442 5.9977974253 
-0.054088945309 5.7530342814 -0.057773408605 5.1732666562 -0.0386882999 4.1994399787 -0.041725721211 4.227094326 -0.017795855489 
4.0623783758 -0.010408770415 3.7717084452 -0.010490850427 3.517496057 -0.0060398843205 3.518461368 -0.0046153402155 3.6038740797 
-0.009168695367 3.8525885563 -0.009159654213 4.075591149 -0.003179476132 4.1972272434 -0.0053661912617 4.2333171023 -0.006186339704 
3.9922046814 -0.007119297899 3.9039915098 -0.0033776142642 3.6516651519 -0.010737227024 3.2300478774 -0.0011207243381 3.1187120351 
-0.014586548451 3.5379693141 -0.02976667286 5.1808988467 5.2228070414 -0.010879609951 -0.01235165604 5.1929189615 -0.0094730228124 
4.9542997475 -0.0068372620768 4.9110114402 -0.0037406119234 5.0396235997 -0.0014642299059 5.017883519 -0.0012332867508 5.0190710961 
-0.0018735933642 5.0700135432 -0.0040799329773 5.4121702703 -0.012118794231 5.7101022116 -0.016534705312 5.8704335198 -0.0056966609962 
6.4803254033 -0.0083488015569 7.0940789091 -0.01318533781 7.5748393661 -0.019881093538 6.6739768342 -0.010657140424 6.1154315723 
-0.0042567511694 5.8608106242 -0.010621125043 6.164352631 -0.0041478646807 5.9584798145 -0.0027199164972 5.5136518851 -0.0060939619781 
5.1217413144 -0.0085544202903 5.0746299712 -0.0077884771784 5.214215862 -0.0012992203911 5.3511517126 -0.00082251895828 5.200694009 
-0.0046175938737 4.8773557857 -0.0093292593515 4.5348273597 -0.011965971069 4.5049098644 -0.014654010782 4.9273039891 -0.010963540757 
5.3289151213 -0.0085938450438 5.6390723227 -0.0070915034499 5.4207514715 -0.012012690673 5.1590540819 -0.019872905735 4.8530671935 
-0.018250235294 5.0724983575 -0.012022690225 5.3689930755 -0.0061808332349 5.6030613511 -0.0035878424638 5.5405349385 -0.0016608036664 
5.2395762415 0.00037756530785 4.7828755904 -0.0076125215978 4.3502944566 -0.011711770804 3.9557024574 -0.0082025899499 3.7464494203 
-0.0048333971686 3.6636882577 -0.0016924497317 4.5817197568 -0.0047512584025 5.2130111563 -0.0066322158932 5.2181660367 -0.015804786917 
5.4346124562 -0.016332192377 5.8253907989 -0.0092155313365 5.4380353465 -0.0076923868613 4.8532299646 -0.0064113477507 4.2836009737 
-0.0035910378678 3.8609049339 -0.0017821469464 3.8515720642 -0.0053590132153 3.9962563798 -0.00594800711 4.2976186867 -0.0035951578476 
4.7168564974 -0.0079441517646 -0.0066677163653 -0.028957934384 -0.018415686034 -0.0050528011083 -0.0010986559812 0.0016098576414 -0.0031736800953 
-0.00027201205934 0.0031857558652 0.01055490797 0.0040759843428 2.5363863391e-05 -0.0030808773079 -0.0059524578155 -0.0049487962024 -0.0077238032321 
-0.006870921819 -0.0048478604478 -0.0042887883922 -0.011948134233 -0.011073009295 -0.0074923784842 -0.0089102199917 -0.0014468438648 -0.0042708811869 
-0.0051444461238 -0.0029136017873 -0.0035947823526 -0.0032605781697 -0.0022119300017 -0.003694903134 -0.0063669008383 -0.0055029112385 -0.0040994651225 
-0.006114668383 -0.007942206242 -0.0038772386801 -0.016636312896 -0.0061297772107 -0.018730726431 -0.056060731637 -0.047343277136 -0.0028791413845 
-0.0031955181525 -0.0020090088596 -0.0025421698311 -0.0035019656024 -0.0028899264047 -0.0038338101947 -0.0041813997651 -0.0057148585637 -0.0082051853986 
-0.0094799540235 -0.0053305290924 0.0004070105525 -0.00027474490013 0.0010979479717 -0.00048403633841 -0.00033647599431 0.0012733402807 -0.00010242152447 
-0.0025142801841 -0.0020762716134 -0.00078082860178 6.9816815183e-05 0.00064671404991 -0.0021761270886 -0.0014737916426 -0.0050189825535 -0.0065605014561 
-0.0062173481058 0.00064483226336 -0.00034658054245 0.00096407210277 0.0020196310994 -0.011965368345 -0.0027660589316 -0.0026766881203 -0.0025323785567 
-0.0037945826841 -0.00079344238715 -0.0027109300874 -0.0049736881777 -0.0030488971666 -0.002617264431 -0.0029430311064 0.0045394933729 0.00019283117986 
0.0060191591948 0.013440194276 0.0054135926987 0.0033558834906 0.00081219668533 0.00074861036631 0.0017752514376 0.0037586211075 0.0010606047003 
-0.0027965206777 -0.0020448694407 -0.004347857957 -0.00073484113868 0.00064952847837 0.0057445383172 -0.0038064312982 0.0084867259845 0.006979141864 
0.0021098575669 0.0010195328833 0.0080462483659 0.0045096334208 0.0025378919865 -0.0022286693075 -0.0045720017531 -0.0033840182553 -0.0021480215923 
-0.0040890537512 -0.0018764749833 -0.00031222776761 -0.00027614518533 0.00094428272258 0.0012988745167 0.0068850697122 0.0056323619623 -0.004437942155 
-0.0046613721459 -0.0076245059297 -0.00783543655 -0.0050075742231 -0.0030013517473 -0.0045550184303 -0.0029121439327 -0.0038014870343 -0.0041153408849 
-0.0054443706449 -0.0065813969785 -0.007198402413 -0.012461307005 0.0050137525368 0.011347910473 -0.040934060933 -0.043365554745 -0.027690105148 
-0.014151640688 0.00033590959678 -0.0095900761562 -0.0016374116987 -0.00071306982933 -0.00085106396981 0.0010155890439 0.00076835941215 0.00077886201177 
0.0015925643532 0.0071388773945 0.012038351755 -0.0027065431759 0.005931931812 -0.00013155268707 0.0026275647424 -0.00049326162538 -0.0014303011155 
-0.0044160511108 -0.0053881392803 -0.0026696622904 0.00055431208416 -0.0016608466563 -0.00090063798978 0.0069921942662 0.022427863336 0.015842472042 
0.001619761336 0.002080897567 0.0010835203176 -0.0012542024854 -0.0020088186497 -0.0025638189557 -0.0022011268695 -0.0013826841359 2.0180994725e-05 
-0.0018951991754 -0.0048522196634 -0.0045209440344 -0.0034462386204 -0.0015682352667 0.00029378402113 -0.0010431224079 -0.0018445589906 -0.0015247825544 
-0.0042353597954 -0.0053012127656 -0.0058711546753 -0.0055615098604 -0.0043719649982 0.0023851282911 0.0042842281736 0.00052822209584 0.0031583113257 
-0.00042681275333 0.0013242421487 0.0084985952483 0.0055669991372 0.0047523141555 -0.00022491932418 -0.0046596048395 -0.0017739415498 -0.0014507419151 
-0.0010501043341 -0.00094324393345 0.012025532037 0.012772382407 -0.010136342148 -0.0092026741043 -0.012751642072 -0.012589722337 -0.012477897741 
-0.011822544157 -0.0090376730856 -0.005703396292 -0.0072785664394 -0.0042798671303 -0.0057067006492 -0.0067467304225 -0.0072359671643 -0.0085465878283 
-0.009922701497 -0.0050269045078 -0.00055740768279 -0.002970996952 0.0058715572624 0.0059614750336 -0.0019946182839 -0.0086744946377 -0.0020567779897 
-0.0034104480512 -0.0012803619048 0.001655112215 -0.00029348454901 -0.001287250882 -0.0010947507296 -0.0085380709818 -0.016495026476 -0.015845586366 
-0.009953449262 -0.0043486331686 8.7874498931e-05 0.0020180309734 0.0047936529404 0.0057018255361 0.0089196709968 0.014787909652 0.012873895599 
0.022038915344 0.021612229479 -0.0026705851144 -0.010702830342 -0.0066796132772 -0.0014422782102 -0.0010942422131 -0.010503248583 -0.010155580341 
-0.010912372581 -0.0084987901844 -0.0074681821825 -0.0016985931393 -0.0025600968453 0.0045540175032 0.01103134326 0.015376709207 0.013859308596 
0.0085458188582 0.0055706339126 0.011955216099 0.0033469447653 0.013954389228 0.0068597648422 0.0021851193813 0.0017792750499 -0.00019581128198 
-0.0011653522738 0.00029289784159 0.00029582681681 -0.0051994379454 -0.0059601185858 -0.0044513143919 -0.0025092774541 -0.00090535585343 -0.0013031995558 
-0.0016286611487 -0.0018426761787 0.0031724303593 0.0011398674232 -0.0015538745954 -0.00024421996244 -0.00019964168587 -0.0017214029702 -0.0043143100529 
-0.0085370062075 -0.000479062181 -0.010635333623 0.00051811249849 0.0035976339701 0.00029322388932 -0.00032183134827 -0.00017260740935 -0.0009620204801 
-0.0012783078849 -0.00061410943513 -0.00040784032984 -0.00082256913694 0.0016201862119 0.0084558597011 0.010759348794 0.0058447644972 0.007917346872 
0.003529343714 0.0019451182591 0.0057975407032 -4.2843201668e-05 0.0074203057799 0.0095632163443 0.0042062704404 0.00061588117589 8.573571951e-05 
-0.0019939400161 -0.00068854748083 -0.00051779090865 -0.0015592420272 -0.0050601115956 -0.0002538617501 0.0041074305186 0.0065595607239 0.0072334594071 
0.012914913795 0.013017302167 0.0016868066515 0.0025386641393 -0.0013386372965 -0.0038246324752 -0.0020412444367 0.010207807098 -0.0015650043821 
0.0031522906467 0.0055551691373 0.0064661447298 0.0056694814231 0.0064586226002 0.009768366974 0.0039719384476 0.00061673040979 -0.0042800964261 
-0.0046050311452 -0.0062252621951 -0.0067962750605 -0.0067871264743 -0.0046862090778 -0.0060498004947 -0.0055322585771 -0.0040953494517 -0.0036710971571 
-0.0013215020419 -0.0014329122885 -0.0033276995103 -0.0015406727998 9.5191749679e-05 0.00045674184313 0.0014791530826 0.0054481066963 0.010044235685 
0.0096200480813 0.010926992595 0.0017302641035 0.00093538877023 -0.0034998976989 -0.016031318271 -0.0095498702806 -0.014799996734 -0.0075838136111 
-0.006647229209 -0.0084308462358 -0.0061714682189 -0.0039619583875 -0.0030452160143 -0.0044070685649 -0.010370292879 -0.0088549414742 -0.0027153003174 
-0.0024409640962 -0.012703477131 -0.028038122029 -0.019230558114 -0.0097581041652 -0.0023766195924 -0.0054003543142 0.0023055043945 0.0043004234991 
0.011598257107 0.012422243225 0.017891111558 0.017673794605 0.016795590029 0.0081642391617 -0.011323600842 -0.0039227830071 0.0034063952891 
0.0090128173368 0.015775442531 0.0013918704436 0.0012460214864 -0.0099644763907 -0.0056965910079 0.0057949292704 0.0079622617316 0.0046877973494 
0.0037678103096 -0.0032737909024 -0.0016302173898 0.00049962561011 0.011495730675 0.014136204844 0.013382065205 0.0062342438888 0.00058846273407 
0.0088257948078 0.0096350416348 0.0026289723701 -0.00056752219102 -0.0017376740255 -0.0025718592464 -0.00020497444962 0.0052449973329 0.0048778401626 
-0.00074674652946 -0.00099114776446 0.0010622646271 0.00089355021036 -0.00054362528279 -0.00088073336928 -0.00041719639429 0.00042087049734 0.0017531101237 
-0.00037208547438 0.0034210892573 0.00020100366685 0.00034516278489 -7.1707613649e-05 0.00028236617407 -0.0002037961831 -0.00086995570431 -0.0032270328012 
0.00023991948842 0.004137971272 0.0067598856992 0.0096025904937 0.010820493323 0.0077270452405 0.0056304133389 0.0037911747533 0.0039361974042 
0.0054537024724 0.0027664614965 0.001987737408 0.0038486260777 0.0017560243363 0.0045632779204 -0.00036017253744 0.0021349699924 0.0044548163895 
0.0035930623529 -0.0040063011624 0.006371970535 0.0029994312955 0.0046750031634 0.0025449827598 0.0044210361921 0.0063513002984 0.0050070458756 
0.013170175662 0.01985500565 0.013462679245 0.0073815175962 0.0085952395118 0.0090168552404 0.0033506478604 0.0046502353873 0.0066935360411 
-0.0026994301105 -0.0077485714552 -0.0042633140374 0.0014555155261 0.0086283911891 0.0033672094111 -0.0017588970087 0.00056483429246 0.0018077767025 
-0.00074881417292 -0.00016106321362 0.0039080608681 0.0081472013046 0.016885364475 0.011898878599 0.018135030701 0.018624098862 0.011284943834 
0.012344308638 0.0019671583887 0.00078876408397 5.7711252071e-05 -0.00039964633633 -0.00052763287595 -0.00045481231452 -0.0033377476679 -0.0039980039529 
-0.0023374610888 0.0099019684164 0.015345624929 0.0098073522908 0.0099349271517 0.011525654322 0.010349376586 0.0079638889868 0.0021823134574 
0.0023961039473 -0.00025947920295 0.0097346702569 0.015343793091 0.0032004672068 0.0021564878295 0.0048569957292 0.0063802844104 0.0019861971095 
0.0016671536718 0.0027232191162 0.0027446154524 0.00069115290302 -0.00044703386415 -0.0019310448186 -0.0020943945938 -0.0015132375084 -0.0010595329776 
-0.00039665638396 -0.00034382770459 -0.00074513542742 -0.00065364809756 -0.00037150591557 7.6860260556e-05 0.0030078674797 0.010985250375 0.004486501572 
0.0022795111014 0.0027426175394 0.0069716182725 0.0047432862328 0.0010581564789 0.002393621025 0.0032876329718 0.0035595129056 0.0063904014591 
0.0041920586389 -0.0010671865026 -0.002075987892 -0.00084580393316 -2.3429087409e-05 -0.0027653694532 -0.0012550020436 -0.0033940258918 -0.0071878660159 
-0.0027534616937 0.0015104166253 -0.0026735577454 -0.0086360528826 -0.0095929527312 -0.0047895280392 0.002608306625 0.00046466684183 0.0047827808029 
-0.0047229943319 -0.0067268121563 -0.0094579137359 -0.011515819337 -0.0081293955351 0.00046656162526 0.0059483189836 0.0058773144461 0.0030320507433 
-0.00095282427972 -0.0053504416494 -0.0068437778597 0.0046882703306 0.0064918648959 0.0064720949872 0.019994605308 0.0092721275591 0.018915891591 
0.013483690206 0.013664528419 0.014699094127 0.016789098584 0.0083211201973 0.00096940515515 0.0052645076862 0.011460548891 0.014651336932 
0.015444159957 0.0098286918787 0.00257597578 -0.0034465205317 -0.004132005501 -0.0032279777373 -0.0093059872486 -0.0022609470276 0.0036727808918 
0.00091684786114 0.0011979187142 0.0091368624222 0.014678423407 0.013564366254 0.013889122627 0.013385478223 0.011883322647 0.0087618412642 
0.0085581413311 0.0066769782225 0.0071126178672 0.0066839250776 0.0092349420497 0.0073968918477 0.0055926328522 0.004861591437 0.0036471517065 
0.0017961046401 -0.00059495033519 -0.0004938111221 -0.00057514325742 -0.00066716378197 -0.00076609695475 0.0042557751215 0.0088490741364 0.0057736822202 
0.0090181168759 0.0044480064623 -0.0065423271736 -0.0030022744141 -0.00051316804381 0.0041885328404 0.00717918694 0.00049796952273 0.0019035790415 
0.0086904828487 0.010888729081 0.0062284252536 0.005071817666 0.0036332132821 0.0032780270801 0.0026837439854 0.0021218587821 0.00088068950025 
-0.00046362177738 0.00056263075722 -3.8432631734e-05 -0.0017774619252 -0.00079519879787 0.00093883623952 0.0011817187911 0.0024172869925 0.0033337692232 
0.014419632937 0.013534851551 0.0050205039482 0.0058157054765 0.012538497819 0.016320404628 0.012999691379 0.01358449133 0.015695726658 
0.011041840571 0.0049099512155 0.0035664945918 0.0021632012364 -0.00097320086302 -0.0018105618146 0.00012005133204 0.00053394475018 -0.00065163527571 
-0.0040626384152 -0.0016727049758 0.00036044555699 -0.0024507496516 -0.0012188879545 -6.1982338178e-06 0.0032022593847 0.0083368047285 0.0038838964141 
0.0027437636623 0.0083806400326 0.0035225581333 -0.0012483983205 -0.0084706444076 -0.0087392382141 -0.009390180094 -0.014757146022 -0.010800132538 
-0.0039007882894 -0.00094711526956 -0.0023675824113 -0.0035921673765 -0.0031672740809 0.0050996356359 0.0029681282525 0.00086457973314 0.0010120529565 
0.0019173611287 0.012139159946 0.0013987030974 0.021107406505 -0.00037167522211 -0.0014976643912 -0.00092911738987 -0.0010036878163 -0.0033791647077 
0.0043973168789 -0.00076451799286 -0.0042995964959 0.0075659160085 0.02671938533 0.020435257878 0.0077137557181 0.0087627181662 0.0065992679846 
0.011066801972 0.010284821429 0.0080201911278 0.010047242341 0.016515672873 0.022567384871 0.004475846523 0.0036509322474 0.0039570425781 
0.0040645461591 0.0029408019904 0.0012545725588 -0.00021168651855 0.0010875131171 -0.004090436712 -0.0056617181844 -0.0016535100516 -6.785460789e-05 
0.00054301471975 -0.0002777424168 0.0037538414897 0.0035182905357 0.010262271132 0.013274717544 0.0081438410714 0.0091570268426 0.011688676863 
0.013708103297 0.01603076365 0.017277030503 0.0046507388788 0.010464725559 0.0023957001636 0.0055922340288 0.0051440546135 0.0012908348593 
-0.0006027532516 -0.0022590500975 -0.003477897894 -0.0015060255499 -0.00079905476193 -0.0025291721645 0.00031350197534 0.00021452331615 0.0021794861802 
0.006855274693 0.0097399744161 0.012135928386 0.013483929286 0.016885066118 0.015978592393 0.0037619536287 -0.0022443713853 0.012580539971 
0.0064084662683 -8.8388389949e-05 -0.0013138790592 -0.0012689069761 -0.00032882838896 -4.2985869094e-05 0.018314740966 0.018459356347 0.0149299119 
0.0096295009913 0.006536984731 0.0091732758248 0.012466515213 0.0076506339452 0.002876427273 -0.0051427550146 -0.0060507864287 -0.0072543741917 
-0.0054587682655 0.0039579318406 0.012160578695 0.016938118224 0.017099520749 0.007082705949 0.0017408639126 0.0014381713116 0.0023946258962 
0.0017812562482 0.0024263617618 0.0045473025922 0.0066636957809 0.0076002188887 0.0067988659695 0.014257303477 0.0053087409899 0.013773408609 
0.0026146419709 0.00089706063485 0.0020457872149 0.00027116715871 0.015261830179 0.0075847740872 0.0085509364311 0.0034688572287 0.0014343964035 
4.6642229301e-05 0.0031955982437 -0.011139704697 -0.004637064715 -0.004905018523 -0.001352425258 0.001057874261 0.0014758061177 -0.0031973027485 
-0.002831822162 -0.0020511266633 0.0037829046616 0.016220757871 0.010632278612 0.0043074059348 0.0050956123237 0.0022373224734 0.001362852135 
0.001410925543 0.008428797439 0.0053010966584 0.0044332829945 0.0064819942521 0.011718788214 -0.0024793474255 0.0026383908552 0.0071469042722 
0.020801451127 -0.0069375063298 -0.0054643514709 0.0011108758225 0.0083726669494 0.015145912155 0.014186125678 0.0040501377896 0.0036854866648 
0.0084879097332 0.0077774261862 0.0056491690056 0.0050846633723 0.013463373532 0.0074325665807 0.004446575603 0.0075270617991 0.0019318958765 
0.022835303359 0.015721951087 0.011750329521 0.010385256455 0.0061284770375 0.0085149029523 0.01112821911 0.0017307309976 -0.00034838946926 
0.0025725892709 0.0047387055119 0.0064115130726 0.011801616821 0.017331922834 0.019315836131 0.011425061226 0.0054134935869 0.0086040843335 
0.012716719045 0.013544066739 0.015775864807 0.016179371521 0.016782121587 0.01235120701 0.014946454885 0.012227137477 0.0062791094715 
0.0041259661356 0.0051764086124 0.00665120184 0.012837929725 0.0037681552428 0.014965357101 0.016798175351 0.011419129611 -0.016375305242 
-0.0048945916674 0.0090102359327 0.02464608317 0.015659968018 0.0068160011247 0.0060602176691 0.019472557756 
Curv_Mean 1 1114 double
0.049091277625 -0.093047236853 0.02264556363 0.071657507991 -0.13900240324 -0.015212448642 -0.1452388315 0.018658979794 -0.10614457412 
0.047031686369 -0.048208051843 0.13155207572 -0.091214572713 0.071617492119 0.09919779401 0.0025949750217 0.049096054762 0.0099790998285 
-0.053393845683 -0.016296168817 -0.070265918467 0.020986792021 -0.11847679179 0.0051082803139 -0.13344699008 0.021496063862 0.0063072431909 
-0.046960345488 -0.17995992719 0.018767768618 -0.037458500382 0.052376314728 -0.099511854883 0.082089010306 -0.14560321474 0.052725501093 
-0.03841151419 0.10992542021 -0.10423051797 0.16990933494 -0.37879641611 0.19302284444 -0.074384151174 0.19776643991 -0.033353841724 
0.16818678405 -0.068241486559 0.12785314592 -0.083289230593 0.092123218923 -0.010037172008 0.0028784498321 0.0046980274814 -0.018009774965 
-0.12283328062 0.0034135317795 -0.10078433213 0.048172629947 0.01105691853 0.0066800019761 -0.10350389194 0.02503715537 -0.10524858846 
0.0031545490306 -0.041601839174 -0.0038111390394 -0.041511925143 -0.038173961728 -0.097470629544 0.013559068927 -0.0054781374982 0.00027381366222 
-0.055446012067 0.0043397379129 -0.074575409644 0.045021044101 -0.054197409043 0.0081550384509 -0.033956551189 0.011486223601 -0.060241590088 
-0.01546990786 -0.092974105751 -0.0073812351223 0.056719754222 -0.13065702464 0.021537708226 -0.013833160554 -0.21961715183 0.048548787862 
-0.022453529529 0.034964399094 0.059306026093 0.011812263129 0.039504526816 -0.010135191814 -0.026986666681 -0.014365696048 -0.051214305956 
-0.013210647358 -0.0035739335942 -0.0026508329529 -0.22404835136 0.0043866885901 -0.36941532058 0.010955047945 -0.33494913268 0.073852838628 
0.0073348535571 0.045482078536 0.13061527374 0.018646816423 0.031123805027 0.048003621061 0.02616030644 0.081709742723 -0.18160654247 
0.080661436163 -0.3892723791 0.044034708488 -0.0073793767256 -0.051117831527 0.15712855599 -0.068573881758 0.18353159267 -0.010499929561 
0.029884988862 0.0003898750934 -0.038713118022 0.009598981242 -0.04664049298 0.011806490033 0.033696239692 0.0013397363205 -0.027167865413 
0.01816781715 -0.17002794484 0.0076518671823 -0.24434646779 0.024649008001 -0.20565533853 0.040717822104 -0.0034524000439 0.037392303194 
-0.14508500139 0.059443062015 -0.31704195571 0.093357721515 -0.035334558704 0.072023572502 0.078907973423 0.05604308704 0.022160951156 
-0.057589660304 0.05111466973 0.0039374451084 0.09431995077 0.064826148549 0.13572883794 0.036686491314 0.14455235408 0.03862227846 
0.12692926398 0.071849560484 0.016280696387 0.051234584695 -0.064559883469 0.038022683737 -0.098451777157 0.023770037203 -0.1533770208 
0.022191009673 -0.20866589954 0.012880053735 -0.12004235188 0.023710093496 -0.099884341551 0.017865968821 -0.22923026623 0.0011405740444 
-0.2117155283 0.00090268128673 -0.073029342198 0.021110196508 -0.075301244245 0.0099193344232 -0.10853822172 -0.020305245368 -0.025659354073 
-0.012886546126 0.013243265622 -0.010630296215 -0.071571504941 0.0091380480356 0.002202261776 0.0028616241844 0.23730434684 -0.039100338255 
0.19897732211 -0.03160585145 -0.048479503223 0.056954872235 -0.038452870206 -0.010682020865 -0.024993975204 -0.074854089318 -0.0010156516102 
-0.030795882495 -0.066599049957 -0.1095131902 -0.075352166199 -0.061008193212 -0.014731409463 -0.022582054814 0.0095724262844 0.037779802141 
-0.015805505559 -0.0021621535538 0.026962610708 0.036755676515 0.056462281147 0.042804780491 -0.03107593003 -0.088548286425 -0.069601376314 
-0.012171986709 -0.017008704013 -0.0061986962956 0.0027167971578 0.0068417647081 -0.032241183172 -0.011918286772 -0.0094612963546 -0.0033567791845 
-0.018940356891 -0.0021972510578 0.071308087035 0.048055066794 0.12790587878 0.15352121131 0.10921017787 0.072811645895 -0.0090163099831 
-0.021185083196 -0.011835374885 0.002134912686 0.039284391735 0.034727776212 0.021084790241 0.02513924572 0.043987182229 0.028688426911 
-0.0095027894122 -0.025327473146 -0.06004840312 -0.052200426848 -0.026500903514 -0.020188794144 -0.048558672442 -0.085583858351 -0.065435639229 
-0.029842882149 -0.034888060114 -0.034140090498 0.013096274336 0.029559180703 0.0009757875723 0.00056065279366 -0.0046539187118 -0.0099170432441 
-0.030573591675 -0.042895941563 -0.01779021014 -0.047203210454 -0.066394594045 -0.031859591431 -0.025311049168 0.027399333167 0.071542782246 
0.037291066933 0.043792109307 0.010159581064 -0.010513573547 -0.018216698432 -0.028721457798 -0.029829764998 -0.065470194255 -0.061400332257 
-0.092287691559 -0.1127026312 -0.07422174029 -0.062669025521 -0.041351594426 -0.039272374321 -0.045562727486 -0.060240415645 -0.050059752649 
-0.030710247931 -0.045829131596 -0.036727043067 -0.00081725943047 -0.02175665102 -0.088409043808 -0.014836748061 -0.1073412493 -0.092277932135 
-0.065778748309 -0.051215141113 -0.093339099369 -0.084817627957 -0.091796842533 -0.026754956424 -0.023693130739 -0.0144894617 -0.00057902487311 
-0.016033458513 -0.01369192769 -0.024359762137 -0.033068868599 -0.038608637059 -0.049096207849 -0.10548814361 -0.10130544623 -0.0031647097617 
-0.018404509267 0.025758451601 0.023501789334 0.022271429605 0.016391696597 -0.0070451441963 -0.036216059782 -0.020435474197 0.0023065360196 
0.00014291676212 -0.0060528057615 0.051965447033 0.056813675135 0.13897948422 0.071771442275 0.064984908091 0.025658052332 0.048213088917 
-0.0010064790648 -0.032638790531 -0.024225446286 -0.018027241393 -0.029443843418 -0.038168743505 -0.06340856503 -0.066774860287 -0.06832070025 
-0.069736868893 -0.091791361517 -0.11445098239 -0.0074113706596 -0.071219678123 -0.023344194405 -0.055373764433 -0.012444276833 0.018129031719 
0.0032183233766 -0.029200338811 -0.064555124134 -0.036757193534 0.0038919205434 -0.0073014706582 -0.054623212018 -0.13519778506 -0.12186392807 
-0.063804561469 -0.05511954941 -0.040231056329 -0.026659054089 -0.017736625824 -0.018541559942 -0.027665055445 -0.037349285211 -0.051454726378 
-0.041924479418 -0.011085748195 0.0026706041862 0.0010899347677 -0.0039245656681 0.039767436247 0.038476027298 0.029287811972 0.042614255189 
0.041539421285 0.031347450062 0.0046004555891 -0.018238852004 -0.038343840364 -0.072416495115 -0.057133422588 -0.03319949915 -0.069333528849 
-0.053013791221 -0.06143451253 -0.09764817524 -0.07822183203 -0.075093091837 -0.045891458769 -0.017610717172 -0.0029369973489 0.0026888364452 
-0.0028116812785 0.0055119195728 -0.11537542934 -0.11776373905 0.050854575637 0.0053328837113 0.045153451111 0.074672511857 0.063619507758 
0.046860014196 0.04008692079 0.057805784848 0.03546025133 -0.017666728882 0.042226994635 0.010324168956 0.0047141946398 0.01431629808 
0.017302887837 -0.013922491529 -0.027946867359 0.079390092691 -0.12991177234 -0.10530547912 -0.014491679697 0.0043834297693 -0.032000188537 
-0.024400401126 -0.022264084313 -0.042457685834 -0.018176980983 0.008396116542 0.0033877414529 -0.0088260702978 -0.00067400629913 0.046307402966 
0.014619398936 -0.013946020946 -0.025334136603 -0.055681136535 -0.071415174533 -0.086601714485 -0.10423225136 -0.13197901248 -0.13104142254 
-0.15746322727 -0.17147788622 -0.10675603978 -0.093571313867 -0.056965631565 -0.091697993047 -0.009243395271 0.0095105764993 0.043956091448 
0.014345066941 0.028220841845 -0.016821866661 -0.039765228305 -0.014784042358 -0.066292451265 -0.10715538479 -0.12546696869 -0.11852624207 
-0.092973754609 -0.077441196791 -0.11050493301 -0.066913265403 -0.1257307484 -0.103428926 -0.063266974246 -0.047722310795 -0.030163724509 
-0.011759376156 -0.011588323329 -0.061293248967 -0.060116727312 -0.01010485772 0.0071718616577 0.011114739593 0.0052045332258 -0.016908337366 
-0.062319661811 -0.062036122198 -0.066594992971 -0.042228236825 -0.017686552892 -0.033198950442 -0.039089170671 -0.032949599637 -0.016813350889 
0.013441524958 -0.044117196604 0.0031812778384 -0.055425500565 -0.057916912929 -0.014607249901 0.0024343444068 0.011301591788 0.013105961792 
0.019176979959 0.042799009922 0.011865295121 -0.0085377472314 -0.041631420956 -0.08755507275 -0.10610376572 -0.081674494397 -0.086453361274 
-0.058849308124 -0.066998501329 -0.087186453002 -0.054097208218 -0.087258373526 -0.097449967901 -0.069025816538 -0.048429974745 -0.023546994819 
-0.0031726444654 0.028573919277 0.032931768997 -0.0015201015691 0.0039876393359 -0.028421380739 -0.071633167353 -0.085969731165 -0.085491384042 
-0.11278848293 -0.11383249908 -0.0075515453021 -0.048484448649 0.0061765132244 0.0093035423382 0.01658822851 0.12158545388 -0.051122036855 
-0.082896438762 -0.098207195427 -0.091901001401 -0.083853981295 -0.086074403213 -0.099029629107 -0.067857524045 -0.027590328642 -0.021977413257 
-0.0083056236675 0.0054194466185 0.013634569745 0.01374221373 0.044220717622 0.049787474643 0.032781809431 0.03560628607 -0.0077127363762 
0.0049068752729 -0.011696253755 -0.020409955603 -0.036665479326 -0.045194154778 -0.038949351591 -0.052412209741 -0.10693978296 -0.15947627392 
-0.086683209102 -0.1192211964 -0.06798560992 -0.049869584379 -0.013005475351 -0.022886999792 -0.026403996027 -0.0066771061502 -0.022203266617 
-0.0042871908175 0.015757341796 0.048739992654 0.068582952688 0.053484047346 0.05520647171 0.060738587289 0.071069237131 0.097816248622 
0.12174127407 0.11476013316 0.059460893415 0.055261050751 0.0067074865301 -0.035621936107 -0.012152457835 -0.075074661145 -0.11294282055 
-0.142943869 -0.13904769639 -0.15987805995 -0.16157224618 -0.1528386842 -0.096440097052 -0.049481180504 -0.067485298941 -0.077051183217 
-0.12242477703 -0.16068510489 -0.053940204143 -0.059362666271 0.0066336983172 -0.019552637064 -0.077522072107 -0.089746623639 -0.072732918371 
-0.066027995168 -0.035047750115 -0.05501883649 -0.074916151236 -0.11783954127 -0.11869600382 -0.12858469669 -0.10057123447 -0.089547275616 
-0.11384182921 -0.10113634476 -0.065225813255 0.01506859565 0.031157771118 -0.020721571167 -0.051027272944 -0.086907158218 -0.075638465038 
-0.042901954074 -0.033500919193 -0.045749604064 -0.046292912704 -0.036559324244 -0.039059149224 -0.044301081337 -0.056005334317 -0.068663072575 
-0.040262244375 -0.065897273005 -0.033006319456 -0.025967760729 -0.037572149707 -0.0081547319991 0.0088514766864 -0.030446888522 -0.041203501369 
-0.061027013627 -0.071343706181 -0.08874764665 -0.10295298456 -0.10445741236 -0.089322864024 -0.078252137347 -0.06139995498 -0.07187955046 
-0.073129812967 -0.074743872412 -0.060504176029 -0.079925005327 -0.066620226805 -0.072256465698 -0.042710062498 -0.059255539172 -0.070565290987 
-0.072140665312 -0.027754333841 -0.08234673022 -0.061054223417 -0.070987444227 -0.059726563868 -0.070606712496 -0.079175308225 -0.071662087697 
-0.10844453542 -0.14039873445 -0.11824506126 -0.096498956326 -0.10258238052 -0.10509972549 -0.078099540508 -0.080399337232 -0.095293552204 
-0.063937993489 -0.013182931192 0.012101299932 -0.042722549241 -0.10031032689 -0.080550532344 -0.053910252903 -0.048017506431 -0.049219480746 
-0.043838631609 -0.046284202775 -0.066550346222 -0.08750483601 -0.12779106255 -0.10465914792 -0.14167615089 -0.14205636968 -0.10768817031 
-0.11168438371 -0.055546728361 -0.041969297767 -0.02058864073 -0.0087126771021 -0.015365848239 -0.0015229105489 -0.034879230158 -0.03595470001 
-0.020504442146 -0.10715238143 -0.13110890557 -0.1080447669 -0.10468158991 -0.10850510882 -0.10523790708 -0.096048984093 -0.057605824952 
-0.051359991731 -0.025984550892 -0.096464204628 -0.12130817377 -0.078616282284 -0.072083052504 -0.079357433676 -0.080848411622 -0.050964747617 
-0.059456850766 -0.057862979608 -0.056774217334 -0.038512158271 -0.022322069436 -0.0028458231257 0.022412839562 0.011292694181 -0.029253639446 
-0.023494604503 -0.01810714468 -0.0062052765723 0.0085337042561 -0.014101381095 -0.036297598108 -0.06994096798 -0.12326844158 -0.099525184969 
-0.049456910188 -0.053673958669 -0.087921578987 -0.087917113677 -0.073652102054 -0.066413081803 -0.064355272043 -0.067095741695 -0.085587590649 
-0.074158811421 -0.03857066912 -0.0068135374623 0.032009883922 0.06072807258 0.054205104523 0.077115177508 0.059544293457 0.041940918142 
0.081663521361 0.095413553492 0.082071504002 0.042107767719 0.021713268785 -0.012824648003 -0.071494460563 -0.043828053545 -0.074259602656 
-0.0014118541144 0.014424603995 -0.0062928905092 -0.041124703331 -0.017717629426 -0.06277180119 -0.098210881099 -0.082331097266 -0.061951763625 
-0.031130711939 -0.0049804631517 0.018164303809 -0.083655845339 -0.093463001337 -0.092196706126 -0.16344209371 -0.10562267617 -0.17920765367 
-0.12375147885 -0.11698779401 -0.11553205462 -0.13364007619 -0.086336569189 -0.043035432822 -0.073005645299 -0.11404769254 -0.12809885593 
-0.13343172093 -0.11999398415 -0.073473529353 0.014056253387 0.015803957887 -0.037485736844 0.00057672817839 -0.04406850866 -0.077354898902 
-0.047181017127 -0.040167778925 -0.089286342516 -0.12394242912 -0.12180395105 -0.12389417205 -0.11816436518 -0.1093130435 -0.096888667311 
-0.096156889369 -0.082551864832 -0.089597053064 -0.072163666443 -0.085511040106 -0.092247623103 -0.086638909479 -0.088457935941 -0.080451468028 
-0.075477207272 -0.055206911634 -0.0091857641994 0.03120780995 0.0053668542065 -0.016388145198 -0.065433899366 -0.085514910435 -0.07848554695 
-0.094329150842 -0.065166268067 -0.027931016803 -0.025251339411 -0.031887218586 -0.064968896998 -0.094798616763 -0.037316852661 -0.080322379569 
-0.098566075272 -0.1051085602 -0.079912631018 -0.07163583777 -0.061776682876 -0.058953340125 -0.053575986446 -0.04951429297 -0.039068692491 
-0.030626929388 -0.042029431738 -0.039496351964 -0.00843581084 -0.040235354818 -0.053669552839 -0.066798080639 -0.057400859963 -0.075577347212 
-0.13885136625 -0.13351027395 -0.076163761459 -0.076937516917 -0.10881053905 -0.12775653491 -0.11647477123 -0.12076443683 -0.12956887682 
-0.11019109491 -0.079246660353 -0.064073803203 -0.043912211506 -0.028822855415 -0.0032126502723 0.030244378447 0.014233778411 -0.0073068689166 
0.01878382806 0.032883744055 0.033904031211 -0.011146003354 -0.027011167535 -0.039745796074 -0.061335086436 -0.10159923394 -0.065155818706 
-0.05671035915 -0.099690638704 -0.071032406163 -0.074473554671 -0.068868828686 -0.035940009837 -0.011550712372 -0.033180023372 0.0023223032736 
0.0010203036745 0.023007676336 -0.00065437079069 -0.0075952460733 -0.027091186995 -0.088629547904 -0.064012347651 -0.042663949574 -0.039444957333 
-0.062395770251 -0.1158826234 -0.077807651448 -0.1483097431 -0.025891210183 -0.012522317877 0.023621086398 0.02510265603 0.025886201589 
0.11115918601 0.015439666755 0.0069069200392 -0.067994103149 -0.16840142234 -0.14244668063 -0.091475267075 -0.08792439331 -0.092637058105 
-0.11813062596 -0.1164336018 -0.090017757021 -0.096943602002 -0.14055315647 -0.16003740572 -0.07578383833 -0.064675686756 -0.064598319192 
-0.064416754323 -0.055106623129 -0.040149241806 -0.028667034121 -0.044113141306 -0.060379962204 -0.066510923688 -0.070979715713 -0.0099613465473 
-0.021072839774 -0.0068135595619 -0.068889266872 -0.064708558979 -0.10908656976 -0.12802579231 -0.094254795066 -0.097626986791 -0.10924021548 
-0.11929428492 -0.12955826864 -0.1325297473 -0.091157714801 -0.10788879594 -0.088204135022 -0.085799211839 -0.062332300475 -0.037360704688 
0.012044870431 0.02563327171 -0.0010222101812 -0.025772712902 0.0011659023656 -0.005732685203 -0.0079108869441 -0.023866216063 -0.050141878412 
-0.0839616125 -0.10425453807 -0.10324858198 -0.12914855197 -0.13125560293 -0.1277293972 -0.075039964246 -0.048922802436 -0.11366706152 
-0.071202513471 -0.029644691043 -0.021233894439 -0.015781861307 0.00051420365247 -0.041118114248 -0.13189875317 -0.14077797501 -0.1364081141 
-0.11145228214 -0.09807911729 -0.10989543075 -0.12578752236 -0.082555743652 -0.10838783942 -0.022854182621 0.0023356997529 0.0015359753837 
-0.020840108071 -0.071227127579 -0.11443995935 -0.13060613254 -0.12870858947 -0.085958761333 -0.055827858727 -0.052780116567 -0.058897166299 
-0.052003794989 -0.054595635835 -0.071489169699 -0.087899424476 -0.092759123387 -0.08908523662 -0.12110748537 -0.078824859902 -0.11798508225 
-0.049708108294 -0.028083662362 -0.04104552855 -0.021286758826 -0.12183244669 -0.099973670587 -0.10075847612 -0.065757728606 -0.055657999382 
-0.04563203441 -0.059575451483 -0.044935087927 0.020066088317 0.043495940149 0.027177192923 -0.036792087171 -0.023718810517 -0.0060464319279 
-0.0071669279258 -0.010485986431 -0.078796843194 -0.12706430949 -0.12630589043 -0.071422733108 -0.063911726161 -0.051781572879 -0.055552591108 
-0.050981884393 -0.097985005583 -0.085857232532 -0.076935153683 -0.094828445267 -0.10038313234 -0.011232794649 -0.055967879601 -0.092350541586 
-0.14936266364 -0.0056785726538 -0.023079528379 -0.062746706956 -0.10024990851 -0.12638166576 -0.12360535196 -0.080520041842 -0.06637355558 
-0.087970639938 -0.090280105107 -0.076502960501 -0.072443782515 -0.11691022238 -0.092475222013 -0.071323868233 -0.086400797448 -0.042859771824 
-0.15636820238 -0.13754426335 -0.12719262512 -0.12613140573 -0.097997480603 -0.11127686034 -0.12281569822 -0.051649242296 -0.039367156352 
-0.053748206333 -0.071171313045 -0.083256672882 -0.12205013992 -0.13604359662 -0.14421360331 -0.1088433566 -0.083862347571 -0.099957768874 
-0.1143205578 -0.12263079777 -0.12719875673 -0.12737735831 -0.12890024563 -0.11360396417 -0.12460381626 -0.11329578311 -0.087258290883 
-0.06992474288 -0.075371929033 -0.086026547028 -0.12309598541 -0.068813808422 -0.12034373543 -0.12760391635 -0.10835374675 -0.066707563783 
-0.057306456314 -0.095097641715 -0.16016698753 -0.12550638012 -0.087817175601 -0.081017876366 -0.14062047169 
Displacement_Root 3 1114 double
-0.0012168884277 -0.15603637695 0.24750518799 -0.0012168884277 -0.15603637695 0.24750518799 -0.0012168884277 -0.15603637695 0.24750518799 
-0.0012168884277 -0.15603637695 0.24750518799 -0.0012168884277 -0.15603637695 0.24750518799 -0.0012168884277 -0.15603637695 0.24750518799 
-0.0012168884277 -0.15603637695 0.24750518799 -0.0012168884277 -0.15603637695 0.24750518799 -0.0012168884277 -0.15603637695 0.24750518799 
-0.0012168884277 -0.15603637695 0.24750518799 -0.0012168884277 -0.15603637695 0.24750518799 -0.0012168884277 -0.15603637695 0.24750518799 
-0.0012168884277 -0.15603637695 0.24750518799 -0.0012168884277 -0.15603637695 0.24750518799 -0.0012168884277 -0.15603637695 0.24750518799 
-0.0012168884277 -0.15603637695 0.24750518799 -0.0012168884277 -0.15603637695 0.24750518799 -0.0012168884277 -0.15603637695 0.24750518799 
-0.0012168884277 -0.15603637695 0.24750518799 -0.0012168884277 -0.15603637695 0.24750518799 -0.0012168884277 -0.15603637695 0.24750518799 
-0.0012168884277 -0.15603637695 0.24750518799 -0.0012168884277 -0.15603637695 0.24750518799 -0.0012168884277 -0.15603637695 0.24750518799 
-0.0012168884277 -0.15603637695 0.24750518799 -0.0012168884277 -0.15603637695 0.24750518799 -0.0012168884277 -0.15603637695 0.24750518799 
-0.0012168884277 -0.15603637695 0.24750518799 -0.0012168884277 -0.15603637695 0.24750518799 -0.0012168884277 -0.15603637695 0.24750518799 
-0.0012168884277 -0.15603637695 0.24750518799 -0.0012168884277 -0.15603637695 0.24750518799 -0.0012168884277 -0.15603637695 0.24750518799 
-0.0012168884277 -0.15603637695 0.24750518799 -0.0012168884277 -0.15603637695 0.24750518799 -0.0012168884277 -0.15603637695 0.24750518799 
-0.0012168884277 -0.15603637695 0.24750518799 -0.0012168884277 -0.15603637695 0.24750518799 -0.0012168884277 -0.15603637695 0.24750518799 
-0.0012168884277 -0.15603637695 0.24750518799 -0.0012168884277 -0.15603637695 0.24750518799 -0.0012168884277 -0.15603637695 0.24750518799 
-0.0012168884277 -0.15603637695 0.24750518799 -0.0012168884277 -0.15603637695 0.24750518799 -0.0012168884277 -0.15603637695 0.24750518799 
-0.0012168884277 -0.15603637695 0.24750518799 -0.0012168884277 -0.15603637695 0.24750518799 -0.0012168884277 -0.15603637695 0.24750518799 
-0.0012168884277 -0.15603637695 0.24750518799 -0.0012168884277 -0.15603637695 0.24750518799 -0.0012168884277 -0.15603637695 0.24750518799 
-0.0012168884277 -0.15603637695 0.24750518799 -0.0012168884277 -0.15603637695 0.24750518799 -0.0012168884277 -0.15603637695 0.24750518799 
-0.0012168884277 -0.15603637695 0.24750518799 -0.0012168884277 -0.15603637695 0.24750518799 -0.0012168884277 -0.15603637695 0.24750518799 
-0.0012168884277 -0.15603637695 0.24750518799 -0.0012168884277 -0.15603637695 0.24750518799 -0.0012168884277 -0.15603637695 0.24750518799 
-0.0012168884277 -0.15603637695 0.24750518799 -0.0012168884277 -0.15603637695 0.24750518799 -0.0012168884277 -0.15603637695 0.24750518799 
-0.0012168884277 -0.15603637695 0.24750518799 -0.0012168884277 -0.15603637695 0.24750518799 -0.0012168884277 -0.15603637695 0.24750518799 
-0.0012168884277 -0.15603637695 0.24750518799 -0.0012168884277 -0.15603637695 0.24750518799 -0.0012168884277 -0.15603637695 0.24750518799 
-0.0012168884277 -0.15603637695 0.24750518799 -0.0012168884277 -0.15603637695 0.24750518799 -0.0012168884277 -0.15603637695 0.24750518799 
-0.0012168884277 -0.15603637695 0.24750518799 -0.0012168884277 -0.15603637695 0.24750518799 -0.0012168884277 -0.15603637695 0.24750518799 
-0.0012168884277 -0.15603637695 0.24750518799 -0.0012168884277 -0.15603637695 0.24750518799 -0.0012168884277 -0.15603637695 0.24750518799 
-0.0012168884277 -0.15603637695 0.24750518799 -0.0012168884277 -0.15603637695 0.24750518799 -0.0012168884277 -0.15603637695 0.24750518799 
-0.0012168884277 -0.15603637695 0.24750518799 -0.0012168884277 -0.15603637695 0.24750518799 -0.0012168884277 -0.15603637695 0.24750518799 
-0.0012168884277 -0.15603637695 0.24750518799 -0.0012168884277 -0.15603637695 0.24750518799 -0.0012168884277 -0.15603637695 0.24750518799 
-0.0012168884277 -0.15603637695 0.24750518799 -0.0012168884277 -0.15603637695 0.24750518799 -0.0012168884277 -0.15603637695 0.24750518799 
-0.0012168884277 -0.15603637695 0.24750518799 -0.0012168884277 -0.15603637695 0.24750518799 -0.0012168884277 -0.15603637695 0.24750518799 
-0.0012168884277 -0.15603637695 0.24750518799 -0.0012168884277 -0.15603637695 0.24750518799 -0.0012168884277 -0.15603637695 0.24750518799 
-0.0012168884277 -0.15603637695 0.24750518799 -0.0012168884277 -0.15603637695 0.24750518799 -0.0012168884277 -0.15603637695 0.24750518799 
-0.0012168884277 -0.15603637695 0.24750518799 -0.0012168884277 -0.15603637695 0.24750518799 -0.0012168884277 -0.15603637695 0.24750518799 
-0.0012168884277 -0.15603637695 0.24750518799 -0.0012168884277 -0.15603637695 0.24750518799 -0.0012168884277 -0.15603637695 0.24750518799 
-0.0012168884277 -0.15603637695 0.24750518799 -0.0012168884277 -0.15603637695 0.24750518799 -0.0012168884277 -0.15603637695 0.24750518799 
-0.0012168884277 -0.15603637695 0.24750518799 -0.0012168884277 -0.15603637695 0.24750518799 -0.0012168884277 -0.15603637695 0.24750518799 
-0.0012168884277 -0.15603637695 0.24750518799 -0.0012168884277 -0.15603637695 0.24750518799 -0.0012168884277 -0.15603637695 0.24750518799 
-0.0012168884277 -0.15603637695 0.24750518799 -0.0012168884277 -0.15603637695 0.24750518799 -0.0012168884277 -0.15603637695 0.24750518799 
-0.0012168884277 -0.15603637695 0.24750518799 -0.0012168884277 -0.15603637695 0.24750518799 -0.0012168884277 -0.15603637695 0.24750518799 
-0.0012168884277 -0.15603637695 0.24750518799 -0.0012168884277 -0.15603637695 0.24750518799 -0.0012168884277 -0.15603637695 0.24750518799 
-0.0012168884277 -0.15603637695 0.24750518799 -0.0012168884277 -0.15603637695 0.24750518799 -0.0012168884277 -0.15603637695 0.24750518799 
-0.0012168884277 -0.15603637695 0.24750518799 -0.0012168884277 -0.15603637695 0.24750518799 -0.0012168884277 -0.15603637695 0.24750518799 
-0.0012168884277 -0.15603637695 0.24750518799 -0.0012168884277 -0.15603637695 0.24750518799 -0.0012168884277 -0.15603637695 0.24750518799 
-0.0012168884277 -0.15603637695 0.24750518799 -0.0012168884277 -0.15603637695 0.24750518799 -0.0012168884277 -0.15603637695 0.24750518799 
-0.0012168884277 -0.15603637695 0.24750518799 -0.0012168884277 -0.15603637695 0.24750518799 -0.0012168884277 -0.15603637695 0.24750518799 
-0.0012168884277 -0.15603637695 0.24750518799 -0.0012168884277 -0.15603637695 0.24750518799 -0.0012168884277 -0.15603637695 0.24750518799 
-0.0012168884277 -0.15603637695 0.24750518799 -0.0012168884277 -0.15603637695 0.24750518799 -0.0012168884277 -0.15603637695 0.24750518799 
-0.0012168884277 -0.15603637695 0.24750518799 -0.0012168884277 -0.15603637695 0.24750518799 -0.0012168884277 -0.15603637695 0.24750518799 
-0.0012168884277 -0.15603637695 0.24750518799 -0.0012168884277 -0.15603637695 0.24750518799 -0.0012168884277 -0.15603637695 0.24750518799 
-0.0012168884277 -0.15603637695 0.24750518799 -0.0012168884277 -0.15603637695 0.24750518799 -0.0012168884277 -0.15603637695 0.24750518799 
-0.0012168884277 -0.15603637695 0.24750518799 -0.0012168884277 -0.15603637695 0.24750518799 -0.0012168884277 -0.15603637695 0.24750518799 
-0.0012168884277 -0.15603637695 0.24750518799 -0.0012168884277 -0.15603637695 0.24750518799 -0.0012168884277 -0.15603637695 0.24750518799 
-0.0012168884277 -0.15603637695 0.24750518799 -0.0012168884277 -0.15603637695 0.24750518799 -0.0012168884277 -0.15603637695 0.24750518799 
-0.0012168884277 -0.15603637695 0.24750518799 -0.0012168884277 -0.15603637695 0.24750518799 -0.0012168884277 -0.15603637695 0.24750518799 
-0.0012168884277 -0.15603637695 0.24750518799 -0.0012168884277 -0.15603637695 0.24750518799 -0.0012168884277 -0.15603637695 0.24750518799 
-0.0012168884277 -0.15603637695 0.24750518799 -0.0012168884277 -0.15603637695 0.24750518799 -0.0012168884277 -0.15603637695 0.24750518799 
-0.0012168884277 -0.15603637695 0.24750518799 -0.0012168884277 -0.15603637695 0.24750518799 -0.0012168884277 -0.15603637695 0.24750518799 
-0.0012168884277 -0.15603637695 0.24750518799 -0.0012168884277 -0.15603637695 0.24750518799 -0.0012168884277 -0.15603637695 0.24750518799 
-0.0012168884277 -0.15603637695 0.24750518799 -0.0012168884277 -0.15603637695 0.24750518799 -0.0012168884277 -0.15603637695 0.24750518799 
-0.0012168884277 -0.15603637695 0.24750518799 -0.0012168884277 -0.15603637695 0.24750518799 -0.0012168884277 -0.15603637695 0.24750518799 
-0.0012168884277 -0.15603637695 0.24750518799 -0.0012168884277 -0.15603637695 0.24750518799 -0.0012168884277 -0.15603637695 0.24750518799 
-0.0012168884277 -0.15603637695 0.24750518799 -0.0012168884277 -0.15603637695 0.24750518799 -0.0012168884277 -0.15603637695 0.24750518799 
-0.0012168884277 -0.15603637695 0.24750518799 -0.0012168884277 -0.15603637695 0.24750518799 -0.0012168884277 -0.15603637695 0.24750518799 
-0.0012168884277 -0.15603637695 0.24750518799 -0.0012168884277 -0.15603637695 0.24750518799 -0.0012168884277 -0.15603637695 0.24750518799 
-0.0012168884277 -0.15603637695 0.24750518799 -0.0012168884277 -0.15603637695 0.24750518799 -0.0012168884277 -0.15603637695 0.24750518799 
-0.0012168884277 -0.15603637695 0.24750518799 -0.0012168884277 -0.15603637695 0.24750518799 -0.0012168884277 -0.15603637695 0.24750518799 
-0.0012168884277 -0.15603637695 0.24750518799 -0.0012168884277 -0.15603637695 0.24750518799 -0.0012168884277 -0.15603637695 0.24750518799 
-0.0012168884277 -0.15603637695 0.24750518799 -0.0012168884277 -0.15603637695 0.24750518799 -0.0012168884277 -0.15603637695 0.24750518799 
-0.0012168884277 -0.15603637695 0.24750518799 -0.0012168884277 -0.15603637695 0.24750518799 -0.0012168884277 -0.15603637695 0.24750518799 
-0.0012168884277 -0.15603637695 0.24750518799 -0.0012168884277 -0.15603637695 0.24750518799 -0.0012168884277 -0.15603637695 0.24750518799 
-0.0012168884277 -0.15603637695 0.24750518799 -0.0012168884277 -0.15603637695 0.24750518799 -0.0012168884277 -0.15603637695 0.24750518799 
-0.0012168884277 -0.15603637695 0.24750518799 -0.0012168884277 -0.15603637695 0.24750518799 -0.0012168884277 -0.15603637695 0.24750518799 
-0.0012168884277 -0.15603637695 0.24750518799 -0.0012168884277 -0.15603637695 0.24750518799 -0.0012168884277 -0.15603637695 0.24750518799 
-0.0012168884277 -0.15603637695 0.24750518799 -0.0012168884277 -0.15603637695 0.24750518799 -0.0012168884277 -0.15603637695 0.24750518799 
-0.0012168884277 -0.15603637695 0.24750518799 -0.0012168884277 -0.15603637695 0.24750518799 -0.0012168884277 -0.15603637695 0.24750518799 
-0.0012168884277 -0.15603637695 0.24750518799 -0.0012168884277 -0.15603637695 0.24750518799 -0.0012168884277 -0.15603637695 0.24750518799 
-0.0012168884277 -0.15603637695 0.24750518799 -0.0012168884277 -0.15603637695 0.24750518799 -0.0012168884277 -0.15603637695 0.24750518799 
-0.0012168884277 -0.15603637695 0.24750518799 -0.0012168884277 -0.15603637695 0.24750518799 -0.0012168884277 -0.15603637695 0.24750518799 
-0.0012168884277 -0.15603637695 0.24750518799 -0.0012168884277 -0.15603637695 0.24750518799 -0.0012168884277 -0.15603637695 0.24750518799 
-0.0012168884277 -0.15603637695 0.24750518799 -0.0012168884277 -0.15603637695 0.24750518799 -0.0012168884277 -0.15603637695 0.24750518799 
-0.0012168884277 -0.15603637695 0.24750518799 -0.0012168884277 -0.15603637695 0.24750518799 -0.0012168884277 -0.15603637695 0.24750518799 
-0.0012168884277 -0.15603637695 0.24750518799 -0.0012168884277 -0.15603637695 0.24750518799 -0.0012168884277 -0.15603637695 0.24750518799 
-0.0012168884277 -0.15603637695 0.24750518799 -0.0012168884277 -0.15603637695 0.24750518799 -0.0012168884277 -0.15603637695 0.24750518799 
-0.0012168884277 -0.15603637695 0.24750518799 -0.0012168884277 -0.15603637695 0.24750518799 -0.0012168884277 -0.15603637695 0.24750518799 
-0.0012168884277 -0.15603637695 0.24750518799 -0.0012168884277 -0.15603637695 0.24750518799 -0.0012168884277 -0.15603637695 0.24750518799 
-0.0012168884277 -0.15603637695 0.24750518799 -0.0012168884277 -0.15603637695 0.24750518799 -0.0012168884277 -0.15603637695 0.24750518799 
-0.0012168884277 -0.15603637695 0.24750518799 -0.0012168884277 -0.15603637695 0.24750518799 -0.0012168884277 -0.15603637695 0.24750518799 
-0.0012168884277 -0.15603637695 0.24750518799 -0.0012168884277 -0.15603637695 0.24750518799 -0.0012168884277 -0.15603637695 0.24750518799 
-0.0012168884277 -0.15603637695 0.24750518799 -0.0012168884277 -0.15603637695 0.24750518799 -0.0012168884277 -0.15603637695 0.24750518799 
-0.0012168884277 -0.15603637695 0.24750518799 -0.0012168884277 -0.15603637695 0.24750518799 -0.0012168884277 -0.15603637695 0.24750518799 
-0.0012168884277 -0.15603637695 0.24750518799 -0.0012168884277 -0.15603637695 0.24750518799 -0.0012168884277 -0.15603637695 0.24750518799 
-0.0012168884277 -0.15603637695 0.24750518799 -0.0012168884277 -0.15603637695 0.24750518799 -0.0012168884277 -0.15603637695 0.24750518799 
-0.0012168884277 -0.15603637695 0.24750518799 -0.0012168884277 -0.15603637695 0.24750518799 -0.0012168884277 -0.15603637695 0.24750518799 
-0.0012168884277 -0.15603637695 0.24750518799 -0.0012168884277 -0.15603637695 0.24750518799 -0.0012168884277 -0.15603637695 0.24750518799 
-0.0012168884277 -0.15603637695 0.24750518799 -0.0012168884277 -0.15603637695 0.24750518799 -0.0012168884277 -0.15603637695 0.24750518799 
-0.0012168884277 -0.15603637695 0.24750518799 -0.0012168884277 -0.15603637695 0.24750518799 -0.0012168884277 -0.15603637695 0.24750518799 
-0.0012168884277 -0.15603637695 0.24750518799 -0.0012168884277 -0.15603637695 0.24750518799 -0.0012168884277 -0.15603637695 0.24750518799 
-0.0012168884277 -0.15603637695 0.24750518799 -0.0012168884277 -0.15603637695 0.24750518799 -0.0012168884277 -0.15603637695 0.24750518799 
-0.0012168884277 -0.15603637695 0.24750518799 -0.0012168884277 -0.15603637695 0.24750518799 -0.0012168884277 -0.15603637695 0.24750518799 
-0.0012168884277 -0.15603637695 0.24750518799 -0.0012168884277 -0.15603637695 0.24750518799 -0.0012168884277 -0.15603637695 0.24750518799 
-0.0012168884277 -0.15603637695 0.24750518799 -0.0012168884277 -0.15603637695 0.24750518799 -0.0012168884277 -0.15603637695 0.24750518799 
-0.0012168884277 -0.15603637695 0.24750518799 -0.0012168884277 -0.15603637695 0.24750518799 -0.0012168884277 -0.15603637695 0.24750518799 
-0.0012168884277 -0.15603637695 0.24750518799 -0.0012168884277 -0.15603637695 0.24750518799 -0.0012168884277 -0.15603637695 0.24750518799 
-0.0012168884277 -0.15603637695 0.24750518799 -0.0012168884277 -0.15603637695 0.24750518799 -0.0012168884277 -0.15603637695 0.24750518799 
-0.0012168884277 -0.15603637695 0.24750518799 -0.0012168884277 -0.15603637695 0.24750518799 -0.0012168884277 -0.15603637695 0.24750518799 
-0.0012168884277 -0.15603637695 0.24750518799 -0.0012168884277 -0.15603637695 0.24750518799 -0.0012168884277 -0.15603637695 0.24750518799 
-0.0012168884277 -0.15603637695 0.24750518799 -0.0012168884277 -0.15603637695 0.24750518799 -0.0012168884277 -0.15603637695 0.24750518799 
-0.0012168884277 -0.15603637695 0.24750518799 -0.0012168884277 -0.15603637695 0.24750518799 -0.0012168884277 -0.15603637695 0.24750518799 
-0.0012168884277 -0.15603637695 0.24750518799 -0.0012168884277 -0.15603637695 0.24750518799 -0.0012168884277 -0.15603637695 0.24750518799 
-0.0012168884277 -0.15603637695 0.24750518799 -0.0012168884277 -0.15603637695 0.24750518799 -0.0012168884277 -0.15603637695 0.24750518799 
-0.0012168884277 -0.15603637695 0.24750518799 -0.0012168884277 -0.15603637695 0.24750518799 -0.0012168884277 -0.15603637695 0.24750518799 
-0.0012168884277 -0.15603637695 0.24750518799 -0.0012168884277 -0.15603637695 0.24750518799 -0.0012168884277 -0.15603637695 0.24750518799 
-0.0012168884277 -0.15603637695 0.24750518799 -0.0012168884277 -0.15603637695 0.24750518799 -0.0012168884277 -0.15603637695 0.24750518799 
-0.0012168884277 -0.15603637695 0.24750518799 -0.0012168884277 -0.15603637695 0.24750518799 -0.0012168884277 -0.15603637695 0.24750518799 
-0.0012168884277 -0.15603637695 0.24750518799 -0.0012168884277 -0.15603637695 0.24750518799 -0.0012168884277 -0.15603637695 0.24750518799 
-0.0012168884277 -0.15603637695 0.24750518799 -0.0012168884277 -0.15603637695 0.24750518799 -0.0012168884277 -0.15603637695 0.24750518799 
-0.0012168884277 -0.15603637695 0.24750518799 -0.0012168884277 -0.15603637695 0.24750518799 -0.0012168884277 -0.15603637695 0.24750518799 
-0.0012168884277 -0.15603637695 0.24750518799 -0.0012168884277 -0.15603637695 0.24750518799 -0.0012168884277 -0.15603637695 0.24750518799 
-0.0012168884277 -0.15603637695 0.24750518799 -0.0012168884277 -0.15603637695 0.24750518799 -0.0012168884277 -0.15603637695 0.24750518799 
-0.0012168884277 -0.15603637695 0.24750518799 -0.0012168884277 -0.15603637695 0.24750518799 -0.0012168884277 -0.15603637695 0.24750518799 
-0.0012168884277 -0.15603637695 0.24750518799 -0.0012168884277 -0.15603637695 0.24750518799 -0.0012168884277 -0.15603637695 0.24750518799 
-0.0012168884277 -0.15603637695 0.24750518799 -0.0012168884277 -0.15603637695 0.24750518799 -0.0012168884277 -0.15603637695 0.24750518799 
-0.0012168884277 -0.15603637695 0.24750518799 -0.0012168884277 -0.15603637695 0.24750518799 -0.0012168884277 -0.15603637695 0.24750518799 
-0.0012168884277 -0.15603637695 0.24750518799 -0.0012168884277 -0.15603637695 0.24750518799 -0.0012168884277 -0.15603637695 0.24750518799 
-0.0012168884277 -0.15603637695 0.24750518799 -0.0012168884277 -0.15603637695 0.24750518799 -0.0012168884277 -0.15603637695 0.24750518799 
-0.0012168884277 -0.15603637695 0.24750518799 -0.0012168884277 -0.15603637695 0.24750518799 -0.0012168884277 -0.15603637695 0.24750518799 
-0.0012168884277 -0.15603637695 0.24750518799 -0.0012168884277 -0.15603637695 0.24750518799 -0.0012168884277 -0.15603637695 0.24750518799 
-0.0012168884277 -0.15603637695 0.24750518799 -0.0012168884277 -0.15603637695 0.24750518799 -0.0012168884277 -0.15603637695 0.24750518799 
-0.0012168884277 -0.15603637695 0.24750518799 -0.0012168884277 -0.15603637695 0.24750518799 -0.0012168884277 -0.15603637695 0.24750518799 
-0.0012168884277 -0.15603637695 0.24750518799 -0.0012168884277 -0.15603637695 0.24750518799 -0.0012168884277 -0.15603637695 0.24750518799 
-0.0012168884277 -0.15603637695 0.24750518799 -0.0012168884277 -0.15603637695 0.24750518799 -0.0012168884277 -0.15603637695 0.24750518799 
-0.0012168884277 -0.15603637695 0.24750518799 -0.0012168884277 -0.15603637695 0.24750518799 -0.0012168884277 -0.15603637695 0.24750518799 
-0.0012168884277 -0.15603637695 0.24750518799 -0.0012168884277 -0.15603637695 0.24750518799 -0.0012168884277 -0.15603637695 0.24750518799 
-0.0012168884277 -0.15603637695 0.24750518799 -0.0012168884277 -0.15603637695 0.24750518799 -0.0012168884277 -0.15603637695 0.24750518799 
-0.0012168884277 -0.15603637695 0.24750518799 -0.0012168884277 -0.15603637695 0.24750518799 -0.0012168884277 -0.15603637695 0.24750518799 
-0.0012168884277 -0.15603637695 0.24750518799 -0.0012168884277 -0.15603637695 0.24750518799 -0.0012168884277 -0.15603637695 0.24750518799 
-0.0012168884277 -0.15603637695 0.24750518799 -0.0012168884277 -0.15603637695 0.24750518799 -0.0012168884277 -0.15603637695 0.24750518799 
-0.0012168884277 -0.15603637695 0.24750518799 -0.0012168884277 -0.15603637695 0.24750518799 -0.0012168884277 -0.15603637695 0.24750518799 
-0.0012168884277 -0.15603637695 0.24750518799 -0.0012168884277 -0.15603637695 0.24750518799 -0.0012168884277 -0.15603637695 0.24750518799 
-0.0012168884277 -0.15603637695 0.24750518799 -0.0012168884277 -0.15603637695 0.24750518799 -0.0012168884277 -0.15603637695 0.24750518799 
-0.0012168884277 -0.15603637695 0.24750518799 -0.0012168884277 -0.15603637695 0.24750518799 -0.0012168884277 -0.15603637695 0.24750518799 
-0.0012168884277 -0.15603637695 0.24750518799 -0.0012168884277 -0.15603637695 0.24750518799 -0.0012168884277 -0.15603637695 0.24750518799 
-0.0012168884277 -0.15603637695 0.24750518799 -0.0012168884277 -0.15603637695 0.24750518799 -0.0012168884277 -0.15603637695 0.24750518799 
-0.0012168884277 -0.15603637695 0.24750518799 -0.0012168884277 -0.15603637695 0.24750518799 -0.0012168884277 -0.15603637695 0.24750518799 
-0.0012168884277 -0.15603637695 0.24750518799 -0.0012168884277 -0.15603637695 0.24750518799 -0.0012168884277 -0.15603637695 0.24750518799 
-0.0012168884277 -0.15603637695 0.24750518799 -0.0012168884277 -0.15603637695 0.24750518799 -0.0012168884277 -0.15603637695 0.24750518799 
-0.0012168884277 -0.15603637695 0.24750518799 -0.0012168884277 -0.15603637695 0.24750518799 -0.0012168884277 -0.15603637695 0.24750518799 
-0.0012168884277 -0.15603637695 0.24750518799 -0.0012168884277 -0.15603637695 0.24750518799 -0.0012168884277 -0.15603637695 0.24750518799 
-0.0012168884277 -0.15603637695 0.24750518799 -0.0012168884277 -0.15603637695 0.24750518799 -0.0012168884277 -0.15603637695 0.24750518799 
-0.0012168884277 -0.15603637695 0.24750518799 -0.0012168884277 -0.15603637695 0.24750518799 -0.0012168884277 -0.15603637695 0.24750518799 
-0.0012168884277 -0.15603637695 0.24750518799 -0.0012168884277 -0.15603637695 0.24750518799 -0.0012168884277 -0.15603637695 0.24750518799 
-0.0012168884277 -0.15603637695 0.24750518799 -0.0012168884277 -0.15603637695 0.24750518799 -0.0012168884277 -0.15603637695 0.24750518799 
-0.0012168884277 -0.15603637695 0.24750518799 -0.0012168884277 -0.15603637695 0.24750518799 -0.0012168884277 -0.15603637695 0.24750518799 
-0.0012168884277 -0.15603637695 0.24750518799 -0.0012168884277 -0.15603637695 0.24750518799 -0.0012168884277 -0.15603637695 0.24750518799 
-0.0012168884277 -0.15603637695 0.24750518799 -0.0012168884277 -0.15603637695 0.24750518799 -0.0012168884277 -0.15603637695 0.24750518799 
-0.0012168884277 -0.15603637695 0.24750518799 -0.0012168884277 -0.15603637695 0.24750518799 -0.0012168884277 -0.15603637695 0.24750518799 
-0.0012168884277 -0.15603637695 0.24750518799 -0.0012168884277 -0.15603637695 0.24750518799 -0.0012168884277 -0.15603637695 0.24750518799 
-0.0012168884277 -0.15603637695 0.24750518799 -0.0012168884277 -0.15603637695 0.24750518799 -0.0012168884277 -0.15603637695 0.24750518799 
-0.0012168884277 -0.15603637695 0.24750518799 -0.0012168884277 -0.15603637695 0.24750518799 -0.0012168884277 -0.15603637695 0.24750518799 
-0.0012168884277 -0.15603637695 0.24750518799 -0.0012168884277 -0.15603637695 0.24750518799 -0.0012168884277 -0.15603637695 0.24750518799 
-0.0012168884277 -0.15603637695 0.24750518799 -0.0012168884277 -0.15603637695 0.24750518799 -0.0012168884277 -0.15603637695 0.24750518799 
-0.0012168884277 -0.15603637695 0.24750518799 -0.0012168884277 -0.15603637695 0.24750518799 -0.0012168884277 -0.15603637695 0.24750518799 
-0.0012168884277 -0.15603637695 0.24750518799 -0.0012168884277 -0.15603637695 0.24750518799 -0.0012168884277 -0.15603637695 0.24750518799 
-0.0012168884277 -0.15603637695 0.24750518799 -0.0012168884277 -0.15603637695 0.24750518799 -0.0012168884277 -0.15603637695 0.24750518799 
-0.0012168884277 -0.15603637695 0.24750518799 -0.0012168884277 -0.15603637695 0.24750518799 -0.0012168884277 -0.15603637695 0.24750518799 
-0.0012168884277 -0.15603637695 0.24750518799 -0.0012168884277 -0.15603637695 0.24750518799 -0.0012168884277 -0.15603637695 0.24750518799 
-0.0012168884277 -0.15603637695 0.24750518799 -0.0012168884277 -0.15603637695 0.24750518799 -0.0012168884277 -0.15603637695 0.24750518799 
-0.0012168884277 -0.15603637695 0.24750518799 -0.0012168884277 -0.15603637695 0.24750518799 -0.0012168884277 -0.15603637695 0.24750518799 
-0.0012168884277 -0.15603637695 0.24750518799 -0.0012168884277 -0.15603637695 0.24750518799 -0.0012168884277 -0.15603637695 0.24750518799 
-0.0012168884277 -0.15603637695 0.24750518799 -0.0012168884277 -0.15603637695 0.24750518799 -0.0012168884277 -0.15603637695 0.24750518799 
-0.0012168884277 -0.15603637695 0.24750518799 -0.0012168884277 -0.15603637695 0.24750518799 -0.0012168884277 -0.15603637695 0.24750518799 
-0.0012168884277 -0.15603637695 0.24750518799 -0.0012168884277 -0.15603637695 0.24750518799 -0.0012168884277 -0.15603637695 0.24750518799 
-0.0012168884277 -0.15603637695 0.24750518799 -0.0012168884277 -0.15603637695 0.24750518799 -0.0012168884277 -0.15603637695 0.24750518799 
-0.0012168884277 -0.15603637695 0.24750518799 -0.0012168884277 -0.15603637695 0.24750518799 -0.0012168884277 -0.15603637695 0.24750518799 
-0.0012168884277 -0.15603637695 0.24750518799 -0.0012168884277 -0.15603637695 0.24750518799 -0.0012168884277 -0.15603637695 0.24750518799 
-0.0012168884277 -0.15603637695 0.24750518799 -0.0012168884277 -0.15603637695 0.24750518799 -0.0012168884277 -0.15603637695 0.24750518799 
-0.0012168884277 -0.15603637695 0.24750518799 -0.0012168884277 -0.15603637695 0.24750518799 -0.0012168884277 -0.15603637695 0.24750518799 
-0.0012168884277 -0.15603637695 0.24750518799 -0.0012168884277 -0.15603637695 0.24750518799 -0.0012168884277 -0.15603637695 0.24750518799 
-0.0012168884277 -0.15603637695 0.24750518799 -0.0012168884277 -0.15603637695 0.24750518799 -0.0012168884277 -0.15603637695 0.24750518799 
-0.0012168884277 -0.15603637695 0.24750518799 -0.0012168884277 -0.15603637695 0.24750518799 -0.0012168884277 -0.15603637695 0.24750518799 
-0.0012168884277 -0.15603637695 0.24750518799 -0.0012168884277 -0.15603637695 0.24750518799 -0.0012168884277 -0.15603637695 0.24750518799 
-0.0012168884277 -0.15603637695 0.24750518799 -0.0012168884277 -0.15603637695 0.24750518799 -0.0012168884277 -0.15603637695 0.24750518799 
-0.0012168884277 -0.15603637695 0.24750518799 -0.0012168884277 -0.15603637695 0.24750518799 -0.0012168884277 -0.15603637695 0.24750518799 
-0.0012168884277 -0.15603637695 0.24750518799 -0.0012168884277 -0.15603637695 0.24750518799 -0.0012168884277 -0.15603637695 0.24750518799 
-0.0012168884277 -0.15603637695 0.24750518799 -0.0012168884277 -0.15603637695 0.24750518799 -0.0012168884277 -0.15603637695 0.24750518799 
-0.0012168884277 -0.15603637695 0.24750518799 -0.0012168884277 -0.15603637695 0.24750518799 -0.0012168884277 -0.15603637695 0.24750518799 
-0.0012168884277 -0.15603637695 0.24750518799 -0.0012168884277 -0.15603637695 0.24750518799 -0.0012168884277 -0.15603637695 0.24750518799 
-0.0012168884277 -0.15603637695 0.24750518799 -0.0012168884277 -0.15603637695 0.24750518799 -0.0012168884277 -0.15603637695 0.24750518799 
-0.0012168884277 -0.15603637695 0.24750518799 -0.0012168884277 -0.15603637695 0.24750518799 -0.0012168884277 -0.15603637695 0.24750518799 
-0.0012168884277 -0.15603637695 0.24750518799 -0.0012168884277 -0.15603637695 0.24750518799 -0.0012168884277 -0.15603637695 0.24750518799 
-0.0012168884277 -0.15603637695 0.24750518799 -0.0012168884277 -0.15603637695 0.24750518799 -0.0012168884277 -0.15603637695 0.24750518799 
-0.0012168884277 -0.15603637695 0.24750518799 -0.0012168884277 -0.15603637695 0.24750518799 -0.0012168884277 -0.15603637695 0.24750518799 
-0.0012168884277 -0.15603637695 0.24750518799 -0.0012168884277 -0.15603637695 0.24750518799 -0.0012168884277 -0.15603637695 0.24750518799 
-0.0012168884277 -0.15603637695 0.24750518799 -0.0012168884277 -0.15603637695 0.24750518799 -0.0012168884277 -0.15603637695 0.24750518799 
-0.0012168884277 -0.15603637695 0.24750518799 -0.0012168884277 -0.15603637695 0.24750518799 -0.0012168884277 -0.15603637695 0.24750518799 
-0.0012168884277 -0.15603637695 0.24750518799 -0.0012168884277 -0.15603637695 0.24750518799 -0.0012168884277 -0.15603637695 0.24750518799 
-0.0012168884277 -0.15603637695 0.24750518799 -0.0012168884277 -0.15603637695 0.24750518799 -0.0012168884277 -0.15603637695 0.24750518799 
-0.0012168884277 -0.15603637695 0.24750518799 -0.0012168884277 -0.15603637695 0.24750518799 -0.0012168884277 -0.15603637695 0.24750518799 
-0.0012168884277 -0.15603637695 0.24750518799 -0.0012168884277 -0.15603637695 0.24750518799 -0.0012168884277 -0.15603637695 0.24750518799 
-0.0012168884277 -0.15603637695 0.24750518799 -0.0012168884277 -0.15603637695 0.24750518799 -0.0012168884277 -0.15603637695 0.24750518799 
-0.0012168884277 -0.15603637695 0.24750518799 -0.0012168884277 -0.15603637695 0.24750518799 -0.0012168884277 -0.15603637695 0.24750518799 
-0.0012168884277 -0.15603637695 0.24750518799 -0.0012168884277 -0.15603637695 0.24750518799 -0.0012168884277 -0.15603637695 0.24750518799 
-0.0012168884277 -0.15603637695 0.24750518799 -0.0012168884277 -0.15603637695 0.24750518799 -0.0012168884277 -0.15603637695 0.24750518799 
-0.0012168884277 -0.15603637695 0.24750518799 -0.0012168884277 -0.15603637695 0.24750518799 -0.0012168884277 -0.15603637695 0.24750518799 
-0.0012168884277 -0.15603637695 0.24750518799 -0.0012168884277 -0.15603637695 0.24750518799 -0.0012168884277 -0.15603637695 0.24750518799 
-0.0012168884277 -0.15603637695 0.24750518799 -0.0012168884277 -0.15603637695 0.24750518799 -0.0012168884277 -0.15603637695 0.24750518799 
-0.0012168884277 -0.15603637695 0.24750518799 -0.0012168884277 -0.15603637695 0.24750518799 -0.0012168884277 -0.15603637695 0.24750518799 
-0.0012168884277 -0.15603637695 0.24750518799 -0.0012168884277 -0.15603637695 0.24750518799 -0.0012168884277 -0.15603637695 0.24750518799 
-0.0012168884277 -0.15603637695 0.24750518799 -0.0012168884277 -0.15603637695 0.24750518799 -0.0012168884277 -0.15603637695 0.24750518799 
-0.0012168884277 -0.15603637695 0.24750518799 -0.0012168884277 -0.15603637695 0.24750518799 -0.0012168884277 -0.15603637695 0.24750518799 
-0.0012168884277 -0.15603637695 0.24750518799 -0.0012168884277 -0.15603637695 0.24750518799 -0.0012168884277 -0.15603637695 0.24750518799 
-0.0012168884277 -0.15603637695 0.24750518799 -0.0012168884277 -0.15603637695 0.24750518799 -0.0012168884277 -0.15603637695 0.24750518799 
-0.0012168884277 -0.15603637695 0.24750518799 -0.0012168884277 -0.15603637695 0.24750518799 -0.0012168884277 -0.15603637695 0.24750518799 
-0.0012168884277 -0.15603637695 0.24750518799 -0.0012168884277 -0.15603637695 0.24750518799 -0.0012168884277 -0.15603637695 0.24750518799 
-0.0012168884277 -0.15603637695 0.24750518799 -0.0012168884277 -0.15603637695 0.24750518799 -0.0012168884277 -0.15603637695 0.24750518799 
-0.0012168884277 -0.15603637695 0.24750518799 -0.0012168884277 -0.15603637695 0.24750518799 -0.0012168884277 -0.15603637695 0.24750518799 
-0.0012168884277 -0.15603637695 0.24750518799 -0.0012168884277 -0.15603637695 0.24750518799 -0.0012168884277 -0.15603637695 0.24750518799 
-0.0012168884277 -0.15603637695 0.24750518799 -0.0012168884277 -0.15603637695 0.24750518799 -0.0012168884277 -0.15603637695 0.24750518799 
-0.0012168884277 -0.15603637695 0.24750518799 -0.0012168884277 -0.15603637695 0.24750518799 -0.0012168884277 -0.15603637695 0.24750518799 
-0.0012168884277 -0.15603637695 0.24750518799 -0.0012168884277 -0.15603637695 0.24750518799 -0.0012168884277 -0.15603637695 0.24750518799 
-0.0012168884277 -0.15603637695 0.24750518799 -0.0012168884277 -0.15603637695 0.24750518799 -0.0012168884277 -0.15603637695 0.24750518799 
-0.0012168884277 -0.15603637695 0.24750518799 -0.0012168884277 -0.15603637695 0.24750518799 -0.0012168884277 -0.15603637695 0.24750518799 
-0.0012168884277 -0.15603637695 0.24750518799 -0.0012168884277 -0.15603637695 0.24750518799 -0.0012168884277 -0.15603637695 0.24750518799 
-0.0012168884277 -0.15603637695 0.24750518799 -0.0012168884277 -0.15603637695 0.24750518799 -0.0012168884277 -0.15603637695 0.24750518799 
-0.0012168884277 -0.15603637695 0.24750518799 -0.0012168884277 -0.15603637695 0.24750518799 -0.0012168884277 -0.15603637695 0.24750518799 
-0.0012168884277 -0.15603637695 0.24750518799 -0.0012168884277 -0.15603637695 0.24750518799 -0.0012168884277 -0.15603637695 0.24750518799 
-0.0012168884277 -0.15603637695 0.24750518799 -0.0012168884277 -0.15603637695 0.24750518799 -0.0012168884277 -0.15603637695 0.24750518799 
-0.0012168884277 -0.15603637695 0.24750518799 -0.0012168884277 -0.15603637695 0.24750518799 -0.0012168884277 -0.15603637695 0.24750518799 
-0.0012168884277 -0.15603637695 0.24750518799 -0.0012168884277 -0.15603637695 0.24750518799 -0.0012168884277 -0.15603637695 0.24750518799 
-0.0012168884277 -0.15603637695 0.24750518799 -0.0012168884277 -0.15603637695 0.24750518799 -0.0012168884277 -0.15603637695 0.24750518799 
-0.0012168884277 -0.15603637695 0.24750518799 -0.0012168884277 -0.15603637695 0.24750518799 -0.0012168884277 -0.15603637695 0.24750518799 
-0.0012168884277 -0.15603637695 0.24750518799 -0.0012168884277 -0.15603637695 0.24750518799 -0.0012168884277 -0.15603637695 0.24750518799 
-0.0012168884277 -0.15603637695 0.24750518799 -0.0012168884277 -0.15603637695 0.24750518799 -0.0012168884277 -0.15603637695 0.24750518799 
-0.0012168884277 -0.15603637695 0.24750518799 -0.0012168884277 -0.15603637695 0.24750518799 -0.0012168884277 -0.15603637695 0.24750518799 
-0.0012168884277 -0.15603637695 0.24750518799 -0.0012168884277 -0.15603637695 0.24750518799 -0.0012168884277 -0.15603637695 0.24750518799 
-0.0012168884277 -0.15603637695 0.24750518799 -0.0012168884277 -0.15603637695 0.24750518799 -0.0012168884277 -0.15603637695 0.24750518799 
-0.0012168884277 -0.15603637695 0.24750518799 -0.0012168884277 -0.15603637695 0.24750518799 -0.0012168884277 -0.15603637695 0.24750518799 
-0.0012168884277 -0.15603637695 0.24750518799 -0.0012168884277 -0.15603637695 0.24750518799 -0.0012168884277 -0.15603637695 0.24750518799 
-0.0012168884277 -0.15603637695 0.24750518799 -0.0012168884277 -0.15603637695 0.24750518799 -0.0012168884277 -0.15603637695 0.24750518799 
-0.0012168884277 -0.15603637695 0.24750518799 -0.0012168884277 -0.15603637695 0.24750518799 -0.0012168884277 -0.15603637695 0.24750518799 
-0.0012168884277 -0.15603637695 0.24750518799 -0.0012168884277 -0.15603637695 0.24750518799 -0.0012168884277 -0.15603637695 0.24750518799 
-0.0012168884277 -0.15603637695 0.24750518799 -0.0012168884277 -0.15603637695 0.24750518799 -0.0012168884277 -0.15603637695 0.24750518799 
-0.0012168884277 -0.15603637695 0.24750518799 -0.0012168884277 -0.15603637695 0.24750518799 -0.0012168884277 -0.15603637695 0.24750518799 
-0.0012168884277 -0.15603637695 0.24750518799 -0.0012168884277 -0.15603637695 0.24750518799 -0.0012168884277 -0.15603637695 0.24750518799 
-0.0012168884277 -0.15603637695 0.24750518799 -0.0012168884277 -0.15603637695 0.24750518799 -0.0012168884277 -0.15603637695 0.24750518799 
-0.0012168884277 -0.15603637695 0.24750518799 -0.0012168884277 -0.15603637695 0.24750518799 -0.0012168884277 -0.15603637695 0.24750518799 
-0.0012168884277 -0.15603637695 0.24750518799 -0.0012168884277 -0.15603637695 0.24750518799 -0.0012168884277 -0.15603637695 0.24750518799 
-0.0012168884277 -0.15603637695 0.24750518799 -0.0012168884277 -0.15603637695 0.24750518799 -0.0012168884277 -0.15603637695 0.24750518799 
-0.0012168884277 -0.15603637695 0.24750518799 -0.0012168884277 -0.15603637695 0.24750518799 -0.0012168884277 -0.15603637695 0.24750518799 
-0.0012168884277 -0.15603637695 0.24750518799 -0.0012168884277 -0.15603637695 0.24750518799 -0.0012168884277 -0.15603637695 0.24750518799 
-0.0012168884277 -0.15603637695 0.24750518799 -0.0012168884277 -0.15603637695 0.24750518799 -0.0012168884277 -0.15603637695 0.24750518799 
-0.0012168884277 -0.15603637695 0.24750518799 -0.0012168884277 -0.15603637695 0.24750518799 -0.0012168884277 -0.15603637695 0.24750518799 
-0.0012168884277 -0.15603637695 0.24750518799 -0.0012168884277 -0.15603637695 0.24750518799 -0.0012168884277 -0.15603637695 0.24750518799 
-0.0012168884277 -0.15603637695 0.24750518799 -0.0012168884277 -0.15603637695 0.24750518799 -0.0012168884277 -0.15603637695 0.24750518799 
-0.0012168884277 -0.15603637695 0.24750518799 -0.0012168884277 -0.15603637695 0.24750518799 -0.0012168884277 -0.15603637695 0.24750518799 
-0.0012168884277 -0.15603637695 0.24750518799 -0.0012168884277 -0.15603637695 0.24750518799 -0.0012168884277 -0.15603637695 0.24750518799 
-0.0012168884277 -0.15603637695 0.24750518799 -0.0012168884277 -0.15603637695 0.24750518799 -0.0012168884277 -0.15603637695 0.24750518799 
-0.0012168884277 -0.15603637695 0.24750518799 -0.0012168884277 -0.15603637695 0.24750518799 -0.0012168884277 -0.15603637695 0.24750518799 
-0.0012168884277 -0.15603637695 0.24750518799 -0.0012168884277 -0.15603637695 0.24750518799 -0.0012168884277 -0.15603637695 0.24750518799 
-0.0012168884277 -0.15603637695 0.24750518799 -0.0012168884277 -0.15603637695 0.24750518799 -0.0012168884277 -0.15603637695 0.24750518799 
-0.0012168884277 -0.15603637695 0.24750518799 -0.0012168884277 -0.15603637695 0.24750518799 -0.0012168884277 -0.15603637695 0.24750518799 
-0.0012168884277 -0.15603637695 0.24750518799 -0.0012168884277 -0.15603637695 0.24750518799 -0.0012168884277 -0.15603637695 0.24750518799 
-0.0012168884277 -0.15603637695 0.24750518799 -0.0012168884277 -0.15603637695 0.24750518799 -0.0012168884277 -0.15603637695 0.24750518799 
-0.0012168884277 -0.15603637695 0.24750518799 -0.0012168884277 -0.15603637695 0.24750518799 -0.0012168884277 -0.15603637695 0.24750518799 
-0.0012168884277 -0.15603637695 0.24750518799 -0.0012168884277 -0.15603637695 0.24750518799 -0.0012168884277 -0.15603637695 0.24750518799 
-0.0012168884277 -0.15603637695 0.24750518799 -0.0012168884277 -0.15603637695 0.24750518799 -0.0012168884277 -0.15603637695 0.24750518799 
-0.0012168884277 -0.15603637695 0.24750518799 -0.0012168884277 -0.15603637695 0.24750518799 -0.0012168884277 -0.15603637695 0.24750518799 
-0.0012168884277 -0.15603637695 0.24750518799 -0.0012168884277 -0.15603637695 0.24750518799 -0.0012168884277 -0.15603637695 0.24750518799 
-0.0012168884277 -0.15603637695 0.24750518799 -0.0012168884277 -0.15603637695 0.24750518799 -0.0012168884277 -0.15603637695 0.24750518799 
-0.0012168884277 -0.15603637695 0.24750518799 -0.0012168884277 -0.15603637695 0.24750518799 -0.0012168884277 -0.15603637695 0.24750518799 
-0.0012168884277 -0.15603637695 0.24750518799 -0.0012168884277 -0.15603637695 0.24750518799 -0.0012168884277 -0.15603637695 0.24750518799 
-0.0012168884277 -0.15603637695 0.24750518799 -0.0012168884277 -0.15603637695 0.24750518799 -0.0012168884277 -0.15603637695 0.24750518799 
-0.0012168884277 -0.15603637695 0.24750518799 -0.0012168884277 -0.15603637695 0.24750518799 -0.0012168884277 -0.15603637695 0.24750518799 
-0.0012168884277 -0.15603637695 0.24750518799 -0.0012168884277 -0.15603637695 0.24750518799 -0.0012168884277 -0.15603637695 0.24750518799 
-0.0012168884277 -0.15603637695 0.24750518799 -0.0012168884277 -0.15603637695 0.24750518799 -0.0012168884277 -0.15603637695 0.24750518799 
-0.0012168884277 -0.15603637695 0.24750518799 -0.0012168884277 -0.15603637695 0.24750518799 -0.0012168884277 -0.15603637695 0.24750518799 
-0.0012168884277 -0.15603637695 0.24750518799 -0.0012168884277 -0.15603637695 0.24750518799 -0.0012168884277 -0.15603637695 0.24750518799 
-0.0012168884277 -0.15603637695 0.24750518799 -0.0012168884277 -0.15603637695 0.24750518799 -0.0012168884277 -0.15603637695 0.24750518799 
-0.0012168884277 -0.15603637695 0.24750518799 -0.0012168884277 -0.15603637695 0.24750518799 -0.0012168884277 -0.15603637695 0.24750518799 
-0.0012168884277 -0.15603637695 0.24750518799 -0.0012168884277 -0.15603637695 0.24750518799 -0.0012168884277 -0.15603637695 0.24750518799 
-0.0012168884277 -0.15603637695 0.24750518799 -0.0012168884277 -0.15603637695 0.24750518799 -0.0012168884277 -0.15603637695 0.24750518799 
-0.0012168884277 -0.15603637695 0.24750518799 -0.0012168884277 -0.15603637695 0.24750518799 -0.0012168884277 -0.15603637695 0.24750518799 
-0.0012168884277 -0.15603637695 0.24750518799 -0.0012168884277 -0.15603637695 0.24750518799 -0.0012168884277 -0.15603637695 0.24750518799 
-0.0012168884277 -0.15603637695 0.24750518799 -0.0012168884277 -0.15603637695 0.24750518799 -0.0012168884277 -0.15603637695 0.24750518799 
-0.0012168884277 -0.15603637695 0.24750518799 -0.0012168884277 -0.15603637695 0.24750518799 -0.0012168884277 -0.15603637695 0.24750518799 
-0.0012168884277 -0.15603637695 0.24750518799 -0.0012168884277 -0.15603637695 0.24750518799 -0.0012168884277 -0.15603637695 0.24750518799 
-0.0012168884277 -0.15603637695 0.24750518799 -0.0012168884277 -0.15603637695 0.24750518799 -0.0012168884277 -0.15603637695 0.24750518799 
-0.0012168884277 -0.15603637695 0.24750518799 -0.0012168884277 -0.15603637695 0.24750518799 -0.0012168884277 -0.15603637695 0.24750518799 
-0.0012168884277 -0.15603637695 0.24750518799 -0.0012168884277 -0.15603637695 0.24750518799 -0.0012168884277 -0.15603637695 0.24750518799 
-0.0012168884277 -0.15603637695 0.24750518799 -0.0012168884277 -0.15603637695 0.24750518799 -0.0012168884277 -0.15603637695 0.24750518799 
-0.0012168884277 -0.15603637695 0.24750518799 -0.0012168884277 -0.15603637695 0.24750518799 -0.0012168884277 -0.15603637695 0.24750518799 
-0.0012168884277 -0.15603637695 0.24750518799 -0.0012168884277 -0.15603637695 0.24750518799 -0.0012168884277 -0.15603637695 0.24750518799 
-0.0012168884277 -0.15603637695 0.24750518799 -0.0012168884277 -0.15603637695 0.24750518799 -0.0012168884277 -0.15603637695 0.24750518799 
-0.0012168884277 -0.15603637695 0.24750518799 -0.0012168884277 -0.15603637695 0.24750518799 -0.0012168884277 -0.15603637695 0.24750518799 
-0.0012168884277 -0.15603637695 0.24750518799 -0.0012168884277 -0.15603637695 0.24750518799 -0.0012168884277 -0.15603637695 0.24750518799 
-0.0012168884277 -0.15603637695 0.24750518799 -0.0012168884277 -0.15603637695 0.24750518799 -0.0012168884277 -0.15603637695 0.24750518799 
-0.0012168884277 -0.15603637695 0.24750518799 -0.0012168884277 -0.15603637695 0.24750518799 -0.0012168884277 -0.15603637695 0.24750518799 
-0.0012168884277 -0.15603637695 0.24750518799 -0.0012168884277 -0.15603637695 0.24750518799 -0.0012168884277 -0.15603637695 0.24750518799 
-0.0012168884277 -0.15603637695 0.24750518799 -0.0012168884277 -0.15603637695 0.24750518799 -0.0012168884277 -0.15603637695 0.24750518799 
-0.0012168884277 -0.15603637695 0.24750518799 -0.0012168884277 -0.15603637695 0.24750518799 -0.0012168884277 -0.15603637695 0.24750518799 
-0.0012168884277 -0.15603637695 0.24750518799 -0.0012168884277 -0.15603637695 0.24750518799 -0.0012168884277 -0.15603637695 0.24750518799 
-0.0012168884277 -0.15603637695 0.24750518799 -0.0012168884277 -0.15603637695 0.24750518799 -0.0012168884277 -0.15603637695 0.24750518799 
-0.0012168884277 -0.15603637695 0.24750518799 -0.0012168884277 -0.15603637695 0.24750518799 -0.0012168884277 -0.15603637695 0.24750518799 
-0.0012168884277 -0.15603637695 0.24750518799 -0.0012168884277 -0.15603637695 0.24750518799 -0.0012168884277 -0.15603637695 0.24750518799 
-0.0012168884277 -0.15603637695 0.24750518799 -0.0012168884277 -0.15603637695 0.24750518799 -0.0012168884277 -0.15603637695 0.24750518799 
-0.0012168884277 -0.15603637695 0.24750518799 -0.0012168884277 -0.15603637695 0.24750518799 -0.0012168884277 -0.15603637695 0.24750518799 
-0.0012168884277 -0.15603637695 0.24750518799 -0.0012168884277 -0.15603637695 0.24750518799 -0.0012168884277 -0.15603637695 0.24750518799 
-0.0012168884277 -0.15603637695 0.24750518799 -0.0012168884277 -0.15603637695 0.24750518799 -0.0012168884277 -0.15603637695 0.24750518799 
-0.0012168884277 -0.15603637695 0.24750518799 -0.0012168884277 -0.15603637695 0.24750518799 -0.0012168884277 -0.15603637695 0.24750518799 
-0.0012168884277 -0.15603637695 0.24750518799 -0.0012168884277 -0.15603637695 0.24750518799 -0.0012168884277 -0.15603637695 0.24750518799 
-0.0012168884277 -0.15603637695 0.24750518799 -0.0012168884277 -0.15603637695 0.24750518799 -0.0012168884277 -0.15603637695 0.24750518799 
-0.0012168884277 -0.15603637695 0.24750518799 -0.0012168884277 -0.15603637695 0.24750518799 -0.0012168884277 -0.15603637695 0.24750518799 
-0.0012168884277 -0.15603637695 0.24750518799 -0.0012168884277 -0.15603637695 0.24750518799 -0.0012168884277 -0.15603637695 0.24750518799 
-0.0012168884277 -0.15603637695 0.24750518799 -0.0012168884277 -0.15603637695 0.24750518799 -0.0012168884277 -0.15603637695 0.24750518799 
-0.0012168884277 -0.15603637695 0.24750518799 -0.0012168884277 -0.15603637695 0.24750518799 -0.0012168884277 -0.15603637695 0.24750518799 
-0.0012168884277 -0.15603637695 0.24750518799 -0.0012168884277 -0.15603637695 0.24750518799 -0.0012168884277 -0.15603637695 0.24750518799 
-0.0012168884277 -0.15603637695 0.24750518799 -0.0012168884277 -0.15603637695 0.24750518799 -0.0012168884277 -0.15603637695 0.24750518799 
-0.0012168884277 -0.15603637695 0.24750518799 -0.0012168884277 -0.15603637695 0.24750518799 -0.0012168884277 -0.15603637695 0.24750518799 
-0.0012168884277 -0.15603637695 0.24750518799 -0.0012168884277 -0.15603637695 0.24750518799 -0.0012168884277 -0.15603637695 0.24750518799 
-0.0012168884277 -0.15603637695 0.24750518799 -0.0012168884277 -0.15603637695 0.24750518799 -0.0012168884277 -0.15603637695 0.24750518799 
-0.0012168884277 -0.15603637695 0.24750518799 -0.0012168884277 -0.15603637695 0.24750518799 -0.0012168884277 -0.15603637695 0.24750518799 
-0.0012168884277 -0.15603637695 0.24750518799 -0.0012168884277 -0.15603637695 0.24750518799 -0.0012168884277 -0.15603637695 0.24750518799 
-0.0012168884277 -0.15603637695 0.24750518799 -0.0012168884277 -0.15603637695 0.24750518799 -0.0012168884277 -0.15603637695 0.24750518799 
-0.0012168884277 -0.15603637695 0.24750518799 -0.0012168884277 -0.15603637695 0.24750518799 -0.0012168884277 -0.15603637695 0.24750518799 
-0.0012168884277 -0.15603637695 0.24750518799 -0.0012168884277 -0.15603637695 0.24750518799 -0.0012168884277 -0.15603637695 0.24750518799 
-0.0012168884277 -0.15603637695 0.24750518799 -0.0012168884277 -0.15603637695 0.24750518799 -0.0012168884277 -0.15603637695 0.24750518799 
-0.0012168884277 -0.15603637695 0.24750518799 -0.0012168884277 -0.15603637695 0.24750518799 -0.0012168884277 -0.15603637695 0.24750518799 
-0.0012168884277 -0.15603637695 0.24750518799 -0.0012168884277 -0.15603637695 0.24750518799 -0.0012168884277 -0.15603637695 0.24750518799 
-0.0012168884277 -0.15603637695 0.24750518799 -0.0012168884277 -0.15603637695 0.24750518799 -0.0012168884277 -0.15603637695 0.24750518799 
-0.0012168884277 -0.15603637695 0.24750518799 -0.0012168884277 -0.15603637695 0.24750518799 -0.0012168884277 -0.15603637695 0.24750518799 
-0.0012168884277 -0.15603637695 0.24750518799 -0.0012168884277 -0.15603637695 0.24750518799 -0.0012168884277 -0.15603637695 0.24750518799 
-0.0012168884277 -0.15603637695 0.24750518799 -0.0012168884277 -0.15603637695 0.24750518799 -0.0012168884277 -0.15603637695 0.24750518799 
-0.0012168884277 -0.15603637695 0.24750518799 -0.0012168884277 -0.15603637695 0.24750518799 -0.0012168884277 -0.15603637695 0.24750518799 
-0.0012168884277 -0.15603637695 0.24750518799 -0.0012168884277 -0.15603637695 0.24750518799 -0.0012168884277 -0.15603637695 0.24750518799 
-0.0012168884277 -0.15603637695 0.24750518799 -0.0012168884277 -0.15603637695 0.24750518799 -0.0012168884277 -0.15603637695 0.24750518799 
-0.0012168884277 -0.15603637695 0.24750518799 -0.0012168884277 -0.15603637695 0.24750518799 -0.0012168884277 -0.15603637695 0.24750518799 
-0.0012168884277 -0.15603637695 0.24750518799 -0.0012168884277 -0.15603637695 0.24750518799 -0.0012168884277 -0.15603637695 0.24750518799 
-0.0012168884277 -0.15603637695 0.24750518799 -0.0012168884277 -0.15603637695 0.24750518799 -0.0012168884277 -0.15603637695 0.24750518799 
-0.0012168884277 -0.15603637695 0.24750518799 -0.0012168884277 -0.15603637695 0.24750518799 -0.0012168884277 -0.15603637695 0.24750518799 
-0.0012168884277 -0.15603637695 0.24750518799 -0.0012168884277 -0.15603637695 0.24750518799 -0.0012168884277 -0.15603637695 0.24750518799 
-0.0012168884277 -0.15603637695 0.24750518799 -0.0012168884277 -0.15603637695 0.24750518799 -0.0012168884277 -0.15603637695 0.24750518799 
-0.0012168884277 -0.15603637695 0.24750518799 -0.0012168884277 -0.15603637695 0.24750518799 -0.0012168884277 -0.15603637695 0.24750518799 
-0.0012168884277 -0.15603637695 0.24750518799 -0.0012168884277 -0.15603637695 0.24750518799 -0.0012168884277 -0.15603637695 0.24750518799 
-0.0012168884277 -0.15603637695 0.24750518799 -0.0012168884277 -0.15603637695 0.24750518799 -0.0012168884277 -0.15603637695 0.24750518799 
-0.0012168884277 -0.15603637695 0.24750518799 -0.0012168884277 -0.15603637695 0.24750518799 -0.0012168884277 -0.15603637695 0.24750518799 
-0.0012168884277 -0.15603637695 0.24750518799 -0.0012168884277 -0.15603637695 0.24750518799 -0.0012168884277 -0.15603637695 0.24750518799 
-0.0012168884277 -0.15603637695 0.24750518799 -0.0012168884277 -0.15603637695 0.24750518799 -0.0012168884277 -0.15603637695 0.24750518799 
-0.0012168884277 -0.15603637695 0.24750518799 -0.0012168884277 -0.15603637695 0.24750518799 -0.0012168884277 -0.15603637695 0.24750518799 
-0.0012168884277 -0.15603637695 0.24750518799 -0.0012168884277 -0.15603637695 0.24750518799 -0.0012168884277 -0.15603637695 0.24750518799 
-0.0012168884277 -0.15603637695 0.24750518799 -0.0012168884277 -0.15603637695 0.24750518799 -0.0012168884277 -0.15603637695 0.24750518799 
-0.0012168884277 -0.15603637695 0.24750518799 -0.0012168884277 -0.15603637695 0.24750518799 -0.0012168884277 -0.15603637695 0.24750518799 
-0.0012168884277 -0.15603637695 0.24750518799 -0.0012168884277 -0.15603637695 0.24750518799 -0.0012168884277 -0.15603637695 0.24750518799 
-0.0012168884277 -0.15603637695 0.24750518799 -0.0012168884277 -0.15603637695 0.24750518799 -0.0012168884277 -0.15603637695 0.24750518799 
-0.0012168884277 -0.15603637695 0.24750518799 -0.0012168884277 -0.15603637695 0.24750518799 -0.0012168884277 -0.15603637695 0.24750518799 
-0.0012168884277 -0.15603637695 0.24750518799 -0.0012168884277 -0.15603637695 0.24750518799 -0.0012168884277 -0.15603637695 0.24750518799 
-0.0012168884277 -0.15603637695 0.24750518799 -0.0012168884277 -0.15603637695 0.24750518799 -0.0012168884277 -0.15603637695 0.24750518799 
-0.0012168884277 -0.15603637695 0.24750518799 -0.0012168884277 -0.15603637695 0.24750518799 -0.0012168884277 -0.15603637695 0.24750518799 
-0.0012168884277 -0.15603637695 0.24750518799 -0.0012168884277 -0.15603637695 0.24750518799 -0.0012168884277 -0.15603637695 0.24750518799 
-0.0012168884277 -0.15603637695 0.24750518799 -0.0012168884277 -0.15603637695 0.24750518799 -0.0012168884277 -0.15603637695 0.24750518799 
-0.0012168884277 -0.15603637695 0.24750518799 -0.0012168884277 -0.15603637695 0.24750518799 -0.0012168884277 -0.15603637695 0.24750518799 
-0.0012168884277 -0.15603637695 0.24750518799 -0.0012168884277 -0.15603637695 0.24750518799 -0.0012168884277 -0.15603637695 0.24750518799 
-0.0012168884277 -0.15603637695 0.24750518799 -0.0012168884277 -0.15603637695 0.24750518799 -0.0012168884277 -0.15603637695 0.24750518799 
-0.0012168884277 -0.15603637695 0.24750518799 -0.0012168884277 -0.15603637695 0.24750518799 -0.0012168884277 -0.15603637695 0.24750518799 
-0.0012168884277 -0.15603637695 0.24750518799 -0.0012168884277 -0.15603637695 0.24750518799 -0.0012168884277 -0.15603637695 0.24750518799 
-0.0012168884277 -0.15603637695 0.24750518799 -0.0012168884277 -0.15603637695 0.24750518799 -0.0012168884277 -0.15603637695 0.24750518799 
-0.0012168884277 -0.15603637695 0.24750518799 -0.0012168884277 -0.15603637695 0.24750518799 -0.0012168884277 -0.15603637695 0.24750518799 
-0.0012168884277 -0.15603637695 0.24750518799 -0.0012168884277 -0.15603637695 0.24750518799 -0.0012168884277 -0.15603637695 0.24750518799 
-0.0012168884277 -0.15603637695 0.24750518799 -0.0012168884277 -0.15603637695 0.24750518799 -0.0012168884277 -0.15603637695 0.24750518799 
-0.0012168884277 -0.15603637695 0.24750518799 -0.0012168884277 -0.15603637695 0.24750518799 -0.0012168884277 -0.15603637695 0.24750518799 
-0.0012168884277 -0.15603637695 0.24750518799 -0.0012168884277 -0.15603637695 0.24750518799 -0.0012168884277 -0.15603637695 0.24750518799 
-0.0012168884277 -0.15603637695 0.24750518799 
Displacement_Total 3 1114 double
-0.073532104492 -0.16405487061 0.56466674805 -0.088608749834 -0.23675110693 0.53374070715 -0.078212992724 -0.32363730037 0.56271386755 
-0.066105334769 -0.26750075087 0.60038466139 -0.084459167442 -0.26908756646 0.52236645411 -0.081698947505 -0.37307775483 0.55475506 
-0.07258106559 -0.32024848425 0.558456501 -0.067933982035 -0.4367584861 0.57584415766 -0.043969746826 -0.38610552007 0.59657880491 
-0.036889553185 -0.51570294121 0.60086917223 -0.0013188965839 -0.43314568065 0.59292797658 0.010109548682 -0.5700963864 0.59949611212 
0.020356311415 -0.43152579557 0.56919261047 0.067720496013 -0.57939822451 0.56616181037 0.076178631455 -0.42099108519 0.48255621793 
0.1286887329 -0.55236306887 0.46877490216 0.1393361486 -0.42252246706 0.39226349734 0.17541751932 -0.54012969291 0.36841049848 
0.18836892456 -0.41403138008 0.32964086118 0.22656270659 -0.50413174065 0.28235696491 0.21824472514 -0.38635455438 0.30878289035 
0.27269519154 -0.47918449836 0.23846976129 0.26327896332 -0.36707858901 0.31346337831 0.29016858524 -0.45581301632 0.24732105072 
0.32865755101 -0.3556798662 0.36618963986 0.32899285252 -0.432166711 0.27058161447 0.37043900788 -0.31155107635 0.37686617404 
0.36835503222 -0.40894604302 0.27199676194 0.41992561126 -0.27847901862 0.36559463746 0.39928383663 -0.37253569233 0.26344324292 
0.45143355259 -0.24541940774 0.32796261925 0.43017031477 -0.33022099925 0.20964913339 0.48009856922 -0.22743820272 0.27878555044 
0.42694825809 -0.29811033096 0.16147460852 0.51256689926 -0.22284806006 0.22428207295 0.4313771766 -0.28091667567 0.12095341515 
0.50857706205 -0.2281014225 0.16170809404 0.43276091002 -0.28254237417 0.070901702406 0.50771510473 -0.24068071785 0.11088373346 
0.43322748991 -0.29753587499 0.034515135708 0.53337425226 -0.25344245002 0.081451876541 0.45862043158 -0.31460019521 0.021146851572 
0.54995365146 -0.23738995119 0.048939728602 0.45642776594 -0.33068260189 -0.010972460879 0.5650991233 -0.20145255716 0.0039257407277 
0.46620995921 -0.30842118323 -0.039884315661 0.57487246029 -0.15558879364 -0.041605062751 0.47324694066 -0.27006019328 -0.078010480017 
0.57318268111 -0.10838959796 -0.085223760739 0.46386462211 -0.22280662759 -0.12913889561 0.55251914735 -0.06992410036 -0.1281040203 
0.46162282508 -0.16175627514 -0.16765620779 0.5432528431 0.0020371760412 -0.10922843821 0.43217081414 -0.10697909367 -0.16839572708 
0.49404768517 0.047710676931 -0.063041313468 0.38827801747 -0.07500010245 -0.11625092172 0.4253367345 0.072526183034 0.019171709006 
0.31980729588 -0.048623515234 -0.025976361626 0.35191648839 0.079047543304 0.12100970079 0.24783775052 -0.05523949883 0.073700341702 
0.28234420871 0.066659485962 0.20923778434 0.16700756619 -0.038196021629 0.18377501137 0.20762975155 0.032716885397 0.30871128988 
0.091186839579 -0.061834003046 0.27464354574 0.15098559432 0.027293086873 0.38220313009 0.031716887468 -0.071294887677 0.36943442033 
0.10514248616 0.02119596769 0.45766708283 -0.01589147456 -0.076593596921 0.46464888339 0.06553914843 0.0055332123773 0.54075004208 
-0.050684060106 -0.073079313878 0.54177002971 0.028627019098 -0.0074809997752 0.61027579956 -0.07973565966 -0.077523009606 0.61908540799 
-0.013338529769 0.00079214366175 0.65530438658 -0.080379253638 -0.087116366353 0.6735808818 -0.027667831625 -0.0039136108457 0.70191460594 
-0.098933639286 -0.09597964171 0.71090243603 -0.057712090101 0.0031441323863 0.7234358503 -0.093748846105 -0.11475682862 0.7344656976 
-0.078625634801 -0.0028062439875 0.72069207944 -0.075681457354 -0.12845738893 0.74400809808 -0.075217018112 -0.034610357603 0.68658908222 
-0.072424831167 -0.15275094989 0.71885539963 -0.066656081396 -0.084939259807 0.62080397454 -0.078131411626 -0.20378223101 0.66738522485 
0.1236038208 -0.034477233887 -0.24098968506 0.076936812171 -0.0323381106 -0.23161297593 0.0747357337 -0.089281564317 -0.24773804636 
0.12395661262 -0.10371902725 -0.26878408881 0.036511998834 -0.029523266398 -0.21923024188 0.029966262293 -0.078112200006 -0.22521969829 
0.014234930741 -0.024743919251 -0.19810818269 -0.0063847500182 -0.071229198973 -0.20626713636 0.0056299574408 -0.029206025324 -0.19127066434 
-0.01773498256 -0.080846679116 -0.19334916717 0.0090570763326 -0.041801048762 -0.19700421979 -0.0079599950955 -0.10175731143 -0.18717865612 
0.026694876102 -0.072432952353 -0.22482109274 0.032501773542 -0.14365026736 -0.20240520041 0.04917709088 -0.10846997525 -0.25313206752 
0.063459848225 -0.19001307588 -0.22269928586 0.07821238303 -0.15163068057 -0.28033442514 0.078013214952 -0.24138635481 -0.24997768282 
0.13409537383 -0.18605929761 -0.30804294752 0.1300552208 -0.28756130712 -0.27299365109 0.19233692878 -0.21648707928 -0.33438188079 
0.17671447177 -0.32788746956 -0.29838724365 0.24783855699 -0.24280862213 -0.35848388014 0.21423310281 -0.36325384596 -0.32303595854 
0.29333979299 -0.27779759105 -0.39745160605 0.23863647054 -0.38598211946 -0.34828365409 0.314431771 -0.30694752743 -0.43263972238 
0.25145251932 -0.40339538776 -0.3788856082 0.31528993542 -0.33015800041 -0.46204428577 0.2316519593 -0.42653956846 -0.41083247256 
0.3457029128 -0.35632210596 -0.47646276314 0.2279858851 -0.44367113429 -0.42142323557 0.34589309286 -0.3792152311 -0.49746598735 
0.22939128116 -0.46740584111 -0.43979087303 0.3337388172 -0.40358502629 -0.52132743811 0.23733471702 -0.48380825442 -0.47012756564 
0.34631211111 -0.44499812126 -0.54066309757 0.23663337726 -0.51589843496 -0.50514543294 0.34558756751 -0.47674828575 -0.56106613006 
0.23387038036 -0.55886410074 -0.52584427879 0.33501776821 -0.50350249593 -0.57888607711 0.23179132214 -0.60676024458 -0.53429393904 
0.30559930923 -0.52866248578 -0.57930228029 0.22418805504 -0.62847963281 -0.52828970989 0.26697228506 -0.51921218065 -0.58966107769 
0.19414414996 -0.6284366377 -0.52649887076 0.21900828921 -0.48908569706 -0.60149458175 0.12221218339 -0.60947321432 -0.52838517979 
0.14465323824 -0.44745129771 -0.58947788343 0.030196100454 -0.55828899242 -0.524559073 0.082988311064 -0.39780994979 -0.56583716321 
0.0013918777141 -0.46483256156 -0.53017075849 0.030765434319 -0.34457376477 -0.53428517139 -0.033872280753 -0.41611567754 -0.50873498704 
0.027301549487 -0.32317173751 -0.47761151577 -0.032766571253 -0.39389623188 -0.45328152843 0.041784527415 -0.30271179096 -0.41543451798 
-0.020378622799 -0.36978495107 -0.39020511475 0.082234526232 -0.2836149255 -0.3452948248 0.023440833428 -0.36122441967 -0.30418833075 
0.12572404183 -0.28353360457 -0.29038967499 0.077611053118 -0.37104095078 -0.22067013086 0.16869171143 -0.29062741987 -0.23857048976 
0.13680480134 -0.38989301843 -0.1411744557 0.20274930726 -0.30673505239 -0.17745801131 0.18804952136 -0.4233663981 -0.076995934355 
0.2281130983 -0.3293632204 -0.1381543649 0.22117539931 -0.46539940797 -0.025763134697 0.24460010312 -0.3586491638 -0.12111856838 
0.24189410824 -0.47677118777 -0.0074167459756 0.26175843624 -0.36898000179 -0.11904656652 0.25129221198 -0.49779814573 0.0065529333624 
0.27483841798 -0.37479754044 -0.1154248276 0.25802273368 -0.51448673418 0.016933247229 0.26701097801 -0.37422493846 -0.091353308573 
0.25559776961 -0.5302475618 0.036393415675 0.26142052854 -0.37867121464 -0.085717931252 0.25285519737 -0.54078798242 0.039047482241 
0.2575525586 -0.38701464395 -0.094842640343 0.2464184777 -0.54397025558 0.032258619925 0.23195677871 -0.3564584416 -0.095338682589 
0.22417174575 -0.52682381581 0.028846082777 0.20527142417 -0.31800381756 -0.083651837816 0.19332543561 -0.49033866168 0.037376775765 
0.17686994913 -0.26710888645 -0.052776494161 0.14733745561 -0.42864027688 0.058214096067 0.16181373483 -0.20065714516 -0.024347834021 
0.13048815603 -0.34662166882 0.089295571639 0.15459457034 -0.12690415621 0.0018976954689 0.12762663344 -0.24975117021 0.11950688003 
0.19604741875 -0.030174988313 0.0054852989811 0.17065353584 -0.14346134877 0.11523089153 0.23227611009 0.054553503621 0.0080993379568 
0.20949711823 -0.045860258021 0.099195026148 0.2570971346 0.11307686596 0.0085874646134 0.23615099298 0.024493974551 0.083016515399 
0.26424969648 0.16542519074 -0.00039727705916 0.24376796898 0.073391390745 0.056481257919 0.25682440501 0.21267863013 -0.01719787053 
0.23991813217 0.10671943677 0.030712499685 0.23500111516 0.21672752639 -0.047036196862 0.22536946747 0.11170030991 -0.016247598159 
0.20933398477 0.20857300476 -0.080012532127 0.20815312139 0.11405451677 -0.067583249174 0.17945392964 0.17198334358 -0.10871497417 
0.18345229318 0.089845817558 -0.10087003735 0.15582517643 0.13294053546 -0.13307981157 0.16459721953 0.058356435371 -0.13022989992 
0.14978307044 0.086996344233 -0.1452417633 0.1600997849 0.013611528869 -0.16185756547 0.14120126069 0.053114353112 -0.16696730355 
0.15699798916 -0.021052264565 -0.1921588353 0.13003587117 0.031502949091 -0.19842165319 0.15649457176 -0.045099671265 -0.22279803388 
0.12555033766 0.00033002660776 -0.22132986482 0.14401541939 -0.076004932474 -0.24908809478 -0.080278985238 -0.48081249255 0.55191591489 
-0.071116237443 -0.44307128864 0.57009461604 -0.068937264815 -0.53804669084 0.56288180677 -0.0034719301452 -0.64634329822 0.6044252931 
0.066568731529 -0.69234322218 0.60714627362 0.13298823921 -0.71091023615 0.55947879035 0.20350006648 -0.70598675743 0.44411606438 
0.2519125206 -0.6635372723 0.33011174716 0.29843683284 -0.61207608386 0.23747553482 0.32394202063 -0.5614609304 0.17638794832 
0.33435156361 -0.52207094427 0.17485228737 0.33826902304 -0.50046767414 0.18752444417 0.36327344305 -0.4948367787 0.17784304861 
0.39091379445 -0.44153598095 0.15898674688 0.40159591998 -0.39939375346 0.10607374504 0.40080898405 -0.35135067716 0.054478764961 
0.38124354785 -0.33922959311 0.024579892985 0.36592959085 -0.33017535483 -0.0046302409255 0.36808259828 -0.36351175953 -0.021490658227 
0.37786735451 -0.39365986533 -0.024468577178 0.38645141634 -0.41335420683 -0.035111939676 0.39762800866 -0.40576486282 -0.060803106436 
0.39886737601 -0.37020221902 -0.099033399909 0.36429984044 -0.34204849266 -0.16971399872 0.34895979236 -0.25172694107 -0.20792375351 
0.31253080074 -0.22639511451 -0.21244518045 0.26505728886 -0.20382825886 -0.15941634728 0.19748210801 -0.18229026788 -0.067924061529 
0.12134626999 -0.16418254768 0.038773302548 0.039282055341 -0.15346844055 0.14670868517 -0.036839471877 -0.15877758329 0.25092441644 
-0.093967842878 -0.14857293979 0.355078411 -0.14021351224 -0.14580001707 0.45040654881 -0.17204327145 -0.1514794277 0.53568968485 
-0.17664862937 -0.16105162204 0.60182505112 -0.18006938427 -0.18050268847 0.65177812137 -0.18372546704 -0.20295308608 0.68340091483 
-0.13955714281 -0.23998478237 0.69443720363 -0.10045406252 -0.27383005969 0.69936697134 -0.078329743351 -0.30356327329 0.68668613219 
-0.06921497606 -0.33643471731 0.6553481243 -0.067975393331 -0.38962951635 0.61310693575 -0.0050830428775 -0.1814283125 -0.1800388753 
0.050421495226 -0.19945988069 -0.20694873077 -0.038797190835 -0.18159525409 -0.15051680117 -0.07085551556 -0.18992731592 -0.12757026852 
-0.08343440718 -0.20478689957 -0.1121298851 -0.036423350287 -0.25689501573 -0.11972913409 -0.001092542374 -0.30724881965 -0.12904456139 
0.02343349279 -0.36172582527 -0.15109153057 0.080981272853 -0.41130914917 -0.17780303881 0.11116048252 -0.45759588642 -0.2198744334 
0.12535663997 -0.48678579541 -0.25994780066 0.1324007692 -0.50628980577 -0.29071553937 0.1459552042 -0.51413157943 -0.33095779635 
0.12484308073 -0.50930620063 -0.35437986133 0.10514394827 -0.51676119212 -0.36934796919 0.085174926948 -0.53548233285 -0.3904595584 
0.10003847183 -0.56464728121 -0.43001929902 0.12037972937 -0.60542514224 -0.46522265994 0.11923021445 -0.65975328455 -0.48060105916 
0.12260059468 -0.72285227706 -0.47785652917 0.11767479342 -0.75073191104 -0.47627362826 0.094622120133 -0.76156351714 -0.47142567354 
0.040323125929 -0.73654371553 -0.45892600258 -0.029430037421 -0.70648746272 -0.44182806576 -0.093767287166 -0.49428823935 -0.47215622895 
-0.057966931633 -0.51677934188 -0.49493556368 -0.080564985612 -0.47154502751 -0.40907855295 -0.047984042626 -0.44870706164 -0.33793262131 
0.025348579585 -0.44913148737 -0.25607007885 0.087578461464 -0.44964687586 -0.15487066054 0.14690001698 -0.46271842027 -0.053714632743 
0.20465952656 -0.49700387536 0.0212734019 0.24007297642 -0.56904831578 0.096767720289 0.23265044175 -0.60441046273 0.095965282077 
0.25168850177 -0.63235255091 0.10071241475 0.2648466475 -0.6662077971 0.10300012244 0.28100912514 -0.69192839565 0.11169556363 
0.28959856361 -0.71167950692 0.10906643301 0.28506980112 -0.72902924094 0.10549623607 0.24864502345 -0.70860372284 0.10851127675 
0.21403857764 -0.66441869504 0.13080998998 0.17621974911 -0.58624984506 0.15998859823 0.14449284637 -0.48786076831 0.19032994668 
0.12186103866 -0.3818317539 0.21675399804 0.15767620827 -0.27277381952 0.21647623557 0.18454361414 -0.17423190175 0.20534409394 
0.22013136951 -0.092345222638 0.17786688124 0.23168887629 -0.033069046165 0.13779455812 0.22110934918 0.0076127923971 0.079513800365 
0.2060555989 0.0062073057396 0.025901971647 0.1911725084 -0.0076516080148 -0.027122088095 0.1756300122 -0.026086126331 -0.064023655923 
0.17277203823 -0.050585527001 -0.098210340244 0.18090075815 -0.098896129565 -0.12686101317 0.18749366732 -0.14238434548 -0.16338253387 
0.18969518129 -0.17905202799 -0.20217582977 0.15353395781 -0.20103893265 -0.21947250796 0.10815888881 -0.2106963149 -0.23101941909 
-0.072051224654 -0.59518294039 -0.46972975454 -0.083498648826 -0.71093084387 -0.41512265613 0.15893133201 -0.79579560186 0.56910031662 
0.099562447805 -0.76143580289 0.57378104289 0.23556061012 -0.81000963227 0.50736941908 0.32185677107 -0.79485669941 0.40311326026 
0.37191287523 -0.75005364807 0.26974435029 0.39522607085 -0.69345116035 0.17423467479 0.39593580192 -0.6279008111 0.1082043212 
0.38239131848 -0.5802996705 0.1013236863 0.36389203465 -0.5593019845 0.11406561381 0.3681338759 -0.55276584072 0.10832314269 
0.38169269766 -0.50783034609 0.082181698623 0.38066915501 -0.454984904 0.02620777965 0.37803269724 -0.40570451469 -0.018804947405 
0.35521467667 -0.37667629947 -0.04278823403 0.32917047784 -0.38884523323 -0.072985283727 0.32829328461 -0.40990637975 -0.059359122794 
0.32617483215 -0.44507861648 -0.057326824538 0.32543156395 -0.47431408945 -0.055434635816 0.33910410105 -0.48841563525 -0.063470850233 
0.3311625981 -0.46303736099 -0.085817751774 0.2923351877 -0.45223846492 -0.12829392885 0.17936837164 -0.33058135717 -0.22636933119 
0.20957805026 -0.35793625009 -0.2321056103 0.13531743335 -0.30774050133 -0.17341896018 0.072271431466 -0.28582318853 -0.094997814394 
-0.00065435642878 -0.2711455247 0.010005584975 -0.078664058632 -0.25586459844 0.11664728157 -0.14868927752 -0.22716516343 0.22852944752 
-0.20186245086 -0.21522512964 0.33284152928 -0.24844535041 -0.21890485344 0.42719789949 -0.27927711798 -0.22901967057 0.51360195444 
-0.2726853163 -0.23076702851 0.56470770922 -0.25955493418 -0.26310708924 0.59760625592 -0.23262583083 -0.29048107539 0.61297033301 
-0.19314220507 -0.35532014135 0.60171760072 -0.13126295788 -0.38612132942 0.62010636844 -0.11472611402 -0.38738675141 0.62947610888 
-0.098423852913 -0.41162850786 0.61250486969 -0.099052887259 -0.4564113076 0.57587711102 -0.087662267343 -0.51879809911 0.55164526268 
-0.076827056365 -0.56358511869 0.54029554391 0.22571858959 -0.40162098918 -0.20866052695 0.21624879472 -0.46799666755 -0.1714523947 
-0.088349533263 -0.58141028377 -0.4232237789 -0.09257185062 -0.70169177728 -0.37087795893 -0.066352349234 -0.5603960495 -0.35758294192 
-0.016908002766 -0.53079324026 -0.28405813257 0.059880035271 -0.5212752114 -0.17402127223 0.12970405688 -0.5124208945 -0.073966135291 
0.18578198775 -0.5159299609 0.012876180448 0.22349693412 -0.54653281893 0.084279346333 0.25386771152 -0.595854966 0.14586505747 
0.27965876624 -0.73267153386 0.14332100729 0.24561903897 -0.69676231838 0.13952202529 0.29606657405 -0.77740004508 0.14568724704 
0.31584487855 -0.8174373358 0.15073497221 0.3181638314 -0.84962373831 0.15942206442 0.31366579354 -0.86863334224 0.16493327231 
0.292124079 -0.84849572095 0.17760978032 0.25643236498 -0.79887862185 0.2010257582 0.2134459025 -0.71829082273 0.23181651267 
0.16579530479 -0.62526244228 0.26848051102 0.11981885488 -0.52109159273 0.30027685878 0.13479206005 -0.407457057 0.30315432752 
0.16329951806 -0.31053935386 0.29194196666 0.19404382686 -0.23349165838 0.26940009766 0.20301896856 -0.17237400669 0.2182579379 
0.19794700067 -0.13256164537 0.15868017482 0.18066810286 -0.13477861484 0.091162432507 0.16730821909 -0.14674633787 0.03039689684 
0.17333319635 -0.17166164904 -0.011271816407 0.17720633055 -0.19150744407 -0.043989847441 0.19401764991 -0.23945175415 -0.069898279669 
0.19272118351 -0.29082256262 -0.0876108313 0.18894520383 -0.33694196365 -0.10943771837 0.13327076418 -0.36915844201 -0.10330295813 
0.071478220276 -0.36856923748 -0.11080655136 -0.010484793632 -0.35174209147 -0.087947800748 -0.073708523028 -0.32296727914 -0.060198051678 
-0.13109811099 -0.30846744967 -0.025128129264 -0.15727058871 -0.31801937432 0.0079370925774 -0.16445462253 -0.33599759631 0.03301553558 
-0.14181854679 -0.37400808117 0.039393389204 -0.097565282443 -0.43082444502 0.026555355862 -0.058049667501 -0.4946782501 -0.0020004502438 
-0.029938339961 -0.55145750186 -0.062696624266 -0.0012067700468 -0.59416529488 -0.12133525884 0.023178020567 -0.61502947232 -0.18462503062 
0.025618460223 -0.61287477826 -0.23208497251 0.022977113184 -0.60392425182 -0.27167818067 0.0080178105402 -0.60176974168 -0.28510033804 
-0.011982268031 -0.58724063417 -0.29993104634 -0.05649222583 -0.59280155731 -0.30971150648 -0.023467747582 -0.61406099363 -0.38510417807 
0.0025086321727 -0.68141060186 -0.40392159662 0.020539145086 -0.75292036951 -0.41904805324 0.047240317861 -0.84344769651 -0.4234086362 
0.032761394815 -0.8783176262 -0.41591925661 0.011872501846 -0.89637508933 -0.41033073475 -0.018594890629 -0.85213967453 -0.39897703782 
-0.074685007675 -0.84917599047 -0.36870914877 -0.11273220886 -0.86279186633 -0.34593021196 -0.076035138865 -0.83815547111 -0.32160090093 
-0.021403642442 -0.66896015379 -0.28715948231 -0.0072749645103 -0.81885757801 -0.2673025571 0.23972301656 -0.66450722419 0.15199891481 
0.26607939447 -0.66613304653 0.18024706335 0.12525330908 -0.44620536717 -0.23737203909 0.12260957978 -0.46524009965 -0.19376831653 
0.11514095423 -0.41377411133 -0.24668147288 0.078513979443 -0.39970190362 -0.23540152437 0.04493192747 -0.38354478725 -0.19332431841 
-0.018372057952 -0.35464911639 -0.1076600596 -0.084812935953 -0.33484986348 -0.0093386756211 -0.15655520137 -0.31690782033 0.095922710857 
-0.23522833776 -0.28666025954 0.19212991847 -0.28207649245 -0.27629387735 0.29350853961 -0.33547319938 -0.28186357056 0.38997778751 
-0.35322427539 -0.27569518869 0.47755699471 -0.35670299352 -0.30013072746 0.52827653097 -0.33796995402 -0.33047793367 0.55558857345 
-0.30385719264 -0.35961102666 0.56019334954 -0.26954459509 -0.38944298135 0.54538386363 -0.14686633658 -0.42475322057 0.56234409328 
-0.16418394101 -0.43681398918 0.55640679402 -0.14226204194 -0.42301564812 0.5495470593 -0.14209487981 -0.48101502808 0.52279359392 
-0.13171873998 -0.55270773522 0.49657693631 -0.12345559211 -0.60462776736 0.48906520351 0.28387629466 -0.87807518186 0.49190268315 
0.19548850231 -0.83676913066 0.51777211169 0.3753184512 -0.89383649441 0.42513822988 0.45828938699 -0.88151555314 0.33067934976 
0.52041436949 -0.83411246937 0.19758716811 0.52438141164 -0.77088860997 0.098317864471 0.49602903073 -0.70190963826 0.042135848907 
0.4517447372 -0.64266347381 0.032573098656 0.39812577139 -0.6041337769 0.056910327004 0.38151288169 -0.59228707492 0.070642975292 
0.37040488178 -0.55842932769 0.047485342409 0.37437257439 -0.49087633299 -0.026133546605 0.37327741457 -0.44077754418 -0.078236421744 
0.3475821181 -0.40821080783 -0.08892802234 0.31481073989 -0.41213330692 -0.094820361584 0.29670963501 -0.45203753186 -0.07695468996 
0.29066294781 -0.5019126141 -0.064480055375 0.29093903973 -0.54290220144 -0.062902980408 0.28756796315 -0.55725107906 -0.07323179256 
0.27956288826 -0.5504263793 -0.089760931985 0.24772551378 -0.5487787294 -0.10462691937 0.17139896705 -0.53657666708 -0.13817192417 
0.097683105394 -0.53231165139 -0.15976739367 0.058434372216 -0.45651961314 -0.20241581552 0.036849231884 -0.51945508975 -0.16110306028 
0.055191032219 -0.43675873195 -0.23260841738 0.056372843776 -0.7359346444 0.53048316023 0.14533571811 -0.79093380413 0.48517155366 
0.03345466301 -0.71934757015 0.48977026796 0.090513679864 -0.7557784751 0.47563395677 -0.20283651115 -0.42579725821 0.54166072335 
-0.25079333978 -0.45542092631 0.52011701455 0.053155822738 -0.61003405915 -0.19527592897 0.14151035045 -0.57738750389 -0.093848285583 
0.20709292672 -0.55473507811 -0.0071829469243 0.24071461575 -0.55471553098 0.065417732019 0.26653350987 -0.58284230643 0.12512503469 
0.28079863611 -0.6334061875 0.16019232004 0.30807798553 -0.69642567396 0.19579457578 0.27823295353 -0.74123118381 0.19894449707 
0.31316654636 -0.75813841763 0.20990499711 0.24758721744 -0.73141942756 0.18646102991 0.24434118726 -0.75167324126 0.17283170619 
0.25510504844 -0.79975984288 0.1644565274 0.27800998324 -0.8461779679 0.17894543426 0.30386048022 -0.89293845223 0.19121351874 
0.32403849985 -0.9222015793 0.20161552622 0.32716011804 -0.94399563168 0.21145577604 0.30514962821 -0.92417079997 0.22021095013 
0.28136508313 -0.88872329521 0.25427941308 0.23955383556 -0.82399955567 0.2948154532 0.19907791932 -0.7433220123 0.33453104534 
0.16569951163 -0.64300578623 0.3615249936 0.14461713616 -0.53577701337 0.36670674945 0.14367690509 -0.45024931827 0.36001585252 
0.16282019457 -0.37393182265 0.33870822195 0.1657654498 -0.33002998677 0.29911653477 0.15725938064 -0.30083005167 0.24329404428 
0.14373754874 -0.30324776153 0.16999427323 0.13566113014 -0.30525932373 0.10747165077 0.14554261841 -0.31970464445 0.059630020701 
0.15975340882 -0.34925091442 0.022847082079 0.17924323108 -0.40412631704 0.0052653616726 0.18154028337 -0.45930755997 0.010459526302 
0.17514288091 -0.51832012634 0.037866238002 0.072399639349 -0.61189692228 0.10502331174 -0.0093706211331 -0.55317995369 0.083671783816 
-0.082515826244 -0.50833857115 0.080674153896 -0.1467080828 -0.47797924987 0.10118395484 -0.20295852325 -0.45224972576 0.1359551074 
-0.23471584431 -0.45103287695 0.17076856791 -0.25636821298 -0.45798271093 0.2041383607 -0.23125579346 -0.50820290818 0.20774402315 
-0.20067058149 -0.56391064738 0.18818704609 -0.15883841688 -0.62567135219 0.14686309741 -0.13153926377 -0.67737796973 0.061946153534 
-0.11153296119 -0.70742624205 -0.024308664304 -0.098220505189 -0.71795637171 -0.096316248156 -0.099794048125 -0.70823134315 -0.1506092568 
-0.10078167807 -0.69494667043 -0.19796682291 -0.10226523387 -0.64595700487 -0.21373073377 -0.11510103974 -0.62455539548 -0.22615185229 
-0.15931904033 -0.6218786597 -0.21620853272 -0.056275199106 -0.75199940208 -0.33628343114 -0.091348762838 -0.67969536559 -0.31090480346 
-0.039245228158 -0.83610206906 -0.34415339166 -0.037658027442 -0.93365793875 -0.33494106131 -0.052213618239 -0.98721856434 -0.34341945997 
-0.066520357432 -0.99895694022 -0.35589771362 -0.070993576558 -0.94667416139 -0.3611118138 -0.10342307859 -0.97640546279 -0.33222886848 
-0.12370624158 -0.98858952141 -0.30274565847 -0.10820098115 -0.97116883742 -0.27387764894 -0.032419067873 -0.93246401898 -0.23747023357 
0.099994203963 -0.79310773448 -0.20111610009 0.072574035496 -0.87855736689 -0.19447544553 0.13039441541 -0.71575638057 -0.17253065245 
0.18704314628 -0.64922032047 -0.1053183749 0.25695984939 -0.62650227328 -0.013332129525 0.30558284819 -0.61369150748 0.06550956056 
0.32110173914 -0.61094373109 0.1179364641 0.325491529 -0.62768525386 0.15516192107 -0.12674835123 -1.0513933543 -0.23393722727 
-0.17777741391 -1.0838296267 -0.25373630105 -0.065039890169 -1.0018483426 -0.21686699914 0.035231213482 -0.93862009125 -0.18831076024 
0.17095838259 -0.8190931749 -0.15375775931 0.15463027965 -0.86116588521 -0.16470876156 0.20075964034 -0.75467759093 -0.1379967832 
0.23464478318 -0.70325564203 -0.10820361205 0.28416284056 -0.66894344557 -0.039282436522 0.34009490411 -0.65463422586 0.047023912816 
0.37633215377 -0.6672045394 0.10717567125 0.39720414465 -0.67793163171 0.1535650207 0.37178542575 -0.69399278565 0.17141761042 
-0.1467646418 -0.64216151688 -0.24525355324 -0.2096595336 -0.6166906858 -0.18337142318 0.047087178862 -0.42762766709 -0.25261274366 
0.017154459863 -0.41425024422 -0.2287636811 -0.016295486549 -0.40683495937 -0.18907718358 -0.064997352564 -0.40193033358 -0.11573953878 
-0.12587428159 -0.37270003617 -0.031743397728 -0.19490208701 -0.35186314074 0.066389514431 -0.26206797923 -0.33140013635 0.15602249551 
-0.31955117059 -0.32656708074 0.25469340743 -0.36418326771 -0.32682698403 0.34971377098 -0.37150165563 -0.33859498768 0.4236802904 
-0.38613274478 -0.36810902635 0.4854517785 -0.37239643747 -0.38754809158 0.50683309163 -0.35028575674 -0.42096139813 0.52479117129 
-0.31440227484 -0.4578266086 0.51458310186 -0.29251105337 -0.48545481098 0.49344396587 -0.25764966866 -0.50179943246 0.48040440582 
-0.28946440723 -0.52368860864 0.45705883535 -0.22413152557 -0.47083196395 0.49902659813 -0.19924295168 -0.45936640282 0.50190880817 
-0.18662039802 -0.47220930115 0.4875770072 -0.18393394506 -0.46985166879 0.47002414238 -0.18914898021 -0.52619473662 0.44465301145 
-0.17577384058 -0.57809555068 0.44060845347 -0.15541022584 -0.62632146051 0.44248390255 -0.081290402165 -0.64007246597 0.4926067581 
-0.11642950292 -0.63943468058 0.45005417325 -0.021030874014 -0.68184563303 0.49364748584 -0.05986036908 -0.66870772688 0.45583960532 
0.012382285239 -0.7070512361 0.45051894868 0.092044617635 -0.74797416493 0.44020270658 0.1798147273 -0.80766968737 0.43423707498 
0.2749960223 -0.87005105219 0.42815718692 0.38597821517 -0.92032398332 0.39766191948 0.49615107309 -0.93796073039 0.32865021896 
0.59373324323 -0.93275249673 0.24200761104 0.62908879992 -0.90076668879 0.1356398337 0.62120049448 -0.83378646707 0.05038074166 
0.57454774528 -0.76336535256 0.0017567044376 0.5025959582 -0.69944935194 -0.001201193936 0.41517557386 -0.63703877469 0.043146205514 
0.3704542576 -0.62138825293 0.087568501002 0.3313555004 -0.61192230815 0.12356771023 0.36938044767 -0.47880284055 -0.067539780851 
0.37405707198 -0.51883083288 -0.01337564499 0.33403180604 -0.46026216581 -0.10515089464 0.31006119334 -0.45887624759 -0.1104096777 
0.2798048079 -0.49583549643 -0.10382351856 0.26069882266 -0.55165140363 -0.092458074847 0.25022067624 -0.60612872635 -0.08681242595 
0.23652582566 -0.63662036281 -0.092082341502 0.21003062612 -0.64790386359 -0.097909363857 0.16201763663 -0.65530484689 -0.10252369709 
0.10818421152 -0.64398573656 -0.12121315719 0.045098708065 -0.61939894779 -0.12310373574 -0.013616214595 -0.5962401112 -0.12432343922 
-0.0065858626974 -0.49656042882 -0.15919906722 -0.046855840767 -0.56789350315 -0.1340972393 -0.004010754404 -0.46522039763 -0.18963040435 
-0.0086454242861 -0.43353649759 -0.22698897443 0.36174506235 -0.57163273315 0.057687326414 0.31705117095 -0.6390528791 0.16223202017 
0.37809837902 -0.77660938251 0.20078465899 0.33786373298 -0.70446596289 0.18883868936 0.32063385667 -0.81673448752 0.22912632992 
0.38646200132 -0.82655873676 0.2153365557 0.28049046555 -0.80879420043 0.21910647922 0.26278218128 -0.80274300293 0.20544989226 
0.25147762524 -0.81487492199 0.20200575975 0.24022649126 -0.83214589123 0.21296665734 0.25811798825 -0.87009437985 0.24054638807 
0.27502148986 -0.90117603195 0.27466535099 0.29754900702 -0.93767853033 0.27402077978 0.30561552889 -0.96570788466 0.27045515776 
0.29627922606 -0.95204858816 0.26865168911 0.28085175651 -0.92285675431 0.29600282318 0.2567160811 -0.88389596545 0.34236117525 
0.22689937263 -0.83726589539 0.3829123199 0.18217032423 -0.74933502258 0.40171468112 0.13260878564 -0.65931209093 0.40792630901 
0.12837875126 -0.58532299982 0.39386278564 0.13072737476 -0.51978862322 0.38391068054 0.12838339501 -0.48434770942 0.35630205148 
0.11264022258 -0.46701646999 0.31278354139 0.098470230584 -0.46993086808 0.24435869119 0.089009373659 -0.46803147794 0.18654799218 
0.10003989464 -0.4765978776 0.14265403434 0.12083667652 -0.49735951285 0.10484890344 0.15597058421 -0.53556451937 0.086083500789 
0.17501775371 -0.59091857236 0.096219990754 0.16804169479 -0.65943557643 0.12720310075 0.086359716867 -0.72679739636 0.19293291547 
-0.16112571607 -0.6336911867 0.24150292147 -0.097774646862 -0.68083874472 0.23923170375 -0.21844677086 -0.60536335138 0.25957974538 
-0.27795841632 -0.58214757361 0.28576667817 -0.30624244508 -0.57942893232 0.31950854243 -0.32069618595 -0.59220417907 0.34795163183 
-0.29597543641 -0.6423140632 0.34771601778 -0.27519093983 -0.69046532584 0.3235162372 -0.24571037671 -0.74007861161 0.28026547546 
-0.22787745704 -0.79005336833 0.18902154256 -0.21264724994 -0.81325846155 0.081349127383 -0.20592529878 -0.80356517935 -0.019098328928 
-0.20408927559 -0.78148246568 -0.091119660882 -0.19929837888 -0.75106358072 -0.15048724568 -0.20152484492 -0.69856302578 -0.16585066502 
-0.20669361019 -0.65680644286 -0.17562326656 -0.21069932289 -0.6447227176 -0.18084153842 -0.23724484682 -0.63482896512 -0.15062570509 
-0.22957093737 -0.61907338777 -0.14597995582 -0.26879054591 -0.61969951232 -0.12131138208 -0.17336717693 -0.66072825481 -0.20294767865 
-0.13081111228 -0.70086904388 -0.24716882913 -0.1042756089 -0.76944470573 -0.2610384071 -0.088537621462 -0.85134226984 -0.25728079921 
-0.10195979753 -0.95952943668 -0.24843166561 -0.1260953992 -1.0348690182 -0.26487248911 -0.12917809343 -1.0611976533 -0.30325578191 
-0.046343045634 -0.74739658408 0.25529705544 -0.0027999756841 -0.79938253066 0.27035666815 0.41710595616 -0.7635665018 0.1826236138 
0.44133146722 -0.81974650437 0.19934863042 0.35153417328 -0.86862543462 0.26041970761 0.40953369361 -0.85681481641 0.24085739892 
0.30412915683 -0.86533097293 0.25370335051 0.27340991308 -0.84360804565 0.25379006555 0.24921320534 -0.82504408975 0.24935232471 
0.23172601956 -0.83552777307 0.26812604478 0.21868713919 -0.85375568034 0.29775341892 0.2358601128 -0.88200157088 0.33931401622 
0.25430696212 -0.90896181823 0.37593465231 0.2718318522 -0.92064920285 0.35711169835 0.28793693752 -0.9300399976 0.33399767584 
0.29287117939 -0.9313735233 0.30526654343 0.29927260149 -0.92520026618 0.30706946199 0.30617107566 -0.91369088641 0.34180886367 
0.28066779913 -0.90127392702 0.37559888386 0.20982239759 -0.82816005288 0.41187274888 0.15374673586 -0.77142728906 0.41684595062 
0.12798613408 -0.71543028503 0.42859783855 0.10760794234 -0.65281263942 0.43666587229 0.073332578422 -0.62220219873 0.41308634715 
0.049776129509 -0.59868133534 0.37719471295 0.032688319768 -0.6005010974 0.33416347105 0.023714974823 -0.60061646287 0.27946287982 
0.034571624532 -0.60396342808 0.21474436899 0.062508318538 -0.61380411164 0.17155084698 0.11524115063 -0.63052806762 0.15235466387 
0.14779323603 -0.67503364131 0.15263072463 0.15879807608 -0.73469629903 0.17355305262 0.10435132612 -0.78475789271 0.21826366795 
0.0094741325233 -0.80901981673 0.26134706733 -0.094341797954 -0.81355447836 0.30278851199 -0.069833201894 -0.82023851533 0.29440831558 
-0.13310360546 -0.78457768845 0.31498802648 -0.17918711962 -0.7585185792 0.330534183 -0.23163306178 -0.72881156245 0.3454435106 
-0.2720236433 -0.70427548323 0.36553477374 -0.32298940727 -0.68231454819 0.3908125933 -0.34667512541 -0.68414803138 0.41989780846 
-0.36526105337 -0.69513809779 0.44887641378 -0.35418609579 -0.73739927138 0.44588575505 -0.33402183629 -0.77850688941 0.41568028018 
-0.30225261271 -0.82071717434 0.34853231881 -0.29966932713 -0.8561761766 0.25119258913 -0.27711364033 -0.85388589909 0.12711151077 
-0.26461367089 -0.83452321462 0.029380426466 -0.26016342927 -0.79697962124 -0.050762469595 -0.25380162768 -0.75695384432 -0.12282696548 
-0.2635479874 -0.71004198199 -0.12130718994 -0.26179697506 -0.66445190654 -0.12939447366 -0.280386249 -0.64180972469 -0.11635732467 
-0.29037442148 -0.59104914816 -0.11053822182 -0.28261940825 -0.61015240282 -0.119805002 -0.24370464188 -0.61490677419 -0.12596409429 
-0.18393201461 -0.64359245243 -0.15604418828 -0.14895857224 -0.69768893944 -0.19518513854 -0.1352722708 -0.73280898107 -0.17964391768 
-0.12175245655 -0.80565568866 -0.16925233725 -0.13860007813 -0.93019922303 -0.16355925506 -0.18600424422 -1.0483515454 -0.19806071311 
-0.022083661295 -0.42594628915 -0.24457732465 -0.043797046358 -0.43860862664 -0.23644968189 -0.065046816463 -0.44105273631 -0.19263099562 
-0.095465026005 -0.4295491105 -0.12867217392 -0.14843212793 -0.40617694146 -0.048681737694 -0.20410849158 -0.38336453812 0.031431136889 
-0.26367357161 -0.37351089584 0.12233283661 -0.3146533805 -0.37841358105 0.21784277235 -0.35827242001 -0.39606576753 0.30863641507 
-0.38604883288 -0.42085453304 0.37271655708 -0.39702527595 -0.45315809905 0.43281107803 -0.39218121594 -0.4799382793 0.48081915857 
-0.37202229566 -0.48696954675 0.48757994896 -0.34446288166 -0.49821254631 0.48395165949 -0.31953744637 -0.50855428312 0.47367495572 
-0.31797895344 -0.55524440188 0.44940481522 -0.28682756685 -0.57996162397 0.406951314 -0.30918901561 -0.63072497119 0.4315425725 
-0.25362061672 -0.54271273473 0.4313590684 -0.23883461395 -0.52562170196 0.45112479452 -0.22071234498 -0.50779741962 0.45090226869 
-0.22230420505 -0.50719495156 0.42515773153 -0.22372345979 -0.52509465069 0.40158484969 -0.22905215204 -0.56329945706 0.38048309985 
-0.22768229146 -0.59702634417 0.3792714973 -0.22376895659 -0.62360718808 0.39285746276 -0.16945807187 -0.63320517595 0.41193346474 
-0.099495654017 -0.65799862736 0.42078552515 -0.019543314543 -0.69690928845 0.41438374763 0.07642501894 -0.74635752857 0.40252697963 
0.18440631612 -0.80788485735 0.3827977553 0.30199196583 -0.87023782162 0.36391104567 0.43640121848 -0.91780864078 0.33388725864 
0.5441828122 -0.94186832101 0.26964340011 0.6509473075 -0.93790577314 0.19832189821 0.70583655601 -0.91092494997 0.11447311359 
0.67737017742 -0.86432603037 0.059682758153 0.60975321342 -0.79746819526 0.023316760546 0.52746114753 -0.71821795928 0.017184631756 
0.42497857858 -0.66725192081 0.072619953571 0.34468601429 -0.65708222804 0.14774574207 0.28203116846 -0.66554023011 0.22901759976 
0.26493690181 -0.70477109747 0.27536735548 0.33694095213 -0.65901551195 0.18234853141 0.29334334275 -0.72847097854 0.28706702072 
0.37594698732 -0.59681370608 0.082086230901 0.39321035998 -0.54411104803 0.010888352695 0.38129314147 -0.5164667391 -0.043056549117 
0.35463118487 -0.50140729352 -0.092414927941 0.31909265327 -0.51637090406 -0.11841204894 0.28734248739 -0.56319693128 -0.12275119013 
0.25489818863 -0.6214092467 -0.12417745294 0.23116296494 -0.6914161628 -0.11839454602 0.19994190777 -0.71310412551 -0.1111460653 
0.16978851049 -0.72144714102 -0.10767325005 0.11404611354 -0.73287411884 -0.10684847682 0.049260472775 -0.74556979166 -0.10769571712 
-0.013687789136 -0.72675044477 -0.11675931366 -0.06074883551 -0.70990769971 -0.10713411513 -0.089548545667 -0.65950050101 -0.096670538515 
-0.07241048662 -0.51280501228 -0.12539385421 -0.106688748 -0.58761890959 -0.090128021739 -0.04080527734 -0.4787203274 -0.16239231791 
-0.054242461254 -0.45569592751 -0.18576713433 -0.074921550677 -0.42059261041 -0.22651241854 0.24805255807 -0.865370555 0.28903937586 
0.2066615564 -0.87393633669 0.37248749805 0.2158029944 -0.88332196019 0.41969229972 0.22263504624 -0.88743948613 0.46156395825 
0.24740471662 -0.88879354891 0.43168564794 0.27167479191 -0.89305584356 0.39894229586 0.29389510248 -0.88653604799 0.35427718255 
0.31530174196 -0.87900892423 0.32296591204 0.35379484109 -0.88461987377 0.33135699137 0.40671471136 -0.8924525825 0.32763080696 
0.17594588283 -0.8208080162 0.41070051549 0.2503665583 -0.85642360566 0.39239083492 0.14948572528 -0.78466539819 0.42624399797 
0.10036066305 -0.75210872894 0.43300086576 0.063797476797 -0.71778687559 0.44316500109 0.026619042826 -0.6902795518 0.4416449964 
-0.008144282954 -0.69462930137 0.39752743919 -0.030042239199 -0.69608029987 0.34515168264 -0.02538207205 -0.69557050911 0.27671268972 
0.00064578483185 -0.69876998667 0.22104938576 0.063046556759 -0.70861216513 0.19873485657 0.10570846072 -0.73161607381 0.19045606692 
0.10725405052 -0.76506136525 0.20550103799 0.086174826959 -0.79129263834 0.22488496617 0.0033887740103 -0.79881513534 0.25730076128 
-0.0932942098 -0.7860892597 0.28540261912 -0.15101457056 -0.77728889116 0.31094176195 -0.15579695394 -0.73352855698 0.2955998481 
-0.15319642283 -0.80959613691 0.32487962365 -0.17474849348 -0.79867118275 0.33678903162 -0.20825975369 -0.79236852396 0.36543888139 
-0.25230537826 -0.77760547673 0.38830571638 -0.30506562326 -0.75986615794 0.41304305095 -0.35195680471 -0.73919766516 0.43432449553 
-0.36696455073 -0.74805536058 0.45909721594 -0.38122442835 -0.75164866711 0.48203827899 -0.37380359337 -0.78334512503 0.46046371447 
-0.36137002463 -0.81172074583 0.4348293 -0.33860231687 -0.84433965799 0.37765575084 -0.33093801397 -0.85875127284 0.31045922957 
-0.31146561776 -0.81165012896 0.037412077995 -0.30397720596 -0.84040496636 0.12131204378 -0.30434859256 -0.77120928357 -0.032488790403 
-0.29969439805 -0.72720277603 -0.10010020189 -0.29167110705 -0.67890189111 -0.10803113651 0.33014482759 -0.9048480657 0.37605387502 
0.4436488712 -0.90418658064 0.31646776445 -0.28188302429 -0.6445420667 -0.13026654501 -0.26072813599 -0.56953631304 -0.14086228682 
-0.24914264645 -0.60245118897 -0.1556122677 -0.26073969153 -0.55083289903 -0.1218152366 -0.22425038902 -0.57209141822 -0.11731802167 
-0.17736496526 -0.6696373495 -0.13205184071 -0.094393211261 -0.43286281436 -0.23624160387 -0.10571119273 -0.44792685663 -0.23351696126 
-0.11812989686 -0.4526718448 -0.18595459851 -0.12981299457 -0.45621992019 -0.13961392719 -0.16157153486 -0.44277554306 -0.073760752641 
-0.20218017268 -0.43195158212 -0.0024117768712 -0.24887259607 -0.43159543759 0.082954624152 -0.29482341241 -0.4460721202 0.16978049729 
-0.33965585865 -0.48273067613 0.25273144865 -0.37194372134 -0.53083322403 0.31932928492 -0.39436712467 -0.57782434582 0.38707128368 
-0.39667950321 -0.58993425328 0.44046613104 -0.38059323038 -0.57664096242 0.4556563278 -0.35157672783 -0.57578653417 0.46168921056 
-0.35887236979 -0.6875637747 0.43616839182 -0.3066905139 -0.68943569756 0.38360386514 -0.34237423696 -0.72864233798 0.41506089523 
-0.28393139496 -0.64804929058 0.36967698203 -0.25380299365 -0.59852443703 0.37638459401 -0.24071617754 -0.57236829533 0.40173289574 
-0.23254818005 -0.5653492611 0.41025825993 -0.23571453392 -0.56493537365 0.37730423418 -0.24055511328 -0.56898176385 0.34862808767 
-0.24751126531 -0.60229806859 0.33150074144 -0.26206106846 -0.6270803613 0.33134095396 -0.27401325313 -0.66779378388 0.34771400506 
-0.2056693979 -0.668667552 0.3875941562 -0.12985829119 -0.68187010011 0.40783548158 -0.039340959541 -0.70119381049 0.40616064667 
0.06304280882 -0.74071630059 0.39502769037 0.1730849654 -0.79707747763 0.37368381213 0.28659619818 -0.85409356586 0.3464464881 
0.40400795592 -0.9113678073 0.31090040825 0.53645094867 -0.9342960673 0.27342212683 0.64889735252 -0.93175320714 0.22832044451 
0.68737434683 -0.90035855089 0.15168333273 0.67372187455 -0.84575037071 0.089516852505 0.61527513117 -0.78620069965 0.060701748917 
0.51104162449 -0.72395613301 0.079780055373 0.40173147721 -0.6818240874 0.14669582758 0.30212603006 -0.6767009465 0.2343080537 
0.23805448513 -0.71733355624 0.32087602441 0.22446898517 -0.76138837893 0.3647727613 0.26159624236 -0.79865773665 0.36153795673 
0.34890325762 -0.75253655205 0.2658044589 0.30778893245 -0.82882273929 0.3315669922 0.38410316136 -0.67861190357 0.18279891938 
0.38946228905 -0.61486998721 0.10984234549 0.40118807149 -0.56794831812 0.041856249505 0.38209827149 -0.54704038228 -0.022089796284 
0.35109709962 -0.54067182255 -0.081237439481 0.31295785792 -0.56272016233 -0.12080090857 0.28598683172 -0.60319427911 -0.12353756148 
0.25625415847 -0.66558229686 -0.13684243737 0.20661424802 -0.75915239406 -0.14298567456 0.16150027378 -0.77037487243 -0.12965582278 
0.13459055703 -0.7684065177 -0.12103329021 0.090980147421 -0.79951365927 -0.12146093381 0.010151541559 -0.83171744246 -0.12444437687 
-0.065380131892 -0.85104799544 -0.12364432954 -0.11829793139 -0.83141726488 -0.11435650641 -0.14329363291 -0.78785759472 -0.087789218746 
-0.14142103972 -0.69910558291 -0.075147773355 -0.142682186 -0.53440697758 -0.10816511741 -0.16035153868 -0.62045536162 -0.081074725921 
-0.10792726737 -0.47821886911 -0.15164784349 -0.18467451082 -1.0594192931 -0.18679950473 -0.093098064165 -1.0106752305 -0.17830802457 
0.01493906565 -0.96508563303 -0.16699424856 0.12258233114 -0.86163164648 -0.15034634189 0.22634171669 -0.76968902705 -0.13685857128 
0.25241931837 -0.74099480093 -0.13065010743 0.27390581071 -0.69744175797 -0.10248827695 0.3029981469 -0.67096306666 -0.072922143614 
0.35591970054 -0.66129627118 -0.010041398694 0.42042614786 -0.66202692002 0.062495941818 0.45343923684 -0.70408209934 0.11829368982 
0.4507492672 -0.73515932981 0.15953431599 0.46461610975 -0.78593349507 0.17720350706 0.44691523784 -0.82065854462 0.20901628522 
0.34395036195 -0.89269714048 0.30691621904 0.38204544263 -0.83111627851 0.27415462737 0.30318023839 -0.89816490602 0.33303886436 
0.26411611943 -0.8879196716 0.3232582041 -0.16435736552 -0.49419967704 -0.2101293418 -0.15783858675 -0.46950873718 -0.20188734889 
-0.15737453394 -0.50190905571 -0.19484331675 -0.1628798972 -0.4934523895 -0.15060012541 -0.17395050127 -0.49113906677 -0.092273850139 
-0.19590485646 -0.50174728537 -0.033587767247 -0.23633038918 -0.51020738679 0.042842080921 -0.27774931817 -0.52992328498 0.12363888732 
-0.32087281076 -0.58078549196 0.20092423936 -0.35469888142 -0.64848534192 0.27674940228 -0.36445303184 -0.72370781815 0.34615886939 
-0.38513128075 -0.70647804913 0.42460247326 -0.38010797206 -0.69436936305 0.44876348497 -0.3223670586 -0.75780664703 0.40590185817 
-0.36028099009 -0.74716786243 0.43682752326 -0.36837731823 -0.74554896513 0.4479779912 -0.27813739555 -0.74342056493 0.36103881903 
-0.25865050286 -0.68748132071 0.34590020846 -0.25131586085 -0.65231143709 0.34964426175 -0.24225258435 -0.6251963865 0.36163188856 
-0.23426758182 -0.61248313597 0.37162546638 -0.23274350325 -0.61917425287 0.33516139389 -0.24359899872 -0.60481900931 0.31479312325 
-0.25989324963 -0.6240928002 0.3037830886 -0.27133455247 -0.6495759776 0.2962624406 -0.26819595685 -0.67543024961 0.31195612121 
-0.11848764346 -0.70293868795 0.4157858583 -0.17843384707 -0.69471093805 0.38488234172 -0.052861431403 -0.71113558523 0.4186120073 
0.035647884702 -0.74358487963 0.40427464083 0.14258939674 -0.79878868046 0.37799445689 0.25009523717 -0.84861568833 0.34657448534 
0.36038465829 -0.88785244423 0.31721101467 0.47101208567 -0.91167100636 0.2883583066 0.56555821465 -0.92261606838 0.26347557067 
0.59748439132 -0.87174110846 0.22900992721 0.57109334656 -0.79041409923 0.1403181288 0.61604593695 -0.8354215932 0.15829140577 
0.47916053243 -0.73766911871 0.16899669763 0.37929457562 -0.72063447185 0.23367505528 0.26810149571 -0.710900198 0.32186723093 
0.21736558331 -0.77719465122 0.38082823107 0.17676966978 -0.83242723878 0.44038637622 0.22160084927 -0.85293335322 0.41523496686 
0.26899140878 -0.89347601098 0.38172118136 -0.23355593787 -0.69765157844 0.3451303518 -0.22509792865 -0.69893402709 0.30455315662 
-0.32367098197 -0.86295771007 0.20366713386 -0.33804953587 -0.83789090328 0.24725144574 -0.13867586562 -0.71636364196 -0.10192892351 
-0.14617071141 -0.830327895 -0.10368235619 -0.15119194773 -0.93211129618 -0.11710976357 -0.13919146337 -0.96138051575 -0.13768730058 
-0.09253598038 -0.95409675126 -0.14751013521 0.0023810155477 -0.9036699067 -0.14788605311 0.091261023732 -0.85595604206 -0.13896268019 
0.20748204508 -0.89975984175 0.42021158305 0.18781136153 -0.89589746679 0.4739787759 0.18689993248 -0.8835736082 0.50274218595 
0.2226812786 -0.8628796065 0.47292606914 0.26714372486 -0.84136523709 0.42110744318 0.30674001282 -0.83882713083 0.36300934979 
0.35538409335 -0.8401838673 0.30550786674 0.41272455933 -0.85713811403 0.29241455901 0.49557508908 -0.85652932596 0.26676461957 
0.44777978915 -0.91136326742 0.31708180414 0.35426010603 -0.9041281836 0.35777183532 0.28980950444 -0.88977556936 0.3751163301 
0.22025336795 -0.86204942492 0.39522727261 0.16198734496 -0.81652995864 0.41856302067 0.10192504357 -0.77412896343 0.43918099846 
0.052648062831 -0.74729764757 0.45095841987 -0.0070499957898 -0.72521495825 0.4542793597 -0.049351789732 -0.72766648813 0.41589656559 
-0.08231088363 -0.72628807414 0.37524092615 -0.080394595422 -0.72057059074 0.31696453763 -0.064690512206 -0.72199833461 0.26682922255 
-0.0093780567596 -0.72902502347 0.23087540074 0.027638627728 -0.74115571852 0.20931117758 0.033750575231 -0.75923464296 0.22014456574 
0.024530555251 -0.76937071089 0.23215546546 -0.036094833738 -0.76824880198 0.25462514472 -0.10693578857 -0.73838915025 0.27056851178 
-0.14861992088 -0.70628463764 0.28766294227 -0.19473994959 -0.73275879757 0.31420051206 -0.1944668707 -0.70179601327 0.31210809306 
-0.21266704027 -0.76190887446 0.33065640167 -0.22154569536 -0.78890769373 0.34678294592 -0.23298869723 -0.78822774533 0.3602544336 
-0.26899103273 -0.77808794627 0.37824228165 0.47881008216 -0.73033612778 0.14100347612 0.44724242633 -0.75173198812 0.17973954928 
0.41784279269 -0.75323592111 0.21531013233 0.4135947408 -0.68738711991 0.16225714839 0.41037190764 -0.63566044975 0.11950540182 
0.42807768493 -0.60561256831 0.075839736047 0.39949182013 -0.60918591445 0.0096893468152 0.3572738604 -0.59119460651 -0.038747154522 
0.33941438832 -0.61742403621 -0.093483026176 0.28586623726 -0.6631396931 -0.12542997447 0.26242372981 -0.70092716166 -0.14188769346 
-0.37456272276 -0.73967331904 0.46230737965 -0.37283184351 -0.77268813697 0.44733152477 -0.37193604065 -0.79074828012 0.41050165691 
-0.35120032491 -0.81788665512 0.36234061612 -0.33939329573 -0.83597795754 0.32155101216 -0.33740411304 -0.79136747602 0.28261624865 
-0.32457445014 -0.79649037213 0.19404004784 -0.32949892503 -0.74172922923 0.22967348391 -0.32637217715 -0.82532254896 0.17095264933 
-0.31589285547 -0.79986271503 0.11219137654 -0.30522282618 -0.76335436306 0.038977052001 -0.29529909351 -0.72372599097 -0.024000887167 
-0.27844501891 -0.683497598 -0.094313569101 -0.24210914091 -0.61852870962 -0.10907120403 -0.20732261392 -0.54984406898 -0.17924006539 
-0.20473697703 -0.54884455275 -0.13879290862 -0.21304184504 -0.52666550514 -0.18110824064 -0.21779433303 -0.49723588794 -0.16334214619 
0.35035177673 -0.63820680703 -0.049834078783 0.37071343182 -0.62409113196 -0.0075277340362 0.42035903266 -0.66272280803 0.066637895574 
0.22242815783 -0.92550271629 0.43124076314 0.37611153028 -0.90225879528 0.32801408426 0.29122694691 -0.8910084666 0.34793568728 
0.20400216094 -0.84016095916 0.3755234499 0.11192644015 -0.78825259963 0.40433221519 0.027165696834 -0.74415572284 0.43174817798 
-0.038155298488 -0.72306225853 0.4469646976 -0.089332798822 -0.72713882452 0.43546034839 -0.14258820904 -0.72450869992 0.39601599117 
-0.17043738163 -0.72284346616 0.33993125854 -0.16143194445 -0.72419591002 0.29043790466 -0.10986316122 -0.72810611794 0.25497344688 
-0.071167432549 -0.72944563776 0.22831080576 -0.11643834492 -0.70870337788 0.26817247497 -0.068364118949 -0.74367075184 0.25274619915 
-0.23136928658 -0.73916193482 0.32912526784 -0.22303300603 -0.69109532445 0.32745174861 -0.24974399613 -0.77124972118 0.34685131572 
0.18072524405 -0.89775263603 0.48228027932 0.19354803262 -0.85651901376 0.49386457037 0.24211695316 -0.82369911004 0.45485030584 
0.29861231262 -0.79651112535 0.3859693194 0.37297128226 -0.80482582636 0.32181294757 0.4329374724 -0.81776898911 0.27280287124 
0.46655829758 -0.83097177874 0.25874681568 0.53675762258 -0.82897617547 0.21639163064 0.50380245024 -0.79472238716 0.20686031613 
0.42632729642 -0.76132957099 0.25298253031 0.3353688404 -0.74865734937 0.32060137381 0.25002494752 -0.76540025981 0.40008860092 
0.19198168245 -0.82261838441 0.46386263194 0.16883211156 -0.87324045364 0.47366843645 0.19179911907 -0.89683635497 0.4537458458 
-0.30987592799 -0.74650563826 0.12976956767 -0.29382355781 -0.69710459587 0.054603846537 -0.26895764206 -0.66347554204 -0.023050640013 
-0.22459498713 -0.66779107166 0.33464823196 -0.22613352949 -0.64998064505 0.34329911942 -0.20920220614 -0.67096690791 0.3120773916 
-0.22363797633 -0.66074719168 0.28349515941 -0.20643944998 -0.64855453163 0.28863043866 -0.2329721093 -0.67187394916 0.2724922394 
-0.23144557193 -0.68393916482 0.28297669416 -0.19276788531 -0.69943125298 0.27197129444 -0.31169221061 -0.67470079417 0.15905728379 
-0.19819378219 -0.53043948721 -0.09941080883 -0.21996254785 -0.5520335872 -0.059668676944 -0.25620879785 -0.58437849771 0.011492730958 
0.44379804182 -0.68647928262 0.1144948789 -0.2818012111 -0.61976701397 0.082263602493 -0.15163581894 -0.68772441853 0.25826691064 
-0.13531401939 -0.68707837065 0.26579489887 -0.16553260326 -0.69692611448 0.24833260479 -0.069216172418 -0.59426063495 0.53678096447 
-0.010350802856 -0.66402426546 0.54912463134 0.32129437485 -0.65390088211 0.17335328722 -0.13938461821 -0.43839725322 -0.19118324212 
-0.18830022501 -0.4919379983 -0.14199709687 -0.060507632917 -0.73947423754 0.24381523145 -0.06386051617 -0.73588166878 0.2363657175 
-0.18945486011 -0.66102449109 0.2934909632 
Displacement_Wall 3 1114 double
-0.072315216064 -0.0080184936523 0.31716156006 -0.087391861406 -0.080714729973 0.28623551916 -0.076996104296 -0.16760092342 0.31520867956 
-0.064888446342 -0.11146437392 0.3528794734 -0.083242279014 -0.11305118951 0.27486126612 -0.080482059078 -0.21704137788 0.30724987202 
-0.071364177162 -0.1642121073 0.31095131301 -0.066717093607 -0.28072210914 0.32833896967 -0.042752858398 -0.23006914311 0.34907361692 
-0.035672664757 -0.35966656425 0.35336398424 -0.00010200815615 -0.2771093037 0.34542278859 0.01132643711 -0.41406000945 0.35199092413 
0.021573199843 -0.27548941862 0.32168742248 0.068937384441 -0.42336184756 0.31865662238 0.077395519883 -0.26495470824 0.23505102994 
0.12990562133 -0.39632669192 0.22126971417 0.14055303703 -0.2664860901 0.14475830935 0.17663440775 -0.38409331596 0.12090531049 
0.18958581298 -0.25799500313 0.082135673193 0.22777959501 -0.3480953637 0.034851776927 0.21946161357 -0.23031817743 0.061277702363 
0.27391207997 -0.32314812141 -0.0090354266933 0.26449585175 -0.21104221206 0.065958190319 0.29138547367 -0.29977663936 -0.00018413727084 
0.32987443943 -0.19964348925 0.11868445187 0.33020974095 -0.27613033405 0.02307642648 0.37165589631 -0.15551469939 0.12936098605 
0.36957192065 -0.25290966606 0.024491573953 0.42114249969 -0.12244264166 0.11808944947 0.40050072505 -0.21649931538 0.015938054932 
0.45265044102 -0.089383030788 0.080457431264 0.4313872032 -0.1741846223 -0.037856054595 0.48131545765 -0.071401825762 0.031280362451 
0.42816514652 -0.14207395401 -0.08603057947 0.51378378768 -0.066811683104 -0.02322311504 0.43259406503 -0.12488029871 -0.12655177284 
0.50979395048 -0.072065045545 -0.085797093948 0.43397779845 -0.12650599722 -0.17660348558 0.50893199316 -0.0846443409 -0.13662145452 
0.43444437834 -0.14149949803 -0.21299005228 0.53459114069 -0.097406073063 -0.16605331145 0.45983732001 -0.15856381826 -0.22635833642 
0.55117053989 -0.081353574237 -0.19856545939 0.45764465437 -0.17464622494 -0.25847764887 0.56631601172 -0.045416180205 -0.24357944726 
0.46742684764 -0.15238480627 -0.28738950365 0.57608934872 0.00044758331013 -0.28911025074 0.47446382908 -0.11402381632 -0.32551566801 
0.57439956954 0.04764677899 -0.33272894873 0.46508151053 -0.06677025064 -0.3766440836 0.55373603577 0.086112276594 -0.37560920829 
0.4628397135 -0.0057198981825 -0.41516139578 0.54446973153 0.15807355299 -0.3567336262 0.43338770257 0.04905728328 -0.41590091507 
0.49526457359 0.20374705388 -0.31054650146 0.3894949059 0.081036274503 -0.36375610971 0.42655362293 0.22856255999 -0.22833347898 
0.32102418431 0.10741286172 -0.27348154961 0.35313337682 0.23508392026 -0.1264954872 0.24905463894 0.10079687812 -0.17380484629 
0.28356109713 0.22269586291 -0.038267403646 0.16822445462 0.11784035532 -0.063730176615 0.20884663998 0.18875326235 0.061206101893 
0.092403728006 0.094202373907 0.02713835775 0.15220248275 0.18332946383 0.1346979421 0.032933775895 0.084741489276 0.12192923234 
0.10635937459 0.17723234464 0.21016189484 -0.014674586132 0.079442780032 0.21714369541 0.066756036857 0.16156958933 0.29324485409 
-0.049467171678 0.082957063075 0.29426484172 0.029843907526 0.14855537718 0.36277061157 -0.078518771233 0.078513367348 0.37158022 
-0.012121641342 0.15682852061 0.40779919859 -0.07916236521 0.0689200106 0.42607569381 -0.026450943197 0.15212276611 0.45440941795 
-0.097716750858 0.060056735243 0.46339724804 -0.056495201673 0.15918050934 0.47593066231 -0.092531957677 0.04127954833 0.48696050961 
-0.077408746373 0.15323013297 0.47318689145 -0.074464568927 0.027578988018 0.49650291009 -0.074000129685 0.12142601935 0.43908389423 
-0.071207942739 0.0032854270615 0.47135021164 -0.065439192968 0.071097117146 0.37329878655 -0.076914523199 -0.047745854052 0.41988003687 
0.12482070923 0.12155914307 -0.48849487305 0.078153700598 0.12369826635 -0.47911816392 0.075952622128 0.066754812637 -0.49524323435 
0.12517350104 0.052317349706 -0.5162892768 0.037728887262 0.12651311056 -0.46673542987 0.031183150721 0.077924176947 -0.47272488628 
0.015451819169 0.1312924577 -0.44561337067 -0.0051678615905 0.08480717798 -0.45377232435 0.0068468458685 0.12683035163 -0.43877585233 
-0.016518094132 0.075189697837 -0.44085435516 0.01027396476 0.11423532819 -0.44450940778 -0.0067431066677 0.054279065522 -0.43468384411 
0.027911764529 0.0836034246 -0.47232628073 0.03371866197 0.012386109595 -0.44991038839 0.050393979308 0.047566401702 -0.50063725551 
0.064676736652 -0.033976698931 -0.47020447385 0.079429271458 0.004405696381 -0.52783961313 0.07923010338 -0.085349977852 -0.49748287081 
0.13531226225 -0.030022920658 -0.55554813551 0.13127210922 -0.13152493016 -0.52049883907 0.19355381721 -0.060450702322 -0.58188706877 
0.17793136019 -0.17185109261 -0.54589243164 0.24905544542 -0.086772245173 -0.60598906813 0.21544999124 -0.20721746901 -0.57054114653 
0.29455668141 -0.12176121409 -0.64495679404 0.23985335896 -0.22994574251 -0.59578884208 0.31564865943 -0.15091115048 -0.68014491037 
0.25266940774 -0.2473590108 -0.62639079618 0.31650682384 -0.17412162346 -0.70954947375 0.23286884773 -0.27050319151 -0.65833766055 
0.34691980123 -0.200285729 -0.72396795113 0.22920277352 -0.28763475734 -0.66892842356 0.34710998128 -0.22317885415 -0.74497117534 
0.23060816959 -0.31136946416 -0.68729606102 0.33495570563 -0.24754864933 -0.76883262609 0.23855160544 -0.32777187747 -0.71763275362 
0.34752899954 -0.28896174431 -0.78816828556 0.23785026568 -0.35986205801 -0.75265062093 0.34680445594 -0.3207119088 -0.80857131805 
0.23508726879 -0.40282772378 -0.77334946677 0.33623465663 -0.34746611897 -0.8263912651 0.23300821057 -0.45072386762 -0.78179912703 
0.30681619765 -0.37262610882 -0.82680746828 0.22540494347 -0.47244325586 -0.77579489788 0.26818917349 -0.3631758037 -0.83716626568 
0.19536103839 -0.47240026075 -0.77400405875 0.22022517763 -0.33304932011 -0.84899976974 0.12342907182 -0.45343683737 -0.77589036778 
0.14587012667 -0.29141492075 -0.83698307142 0.031412988881 -0.40225261546 -0.77206426099 0.084205199492 -0.24177357284 -0.8133423512 
0.0026087661418 -0.30879618461 -0.77767594647 0.031982322747 -0.18853738782 -0.78179035938 -0.032655392325 -0.26007930059 -0.75624017503 
0.028518437915 -0.16713536056 -0.72511670376 -0.031549682826 -0.23785985492 -0.70078671642 0.043001415843 -0.14667541401 -0.66293970597 
-0.019161734372 -0.21374857412 -0.63771030274 0.08345141466 -0.12757854855 -0.59280001279 0.024657721855 -0.20518804271 -0.55169351874 
0.12694093026 -0.12749722762 -0.53789486298 0.078827941546 -0.21500457383 -0.46817531885 0.16990859986 -0.13459104292 -0.48607567775 
0.13802168977 -0.23385664147 -0.38867964369 0.20396619568 -0.15069867544 -0.42496319929 0.18926640979 -0.26733002115 -0.32450112234 
0.22932998673 -0.17332684345 -0.38565955289 0.22239228774 -0.30936303102 -0.27326832269 0.24581699154 -0.20261278684 -0.36862375637 
0.24311099667 -0.32073481081 -0.25492193396 0.26297532467 -0.21294362484 -0.36655175451 0.2525091004 -0.34176176877 -0.24095225463 
0.27605530641 -0.21876116349 -0.36293001559 0.25923962211 -0.35845035722 -0.23057194076 0.26822786644 -0.2181885615 -0.33885849656 
0.25681465804 -0.37421118485 -0.21111177231 0.26263741697 -0.22263483768 -0.33322311924 0.2540720858 -0.38475160546 -0.20845770575 
0.25876944703 -0.23097826699 -0.34234782833 0.24763536613 -0.38793387863 -0.21524656806 0.23317366714 -0.20042206464 -0.34284387058 
0.22538863418 -0.37078743886 -0.21865910521 0.2064883126 -0.16196744061 -0.3311570258 0.19454232404 -0.33430228473 -0.21012841222 
0.17808683756 -0.1110725095 -0.30028168215 0.14855434404 -0.27260389992 -0.18929109192 0.16303062326 -0.044620768205 -0.27185302201 
0.13170504445 -0.19058529187 -0.15820961635 0.15581145876 0.029132220747 -0.24560749252 0.12884352187 -0.093714793256 -0.12799830795 
0.19726430718 0.12586138864 -0.24201988901 0.17187042426 0.012575028182 -0.13227429646 0.23349299852 0.21058988057 -0.23940585003 
0.21071400665 0.11017611893 -0.14831016184 0.25831402303 0.26911324291 -0.23891772337 0.23736788141 0.1805303515 -0.16448867259 
0.26546658491 0.32146156769 -0.24790246505 0.24498485741 0.2294277677 -0.19102393007 0.25804129343 0.36871500709 -0.26470305852 
0.2411350206 0.26275581372 -0.2167926883 0.23621800359 0.37276390334 -0.29454138485 0.2265863559 0.26773668686 -0.26375278615 
0.21055087319 0.36460938172 -0.32751772012 0.20937000981 0.27009089372 -0.31508843716 0.18067081807 0.32801972053 -0.35622016216 
0.18466918161 0.24588219451 -0.34837522534 0.15704206486 0.28897691242 -0.38058499956 0.16581410796 0.21439281232 -0.37773508791 
0.15099995886 0.24303272119 -0.39274695129 0.16131667333 0.16964790582 -0.40936275346 0.14241814911 0.20915073007 -0.41447249154 
0.15821487758 0.13498411239 -0.43966402329 0.13125275959 0.18753932604 -0.44592684118 0.15771146019 0.11093670569 -0.47030322187 
0.12676722608 0.15636640356 -0.46883505281 0.14523230781 0.080031444479 -0.49659328277 -0.07906209681 -0.3247761156 0.3044107269 
-0.069899349016 -0.28703491169 0.32258942805 -0.067720376387 -0.38201031389 0.31537661878 -0.0022550417175 -0.49030692127 0.35692010511 
0.067785619956 -0.53630684523 0.35964108564 0.13420512764 -0.55487385919 0.31197360236 0.20471695491 -0.54995038048 0.19661087639 
0.25312940903 -0.50750089535 0.082606559168 0.29965372127 -0.4560397069 -0.01002965317 0.32515890906 -0.40542455345 -0.071117239672 
0.33556845204 -0.36603456732 -0.072652900615 0.33948591147 -0.34443129718 -0.059980743816 0.36449033148 -0.33880040175 -0.069662139381 
0.39213068288 -0.28549960399 -0.08851844111 0.40281280841 -0.2433573765 -0.14143144295 0.40202587248 -0.1953143002 -0.19302642303 
0.38246043628 -0.18319321615 -0.222925295 0.36714647928 -0.17413897788 -0.25213542891 0.36929948671 -0.20747538258 -0.26899584621 
0.37908424294 -0.23762348838 -0.27197376517 0.38766830476 -0.25731782988 -0.28261712766 0.39884489709 -0.24972848586 -0.30830829442 
0.40008426443 -0.21416584206 -0.3465385879 0.36551672887 -0.18601211571 -0.4172191867 0.35017668079 -0.095690564113 -0.4554289415 
0.31374768917 -0.07035873756 -0.45995036844 0.26627417728 -0.047791881902 -0.40692153527 0.19869899644 -0.026253890928 -0.31542924952 
0.12256315842 -0.0081461707238 -0.20873188544 0.040498943768 0.0025679364034 -0.10079650282 -0.03562258345 -0.0027412063379 0.0034192284519 
-0.09275095445 0.0074634371663 0.10757322301 -0.13899662381 0.010236359878 0.20290136082 -0.17082638302 0.0045569492496 0.28818449686 
-0.17543174094 -0.0050152450902 0.35431986313 -0.17885249584 -0.024466311513 0.40427293338 -0.18250857861 -0.046916709127 0.43589572684 
-0.13834025438 -0.083948405419 0.44693201564 -0.099237174092 -0.11779368274 0.45186178335 -0.077112854924 -0.14752689633 0.4391809442 
-0.067998087633 -0.18039834036 0.40784293631 -0.066758504903 -0.23359313939 0.36560174776 -0.0038661544497 -0.025391935544 -0.42754406329 
0.051638383654 -0.04342350374 -0.45445391876 -0.037580302408 -0.025558877132 -0.39802198916 -0.069638627132 -0.033890938967 -0.37507545651 
-0.082217518753 -0.048750522615 -0.35963507309 -0.035206461859 -0.10085863877 -0.36723432208 0.00012434605372 -0.1512124427 -0.37654974938 
0.024650381218 -0.20568944832 -0.39859671856 0.082198161281 -0.25527277222 -0.4253082268 0.11237737095 -0.30155950946 -0.46737962139 
0.1265735284 -0.33074941845 -0.50745298865 0.13361765763 -0.35025342881 -0.53822072735 0.14717209263 -0.35809520247 -0.57846298434 
0.12605996916 -0.35326982368 -0.60188504932 0.1063608367 -0.36072481517 -0.61685315718 0.086391815376 -0.3794459559 -0.63796474639 
0.10125536025 -0.40861090426 -0.677524487 0.1215966178 -0.44938876529 -0.71272784793 0.12044710288 -0.5037169076 -0.72810624715 
0.12381748311 -0.56681590011 -0.72536171716 0.11889168185 -0.59469553408 -0.72377881625 0.095839008561 -0.60552714018 -0.71893086153 
0.041540014357 -0.58050733857 -0.70643119057 -0.028213148993 -0.55045108577 -0.68933325375 -0.092550398738 -0.3382518624 -0.71966141694 
-0.056750043205 -0.36074296492 -0.74244075167 -0.079348097184 -0.31550865056 -0.65658374094 -0.046767154198 -0.29267068469 -0.5854378093 
0.026565468012 -0.29309511042 -0.50357526684 0.088795349892 -0.29361049891 -0.40237584853 0.14811690541 -0.30668204332 -0.30121982073 
0.20587641499 -0.3409674984 -0.22623178609 0.24128986485 -0.41301193883 -0.1507374677 0.23386733017 -0.44837408578 -0.15153990591 
0.2529053902 -0.47631617395 -0.14679277323 0.26606353592 -0.51017142014 -0.14450506555 0.28222601357 -0.5358920187 -0.13580962436 
0.29081545204 -0.55564312996 -0.13843875498 0.28628668955 -0.57299286399 -0.14200895192 0.24986191188 -0.55256734589 -0.13899391124 
0.21525546607 -0.50838231809 -0.116695198 0.17743663754 -0.43021346811 -0.087516589756 0.1457097348 -0.33182439136 -0.057175241304 
0.12307792709 -0.22579537695 -0.03075118995 0.1588930967 -0.11673744257 -0.03102895242 0.18576050256 -0.018195524795 -0.042161094046 
0.22134825793 0.063691154315 -0.069638306749 0.23290576472 0.12296733079 -0.10971062987 0.22232623761 0.16364916935 -0.16799138762 
0.20727248732 0.16224368269 -0.22160321634 0.19238939683 0.14838476894 -0.27462727608 0.17684690062 0.12995025062 -0.31152884391 
0.17398892666 0.10545084995 -0.34571552823 0.18211764658 0.057140247388 -0.37436620116 0.18871055574 0.013652031469 -0.41088772186 
0.19091206972 -0.023015651032 -0.44968101776 0.15475084623 -0.045002555695 -0.46697769595 0.10937577724 -0.054659937951 -0.47852460708 
-0.070834336227 -0.43914656344 -0.71723494253 -0.082281760398 -0.55489446691 -0.66262784412 0.16014822044 -0.63975922491 0.32159512864 
0.10077933623 -0.60539942593 0.3262758549 0.23677749855 -0.65397325532 0.25986423109 0.32307365949 -0.63882032245 0.15560807227 
0.37312976366 -0.59401727112 0.022239162303 0.39644295928 -0.53741478339 -0.073270513199 0.39715269035 -0.47186443414 -0.13930086678 
0.3836082069 -0.42426329355 -0.14618150169 0.36510892308 -0.40326560755 -0.13343957418 0.36935076433 -0.39672946376 -0.13918204529 
0.38290958609 -0.35179396914 -0.16532348936 0.38188604343 -0.29894852705 -0.22129740834 0.37924958567 -0.24966813773 -0.26631013539 
0.3564315651 -0.22063992252 -0.29029342202 0.33038736627 -0.23280885628 -0.32049047172 0.32951017304 -0.25387000279 -0.30686431078 
0.32739172058 -0.28904223953 -0.30483201253 0.32664845238 -0.3182777125 -0.3029398238 0.34032098947 -0.3323792583 -0.31097603822 
0.33237948653 -0.30700098404 -0.33332293976 0.29355207613 -0.29620208797 -0.37579911684 0.18058526006 -0.17454498022 -0.47387451918 
0.21079493869 -0.20189987314 -0.47961079829 0.13653432178 -0.15170412438 -0.42092414816 0.073488319893 -0.12978681158 -0.34250300238 
0.00056253199896 -0.11510914775 -0.23749960301 -0.077447170204 -0.09982822149 -0.13085790642 -0.14747238909 -0.071128786478 -0.018975740467 
-0.20064556243 -0.059188752684 0.085336341288 -0.24722846198 -0.062868476488 0.1796927115 -0.27806022955 -0.072983293619 0.26609676645 
-0.27146842787 -0.07473065156 0.31720252124 -0.25833804575 -0.10707071229 0.35010106793 -0.23140894241 -0.13444469844 0.36546514503 
-0.19192531664 -0.1992837644 0.35421241273 -0.13004606945 -0.23008495246 0.37260118045 -0.11350922559 -0.23135037446 0.38197092089 
-0.097206964485 -0.25559213091 0.3649996817 -0.097835998831 -0.30037493065 0.32837192303 -0.086445378916 -0.36276172215 0.30414007469 
-0.075610167937 -0.40754874174 0.29279035592 0.22693547802 -0.24558461222 -0.45616571494 0.21746568314 -0.3119602906 -0.41895758269 
-0.087132644835 -0.42537390681 -0.67072896689 -0.091354962193 -0.54565540033 -0.61838314692 -0.065135460806 -0.40435967255 -0.60508812991 
-0.015691114339 -0.37475686331 -0.53156332056 0.061096923699 -0.36523883445 -0.42152646022 0.1309209453 -0.35638451755 -0.32147132328 
0.18699887618 -0.35989358395 -0.23462900754 0.22471382255 -0.39049644198 -0.16322584166 0.25508459995 -0.43981858904 -0.10164013052 
0.28087565467 -0.57663515691 -0.1041841807 0.2468359274 -0.54072594142 -0.1079831627 0.29728346248 -0.62136366813 -0.10181794095 
0.31706176698 -0.66140095884 -0.096770215783 0.31938071983 -0.69358736135 -0.088083123568 0.31488268197 -0.71259696528 -0.082571915674 
0.29334096743 -0.692459344 -0.069895407669 0.25764925341 -0.6428422449 -0.046479429786 0.21466279093 -0.56225444578 -0.015688675314 
0.16701219322 -0.46922606533 0.020975323036 0.12103574331 -0.36505521577 0.052771670796 0.13600894847 -0.25142068005 0.055649139536 
0.16451640648 -0.1545029769 0.044436778668 0.19526071529 -0.077455281423 0.021894909672 0.20423585698 -0.016337629741 -0.029247250083 
0.1991638891 0.023474731587 -0.088825013167 0.18188499129 0.021257762116 -0.15634275548 0.16852510752 0.0092900390821 -0.21710829115 
0.17455008478 -0.015625272087 -0.2587770044 0.17842321898 -0.035471067115 -0.29149503543 0.19523453834 -0.083415377196 -0.31740346766 
0.19393807193 -0.13478618567 -0.33511601929 0.19016209226 -0.1809055867 -0.35694290636 0.13448765261 -0.21312206506 -0.35080814611 
0.072695108704 -0.21253286052 -0.35831173935 -0.0092679052043 -0.19570571452 -0.33545298874 -0.0724916346 -0.16693090218 -0.30770323967 
-0.12988122256 -0.15243107271 -0.27263331725 -0.15605370028 -0.16198299737 -0.23956809541 -0.1632377341 -0.17996121936 -0.21448965241 
-0.14060165836 -0.21797170421 -0.20811179878 -0.096348394015 -0.27478806807 -0.22094983213 -0.056832779073 -0.33864187315 -0.24950563823 
-0.028721451533 -0.3954211249 -0.31020181225 1.011838089e-05 -0.43812891793 -0.36884044683 0.024394908995 -0.45899309537 -0.43213021861 
0.026835348651 -0.4568384013 -0.4795901605 0.024194001612 -0.44788787487 -0.51918336866 0.0092346989679 -0.44573336473 -0.53260552603 
-0.010765379603 -0.43120425722 -0.54743623433 -0.055275337402 -0.43676518036 -0.55721669447 -0.022250859155 -0.45802461668 -0.63260936606 
0.0037255206004 -0.52537422491 -0.65142678461 0.021756033514 -0.59688399256 -0.66655324123 0.048457206289 -0.68741131956 -0.67091382419 
0.033978283243 -0.72228124925 -0.66342444459 0.013089390274 -0.74033871237 -0.65783592274 -0.017378002201 -0.69610329757 -0.64648222581 
-0.073468119248 -0.69313961352 -0.61621433676 -0.11151532043 -0.70675548937 -0.59343539994 -0.074818250437 -0.68211909416 -0.56910608892 
-0.020186754014 -0.51292377684 -0.5346646703 -0.0060580760826 -0.66282120105 -0.51480774509 0.24093990498 -0.50847084724 -0.095506273174 
0.2672962829 -0.51009666957 -0.067258124643 0.1264701975 -0.29016899022 -0.48487722707 0.12382646821 -0.3092037227 -0.44127350452 
0.11635784266 -0.25773773438 -0.49418666086 0.07973086787 -0.24366552666 -0.48290671235 0.046148815898 -0.22750841029 -0.4408295064 
-0.017155169524 -0.19861273943 -0.35516524758 -0.083596047526 -0.17881348653 -0.25684386361 -0.15533831294 -0.16087144338 -0.15158247713 
-0.23401144933 -0.13062388259 -0.055375269514 -0.28085960402 -0.1202575004 0.046003351621 -0.33425631095 -0.1258271936 0.14247259953 
-0.35200738696 -0.11965881173 0.23005180673 -0.35548610509 -0.1440943505 0.28077134298 -0.33675306559 -0.17444155671 0.30808338547 
-0.30264030422 -0.20357464971 0.31268816155 -0.26832770666 -0.2334066044 0.29787867564 -0.14564944815 -0.26871684362 0.31483890529 
-0.16296705258 -0.28077761222 0.30890160604 -0.14104515351 -0.26697927117 0.30204187131 -0.14087799139 -0.32497865113 0.27528840593 
-0.13050185155 -0.39667135826 0.24907174832 -0.12223870368 -0.4485913904 0.24156001553 0.28509318309 -0.72203880491 0.24439749516 
0.19670539074 -0.68073275371 0.2702669237 0.37653533963 -0.73780011746 0.17763304189 0.45950627542 -0.72547917619 0.083174161768 
0.52163125791 -0.67807609242 -0.049918019877 0.52559830007 -0.61485223302 -0.14918732352 0.49724591916 -0.54587326131 -0.20536933908 
0.45296162562 -0.48662709686 -0.21493208933 0.39934265982 -0.44809739994 -0.19059486098 0.38272977012 -0.43625069797 -0.1768622127 
0.37162177021 -0.40239295073 -0.20001984558 0.37558946282 -0.33483995604 -0.27363873459 0.37449430299 -0.28474116723 -0.32574160973 
0.34879900653 -0.25217443087 -0.33643321033 0.31602762832 -0.25609692997 -0.34232554957 0.29792652344 -0.29600115491 -0.32445987795 
0.29187983624 -0.34587623715 -0.31198524336 0.29215592816 -0.38686582448 -0.3104081684 0.28878485158 -0.4012147021 -0.32073698055 
0.28077977669 -0.39439000235 -0.33726611997 0.24894240221 -0.39274235245 -0.35213210735 0.17261585548 -0.38054029012 -0.38567711215 
0.098899993822 -0.37627527444 -0.40727258166 0.059651260644 -0.30048323619 -0.44992100351 0.038066120311 -0.36341871279 -0.40860824827 
0.056407920647 -0.280722355 -0.48011360537 0.057589732203 -0.57989826745 0.28297797224 0.14655260654 -0.63489742718 0.23766636567 
0.034671551438 -0.5633111932 0.24226507997 0.091730568292 -0.59974209814 0.22812876878 -0.20161962272 -0.26976088126 0.29415553536 
-0.24957645136 -0.29938454935 0.27261182656 0.054372711166 -0.45399768219 -0.44278111696 0.14272723888 -0.42135112694 -0.34135347357 
0.20830981514 -0.39869870116 -0.25468813491 0.24193150417 -0.39867915403 -0.18208745597 0.2677503983 -0.42680592948 -0.1223801533 
0.28201552453 -0.47736981055 -0.087312867947 0.30929487395 -0.54038929701 -0.051710612213 0.27944984196 -0.58519480686 -0.048560690923 
0.31438343479 -0.60210204067 -0.037600190878 0.24880410587 -0.57538305061 -0.061044158077 0.24555807569 -0.59563686431 -0.0746734818 
0.25632193686 -0.64372346593 -0.083048660589 0.27922687167 -0.69014159095 -0.06855975373 0.30507736865 -0.73690207528 -0.056291669246 
0.32525538828 -0.76616520234 -0.045889661769 0.32837700646 -0.78795925473 -0.036049411949 0.30636651663 -0.76813442301 -0.027294237853 
0.28258197156 -0.73268691825 0.0067742250892 0.24077072399 -0.66796317872 0.047310265209 0.20029480774 -0.58728563535 0.087025857347 
0.16691640006 -0.48696940927 0.11401980561 0.14583402459 -0.37974063642 0.11920156146 0.14489379352 -0.29421294131 0.11251066453 
0.164037083 -0.2178954457 0.091203033966 0.16698233822 -0.17399360982 0.051611346783 0.15847626907 -0.14479367472 -0.0042111437093 
0.14495443717 -0.14721138458 -0.077510914761 0.13687801857 -0.14922294677 -0.14003353722 0.14675950684 -0.1636682675 -0.18787516729 
0.16097029724 -0.19321453747 -0.22465810591 0.1804601195 -0.24808994009 -0.24223982632 0.18275717179 -0.30327118301 -0.23704566169 
0.17635976934 -0.36228374939 -0.20963894999 0.073616527777 -0.45586054533 -0.14248187625 -0.0081537327054 -0.39714357673 -0.16383340417 
-0.081298937817 -0.35230219419 -0.16683103409 -0.14549119437 -0.32194287292 -0.14632123314 -0.20174163482 -0.29621334881 -0.11155008059 
-0.23349895588 -0.29499649999 -0.076736620074 -0.25515132455 -0.30194633397 -0.04336682729 -0.23003890503 -0.35216653122 -0.039761164841 
-0.19945369307 -0.40787427042 -0.059318141896 -0.15762152845 -0.46963497524 -0.10064209058 -0.13032237534 -0.52134159278 -0.18555903445 
-0.11031607276 -0.5513898651 -0.27181385229 -0.097003616762 -0.56191999476 -0.34382143614 -0.098577159697 -0.5521949662 -0.39811444478 
-0.099564789645 -0.53891029348 -0.44547201089 -0.10104834544 -0.48992062792 -0.46123592176 -0.11388415131 -0.46851901853 -0.47365704028 
-0.1581021519 -0.46584228274 -0.46371372071 -0.055058310678 -0.59596302513 -0.58378861913 -0.090131874411 -0.52365898864 -0.55840999144 
-0.038028339731 -0.6800656921 -0.59165857965 -0.036441139014 -0.7776215618 -0.5824462493 -0.050996729812 -0.83118218738 -0.59092464796 
-0.065303469004 -0.84292056326 -0.60340290161 -0.06977668813 -0.79063778444 -0.60861700179 -0.10220619016 -0.82036908584 -0.57973405647 
-0.12248935316 -0.83255314445 -0.55025084646 -0.10698409272 -0.81513246047 -0.52138283693 -0.031202179445 -0.77642764202 -0.48497542156 
0.10121109239 -0.63707135753 -0.44862128808 0.073790923924 -0.72252098993 -0.44198063352 0.13161130384 -0.55972000362 -0.42003584044 
0.1882600347 -0.49318394352 -0.35282356289 0.25817673782 -0.47046589632 -0.26083731751 0.30679973662 -0.45765513053 -0.18199562743 
0.32231862757 -0.45490735413 -0.12956872389 0.32670841743 -0.4716488769 -0.09234326692 -0.1255314628 -0.89535697734 -0.48144241526 
-0.17656052548 -0.92779324971 -0.50124148904 -0.063823001742 -0.84581196564 -0.46437218713 0.03644810191 -0.78258371429 -0.43581594823 
0.17217527102 -0.66305679795 -0.4012629473 0.15584716808 -0.70512950825 -0.41221394955 0.20197652877 -0.59864121398 -0.38550197119 
0.2358616716 -0.54721926508 -0.35570880003 0.28537972899 -0.51290706861 -0.28678762451 0.34131179253 -0.49859784891 -0.20048127517 
0.3775490422 -0.51116816244 -0.14032951674 0.39842103307 -0.52189525475 -0.093940167284 0.37300231417 -0.5379564087 -0.076087577571 
-0.14554775338 -0.48612513992 -0.49275874123 -0.20844264517 -0.46065430884 -0.43087661117 0.048304067289 -0.27159129013 -0.50011793165 
0.018371348291 -0.25821386726 -0.47626886909 -0.015078598121 -0.25079858241 -0.43658237157 -0.063780464137 -0.24589395662 -0.36324472677 
-0.12465739316 -0.21666365922 -0.27924858572 -0.19368519858 -0.19582676379 -0.18111567356 -0.2608510908 -0.1753637594 -0.091482692475 
-0.31833428216 -0.17053070379 0.0071882194407 -0.36296637928 -0.17079060708 0.10220858299 -0.3702847672 -0.18255861073 0.17617510241 
-0.38491585635 -0.21207264939 0.23794659051 -0.37117954904 -0.23151171463 0.25932790364 -0.34906886831 -0.26492502117 0.2772859833 
-0.31318538642 -0.30179023164 0.26707791387 -0.29129416494 -0.32941843403 0.24593877788 -0.25643278024 -0.3457630555 0.23289921783 
-0.2882475188 -0.36765223169 0.20955364736 -0.22291463714 -0.31479558699 0.25152141014 -0.19802606326 -0.30333002587 0.25440362019 
-0.18540350959 -0.3161729242 0.24007181921 -0.18271705664 -0.31381529184 0.2225189544 -0.18793209178 -0.37015835967 0.19714782346 
-0.17455695215 -0.42205917373 0.19310326548 -0.15419333741 -0.47028508356 0.19497871456 -0.080073513737 -0.48403608901 0.24510157011 
-0.1152126145 -0.48339830362 0.20254898526 -0.019813985587 -0.52580925608 0.24614229785 -0.058643480653 -0.51267134993 0.20833441733 
0.013599173667 -0.55101485915 0.20301376069 0.093261506062 -0.59193778797 0.1926975186 0.18103161572 -0.65163331041 0.18673188699 
0.27621291073 -0.71401467524 0.18065199893 0.3871951036 -0.76428760637 0.1501567315 0.49736796151 -0.78192435344 0.081145030973 
0.59495013166 -0.77671611977 -0.0054975769461 0.63030568834 -0.74473031184 -0.11186535429 0.62241738291 -0.67775009012 -0.19712444633 
0.57576463371 -0.6073289756 -0.24574848355 0.50381284663 -0.54341297499 -0.24870638192 0.41639246228 -0.48100239773 -0.20435898247 
0.37167114603 -0.46535187598 -0.15993668699 0.33257238883 -0.45588593119 -0.12393747776 0.37059733609 -0.3227664636 -0.31504496884 
0.37527396041 -0.36279445593 -0.26088083298 0.33524869446 -0.30422578885 -0.35265608263 0.31127808177 -0.30283987064 -0.35791486568 
0.28102169632 -0.33979911948 -0.35132870655 0.26191571109 -0.39561502667 -0.33996326284 0.25143756467 -0.4500923494 -0.33431761394 
0.23774271409 -0.48058398585 -0.33958752949 0.21124751454 -0.49186748664 -0.34541455184 0.16323452505 -0.49926846993 -0.35002888508 
0.10940109995 -0.48794935961 -0.36871834518 0.046315596493 -0.46336257083 -0.37060892373 -0.012399326167 -0.44020373425 -0.37182862721 
-0.0053689742696 -0.34052405186 -0.40670425521 -0.04563895234 -0.4118571262 -0.38160242729 -0.0027938659763 -0.30918402067 -0.43713559234 
-0.0074285358583 -0.27750012064 -0.47449416242 0.36296195078 -0.4155963562 -0.18981786157 0.31826805937 -0.48301650214 -0.085273167815 
0.37931526745 -0.62057300555 -0.046720528997 0.3390806214 -0.54842958594 -0.058666498631 0.3218507451 -0.66069811056 -0.018378858073 
0.38767888975 -0.67052235981 -0.032168632293 0.28170735397 -0.65275782348 -0.028398708764 0.26399906971 -0.64670662597 -0.042055295725 
0.25269451366 -0.65883854504 -0.045499428234 0.24144337969 -0.67610951428 -0.034538530645 0.25933487668 -0.71405800289 -0.0069587999214 
0.27623837829 -0.74513965499 0.027160163003 0.29876589545 -0.78164215337 0.026515591787 0.30683241732 -0.80967150771 0.022949969775 
0.29749611449 -0.7960122112 0.02114650112 0.28206864493 -0.76682037735 0.048497635191 0.25793296953 -0.7278595885 0.09485598726 
0.22811626106 -0.68122951844 0.13540713191 0.18338721266 -0.59329864563 0.15420949313 0.13382567407 -0.50327571398 0.16042112102 
0.12959563969 -0.42928662287 0.14635759765 0.13194426318 -0.36375224627 0.13640549255 0.12960028344 -0.32831133246 0.10879686349 
0.113857111 -0.31098009304 0.065278353399 0.099687119011 -0.31389449113 -0.0031464967968 0.090226262087 -0.31199510099 -0.060957195808 
0.10125678306 -0.32056150065 -0.10485115365 0.12205356495 -0.3413231359 -0.14265628455 0.15718747264 -0.37952814242 -0.1614216872 
0.17623464214 -0.43488219541 -0.15128519723 0.16925858322 -0.50339919948 -0.12030208724 0.087576605295 -0.5707610194 -0.054572272522 
-0.15990882764 -0.47765480974 -0.00600226652 -0.096557758434 -0.52480236777 -0.0082734842358 -0.21722988243 -0.44932697442 0.012074557388 
-0.27674152789 -0.42611119666 0.038261490178 -0.30502555665 -0.42339255537 0.072003354446 -0.31947929752 -0.43616780212 0.10044644384 
-0.29475854798 -0.48627768624 0.1002108298 -0.2739740514 -0.53442894889 0.07601104921 -0.24449348829 -0.58404223466 0.032760287473 
-0.22666056861 -0.63401699138 -0.058483645429 -0.21143036151 -0.6572220846 -0.16615606061 -0.20470841035 -0.6475288024 -0.26660351692 
-0.20287238717 -0.62544608873 -0.33862484887 -0.19808149045 -0.59502720377 -0.39799243367 -0.20030795649 -0.54252664882 -0.413355853 
-0.20547672176 -0.5007700659 -0.42312845454 -0.20948243446 -0.48868634065 -0.42834672641 -0.2360279584 -0.47879258817 -0.39813089308 
-0.22835404894 -0.46303701082 -0.39348514381 -0.26757365748 -0.46366313537 -0.36881657007 -0.1721502885 -0.50469187785 -0.45045286664 
-0.12959422386 -0.54483266693 -0.49467401712 -0.10305872047 -0.61340832878 -0.50854359508 -0.087320733034 -0.69530589289 -0.5047859872 
-0.1007429091 -0.80349305973 -0.49593685359 -0.12487851077 -0.87883264127 -0.51237767709 -0.127961205 -0.90516127634 -0.5507609699 
-0.045126157206 -0.59136020712 0.0077918674539 -0.0015830872564 -0.64334615371 0.022851480163 0.41832284458 -0.60753012485 -0.064881574188 
0.44254835565 -0.66371012742 -0.048156557568 0.3527510617 -0.71258905767 0.012914519625 0.41075058204 -0.70077843946 -0.0066477890705 
0.30534604526 -0.70929459598 0.0061981625259 0.27462680151 -0.6875716687 0.0062848775596 0.25043009376 -0.6690077128 0.0018471367172 
0.23294290799 -0.67949139612 0.02062085679 0.21990402762 -0.69771930338 0.050248230928 0.23707700123 -0.72596519393 0.091808828231 
0.25552385055 -0.75292544128 0.12842946433 0.27304874063 -0.76461282589 0.10960651036 0.28915382595 -0.77400362064 0.086492487854 
0.29408806782 -0.77533714634 0.057761355443 0.30048948992 -0.76916388923 0.059564274002 0.30738796409 -0.75765450946 0.094303675684 
0.28188468756 -0.74523755007 0.12809369587 0.21103928602 -0.67212367593 0.16436756089 0.15496362428 -0.61539091211 0.16934076263 
0.1292030225 -0.55939390807 0.18109265056 0.10882483076 -0.49677626247 0.1891606843 0.07454946685 -0.46616582178 0.16558115916 
0.050993017937 -0.44264495839 0.12968952496 0.033905208196 -0.44446472044 0.086658283058 0.02493186325 -0.44458008592 0.031957691828 
0.03578851296 -0.44792705112 -0.032760818997 0.063725206965 -0.45776773468 -0.075954341011 0.11645803906 -0.47449169067 -0.095150524114 
0.14901012446 -0.51899726436 -0.094874463357 0.16001496451 -0.57865992207 -0.073952135368 0.10556821455 -0.62872151576 -0.029241520034 
0.010691020951 -0.65298343978 0.013841879344 -0.093124909526 -0.65751810141 0.055283324003 -0.068616313467 -0.66420213837 0.046903127591 
-0.13188671704 -0.6285413115 0.067482838493 -0.1779702312 -0.60248220225 0.083028995011 -0.23041617335 -0.5727751855 0.097938322616 
-0.27080675487 -0.54823910627 0.11802958575 -0.32177251884 -0.52627817124 0.14330740532 -0.34545823698 -0.52811165443 0.17239262047 
-0.36404416494 -0.53910172083 0.20137122579 -0.35296920736 -0.58136289443 0.19838056706 -0.33280494786 -0.62247051246 0.16817509219 
-0.30103572429 -0.66468079739 0.10102713082 -0.29845243871 -0.70013979964 0.003687401142 -0.2758967519 -0.69784952214 -0.12039367722 
-0.26339678246 -0.67848683766 -0.21812476152 -0.25894654085 -0.64094324429 -0.29826765758 -0.25258473925 -0.60091746736 -0.37033215346 
-0.26233109897 -0.55400560504 -0.36881237793 -0.26058008663 -0.50841552958 -0.37689966165 -0.27916936058 -0.48577334774 -0.36386251266 
-0.28915753305 -0.43501277121 -0.35804340981 -0.28140251982 -0.45411602586 -0.36731018999 -0.24248775346 -0.45887039723 -0.37346928227 
-0.18271512618 -0.48755607548 -0.40354937627 -0.14774168381 -0.54165256248 -0.44269032653 -0.13405538238 -0.57677260412 -0.42714910567 
-0.12053556812 -0.64961931171 -0.41675752523 -0.13738318971 -0.77416284608 -0.41106444305 -0.18478735579 -0.89231516844 -0.44556590109 
-0.020866772868 -0.2699099122 -0.49208251264 -0.042580157931 -0.28257224969 -0.48395486988 -0.063829928035 -0.28501635936 -0.44013618361 
-0.094248137577 -0.27351273355 -0.37617736191 -0.14721523951 -0.25014056451 -0.29618692568 -0.20289160315 -0.22732816117 -0.2160740511 
-0.26245668318 -0.21747451889 -0.12517235138 -0.31343649207 -0.22237720409 -0.029662415635 -0.35705553158 -0.24002939058 0.061131227082 
-0.38483194445 -0.26481815609 0.12521136909 -0.39580838753 -0.2971217221 0.18530589004 -0.39096432751 -0.32390190234 0.23331397058 
-0.37080540723 -0.3309331698 0.24007476097 -0.34324599323 -0.34217616936 0.23644647151 -0.31832055795 -0.35251790616 0.22616976773 
-0.31676206502 -0.39920802493 0.20189962723 -0.28561067842 -0.42392524701 0.15944612601 -0.30797212718 -0.47468859424 0.18403738451 
-0.25240372829 -0.38667635777 0.18385388041 -0.23761772552 -0.36958532501 0.20361960653 -0.21949545655 -0.35176104267 0.2033970807 
-0.22108731662 -0.35115857461 0.17765254354 -0.22250657136 -0.36905827374 0.15407966171 -0.22783526361 -0.40726308011 0.13297791186 
-0.22646540303 -0.44098996722 0.13176630931 -0.22255206816 -0.46757081113 0.14535227478 -0.16824118344 -0.47716879899 0.16442827675 
-0.098278765589 -0.50196225041 0.17328033716 -0.018326426115 -0.5408729115 0.16687855964 0.077641907368 -0.59032115162 0.15502179164 
0.18562320455 -0.65184848039 0.13529256731 0.30320885425 -0.71420144467 0.11640585768 0.43761810691 -0.76177226383 0.086382070647 
0.54539970063 -0.78583194406 0.022138212119 0.65216419592 -0.78186939619 -0.049183289781 0.70705344444 -0.75488857302 -0.13303207439 
0.67858706584 -0.70828965341 -0.18782242984 0.61097010185 -0.6414318183 -0.22418842744 0.52867803596 -0.56218158233 -0.23032055623 
0.42619546701 -0.51121554385 -0.17488523442 0.34590290272 -0.50104585109 -0.099759445918 0.28324805689 -0.50950385316 -0.018487588232 
0.26615379024 -0.54873472052 0.027862167494 0.33815784055 -0.502979135 -0.065156656574 0.29456023117 -0.57243460158 0.039561832736 
0.37716387575 -0.44077732913 -0.16541895709 0.39442724841 -0.38807467108 -0.23661683529 0.3825100299 -0.36043036215 -0.29056173711 
0.3558480733 -0.34537091657 -0.33992011593 0.3203095417 -0.36033452711 -0.36591723693 0.28855937582 -0.40716055433 -0.37025637811 
0.25611507705 -0.46537286975 -0.37168264093 0.23237985337 -0.53537978584 -0.36589973401 0.2011587962 -0.55706774856 -0.35865125329 
0.17100539892 -0.56541076406 -0.35517843804 0.11526300197 -0.57683774189 -0.35435366481 0.050477361203 -0.5895334147 -0.35520090511 
-0.012470900708 -0.57071406782 -0.36426450165 -0.059531947083 -0.55387132276 -0.35463930312 -0.08833165724 -0.50346412406 -0.3441757265 
-0.071193598193 -0.35676863533 -0.37289904219 -0.10547185958 -0.43158253264 -0.33763320973 -0.039588388912 -0.32268395045 -0.4098975059 
-0.053025572826 -0.29965955055 -0.43327232232 -0.073704662249 -0.26455623345 -0.47401760653 0.2492694465 -0.70933417804 0.041534187874 
0.20787844483 -0.71789995974 0.12498231006 0.21701988283 -0.72728558324 0.17218711174 0.22385193466 -0.73140310918 0.21405877026 
0.24862160505 -0.73275717195 0.18418045996 0.27289168034 -0.7370194666 0.15143710787 0.2951119909 -0.73049967104 0.10677199456 
0.31651863039 -0.72297254728 0.075460724052 0.35501172952 -0.72858349681 0.083851803384 0.40793159979 -0.73641620554 0.080125618967 
0.17716277126 -0.66477163925 0.1631953275 0.25158344672 -0.70038722871 0.14488564693 0.15070261371 -0.62862902123 0.17873880998 
0.10157755148 -0.59607235198 0.18549567778 0.065014365225 -0.56175049864 0.19565981311 0.027835931253 -0.53424317484 0.19413980841 
-0.0069273945262 -0.53859292442 0.15002225121 -0.028825350772 -0.54004392292 0.097646494653 -0.024165183623 -0.53953413216 0.029207501733 
0.0018626732596 -0.54273360972 -0.026455802226 0.064263445186 -0.55257578818 -0.04877033142 0.10692534915 -0.57557969686 -0.057049121064 
0.10847093895 -0.6090249883 -0.042004149993 0.087391715387 -0.63525626138 -0.022620221814 0.004605662438 -0.64277875839 0.0097955732938 
-0.092077321372 -0.63005288275 0.037897431134 -0.14979768213 -0.62125251421 0.063436573959 -0.15458006552 -0.57749218002 0.048094660108 
-0.1519795344 -0.65355975996 0.077374435663 -0.17353160505 -0.6426348058 0.089283843628 -0.20704286527 -0.636332147 0.1179336934 
-0.25108848983 -0.62156909977 0.1408005284 -0.30384873483 -0.60382978099 0.16553786296 -0.35073991628 -0.5831612882 0.18681930754 
-0.3657476623 -0.59201898362 0.21159202795 -0.38000753992 -0.59561229015 0.234533091 -0.37258670495 -0.62730874808 0.21295852648 
-0.36015313621 -0.65568436888 0.18732411202 -0.33738542845 -0.68830328104 0.13015056285 -0.32972112555 -0.70271489589 0.062954041579 
-0.31024872933 -0.655613752 -0.21009310999 -0.30276031753 -0.6843685894 -0.12619314421 -0.30313170413 -0.61517290662 -0.27999397839 
-0.29847750963 -0.57116639908 -0.34760538988 -0.29045421862 -0.52286551416 -0.3555363245 0.33136171602 -0.74881168875 0.12854868704 
0.44486575963 -0.74815020369 0.068962576463 -0.28066613587 -0.48850568975 -0.377771733 -0.25951124756 -0.41349993609 -0.38836747481 
-0.24792575802 -0.44641481202 -0.40311745568 -0.2595228031 -0.39479652207 -0.36932042459 -0.22303350059 -0.41605504127 -0.36482320966 
-0.17614807684 -0.51360097255 -0.3795570287 -0.093176322834 -0.27682643741 -0.48374679186 -0.1044943043 -0.29189047967 -0.48102214924 
-0.11691300844 -0.29663546784 -0.4334597865 -0.12859610614 -0.30018354324 -0.38711911518 -0.16035464643 -0.28673916611 -0.32126594063 
-0.20096328425 -0.27591520517 -0.24991696486 -0.24765570764 -0.27555906064 -0.16455056384 -0.29360652398 -0.29003574325 -0.077724690695 
-0.33843897022 -0.32669429918 0.0052262606605 -0.37072683291 -0.37479684708 0.071824096934 -0.39315023624 -0.42178796887 0.1395660957 
-0.39546261478 -0.43389787632 0.19296094305 -0.37937634195 -0.42060458547 0.20815113981 -0.3503598394 -0.41975015722 0.21418402258 
-0.35765548136 -0.53152739775 0.18866320383 -0.30547362548 -0.5333993206 0.13609867715 -0.34115734854 -0.57260596102 0.16755570725 
-0.28271450653 -0.49201291362 0.12217179404 -0.25258610522 -0.44248806007 0.12887940602 -0.23949928911 -0.41633191838 0.15422770775 
-0.23133129162 -0.40931288415 0.16275307194 -0.23449764549 -0.40889899669 0.1297990462 -0.23933822486 -0.4129453869 0.10112289968 
-0.24629437689 -0.44626169164 0.083995553456 -0.26084418003 -0.47104398435 0.083835765971 -0.27279636471 -0.51175740693 0.10020881707 
-0.20445250947 -0.51263117505 0.14008896821 -0.12864140276 -0.52583372316 0.16033029359 -0.038124071113 -0.54515743354 0.15865545869 
0.064259697248 -0.58467992364 0.14752250238 0.17430185383 -0.64104110068 0.12617862414 0.28781308661 -0.69805718891 0.098941300108 
0.40522484435 -0.75533143034 0.063395220258 0.5376678371 -0.77825969035 0.025916938838 0.65011424095 -0.77571683019 -0.019184743475 
0.68859123526 -0.74432217394 -0.095821855255 0.67493876298 -0.68971399375 -0.15798833548 0.6164920196 -0.6301643227 -0.18680343907 
0.51225851291 -0.56791975606 -0.16772513262 0.40294836564 -0.52578771045 -0.10080936041 0.30334291849 -0.52066456955 -0.013197134286 
0.23927137356 -0.56129717928 0.073370836423 0.2256858736 -0.60535200197 0.11726757332 0.26281313079 -0.64262135969 0.11403276875 
0.35012014605 -0.5965001751 0.018299270914 0.30900582088 -0.67278636234 0.084061804212 0.38532004979 -0.52257552662 -0.064706268609 
0.39067917748 -0.45883361025 -0.1376628425 0.40240495992 -0.41191194116 -0.20564893848 0.38331515991 -0.39100400533 -0.26959498427 
0.35231398805 -0.38463544559 -0.32874262747 0.31417474635 -0.40668378538 -0.36830609656 0.28720372015 -0.44715790216 -0.37104274947 
0.2574710469 -0.50954591991 -0.38434762535 0.20783113645 -0.60311601711 -0.39049086255 0.16271716221 -0.61433849547 -0.37716101077 
0.13580744545 -0.61237014074 -0.36853847819 0.092197035849 -0.64347728232 -0.3689661218 0.011368429986 -0.67568106551 -0.37194956485 
-0.064163243464 -0.69501161849 -0.37114951753 -0.11708104296 -0.67538088793 -0.3618616944 -0.14207674448 -0.63182121777 -0.33529440673 
-0.14020415129 -0.54306920595 -0.32265296134 -0.14146529758 -0.37837060063 -0.3556703054 -0.15913465025 -0.46441898466 -0.32857991391 
-0.10671037894 -0.32218249216 -0.39915303148 -0.18345762239 -0.9033829161 -0.43430469272 -0.091881175737 -0.85463885359 -0.42581321256 
0.016155954078 -0.80904925608 -0.41449943655 0.12379921956 -0.70559526953 -0.39785152988 0.22755860512 -0.6136526501 -0.38436375926 
0.2536362068 -0.58495842398 -0.37815529542 0.27512269914 -0.54140538102 -0.34999346494 0.30421503533 -0.51492668971 -0.3204273316 
0.35713658897 -0.50525989422 -0.25754658668 0.42164303629 -0.50599054307 -0.18500924617 0.45465612527 -0.54804572239 -0.12921149817 
0.45196615563 -0.57912295286 -0.087970871994 0.46583299818 -0.62989711811 -0.070301680926 0.44813212627 -0.66462216767 -0.038488902773 
0.34516725037 -0.73666076353 0.059411031052 0.38326233105 -0.67507990156 0.026649439382 0.30439712682 -0.74212852906 0.085533676369 
0.26533300786 -0.73188329465 0.075753016111 -0.16314047709 -0.33816330009 -0.45763452979 -0.15662169832 -0.31347236023 -0.44939253688 
-0.15615764551 -0.34587267875 -0.44234850474 -0.16166300878 -0.33741601255 -0.3981053134 -0.17273361284 -0.33510268982 -0.33977903813 
-0.19468796803 -0.34571090842 -0.28109295523 -0.23511350075 -0.35417100984 -0.20466310707 -0.27653242975 -0.37388690803 -0.12386630067 
-0.31965592233 -0.42474911501 -0.046580948628 -0.35348199299 -0.49244896496 0.029244214294 -0.36323614341 -0.56767144119 0.0986536814 
-0.38391439232 -0.55044167218 0.17709728527 -0.37889108363 -0.5383329861 0.20125829698 -0.32115017017 -0.60177027007 0.15839667019 
-0.35906410167 -0.59113148548 0.18932233527 -0.3671604298 -0.58951258818 0.20047280322 -0.27692050712 -0.58738418797 0.11353363104 
-0.25743361443 -0.53144494376 0.098395020469 -0.25009897242 -0.49627506014 0.10213907376 -0.24103569593 -0.46916000955 0.11412670057 
-0.23305069339 -0.45644675902 0.12412027839 -0.23152661483 -0.46313787592 0.087656205903 -0.2423821103 -0.44878263236 0.06728793526 
-0.2586763612 -0.46805642325 0.056277900615 -0.27011766404 -0.49353960064 0.048757252611 -0.26697906842 -0.51939387266 0.064450933226 
-0.11727075503 -0.546902311 0.16828067031 -0.17721695865 -0.53867456109 0.13737715373 -0.051644542975 -0.55509920828 0.17110681931 
0.03686477313 -0.58754850268 0.15676945284 0.14380628517 -0.64275230351 0.13048926891 0.2513121256 -0.69257931138 0.099069297355 
0.36160154671 -0.73181606728 0.069705826677 0.4722289741 -0.75563462941 0.040853118611 0.56677510307 -0.76657969143 0.015970382678 
0.59870127974 -0.7157047315 -0.018495260775 0.57231023499 -0.63437772227 -0.10718705919 0.61726282538 -0.67938521625 -0.089213782214 
0.48037742086 -0.58163274176 -0.078508490363 0.38051146405 -0.5645980949 -0.01383013271 0.26931838414 -0.55486382104 0.074362042939 
0.21858247173 -0.62115827426 0.13332304308 0.1779865582 -0.67639086183 0.19288118823 0.2228177377 -0.69689697626 0.16772977888 
0.27020829721 -0.73743963403 0.13421599337 -0.23233904944 -0.54161520149 0.097625163811 -0.22388104022 -0.54289765014 0.057047968632 
-0.32245409354 -0.70692133312 -0.043838054129 -0.33683264745 -0.68185452632 -0.0002537422497 -0.1374589772 -0.56032726501 -0.34943411149 
-0.14495382298 -0.67429151805 -0.35118754418 -0.1499750593 -0.77607491923 -0.36461495156 -0.13797457494 -0.8053441388 -0.38519248857 
-0.091319091952 -0.79806037431 -0.3950153232 0.0035979039754 -0.74763352975 -0.3953912411 0.09247791216 -0.69991966511 -0.38646786818 
0.20869893351 -0.74372346479 0.17270639506 0.18902824996 -0.73986108984 0.22647358791 0.18811682091 -0.72753723124 0.25523699796 
0.22389816703 -0.70684322955 0.22542088115 0.26836061329 -0.68532886013 0.17360225519 0.30795690125 -0.68279075387 0.11550416181 
0.35660098178 -0.68414749034 0.058002678755 0.41394144776 -0.70110173708 0.044909371026 0.49679197751 -0.70049294901 0.019259431583 
0.44899667758 -0.75532689047 0.069576616153 0.35547699446 -0.74809180664 0.11026664733 0.29102639287 -0.7337391924 0.12761114211 
0.22147025638 -0.70601304797 0.14772208462 0.16320423339 -0.66049358168 0.17105783268 0.10314193199 -0.61809258647 0.19167581047 
0.053864951258 -0.59126127061 0.20345323188 -0.0058331073621 -0.5691785813 0.20677417172 -0.048134901304 -0.57163011118 0.1683913776 
-0.081093995202 -0.57025169719 0.12773573816 -0.079177706995 -0.56453421378 0.069459349644 -0.063473623778 -0.56596195765 0.01932403456 
-0.0081611683318 -0.57298864652 -0.016629787245 0.028855516155 -0.58511934156 -0.038194010413 0.034967463658 -0.603198266 -0.027360622248 
0.025747443679 -0.61333433394 -0.01534972253 -0.03487794531 -0.61221242502 0.007119956728 -0.10571890015 -0.5823527733 0.023063323791 
-0.14740303245 -0.55024826068 0.040157754278 -0.19352306116 -0.57672242062 0.066695324069 -0.19324998227 -0.54575963632 0.064602905067 
-0.21145015184 -0.6058724975 0.083151213687 -0.22032880693 -0.63287131678 0.099277757935 -0.2317718088 -0.63219136837 0.11274924561 
-0.2677741443 -0.62205156932 0.13073709366 0.48002697059 -0.57429975083 -0.10650171187 0.44845931476 -0.59569561117 -0.067765638704 
0.41905968112 -0.59719954416 -0.032195055655 0.41481162923 -0.53135074295 -0.085248039595 0.41158879606 -0.4796240728 -0.12799978617 
0.42929457335 -0.44957619136 -0.17166545194 0.40070870856 -0.4531495375 -0.23781584117 0.35849074883 -0.43515822955 -0.28625234251 
0.34063127675 -0.46138765925 -0.34098821416 0.28708312569 -0.50710331615 -0.37293516246 0.26364061824 -0.5448907847 -0.38939288145 
-0.37334583434 -0.58363694208 0.21480219166 -0.37161495508 -0.61665176002 0.19982633678 -0.37071915223 -0.63471190317 0.16299646892 
-0.34998343648 -0.66185027817 0.11483542814 -0.3381764073 -0.67994158059 0.074045824168 -0.33618722462 -0.63533109906 0.035111060662 
-0.32335756171 -0.64045399518 -0.05346514015 -0.3282820366 -0.58569285228 -0.01783170408 -0.32515528872 -0.66928617201 -0.076552538658 
-0.31467596705 -0.64382633808 -0.13531381144 -0.30400593775 -0.60731798611 -0.20852813599 -0.29408220508 -0.56768961402 -0.27150607516 
-0.27722813048 -0.52746122104 -0.34181875709 -0.24089225248 -0.46249233267 -0.35657639202 -0.2061057255 -0.39380769203 -0.42674525338 
-0.2035200886 -0.3928081758 -0.38629809661 -0.21182495661 -0.37062912819 -0.42861342863 -0.2165774446 -0.34119951099 -0.41084733418 
0.35156866516 -0.48217043008 -0.29733926677 0.37193032025 -0.468054755 -0.25503292202 0.42157592108 -0.50668643107 -0.18086729241 
0.22364504626 -0.76946633933 0.18373557515 0.37732841871 -0.74622241833 0.080508896274 0.29244383533 -0.73497208965 0.10043049929 
0.20521904937 -0.68412458221 0.12801826191 0.11314332858 -0.63221622267 0.1568270272 0.028382585262 -0.58811934589 0.18424298999 
-0.03693841006 -0.56702588157 0.19945950961 -0.088115910395 -0.57110244756 0.1879551604 -0.14137132061 -0.56847232296 0.14851080318 
-0.1692204932 -0.5668070892 0.092426070549 -0.16021505603 -0.56815953307 0.042932716674 -0.10864627279 -0.57206974099 0.0074682588951 
-0.069950544121 -0.57340926081 -0.019194382223 -0.11522145649 -0.55266700093 0.020667286978 -0.067147230521 -0.58763437489 0.0052410111651 
-0.23015239816 -0.58312555787 0.081620079853 -0.2218161176 -0.5350589475 0.079946560622 -0.2485271077 -0.61521334423 0.099346127729 
0.18194213248 -0.74171625908 0.23477509133 0.19476492105 -0.70048263681 0.24635938239 0.24333384159 -0.66766273309 0.20734511786 
0.29982920105 -0.6404747484 0.13846413141 0.37418817069 -0.6487894494 0.074307759579 0.43415436083 -0.66173261215 0.025297683251 
0.46777518601 -0.67493540179 0.011241627687 0.53797451101 -0.67293979851 -0.031113557348 0.50501933867 -0.63868601021 -0.040644871854 
0.42754418484 -0.60529319404 0.0054773423195 0.33658572883 -0.59262097242 0.073096185822 0.25124183595 -0.60936388286 0.15258341293 
0.19319857088 -0.66658200746 0.21635744395 0.17004899998 -0.71720407668 0.22616324846 0.1930160075 -0.74079997802 0.20624065781 
-0.30865903957 -0.5904692613 -0.11773562032 -0.29260666938 -0.54106821891 -0.19290134145 -0.26774075363 -0.50743916509 -0.270555828 
-0.2233780987 -0.51175469471 0.087143043973 -0.22491664107 -0.4939442681 0.095793931433 -0.20798531772 -0.51493053096 0.064572203612 
-0.2224210879 -0.50471081473 0.035989971422 -0.20522256156 -0.49251815468 0.041125250674 -0.23175522088 -0.51583757221 0.024987051411 
-0.2302286835 -0.52790278787 0.035471506168 -0.19155099688 -0.54339487603 0.024466106453 -0.31047532218 -0.51866441721 -0.088447904198 
-0.19697689376 -0.37440311026 -0.34691599682 -0.21874565943 -0.39599721024 -0.30717386493 -0.25499190942 -0.42834212076 -0.23601245703 
0.44501493025 -0.53044290567 -0.13301030909 -0.28058432267 -0.46373063702 -0.1652415855 -0.15041893051 -0.53168804158 0.010761722648 
-0.13409713097 -0.53104199369 0.018289710884 -0.16431571483 -0.54088973753 0.00082741680396 -0.06799928399 -0.438224258 0.28927577648 
-0.0091339144282 -0.5079878885 0.30161944335 0.32251126328 -0.49786450515 -0.074151900764 -0.13816772978 -0.28236087626 -0.43868843011 
-0.18708333659 -0.33590162134 -0.38950228486 -0.059290744489 -0.58343786059 -0.0036899565414 -0.062643627743 -0.57984529183 -0.011139470485 
-0.18823797168 -0.50498811413 0.045985775209 
I1_Pt 1 1114 double
1.7933472184 1.8285676121 1.8306746384 1.8052357162 1.846249241 1.8603783099 1.8593691777 1.87488261 1.8540554937 
1.84871144 1.8210154678 1.7951585843 1.7747637965 1.7483379253 1.7519848384 1.7167354265 1.7739460432 1.7456624256 
1.8193603189 1.8085377017 1.8655078299 1.8663329645 1.9153382431 1.9226564272 1.9598467888 1.9314860388 1.916142676 
1.9068464644 1.9098312783 1.9134383773 1.8994260498 1.8830271934 1.9178567281 1.8862951256 1.9531413848 1.9055712873 
1.957238419 1.9099098486 1.9587405354 1.9195055999 1.9734615583 1.9261661462 1.9606802286 1.9117432512 1.9479086003 
1.9025939219 1.9348025918 1.8994914388 1.9185839722 1.8960533432 1.8939348339 1.8755621756 1.850691422 1.8372898309 
1.8293364962 1.7955275511 1.8058289328 1.7853950727 1.7895858994 1.7944279826 1.8148783687 1.8242751477 1.8559782764 
1.8496471779 1.8484784587 1.8681134502 1.8500286367 1.872151901 1.88062818 1.8916342732 1.9252610466 1.8882996498 
1.9038427054 1.888582235 1.9256766354 1.8821557009 1.904504475 1.8477050611 1.8552443898 1.8143394041 1.81895941 
1.8042173069 1.8037884917 1.8012198616 2.0099293998 1.9567580204 2.066820906 2.0599223315 1.9246865632 2.0795828086 
1.9539582703 2.1094716878 1.9960236705 2.1362404622 2.0493481277 2.1684716976 2.0775693575 2.1730468931 2.1104675002 
2.1754018494 2.1530355375 2.1791378098 2.1781793107 2.1754037104 2.1837337006 2.1566160399 2.163158502 2.1222278935 
2.1178770127 2.0797531869 2.0974627856 2.0390188483 2.0987755389 2.0218297444 2.051878489 2.0058989375 2.0207748093 
1.9955358584 2.0011338474 1.996475568 1.9941717694 2.0351926768 2.0593515 2.0737582028 2.1456143673 2.1049054303 
2.1528458285 2.1385979442 2.1576944768 2.1634329117 2.161069806 2.1755342884 2.1633497996 2.1695110536 2.1649146817 
2.1568069473 2.164491413 2.1430649708 2.122742367 2.1280724478 2.0892979573 2.1111112195 2.0678693893 2.1195050831 
2.0975167883 2.1270830592 2.1414617724 2.1358576382 2.1787596695 2.1573590081 2.1881284895 2.1853813786 2.1689803998 
2.2242396706 2.2003013862 2.22921776 2.237782444 2.2329785475 2.2630724649 2.2429768785 2.2610896137 2.2598246377 
2.2373198312 2.2780526834 2.2408037652 2.2739291633 2.2311977308 2.2557350796 2.2009745109 2.2232939173 2.1796743934 
2.194824225 2.1612698238 2.1682415469 2.1322610947 2.1612920979 2.113838932 2.1639734131 2.1185339955 2.1656054161 
2.1513648106 2.1671058567 2.2074098051 2.1707449991 2.2106112186 2.1666838466 2.1982100168 2.1490299964 2.1350592954 
2.1401379409 2.0870904414 2.1355198045 2.081832394 2.142497775 2.0827685775 2.1409538329 2.0900060037 2.1254218135 
2.0575176048 2.0935350751 1.890009451 1.8617184922 1.8971754994 1.8806740429 1.8147949919 1.7416527675 1.7155446924 
1.741999525 1.7960304702 1.8565879129 1.9016084267 1.9130789156 1.9195847908 1.9074686511 1.889108182 1.8821979382 
1.8821761338 1.8869819454 1.9055744727 1.8990691696 1.9039654284 1.9126727688 1.9205786137 1.9162802806 1.8631918404 
1.8253538698 1.7912278436 1.7837252451 1.790782121 1.8096663037 1.8408489089 1.8691185625 1.8810877225 1.8764175211 
1.8830913706 1.8859946231 1.8806807424 1.8598972139 1.8508683706 1.8598388403 1.8729495828 1.8633732782 2.0954880411 
2.0889445994 2.1117570414 2.143696061 2.180539192 2.2032208634 2.1999353953 2.1900636574 2.1869549369 2.1454823969 
2.0975953965 2.0531455237 2.008853152 1.9770348814 1.9572037855 1.9435204196 1.9604480108 1.9996895993 2.0549360151 
2.1065956855 2.1420592979 2.1613769713 2.1669786952 2.158746224 2.1583568837 2.1625618367 2.1422837057 2.1279101755 
2.1195465575 2.1148848259 2.1045144967 2.1137423242 2.117719805 2.1468592755 2.16055242 2.1664034896 2.1748575157 
2.1994335428 2.2271535504 2.2334991323 2.2145262013 2.1945221494 2.1826387794 2.1749397507 2.1812139395 2.1905067002 
2.2006669931 2.2070365264 2.2129998066 2.2168306909 2.2083935843 2.1928084679 2.184417131 2.1815630046 2.173942188 
2.1634294576 2.1322919569 2.1057231193 2.1604278861 2.1499429186 1.8451582321 1.9045683013 1.7874217673 1.7486812236 
1.7452732456 1.7868271514 1.8453172525 1.8943264927 1.9133793788 1.9360211201 1.9193642107 1.9042007811 1.8992182149 
1.8992578266 1.9074174894 1.915362711 1.9122442796 1.9147573307 1.9188349541 1.9235939892 1.9342228621 1.8578009761 
1.8952526618 1.8275805438 1.8199308129 1.8271930278 1.8422977564 1.8634677716 1.8770540651 1.8874920347 1.8865366813 
1.8879978492 1.8932255761 1.9024315351 1.941636673 1.974001835 2.0030951041 2.0103684497 1.9841779275 1.9585018044 
1.942866853 1.9318204021 1.9489325496 2.1510304275 2.130517662 2.1433850847 2.136534133 2.1264610667 2.115288722 
2.1037036692 2.0982299489 2.101103135 2.0751857239 2.0787979536 2.0878379555 2.1045715503 2.1238152471 2.142949386 
2.1384746041 2.1347213863 2.133549026 2.1481965861 2.1633726965 2.1730296425 2.185874904 2.2045805523 2.2367706394 
2.2662764892 2.2595525648 2.2486767744 2.233670589 2.2231935105 2.2128744494 2.1903394539 2.1621882795 2.1265861157 
2.0984430248 2.0909887157 2.1026404935 2.123982901 2.1418237286 2.1731687722 2.1841533399 2.1756096003 2.1643847361 
2.1291475676 2.0963884336 2.0662584287 2.0358783861 2.0102387831 1.9871405611 1.9628843993 1.9480925894 1.952606828 
2.0004194861 2.0532440371 2.1039153133 2.1434459848 2.1682510603 2.1728448992 2.1710715624 2.1271468017 2.0881611899 
2.1202620952 2.0523739843 2.0879986146 2.11114558 1.9615682288 1.9783985643 1.933437473 1.9025952387 1.8767737799 
1.8694727213 1.8755120442 1.8928063644 1.8957293488 1.902460075 1.9033553903 1.9064480842 1.898821672 1.9020481211 
1.9131624199 1.9299808881 2.0558916313 2.0355644437 2.0582903263 2.0493172578 2.0251930668 2.0038405511 1.8562055045 
1.908987723 1.8132032478 1.7876831329 1.7841962826 1.8144736141 1.8532305617 1.8899313976 1.937942764 1.9577004491 
1.9687718813 1.945591464 1.9190160395 1.9094316196 1.917524872 1.9190886561 1.9159326848 1.9090254929 1.8972828608 
1.8908282516 1.9097541436 1.9225914757 1.9251132313 1.9617596977 1.9514758093 1.9756105908 1.9396606708 1.9675456577 
1.9881550575 1.996896949 1.9896442843 1.9543128257 2.1146241396 2.1059407793 2.0995994665 2.0948848208 2.0950093132 
2.1026215907 2.1134614066 2.1229889306 2.1184242794 2.1065094642 2.0781768003 2.0704910361 2.0628456209 2.0619030943 
2.0666277475 2.0653020022 2.060000461 2.0579290173 2.0844939938 2.1120726363 2.1400118967 2.1728784738 2.2076171698 
2.2304641278 2.259261033 2.2841173989 2.2825487811 2.2670781455 2.2403566509 2.2135791785 2.185387592 2.1506526226 
2.1099251797 2.0482299318 2.0553118724 2.0582227322 2.0763466893 2.1030182561 2.1232716523 2.1419285323 2.1527969639 
2.1418634376 2.1031694176 2.0685549714 2.038453935 2.0149746576 2.0022309779 1.987529773 1.9790635043 1.9630754514 
1.95560174 2.0216374844 1.9811256655 2.0555034056 2.081416251 2.1125846672 2.1396383026 2.1525964735 2.1227530412 
2.0779149674 2.0271030475 1.9876022495 2.0113845728 1.9483490436 2.0521623246 2.0727686608 2.0739025849 2.0762551447 
2.0903260736 2.1008768879 1.9522971122 2.004987206 1.9079328727 1.9056120053 1.9347199167 1.8673287403 1.9746280121 
2.0035011969 2.0188800151 2.0215039578 2.0384290141 2.0586626371 2.0968659838 1.9499205328 1.9532146108 1.9518520245 
1.9275231237 1.9097113788 1.8985681057 1.916301337 1.9372722311 1.9398624535 1.9327796823 1.9256599181 1.9126547439 
1.9178732319 1.9127155954 1.9173425891 1.9326902314 1.9414012934 1.9678254258 1.9419871947 1.9908949349 2.0190337528 
2.035058991 2.0422504403 2.040431756 2.0457415968 2.0443297612 1.9847806638 2.0491984005 1.9825793243 2.032189718 
2.018944198 2.0065454645 1.9909697535 1.9642816081 1.9227261797 1.8866934202 1.8555986507 1.8266288103 1.8266463859 
1.8561505402 1.907282877 1.956507169 2.0131787351 2.0375566907 1.9421166064 1.980170418 1.9137455102 1.903908219 
1.8953133205 1.8954482798 1.8914015297 1.8819166502 1.8753966845 1.8767567817 1.9021590684 1.9006602144 1.8936799858 
1.9556835118 1.916960129 1.9753054178 1.9728422978 2.0130842916 2.0633631176 2.1071566034 2.1147966831 2.1163710764 
2.1046393903 2.1109481915 2.1025038876 2.0844277569 2.0599695446 2.0456942943 2.039965628 2.0411460279 2.0367991469 
2.0168649471 2.0044953722 2.0137831128 2.0445332146 2.1099018903 2.1490553559 2.17544879 2.198536294 2.2341892952 
2.2499859932 2.2544935493 2.2525138087 2.2407373285 2.2183687165 2.1812011287 2.1288917305 2.0631005556 1.9992709977 
2.0393803947 2.0214750912 2.0629208348 2.0866277234 2.1228559164 2.1483751793 2.1451679549 2.1200565954 2.0789391049 
2.0281476612 1.9925448601 1.9849103654 1.9858320893 1.9950454473 1.9906644777 1.9851680922 1.9723248446 1.9783189898 
1.9627128499 1.9764894968 1.9510959077 1.9580333291 1.9781184608 1.993445011 2.0115727727 2.034617138 2.0752440243 
1.9884079904 1.9520077413 2.0789187575 2.0847114584 2.0961138203 2.064612863 2.108371743 2.1072222747 2.0945943482 
2.0812126425 2.0601445962 2.0345721637 2.0082335958 2.0032063958 1.9966043662 1.9810999138 1.9693491551 1.973631391 
2.0182512416 2.1047210319 2.1319701097 2.1479959109 2.1625905961 2.1730825481 2.182713114 2.1970209205 2.2041664782 
2.2050384728 2.1879394177 2.1574066396 2.1077067207 2.060454431 1.9770001534 1.9291594399 1.9248076846 1.8837640686 
1.9599497493 1.9840635639 2.0094349039 2.035396472 2.0608421497 2.0768240966 2.0932112934 2.0951685239 2.0902399704 
2.0723175629 2.0088138802 1.9855170027 1.9607810266 1.9587322956 1.9638673876 1.976564533 1.9843563286 1.9769469596 
1.9647395487 1.9664691769 1.9550794188 1.9487494095 1.9468007366 1.9448160954 1.9493130876 1.9520114099 1.9432539745 
1.9605129874 1.9361006454 1.9192283081 1.9302527325 1.9412440036 1.9492964408 1.9426782696 1.9296246541 1.9179512397 
1.9065257966 1.8916761029 1.8819118853 1.8936662477 1.909872035 1.9255309087 1.9111835168 1.9225767057 1.8891990301 
1.9699582728 1.9801948559 1.998146417 2.015752032 2.0282619525 2.0458362601 2.0604134661 2.0663370482 2.0391325914 
2.0223908518 2.016926218 2.0140729613 2.0209113045 2.0112058701 1.9990075127 1.9697233074 1.9449404402 1.925266362 
1.9218679451 1.9524919194 2.0122962863 2.0446905591 2.0621479411 2.0785127092 2.0682533328 2.0594475737 2.0518034362 
2.058121558 2.0215471225 1.9915800179 1.9493174095 1.9076340506 1.8975748109 1.8937874 1.8890201365 1.8751312776 
1.8696647192 1.8659366411 1.8570302002 1.8620536659 1.8762350938 1.8875706906 1.9358637614 1.9055693924 1.9473292283 
1.9644511182 1.9651519086 2.0827728222 2.0254242205 1.9951840993 1.972289429 1.9767826416 1.9840055297 1.982695784 
1.981200995 2.0019069739 2.0171016815 2.0870742705 2.0688853487 2.0975469869 2.0848462736 2.0970468052 2.1119056819 
2.1293477324 2.1406534237 2.1353183762 2.1225529182 2.0927522242 2.049402813 1.9902927844 1.9412812839 1.9180243006 
1.8740127914 1.8755635756 1.8761019636 1.8901981275 1.9299166766 1.960772971 1.9790211713 1.9942266719 2.0132858031 
2.0206828187 2.0273431764 2.0195220666 2.01616701 1.9991255079 1.9688604795 1.916099999 1.9329281919 1.9290667754 
1.9512323772 1.9685928387 2.0475889041 2.0301418781 1.9474682476 1.9551521713 1.93405864 1.960744289 1.949653453 
1.9425565052 1.9414156362 1.9191190987 1.916610984 1.9161767303 1.920542789 1.9250540261 1.9302872882 1.9272490572 
1.9151539162 1.8817699987 1.8691837192 1.8728312095 1.8736891285 1.8841479419 1.8962045915 1.8992944009 1.9295022536 
1.9128974592 1.9444934918 1.9721286213 1.9788699113 1.9845412651 1.9953324332 2.0133834434 2.0235898885 2.0105294726 
2.002616232 2.0024576881 2.0176846529 2.0311034464 2.0425544581 2.0473461983 2.0441032147 2.0363514424 2.02284595 
2.0048141208 2.0150752537 2.024383339 2.0409152948 2.0767074136 2.0778428308 2.0663387678 2.0441297679 2.0241212816 
2.0265535229 2.0209600715 2.0386069444 2.0242992957 2.000770785 1.9712454647 1.9463236567 1.9402205011 1.9200159643 
1.899768569 1.8588646713 1.8592652049 1.8623993679 1.8423723239 1.8372590903 1.8400577067 1.8525299458 1.8724753518 
1.9001578208 1.9276001629 1.9287316797 1.9484532053 1.8932931265 1.8718063567 1.8387516766 1.8534326667 1.8884183545 
1.9155579909 1.9410820722 1.9723458172 1.983841293 1.9921093162 2.0217591763 2.0514203249 2.0367263862 2.0385889044 
2.0574495913 2.0249357559 2.0891999093 2.0739525369 1.9306251715 1.9453751108 1.9013672709 1.8920516355 1.8946043052 
1.8935350799 1.8935659602 1.8919405836 1.8839501382 1.8754080204 1.8897921756 1.8867838402 1.8911365823 1.9343667263 
1.9655281332 1.9594424543 1.9052142612 1.8986792279 1.9175598489 1.9441149366 1.9608256474 1.9557276755 1.973546824 
1.9878490456 1.9963860552 1.9907662081 1.9829948343 1.9887948604 1.9863048113 1.9982164344 2.0170310406 2.0490891429 
2.0695414615 2.0773378434 2.0789734449 2.0685439597 2.0576268731 2.0536916132 2.0674365072 2.0597284609 2.0541044801 
2.031708514 2.0153614158 2.0048925769 2.0253588506 2.0012151469 2.0027627639 1.9384739455 1.9149120745 1.9202307011 
1.9030037995 1.8843834445 1.8586052707 1.8389842172 1.8337913295 1.8309607497 2.063201288 2.0254928213 1.9839784529 
1.9791686439 1.992885872 2.0035214994 2.0147717719 2.0205546505 2.0435303428 2.0573427214 2.0672182842 2.0771629696 
2.0778071944 2.0603629914 2.0421021874 2.0344427222 2.0299101173 2.0475480476 2.0660817119 2.0789794689 2.0802188572 
2.0704269338 2.0450488753 1.9943961561 1.9406195687 1.8989749615 1.876724478 1.8997377974 1.8800489707 1.8987289164 
1.892332194 1.9031344545 1.9297525493 1.9299841198 2.0025693014 2.0076791064 2.0109319317 2.0089171996 2.0088584797 
1.9887893366 1.9599110965 1.9632001788 1.9556949491 1.9144209888 1.8922233902 1.960283067 1.9472546629 1.9310185912 
1.9252104588 1.9263006799 1.8892653638 1.8847421086 1.8797642652 1.9084798021 1.8984364856 1.8916128981 1.8977047683 
1.9173056102 1.8852176009 1.9071935325 1.8901240847 1.9472001044 1.9559031972 1.9612956203 1.9790320165 1.9888627838 
2.0189357597 2.0826847896 2.0639699791 2.0453340807 2.0234129714 1.9996287548 1.9886827906 1.9982960964 2.0189999637 
2.0281965124 2.031194167 1.9989617747 1.9765214668 1.8983705506 1.8800833613 1.8923349025 1.8955482449 1.9048359638 
1.9887495919 1.9805852278 1.9965316855 2.0280365607 2.0494400901 2.0582290022 2.0613445406 2.068628917 2.0715419458 
2.0683120355 2.0536887426 2.0229250508 1.9893899802 1.9914560131 1.9962153246 1.8772804017 1.8717316009 1.8725488311 
1.9202212461 1.937995652 1.9220803976 1.9544689706 1.9437598482 1.9771287223 1.9891059598 2.0019728927 1.8730113537 
1.883062887 1.8755460268 1.8749755307 1.979107769 1.8727294871 1.9593127991 1.9296498708 1.9827056872 1.9488579195 
1.9450064025 2.1051484918 1.9598645422 1.9480740574 1.9049559967 1.9389008376 1.9282136805 
IAS 1 1114 double
0 0 0 0 0 0 0 0 0 
0 0 0 0 0 0 0 0 0 
0 0 0 0 0 0 0 0 0 
0 0 0 0 0 0 0 0 0 
0 0 0 0 0 0 0 0 0 
0 0 0 0 0 0 0 0 0 
0 0 0 0 0 0 0 0 0 
0 0 0 0 0 0 0 0 0 
0 0 0 0 0 0 0 0 0.32755940185 
0.37673244617 0.83372257104 0.80254588229 0 0 0 0 0 0 
0 0 0 0 0 0 0 0 0 
0 0 0 0 0 0 0 0 0 
0 0 0 0 0 0 0 0 0 
0 0 0 0 0 0 0 0 0 
0 0 0 0 0 0 0 0 0 
0 0 0 0 0 0 0 0 0 
0 0 0 0 0 0 0 0 0 
0 0 0 0 0 0 0 0 0 
0 0 0 0 0 0 0 0 0 
0 0 0 0 0 0 0 0 0 
0 0 0 0 0 0 0 0 0 
0 0 0 0 0 0.27988748432 0.31868372145 0.84449779884 0.88133860667 
0.57984967559 0.54000354987 0 0 0 0 0 0 0 
0 0 0 0 0 0 0 0 0 
0 0 0 0 0 0 0 0 0 
0 0 0 0 0 0 0 0 0 
0 0 0 0 0 0.47670195137 0.76166709793 0.0053127446635 0 
0 0 0 0 0 0 0 0 0 
0 0 0 0 0 0 0 0 0 
0 0 0 0 0 0 0 0 0 
0 0 0 0 0 0 0 0 0 
0 0 0 0 0 0 0 0 0 
0 0 0 0 0 0 0 0 0.35770613159 
0.92198963493 0.49517221571 0 0 0 0 0 0 0 
0 0 0 0 0 0 0 0 0 
0 0 0 0 0 0 0 0 0 
0 0 0 0 0 0 0 0 0 
0 0 0 0 0 0.46308131328 0.77865949758 0.056545912367 0 
0 0 0 0 0 0 0 0 0 
0 0 0 0 0 0 0 0 0 
0 0 0 0 0 0 0 0 0 
0 0 0 0 0 0 0.37340774694 0.94414606877 0.45585463877 
0 0 0 0 0 0 0 0 0 
0 0 0 0 0 0 0 0 0 
0 0 0 0 0 0 0 0 0 
0 0 0 0 0 0 0 0 0 
0 0 0 0 0 0 0 0 0 
0 0 0.52159097096 0 0.79072761137 0.10880313871 0 0 0 
0 0 0 0 0 0 0 0 0 
0 0 0 0 0 0 0 0 0 
0 0 0 0 0 0 0 0 0 
0 0 0 0 0 0 0 0 0 
0 0 0 0 0 0 0 0 0 
0 0 0 0 0 0 0 0 0 
0 0 0 0 0 0 0 0 0.35681208106 
0.94275017229 0.35347943363 0 0 0 0 0 0 0 
0 0 0 0 0 0 0 0 0 
0 0 0 0 0 0 0 0 0 
0 0 0 0 0 0 0 0 0 
0 0 0 0 0 0 0 0 0 
0 0 0 0 0 0 0 0 0 
0 0 0 0 0 0 0 0 0 
0 0 0 0 0 0 0 0 0 
0.50427113156 0.80836684708 0.16699383459 0 0 0 0 0 0 
0 0 0 0 0 0 0 0 0 
0 0 0 0 0 0 0 0 0 
0 0 0 0 0 0 0 0 0 
0 0 0 0 0 0 0 0 0 
0 0 0 0 0 0 0 0 0 
0 0 0 0 0 0 0 0 0 
0 0 0 0 0 0 0.31899731159 0.85125048055 0.61407210548 
0 0 0 0 0 0 0 0 0 
0 0 0 0 0 0 0 0 0 
0 0 0 0 0 0 0 0 0 
0 0.18182188362 0 0 0 0 0 0 0 
0 0 0 0 0 0 0 0 0 
0 0 0 0 0 0 0 0 0 
0 0 0 0.24578503044 0.74535516339 0.77172429306 0.40928692653 0 0.1274938114 
0 0 0 0 0 0 0 0 0 
0 0 0 0 0 0 0 0 0 
0 0 0 0 0 0 0 0 0 
0 0 0 0 0 0 0 0 0 
0 0 0 0 0 0 0 0 0 
0 0 0 0.54314227475 0.80491676657 0.2043686296 0 0 0 
0 0 0 0 0 0 0 0 0 
0 0 0 0 0 0 0 0 0 
0 0 0 0 0 0 0 0 0 
0 0 0 0 0 0 0 0 0 
0 0 0 0 0 0 0 0 0 
0 0 0 0 0 0 0 0 0 
0 0 0 0 0 0.17934219681 0.63755607253 0.93007572918 0.61911771528 
0.37836423659 0 0.15863644705 0 0 0 0 0 0 
0 0 0 0 0 0 0 0 0 
0 0 0 0 0 0 0 0 0 
0 0 0 0 0 0 0 0 0 
0 0 0 0 0 0 0 0 0 
0 0 0 0.040623260938 0.57410078941 0.84062175567 0.27588549808 0 0 
0 0 0 0 0 0 0 0 0 
0 0 0 0 0 0 0 0 0 
0 0 0 0 0 0 0 0 0 
0 0 0 0 0 0 0 0 0 
0 0 0 0 0 0 0 0 0 
0 0 0 0 0 0 0 0 0 
0 0 0 0 0 0 0 0 0 
0 0 0 0 0 0 0 0 0 
0 0 0 0 0 0 0.075885976699 0.54400133436 0.86389587769 
0.36694692418 0 0 0 0 0 0 0 0 
0 0 0 0 0 0 0 0 0 
0 0 0 0 0 0 0 0 0 
0 0 0 0 0 0 0 0 0 
0 0 0 0 0 0 0 0 0 
0 0 0 0 0 0 0 0 0 
0 0.1116023419 0.52770435655 0.90234288873 0.80581507398 0.61193820759 0.42707922595 0 0 
0 0 0 0 0 0 0 0 0 
0 0 0 0 0 0 0 0 0 
0 0 0 0 0 0 0 0 0 
0 0 0 0 0 0 0 0 0 
0 0 0 0 0 0 0 0 0 
0 0 0 0.06268747158 0.85810204688 0.94418749261 0 0 0 
0 0 0 0 0 0 0 0 0 
0 0 0 0 0 0 0 0 0 
0 0.031921481784 0.24411326154 0.40688405791 0.8270297802 0.027235326445 0 0 0 
0 0 0 0 0 0.42536339553 0.79532999486 0.054456021045 0 
0 0 0 0 0.79731551626 0.45295929481 0.74429733009 
J_Pt 1 1114 double
0.89436460609 0.91174121348 0.91212794541 0.90015491397 0.91829934505 0.92597338931 0.92329849202 0.93169974005 0.92108213349 
0.9187499913 0.9064026438 0.89300734039 0.88441307238 0.87127528405 0.87405210839 0.856495912 0.88562323916 0.87128325752 
0.90786113504 0.90222582247 0.92893956648 0.93007735716 0.95135373364 0.95689282862 0.97414396687 0.96156304821 0.95260819484 
0.94876395463 0.94970627509 0.95246597052 0.9458058334 0.93875958378 0.95560212579 0.94065959312 0.97383904113 0.95016347729 
0.97666102163 0.95210144263 0.97750338364 0.95652052753 0.98458056271 0.95969717828 0.97783319956 0.9523184684 0.97068633901 
0.94683437321 0.96331861766 0.94434482211 0.95454000859 0.94199212165 0.941852304 0.93174097474 0.9201104041 0.91313024982 
0.91039862564 0.89326187991 0.8993414835 0.88931564869 0.89145275892 0.89399461883 0.90454588754 0.90918781351 0.92460865042 
0.92172490857 0.91983316974 0.93079168665 0.92013403761 0.93262133613 0.93576232672 0.94261586494 0.95854554605 0.94149187115 
0.94900755841 0.94146172618 0.95950713837 0.93816738735 0.94866893839 0.92117955704 0.92441813407 0.90376850055 0.90664238629 
0.89827342037 0.89905961811 0.89755530662 1.0037318299 0.97778213903 1.0299177284 1.0267967781 0.96220156809 1.0362073703 
0.97676682525 1.0516981037 0.99775303215 1.06574913 1.0243899795 1.0826834697 1.0378522427 1.0844051365 1.0537598356 
1.0852368008 1.0747276016 1.0872798483 1.0869521942 1.0853734881 1.089336936 1.0759918416 1.0785944769 1.0591344162 
1.0559598786 1.0381953783 1.0456489068 1.0180932423 1.0461767231 1.0098826639 1.0240862934 1.0022070189 1.0089306314 
0.99692958295 0.99885026186 0.99683973743 0.99455208373 1.0150594896 1.0255609625 1.0333497034 1.0673939598 1.0482743937 
1.0733843232 1.0658205597 1.0770542887 1.0791357679 1.0793857915 1.0861751644 1.0812361314 1.083733104 1.0820869512 
1.077803412 1.081526582 1.0706267726 1.0594406539 1.0623337566 1.0412726711 1.052831584 1.028773499 1.0550366158 
1.0425369916 1.0573169884 1.0637562847 1.0604427797 1.0822037402 1.0717148654 1.0873156088 1.0859412056 1.0788112117 
1.1038237809 1.0930596067 1.1064342188 1.1102636769 1.108570301 1.1228620559 1.1141344529 1.1228269981 1.1225979955 
1.1126903848 1.131320756 1.1123588361 1.1278485017 1.10603347 1.1171280333 1.0902676191 1.0991962227 1.0789241516 
1.0841304325 1.0691909086 1.0707355885 1.0574256681 1.0700292505 1.0507906863 1.0736315158 1.0553583312 1.0771904686 
1.0725845019 1.0802304554 1.1002549391 1.0834324035 1.1016256406 1.0818839241 1.0952862485 1.0733844584 1.0649917162 
1.0688158127 1.0419164921 1.0663410008 1.0391511855 1.069571211 1.0395037342 1.0684874512 1.0430280024 1.0602728849 
1.0270805261 1.0440015686 0.9423759768 0.92874174564 0.94382389617 0.93471716712 0.90356308056 0.86865707592 0.85645212455 
0.86972975288 0.89647167726 0.9262194453 0.94847696902 0.9539354504 0.95685450835 0.95122990822 0.9426885866 0.93956258322 
0.93921289607 0.94085848852 0.94985824078 0.94626758334 0.94854895618 0.95273523727 0.95621490949 0.95324991153 0.92575518046 
0.90778705198 0.89159206715 0.88864917003 0.89234343586 0.90165056415 0.91775405684 0.9319946871 0.93796576328 0.93563443586 
0.93953243608 0.94103163747 0.93870953327 0.92909089752 0.92361900843 0.92748966895 0.93423042802 0.93004130707 1.041693756 
1.0381823418 1.0506719608 1.0679862426 1.0875755092 1.0994563444 1.0976864336 1.0922673742 1.0907540642 1.0700880333 
1.0464188466 1.0249134534 1.0034895041 0.98803556061 0.97835378826 0.97138651714 0.9792479909 0.99762284468 1.0235321232 
1.0486764454 1.06678368 1.077329544 1.0812893258 1.0777364275 1.0782806939 1.0803987261 1.0696563099 1.061693944 
1.0565104478 1.0532426796 1.0476641732 1.052733709 1.0559719116 1.0694640992 1.0755852956 1.0783094064 1.0826348428 
1.0949205457 1.108228872 1.1099728115 1.0989373191 1.0873584869 1.0801794231 1.0754033526 1.0794959836 1.0863234366 
1.0935903248 1.0994729015 1.1040858273 1.1063750457 1.1022065618 1.0944333744 1.0903372614 1.0890194247 1.0846449329 
1.0784647142 1.0613934898 1.0467361759 1.0790330926 1.0725289475 0.91815562199 0.94632647861 0.89128215649 0.87350448802 
0.8718051695 0.89228648881 0.92122158287 0.94583184927 0.95544750816 0.96672116074 0.95866931772 0.95113163941 0.94875436829 
0.949068985 0.95275256618 0.95628677108 0.95426627203 0.95518070196 0.95687501753 0.95855887324 0.96348818988 0.92551923135 
0.94358406673 0.91153497123 0.90811665211 0.91176023775 0.9191773762 0.92981038441 0.93674922156 0.94210843394 0.94169972703 
0.94263613079 0.94572815235 0.95059112227 0.97033298707 0.98623661723 1.000244592 1.0039736761 0.99104060334 0.9781395624 
0.96989108843 0.96209764617 0.97123105499 1.0741974859 1.0628466045 1.0702863502 1.0663631118 1.0610422348 1.055166484 
1.0492175978 1.0468371022 1.0490773088 1.0357184927 1.0379831831 1.0417887761 1.0499885435 1.0595320973 1.0687876857 
1.0660682442 1.0624787346 1.0595993043 1.0648078288 1.0712023234 1.0773229017 1.0851525225 1.0957754337 1.113238236 
1.1291421845 1.1264879035 1.1215560537 1.1141252679 1.1088555426 1.1035398208 1.0915326355 1.0761707549 1.0562896565 
1.0406421661 1.03649647 1.0432329 1.055920633 1.0669221815 1.0843304867 1.0903279553 1.0860255963 1.0801025887 
1.0625853674 1.0463335666 1.0314216065 1.0164819225 1.0040064195 0.99304852056 0.98110780617 0.97301375671 0.9744436342 
0.99642236195 1.0212247827 1.045718911 1.0667396576 1.080451714 1.0832503849 1.0826888391 1.0604649619 1.0410006117 
1.0585275243 1.0236389197 1.0428932953 1.0546883933 0.97837942507 0.98751571159 0.96506084999 0.95028710715 0.93777889047 
0.93425106588 0.93727498727 0.94581973072 0.94692614626 0.9503427933 0.95078320674 0.9526098147 0.94887169331 0.9504535476 
0.95595583145 0.96435267183 1.0263457015 1.0163470761 1.0274933808 1.0227656018 1.0108385565 1.0000732267 0.9238179497 
0.94816522218 0.904529908 0.89305420052 0.89137095595 0.90622960519 0.92539214476 0.94373380879 0.96835735735 0.97838897272 
0.98418331283 0.97248460198 0.95921804604 0.9544969093 0.95855647132 0.95886649573 0.9567485458 0.95280168525 0.94656505008 
0.94276176797 0.95164537117 0.95850446849 0.96022798255 0.97922419751 0.97430028431 0.98685866321 0.96357096424 0.97699907814 
0.98866989229 0.9927301755 0.99395074882 0.97652125889 1.0561336344 1.0516783354 1.0483934414 1.0460280105 1.0461880499 
1.0501762967 1.0559604063 1.0608415567 1.0588021603 1.0523600875 1.0379190261 1.0336059345 1.029809845 1.029507475 
1.0321339132 1.0316365538 1.0281782486 1.0259416649 1.0370320961 1.0494221763 1.0624721945 1.0799462564 1.0981515501 
1.1101201461 1.125073151 1.1379996593 1.1374891237 1.1301474736 1.11734432 1.104148202 1.0896733955 1.0709750822 
1.0484955251 1.0175463127 1.0191691926 1.0220812779 1.0325335352 1.0473568391 1.058794169 1.0693378563 1.074925329 
1.0696557213 1.0505686021 1.0332417767 1.0180474598 1.0061702499 0.99983107015 0.992808171 0.98892336794 0.98109590542 
0.9772481448 1.0047209203 0.98639713551 1.0205726261 1.0341812389 1.0513799613 1.066517892 1.0732849609 1.0583744775 
1.0364133117 1.0110598252 0.9914610097 1.0040399422 0.97192770817 1.0250280253 1.0356999847 1.0361482257 1.0372261209 
1.0441654202 1.0494314177 0.97443445078 1.0002161475 0.95284037522 0.95048587243 0.9648712468 0.93169733381 0.98553707856 
1.0006226263 1.0087099348 1.0102508305 1.0186717548 1.0286707486 1.0477392123 0.97314356164 0.97555898688 0.97522428374 
0.9633305597 0.95457051278 0.9490468879 0.95799081794 0.96843644214 0.96959762369 0.96596601569 0.9623847637 0.95600993856 
0.95858323041 0.95595193656 0.95835643971 0.96586190202 0.97014680785 0.98340669402 0.9704498272 0.99476535621 1.008691213 
1.0164750933 1.0199362621 1.0188695847 1.0213059359 1.0204716277 0.98906040585 1.0224750241 0.98671867812 1.0126773657 
1.0043966406 0.99673251432 0.98864528308 0.97559965675 0.95712135182 0.94146625195 0.92721758557 0.91248810233 0.91198844959 
0.9260870433 0.95129733235 0.97624956965 1.0054439263 1.0180761299 0.97090458257 0.98994695127 0.95667647203 0.95156351945 
0.94708879104 0.94672033553 0.94424685317 0.9393924626 0.93590795519 0.93645771368 0.94936081999 0.94861178876 0.94494506775 
0.97647076203 0.9568064807 0.98650976324 0.98530839826 1.0063549413 1.0312569321 1.053199725 1.0568287424 1.0579385714 
1.0520537455 1.0550706671 1.0506331647 1.0414057853 1.0288921007 1.0216566982 1.0188733511 1.0196446015 1.0175368853 
1.0074841465 1.0008466406 1.0048938164 1.0195179871 1.0506258948 1.0704493333 1.0835604278 1.0949628705 1.1132788177 
1.1217513476 1.1240532188 1.1230315872 1.1172678819 1.1065249606 1.0883928533 1.06187578 1.0279278139 0.99509868878 
1.0137339403 1.0048047093 1.0262201212 1.0390091689 1.0581326122 1.071715327 1.0709260427 1.0589229638 1.0386099117 
1.013287069 0.99539470357 0.99137295783 0.9918709667 0.99662088601 0.99475815628 0.99224680813 0.98565588147 0.98870025322 
0.9802841418 0.98787414552 0.97202286588 0.97475384521 0.98337888753 0.99006760617 0.999610722 1.0126385098 1.0342561671 
0.98881452924 0.97210184873 1.0391207325 1.0419689979 1.0476644563 1.0314924995 1.0539935544 1.0533119145 1.046791115 
1.0399930354 1.0293170646 1.0164437969 1.0032045476 1.000791839 0.99754316721 0.98977815916 0.98398064521 0.98626296526 
1.0081022954 1.0498714682 1.0629920933 1.0710357253 1.0785509014 1.083952466 1.089135287 1.0963129948 1.0999485936 
1.1006489265 1.0924516304 1.0774673714 1.0525030187 1.0284665075 0.98603476051 0.96259964777 0.96042663086 0.94029375731 
0.9769286226 0.98820387736 1.0007635107 1.0141405458 1.0276230567 1.0364261319 1.0453916562 1.0466759539 1.0443958596 
1.0354678384 1.003837037 0.99194717862 0.97947945365 0.97853190107 0.98119629122 0.98774277744 0.99183860892 0.98796901479 
0.98183795695 0.9825852584 0.97623666011 0.9720925561 0.96871233714 0.96702044209 0.96850608524 0.96993837686 0.96816263222 
0.97944330067 0.96770613264 0.95946410486 0.96503091402 0.97044256367 0.97432635791 0.97076400191 0.96414981595 0.95841314427 
0.95244061577 0.94494062588 0.940215543 0.94632429945 0.95446863544 0.96227875575 0.95490257229 0.96062363664 0.94367768372 
0.98459627097 0.98972883666 0.99869300355 1.0074420192 1.0135696101 1.0221252603 1.0291803581 1.0319418246 1.0177385989 
1.0085520159 1.0049889808 1.0025085178 1.0053659017 1.0004380516 0.99507158349 0.98224519077 0.9712501486 0.96155605372 
0.95831391354 0.97196933741 1.0010452269 1.0183661684 1.0285828075 1.0377266294 1.033508848 1.0292245286 1.024952922 
1.0288063857 1.0106376215 0.99567026759 0.97442547461 0.95337978383 0.94793846998 0.94585313506 0.94346961699 0.93667818938 
0.93409163425 0.93209276212 0.92757990436 0.92943020431 0.93633881182 0.941818055 0.96634386838 0.95073539179 0.97214534498 
0.98075942751 0.98129033091 1.0409451634 1.0122558913 0.99718053002 0.98576582594 0.98769709114 0.99098543727 0.9904459801 
0.98982537161 1.0000386652 1.0074895324 1.0421996804 1.0333133726 1.0472812088 1.041208071 1.047352804 1.0548467273 
1.0637564637 1.0695046453 1.0668411891 1.0605037762 1.0457667638 1.0239686543 0.99388986141 0.96904797687 0.95761435857 
0.93546037918 0.93682804744 0.93728105519 0.94384285663 0.96351229079 0.97881744862 0.98805404675 0.99595865581 1.0056150252 
1.0096653798 1.0132471525 1.0094175057 1.0078106658 0.99915152613 0.98385765274 0.9573317147 0.9657235945 0.96394266912 
0.97504815045 0.98371966648 1.0228264352 1.0138991347 0.97321905748 0.97663903513 0.96635519207 0.97938613021 0.97357714738 
0.96777853118 0.96980804804 0.95906614064 0.95804948994 0.95804139529 0.96012652555 0.96221438798 0.9645051064 0.96262082696 
0.95604426481 0.93895418771 0.93281164412 0.93528142901 0.93599780626 0.94133533075 0.94730779054 0.94907264831 0.96446788752 
0.95580627252 0.97178868631 0.98585466023 0.98925987799 0.99210509753 0.99746781276 1.0064726772 1.0113476245 1.0045144454 
1.0002417792 0.99966847127 1.0065028733 1.01246889 1.01750738 1.0198138329 1.018967363 1.0159412979 1.0097542648 
0.99979451289 1.0030703442 1.0066022158 1.0141460359 1.0324162616 1.0351480093 1.0314776542 1.021242358 1.0107360029 
1.0116236059 1.0080855758 1.0182637228 1.0116738596 1.0000764824 0.98521435513 0.97261193469 0.96942825917 0.95919932569 
0.94892555738 0.92853756885 0.92893046907 0.93058098487 0.92043548494 0.91758148263 0.91896320595 0.92474922453 0.93336857265 
0.94719362464 0.96194585019 0.96206344565 0.97260101933 0.94528832968 0.93456469246 0.91829825724 0.92557879363 0.94256989108 
0.95544531332 0.96839406815 0.98491163241 0.99111556673 0.99557827513 1.0106004747 1.0254448425 1.0178002239 1.0175676614 
1.0271420257 1.0100945331 1.0438677211 1.0367020297 0.9642009702 0.97128099934 0.95021696667 0.94582785637 0.94697688843 
0.94626077041 0.94583731935 0.94447206571 0.939903396 0.93541686422 0.9433794141 0.94236589597 0.94465332065 0.96681659289 
0.98231517432 0.97948619639 0.9522779443 0.94896340778 0.95840046515 0.97176400171 0.98025275937 0.97750165302 0.98627636656 
0.99321237546 0.99729515954 0.99416613201 0.99056855447 0.99327073884 0.99216163424 0.99756621279 1.0061347618 1.0221665323 
1.0326165167 1.036514634 1.0372821091 1.0311431629 1.023651217 1.0228880058 1.0276349968 1.0245578385 1.0239272703 
1.0140216478 1.0069491472 1.0010820597 1.0105298874 0.9992911424 0.99966687836 0.96844221442 0.95644303151 0.95524079942 
0.94734435925 0.93903875559 0.92732532182 0.91837452318 0.91611763502 0.91473279153 1.0312991745 1.0124000333 0.99159538342 
0.98896319295 0.99548112109 1.0007421073 1.0062693668 1.0090029834 1.0200613428 1.0273920343 1.0325743075 1.0375545797 
1.0378796815 1.0293341796 1.0204145363 1.0168410956 1.0146538612 1.0234118116 1.0324271327 1.0386345928 1.0390459707 
1.0341975443 1.0214288322 0.99594845299 0.96887459385 0.94792550551 0.93704157014 0.94871877418 0.93953495578 0.94874757156 
0.94557174247 0.9507577904 0.96385522583 0.96423579351 1.0006703648 1.0023393148 1.0035724223 1.0029809427 1.0034552563 
0.99348067779 0.97939578495 0.98089132012 0.97654501565 0.95560255268 0.94468334919 0.97990126632 0.97320400137 0.96476079314 
0.96165665663 0.96215486332 0.94322324879 0.94138285392 0.9378806767 0.95340446367 0.94844312643 0.94520712455 0.94844158274 
0.95828911237 0.94217208773 0.9530798612 0.94466369402 0.97284380919 0.9766600651 0.97928051762 0.98883371522 0.99385827455 
1.0086092618 1.0400826037 1.0309626366 1.0216380047 1.0107838809 0.9991488387 0.99373301324 0.9984845067 1.0084759823 
1.0126009636 1.013630014 0.99723205552 0.98594730953 0.94750554881 0.9382757963 0.94581411094 0.94728899136 0.95197087919 
0.99388345833 0.98978014409 0.99718494068 1.0123422916 1.0225959361 1.0268884183 1.0285161503 1.0310643518 1.0318359902 
1.0300144383 1.0234774747 1.0093421618 0.99399734948 0.9947882274 0.99658244444 0.93767850112 0.93497191239 0.93575627876 
0.95968580913 0.96869805285 0.96043132911 0.97567438553 0.9705032441 0.98688996876 0.99279229976 0.99890225193 0.93460509642 
0.94124618024 0.93745781963 0.93677812798 0.98867983447 0.93510442943 0.97746463686 0.96279009963 0.98906203878 0.97151089945 
0.96767933773 1.0516231911 0.9782934611 0.97239992601 0.95060351508 0.96735880885 0.96273725549 
Label 4 1114 double
1 1 1 1 1 1 1 1 1 
1 1 1 1 1 1 1 1 1 
1 1 1 1 1 1 1 1 1 
1 1 1 1 1 1 1 1 1 
1 1 1 1 1 1 1 1 1 
1 1 1 1 1 1 1 1 1 
1 1 1 1 1 1 1 1 1 
1 1 1 1 1 1 1 1 1 
1 1 1 1 1 1 1 1 1 
1 1 1 1 1 1 1 1 1 
1 1 1 1 1 1 1 1 1 
1 1 1 1 1 1 1 1 1 
1 1 1 1 1 1 1 1 1 
1 1 1 1 1 1 1 1 1 
1 1 1 1 1 1 1 1 1 
1 1 1 1 1 1 1 1 1 
1 1 1 1 1 1 1 1 1 
1 1 1 1 1 1 1 1 1 
1 1 1 1 1 1 1 1 1 
1 1 1 1 1 1 1 1 1 
1 1 1 1 1 1 1 1 1 
1 1 1 1 1 1 1 1 1 
1 1 1 1 1 1 1 1 1 
1 1 1 1 1 1 1 1 1 
1 1 1 1 1 1 1 1 1 
1 1 1 1 1 1 1 1 1 
1 1 1 1 1 1 1 1 1 
1 1 1 1 1 1 1 1 1 
1 1 1 1 1 1 1 1 1 
1 1 1 1 1 1 1 1 1 
1 1 1 1 1 1 1 1 1 
1 1 1 1 1 1 1 1 1 
1 1 1 1 1 1 1 1 1 
1 1 1 1 1 1 1 1 1 
1 1 1 1 1 1 1 1 1 
1 1 1 1 1 1 1 1 1 
1 1 1 1 1 1 1 1 1 
1 1 1 1 1 1 1 1 1 
1 1 1 1 1 1 1 1 1 
1 1 1 1 1 1 1 1 1 
1 1 1 1 1 1 1 1 1 
1 1 1 1 1 1 1 1 1 
1 1 1 1 1 1 1 1 1 
1 1 1 1 1 1 1 1 1 
1 1 1 1 1 1 1 1 1 
1 1 1 1 1 1 1 1 1 
1 1 1 1 1 1 1 1 1 
1 1 1 1 1 1 1 1 1 
1 1 1 1 1 1 1 1 1 
1 1 1 1 1 1 1 1 1 
1 1 1 1 1 1 1 1 1 
1 1 1 1 1 1 1 1 1 
1 1 1 1 1 1 1 1 1 
1 1 1 1 1 1 1 1 1 
1 1 1 1 1 1 1 1 1 
1 1 1 1 1 1 1 1 1 
1 1 1 1 1 1 1 1 1 
1 1 1 1 1 1 1 1 1 
1 1 1 1 1 1 1 1 1 
1 1 1 1 1 1 1 1 1 
1 1 1 1 1 1 1 1 1 
1 1 1 1 1 1 1 1 1 
1 1 1 1 1 1 1 1 1 
1 1 1 1 1 1 1 1 1 
1 1 1 1 1 1 1 1 1 
1 1 1 1 1 1 1 1 1 
1 1 1 1 1 1 1 1 1 
1 1 1 1 1 1 1 1 1 
1 1 1 1 1 1 1 1 1 
1 1 1 1 1 1 1 1 1 
1 1 1 1 1 1 1 1 1 
1 1 1 1 1 1 1 1 1 
1 1 1 1 1 1 1 1 1 
1 1 1 1 1 1 1 1 1 
1 1 1 1 1 1 1 1 1 
1 1 1 1 1 1 1 1 1 
1 1 1 1 1 1 1 1 1 
1 1 1 1 1 1 1 1 1 
1 1 1 1 1 1 1 1 1 
1 1 1 1 1 1 1 1 1 
1 1 1 1 1 1 1 1 1 
1 1 1 1 1 1 1 1 1 
1 1 1 1 1 1 1 1 1 
1 1 1 1 1 1 1 1 1 
1 1 1 1 1 1 1 1 1 
1 1 1 1 1 1 1 1 1 
1 1 1 1 1 1 1 1 1 
1 1 1 1 1 1 1 1 1 
1 1 1 1 1 1 1 1 1 
1 1 1 1 1 1 1 1 1 
1 1 1 1 1 1 1 1 1 
1 1 1 1 1 1 1 1 1 
1 1 1 1 1 1 1 1 1 
1 1 1 1 1 1 1 1 1 
1 1 1 1 1 1 1 1 1 
1 1 1 1 1 1 1 1 1 
1 1 1 1 1 1 1 1 1 
1 1 1 1 1 1 1 1 1 
1 1 1 1 1 1 1 1 1 
1 1 1 1 1 1 1 1 1 
1 1 1 1 1 1 1 1 1 
1 1 1 1 1 1 1 1 1 
1 1 1 1 1 1 1 1 1 
1 1 1 1 1 1 1 1 1 
1 1 1 1 1 1 1 1 1 
1 1 1 1 1 1 1 1 1 
1 1 1 1 1 1 1 1 1 
1 1 1 1 1 1 1 1 1 
1 1 1 1 1 1 1 1 1 
1 1 1 1 1 1 1 1 1 
1 1 1 1 1 1 1 1 1 
1 1 1 1 1 1 1 1 1 
1 1 1 1 1 1 1 1 1 
1 1 1 1 1 1 1 1 1 
1 1 1 1 1 1 1 1 1 
1 1 1 1 1 1 1 1 1 
1 1 1 1 1 1 1 1 1 
1 1 1 1 1 1 1 1 1 
1 1 1 1 1 1 1 1 1 
1 1 1 1 1 1 1 1 1 
1 1 1 1 1 1 1 1 1 
1 1 1 1 1 1 1 1 1 
1 1 1 1 1 1 1 1 1 
1 1 1 1 1 1 1 1 1 
1 1 1 1 1 1 1 1 1 
1 1 1 1 1 1 1 1 1 
1 1 1 1 1 1 1 1 1 
1 1 1 1 1 1 1 1 1 
1 1 1 1 1 1 1 1 1 
1 1 1 1 1 1 1 1 1 
1 1 1 1 1 1 1 1 1 
1 1 1 1 1 1 1 1 1 
1 1 1 1 1 1 1 1 1 
1 1 1 1 1 1 1 1 1 
1 1 1 1 1 1 1 1 1 
1 1 1 1 1 1 1 1 1 
1 1 1 1 1 1 1 1 1 
1 1 1 1 1 1 1 1 1 
1 1 1 1 1 1 1 1 1 
1 1 1 1 1 1 1 1 1 
1 1 1 1 1 1 1 1 1 
1 1 1 1 1 1 1 1 1 
1 1 1 1 1 1 1 1 1 
1 1 1 1 1 1 1 1 1 
1 1 1 1 1 1 1 1 1 
1 1 1 1 1 1 1 1 1 
1 1 1 1 1 1 1 1 1 
1 1 1 1 1 1 1 1 1 
1 1 1 1 1 1 1 1 1 
1 1 1 1 1 1 1 1 1 
1 1 1 1 1 1 1 1 1 
1 1 1 1 1 1 1 1 1 
1 1 1 1 1 1 1 1 1 
1 1 1 1 1 1 1 1 1 
1 1 1 1 1 1 1 1 1 
1 1 1 1 1 1 1 1 1 
1 1 1 1 1 1 1 1 1 
1 1 1 1 1 1 1 1 1 
1 1 1 1 1 1 1 1 1 
1 1 1 1 1 1 1 1 1 
1 1 1 1 1 1 1 1 1 
1 1 1 1 1 1 1 1 1 
1 1 1 1 1 1 1 1 1 
1 1 1 1 1 1 1 1 1 
1 1 1 1 1 1 1 1 1 
1 1 1 1 1 1 1 1 1 
1 1 1 1 1 1 1 1 1 
1 1 1 1 1 1 1 1 1 
1 1 1 1 1 1 1 1 1 
1 1 1 1 1 1 1 1 1 
1 1 1 1 1 1 1 1 1 
1 1 1 1 1 1 1 1 1 
1 1 1 1 1 1 1 1 1 
1 1 1 1 1 1 1 1 1 
1 1 1 1 1 1 1 1 1 
1 1 1 1 1 1 1 1 1 
1 1 1 1 1 1 1 1 1 
1 1 1 1 1 1 1 1 1 
1 1 1 1 1 1 1 1 1 
1 1 1 1 1 1 1 1 1 
1 1 1 1 1 1 1 1 1 
1 1 1 1 1 1 1 1 1 
1 1 1 1 1 1 1 1 1 
1 1 1 1 1 1 1 1 1 
1 1 1 1 1 1 1 1 1 
1 1 1 1 1 1 1 1 1 
1 1 1 1 1 1 1 1 1 
1 1 1 1 1 1 1 1 1 
1 1 1 1 1 1 1 1 1 
1 1 1 1 1 1 1 1 1 
1 1 1 1 1 1 1 1 1 
1 1 1 1 1 1 1 1 1 
1 1 1 1 1 1 1 1 1 
1 1 1 1 1 1 1 1 1 
1 1 1 1 1 1 1 1 1 
1 1 1 1 1 1 1 1 1 
1 1 1 1 1 1 1 1 1 
1 1 1 1 1 1 1 1 1 
1 1 1 1 1 1 1 1 1 
1 1 1 1 1 1 1 1 1 
1 1 1 1 1 1 1 1 1 
1 1 1 1 1 1 1 1 1 
1 1 1 1 1 1 1 1 1 
1 1 1 1 1 1 1 1 1 
1 1 1 1 1 1 1 1 1 
1 1 1 1 1 1 1 1 1 
1 1 1 1 1 1 1 1 1 
1 1 1 1 1 1 1 1 1 
1 1 1 1 1 1 1 1 1 
1 1 1 1 1 1 1 1 1 
1 1 1 1 1 1 1 1 1 
1 1 1 1 1 1 1 1 1 
1 1 1 1 1 1 1 1 1 
1 1 1 1 1 1 1 1 1 
1 1 1 1 1 1 1 1 1 
1 1 1 1 1 1 1 1 1 
1 1 1 1 1 1 1 1 1 
1 1 1 1 1 1 1 1 1 
1 1 1 1 1 1 1 1 1 
1 1 1 1 1 1 1 1 1 
1 1 1 1 1 1 1 1 1 
1 1 1 1 1 1 1 1 1 
1 1 1 1 1 1 1 1 1 
1 1 1 1 1 1 1 1 1 
1 1 1 1 1 1 1 1 1 
1 1 1 1 1 1 1 1 1 
1 1 1 1 1 1 1 1 1 
1 1 1 1 1 1 1 1 1 
1 1 1 1 1 1 1 1 1 
1 1 1 1 1 1 1 1 1 
1 1 1 1 1 1 1 1 1 
1 1 1 1 1 1 1 1 1 
1 1 1 1 1 1 1 1 1 
1 1 1 1 1 1 1 1 1 
1 1 1 1 1 1 1 1 1 
1 1 1 1 1 1 1 1 1 
1 1 1 1 1 1 1 1 1 
1 1 1 1 1 1 1 1 1 
1 1 1 1 1 1 1 1 1 
1 1 1 1 1 1 1 1 1 
1 1 1 1 1 1 1 1 1 
1 1 1 1 1 1 1 1 1 
1 1 1 1 1 1 1 1 1 
1 1 1 1 1 1 1 1 1 
1 1 1 1 1 1 1 1 1 
1 1 1 1 1 1 1 1 1 
1 1 1 1 1 1 1 1 1 
1 1 1 1 1 1 1 1 1 
1 1 1 1 1 1 1 1 1 
1 1 1 1 1 1 1 1 1 
1 1 1 1 1 1 1 1 1 
1 1 1 1 1 1 1 1 1 
1 1 1 1 1 1 1 1 1 
1 1 1 1 1 1 1 1 1 
1 1 1 1 1 1 1 1 1 
1 1 1 1 1 1 1 1 1 
1 1 1 1 1 1 1 1 1 
1 1 1 1 1 1 1 1 1 
1 1 1 1 1 1 1 1 1 
1 1 1 1 1 1 1 1 1 
1 1 1 1 1 1 1 1 1 
1 1 1 1 1 1 1 1 1 
1 1 1 1 1 1 1 1 1 
1 1 1 1 1 1 1 1 1 
1 1 1 1 1 1 1 1 1 
1 1 1 1 1 1 1 1 1 
1 1 1 1 1 1 1 1 1 
1 1 1 1 1 1 1 1 1 
1 1 1 1 1 1 1 1 1 
1 1 1 1 1 1 1 1 1 
1 1 1 1 1 1 1 1 1 
1 1 1 1 1 1 1 1 1 
1 1 1 1 1 1 1 1 1 
1 1 1 1 1 1 1 1 1 
1 1 1 1 1 1 1 1 1 
1 1 1 1 1 1 1 1 1 
1 1 1 1 1 1 1 1 1 
1 1 1 1 1 1 1 1 1 
1 1 1 1 1 1 1 1 1 
1 1 1 1 1 1 1 1 1 
1 1 1 1 1 1 1 1 1 
1 1 1 1 1 1 1 1 1 
1 1 1 1 1 1 1 1 1 
1 1 1 1 1 1 1 1 1 
1 1 1 1 1 1 1 1 1 
1 1 1 1 1 1 1 1 1 
1 1 1 1 1 1 1 1 1 
1 1 1 1 1 1 1 1 1 
1 1 1 1 1 1 1 1 1 
1 1 1 1 1 1 1 1 1 
1 1 1 1 1 1 1 1 1 
1 1 1 1 1 1 1 1 1 
1 1 1 1 1 1 1 1 1 
1 1 1 1 1 1 1 1 1 
1 1 1 1 1 1 1 1 1 
1 1 1 1 1 1 1 1 1 
1 1 1 1 1 1 1 1 1 
1 1 1 1 1 1 1 1 1 
1 1 1 1 1 1 1 1 1 
1 1 1 1 1 1 1 1 1 
1 1 1 1 1 1 1 1 1 
1 1 1 1 1 1 1 1 1 
1 1 1 1 1 1 1 1 1 
1 1 1 1 1 1 1 1 1 
1 1 1 1 1 1 1 1 1 
1 1 1 1 1 1 1 1 1 
1 1 1 1 1 1 1 1 1 
1 1 1 1 1 1 1 1 1 
1 1 1 1 1 1 1 1 1 
1 1 1 1 1 1 1 1 1 
1 1 1 1 1 1 1 1 1 
1 1 1 1 1 1 1 1 1 
1 1 1 1 1 1 1 1 1 
1 1 1 1 1 1 1 1 1 
1 1 1 1 1 1 1 1 1 
1 1 1 1 1 1 1 1 1 
1 1 1 1 1 1 1 1 1 
1 1 1 1 1 1 1 1 1 
1 1 1 1 1 1 1 1 1 
1 1 1 1 1 1 1 1 1 
1 1 1 1 1 1 1 1 1 
1 1 1 1 1 1 1 1 1 
1 1 1 1 1 1 1 1 1 
1 1 1 1 1 1 1 1 1 
1 1 1 1 1 1 1 1 1 
1 1 1 1 1 1 1 1 1 
1 1 1 1 1 1 1 1 1 
1 1 1 1 1 1 1 1 1 
1 1 1 1 1 1 1 1 1 
1 1 1 1 1 1 1 1 1 
1 1 1 1 1 1 1 1 1 
1 1 1 1 1 1 1 1 1 
1 1 1 1 1 1 1 1 1 
1 1 1 1 1 1 1 1 1 
1 1 1 1 1 1 1 1 1 
1 1 1 1 1 1 1 1 1 
1 1 1 1 1 1 1 1 1 
1 1 1 1 1 1 1 1 1 
1 1 1 1 1 1 1 1 1 
1 1 1 1 1 1 1 1 1 
1 1 1 1 1 1 1 1 1 
1 1 1 1 1 1 1 1 1 
1 1 1 1 1 1 1 1 1 
1 1 1 1 1 1 1 1 1 
1 1 1 1 1 1 1 1 1 
1 1 1 1 1 1 1 1 1 
1 1 1 1 1 1 1 1 1 
1 1 1 1 1 1 1 1 1 
1 1 1 1 1 1 1 1 1 
1 1 1 1 1 1 1 1 1 
1 1 1 1 1 1 1 1 1 
1 1 1 1 1 1 1 1 1 
1 1 1 1 1 1 1 1 1 
1 1 1 1 1 1 1 1 1 
1 1 1 1 1 1 1 1 1 
1 1 1 1 1 1 1 1 1 
1 1 1 1 1 1 1 1 1 
1 1 1 1 1 1 1 1 1 
1 1 1 1 1 1 1 1 1 
1 1 1 1 1 1 1 1 1 
1 1 1 1 1 1 1 1 1 
1 1 1 1 1 1 1 1 1 
1 1 1 1 1 1 1 1 1 
1 1 1 1 1 1 1 1 1 
1 1 1 1 1 1 1 1 1 
1 1 1 1 1 1 1 1 1 
1 1 1 1 1 1 1 1 1 
1 1 1 1 1 1 1 1 1 
1 1 1 1 1 1 1 1 1 
1 1 1 1 1 1 1 1 1 
1 1 1 1 1 1 1 1 1 
1 1 1 1 1 1 1 1 1 
1 1 1 1 1 1 1 1 1 
1 1 1 1 1 1 1 1 1 
1 1 1 1 1 1 1 1 1 
1 1 1 1 1 1 1 1 1 
1 1 1 1 1 1 1 1 1 
1 1 1 1 1 1 1 1 1 
1 1 1 1 1 1 1 1 1 
1 1 1 1 1 1 1 1 1 
1 1 1 1 1 1 1 1 1 
1 1 1 1 1 1 1 1 1 
1 1 1 1 1 1 1 1 1 
1 1 1 1 1 1 1 1 1 
1 1 1 1 1 1 1 1 1 
1 1 1 1 1 1 1 1 1 
1 1 1 1 1 1 1 1 1 
1 1 1 1 1 1 1 1 1 
1 1 1 1 1 1 1 1 1 
1 1 1 1 1 1 1 1 1 
1 1 1 1 1 1 1 1 1 
1 1 1 1 1 1 1 1 1 
1 1 1 1 1 1 1 1 1 
1 1 1 1 1 1 1 1 1 
1 1 1 1 1 1 1 1 1 
1 1 1 1 1 1 1 1 1 
1 1 1 1 1 1 1 1 1 
1 1 1 1 1 1 1 1 1 
1 1 1 1 1 1 1 1 1 
1 1 1 1 1 1 1 1 1 
1 1 1 1 1 1 1 1 1 
1 1 1 1 1 1 1 1 1 
1 1 1 1 1 1 1 1 1 
1 1 1 1 1 1 1 1 1 
1 1 1 1 1 1 1 1 1 
1 1 1 1 1 1 1 1 1 
1 1 1 1 1 1 1 1 1 
1 1 1 1 1 1 1 1 1 
1 1 1 1 1 1 1 1 1 
1 1 1 1 1 1 1 1 1 
1 1 1 1 1 1 1 1 1 
1 1 1 1 1 1 1 1 1 
1 1 1 1 1 1 1 1 1 
1 1 1 1 1 1 1 1 1 
1 1 1 1 1 1 1 1 1 
1 1 1 1 1 1 1 1 1 
1 1 1 1 1 1 1 1 1 
1 1 1 1 1 1 1 1 1 
1 1 1 1 1 1 1 1 1 
1 1 1 1 1 1 1 1 1 
1 1 1 1 1 1 1 1 1 
1 1 1 1 1 1 1 1 1 
1 1 1 1 1 1 1 1 1 
1 1 1 1 1 1 1 1 1 
1 1 1 1 1 1 1 1 1 
1 1 1 1 1 1 1 1 1 
1 1 1 1 1 1 1 1 1 
1 1 1 1 1 1 1 1 1 
1 1 1 1 1 1 1 1 1 
1 1 1 1 1 1 1 1 1 
1 1 1 1 1 1 1 1 1 
1 1 1 1 1 1 1 1 1 
1 1 1 1 1 1 1 1 1 
1 1 1 1 1 1 1 1 1 
1 1 1 1 1 1 1 1 1 
1 1 1 1 1 1 1 1 1 
1 1 1 1 1 1 1 1 1 
1 1 1 1 1 1 1 1 1 
1 1 1 1 1 1 1 1 1 
1 1 1 1 1 1 1 1 1 
1 1 1 1 1 1 1 1 1 
1 1 1 1 1 1 1 1 1 
1 1 1 1 1 1 1 1 1 
1 1 1 1 1 1 1 1 1 
1 1 1 1 1 1 1 1 1 
1 1 1 1 1 1 1 1 1 
1 1 1 1 1 1 1 1 1 
1 1 1 1 1 1 1 1 1 
1 1 1 1 1 1 1 1 1 
1 1 1 1 1 1 1 1 1 
1 1 1 1 1 1 1 1 1 
1 1 1 1 1 1 1 1 1 
1 1 1 1 1 1 1 1 1 
1 1 1 1 1 1 1 1 1 
1 1 1 1 1 1 1 1 1 
1 1 1 1 1 1 1 1 1 
1 1 1 1 1 1 1 1 1 
1 1 1 1 1 1 1 1 1 
1 1 1 1 1 1 1 1 1 
1 1 1 1 1 1 1 1 1 
1 1 1 1 1 1 1 1 1 
1 1 1 1 1 1 1 1 1 
1 1 1 1 1 1 1 1 1 
1 1 1 1 1 1 1 1 1 
1 1 1 1 1 1 1 1 1 
1 1 1 1 1 1 1 1 1 
1 1 1 1 1 1 1 1 1 
1 1 1 1 1 1 1 1 1 
1 1 1 1 1 1 1 1 1 
1 1 1 1 1 1 1 1 1 
1 1 1 1 1 1 1 1 1 
1 1 1 1 1 1 1 1 1 
1 1 1 1 1 1 1 1 1 
1 1 1 1 1 1 1 1 1 
1 1 1 1 1 1 1 1 1 
1 1 1 1 1 1 1 1 1 
1 1 1 1 1 1 1 1 1 
1 1 1 1 1 1 1 1 1 
1 1 1 1 1 1 1 1 1 
1 1 1 1 1 1 1 1 1 
1 1 1 1 1 1 1 1 1 
1 1 1 1 1 1 1 1 1 
1 1 1 1 1 1 1 1 1 
1 1 1 1 1 1 1 1 1 
1 1 1 1 1 1 1 1 1 
1 1 1 1 1 1 1 1 1 
1 1 1 1 1 1 1 1 1 
1 1 1 1 1 1 1 1 1 
1 1 1 1 1 1 1 1 1 
1 1 1 1 1 1 1 1 1 
1 1 1 1 1 1 1 1 1 
1 1 1 1 1 1 1 1 1 
1 1 1 1 1 1 1 1 1 
1 1 1 1 1 1 1 1 1 
1 1 1 1 1 1 1 1 1 
1 
Long_Strain_Pt 1 1114 double
0.83504615074 0.84616101385 0.83391101153 0.82272341953 0.82695682433 0.84572211848 0.81783622427 0.85054906983 0.81969121952 
0.8403806615 0.81803551417 0.81207265845 0.80678969457 0.80583296114 0.81443844942 0.80537649969 0.83799283319 0.82488970326 
0.85518266203 0.84480864593 0.85080620895 0.85570362353 0.84760701824 0.86927909626 0.87389607682 0.8784309558 0.85356634746 
0.86008692045 0.85308265972 0.86673437784 0.86349149989 0.86991425945 0.88031630818 0.87456467688 0.90833345751 0.88285260589 
0.91968386555 0.88152637758 0.92055113657 0.87701604417 0.92600000694 0.86735891966 0.91292697391 0.85349824944 0.89546958064 
0.84385349247 0.87934482079 0.84096635879 0.86728551957 0.8440893103 0.86054153644 0.84696261732 0.85428653487 0.84223540513 
0.86255634375 0.83779110063 0.85835455193 0.84617946498 0.84879784261 0.8539074076 0.86613034485 0.87160370751 0.88371603568 
0.88307576679 0.86630391196 0.89362358684 0.86162115152 0.89490545911 0.88452178627 0.90658629041 0.91747062015 0.90362024252 
0.90191462611 0.89057687975 0.90206609592 0.87384438313 0.88367953745 0.84554768986 0.85792805998 0.80792963986 0.84085105948 
0.79687509324 0.83329865729 0.80530093969 1.038094805 0.98952651231 1.107367301 1.099739359 0.95630198408 1.1147804612 
0.96768591731 1.1230989722 0.99500930284 1.1272861583 1.0363601628 1.1332052998 1.0607604316 1.1425356414 1.0885806836 
1.1480136316 1.1233509338 1.1473687997 1.1497476256 1.1385620676 1.1608686932 1.1206883904 1.1503742301 1.0915055964 
1.1260975034 1.0656428549 1.1175588234 1.040281552 1.1214772519 1.0210376862 1.0795501583 0.99915069122 1.0490559445 
0.99378495561 1.0257675361 1.0135621259 1.0060790541 1.0564687085 1.0702751541 1.0923205876 1.157580072 1.1150206718 
1.1451043958 1.1289225223 1.1302412267 1.1367208297 1.1139647511 1.1367080371 1.0969733839 1.1252727099 1.0994776916 
1.1036645821 1.1128071841 1.0989188046 1.1035306391 1.1006001829 1.098598523 1.1034812945 1.0999522896 1.1317661863 
1.1302186256 1.1524744632 1.1682588057 1.1697229368 1.2005539287 1.1792781544 1.2053534241 1.1961355024 1.1820785822 
1.2385422924 1.2119351845 1.239081428 1.2468872808 1.2373126705 1.2620763197 1.2395061514 1.2519995684 1.2469401237 
1.2218024246 1.256098785 1.2359334224 1.2617843043 1.2401435255 1.2585974776 1.2287278515 1.2468105208 1.218704486 
1.2326478833 1.2077478867 1.2157332657 1.1696473815 1.1863670723 1.1384257274 1.1686361063 1.1222249926 1.1511403858 
1.1394636214 1.1372042044 1.1842923214 1.1293686053 1.1869034923 1.1258805428 1.1765605054 1.1129944371 1.1141305131 
1.1039760544 1.066126229 1.0996240486 1.0587054657 1.105802767 1.0587059529 1.1098646117 1.0662559002 1.1118460954 
1.0556297286 1.10684729 0.88028163301 0.85439891958 0.88173291484 0.87716206914 0.84660311426 0.82055723928 0.81340236652 
0.82421719799 0.84226480381 0.86167711523 0.87885730613 0.88549133383 0.88873890914 0.8874898029 0.88670350086 0.88992042009 
0.88616896752 0.87506584162 0.87993791246 0.87045688605 0.87038326533 0.87334318017 0.87372967573 0.85917069081 0.83471765507 
0.83038341662 0.83004959839 0.84028719529 0.85076650868 0.86361549621 0.88585140505 0.90743077435 0.91005377322 0.90741487702 
0.90920773171 0.90235653908 0.89083006467 0.87346063252 0.82974521647 0.81909234378 0.83311143706 0.84228394719 1.1428850622 
1.1445989767 1.1397490246 1.1412575761 1.1436492681 1.1465659393 1.1451158153 1.1466829306 1.1437061005 1.1176769925 
1.0850398839 1.0492561509 1.0128370008 0.98890086719 0.97235999413 0.97060766521 0.98465767682 1.0284251637 1.0748834024 
1.1125634488 1.131997784 1.1394429043 1.1386977464 1.1337137336 1.1156536729 1.1186491553 1.1155063917 1.1186234766 
1.127520381 1.1373850201 1.139473459 1.1386567374 1.1248807044 1.1505661333 1.1632415189 1.165548582 1.1645142903 
1.1781043535 1.2043296141 1.2199701923 1.21631743 1.211775703 1.2099831627 1.2078584108 1.1988438981 1.185458068 
1.1768365435 1.1665833751 1.1623271259 1.1672264363 1.1651390825 1.1566016287 1.1470883033 1.1370421274 1.1401049823 
1.1465667306 1.1521629305 1.1518207913 1.1247728451 1.1367027152 0.87560483519 0.90737594575 0.84873011884 0.83327642393 
0.82736762123 0.85006522932 0.87325594096 0.89451715194 0.90756341072 0.92080911304 0.91764380824 0.91109622186 0.91226812354 
0.92127205655 0.91940736778 0.91181703985 0.9000898083 0.89340742371 0.88743216277 0.87894935742 0.87852607208 0.85368826691 
0.86008738378 0.85653845471 0.86855649344 0.879013889 0.89302718036 0.91149647486 0.91603347515 0.91898371626 0.92256452045 
0.92528632014 0.92560763532 0.93507294219 0.96558760897 0.97026652342 0.9933659213 1.0012227984 0.98525164511 0.95865443549 
0.94054908104 0.87841891293 0.89037990075 1.1205454393 1.113446072 1.1145489622 1.1172749693 1.1123208681 1.1112713008 
1.1137918788 1.1069281352 1.0925813551 1.0840130063 1.0806981698 1.09335369 1.1033994561 1.1170021492 1.1336984278 
1.1326327616 1.1422346607 1.1585007209 1.1833939838 1.1941571034 1.1899653469 1.1852313621 1.1836053846 1.1927036335 
1.2042358426 1.2021418622 1.1984436521 1.1895361637 1.1823427507 1.1776818854 1.172778048 1.1718359231 1.1696209395 
1.1645942143 1.1551310696 1.1533715162 1.1484260732 1.1336104113 1.1219222361 1.1154806212 1.1119977813 1.1124763398 
1.09490075 1.0779117124 1.0616807875 1.03867689 1.016721056 0.99843813484 0.98627994319 0.98970446271 0.99663512023 
1.0390561128 1.0822971385 1.1182288143 1.1412951897 1.153257756 1.1575592395 1.1588848982 1.1232995986 1.0929042241 
1.093980533 1.0601548458 1.0781013318 1.0821099294 0.9128568265 0.92925059115 0.91257112698 0.9125503944 0.91038979589 
0.91076175036 0.9166584219 0.9257915679 0.92931414954 0.92797622689 0.93353900596 0.94187826385 0.93598334141 0.94810533741 
0.96785671314 0.98374120589 1.0670921921 1.0487317712 1.073745149 1.0715739864 1.0457156959 1.0141190172 0.89513094563 
0.92247796825 0.87843087976 0.87227849038 0.87067328019 0.88210161703 0.89483659951 0.90616562119 0.93953416853 0.95269438665 
0.97269356073 0.95286463191 0.94058349018 0.93859652699 0.94249564006 0.93073961225 0.91205833711 0.89313200246 0.8766022451 
0.8648234751 0.87029708939 0.88331780551 0.89056818063 0.92078960789 0.91007962801 0.94462013023 0.93509446196 0.97246898195 
0.99291184955 1.0084194448 1.021505509 0.99787356762 1.092824221 1.0895540024 1.0887112917 1.0876641027 1.0860867682 
1.0864726219 1.0840587291 1.0809505567 1.0763102676 1.074953195 1.0659946408 1.0707484106 1.0737505204 1.0774192255 
1.0738721405 1.0677462554 1.0720768988 1.0851223086 1.119295268 1.1466196548 1.1691062515 1.1814118713 1.1950797865 
1.2012768894 1.2122287458 1.2262262796 1.2235628335 1.2137625381 1.1916879765 1.1728832906 1.1587586673 1.148902117 
1.141781117 1.1128616922 1.1308686578 1.1238014119 1.1220407792 1.1205691311 1.1123358871 1.1020195625 1.1017025137 
1.0913674156 1.0676952369 1.052354589 1.0410561067 1.0312267903 1.0199409333 1.0015735301 0.98806528921 0.97988533429 
0.97884972863 1.0554748709 1.026046078 1.0776036169 1.0917092982 1.1155972833 1.1341168941 1.1441447342 1.1227060289 
1.0946618718 1.0560832555 1.0200531621 1.0127826672 0.98645515732 1.0308323037 1.0416118009 1.05108912 1.0629317399 
1.0760125755 1.0836669184 1.0004424523 1.0363706242 0.97173480706 0.95649707206 0.95311812837 0.9255729611 0.97533263065 
0.98449393657 0.99340318446 1.0014415153 1.0289283128 1.0561080245 1.0741569974 0.98791631301 0.98003481265 0.94061832666 
0.9393522576 0.93919752418 0.94070890161 0.95223351182 0.96135295806 0.95852724175 0.95520739813 0.95389031971 0.93986957395 
0.93969114007 0.94730373549 0.96480356483 0.97984698122 0.98596522657 1.0025073602 0.97602455432 1.0142728724 1.028013827 
1.0403087245 1.0513455648 1.0519404348 1.0565417877 1.0521816483 0.98619176647 1.0567518764 0.98404645729 1.0436855012 
1.0328726108 1.0214724633 1.004149089 0.98090441028 0.9573444063 0.94157104801 0.92867507346 0.90984250359 0.89746601546 
0.90263018195 0.9242956131 0.95194848067 1.0058735422 1.0267394897 0.95776131507 0.97213728033 0.94045872354 0.92798763977 
0.91483200285 0.9012548959 0.88476224234 0.87837329675 0.87351797471 0.87851895325 0.88985950665 0.88781517166 0.88397364318 
0.91221369916 0.89518851572 0.92804791981 0.93540401156 0.98586761272 1.032854685 1.0687883763 1.0818068254 1.0627805615 
1.0434186648 1.0669186338 1.0667934525 1.0612819267 1.0572845155 1.0532656865 1.0406595918 1.0315762305 1.0209046327 
1.0193426089 1.027850528 1.0519416342 1.0777842764 1.1277454713 1.1492625205 1.1680075317 1.1838038008 1.1951827097 
1.1964083062 1.19735601 1.1953412957 1.1911715228 1.176495691 1.1517092336 1.1259783253 1.1037765282 1.0858979216 
1.1168483718 1.1109249508 1.1230459677 1.1257866386 1.1328075389 1.1326957975 1.1182110542 1.0967628287 1.0690268273 
1.0408255566 1.0222740069 1.0198893931 1.0142371295 1.0094345815 1.0005274821 0.99408739592 0.98854009822 0.98609570754 
0.97492317365 0.9730752154 0.98165581777 0.99350730638 1.0051907 1.0095124418 1.0212976915 1.0484685093 1.0893792652 
1.0911626322 1.0515570954 1.051718531 1.0214202141 1.0213368679 0.99408156915 1.0423497238 1.0565550937 1.0602317142 
1.0552825091 1.0448850842 1.0251431711 1.0029674779 0.98282244979 0.96595654104 0.96108887044 0.96927343146 0.99877666514 
1.0423739076 1.1093367178 1.1303711945 1.1369903871 1.1401894457 1.1404585295 1.1391538188 1.1446148749 1.1457871312 
1.1422454466 1.132179712 1.1169109487 1.0940296264 1.0758294097 1.0392903767 1.0037445086 1.0047203277 0.96182700059 
1.0447623241 1.0711448856 1.0867036169 1.0948282898 1.0992943876 1.0923769596 1.0864727314 1.0817077808 1.0749484323 
1.0651452553 1.0218627891 1.014067283 1.0010642995 0.99336762845 0.98794172089 0.98453485414 0.98324834715 0.9682520882 
0.95624610898 0.9584415628 0.95605546978 0.96451498886 0.97292219782 0.9654622672 0.96229587917 0.96448481776 0.97001917449 
0.94248271071 0.94762287524 0.95376071692 0.96885157613 0.97311781087 0.97343971766 0.96318089864 0.95006442303 0.93618064306 
0.92200344321 0.91101449544 0.90974035618 0.92851169136 0.94872848775 0.96606296707 0.94137916578 0.94575745109 0.91156911684 
0.99301693696 1.0028419542 1.0121646606 1.0253597394 1.0349285594 1.0448936536 1.0552680452 1.0591791122 1.0381406857 
1.029529655 1.0311540221 1.0290502369 1.0349414596 1.0259602433 1.0192006684 1.0032777961 0.99492682238 0.98674222418 
0.98778876987 1.0050054841 1.0467419801 1.0608505622 1.0650424396 1.0722180305 1.0399785108 1.0075139882 0.99064284082 
1.0157585207 1.0004059129 0.98844267586 0.96244814204 0.93319549546 0.92349540827 0.92198235849 0.92038481166 0.90855465722 
0.90200227331 0.89401377347 0.88616686359 0.87349942001 0.88150309246 0.88896859349 0.90338938971 0.89748050355 0.90705980525 
0.91454556037 0.92269369461 1.04000342 1.0179046359 0.98845046088 0.96358401204 0.95237899443 0.94424233307 0.95975660513 
0.97756250186 1.0122835081 1.0377823928 1.0838354999 1.071991874 1.088566445 1.0718397609 1.0769059096 1.0813427114 
1.0775174343 1.0730132235 1.0636755886 1.0540095498 1.0426598574 1.0274435319 1.0095212357 0.98913912552 0.96514715517 
0.93485319698 0.93674913552 0.91933961837 0.96113739347 0.99605549637 1.0200877515 1.0281912063 1.0289628677 1.0360568115 
1.0298249587 1.0245212422 1.0143349256 1.0079672302 0.99633912088 0.97537898524 0.95840288506 0.96805979384 0.96108480495 
0.96494087625 0.96535383573 1.0580140344 1.0493719298 0.95579606929 0.94206802034 0.9355721555 0.94320160981 0.9350921208 
0.94623115868 0.92465039463 0.92872705581 0.94130777722 0.95362536985 0.95674778047 0.95769511137 0.95716822718 0.94480781698 
0.92133466227 0.88875435067 0.88170622891 0.89428542481 0.90210564953 0.91495477379 0.91479866602 0.92539790624 0.94580710866 
0.93098500585 0.95865184015 0.9836118199 0.98931692221 0.99198473308 0.99742460691 1.0055694276 1.0031684808 0.98003158225 
0.98562407686 0.99734826652 1.0214629875 1.0387289827 1.049046237 1.0535599935 1.0509914253 1.0482532172 1.0474284986 
1.0583473549 1.0707111746 1.0741774928 1.0800056228 1.100596391 1.0882072162 1.0588837694 1.0098589157 0.96932339961 
0.95503636079 0.93485404637 0.97677640981 0.98572867881 0.97995361518 0.96645571233 0.95442894178 0.94860742291 0.93493205672 
0.93074321677 0.91748308277 0.91259977761 0.91029283985 0.89024718812 0.87567111323 0.88242963029 0.8869771407 0.8924853281 
0.90365594429 0.90694915516 0.91697407978 0.90803807092 0.94415223542 0.93664626458 0.9144876249 0.91857567847 0.92582776893 
0.93011051682 0.94720261359 0.96151778122 0.97116805118 0.98160932875 1.0094164655 1.0338474536 0.99539741581 0.96427575704 
0.9696856635 0.94008970465 1.0047149902 1.0212705113 0.91333640653 0.91291988708 0.91743602984 0.92966943156 0.93143729974 
0.92739613336 0.91808636461 0.90762873685 0.89390671402 0.88435847744 0.89421278972 0.89839984127 0.90562784431 0.97243118699 
0.99558848991 0.98141717462 0.93626722193 0.92667148459 0.93565194989 0.95416342837 0.96691057503 0.95565143413 0.96530656267 
0.96720393559 0.96414150565 0.95142272766 0.95752399331 0.94928158171 0.97529784592 0.996891675 1.0205540909 1.0473705588 
1.0634933645 1.0800306427 1.0932965261 1.1004830648 1.0947063786 1.0946191358 1.0936201527 1.0785356246 1.0616405071 
1.028821479 0.9974159291 0.95024454155 0.9406205608 0.95194875376 0.94916606874 0.96265514563 0.9304195298 0.92873347923 
0.91865703348 0.91017136787 0.89949390018 0.89553170664 0.90464800524 0.89574589749 1.0158935833 0.99985788797 0.98174582275 
0.9627819226 0.96081191944 0.97186942937 0.99029648217 1.0173761837 1.0585785156 1.0713011207 1.0714856362 1.0755505607 
1.0728028635 1.0534664938 1.0328142432 1.0202046984 1.0061798799 1.0067659432 1.0111051767 1.0134693858 1.0118630453 
1.008607485 0.99780603501 0.97997069434 0.95774092861 0.93804386183 0.91663285236 0.92425625516 0.92278283603 0.9272396999 
0.94186618768 0.96108575542 0.98604440841 0.980091557 0.97294537654 0.95371249376 0.94211762561 0.95045062234 0.96308003278 
0.95426047342 0.95835443368 0.95272389234 0.94976303569 0.92862022537 0.92343684317 0.96784761283 0.95377065274 0.93357923466 
0.92713262877 0.93039499559 0.89819050826 0.90780313424 0.88960448302 0.93388104268 0.93004407564 0.92883958945 0.93138241961 
0.94290070639 0.91331455662 0.91721320212 0.91387688774 0.93317134466 0.92748147576 0.95531013724 0.97115754113 0.97308109109 
0.9692846971 1.0790495158 1.0542359581 1.0375150025 1.0167898614 0.99128411351 0.97151689359 0.96512463745 0.97088634712 
0.97018181747 0.97061061867 0.95607250789 0.94780210075 0.91846011724 0.91735360593 0.92981092841 0.92519965929 0.94937454125 
0.97168176201 0.96881052168 0.98191237278 1.0043312485 1.0279741995 1.0514325766 1.0667216039 1.0821325157 1.0799598422 
1.0719417829 1.051232279 1.0226028012 0.98499609236 0.96315833672 0.94031352355 0.90359434964 0.90238987715 0.90670385484 
0.93758631955 0.94818261912 0.93554372614 0.93295419018 0.93200641332 0.9414309135 0.94569156994 0.95008795828 0.88887240908 
0.91816283988 0.91325347619 0.90470121708 0.95407404324 0.8966050127 0.93321803147 0.92369463481 0.94180316615 0.94721898476 
0.94120888142 1.0849439134 0.91264413767 0.91615068977 0.92525017407 0.93628028398 0.92722978328 
Longtudinal 3 1114 double
-0.066046267433 0.96695037835 -0.24626176391 -0.11871537076 0.96022165628 -0.25167567256 -0.27814730223 0.88466226861 -0.36446399429 
-0.266627364 0.85607958326 -0.41902333531 -0.12461087951 0.96763578608 -0.21794908325 -0.35278540735 0.86934116654 -0.33711360089 
-0.10967713631 0.9765208589 -0.18423290947 -0.41200399454 0.85745835782 -0.30180531356 -0.086995738335 0.98414405951 -0.15227251309 
-0.4334835743 0.87002643311 -0.22848083256 -0.070228657462 0.99054979686 -0.1171907981 -0.45015667792 0.8774197811 -0.15813249262 
-0.081420044822 0.9922870703 -0.093398990021 -0.36906256335 0.91880285724 -0.085749712349 -0.18132879422 0.97892062937 -0.072185466673 
-0.33302042946 0.94133426486 -0.036422484323 -0.21618039236 0.97526529205 -0.039754351182 -0.32645052002 0.94392698505 0.0061839474835 
-0.1983668093 0.97959016 -0.0014494105638 -0.31664450196 0.94562338488 0.06276125305 -0.15754250282 0.9865584136 0.035973549017 
-0.32262940811 0.9362005587 0.1305046201 -0.11579858136 0.99130098525 0.055744543604 -0.27385873576 0.94060434076 0.19822418051 
-0.073497110982 0.99315907321 0.056888368129 -0.18660847906 0.95923718439 0.20914850431 -0.05988787487 0.98401539993 0.15031420403 
-0.12881356792 0.96089693028 0.24255476303 0.017500060729 0.99848126803 0.048605132708 -0.063268168611 0.95453780057 0.28802032912 
0.059327139682 0.99733062967 0.035902137075 0.029743629499 0.94450660912 0.32316301147 0.071939169434 0.99663626533 -0.0058914541052 
0.12844013027 0.92558733638 0.34954378841 0.06104397907 0.99454819433 -0.077396150339 0.20639177842 0.92251997988 0.31022339561 
0.059567162013 0.99144831852 -0.11580371909 0.27906713627 0.90543607461 0.30468030461 0.00046134048652 0.97921118392 -0.17008406139 
0.32514623292 0.90007260261 0.2651416799 -0.12656023133 0.95660800052 -0.26194806835 0.29136255025 0.92351109775 0.15503658493 
-0.1428031152 0.9662377546 -0.21312211071 0.30714070579 0.92813576849 0.10176537474 -0.13641536573 0.97542553846 -0.17091487981 
0.36089950335 0.90609146721 0.082963787475 -0.14310477263 0.97960161708 -0.13959502972 0.42593685406 0.88172124008 0.058694921397 
-0.12908055658 0.98288728144 -0.11549283104 0.42810462074 0.88959782721 0.0064239871683 -0.010797272977 0.99590379408 -0.08921885082 
0.30253696086 0.94927763994 -0.07588423704 0.033370350047 0.99183922945 -0.12008167587 0.21059284887 0.96779133099 -0.13139188724 
-0.040872150949 0.98970278583 -0.11937664753 0.16855794503 0.96886841622 -0.17878516949 -0.063612862716 0.98796232834 -0.13428479078 
0.1415827087 0.96690882689 -0.20994349254 -0.034596691151 0.98723817061 -0.15236640348 0.086724256609 0.97259123961 -0.21466512916 
-0.081574982231 0.98962215675 -0.11824966867 0.047872538499 0.97370826961 -0.22023165851 -0.091755630294 0.98996004343 -0.10726189702 
0.034745368144 0.97477359911 -0.21936299887 -0.05850248094 0.98752370466 -0.14019147691 0.027025878092 0.97309307724 -0.22296580628 
-0.037274659205 0.98902707586 -0.13903062882 0.0085975897193 0.97485729266 -0.21373685157 -0.039437666431 0.99379660796 -0.10271129492 
0.024542320737 0.96816198703 -0.24570930545 -0.024482332238 0.99033555775 -0.13630901402 0.026850672053 0.96228499562 -0.2673221123 
-0.019848748491 0.99310254661 -0.11510092968 0.0055875068123 0.96215071172 -0.26830086484 -0.015143992782 0.99632564751 -0.082160911303 
-0.0027120893509 0.95796127403 -0.26728594817 0.0076534855297 0.99465805505 -0.098437273603 -0.014147266697 0.96284716592 -0.24488686147 
0.019991283044 0.99123955436 -0.1299638537 -0.01261462387 0.96942222648 -0.20406804253 0.0036614075436 0.98864426253 -0.14880334365 
-0.032797297361 0.95833143695 -0.19886901555 -0.030277252983 0.9833759285 -0.17533633346 -0.13499573625 0.90429379472 -0.32024733843 
0.035522820991 0.99235085721 -0.11822819202 0.014874089626 0.98376260174 -0.1717222801 0.031967817364 0.98827246785 -0.12617262911 
0.057493573179 0.99610232908 -0.059104696154 0.0052769923276 0.98007619431 -0.19284022486 0.011414826893 0.98222367286 -0.17993024075 
0.027809975896 0.99064078115 -0.11983198915 0.026695399895 0.98848134078 -0.1447340015 0.039783510678 0.99431593223 -0.097344728286 
0.034801903693 0.98490008359 -0.16088026243 0.042464229456 0.99192805291 -0.11931832263 0.036670967875 0.97074356573 -0.23658290753 
0.044843131204 0.98626348646 -0.15625969109 0.047231477796 0.96892651317 -0.24260026254 0.043410100049 0.98339733628 -0.17601961198 
0.059015390499 0.96779391675 -0.2441866874 0.035883638175 0.98530576553 -0.16690855652 0.078462877418 0.96577271324 -0.24682011621 
0.046563901816 0.98121154209 -0.18615458373 0.043762676505 0.97476306707 -0.21364848922 0.014616876966 0.98148098099 -0.1734015109 
-0.036181517416 0.97790762496 -0.14004864308 -0.087536113568 0.9899215457 -0.10445331537 -0.14173225135 0.98420006665 -0.040067510108 
-0.20613923889 0.973307511 -0.02598751712 -0.24844087252 0.9611862965 -0.0046764811636 -0.25917641389 0.96276680238 -0.037104796612 
-0.32608491915 0.94306974609 -0.00092955055198 -0.2469506545 0.96040853096 -0.12835296617 -0.28362228561 0.95027396218 -0.051387887645 
-0.21075572478 0.96636653971 -0.14520807987 -0.27596090384 0.94893701419 -0.099115100135 -0.18816501998 0.9680443517 -0.16471400069 
-0.28589928459 0.94120371443 -0.13806614957 -0.19886817818 0.96014258795 -0.18382736942 -0.34814625947 0.92459670394 -0.15264513048 
-0.34012057922 0.91574085658 -0.19323633286 -0.36445688575 0.9103928139 -0.192954581 -0.3277182948 0.91420156201 -0.22615926943 
-0.32645725628 0.9148863305 -0.22592076419 -0.23694766444 0.93439716841 -0.26091264955 -0.22858077826 0.94093671819 -0.24809115259 
-0.12685272441 0.95927574078 -0.24163566089 -0.17466469212 0.94872801128 -0.25992056878 -0.074372577851 0.9679022119 -0.23948923552 
-0.10445791313 0.95957636305 -0.25426399065 -0.057243614017 0.96712595734 -0.24765972953 -0.019042683855 0.9728359503 -0.22845372158 
-0.064940740876 0.96280864217 -0.26203170882 -0.01350559545 0.97075911389 -0.2378795612 -0.055395634928 0.96566273614 -0.25262825908 
0.032955613683 0.98075876395 -0.19005672928 -0.036287289802 0.97212730659 -0.23138608417 0.039369008624 0.98426325994 -0.17148936271 
-0.037455448283 0.9604328915 -0.27382039933 0.0074242285963 0.97465492473 -0.21713797426 -0.050557909821 0.93944743722 -0.33234619803 
-0.028053299931 0.95566957228 -0.28142453358 -0.08092791839 0.90501893097 -0.41415449992 -0.067538518982 0.90126042598 -0.4167203526 
-0.070555321099 0.90146087655 -0.42659385922 -0.072573686124 0.88050284196 -0.46351400448 -0.050248603116 0.89893865722 -0.43235861714 
-0.056802228274 0.88018064774 -0.45991422501 -0.044367657631 0.845222634 -0.5261975252 -0.026512466216 0.85783907815 -0.49761328196 
-0.0079016273446 0.83126604822 -0.55214880406 0.0017556715985 0.87568467688 -0.48055223602 0.059793222343 0.85790573017 -0.50878359987 
0.022393159473 0.88732726343 -0.46042223211 0.056777675883 0.88857910303 -0.45144655856 0.037615044649 0.90232706774 -0.42549175595 
0.042920748523 0.91780356449 -0.39391920978 0.04663307688 0.92321282695 -0.3807433091 0.035120467835 0.93637364592 -0.34732157891 
0.054281464242 0.93463725989 -0.34983862551 0.019494540114 0.95464742025 -0.29288930602 0.039359710878 0.94992599427 -0.30236472865 
-0.0024575537244 0.97264772347 -0.23223671726 0.0027911446841 0.96881839213 -0.23898835675 -0.039139927041 0.97983915723 -0.19100381224 
-0.008043036553 0.97612657772 -0.20843534998 -0.062733270927 0.98491772608 -0.16099743254 -0.011385714657 0.98186603166 -0.18589212045 
-0.065710908025 0.98666845433 -0.14867324658 0.0096296448226 0.98316181917 -0.1797837586 -0.049607559384 0.98664936937 -0.15359503613 
0.036808559981 0.98101012019 -0.18477993647 -0.022712750332 0.98568379917 -0.1649802207 0.072543722038 0.97704734695 -0.19176754522 
0.066155673956 0.97997210561 -0.17182743198 0.12019746676 0.97541622864 -0.18362395345 0.1325666929 0.97666325799 -0.1674319012 
0.16732753666 0.96858816165 -0.16389697955 0.14993887274 0.97860135557 -0.13848629397 0.19948548989 0.96652175973 -0.14425261106 
0.18414322624 0.97644764895 -0.095725617975 0.21715731404 0.96677228913 -0.11168403658 0.23223542977 0.97091788619 -0.041566437723 
0.21719435852 0.96941481855 -0.083594162582 0.24321893326 0.96920745381 -0.037666228183 0.19741896978 0.97750793926 -0.05438403526 
0.24386191163 0.96870934777 -0.044528154503 0.20197642686 0.97847157017 -0.017599303528 0.22341186407 0.97387685432 -0.0034138460375 
0.24648562259 0.96671189604 0.029237283728 0.2011961025 0.97898975204 0.028105438201 0.25922855478 0.96283817614 0.058981988666 
0.1740128974 0.98394901998 0.032631256374 0.20086586067 0.97717080638 0.049143119 0.16016339671 0.9856931225 0.048064882877 
0.17161447436 0.98321280888 0.05869827021 0.15987795395 0.98416651432 0.074594761383 0.15957486863 0.98375123344 0.081007002358 
0.10758451947 0.9873613703 -0.0021830606584 0.10932661375 0.98948148924 0.014544488181 -0.47381504303 0.77071873903 -0.39299376357 
-0.46622059528 0.72687882767 -0.48180280443 -0.49022414245 0.80660917331 -0.31396628333 -0.4680344328 0.85611758069 -0.2092449593 
-0.42121719382 0.89810615568 -0.11465463666 -0.40523992089 0.91094611019 -0.065217402371 -0.38268297425 0.92353300296 -0.010791064235 
-0.30551084759 0.94997836326 0.0087777658705 -0.26447931181 0.96061207785 0.04273295048 -0.20314167011 0.97157414654 0.060696309218 
-0.22206411578 0.96231367262 0.12943217753 -0.20998205524 0.95470027352 0.20172659063 -0.165821828 0.94334867289 0.27833253298 
-0.095011382512 0.93231757918 0.34520524661 0.0046783671968 0.90876583003 0.41006007808 0.11722247941 0.88672746986 0.44254914598 
0.21510179336 0.88247783867 0.41560940267 0.30450222255 0.85922245813 0.40946737444 0.3946262204 0.82607430249 0.40211606559 
0.46059452358 0.81251285515 0.35465974909 0.51485636775 0.80197249516 0.29993364956 0.54128282263 0.80502932289 0.23961356458 
0.55055307471 0.81503400314 0.16293270738 0.47244168046 0.87176715655 0.046175517594 0.31460062438 0.94393488339 -0.072271488098 
0.26668255247 0.95234731715 -0.13683206023 0.21778404934 0.95643332351 -0.17991587311 0.17898662356 0.95795670621 -0.21432449045 
0.14431170191 0.95722880283 -0.24437175145 0.10475280857 0.9608534184 -0.25447020884 0.079198913742 0.96465254647 -0.24773084872 
0.070847645822 0.96003715382 -0.26999860711 0.069890031314 0.95276486717 -0.29307502967 0.061925178461 0.94705024904 -0.3123968198 
0.053906922811 0.93830186186 -0.33991097733 0.028833539581 0.92362644315 -0.37517668154 0.0037885831024 0.89461736458 -0.44079763969 
-0.053155269262 0.86361501823 -0.4843164065 -0.12230861765 0.8451742268 -0.50225835095 -0.2474850227 0.76879555612 -0.56418317324 
-0.38589861749 0.64696620348 -0.61596311629 -0.47224277895 0.64549273623 -0.58791355121 0.059644273474 0.99756973591 0.01865837876 
0.086584705419 0.99397158983 0.040304557297 0.042351525369 0.99847266625 -0.00031056138378 0.046817774956 0.99125225044 -0.07882102723 
0.05239238861 0.98100654761 -0.1806860405 0.052345749172 0.9789888182 -0.18849042189 0.045864798013 0.98077402067 -0.1821455893 
0.030600235686 0.98320422827 -0.17243092345 -0.012750631351 0.99085943842 -0.13167172001 -0.11712940129 0.98381878068 -0.018304005992 
-0.24910263408 0.96220775626 0.091187328293 -0.33941888231 0.93055156733 0.11018291374 -0.43500361929 0.89202213614 0.1105754915 
-0.48784908124 0.86862648463 0.059853874239 -0.50436979274 0.86136230975 0.0043179758556 -0.50817755391 0.85813864376 -0.054734744887 
-0.49876030637 0.85775363935 -0.12174450253 -0.42144382052 0.8849600599 -0.17873477354 -0.33422550043 0.91348592903 -0.22859516587 
-0.31084854833 0.91284258836 -0.26251131003 -0.27884513417 0.91564584496 -0.28334622233 -0.21229415798 0.92904757261 -0.29312495496 
-0.10289919613 0.95143662811 -0.26780191189 -0.069244090366 0.95860468994 -0.27548723772 -0.030537259197 0.96175142424 -0.27135105345 
-0.024278717868 0.9650296867 -0.26090252405 -0.072288679319 0.93395371501 -0.34143292198 -0.11975048935 0.89146714502 -0.43206617079 
-0.15565053533 0.81575685991 -0.55212862253 -0.12955746819 0.75587732091 -0.6398418179 -0.094443313035 0.71261453147 -0.69336292218 
-0.044020552467 0.69553675489 -0.71506900701 0.026705731899 0.71275854544 -0.69881434895 0.07246084308 0.7969161736 -0.59521895896 
0.11747517244 0.79396208815 -0.59364188873 0.13342480412 0.83345565279 -0.52884188428 0.13975917261 0.86255384185 -0.47195255839 
0.16287717174 0.86399938216 -0.45463810893 0.14928827421 0.91310006916 -0.37567211675 0.16000232128 0.92494799409 -0.33918036028 
0.15271565769 0.93953912567 -0.30323063903 0.14631896484 0.95033700393 -0.27108278658 0.12290057564 0.9635433384 -0.23121408022 
0.09794389536 0.97514171986 -0.19368177789 0.16531109587 0.96156692103 -0.18764945424 0.16848871519 0.96245219024 -0.16559978272 
0.27506563666 0.94377183843 -0.13271971108 0.3321022124 0.93827675385 -0.086670849827 0.32003340639 0.94544661615 -0.052255043266 
0.27487171039 0.96017616659 -0.026204691247 0.24091768135 0.96979260561 0.0017584213865 0.26402287478 0.96139550812 0.049073655629 
0.27749310749 0.95592538441 0.088777220749 0.27783166931 0.95218873114 0.12017130945 0.23411532389 0.96338485839 0.11636065385 
0.17733433105 0.97837134193 0.1039530307 0.15051721314 0.98296870308 0.086880671575 0.1103462267 0.99127566825 0.065131766284 
-0.040579519393 0.96225388471 -0.26883412762 -0.071077918714 0.95818102819 -0.27714233037 -0.29320184164 0.94976519456 -0.083117647509 
-0.41036775522 0.89807835829 -0.12481422134 -0.23588714886 0.96984726296 -0.04894510184 -0.2233851893 0.97189277461 -0.028348552725 
-0.17613053788 0.97979141314 -0.036544993954 -0.14712119358 0.98556256993 -0.043979371631 -0.12223736933 0.99180300676 -0.02647591166 
-0.1679994616 0.98333937826 0.045532107309 -0.19370762153 0.96844464941 0.15119390253 -0.19327588262 0.93218762729 0.29988400215 
-0.11702887809 0.90601139218 0.40249702721 -0.005520365464 0.87589010808 0.47884277795 0.11091988448 0.86031292251 0.49522849789 
0.20972467381 0.85035203163 0.48156317412 0.28509879956 0.84188567458 0.45782160294 0.35354853728 0.83087249392 0.42774112246 
0.41840630194 0.81768284953 0.3912150371 0.47886961325 0.80798169016 0.33825370165 0.50607732796 0.81801086541 0.27055406453 
0.48089563357 0.85737054916 0.17459724021 0.380156366 0.91486779328 0.075493352766 0.35443464387 0.92282003408 -0.1436067359 
0.34736871701 0.93221201496 -0.085666137624 0.35430263808 0.90935679014 -0.20668698769 0.31726632916 0.90864409095 -0.25201854338 
0.2477871789 0.92527725231 -0.28194643761 0.18437938083 0.93716708159 -0.2892304847 0.13366036327 0.94362856391 -0.29701135109 
0.09387072482 0.94931343318 -0.2993507127 0.10227704311 0.93291678035 -0.34318723057 0.09746863887 0.91930204314 -0.37957956389 
0.066331902527 0.90005586171 -0.42817482728 0.051356863858 0.8657394397 -0.49110229512 -0.018792207978 0.76416090149 -0.62788239066 
-0.16058795909 0.59964127599 -0.77833656824 -0.32282814547 0.44543515336 -0.79037234309 -0.41249373751 0.47021734369 -0.7579934139 
-0.55304335226 0.32911646492 -0.75883638537 -0.61394828853 0.40338965885 -0.67623119545 -0.61638399558 0.5341497462 -0.56229337856 
-0.59141177927 0.66674498775 -0.4434485677 0.36993882493 0.92608368655 -0.032633585761 0.36741337085 0.92347360728 0.01531923859 
-0.064709682239 0.95633629405 -0.28397727409 -0.042665147646 0.97070522791 -0.2315893175 -0.091657535593 0.94414382194 -0.31161845221 
-0.15175929521 0.89974162902 -0.40536789965 -0.15849980843 0.85288230552 -0.48907610734 -0.15070823232 0.79595548924 -0.58009842304 
-0.11367885584 0.73315750867 -0.66345747991 -0.066503218203 0.7253636951 -0.68275737092 -0.024310025884 0.77027723397 -0.63380838359 
0.15264564743 0.74144781002 -0.65236197595 0.11609148856 0.73670021308 -0.66530133141 0.21735288317 0.73868728096 -0.63309056109 
0.28441685646 0.72207313455 -0.62841023907 0.28845098306 0.78065928389 -0.54695693554 0.27291766353 0.84414326408 -0.45620154279 
0.23882314653 0.88933562442 -0.38520137125 0.18607834631 0.9257027953 -0.31730716585 0.12273834494 0.95848906282 -0.25042047807 
0.088552149447 0.9621559158 -0.22082429624 -0.00055574961236 0.98505949017 -0.17027564916 -0.021277067427 0.98548216955 -0.16402392835 
0.028866236493 0.98211640543 -0.15393862183 0.13725458695 0.97527674222 -0.1401278137 0.18567461712 0.97342602941 -0.10958120648 
0.208879957 0.97353490273 -0.070529393155 0.2307324973 0.97180542599 -0.036523982919 0.2292063338 0.97301919094 -0.0059514295604 
0.24299776401 0.96839011175 0.034351640307 0.2424104827 0.96824159518 0.059238067027 0.22983898425 0.97042313344 0.072525276377 
0.21986536685 0.97189896884 0.083127250652 0.21056090438 0.97201285097 0.10110179048 0.18383088367 0.97346990572 0.13122887026 
0.14378486338 0.97996426492 0.13417977873 0.11200834081 0.98487731086 0.12977770692 0.07630388155 0.99182560169 0.086786485145 
0.048453958779 0.99802119953 0.035026199006 0.031580684124 0.99837435322 0.034632071673 0.013709830145 0.99662233169 -0.022006644355 
0.0082214743805 0.99785064084 -0.045499364731 -0.012503181204 0.99720424918 -0.037287762743 -0.0450129137 0.9967769582 -0.026984739541 
-0.11821927658 0.98548869507 0.038410493164 -0.19770478407 0.97155347053 0.097536449652 -0.29630662491 0.94427610561 0.13372579912 
-0.35769336871 0.92320254836 0.13179411844 -0.41319702207 0.9027646417 0.11277850214 -0.4769668589 0.87366898644 0.081223014029 
-0.4813614957 0.87464136722 0.017968546855 -0.46573191017 0.88266289803 -0.055621797144 -0.45763839203 0.88056351453 -0.11850870843 
-0.383461911 0.90186518358 -0.17511470838 -0.3262129956 0.91863535935 -0.22169960201 -0.33731883871 0.90708992814 -0.25108147289 
-0.28395019365 0.91670655854 -0.27120630196 -0.22307496952 0.93012785421 -0.28948825296 -0.17675550483 0.93719583779 -0.29260996568 
-0.11021942512 0.95248466232 -0.28347546579 -0.030237712748 0.97300142906 -0.22627515805 0.012915072109 0.98593778016 -0.15754974811 
-0.063808125492 0.97955294013 -0.18955929562 0.0078905815805 0.99084767513 -0.12057918226 0.058927678011 0.76655243282 -0.63565659784 
-0.013559158885 0.8481556865 -0.52090633141 0.58081688115 0.80897327554 -0.036789810576 0.5270492156 0.83838913899 -0.0069088874466 
0.58953912051 0.78892106781 -0.10799919571 0.60341346592 0.77529723037 -0.17208429639 0.57245414116 0.77985073526 -0.23840936085 
0.50256017051 0.80485690024 -0.29709817852 0.41964370267 0.83309218546 -0.33636713826 0.34545033966 0.85355638918 -0.3730763948 
0.26950934577 0.87694528881 -0.37827557965 0.18864635242 0.90233936646 -0.36471980794 0.18284000619 0.8792647672 -0.42632153471 
0.15748417728 0.87196269701 -0.46204170303 0.12059966436 0.85278679204 -0.50688007656 0.07030961223 0.80688006817 -0.58069704045 
0.0019778594296 0.73206022984 -0.67455900242 -0.082713713251 0.62952511361 -0.77170964521 -0.49569322541 0.2641664002 -0.82059950491 
-0.40700642364 0.24457110134 -0.8707196821 -0.55575086177 0.38509708603 -0.73221005061 -0.60221557959 0.4733680147 -0.64067559987 
-0.63382345375 0.54949286426 -0.54149132171 -0.67432312849 0.55818008534 -0.46348727611 -0.2444738666 0.96639568821 -0.059851363972 
-0.33729291617 0.93517863245 -0.076751950405 -0.18907396378 0.98050737908 -0.046265575337 -0.17007324492 0.9824802256 -0.037739201397 
-0.1710347859 0.98222556579 -0.035886895409 -0.16126033047 0.98585665823 -0.025339591602 -0.17073439809 0.98452052601 0.0054983798432 
-0.20592758523 0.97409533241 0.072009726016 -0.26939759106 0.92729920985 0.24535345973 -0.26255089552 0.86207177077 0.42525480795 
-0.16332457689 0.80835294458 0.55791881715 -0.010112309213 0.84448302581 0.53236549012 0.082740408786 0.85939189431 0.50116710232 
0.16582657881 0.87283457371 0.45602639948 0.21517010127 0.88493135152 0.41043419717 0.24816370929 0.90181934948 0.3486344171 
0.27894227783 0.91101719914 0.29571320504 0.29113576427 0.92348431225 0.22996566305 0.29639747272 0.93509711739 0.16247456743 
0.24104909433 0.9620398675 0.093137703383 0.16086870626 0.98242801684 0.033186947246 0.29033645817 0.95012306981 0.022402398627 
0.36443632318 0.92431224766 -0.0004148127675 0.57952962066 0.81282179441 -0.035369529944 0.40418195256 0.89801317355 -0.030246466879 
0.64592863788 0.7571377323 -0.075505817211 -0.5226219499 0.8277971255 -0.17025360588 -0.52172368796 0.83487285208 -0.1294433766 
-0.63369475452 0.74207054442 -0.20434062843 -0.61336219693 0.76373975964 -0.16288170174 -0.26539039596 0.46559452445 -0.84307325721 
-0.17765154758 0.59113613517 -0.77420317449 -0.11590147065 0.96000170468 -0.25401449078 -0.14576014639 0.91472561146 -0.36163313707 
-0.15761267688 0.87350168731 -0.45663630832 -0.13118821268 0.83313109371 -0.53104490004 -0.099918488561 0.82056429135 -0.55037857961 
-0.075862881671 0.8622541582 -0.48492369876 -0.063667822271 0.92305596424 -0.37438793742 -0.011802681296 0.91378804941 -0.39606089179 
-0.066417422654 0.95558563029 -0.28583773015 0.046535493931 0.85134571783 -0.5129476938 0.13243199256 0.76870871239 -0.62109076146 
0.20967118296 0.72492836318 -0.65539591115 0.24744919382 0.74448217462 -0.61703495219 0.27673966539 0.77626465579 -0.56603525042 
0.29287703546 0.80195238463 -0.51837928626 0.30134821735 0.83240294757 -0.46156824082 0.29124884108 0.86881268676 -0.39501239453 
0.22874526542 0.9067995495 -0.32563935877 0.069339140207 0.96845986985 -0.21349450005 -0.004593930702 0.98400409258 -0.17157869709 
-0.048425203007 0.98710600699 -0.15190769993 -0.066339421462 0.98672139035 -0.14773227328 -0.066003592383 0.98660233598 -0.14839105318 
-0.047424033627 0.98764905993 -0.14829276238 0.009944078735 0.98804302129 -0.134564777 0.11551580172 0.98688647688 -0.099767109785 
0.16470392881 0.98421204228 -0.057227020409 0.18156946773 0.98257229475 -0.022011710639 0.23040729443 0.97065506565 0.032577824135 
0.26401034289 0.96104799084 0.077016916263 0.27761362071 0.95403604262 0.10797575651 0.27614710188 0.95275950733 0.12421437297 
0.2658666925 0.95429694407 0.13399910967 0.26482682311 0.93374173422 0.22971679471 0.16469181607 0.97541994356 0.1416708919 
0.13035148504 0.97124821011 0.19356681099 0.090132448351 0.97620316354 0.18582746285 0.043152786826 0.99005131603 0.12382182422 
0.015402796637 0.99470767812 0.099070278559 -0.0050904209113 0.99624919547 0.084517217646 -0.035018459246 0.99628053884 0.074564203056 
-0.073098055487 0.99186269751 0.086784323576 -0.11535247134 0.98626156415 0.11104482396 -0.19529697208 0.96062253245 0.17088567564 
-0.2535480286 0.94588090927 0.19971636838 -0.30395831629 0.9322820898 0.19133280796 -0.35405940474 0.91803463682 0.17313988316 
-0.40914358042 0.90063008521 0.14001027493 -0.38967299222 0.91396610867 0.069700073949 -0.3961044337 0.91481515893 0.016296307807 
-0.37678122884 0.92368021203 -0.032845176334 -0.35376173721 0.91716679259 -0.17257066518 -0.39665249616 0.90669695551 -0.13720433253 
-0.28221546582 0.93400944055 -0.20043272664 -0.22250206559 0.94614721028 -0.22123684804 -0.1869985914 0.95159351955 -0.23676951425 
-0.14804379836 0.95604745586 -0.24975655093 -0.13106364007 0.95522689192 -0.26262864987 -0.068655641641 0.96993241906 -0.22555957947 
-0.017794101255 0.9789799722 -0.19456195618 0.037407786241 0.9881660938 -0.14482913054 0.04577257099 0.99355002977 -0.10082570993 
0.015916491388 0.9980953684 -0.044020860493 0.029813725571 0.9972673288 -0.057736900764 -0.053294923644 0.98803185857 -0.11013817972 
-0.11082176713 0.97261573734 -0.18783368572 -0.12170662505 0.95820705526 -0.23256116859 -0.12220850716 0.94113123848 -0.27489802793 
-0.11872238008 0.9261800007 -0.33009147508 -0.10497577351 0.92306043506 -0.35559541646 0.013592587464 0.98799648263 -0.15001933933 
0.0054656696805 0.98386570731 -0.17818106179 -0.0031272640686 0.9911985835 -0.13073734723 0.030045928329 0.99595596783 -0.056100725571 
0.087340182913 0.99049869017 0.059022746229 0.066693793054 0.99614740134 0.018071339125 0.043904734154 0.99716531153 0.042240638645 
0.0016352544172 0.99855675688 0.043696300092 -0.047262667356 0.99193235558 -0.031655123068 -0.093236549386 0.98416352358 -0.13266097007 
-0.11145235377 0.98315971464 -0.1429947517 -0.11791114669 0.97956721519 -0.15089635838 -0.11096389941 0.96547771312 -0.22584185585 
-0.37747696348 0.91962487131 -0.094690669747 -0.31509419188 0.9460104529 -0.064242543751 0.68026325987 0.72100256205 -0.12943788759 
0.68235859614 0.70051401294 -0.1996818769 0.66649832939 0.69278283172 -0.2691930857 0.6003940869 0.72404992369 -0.33512984845 
0.54093116224 0.74103943827 -0.39270332981 0.4794590648 0.75594396798 -0.44328174842 0.39173149101 0.79039602 -0.46541239651 
0.32303007992 0.80445080954 -0.49375472102 0.27792135024 0.80151772263 -0.52641630387 0.20260911253 0.82835618417 -0.52016780081 
0.14764066889 0.82087539228 -0.55066331327 0.094462535041 0.81289954479 -0.5709617433 0.028754372334 0.78851326118 -0.61377256809 
-0.049965066071 0.73358167991 -0.67021429583 -0.10669461195 0.70021973433 -0.70542617156 -0.20041252454 0.64743796225 -0.73209987797 
-0.13976854047 0.72926170216 -0.6608245537 -0.28098170386 0.59454857713 -0.74704551872 -0.37913130151 0.50643023294 -0.77211312279 
-0.46011482743 0.45352212372 -0.73975721734 -0.54433407869 0.4871201094 -0.67562327761 -0.61405325298 0.49285695665 -0.61235754196 
-0.6738220495 0.50158659484 -0.53617942399 -0.73192998127 0.49555822135 -0.46392668766 -0.67042101075 0.64110387416 -0.36092437933 
-0.73822901396 0.56389171551 -0.36402038096 -0.64961362945 0.70225421575 -0.27424595303 -0.72127988868 0.62526461619 -0.28175192215 
-0.70471908001 0.6716275753 -0.2113237997 -0.66799021655 0.7106952252 -0.15577367988 -0.60108716654 0.77435876183 -0.1063281062 
-0.51021255404 0.84451753073 -0.06093711045 -0.40354104802 0.90181545306 -0.027208890349 -0.34784605536 0.93352961104 -0.00076692023888 
-0.34647735874 0.93728057162 0.01995346602 -0.36806572445 0.92172191678 0.073416387381 -0.37489536356 0.9173471741 0.11395026826 
-0.39006551094 0.88693220029 0.19821205182 -0.4130271726 0.83897796588 0.313544085 -0.41984322015 0.77749413336 0.4544683807 
-0.391602221 0.68076904417 0.61402873111 -0.29694899877 0.65070375585 0.69138741222 0.085128778828 0.86333875231 0.49237052373 
0.008175421097 0.8055373436 0.57967730058 0.12196931081 0.92776009594 0.35028125216 0.091679941578 0.97312451196 0.19591466181 
0.065087872734 0.98794663323 0.11581382544 0.052922125778 0.98883019107 0.080658012446 0.0048446658626 0.997280029 0.018372124527 
-0.032637028155 0.99418542552 0.0036250626163 -0.056763767612 0.99700491316 -0.020712230446 -0.033591971446 0.99845095366 -0.025817717372 
0.12133887128 0.98263817288 -0.0065104248838 0.18599164425 0.97832556434 -0.022310672295 0.2354563805 0.96993494477 -0.042498496635 
0.3971398302 0.90478974207 -0.051218717847 0.18645491583 0.9722935949 -0.072642200334 0.5676334723 0.81651946354 -0.069862291423 
0.62409027467 0.76899094206 -0.11466283121 -0.10344991935 0.71958036676 0.6802076745 -0.2098082565 0.63928342873 0.73692563745 
-0.093105136041 0.97395912135 -0.19813724479 -0.089948683619 0.95300439458 -0.28698904864 -0.061950810946 0.96928173573 -0.23338049777 
-0.08655847392 0.98481312544 -0.11373447479 -0.044305814616 0.96257844546 -0.26678649969 0.025260938479 0.90112797219 -0.38207880083 
0.10059251583 0.83989381943 -0.48550971229 0.17776092148 0.79491480543 -0.57597409924 0.21781299402 0.79980718149 -0.55496368426 
0.25425510906 0.79808817768 -0.54500492368 0.27569968856 0.82240331436 -0.49452081087 0.28951260255 0.85152053286 -0.434320229 
0.22927319007 0.90552775236 -0.34164319978 0.14705872724 0.95146690818 -0.26005081269 0.075242468572 0.97456739464 -0.20400254386 
-0.022965128661 0.98049426869 -0.16093738805 -0.092742941968 0.9868693654 -0.12865049081 -0.087805148635 0.98743288139 -0.13058999051 
-0.077987059334 0.98745861871 -0.12604897793 -0.054476639458 0.98925752888 -0.1258785628 -0.010241017743 0.99002408468 -0.12311593064 
0.064829505976 0.99214959816 -0.10295945488 0.13690246965 0.98590382298 -0.057959671929 0.21311945117 0.97616633007 -0.013129501463 
0.24250825063 0.96914983348 0.028596020357 0.26672546288 0.96030155228 0.070689495033 0.30015056553 0.94629929029 0.11475513368 
0.32545450745 0.92863000357 0.17030797558 0.34623539576 0.90954991793 0.22694100485 0.30044774334 0.92257240795 0.2283239551 
0.10989327443 0.98075806737 0.15836958626 0.17188981328 0.9620714719 0.19391613969 0.07232533819 0.98579506567 0.14638763883 
0.034272758888 0.99136049105 0.1237244207 0.0020989071784 0.99350942357 0.1105038654 -0.029004718831 0.99546118777 0.063611291709 
-0.058463046436 0.9945873295 0.061838158158 -0.093525529102 0.98672166216 0.11856090153 -0.14237661509 0.97689223279 0.15667186463 
-0.20083968701 0.95900434857 0.19012274953 -0.24490320956 0.94788625476 0.20176799445 -0.26499639515 0.9485714756 0.17106125106 
-0.27124040787 0.95228448084 0.12702772888 -0.26170609925 0.96066069703 0.074449196458 -0.27181893593 0.96071701411 0.03150613079 
-0.29025212842 0.95610768711 0.00097184671241 -0.30434364539 0.9504836601 -0.025683328057 -0.27067901749 0.96125036675 -0.036469813415 
-0.27164291863 0.95862384195 -0.080589859038 -0.18803290624 0.97234796131 -0.076248704278 -0.29566056296 0.94881299848 -0.10681783126 
-0.31902594463 0.93633296945 -0.14042214052 -0.29130497074 0.94128399459 -0.16776369266 -0.24376934345 0.94774312295 -0.18582181595 
-0.13667195522 0.96897045705 -0.19060641623 -0.10096782702 0.97392292782 -0.20088656461 -0.085040577086 0.97224698712 -0.21468454905 
0.21383805861 0.95190104475 0.20789430791 0.17406424018 0.97379972709 0.14346503851 -0.099659334992 0.98548721575 -0.12604629242 
-0.10342460126 0.99373605773 -0.0083396828254 -0.087070063552 0.99349887809 -0.044053471209 -0.095521380929 0.9929630182 0.063689363481 
-0.055372395149 0.98092617226 -0.1731255294 -0.023996218287 0.95890316529 -0.27252539774 -0.0038535462595 0.94564647378 -0.31475971913 
0.036028798065 0.92251168182 -0.36789269079 0.076756468206 0.90321455008 -0.41232726649 0.069864834476 0.92518623528 -0.36547130658 
0.06813481595 0.94371529439 -0.32121403541 0.10638218577 0.94059417689 -0.31715131641 0.12299084471 0.94277724179 -0.29942852569 
0.053634015123 0.96213360397 -0.2187194175 -0.0039540091651 0.98202619612 -0.15943006377 -0.036053059555 0.98094200888 -0.1442708164 
-0.10393361454 0.98340433566 -0.10505030048 -0.10868000917 0.98641429572 -0.11227427121 -0.19942952293 0.97376100308 -0.10120721836 
-0.19407408138 0.9725826542 -0.11490692839 -0.16793850942 0.97361100903 -0.12686410929 -0.040942295637 0.98807738526 -0.11304366445 
0.042800028694 0.9940148652 -0.098782400061 0.071867109328 0.9928345836 -0.092236211288 0.12973801763 0.98693147912 -0.059915311349 
0.19500836231 0.97902320352 -0.0015146116254 0.23428072965 0.96968699808 0.050554559485 0.26590680053 0.95817705039 0.10208716059 
0.29018712302 0.94293102837 0.15374073061 0.3012971308 0.9300465096 0.20345623328 0.2136032547 0.96041639463 0.15035447473 
0.1628752631 0.96868956004 0.14814002807 0.16283406165 0.95702921159 0.18325589328 0.038134571662 0.99442537594 0.015619254587 
0.15727365572 0.96460339966 0.1982906623 0.11932258773 0.97886910321 0.15797399733 0.086592260192 0.98565716665 0.13972849797 
0.051455159958 0.99053666169 0.11215290104 0.015473183414 0.99618582788 0.084252108823 -0.004754331976 0.99553540692 0.091191807939 
-0.029130932741 0.99620978132 0.066189333301 -0.040554550826 0.99768243206 0.02525266072 -0.048390452491 0.99770089944 -0.015428602312 
-0.05548378364 0.9968782419 -0.012484605863 -0.10324318063 0.98517406344 0.023638334129 -0.13509373267 0.9828819419 0.058444433975 
-0.12992496056 0.98817559884 0.023401794892 -0.12766299018 0.9892980689 0.0090102279927 -0.13021393364 0.99038196935 -0.0026643268729 
-0.16925414242 0.9848909941 -0.01483142005 -0.21432141356 0.97528256327 -0.027680229149 -0.067447396893 0.98729618538 -0.087697130545 
-0.049618384381 0.99248637268 -0.097974998618 0.032231027037 0.99263944361 -0.113959552 -0.15108479428 0.97878746912 -0.10635896829 
-0.26989052791 0.95510683006 -0.12086395016 -0.25861754964 0.95414340325 -0.13525738333 -0.21386091506 0.9616901858 -0.15245177007 
-0.17351891747 0.96655994918 -0.17153910255 -0.11133447377 0.97501399255 -0.16941087877 -0.018178344658 0.98429487874 -0.15084032045 
0.64677816401 0.74322162791 -0.16341432787 0.63759456033 0.73652265981 -0.21939109185 0.61348815742 0.73331328371 -0.2827969649 
0.59526606378 0.72572014266 -0.34371235132 0.55433852401 0.72394954762 -0.40561694379 0.51023037065 0.72286359429 -0.46324331645 
0.45528439145 0.72943756888 -0.50689324507 0.39008692169 0.74479105051 -0.53609954267 0.29866806683 0.78813185351 -0.53741236342 
0.22026500754 0.81331791137 -0.53575189739 0.14512383507 0.83594080513 -0.52656216911 0.077239591363 0.84228718909 -0.5314601049 
0.027115149516 0.80519477322 -0.58999447666 -0.031963931918 0.77194537709 -0.62969957045 -0.077725680072 0.74574720911 -0.65672640581 
-0.081890820767 0.82242652298 -0.55415610166 -0.1177440241 0.85616298578 -0.47937015259 -0.078838516441 0.93756335784 -0.33519303433 
-0.2285862671 0.68681007535 -0.68451510395 -0.28426327831 0.65572943984 -0.69511452012 -0.35815353682 0.63296694555 -0.68450833732 
-0.4425512457 0.5981993076 -0.66385663897 -0.52960815033 0.56798035413 -0.62669206215 -0.6013514835 0.55094576367 -0.57494459039 
-0.66554291646 0.54494980989 -0.5041607391 -0.71299748432 0.5570179131 -0.41995736263 -0.69451958359 0.62905986709 -0.32421588007 
-0.70577180039 0.65468654341 -0.25068180892 -0.73189771742 0.64661213475 -0.19902735383 -0.72071170723 0.67737949895 -0.13684921878 
-0.70599117624 0.69995021066 -0.085338526015 -0.64679402231 0.75655302652 -0.034458556628 -0.55767715082 0.8252371669 0.0086153386827 
-0.5351449008 0.84218769856 0.053364365753 -0.54484567781 0.82917015094 0.11347646789 -0.54771133843 0.81236229908 0.1757430348 
-0.57089424407 0.76244422666 0.26013096577 -0.564598469 0.73338185901 0.35793161907 -0.58137525945 0.64550009954 0.49386377895 
-0.52789826382 0.61039072789 0.58649736955 -0.46172293227 0.58086146973 0.66486724879 -0.37869083254 0.57170308754 0.7240556574 
-0.27018692605 0.65087468161 0.70528312947 -0.12440165591 0.71019787916 0.68812882586 -0.19025883076 0.73379530278 0.64895266826 
-0.05385994234 0.702142372 0.7062343489 0.020361631191 0.76800969026 0.63612246877 0.070051817696 0.85325837694 0.49228128061 
0.084140246513 0.94093428386 0.31577299886 0.050461909955 0.98278200309 0.156707291 -0.043343677757 0.99051897105 0.0016861543183 
-0.12674972617 0.98669158906 -0.096429518866 -0.16490374677 0.97945023066 -0.11555387352 -0.1175979908 0.98944380413 -0.069184448999 
-0.063979601821 0.99262989688 -0.038215780369 0.037726144736 0.99189128945 -0.014837311347 0.15316927937 0.98761217352 0.0034829241733 
0.076482483041 0.98832483998 -0.058993360877 0.034272601178 0.99621835845 -0.075297680874 0.028300174238 0.9958877683 -0.082885276293 
0.15814598883 0.97901332608 -0.081463422893 0.030347055233 0.99508111534 -0.089427919861 0.3309675169 0.93621576018 -0.073448999454 
0.41446687989 0.89936751771 -0.084257673109 0.49239693739 0.85713337128 -0.11839727416 0.0056925940041 0.95050098512 -0.27260581976 
-0.015076250476 0.96903873783 -0.23115550237 -0.03801639906 0.98159052313 -0.18221957243 -0.051531802257 0.98666722427 -0.15359975551 
-0.055049935689 0.98496471902 -0.14361394879 -0.049010755233 0.98276588538 -0.14346307786 -0.059442510531 0.98656622035 -0.13037062354 
-0.090700085804 0.989359242 -0.099534159682 -0.20656517948 0.96936830592 -0.039754451305 -0.34669916738 0.93144353578 0.032771767892 
-0.26382735884 0.96150383968 -0.074590668495 -0.28437149288 0.95412870753 -0.050463509382 -0.26306313183 0.95967328478 -0.092175698413 
-0.2690893625 0.95203584185 -0.099793803776 -0.13016880203 0.97491041326 -0.10491281632 -0.012140214326 0.99374284272 -0.10899786189 
0.0075911645646 0.99420922944 -0.10509107768 0.044766697338 0.99256926912 -0.086578696258 0.12996449647 0.98518076496 -0.026942968161 
0.19409207625 0.97952067977 0.025810566039 0.20106529353 0.97746916278 0.056864139391 0.19503063188 0.97667643363 0.078775266382 
0.14813017938 0.98373194708 0.06357710244 0.086999538276 0.99017337744 0.036353245406 0.011441271566 0.99787796706 -0.014502479139 
-0.039347573923 0.99605153299 -0.047767025184 -0.048551726352 0.99341675291 -0.075874332465 -0.10044956466 0.98685650472 -0.12287249922 
0.0073225731095 0.99428763532 -0.022168386249 0.073409698869 0.97750745865 0.073831340507 0.060083067798 0.98891222089 0.10543603193 
0.039190735456 0.99376603331 0.10243846071 0.020520538298 0.994438654 0.10078958551 0.0032062252577 0.99522508669 0.097198036855 
-0.018493929923 0.99659414162 0.063884069587 -0.041241341168 0.99758502087 0.01137605217 -0.024884802717 0.99319718639 -0.068758844636 
-0.00016750053691 0.98617173814 -0.16010201938 0.01359694173 0.98343231068 -0.16208250288 0.037485283723 0.97928199031 -0.18005447692 
0.026213127369 0.98958548479 -0.12294426326 0.016801552241 0.98901802344 -0.11697910915 0.027225631522 0.99144160415 -0.10845969116 
0.012228267792 0.99569749371 -0.086795707629 0.0011111173408 0.99579311666 -0.09111853124 -0.27996875412 0.95444490158 -0.028955600319 
-0.42791200989 0.89952676794 0.059069555702 0.066908759481 0.98910256011 -0.12675083685 0.030129214709 0.99236493869 -0.11872971803 
0.078520802073 0.98312428472 -0.14747839604 0.024768017017 0.99276019887 -0.1166414899 -0.019641371581 0.99224274776 -0.11280752692 
-0.14024167227 0.97865382512 -0.14098527191 0.52183022549 0.83154935636 -0.16783424297 0.552462192 0.80031382368 -0.22795921784 
0.53026264506 0.79535105633 -0.28668187654 0.51233981359 0.78652748048 -0.34294936212 0.49899579361 0.76898940721 -0.39521432428 
0.47024813605 0.7615454494 -0.44423332959 0.42452847642 0.76921708389 -0.47573596145 0.3648260845 0.78394603912 -0.49958164543 
0.29825422778 0.80363856801 -0.51461619198 0.21355486124 0.84330835439 -0.48763336614 0.13173954619 0.87854065217 -0.45695207115 
0.073578290113 0.87561341755 -0.47558654302 0.018510549953 0.87623154037 -0.47654970839 -0.028094526703 0.86706138369 -0.48371610088 
-0.038879865602 0.96559150636 -0.24730566225 -0.072756080841 0.97134581777 -0.21882817394 -0.038266196636 0.99603160864 -0.07271903833 
-0.10862893727 0.95043707591 -0.28740219441 -0.18667766781 0.84084680511 -0.46824120593 -0.28777308237 0.73546459669 -0.60979535397 
-0.34253870955 0.7170254286 -0.60468574317 -0.39420405744 0.72473937691 -0.56118928377 -0.45175015721 0.7244685822 -0.51578503567 
-0.5202232112 0.70655679997 -0.47263872956 -0.5452182574 0.72538102742 -0.40418519124 -0.52279696548 0.7912166776 -0.30565243919 
-0.54087565418 0.80330375853 -0.24085420017 -0.57635562588 0.78795927121 -0.19540298327 -0.64985117776 0.73739655116 -0.16124668655 
-0.68634966421 0.71631480146 -0.11800242097 -0.69477931211 0.71447826535 -0.06848675849 -0.66766730955 0.73985661917 -0.021763770952 
-0.59457938127 0.80058205445 0.022364540794 -0.5602997195 0.82515763486 0.064104042472 -0.56476316986 0.81304343283 0.11987037468 
-0.62238209133 0.74941682065 0.21781790856 -0.6383612183 0.69191290203 0.3196935003 -0.63911460009 0.64018494075 0.42072883028 
-0.59826793591 0.62256412106 0.50323738773 -0.54401304751 0.60046088548 0.58116138492 -0.47620037606 0.60143698118 0.63596602472 
-0.40564730175 0.61011704939 0.67359168344 -0.31256623824 0.691716271 0.64599305957 -0.24168859184 0.74819605772 0.61440405458 
-0.13184950438 0.78487487175 0.60090105733 -0.1520597618 0.86008057673 0.47177155748 -0.07948371965 0.773762756 0.62759151897 
-0.025655553811 0.77478039493 0.62768217458 0.04037885111 0.79409861341 0.60514122487 0.072504642138 0.85479101226 0.50070110096 
0.081276420926 0.92289585669 0.351223652 0.042769937657 0.98328293564 0.14118336006 -0.018352502049 0.99081912324 -0.0040317784151 
-0.094417127665 0.99016511571 -0.086134221068 -0.11669890933 0.98744299728 -0.10353555205 -0.087379767598 0.99302277411 -0.066386429146 
-0.050623197255 0.99540273955 -0.041761457762 -0.03824113062 0.98421881786 -0.058289280419 -0.060690962042 0.99230289147 -0.084919773554 
-0.022634145575 0.99588991159 -0.086514097395 -0.00055395107223 0.99563273862 -0.091529787471 0.022640551844 0.99432838983 -0.10210058642 
0.01817483342 0.99376682536 -0.10885217917 0.025705213559 0.99420794623 -0.09828526785 0.0070516808592 0.99336042457 -0.11480871859 
0.18079855174 0.96909453428 -0.10052596617 0.053088622423 0.99057655401 -0.1231035148 0.02754852791 0.99335768706 -0.10347095565 
0.022043046284 0.99695482169 -0.073334638518 -0.075865349403 0.99118663427 -0.09804512783 -0.057344816103 0.99295726541 -0.072040258711 
0.10518110407 0.97735728209 0.1317362722 0.10128560457 0.97310073142 0.19348970685 0.080572941866 0.96410486731 0.25005734144 
0.035118098204 0.96202137627 0.21783180545 -0.033258463837 0.97716984713 0.10483310001 -0.085114539011 0.99545728097 -0.023178195739 
-0.098990576546 0.99133533399 -0.070404072645 -0.089618110889 0.9935209989 0.045930926791 -0.078783574979 0.98031411061 0.16438952438 
-0.100592088 0.98302446699 0.14585794981 -0.11152126962 0.94013085727 0.29730354367 -0.097686386044 0.99409948665 0.024785855541 
-0.060459624163 0.99029313873 -0.11553733716 0.28846996857 0.9367402355 -0.19182155551 0.23837824638 0.95484734735 -0.14939138632 
0.40794911101 0.86851554333 -0.26134886403 0.41506796048 0.84959855183 -0.32153730675 0.42271210981 0.8261626401 -0.36977536451 
0.40526641617 0.81862929746 -0.40564570032 0.37215746493 0.81651511901 -0.43691911271 0.34562760786 0.80803273308 -0.47420001422 
0.31136151548 0.80840156872 -0.49841552125 0.21890978202 0.86067079065 -0.45073914028 0.077948819136 0.95365337639 -0.28568829736 
0.016996477969 0.96591470503 -0.25451116986 -0.0099970071471 0.96498000534 -0.2563992203 -0.032651224705 0.99438986835 -0.098942418604 
-0.0217097051 0.99384662416 -0.05426087352 -0.0351026543 0.99347206094 -0.10792301674 -0.045942775814 0.99283117822 -0.08877479152 
-0.080252761623 0.97829058025 -0.18245359364 -0.14459349991 0.9387694336 -0.28810416205 -0.22390171959 0.86867096925 -0.42361736441 
-0.2997240068 0.80997394327 -0.49291801848 -0.31253716615 0.84401182847 -0.4227812042 -0.35784871849 0.84115167294 -0.39575597679 
-0.3665960066 0.85460426674 -0.35125126138 -0.36533982393 0.87724733594 -0.29622846345 -0.31397941598 0.91915147104 -0.22961446605 
-0.40383266202 0.89160666627 -0.14462801464 -0.30923987053 0.93304268021 -0.14111975052 -0.5266228503 0.8223638605 -0.14544467859 
-0.58039652003 0.79945239534 -0.11288793832 -0.59401021924 0.79355651304 -0.063962503915 -0.58310408966 0.80932614941 -0.028905745321 
-0.55622805538 0.8300862881 0.018377702784 -0.56064136992 0.8246938043 0.061846672342 -0.55407607973 0.82526955841 0.097162307873 
-0.6024090819 0.76963388843 0.18429716218 -0.65072813638 0.63212692416 0.41725092755 -0.66299253333 0.66579360287 0.32999188933 
-0.60470387897 0.63103189499 0.48339432729 -0.54440313212 0.64508648839 0.53136657996 -0.47667755565 0.66498237391 0.57455870401 
-0.39691313428 0.71143375029 0.57242236597 -0.32299568838 0.7452696745 0.58061254882 -0.225189914 0.83308644866 0.48528901557 
-0.16200383902 0.924717345 0.32215776725 -0.25051092158 0.94912638198 -0.15443496329 -0.15834532917 0.97575557468 -0.13103359534 
0.041582712972 0.98087933254 -0.16672624389 0.058018094513 0.9759079896 -0.20716896789 -0.14114626398 0.98039301474 -0.13683643161 
-0.046220260384 0.9871806763 -0.12527840048 0.031588757674 0.99288204434 -0.11445349351 0.030361058577 0.99427989179 -0.10169115091 
0.012972776604 0.99546646483 -0.090190424914 -0.04959131194 0.99403541281 -0.093212815895 -0.14167830936 0.98298717632 -0.10577760593 
-0.078328838224 0.99415835232 -0.063598292596 -0.076708575496 0.99368028356 -0.05497022003 -0.075156156952 0.99043918452 -0.057324339052 
-0.14860345484 0.98228833152 0.0054600134015 -0.21252410399 0.97315068102 0.051999096462 -0.25931341722 0.96127353475 0.062566146039 
-0.32414673831 0.93894859502 0.08689495449 -0.4048336463 0.90232713977 0.11407416458 -0.46328040086 0.87555219924 0.13418065711 
-0.44478320626 0.89295134741 0.043339771842 -0.38062515036 0.92417880823 0.0042542503318 -0.35298761271 0.93395934149 -0.021771241888 
-0.30766593503 0.94726667839 -0.049091702714 -0.24812777003 0.96293469218 -0.067211046244 -0.20058021081 0.97254324802 -0.080382607953 
-0.15605026325 0.97489462121 -0.081154622991 -0.11239583318 0.98405442493 -0.09833486039 -0.091638032165 0.9854273116 -0.097656001063 
-0.055198986499 0.99102181944 -0.10349646486 -0.038519962472 0.99128050975 -0.1045811739 -0.0056601489165 0.99592325614 -0.08821386679 
-0.0031775644045 0.99705803529 -0.07277128164 -0.0048794639365 0.99778425117 -0.057579460646 -0.012867424805 0.99857040554 -0.04907346371 
-0.027937087626 0.99794307177 -0.046110437984 -0.05032990862 0.99574115289 -0.055352393662 -0.09494835103 0.99034356426 -0.098687808577 
-0.13032649964 0.97771296169 -0.15264709768 -0.085500479285 0.9877047075 -0.12303270327 -0.1320794555 0.97437222236 -0.17675781469 
-0.060759433848 0.99231810612 -0.10072298254 -0.029009862829 0.99578335793 -0.07962814008 0.0026547364874 0.99319508745 -0.016872456161 
-0.016756109285 0.99468478012 -0.059980222795 -0.049336520381 0.9667338379 0.20095133034 -0.055629295922 0.93314270626 0.34579774821 
-0.08064301548 0.89039763028 0.43660454244 -0.042110648842 0.82355774007 0.55361137805 -0.018496638152 0.78612221518 0.61502452272 
0.022986848192 0.7942464611 0.6067215322 0.05596578336 0.89655809653 0.43610389049 0.083457496664 0.90553075123 0.39437525649 
0.082999950602 0.97047298738 0.21925783964 0.013426815115 0.994995368 0.035311525293 -0.062124966588 0.99541458901 -0.058351446078 
-0.039243877013 0.99355110872 -0.10501456381 -0.021771561811 0.99094049055 -0.13089394505 -0.0096381144456 0.98849259417 -0.14621324829 
0.02320803554 0.98067560619 -0.18636344128 0.042650539779 0.97682527333 -0.20675361503 0.052007523597 0.97096512583 -0.21599541272 
0.068600862098 0.97569350672 -0.20798693314 0.15320605091 0.92635949063 -0.32924039396 0.080067332554 0.97375308211 -0.21266389112 
0.085611895115 0.97469837866 -0.20592339161 0.098680052044 0.9749325915 -0.19931197029 0.11271747554 0.97506321932 -0.19065490829 
0.10110511117 0.98019648033 -0.16590632683 0.17145474793 0.95837148312 -0.21979029413 0.22289275175 0.945976539 -0.2138694596 
0.2960011005 0.90736486048 -0.28275258594 0.11165628014 0.98192300815 -0.14579896804 0.066074211662 0.99036164212 -0.11042413226 
0.078309508972 0.95705175247 0.27072401958 0.066951356052 0.93935191775 0.33065246934 0.021397492981 0.928303309 0.36809181574 
-0.1364305423 0.97571905089 0.15762183227 -0.45040129664 0.88841024966 0.020967251922 -0.44130793657 0.89559608788 -0.0045240845443 
-0.45407866206 0.88664638837 -0.034980075766 -0.44070988611 0.89131932493 -0.064783883228 -0.3856923874 0.91601964711 -0.091971660891 
-0.31583226249 0.93803906616 -0.1178979908 -0.23013065751 0.96358676979 -0.12887113785 -0.16820138787 0.97585411782 -0.13220398529 
-0.10420666733 0.9863320794 -0.11623987345 -0.057535572798 0.99216280148 -0.10318539246 -0.040571381643 0.99554699304 -0.083800720708 
-0.037924632103 0.99655870183 -0.072423511385 -0.12084511897 0.98382897777 -0.12073426771 -0.088511498937 0.99243764232 -0.079689741649 
-0.062208484533 0.99087034807 -0.10253401047 -0.10532884374 0.97655095097 -0.18299916232 -0.03733305114 0.99635763508 -0.074932022185 
-0.19669211109 0.94959423233 0.19900069329 -0.24224698926 0.93691533182 0.21149300615 -0.30400982794 0.91396834172 0.21792913678 
-0.35580653681 0.89416224864 0.22444483209 -0.41387559475 0.85696329692 0.21730397607 -0.4721389421 0.836120033 0.2192347619 
-0.49078861778 0.84332311682 0.193041888 -0.60024621599 0.74307274328 0.27506997573 -0.61590591958 0.68971078397 0.37258424589 
-0.56586852999 0.701415831 0.41319375262 -0.49747039806 0.73200001901 0.44089452999 -0.42495536244 0.76772744254 0.4536654632 
-0.33673691447 0.82583253577 0.43622652061 -0.27783963769 0.85644469224 0.41894829923 -0.21925652767 0.90228071831 0.36708160669 
0.10696013018 0.96396049116 -0.23046209382 0.14665488401 0.95265366586 -0.25130434548 0.15534686225 0.9579819536 -0.23190601115 
-0.17216844076 0.93776933075 -0.27303951464 -0.23109982244 0.89730936093 -0.35993240441 -0.19915470934 0.94101329962 -0.24746857819 
-0.24392067212 0.94121972156 -0.21525936068 -0.2387686689 0.93201208058 -0.23999509816 -0.23456760663 0.94463354732 -0.20297671298 
-0.21885838644 0.95452618086 -0.17291606042 -0.11458209694 0.98566528277 -0.11836006144 0.2228579191 0.8911249665 -0.38412289902 
0.35523514695 0.86996451703 -0.33774464059 0.32189087615 0.87810201489 -0.34973736612 0.27193266859 0.89087291853 -0.35319318728 
-0.016387229364 0.88956269258 0.44789861162 0.25509988621 0.88826461101 -0.37395640666 -0.11490446185 0.98393866691 -0.12263637368 
-0.12223337576 0.98258549964 -0.12630503612 -0.10945613323 0.98637238228 -0.11350049255 -0.56044028761 0.75481039767 -0.33450799425 
-0.49836172252 0.82669716042 -0.2290969394 -0.085873558397 0.9274727669 -0.3557112761 0.2368053791 0.95571448925 -0.11513515489 
0.032095675281 0.99263766519 -0.10655852348 -0.077010719483 0.9934425003 -0.078137085596 -0.056822243102 0.99510069526 -0.074175447489 
-0.18678796383 0.95505864727 -0.20335198433 
Motion 1 1114 double
0.87168919445 0.82696348596 0.9268790846 0.96466074248 0.78152498597 0.87944601943 0.7283352404 0.84158442837 0.68855336194 
0.7981337165 0.67517099142 0.75663189969 0.66746946291 0.73925033613 0.71847600052 0.78641946686 0.80054321489 0.85376333061 
0.91240667602 0.95291243481 1.0486825567 1.0712896817 1.1856640185 1.1755057526 1.2557621175 1.2434830544 1.3005917983 
1.26717077 1.2826238315 1.2517604691 1.2267937575 1.182079221 1.1489868738 1.1110783633 1.0670661122 1.0271304959 
0.98725950458 0.96023814474 0.914620194 0.90341853835 0.85056006413 0.84247733939 0.77767366503 0.77720664195 0.67789190606 
0.69254014905 0.56020836605 0.59095064224 0.43108498782 0.47042515956 0.30084548458 0.35118302187 0.21926131192 0.26934345372 
0.19676307902 0.21985216477 0.27614827285 0.2529980964 0.44628980843 0.39065621132 0.65564410945 0.57971872181 0.86561093645 
0.76573267195 1.0467628592 0.93069655816 1.1801592946 1.0551287432 1.2568757437 1.1242478437 1.2686477485 1.1247460516 
1.2151664773 1.1061448964 1.1345073443 1.0763616267 1.0595339864 1.043499965 1.0000854494 1.0334918801 0.95263980891 
1.015250256 0.91131081965 0.97819198715 0.63050202438 0.65374056006 0.59746988763 0.58445037159 0.67170584277 0.61046555796 
0.67434035686 0.61575151384 0.67419101111 0.62003658524 0.67159173661 0.62424440601 0.67905206879 0.62481502769 0.69209426117 
0.62518393188 0.71323086682 0.62648733802 0.71227032449 0.62010597081 0.6991763727 0.61395485939 0.6725865662 0.60427162012 
0.67610138833 0.61019634417 0.67915832757 0.61378492622 0.67927859275 0.61837766584 0.67466895417 0.61371376818 0.64898405189 
0.59337329607 0.61401903129 0.56582274206 0.59286496788 0.53963485943 0.56476932377 0.50597386663 0.53167507711 0.46395384199 
0.48953069088 0.43689539087 0.45991506253 0.411193671 0.4353064589 0.38628772993 0.3997945866 0.35573805386 0.37563762493 
0.34744881581 0.35880744898 0.33409820161 0.35588426559 0.32611536802 0.35060613818 0.32191709183 0.34192068094 0.33600688688 
0.36096520612 0.34346541559 0.38466164592 0.34805132121 0.38545564215 0.34972577523 0.37723810627 0.35011029007 0.35981936953 
0.34238571736 0.36231666083 0.32440458161 0.37130978066 0.31597739343 0.39576193916 0.33867594653 0.42238752416 0.37146464827 
0.45072676619 0.40856635587 0.47007777411 0.43753578261 0.47831900904 0.45440981287 0.46906193948 0.45743838837 0.44900924009 
0.42965229611 0.42531739972 0.39272630813 0.41195294364 0.37286782451 0.39017792953 0.35317242562 0.35003730303 0.32089689107 
0.32274447917 0.30086771537 0.30605208992 0.29238358259 0.30768883825 0.28865483163 0.3143050928 0.28719700805 0.32831848145 
0.30600007341 0.35117579101 0.33372764537 0.39891350459 0.3799467539 0.45266485141 0.42714346142 0.51253372319 0.46974663762 
0.57165916318 0.52744577611 0.95550330782 0.9985571439 0.92494025972 0.90521541609 0.83158545735 0.80219772139 0.81845112472 
0.89501238156 0.99438088223 1.0968729807 1.187729126 1.2466529549 1.2532606137 1.2379552745 1.1672180926 1.0661062154 
0.96997091203 0.89732239742 0.84270505628 0.80497894473 0.7568930738 0.69229509794 0.60850526492 0.49180371566 0.40500441033 
0.34299151567 0.30465668706 0.33923764309 0.4377353753 0.58615162173 0.73139548542 0.86702394154 0.96035811525 1.0060269199 
1.0137787387 1.0061803874 1.007766571 1.0143281384 1.0541254546 1.0605338061 1.0429011102 1.0203046685 0.54787670428 
0.52503282312 0.57049253772 0.58209417876 0.58415942891 0.58017270321 0.57528878277 0.57238869365 0.56701544065 0.56875045902 
0.5667809246 0.5748182786 0.58866123781 0.57932645232 0.57756095167 0.56877972517 0.53657860992 0.49796030764 0.46436508691 
0.44044899381 0.42254356313 0.40003736089 0.37165128144 0.34973302507 0.33201260767 0.33577976338 0.31296738568 0.29999561718 
0.31592897193 0.31771520751 0.32313379756 0.32642633551 0.32609695742 0.3287036876 0.30242263126 0.30318163653 0.30966924337 
0.33912800074 0.37949394981 0.41080804317 0.42718280747 0.42651553731 0.41328878834 0.39439984316 0.36350020021 0.34487337881 
0.32852902397 0.3143688496 0.28969460498 0.28318684085 0.2795294757 0.28660936145 0.30157397362 0.33912465826 0.37792344346 
0.42464002086 0.46523441136 0.50514262348 0.34003940445 0.3465716068 0.85292090591 0.90664743575 0.82895077769 0.84269134571 
0.90947599894 0.99716821761 1.0906124986 1.1750929539 1.2263746988 1.233983913 1.203683045 1.1152170126 1.0114536644 
0.90431677221 0.79843867043 0.76286550404 0.72814167026 0.69875208752 0.66513169063 0.62452326979 0.57504876359 0.4306895622 
0.46047121233 0.41429293005 0.44333878355 0.51036679229 0.62022398621 0.72685034491 0.80617657665 0.86219193239 0.88741632773 
0.88638832067 0.8998823955 0.91115348495 0.93613168404 1.0347020606 1.0494817193 1.0484440425 1.0350272027 1.0325658819 
1.012331719 0.50648715568 0.54061403416 0.32931858137 0.34766571734 0.31793120401 0.30615585373 0.29533096253 0.29288292123 
0.30534472583 0.3074553373 0.3109843044 0.29050317454 0.31302743204 0.28532240425 0.28078783665 0.31602555438 0.35669259054 
0.3970106424 0.41895550015 0.42404821384 0.43615775441 0.41465010028 0.40480862945 0.39144451008 0.37575694442 0.36291467344 
0.35142280948 0.32617864994 0.30412855115 0.2803632618 0.28180201453 0.29772990573 0.32755333389 0.36916560171 0.39785859793 
0.43978237614 0.47767730354 0.5024330447 0.52806908589 0.54582374302 0.55186313885 0.54840451558 0.55042504008 0.55555039835 
0.56018075056 0.56173800836 0.56102963493 0.56414675984 0.56934162824 0.57979367473 0.56900951439 0.55091809714 0.5078649502 
0.48243075871 0.45572779924 0.43687571585 0.42128777167 0.4034929391 0.38394040962 0.36855936738 0.36902200045 0.36891752081 
0.33133032548 0.36141821822 0.32108489146 0.30669659999 0.50811758136 0.51332839791 0.48962974962 0.48028312257 0.48048103856 
0.52384864356 0.58638551692 0.66061089108 0.73693525658 0.78169334212 0.78209480404 0.77860911908 0.76034008945 0.75498435245 
0.7549469306 0.74657761622 0.98163084117 0.94624082211 0.99627481667 0.99204535462 1.0060317214 1.0062750449 0.83735068053 
0.88324385021 0.81122557461 0.80755631137 0.85917585212 0.94256539744 1.0303249871 1.1104000945 1.1718883803 1.1862503508 
1.1341738204 1.0500134183 0.92495917458 0.82189854425 0.73209462254 0.67057367193 0.64088792173 0.62339657896 0.62980112998 
0.60624298484 0.58517889826 0.53606972821 0.47441945272 0.44126908328 0.38572088062 0.46341383184 0.9491548953 0.90854715418 
0.94397770809 0.91431253618 0.82975946306 0.67405035842 0.30055956786 0.27343072462 0.25957110851 0.26723864046 0.27495302346 
0.27762742702 0.26101736128 0.28469757008 0.24563983674 0.31402599059 0.30699955914 0.29558160642 0.28179803012 0.2699888547 
0.2933690081 0.32946993104 0.36882531533 0.41747512947 0.43812544824 0.46160375329 0.47489739952 0.47048954328 0.46523388034 
0.46095628277 0.44746994621 0.43231701699 0.39405338812 0.35677811962 0.32296701822 0.30625198317 0.31193629848 0.33595555758 
0.37310868414 0.4138944097 0.41533341205 0.44044058698 0.46201665478 0.48342391798 0.50159613217 0.5185112433 0.53410956766 
0.54932305361 0.5595381377 0.5676004393 0.57202218329 0.57291063371 0.56844108285 0.5721522517 0.57097082782 0.56451390607 
0.55351198365 0.47355874997 0.50751797194 0.4445429661 0.42601919519 0.41562573772 0.40733046673 0.39279035821 0.3925935033 
0.39297163935 0.37737987584 0.35438389027 0.32241716597 0.2954178194 0.30878645288 0.26453126412 0.22905283382 0.21484669695 
0.2174728545 0.22753067842 0.36142020234 0.39674545738 0.32013822386 0.2574567217 0.21895111862 0.15974706245 0.23841919689 
0.22947514021 0.19767684658 0.16052304961 0.14487952863 0.14242595109 0.18611636665 0.53137143075 0.52940125945 0.4627548805 
0.47080151925 0.49177816349 0.52810496973 0.58037993381 0.6423932838 0.67413173938 0.68244297503 0.6752204946 0.65474733791 
0.61602427029 0.61463096828 0.59285584643 0.56964739086 0.52935893485 0.57163946154 0.45011858557 0.7040981317 0.82650295037 
0.88462595183 0.92218373259 0.93419814311 0.93851463604 0.95013067662 0.9836565489 0.93229687569 0.96418767049 0.90875719681 
0.88002590823 0.84571750683 0.82890637715 0.81118592906 0.76933989964 0.74294448428 0.72234765915 0.74823022104 0.83281542968 
0.91905379685 0.99310098389 1.0660200936 1.0651032129 1.0244792074 0.83428962798 0.93002646557 0.73813105692 0.64142364929 
0.58375870529 0.55583570757 0.54326640395 0.55545266157 0.55634240621 0.52582782066 0.46379781398 0.39018215497 0.29990210799 
0.29370929455 0.2122166884 0.33257809812 0.35847061099 0.97711616556 0.91212338011 0.19218825154 0.22158324338 0.23210102527 
0.16775142935 0.27455660419 0.28887128304 0.29175220327 0.29937564343 0.28137394777 0.25949721676 0.26720716971 0.28296468472 
0.32760249688 0.38359753905 0.4496906995 0.50996106431 0.53858801025 0.55569944667 0.55406406491 0.54736975482 0.52956572674 
0.50058152268 0.45942306946 0.41110434547 0.35947432073 0.3301593903 0.33430011034 0.36884302201 0.4337503096 0.4706535841 
0.40715338054 0.43182560852 0.42131277943 0.43396107725 0.46269031141 0.49705969358 0.52405238187 0.55213947943 0.5822712563 
0.59210361746 0.59121807114 0.57349815812 0.56554081633 0.56388254735 0.55904931715 0.55307267465 0.54572223757 0.519453191 
0.48886757221 0.47344869898 0.50100465678 0.49036344941 0.46034241553 0.43399888793 0.41172203256 0.40479965012 0.40616820451 
0.45140166242 0.45569446787 0.14793100935 0.10463841284 0.16836579275 0.086926856488 0.2328916363 0.26426978898 0.28849949967 
0.29471814667 0.29571849129 0.27520885189 0.2522585668 0.22770560377 0.22041644797 0.28226660464 0.34716879416 0.42518085708 
0.4992608785 0.56964889656 0.59626712169 0.5970162978 0.58590796329 0.56202199162 0.52731379032 0.46779409365 0.41475976202 
0.36605331425 0.33974731465 0.35032155306 0.38593405431 0.44987642614 0.45575820583 0.41988774412 0.40121893614 0.3408063274 
0.40898221415 0.39300381682 0.37707620808 0.37908207187 0.38643771224 0.42165819333 0.45694270514 0.49752966051 0.53781780264 
0.57537227427 0.58214120417 0.58238126558 0.55577651958 0.54153926885 0.52931028896 0.52727973877 0.52335686225 0.4626453234 
0.38842414297 0.35205497191 0.42409531337 0.45816046629 0.46304216948 0.42901208929 0.39349627889 0.37289073413 0.37363176583 
0.38186567003 0.40003288826 0.42827159921 0.47954385306 0.52839581796 0.56804532559 0.57969536784 0.56463953895 0.52481735541 
0.49258608538 0.46505090506 0.45282829286 0.449696099 0.44652674526 0.44635376943 0.35322561179 0.3336402365 0.25269531537 
0.47198626853 0.59167193348 0.71324462642 0.7759242096 0.81991646969 0.82807406778 0.83602538289 0.84156077322 0.81227595695 
0.78308513754 0.74495929771 0.7171694902 0.69003537193 0.67200732938 0.63884352687 0.60118781591 0.58020861081 0.59924845772 
0.66577172316 0.76034740432 0.86449471294 0.92249325946 0.91591394908 0.87006374387 0.76708735703 0.74895399288 0.6257193722 
0.82499521066 0.78174364674 0.70583168933 0.62021110037 0.53538492664 0.48363387508 0.45348537539 0.43234226652 0.44941056108 
0.46022729401 0.41534173526 0.35012442705 0.27163951336 0.2100340822 0.19105793518 0.1564180594 0.16980478808 0.22435189251 
0.23254480718 0.25322050243 0.26761343185 0.27991602174 0.25230282134 0.2238764141 0.20692087235 0.19319694721 0.23407040609 
0.28146258883 0.33348360911 0.35950143411 0.54794842556 0.51989863455 0.55494886323 0.5484738501 0.51837748182 0.48210251512 
0.43509364738 0.38439942145 0.32872299815 0.29538062002 0.30654094893 0.33139823475 0.36548546617 0.36998460857 0.30995085651 
0.21845475025 0.22801452692 0.13787944945 0.29952890844 0.33455469925 0.34477128414 0.34087679543 0.33566458245 0.33767611683 
0.36790888788 0.40058380405 0.45151757537 0.50102203816 0.53551829083 0.54523497086 0.51405478844 0.54165867497 0.47927346307 
0.45378813943 0.45851659191 0.48519928616 0.33731864593 0.33619362871 0.2145644505 0.18854147008 0.25502665241 0.32354521498 
0.39342353394 0.27243531043 0.29795748595 0.34206529615 0.38732995643 0.42562042891 0.44645268821 0.42785672087 0.4043912956 
0.37677712962 0.34526599716 0.33813998298 0.34113494816 0.3237801407 0.32057928429 0.24103337034 0.19175982172 0.20936407409 
0.25105594363 0.3428936609 0.46249045801 0.56080988626 0.60378614879 0.65371300776 0.67027427128 0.6670663869 0.61657353897 
0.6172235551 0.60051835773 0.57335457735 0.54316082447 0.51417116619 0.48968956196 0.4570414009 0.42417067995 0.40127890157 
0.42338832922 0.52932536615 0.63751692069 0.7526418373 0.79986434475 0.77933766199 0.70260462417 0.59601818478 0.45548705162 
0.45133519457 0.31233829732 0.58595981025 0.65102051129 0.64652818468 0.5666519902 0.47340599118 0.38524303154 0.34481244782 
0.33615976467 0.28051516526 0.33512162898 0.37026209699 0.30823047693 0.24469999613 0.20427165295 0.18017551811 0.19670382177 
0.22825283009 0.15565999415 0.26794811903 0.13038685104 0.33132650022 0.26927672658 0.19158091459 0.16626977403 0.16428781167 
0.15821467299 0.16027918569 0.16557932328 0.14093788065 0.10938125422 0.096570266499 0.10829092812 0.07295537974 0.083852364119 
0.11159596655 0.17818265553 0.158987132 0.23619541261 0.15536518227 0.13527509344 0.20772363297 0.27763551892 0.30657641506 
0.30663360079 0.30101666044 0.30422177692 0.31008519551 0.32732203496 0.36725011756 0.32634107429 0.28757811429 0.23644525066 
0.2748577806 0.28833139347 0.17113427373 0.16400276914 0.22834807053 0.30933421706 0.39547021335 0.37426475315 0.47125692706 
0.49847596648 0.48703809898 0.42701071391 0.38613667453 0.39163636109 0.35259204321 0.33817309985 0.32644820194 0.32539325735 
0.30828574697 0.28882507314 0.28787164212 0.2696587993 0.51303081879 0.39993817197 0.6155304513 0.61840657798 0.60132377901 
0.50708512562 0.40840699605 0.31728012815 0.19407590854 0.36190697255 0.28037767604 0.55834656841 0.51333227061 0.34793331096 
0.31595625225 0.28522491146 0.24761022307 0.20862407324 0.18358126362 0.23679947822 0.23510724834 0.21883244106 0.1979115395 
0.18139762927 0.18718022724 0.21416299169 0.23629825239 0.26733113981 0.25924427183 0.3361374997 0.42349132658 0.44321309268 
0.45373192492 0.4408456219 0.42245965179 0.40319982999 0.37812230358 0.33415806795 0.29119735148 0.23581628531 0.20135173439 
0.18912131028 0.18614711109 0.22104333836 0.2286614171 0.18959599172 0.11059890982 0.10918158657 0.15265538971 0.13157468475 
0.19251434828 0.24967429943 0.28105324062 0.26320939688 0.11754994613 0.19713929576 0.32559856381 0.43222740513 0.52584506863 
0.48732581407 0.37118504918 0.29016746531 0.20863094748 0.225191809 0.24035508887 0.32194403275 0.375834916 0.42758243652 
0.46750087742 0.49792263287 0.44531618551 0.46466103066 0.38845895446 0.50772724595 0.48231597642 0.44591865274 0.39850386415 
0.34710863839 0.18939302646 0.10264720663 0.16121692538 0.066576013187 0.11100883799 0.15116066113 0.16669172087 0.18667937352 
0.17036653454 0.34320566446 0.32951903695 0.31404077669 0.30422241755 0.2999587187 0.29838958105 0.29349060197 0.26650915518 
0.22295882094 0.17077858 0.087869763771 0.069044914922 0.11464842714 0.098698001345 0.15334892118 0.15027751443 0.1925090417 
0.22949497771 0.22489173498 0.25109112707 0.29345525165 0.28506305865 0.27274319654 0.25055179672 0.3048056764 0.39688155215 
0.46023395516 0.45880637152 0.40630392025 0.32775617982 0.26488737723 0.20952315384 0.41130536553 0.35904141653 0.28112746435 
0.19092051577 0.25609838338 0.18707227699 0.3163242987 0.27607461427 0.34039536043 0.3269528544 0.22591235269 0.33161404728 
0.22532059377 0.2173388597 0.23093356288 0.33028503403 0.28681860764 0.15307285923 0.13207306441 0.18472063914 0.98058323162 
0.96768978579 0.24134681465 0.12532075243 0.14261833098 0.093500593529 0.085627387758 0.19371293215 
Normal 3 1114 float
-0.606662 -0.204127 -0.768305 -0.716988 -0.24069 -0.650222 -0.719653 -0.377757 -0.568437 
-0.569196 -0.383949 -0.719813 -0.864667 -0.211203 -0.421573 -0.8239 -0.398528 -0.3669 
-0.960507 -0.154659 -0.18257 -0.908771 -0.378913 -0.119889 -0.990551 -0.0970608 0.0153075 
-0.933725 -0.332738 0.0795221 -0.98474 -0.0571394 0.158745 -0.939615 -0.281661 0.16565 
-0.966866 -0.0498697 0.250028 -0.920411 -0.274999 0.255902 -0.922533 -0.108176 0.3622 
-0.893392 -0.285022 0.340941 -0.888995 -0.155513 0.428822 -0.862089 -0.273062 0.42405 
-0.845068 -0.17065 0.501424 -0.805722 -0.277372 0.520369 -0.776552 -0.152595 0.608363 
-0.726247 -0.270982 0.628004 -0.676957 -0.12683 0.718228 -0.6092 -0.236765 0.753369 
-0.494425 -0.0941945 0.860974 -0.456426 -0.218506 0.859548 -0.335104 -0.140484 0.928636 
-0.299618 -0.233333 0.923074 -0.16645 -0.0804568 0.978896 -0.131144 -0.221618 0.962709 
-0.0347424 -0.0386807 0.998008 -0.00791336 -0.23688 0.967678 0.0487433 -0.0113271 0.997575 
0.0576342 -0.235401 0.964476 0.19246 0.0398028 0.975388 0.197679 -0.239578 0.940115 
0.280663 0.0807884 0.956252 0.309305 -0.261801 0.905796 0.300032 0.141513 0.940748 
0.357345 -0.223761 0.894506 0.349504 0.236278 0.903033 0.432624 -0.114223 0.882932 
0.57104 0.258756 0.77003 0.584222 -0.0675814 0.79606 0.71683 0.230879 0.648428 
0.699904 -0.114421 0.688922 0.834723 0.202665 0.493982 0.8053 -0.199234 0.525624 
0.931484 0.165046 0.301304 0.899658 -0.269001 0.296601 0.99202 0.0705452 0.0917843 
0.965597 -0.226181 -0.00205233 0.977351 -0.0271462 -0.160818 0.949101 -0.192911 -0.225975 
0.935092 -0.0236129 -0.339078 0.90642 -0.166003 -0.377109 0.88639 -0.0196742 -0.45827 
0.858051 -0.143359 -0.48803 0.83938 -0.0366508 -0.540528 0.815013 -0.132693 -0.561427 
0.790178 -0.0323276 -0.611494 0.765082 -0.117771 -0.630259 0.712512 -0.0195076 -0.69897 
0.682467 -0.127604 -0.715307 0.600981 -0.0618401 -0.79015 0.570004 -0.143837 -0.803469 
0.474897 -0.0938417 -0.870193 0.450192 -0.170726 -0.87351 0.352246 -0.0983813 -0.929812 
0.338697 -0.191268 -0.919212 0.263851 -0.111278 -0.957935 0.239652 -0.212952 -0.945578 
0.169559 -0.114467 -0.977961 0.1177 -0.206541 -0.968273 0.0738376 -0.0924268 -0.991556 
0.0342608 -0.189499 -0.978104 -0.0257568 -0.0933229 -0.993664 -0.055781 -0.18408 -0.976694 
-0.141914 -0.113207 -0.980469 -0.171705 -0.166963 -0.968239 -0.278259 -0.133886 -0.947076 
-0.278777 -0.202475 -0.929122 -0.431323 -0.15667 -0.883288 -0.433217 -0.313782 -0.83276 
-0.233011 -0.139776 -0.962376 -0.0655521 -0.158123 -0.974411 -0.0296958 -0.0508377 -0.99148 
-0.155781 -0.0151469 -0.986468 0.0683405 -0.161332 -0.983961 0.0812451 -0.0856362 -0.992025 
0.104646 -0.120535 -0.986288 0.127799 -0.117128 -0.984034 0.150497 -0.11647 -0.980614 
0.175517 -0.159942 -0.969387 0.204749 -0.144732 -0.967898 0.228532 -0.227878 -0.946257 
0.290749 -0.165868 -0.939523 0.302103 -0.232379 -0.922563 0.383763 -0.177526 -0.903177 
0.380323 -0.225302 -0.894721 0.485302 -0.174582 -0.855382 0.467698 -0.202437 -0.859481 
0.614078 -0.143654 -0.766517 0.555487 -0.108428 -0.816929 0.70912 -0.0696362 -0.695503 
0.620396 0.0136269 -0.777841 0.745549 0.0643168 -0.661845 0.642238 0.168534 -0.744061 
0.750904 0.143591 -0.642502 0.683114 0.253705 -0.680055 0.792657 0.166306 -0.579105 
0.739956 0.310459 -0.588294 0.868843 0.140338 -0.473655 0.819271 0.323201 -0.463257 
0.913971 0.129489 -0.378908 0.85997 0.333169 -0.375701 0.940502 0.160984 -0.289432 
0.880951 0.34496 -0.315325 0.950682 0.225326 -0.183929 0.900763 0.364958 -0.232806 
0.931358 0.334462 0.01876 0.915737 0.36852 -0.0101922 0.910173 0.331759 0.203913 
0.900218 0.35836 0.20427 0.885365 0.274331 0.370575 0.857816 0.331592 0.38948 
0.845324 0.215813 0.48149 0.807586 0.292573 0.502711 0.807503 0.199256 0.553218 
0.772777 0.238444 0.585471 0.771585 0.205574 0.601617 0.755769 0.178817 0.62757 
0.739912 0.212511 0.637471 0.743905 0.183943 0.641656 0.676403 0.219252 0.697773 
0.688411 0.174546 0.70047 0.591896 0.228175 0.772051 0.623936 0.208876 0.752708 
0.456328 0.298059 0.828677 0.530277 0.300892 0.783255 0.351949 0.362391 0.861069 
0.433907 0.391759 0.808785 0.292699 0.418691 0.858398 0.338373 0.501113 0.791341 
0.236171 0.451338 0.859086 0.259658 0.554724 0.787436 0.175508 0.479944 0.858238 
0.186713 0.578217 0.791946 0.0841169 0.527629 0.841581 0.0922984 0.589409 0.795971 
0.0284355 0.537114 0.842494 -0.0623223 0.567668 0.806029 0.00921533 0.507593 0.861346 
-0.344662 0.484156 0.797435 -0.293003 0.414505 0.802187 -0.497483 0.440634 0.73531 
-0.589095 0.319125 0.741825 -0.608176 0.396332 0.686185 -0.614033 0.266357 0.741787 
-0.638656 0.341001 0.686261 -0.633072 0.208352 0.744007 -0.658704 0.296371 0.689262 
-0.647578 0.146165 0.747801 -0.672231 0.259587 0.69049 -0.721911 0.089069 0.680234 
-0.729613 0.226064 0.640841 -0.79448 0.0471274 0.598943 -0.793649 0.195168 0.570662 
-0.86427 0.0290542 0.496038 -0.853948 0.16874 0.487041 -0.902198 0.050651 0.423803 
-0.883623 0.165799 0.434995 -0.926984 0.0885116 0.363803 -0.898339 0.170154 0.40168 
-0.938071 0.141633 0.309355 -0.906686 0.238509 0.342571 -0.952062 0.179893 0.217952 
-0.922025 0.268891 0.263659 -0.972395 0.185698 0.0458535 -0.947593 0.275622 0.0822197 
-0.965892 0.198994 -0.112088 -0.949798 0.27407 -0.0977894 -0.937246 0.21847 -0.258349 
-0.932202 0.251979 -0.245923 -0.881673 0.206662 -0.401468 -0.89065 0.228417 -0.377423 
-0.820184 0.187216 -0.540284 -0.830834 0.222729 -0.508936 -0.780885 0.175452 -0.596425 
-0.769579 0.242848 -0.585228 -0.735193 0.163325 -0.655288 -0.718568 0.24296 -0.649152 
-0.671514 0.150176 -0.721809 -0.656713 0.213616 -0.719028 -0.598677 0.123676 -0.786459 
-0.574639 0.182391 -0.792388 -0.516524 0.083594 -0.849206 -0.47515 0.131143 -0.866396 
-0.384286 -0.0166562 -0.906775 -0.314509 0.0518873 -0.933474 -0.714934 -0.568413 -0.383394 
-0.572946 -0.575366 -0.569166 -0.856799 -0.492946 -0.109492 -0.893737 -0.43695 0.0925706 
-0.894278 -0.411484 0.172168 -0.87919 -0.382582 0.281107 -0.867367 -0.31422 0.383734 
-0.852393 -0.277863 0.440502 -0.808592 -0.272737 0.516641 -0.734235 -0.265406 0.617457 
-0.612339 -0.282038 0.734188 -0.462741 -0.294496 0.833843 -0.306765 -0.295879 0.90228 
-0.157817 -0.334516 0.926488 -0.0282673 -0.368456 0.927326 0.0485253 -0.388125 0.918222 
0.176401 -0.41786 0.888196 0.294255 -0.469994 0.831725 0.350232 -0.486918 0.7997 
0.443104 -0.485372 0.750239 0.524847 -0.494493 0.68799 0.600436 -0.505743 0.612289 
0.705324 -0.533387 0.452369 0.851097 -0.482215 0.153566 0.940961 -0.30756 -0.127139 
0.918185 -0.270474 -0.285771 0.880625 -0.253209 -0.396507 0.841036 -0.240123 -0.481623 
0.79855 -0.228865 -0.554209 0.757696 -0.213336 -0.615603 0.693157 -0.21023 -0.687994 
0.58573 -0.21789 -0.776209 0.46445 -0.247443 -0.846347 0.355118 -0.276553 -0.891041 
0.241375 -0.312175 -0.916449 0.108905 -0.337105 -0.930727 0.0224391 -0.35306 -0.930291 
-0.0496132 -0.393566 -0.907173 -0.151345 -0.373928 -0.901487 -0.161107 -0.41709 -0.875726 
-0.245615 -0.514983 -0.784362 -0.433965 -0.581331 -0.676946 0.0776866 0.0447246 -0.994015 
-0.0295619 0.0782818 -0.992755 0.159955 0.0157709 -0.986032 0.220569 -0.038941 -0.972415 
0.261872 -0.0937086 -0.959989 0.302547 -0.125623 -0.94292 0.353859 -0.12689 -0.924035 
0.40933 -0.103784 -0.90304 0.463502 -0.043462 -0.882208 0.489203 0.0831557 -0.85942 
0.525524 0.21621 -0.818338 0.578908 0.330301 -0.737499 0.67166 0.406847 -0.613155 
0.759898 0.455358 -0.452279 0.810611 0.463357 -0.355333 0.838185 0.452158 -0.304088 
0.867789 0.439532 -0.220679 0.906062 0.411758 -0.0454299 0.893743 0.396789 0.160772 
0.845006 0.400914 0.345015 0.783794 0.3972 0.470161 0.724051 0.359792 0.58394 
0.701911 0.288058 0.650478 0.713676 0.246192 0.655557 0.68402 0.24192 0.687565 
0.70885 0.220658 0.668715 0.629203 0.3172 0.704116 0.559683 0.411145 0.715172 
0.459616 0.543965 0.694898 0.332041 0.639498 0.68793 0.215219 0.689569 0.689485 
0.0900679 0.703119 0.698619 -0.132949 0.677091 0.707716 -0.311671 0.632176 0.701889 
-0.489891 0.581663 0.641817 -0.568561 0.556469 0.602553 -0.616253 0.531918 0.577222 
-0.643763 0.492506 0.57809 -0.669273 0.427012 0.606822 -0.706129 0.381036 0.593566 
-0.770197 0.328594 0.54126 -0.838574 0.274692 0.464625 -0.878974 0.212693 0.420267 
-0.903925 0.165229 0.393745 -0.909361 0.140891 0.386977 -0.914652 0.189068 0.336688 
-0.912273 0.259845 0.286787 -0.896283 0.29449 0.155613 -0.921166 0.259315 -0.232122 
-0.894999 0.22709 -0.376699 -0.853176 0.221607 -0.468984 -0.799782 0.223062 -0.553285 
-0.74327 0.234632 -0.622945 -0.677998 0.246632 -0.690058 -0.58538 0.228913 -0.770713 
-0.482283 0.206982 -0.8495 -0.329767 0.159047 -0.922897 -0.177162 0.12186 -0.973269 
0.718326 0.231354 0.655609 0.72586 0.212015 0.653849 -0.91183 -0.341685 0.218888 
-0.901967 -0.399866 0.161303 -0.903384 -0.284701 0.310417 -0.876191 -0.246812 0.407818 
-0.854449 -0.219614 0.467 -0.834554 -0.154897 0.523031 -0.779538 -0.145433 0.604912 
-0.660289 -0.192914 0.720193 -0.512275 -0.257539 0.813193 -0.350025 -0.324606 0.876277 
-0.224432 -0.391249 0.889778 -0.0787175 -0.447954 0.888628 0.0156832 -0.476615 0.877825 
0.103035 -0.491533 0.863416 0.233859 -0.50982 0.827463 0.315957 -0.534201 0.783271 
0.396902 -0.554151 0.729101 0.487064 -0.567437 0.662019 0.570733 -0.556496 0.602505 
0.721997 -0.493603 0.472832 0.850949 -0.405884 0.286171 0.890973 -0.3426 -0.292154 
0.906221 -0.373056 -0.179697 0.851847 -0.341649 -0.391681 0.80222 -0.334453 -0.486589 
0.75702 -0.310656 -0.570864 0.72345 -0.284309 -0.626106 0.657859 -0.281453 -0.69515 
0.566769 -0.291377 -0.766535 0.465308 -0.322821 -0.822325 0.377241 -0.347186 -0.857467 
0.28691 -0.385861 -0.875513 0.170982 -0.443348 -0.877049 0.0869668 -0.537601 -0.833553 
0.0589614 -0.695273 -0.710989 0.0033874 -0.731341 -0.657261 0.0377745 -0.770221 -0.607985 
-0.118527 -0.844895 -0.495768 -0.353144 -0.826493 -0.419867 -0.520287 -0.747261 -0.386245 
-0.643755 -0.682848 -0.32207 0.909508 -0.397016 -0.074929 0.910314 -0.372068 0.151704 
0.708145 0.255423 0.656283 0.73693 0.159043 0.655691 0.700887 0.263757 0.660723 
0.650034 0.356784 0.661959 0.58938 0.410566 0.687283 0.48437 0.498807 0.707339 
0.333094 0.601729 0.716564 0.182159 0.624838 0.750168 0.0216805 0.572924 0.811334 
-0.470333 0.632842 0.612297 -0.328927 0.632616 0.690337 -0.543734 0.6261 0.554954 
-0.599017 0.621194 0.504414 -0.644718 0.585482 0.489058 -0.682157 0.532971 0.496516 
-0.713647 0.480567 0.506802 -0.788318 0.376414 0.464719 -0.885596 0.238758 0.389577 
-0.924975 0.115634 0.353093 -0.921692 0.0532425 0.382321 -0.910748 0.0376106 0.40915 
-0.905887 0.0457398 0.418224 -0.901533 0.0570695 0.428161 -0.933989 0.0896093 0.156003 
-0.970024 0.122614 -0.197207 -0.925454 0.151732 -0.32858 -0.873607 0.177309 -0.44948 
-0.816299 0.214624 -0.534667 -0.748244 0.229232 -0.618189 -0.667522 0.230709 -0.704309 
-0.568878 0.215847 -0.788149 -0.452714 0.200932 -0.866275 -0.313757 0.185179 -0.9234 
-0.14516 0.161536 -0.971441 0.000271763 0.154789 -0.984837 0.112159 0.113023 -0.983946 
0.205674 0.0697285 -0.974002 0.264719 0.0416421 -0.962166 0.298657 0.01405 -0.952933 
0.313934 0.0118581 -0.948331 0.339469 0.0192716 -0.938942 0.366871 0.0475932 -0.928346 
0.364396 0.117995 -0.920902 0.380297 0.196453 -0.901381 0.410505 0.267683 -0.870297 
0.499279 0.328462 -0.793785 0.606513 0.379757 -0.691943 0.722368 0.42698 -0.532845 
0.807804 0.432596 -0.389055 0.867026 0.409494 -0.278765 0.879672 0.427145 -0.206105 
0.907803 0.397249 -0.0152485 0.902885 0.378193 0.170911 0.863695 0.371425 0.331258 
0.787607 0.360245 0.483517 0.712868 0.331246 0.616953 0.681183 0.296895 0.666241 
0.658473 0.249898 0.709725 0.706928 0.143645 0.691229 0.731777 0.086133 0.674609 
0.762413 0.175513 0.621801 0.761008 0.0490259 0.645845 -0.213435 0.588557 0.768868 
-0.0773569 0.442831 0.884781 0.882505 -0.459792 -0.0563786 0.825484 -0.546864 0.0579021 
0.826274 -0.527907 -0.16511 0.784402 -0.546097 -0.28088 0.754627 -0.536506 -0.370387 
0.728047 -0.500443 -0.456604 0.694723 -0.469462 -0.534933 0.666103 -0.432251 -0.603027 
0.634253 -0.397095 -0.658355 0.554352 -0.382888 -0.734383 0.472187 -0.39496 -0.784958 
0.387407 -0.447767 -0.804822 0.295501 -0.506368 -0.807728 0.230002 -0.576922 -0.780035 
0.195129 -0.659158 -0.723968 0.209947 -0.729373 -0.648456 0.125648 -0.893669 -0.423647 
0.158781 -0.885175 -0.43254 -0.0480813 -0.900331 -0.401213 -0.292495 -0.90519 -0.286011 
-0.484794 -0.840207 -0.23838 -0.593524 -0.778675 -0.185684 -0.92232 -0.22561 0.307985 
-0.911225 -0.307466 0.262021 -0.912977 -0.16719 0.369051 -0.886118 -0.145842 0.438836 
-0.8475 -0.116794 0.51554 -0.824169 -0.10905 0.555229 -0.787626 -0.12421 0.600822 
-0.715832 -0.189254 0.666218 -0.573077 -0.31428 0.751363 -0.400354 -0.420131 0.812325 
-0.248104 -0.540025 0.798947 -0.0660187 -0.515348 0.853031 0.0337076 -0.505393 0.861039 
0.133548 -0.502441 0.85356 0.222736 -0.490562 0.841586 0.305775 -0.4773 0.821723 
0.397036 -0.458591 0.790729 0.50058 -0.43433 0.741016 0.606556 -0.408184 0.672304 
0.729077 -0.34837 0.574736 0.869808 -0.288226 0.384325 0.887215 -0.297521 0.326949 
0.882636 -0.313974 0.324194 0.828039 -0.545057 0.104298 0.837433 -0.460161 0.25067 
0.750309 -0.655855 -0.0371612 -0.890858 -0.419183 0.171117 -0.853559 -0.44856 0.244785 
-0.801632 -0.556499 0.178663 -0.785609 -0.562794 0.233467 0.169472 -0.841155 -0.508225 
0.252581 -0.75297 -0.603617 0.71552 0.295883 0.632007 0.62802 0.356121 0.67934 
0.51814 0.411884 0.735761 0.368074 0.451611 0.799708 0.217761 0.463043 0.845281 
0.109697 0.427439 0.885731 0.0147725 0.327856 0.941418 -0.139434 0.311443 0.934106 
-0.0760765 0.246934 0.961121 -0.260342 0.438968 0.846452 -0.397151 0.561041 0.718478 
-0.499101 0.614801 0.604191 -0.581077 0.6056 0.536931 -0.658002 0.572241 0.488432 
-0.694654 0.541964 0.471014 -0.728173 0.494987 0.469068 -0.807083 0.399679 0.421326 
-0.891372 0.268051 0.337667 -0.95306 0.0891797 0.269021 -0.954549 0.0306725 0.291304 
-0.938356 0.00310557 0.341684 -0.911229 -0.00609479 0.409585 -0.930178 0.00879752 0.332625 
-0.970391 0.0122432 0.200261 -0.989805 0.0320063 0.0017536 -0.974259 0.0697479 -0.192581 
-0.931589 0.132965 -0.326783 -0.881077 0.181723 -0.435007 -0.812939 0.233729 -0.525083 
-0.734595 0.27159 -0.614129 -0.63999 0.293202 -0.703538 -0.526984 0.299283 -0.786467 
-0.399057 0.29924 -0.864495 -0.269017 0.313856 -0.905462 -0.0638199 0.21666 -0.969777 
0.0766679 0.173288 -0.976493 0.179687 0.138416 -0.971473 0.2557 0.112059 -0.958811 
0.288496 0.101402 -0.951944 0.305115 0.0971182 -0.947275 0.314124 0.115859 -0.94215 
0.308594 0.14732 -0.938918 0.287983 0.202816 -0.935647 0.289868 0.253455 -0.92196 
0.326423 0.29127 -0.89783 0.405428 0.307492 -0.858925 0.516074 0.313112 -0.790064 
0.645881 0.336353 -0.681481 0.761881 0.330583 -0.542225 0.845066 0.326742 -0.4147 
0.881896 0.306393 -0.348307 0.927207 0.328994 0.114723 0.931934 0.346203 -0.0715998 
0.908767 0.288753 0.282199 0.860006 0.249026 0.432655 0.773695 0.222518 0.577603 
0.692029 0.233408 0.677162 0.673743 0.239822 0.69663 0.677312 0.16791 0.71477 
0.646748 0.140252 0.748257 0.666855 0.0854506 0.737677 0.717726 0.0391096 0.691983 
0.796323 0.00309871 0.603136 0.719096 0.00435267 0.691824 0.798583 0.075135 0.593296 
0.761601 0.144574 0.627641 0.661045 0.198626 0.712564 0.51855 0.259333 0.804283 
0.357031 0.276107 0.877845 0.220947 0.293732 0.920988 0.642524 0.0852308 0.761105 
0.650441 0.10149 0.752488 0.629171 0.0778133 0.7724 0.666058 -0.0346173 0.74031 
0.732405 -0.1263 0.66546 0.629584 0.0599368 0.774223 0.779441 -0.121831 0.610727 
0.789938 -0.088266 0.606042 0.753583 -0.0342471 0.647108 0.697641 0.0257134 0.712616 
0.537004 0.0897507 0.817945 0.365134 0.141535 0.914624 0.192415 0.174083 0.957891 
0.91711 0.313646 -0.234104 0.917825 0.259461 -0.29897 0.731386 -0.667555 -0.122908 
0.696836 -0.682549 -0.207488 0.670286 -0.677685 -0.294709 0.639646 -0.648073 -0.406007 
0.597272 -0.625753 -0.494585 0.570592 -0.587051 -0.567359 0.54767 -0.54947 -0.625001 
0.513832 -0.538986 -0.662047 0.462796 -0.549752 -0.691617 0.402246 -0.54954 -0.731495 
0.333102 -0.545876 -0.768336 0.30109 -0.575516 -0.759685 0.302925 -0.622601 -0.720774 
0.297171 -0.675713 -0.672352 0.310629 -0.667654 -0.67363 0.256747 -0.703856 -0.66126 
0.319394 -0.624168 -0.710817 0.210557 -0.779341 -0.582385 0.171364 -0.858253 -0.480646 
0.0511546 -0.880072 -0.455683 -0.151536 -0.883514 -0.421271 -0.367118 -0.86652 -0.312027 
-0.467951 -0.856274 -0.20176 -0.538358 -0.830696 -0.121603 -0.744963 -0.655324 -0.0409229 
-0.598955 -0.796873 -0.0235754 -0.795062 -0.586177 0.0817399 -0.677617 -0.715707 0.1168 
-0.730421 -0.633125 0.237629 -0.765951 -0.552036 0.315863 -0.807642 -0.477577 0.330835 
-0.851758 -0.390372 0.340735 -0.878485 -0.300114 0.363275 -0.87514 -0.259095 0.40348 
-0.848813 -0.278086 0.446639 -0.816819 -0.267987 0.49537 -0.802859 -0.255428 0.531383 
-0.786929 -0.279371 0.544725 -0.741421 -0.357454 0.558912 -0.651598 -0.478174 0.584748 
-0.476011 -0.612185 0.622667 -0.284237 -0.697574 0.647911 0.0907096 -0.484698 0.86939 
0.0023089 -0.549672 0.832728 0.209416 -0.393128 0.89356 0.319925 -0.315262 0.890603 
0.385222 -0.246038 0.884494 0.463906 -0.205258 0.855798 0.554182 -0.15544 0.815605 
0.645822 -0.121648 0.746006 0.726562 -0.0770513 0.676721 0.798663 -0.0362161 0.597128 
0.836407 -0.15768 0.500633 0.829883 -0.203236 0.49915 0.833966 -0.179997 0.507312 
0.850098 -0.440676 0.245084 0.869535 -0.233067 0.404928 0.800934 -0.584182 0.0959922 
0.773185 -0.628079 0.0157303 -0.0714678 -0.615387 0.779841 -0.150193 -0.746125 0.641899 
0.0499452 0.132937 0.986889 0.0556013 0.229941 0.963669 -0.0660928 0.14967 0.982618 
-0.00985791 0.0588828 0.993413 -0.194302 0.291262 0.932693 -0.274122 0.370174 0.8749 
-0.371575 0.431332 0.804347 -0.495507 0.484262 0.715374 -0.596123 0.485342 0.622876 
-0.703619 0.449581 0.544271 -0.755207 0.409506 0.500983 -0.808517 0.356947 0.460331 
-0.873598 0.247589 0.388264 -0.93741 0.145678 0.290553 -0.970827 0.0946194 0.196274 
-0.972998 0.0617625 0.204711 -0.949476 -0.0355441 0.300946 -0.918987 -0.0619187 0.384266 
-0.921706 -0.067971 0.376835 -0.947151 -0.0542306 0.308517 -0.982182 -0.0268255 0.0666678 
-0.987153 0.0553335 -0.137587 -0.953089 0.113163 -0.258388 -0.916062 0.162846 -0.36065 
-0.866457 0.209173 -0.444487 -0.800403 0.250102 -0.536991 -0.71782 0.28754 -0.628232 
-0.607614 0.327801 -0.713962 -0.466319 0.344799 -0.807856 -0.283251 0.287013 -0.901663 
0.130236 0.149084 -0.977738 0.042558 0.170715 -0.976894 0.201691 0.123702 -0.969567 
0.263435 0.0995174 -0.958838 0.297768 0.0757723 -0.95131 0.305704 0.0629617 -0.949951 
0.290257 0.0746096 -0.953721 0.266745 0.103662 -0.957006 0.236521 0.147682 -0.95975 
0.276791 0.193254 -0.93859 0.360837 0.222891 -0.902439 0.473222 0.199927 -0.853113 
0.601032 0.188672 -0.763996 0.725572 0.187053 -0.657306 0.815767 0.207418 -0.523573 
0.879688 0.230817 -0.411882 0.898224 0.242627 -0.360408 0.911933 0.179437 -0.36193 
0.939454 0.170741 -0.281335 0.922968 0.0659271 -0.368267 0.951633 0.256591 -0.113926 
0.947444 0.292678 -0.0400666 0.937866 0.301596 0.122239 0.907609 0.268547 0.302782 
0.857451 0.215448 0.457298 0.78237 0.186925 0.584081 0.706631 0.18378 0.681604 
-0.0697446 0.199666 -0.973204 -0.222645 0.200908 -0.946842 0.152247 0.0743496 0.978157 
0.0551141 -0.0268222 0.994715 -0.0670338 -0.00926626 0.992569 0.0454068 -0.138847 0.986167 
-0.128207 0.0987481 0.985328 -0.193117 0.187187 0.954053 -0.284224 0.287647 0.909321 
-0.347892 0.285576 0.882883 -0.450645 0.274004 0.832873 -0.579921 0.227236 0.758149 
-0.714473 0.18466 0.672638 -0.7764 0.176018 0.597296 -0.837633 0.159109 0.516672 
-0.891957 0.11143 0.420524 -0.941155 0.0216727 0.317444 -0.97052 -0.0742373 0.202013 
-0.970299 -0.162493 0.154605 -0.937508 -0.139288 0.307767 -0.894848 -0.159083 0.41308 
-0.905184 -0.156986 0.382774 -0.934275 -0.146176 0.30032 -0.976254 -0.0954906 0.139426 
-0.991631 -0.0467631 -0.0223821 -0.977225 0.000543167 -0.168124 -0.951172 0.0570734 -0.289005 
-0.915522 0.124917 -0.374281 -0.851986 0.183849 -0.477429 -0.773418 0.232395 -0.586523 
-0.670608 0.257626 -0.681914 -0.575524 0.244445 -0.769183 -0.403716 0.171512 -0.884578 
-0.219252 0.0697486 -0.953067 -0.0160923 0.0610693 -0.992715 -0.193991 -0.0422856 -0.972751 
0.0259614 0.116254 -0.988222 0.0651028 0.147312 -0.980022 0.152212 0.131313 -0.977983 
0.224847 0.107022 -0.965959 0.286884 0.0825891 -0.954235 0.307878 0.0757125 -0.948218 
0.317544 0.0656606 -0.945715 0.303345 0.0140062 -0.951658 0.276351 -0.0351013 -0.959284 
0.231206 -0.057238 -0.970019 0.259602 -0.0641859 -0.956529 0.37907 -0.0102704 -0.914945 
0.507639 0.00615972 -0.856235 0.610972 0.0102541 -0.78141 0.711452 0.0176578 -0.699116 
0.79989 0.0436492 -0.582839 0.880609 0.0937381 -0.455668 0.900884 -0.013465 -0.424598 
0.934462 -0.0254191 -0.352199 0.888277 -0.0895505 -0.444546 0.961626 0.0645969 -0.22271 
0.97013 0.180379 -0.15114 0.962416 0.23797 0.0264719 0.954885 0.221487 0.139384 
0.9252 0.193828 0.305578 0.856544 0.153555 0.478696 0.757219 0.0985245 0.637708 
0.732137 -0.665652 -0.100104 0.678874 -0.690877 -0.239201 0.624636 -0.694626 -0.349472 
0.575558 -0.692506 -0.432964 0.53529 -0.682701 -0.493873 0.496827 -0.66967 -0.550572 
0.476014 -0.648343 -0.592597 0.447136 -0.628708 -0.634513 0.416108 -0.60201 -0.681132 
0.369918 -0.584878 -0.720662 0.340252 -0.564678 -0.751274 0.331034 -0.544946 -0.770226 
0.350019 -0.551876 -0.756762 0.357221 -0.57802 -0.732563 0.354306 -0.601149 -0.715279 
0.353626 -0.561252 -0.745528 0.298423 -0.534608 -0.783567 0.366354 -0.39434 -0.838166 
0.232556 -0.655769 -0.715689 0.184147 -0.70458 -0.680569 0.0712467 -0.750958 -0.654352 
-0.116951 -0.797509 -0.56562 -0.289986 -0.831246 -0.46451 -0.404312 -0.847385 -0.322974 
-0.490852 -0.843421 -0.194832 -0.561486 -0.820923 -0.087769 -0.636868 -0.760968 0.0269352 
-0.680337 -0.711555 0.148313 -0.685959 -0.677064 0.253945 -0.703141 -0.630475 0.324267 
-0.70153 -0.609333 0.366677 -0.736037 -0.549163 0.384551 -0.766035 -0.511923 0.384477 
-0.796668 -0.470091 0.376803 -0.782611 -0.490218 0.37549 -0.764213 -0.481564 0.42318 
-0.700863 -0.547283 0.44159 -0.662434 -0.616234 0.41302 -0.602999 -0.693038 0.393047 
-0.519781 -0.731906 0.434425 -0.425727 -0.761404 0.480778 -0.321748 -0.790075 0.514841 
-0.191634 -0.781083 0.5897 -0.0138729 -0.710555 0.699972 -0.0534654 -0.702909 0.705518 
0.0149838 -0.70518 0.705145 0.0884529 -0.629205 0.768483 0.179765 -0.533773 0.817136 
0.319311 -0.36395 0.867306 0.44296 -0.141533 0.879891 0.498498 -0.00200442 0.8642 
0.53596 0.0814119 0.837352 0.603918 0.121622 0.786475 0.665882 0.0888365 0.737929 
0.721243 0.0536107 0.689888 0.740937 0.00997587 0.668299 0.746195 -0.0215533 0.66314 
0.781649 -0.0867059 0.611189 0.820255 -0.0730096 0.562206 0.858304 -0.0449336 0.499561 
0.925872 -0.2333 0.281726 0.908775 -0.0493044 0.398819 0.879672 -0.372727 0.262227 
0.864122 -0.465821 0.113547 0.819047 -0.559568 -0.0526191 -0.285435 0.159065 0.933066 
-0.514829 0.105046 0.845039 -0.638879 0.0556435 0.753582 -0.742781 0.0149872 0.66772 
-0.795677 -0.043445 0.593294 -0.847817 -0.105233 0.514868 -0.89183 -0.176213 0.389663 
-0.927623 -0.247804 0.273528 -0.914294 -0.332655 0.210161 -0.893754 -0.414241 0.16679 
-0.887087 -0.233367 0.395793 -0.915277 -0.273857 0.276409 -0.88965 -0.212793 0.399712 
-0.93661 -0.138035 0.30639 -0.971727 -0.0792351 0.120285 -0.994975 -0.0260183 -0.0597864 
-0.979117 -0.00542799 -0.172174 -0.956623 0.016828 -0.27944 -0.916602 0.0469084 -0.380674 
-0.860162 0.0735902 -0.494122 -0.781895 0.0820489 -0.604387 -0.681195 0.0817266 -0.714538 
-0.560829 0.0593035 -0.806608 -0.463499 0.0182727 -0.875066 -0.401555 -0.0579582 -0.889971 
-0.254651 -0.117607 -0.947628 -0.0569074 -0.113388 -0.985286 -0.0910979 -0.172774 -0.967832 
-0.0320963 -0.0579002 -0.984081 0.0989062 0.00647269 -0.986401 0.182673 0.00765682 -0.979617 
0.234392 0.0040884 -0.970983 0.276807 -0.00246232 -0.959432 0.312983 0.00222429 -0.949251 
0.336859 -0.0326962 -0.940319 0.359781 -0.0610751 -0.930909 0.341575 -0.0967561 -0.933688 
0.296672 -0.142756 -0.943246 0.240268 -0.163533 -0.956046 0.244516 -0.183859 -0.95079 
0.574125 -0.16798 -0.799938 0.467706 -0.172775 -0.860976 0.672524 -0.150945 -0.715414 
0.780559 -0.121835 -0.61122 0.854294 -0.0766704 -0.504047 -0.928837 -0.30754 0.192247 
-0.866804 -0.461139 0.186691 0.821619 -0.149428 -0.543403 0.897213 -0.12189 -0.416796 
0.830353 -0.216725 -0.502379 0.935534 -0.0759244 -0.334 0.983858 -0.014669 -0.155416 
0.978699 0.117961 0.0674899 0.757981 -0.601162 -0.215743 0.706364 -0.625938 -0.325779 
0.661165 -0.640136 -0.384619 0.615906 -0.65592 -0.434594 0.563635 -0.665166 -0.485557 
0.515346 -0.66635 -0.537443 0.469903 -0.66553 -0.577684 0.432327 -0.645336 -0.628374 
0.395759 -0.606421 -0.687976 0.344897 -0.546584 -0.76185 0.328111 -0.508457 -0.795734 
0.342964 -0.498216 -0.795717 0.376774 -0.495289 -0.781729 0.384755 -0.498788 -0.774006 
0.364622 -0.270068 -0.888892 0.286899 -0.234998 -0.925631 0.337628 -0.150566 -0.92866 
0.268439 -0.373257 -0.881137 0.200316 -0.536634 -0.810074 0.0801152 -0.639178 -0.755977 
0.0341102 -0.675933 -0.729317 -0.102251 -0.703808 -0.690497 -0.252307 -0.733225 -0.615389 
-0.408415 -0.752688 -0.493795 -0.544295 -0.741795 -0.36389 -0.713706 -0.666135 -0.188146 
-0.753377 -0.644102 0.00110172 -0.755322 -0.629677 0.153 -0.711888 -0.636879 0.2748 
-0.690112 -0.626655 0.360152 -0.691224 -0.600029 0.400533 -0.704031 -0.57482 0.415556 
-0.733062 -0.548403 0.400157 -0.754946 -0.547678 0.357532 -0.755954 -0.570359 0.319162 
-0.689426 -0.641654 0.331663 -0.62055 -0.708535 0.328345 -0.60278 -0.728516 0.318173 
-0.587181 -0.746791 0.311615 -0.5221 -0.778764 0.343585 -0.45084 -0.792183 0.40583 
-0.342381 -0.79489 0.492487 -0.213422 -0.752992 0.61074 -0.156055 -0.689022 0.70018 
-0.00923168 -0.643485 0.759465 -0.0368642 -0.565576 0.818506 0.0843551 -0.647551 0.756405 
0.176845 -0.606992 0.766018 0.27085 -0.538233 0.795408 0.370119 -0.450082 0.802457 
0.468108 -0.353679 0.801256 0.572385 -0.205569 0.789679 0.598023 -0.00197081 0.795961 
0.593843 0.112689 0.794315 0.596867 0.162564 0.785516 0.634038 0.135241 0.760433 
0.659773 0.112813 0.741113 0.677296 0.0513771 0.729075 0.703647 0.00954934 0.704666 
0.71031 0.0477572 0.695754 0.749502 0.0591523 0.654512 0.822425 0.0391677 0.562377 
0.903564 0.0236839 0.401512 0.957947 -0.0674153 0.195112 0.970225 0.00427291 0.152102 
0.932713 -0.278344 0.105888 0.67004 0.0618095 0.738483 0.633748 0.0470037 0.771342 
0.603595 0.0746407 0.793646 0.607211 0.13304 0.782604 0.652467 0.0606281 0.750456 
0.717344 -0.0575971 0.692982 0.758782 -0.164779 0.627643 0.76659 -0.191907 0.611407 
0.705041 -0.189155 0.671602 0.595535 -0.161602 0.771595 0.371536 -0.0480146 0.90605 
0.22395 0.0305008 0.969711 0.19587 -0.130665 0.960289 0.0970376 -0.248099 0.959642 
-0.0652549 -0.268062 0.955192 0.0384642 -0.408716 0.899663 -0.0980935 -0.119869 0.982856 
-0.26284 0.0340551 0.948045 0.809717 -0.465284 -0.349879 0.870289 -0.398675 -0.243886 
0.719024 -0.529315 -0.440638 0.64475 -0.571974 -0.504155 0.572185 -0.60624 -0.547658 
0.523738 -0.611774 -0.591735 0.48322 -0.601058 -0.633545 0.436481 -0.595823 -0.6725 
0.395909 -0.58205 -0.709185 0.345606 -0.529445 -0.771678 0.300187 -0.364064 -0.880322 
0.3671 -0.331753 -0.867706 0.383813 -0.303424 -0.870712 0.259458 -0.0769944 -0.961103 
0.299698 -0.0532076 -0.952106 0.321771 -0.078985 -0.942646 0.265037 -0.145948 -0.950562 
0.192925 -0.231488 -0.951477 0.144446 -0.371518 -0.904038 0.0844875 -0.514635 -0.844221 
-0.0445396 -0.574883 -0.810466 -0.178813 -0.553691 -0.798647 -0.386575 -0.587632 -0.699652 
-0.524025 -0.58958 -0.592223 -0.635469 -0.572432 -0.5 -0.718142 -0.494876 -0.460319 
-0.874115 -0.467618 0.0184308 -0.894641 -0.412507 -0.107223 -0.831654 -0.519135 0.144421 
-0.778134 -0.552019 0.278823 -0.725692 -0.561599 0.386986 -0.715099 -0.543743 0.437806 
-0.740706 -0.537641 0.401077 -0.754979 -0.562409 0.330623 -0.767259 -0.583587 0.26094 
-0.704429 -0.666953 0.22975 -0.594157 -0.75402 0.278877 -0.645788 -0.71272 0.266709 
-0.567059 -0.768696 0.29562 -0.54255 -0.764389 0.344054 -0.494359 -0.768232 0.405469 
-0.424409 -0.745681 0.502334 -0.344066 -0.723902 0.591983 -0.212515 -0.60659 0.756593 
-0.118728 -0.458853 0.867606 -0.867843 -0.395775 -0.260354 -0.853245 -0.31513 -0.380105 
0.327793 -0.195513 -0.922189 0.282662 -0.238546 -0.928274 0.926175 0.0897393 0.350773 
0.848387 0.0569023 0.510036 0.775954 0.0420764 0.627323 0.727593 0.0560618 0.681082 
0.675665 0.0770817 0.731337 0.620863 0.130119 0.771338 0.623055 0.104435 0.77416 
-0.335556 -0.0655242 0.93317 -0.501093 -0.119031 0.832375 -0.677631 -0.155432 0.707876 
-0.745049 -0.218394 0.614458 -0.788665 -0.290969 0.521046 -0.82642 -0.334889 0.427101 
-0.848416 -0.397395 0.330452 -0.843047 -0.457512 0.250448 -0.80051 -0.560606 0.200293 
-0.843203 -0.484474 0.224801 -0.881148 -0.388581 0.257348 -0.86476 -0.362455 0.331498 
-0.845899 -0.331633 0.408165 -0.844816 -0.306451 0.432801 -0.861353 -0.275822 0.409874 
-0.919332 -0.244257 0.262362 -0.964991 -0.210794 0.073304 -0.967257 -0.180431 -0.107304 
-0.962921 -0.136917 -0.219706 -0.943788 -0.10618 -0.299154 -0.901228 -0.0806858 -0.410349 
-0.840127 -0.0677324 -0.519596 -0.764803 -0.063373 -0.633478 -0.66895 -0.0751407 -0.724028 
-0.562287 -0.0965333 -0.815405 -0.418445 -0.124718 -0.88577 -0.267168 -0.167589 -0.926972 
-0.259249 -0.268986 -0.911526 0.0528319 -0.16374 -0.978757 -0.0800708 -0.273473 -0.951926 
0.0939298 -0.111872 -0.983261 0.109859 -0.071631 -0.983539 0.174892 -0.0385302 -0.981931 
0.204858 -0.054439 -0.975529 0.317905 -0.27648 0.901177 0.197147 -0.392291 0.888618 
0.122986 -0.525679 0.83866 0.150913 -0.585373 0.78916 0.184765 -0.615652 0.760081 
0.253712 -0.594126 0.762323 0.442042 -0.454261 0.770407 0.626796 -0.270501 0.721669 
0.709644 -0.202524 0.668745 0.677481 -0.0113178 0.731476 0.631925 0.10457 0.765601 
0.367538 -0.114057 -0.921905 0.375348 -0.148224 -0.914167 0.33292 -0.175937 -0.924932 
0.270554 -0.215009 -0.936625 0.249778 -0.227977 -0.939987 0.297782 -0.307618 -0.897487 
0.411058 -0.305778 -0.857579 0.322023 -0.425996 -0.840395 0.378439 -0.247719 -0.884764 
0.467452 -0.248669 -0.841247 0.563688 -0.245412 -0.786585 0.644892 -0.238494 -0.721469 
0.739895 -0.200962 -0.634554 0.696467 -0.356564 -0.612452 0.771981 -0.388976 -0.493909 
0.706152 -0.462189 -0.528697 0.855394 -0.272019 -0.433446 0.926894 -0.1811 -0.30143 
0.724463 -0.237243 0.645117 0.641227 -0.310967 0.696185 0.446786 -0.362032 0.801708 
-0.332886 -0.332248 0.861667 -0.807534 -0.464311 0.349662 -0.78543 -0.423997 0.448777 
-0.785681 -0.427472 0.440398 -0.799698 -0.432195 0.401633 -0.845019 -0.426997 0.282945 
-0.900655 -0.387724 0.104001 -0.939977 -0.314543 -0.0552882 -0.944802 -0.251574 -0.175537 
-0.922674 -0.201894 -0.303261 -0.865281 -0.15581 -0.464048 -0.786428 -0.137609 -0.585405 
-0.719251 -0.136992 -0.678337 -0.406537 -0.240511 -0.868807 -0.41109 -0.168619 -0.893127 
0.168576 -0.156212 -0.9675 0.0587731 -0.248159 -0.956157 0.205664 -0.0977141 -0.972722 
-0.497415 -0.408874 0.74697 -0.601994 -0.449899 0.638522 -0.665186 -0.49511 0.536268 
-0.69249 -0.551639 0.444291 -0.70871 -0.583885 0.370649 -0.724067 -0.613978 0.290693 
-0.74307 -0.619492 0.245622 -0.67235 -0.692543 0.254099 -0.627275 -0.728387 0.272478 
-0.607305 -0.727815 0.308263 -0.589771 -0.713105 0.367532 -0.559481 -0.682469 0.455795 
-0.49713 -0.643183 0.571175 -0.370465 -0.601785 0.691309 -0.251714 -0.534635 0.797254 
0.475193 -0.339246 -0.803844 0.54664 -0.364467 -0.747927 0.612441 -0.359689 -0.697246 
-0.0117351 -0.373013 -0.91344 -0.0334442 -0.467606 -0.875645 -0.166157 -0.386062 -0.89595 
-0.572291 -0.429898 -0.684238 -0.460782 -0.426298 -0.760361 -0.66818 -0.41347 -0.60464 
-0.74179 -0.383283 -0.524777 -0.807466 -0.255357 -0.510776 0.406828 -0.490905 -0.763908 
0.646552 -0.525822 -0.548555 0.624486 -0.509505 -0.59041 0.553715 -0.504193 -0.656294 
0.321992 -0.498347 0.795892 0.487808 -0.508455 -0.70692 -0.642861 -0.259725 -0.701408 
-0.538346 -0.263051 -0.787192 -0.737594 -0.249297 -0.619322 -0.738876 -0.642867 -0.161392 
-0.826974 -0.548323 0.0204138 0.135824 0.311679 0.931854 0.920864 -0.350937 -0.0976929 
0.981835 -0.109782 -0.0777461 -0.497608 -0.160533 -0.838715 -0.604673 -0.148039 -0.762709 
-0.374521 -0.364984 -0.830574 
Radius 1 1114 double
0.15 0.15 0.85584108176 0.99218403359 0.15000075911 0.97473886452 0.14999996448 0.97560705024 0.14999901573 
0.86820679249 0.15000018109 0.72551052683 0.15000106001 0.69312003186 0.14999943096 0.71837606301 0.14999939493 0.70832816307 
0.15 0.71966453258 0.14999972429 0.76165067528 0.14999908507 0.82602534081 0.15 0.99919853122 0.15 
1.0814920483 0.15 1.139429402 0.15 1.0887070608 0.15 1.0827068773 0.14999995455 1.0991284047 
0.14999997566 1.1560749212 0.15000009461 1.279244873 0.15 1.4248085304 0.15 1.5298006055 0.15 
1.5153566332 0.15 1.4585946072 0.15 1.3054601286 0.15 1.0598796775 0.15 1.1381127214 
0.15 1.117477469 0.15 1.0211572256 0.15 0.9229790886 0.15 0.87801946839 0.15 
0.84701319253 0.15 0.87047165233 0.15 0.85790487 0.15 0.80548685385 0.15 0.77069616787 
0.15 0.78028763778 0.15 0.87323560322 0.15 1.0057434064 0.15 0.95662210979 0.15 
0.9533257778 0.15 1.0705025915 0.15 0.15 1.5351037051 1.5189697104 0.15 1.5271497918 
0.15 1.3347869756 0.15 1.2259793587 0.15 1.203852237 0.15 1.1833658073 0.15 
1.1979809955 0.15 1.2628884253 0.15 1.3462060626 0.15 1.4284862788 0.15 1.5364975822 
0.15 1.6480930802 0.15 1.7476060255 0.15 1.8287160922 0.15 1.6591604666 0.15 
1.5180086573 0.15 1.4034866402 0.15 1.3946671814 0.15 1.362258157 0.15 1.3120129678 
0.15 1.2292303557 0.15 1.1977797369 0.15 1.2403468277 0.15 1.3672663914 0.15 
1.2802763236 0.15 1.3061006229 0.15 1.2335403807 0.15 1.1971250011 0.15 1.3571017204 
0.15 1.464131859 0.15 1.5509302364 0.15 1.6224232904 0.15 1.6536683694 0.15 
1.5906957156 0.15 1.7321072592 0.15000009657 1.8448233626 0.1500005542 1.8025300097 0.15000043933 1.7315598648 
0.15 1.6576372 0.15 1.4659325031 0.15 1.3012074015 0.15 1.1374756269 0.15 
0.99642504277 0.15 0.85498169205 0.15 1.0730065275 0.15 1.2267617287 0.15 1.3492752974 
0.15 1.4232193307 0.15 1.4661119268 0.15 1.4992588147 0.15 1.5227737626 0.15 
1.3868481106 0.15 1.276167415 0.15 1.2770946546 0.15 1.2883594269 0.15 1.3040603136 
0.15 1.4153392604 1.2249526761 1.2023289054 1.2777253133 1.1234516763 0.88131677422 0.76858026367 0.72742898139 
0.72818654371 0.75813565542 0.82935098914 0.97916856658 1.2290351716 1.5222937705 1.5398129627 1.4519585241 1.3671575114 
1.31413232 1.3183498671 1.3930383732 1.6026180066 1.7823820206 1.8076401094 1.6892411176 1.5606957183 1.3617408255 
1.4771806435 1.4593560417 1.3701964265 1.2254185891 1.0928030487 1.006871992 1.0103291111 0.98554484146 0.94946732776 
0.95129894291 1.0143261563 1.165013752 1.4485256774 1.6482539201 1.7199924248 1.6587606001 1.3755881917 1.5063947648 
1.5474193654 1.4618982287 1.3582606464 1.2595141879 1.2983249237 1.396990051 1.4462908197 1.5076597555 1.5878051044 
1.6056799555 1.6998317563 1.775223815 1.8520801257 1.7061238749 1.518762052 1.3913101225 1.3509799845 1.2888893804 
1.2282632596 1.1829035115 1.1970868297 1.308595758 1.4454086729 1.5272882801 1.4827941609 1.5073748061 1.4467573511 
1.3995210866 1.4169116003 1.509610095 1.5928029046 1.6576561432 1.6774172846 1.8731479338 2.0152039816 2.1042429894 
2.0092260957 1.8524793892 1.6439091356 1.4710656179 1.3876098932 1.2458393284 1.1196405196 1.230683435 1.3085586665 
1.4475090291 1.5318260951 1.5368430196 1.5602126366 1.5726576581 1.4978957328 1.4500766146 1.4424630259 1.459321241 
1.4647395059 1.5357680103 1.6000878092 1.6197086834 1.6796081448 1.0616989306 1.2462184587 1.00167444 0.96641318045 
0.91565805266 0.96167981085 1.0608809498 1.2168883374 1.4878980589 1.8779931942 1.9483265745 1.8424715888 1.6379024998 
1.4709853118 1.4271067715 1.4500929637 1.5841619588 1.746821869 1.8781605692 1.736241924 1.6386689714 1.8213910182 
1.7516534539 1.8208253811 1.6697205322 1.5111163159 1.3662739343 1.2550154693 1.1932617922 1.1745770078 1.1580921035 
1.197965333 1.3026622913 1.4897859449 1.8892982651 1.9888750058 1.935569405 1.8293611957 1.5091852868 1.3752698119 
1.4235101078 1.7030473657 1.6304864517 1.7298916119 1.8210841114 1.7235105817 1.578219925 1.4751777236 1.4327787173 
1.5111857174 1.5745833714 1.6405814894 1.9242840778 1.7637819488 2.0633029894 2.1714039701 2.0724191621 1.9083233193 
1.5991110848 1.4976428369 1.5448374532 1.4187592595 1.3044794348 1.3097767086 1.3909561674 1.5209085433 1.5652526812 
1.5522216202 1.5811148983 1.6059193855 1.5784181236 1.5666784412 1.6089027174 1.5634231163 1.5083352142 1.6042467046 
1.6549411807 1.5887984112 1.4825118934 1.3210504315 1.2917189916 1.2308754719 1.4023964942 1.5195718468 1.5773635014 
1.6639959724 1.7065920892 1.6727407904 1.7103402476 1.7767642132 1.8758134469 1.8228858897 1.6597245183 1.4920766714 
1.4009277044 1.3185486682 1.219553708 1.2406078082 1.2645229545 1.2944599168 1.3447051051 1.544475565 1.7482119936 
2.0803603995 1.9654869917 1.6675365991 1.6712379231 1.9019334405 1.7717156677 1.9650687587 1.9922457602 1.9621056231 
1.8096935921 1.6412123506 1.4603937737 1.3534163998 1.2789060007 1.287542773 1.2961749997 1.3277710669 1.3897068243 
1.4989078428 1.645102446 1.8273229384 1.8957610869 1.6989209404 1.5118860856 1.3702338254 1.4287227056 1.3414298356 
1.434777798 1.2932125117 1.2344732509 1.1706846925 1.1599827902 1.2343584793 1.4007205356 1.650318515 2.0108010251 
2.2322064773 2.0706568057 1.8170025446 1.5961205 1.544154665 1.5526228607 1.631477062 1.7523716694 1.8605479572 
1.7316356799 1.5625583709 1.5341186619 1.5704429711 1.8838987605 1.6974807794 1.9593220704 1.6162156809 1.7050342516 
1.9069999993 1.9161779008 1.8938190201 1.6905228291 1.8390826776 1.6206162407 1.4872974631 1.5083099944 1.5679119658 
1.6525253861 1.794924549 1.7657895508 1.912946944 1.6746799042 1.6957374653 1.7940186904 1.8297459868 1.8761179521 
1.8309451663 1.7437611446 1.5035574073 1.5708546292 1.7861591276 1.6581660525 1.4694010098 1.4011636703 1.4407490688 
1.5553868114 1.5713098073 1.552031323 1.6297029147 1.6829855297 1.6490885463 1.6442768423 1.681702128 1.6471538009 
1.5708342242 1.6818935246 1.7094401006 1.6338420821 1.4701590328 1.2493847526 1.2006817801 1.2206379773 1.392381846 
1.5236178587 1.6243775313 1.6614006587 1.6827342089 1.63847006 1.6872638982 1.748417802 1.9034113317 1.9585898455 
1.8957842521 1.4735294865 1.5703270739 1.3709539858 1.2770305949 1.2608998265 1.2699202729 1.2979417104 1.3684233247 
1.5013060559 1.6576287394 1.7893954076 2.2139657193 1.9789834306 2.2341907609 2.1178891933 1.7881055034 1.5984361775 
1.6207185239 1.660146764 1.656425347 1.5549358026 1.7776742258 1.9068653781 2.157186785 2.0357630719 2.346236517 
2.4397468623 2.2444197716 1.9049357205 1.7502955007 1.6892322826 1.8060632341 1.737225066 1.8744971371 2.0279250938 
1.9787124391 1.9170265952 1.8252691677 1.6591137206 1.4832389537 1.3709424686 1.3362345995 1.3400561199 1.33648944 
1.3691705105 1.3983976643 1.3917951776 1.4902493756 1.5590935478 1.7094815503 1.5449828098 1.8062671046 1.8011299645 
1.7132502982 1.6006225302 1.4955636444 1.5033057089 1.5604002025 1.7050320457 1.8105650456 1.8277992448 1.9432716151 
2.0556998223 2.0397956506 1.8251896588 1.6073578753 1.4934585616 1.4259469998 1.3978128371 1.366358836 1.2909235374 
1.309131918 1.4910919922 1.8097368703 2.0473153893 2.2890061551 1.8785188489 2.0929526426 1.7082943793 1.6080508625 
1.619627461 1.6756535436 1.7523817084 1.7468692269 1.6820150237 1.6006924098 1.6362212623 1.5634654441 1.5705942057 
1.7569901992 1.6788001595 1.8753644414 1.9673483144 2.3164208017 2.360323211 1.9951545109 1.8661084101 1.9859988849 
2.0010007649 1.856540926 1.773556201 1.7134550364 1.6021638402 1.5934764098 1.562438549 1.5529514936 1.5050102657 
1.3757679387 1.5229611642 1.9444173484 1.8102016669 1.5390307567 1.4083587002 1.480047829 1.6221678777 1.620198251 
1.6778927203 1.7356079712 1.7471865309 1.7003054919 1.6909884003 1.7455794785 1.7048901677 1.6409666064 1.6625905351 
1.5667746964 1.6317441968 1.3890234142 1.2248872678 1.2233306818 1.2575163777 1.4114358835 1.4964994551 1.5089852152 
1.4998587584 1.5050709834 1.5408257222 1.6226558609 1.7252748489 1.8946404757 2.0164615831 1.9567423336 1.9510971623 
1.868319909 1.9037101443 1.8262378573 1.6937247503 1.6027816974 1.4540786453 1.3202655949 1.3341638506 1.370486515 
1.6915024013 1.7357614741 1.8889436245 1.9521822953 2.0047802588 1.8852576006 2.0218496256 1.8530929665 1.6932921459 
1.5899374392 1.4780857738 1.4562267071 1.4404021597 1.4609576616 1.4732719069 1.4486597189 1.5842496676 2.0288924687 
2.1475591691 1.8172369469 1.4490253167 1.5533979039 1.7079418798 1.7252820778 1.7596850779 1.8088845767 1.8166913212 
1.7339307122 1.6744704042 1.6285189945 1.6382298912 1.6273815537 1.7153159626 1.7824924248 1.7555514919 1.8214097316 
1.6548995595 1.5616074914 1.470629509 1.3626496194 1.2348918966 1.2196248085 1.2272091098 1.3042138367 1.357421921 
1.3864191933 1.3647455085 1.362054185 1.4919322676 1.6300884885 1.774630888 1.887815247 1.978782577 1.9256380074 
1.8993711102 1.8838422486 1.8313668685 1.8071866359 1.7760960503 1.7188938531 1.6077194424 1.5118381122 1.5230214887 
1.9880465782 1.938074811 1.9010372441 1.8193119082 1.6586026835 1.5041043187 1.3703754627 1.2972582039 1.2541417258 
1.2986915207 1.3226558983 1.3327433336 1.3202144956 1.3867287473 1.4628913173 1.3854379194 1.5158157303 1.3461697907 
1.7155382114 1.8034901162 1.8590544757 1.7383997888 1.6040314987 1.6103222695 1.6721081681 1.7596575546 1.9021678638 
2.0219162226 2.1125049403 2.0956333142 1.9148967414 1.7095996838 1.5551318822 1.5068356165 1.5484576934 1.5787889949 
1.4735506468 1.4017743808 1.5358068334 1.8428114841 2.012723793 2.1210204196 2.1989329348 2.158890736 2.1635177925 
2.1254401202 2.0306320725 1.8623838645 1.7206946957 1.678369598 1.6920323151 1.7233940801 1.7713492278 1.8492965263 
1.8469907725 1.8314572673 1.8257274049 1.6614426757 1.5869041883 1.6515821027 1.7674255235 1.7575234651 1.7686452961 
1.7815991796 1.8716570259 1.7142996846 1.4869975534 1.4697979967 1.4452412929 1.4943595469 1.5583967661 1.5181578557 
1.5390124276 1.89452425 2.1723152185 1.5055204409 1.8069748927 1.6223188802 1.704492097 1.7419405472 1.7849269923 
1.8274124736 1.8385162211 1.7832747881 1.7496393769 1.747966423 1.7573792552 1.7662894782 1.7707691492 1.78595862 
1.7634410807 1.7581583583 1.7047802347 1.7496762207 1.6625364087 1.5684467113 1.4814134876 1.3886782913 1.2951642334 
1.2866362424 1.2742782298 1.2635551547 1.2748001051 1.3368820935 1.2854472818 1.4287471687 1.3050413409 1.6020913201 
1.7895848043 1.887688873 2.1034503292 2.0941123398 1.7966371811 1.8542176736 1.8271209108 1.8274246422 1.6622102445 
1.671139365 1.8952812574 1.8624106308 1.8668439881 1.8589683337 1.6813304058 1.5157486598 1.3749499735 1.2545787356 
1.1052091173 1.1598655746 1.2417176581 1.272502018 1.2540339323 1.2890689843 1.2675149985 1.41888802 1.4290721968 
1.5342662943 1.6786254343 1.7374713169 1.7901652595 1.6846069599 1.6298924061 1.6759113854 1.731153526 1.7853327683 
1.9309808983 2.0480170374 2.1367069649 2.1051079444 1.972848657 1.8208867444 1.6509543217 1.6267855535 1.6897139834 
1.7898193828 1.6975633424 1.614415523 1.5449233152 1.7528287621 1.8937669755 1.9139473663 1.9421304478 2.0297183405 
2.0335211973 1.9672386345 2.0524847176 2.0219537304 1.9573303702 1.9004456474 1.8613725563 1.8806102025 1.8977712681 
1.8810365128 1.8904956541 1.9917403946 2.0144099486 2.0040073407 1.8487920833 1.6944215603 1.6237159297 1.6291558489 
1.7310270493 1.7310495983 1.7469687357 1.7529669524 1.6446015969 1.7728318793 1.9201110943 1.9639550019 2.0410047999 
2.2552476892 2.3973588097 2.4591033639 2.1994861044 1.9085385735 1.7568097569 1.7415570644 1.7700735585 1.7809198043 
1.8053435285 1.8448785629 1.8724047183 1.8229717347 1.8365776525 1.7765934707 1.8299068676 1.8218363503 1.6760773782 
1.5306141416 1.3993795597 1.2411349164 1.0487671535 1.0507472069 1.1349946901 1.2120362584 1.2240953749 1.4759395931 
1.3607917554 1.3609358233 1.5836515314 1.5998733812 1.6202736984 1.6503093103 1.6758877251 1.6365797609 1.5846651264 
1.6351355063 1.6967332033 1.7463865484 2.0038355163 1.966432238 2.0503848393 2.026702554 1.9325156624 1.7705938014 
1.5859629434 1.6275470891 1.8197305832 2.0651088757 1.7130096956 1.869387049 1.5892759717 1.6324747316 1.7734225593 
1.7550549321 1.7603332963 1.8323210618 1.8398023106 1.8400364464 1.7574139153 1.1594700311 1.1236191714 1.7584215225 
1.6649784869 1.5858014135 1.6228809348 1.6984153605 1.8334878666 2.056059794 1.4673290582 1.3745423946 1.4043566045 
1.4220563151 1.4253234815 1.4815299402 1.5813037011 1.8666733914 2.1189095068 1.9409076676 1.9576125921 1.7579900684 
1.5795782438 1.6552117515 1.7102822128 1.7275970208 1.7767430826 1.8356152741 1.8034972957 1.7630406398 1.7744105389 
1.7983607186 1.805314066 1.7812754341 1.7467495018 1.7268125269 1.6923720915 1.5957122119 1.7055020795 1.6022637202 
1.6776214329 1.6591826651 1.6020527331 1.5535540581 1.6725008142 1.7628028776 1.9010364908 1.9180341398 1.9329485597 
1.8524509008 1.8656430802 2.0057333225 2.3093514323 2.1020562048 2.0011203409 1.335540601 1.2895508076 1.2430517168 
1.2438206796 1.2191096164 1.1109901312 1.0207392264 1.0049465163 1.1061539367 1.1821898578 1.2639122845 1.4116236272 
1.6108740965 1.5934564559 1.8299355874 1.7339089221 1.8525817627 1.7992450398 2.2855513368 2.1153693197 1.8643532589 
1.5293415463 1.68601558 1.6031719856 1.6800299504 1.7663945892 1.8473548563 1.8584567067 1.7868916619 1.7482493249 
1.7437135423 1.7291558159 1.7786716169 1.8010225735 1.6289946998 1.6785953432 1.6841706712 1.617821097 1.6535083277 
1.4186740038 1.4849146367 1.4971519787 1.4940016309 1.5754980866 1.7238911639 1.8365043313 1.8878168937 1.7581384599 
1.6307144164 1.6162909909 1.6776050417 1.6746313476 1.6258645476 1.6616641789 1.0833054338 1.169274404 1.3579946254 
1.5914392739 1.6151789087 1.5654033313 1.641164363 1.6084830163 1.682481729 1.7255598204 1.718392973 1.0453920243 
1.6579447785 1.5440271072 1.3950611516 1.8079257315 1.2086969658 1.6851580972 1.6480907418 1.7214063059 1.5604588614 
1.523382896 1.701580778 1.7107892789 1.6654793182 1.7033702941 1.7516596896 1.5817267091 
STJ 1 1114 double
0 0 0 0 0 0 0 0 0 
0 0 0 0 0 0 0 0 0 
0 0 0 0 0 0 0 0 0 
0 0 0 0 0 0 0 0 0 
0 0 0 0 0 0 0 0 0 
0 0 0 0 0 0 0 0 0 
0 0 0 0 0 0 0 0 0 
0 0 0 0 0 0 0 0 0 
0 0 0 0 0 0 0 0 0 
0 0 0 1 1 0 0 1 0 
1 0 1 0 1 0 1 0 1 
0 1 0 1 0 1 0 1 0 
1 0 1 0 1 0 1 0 1 
0 1 0 1 0 1 0 1 0 
1 0 1 0 1 0 1 0 1 
0 1 0 1 0 1 0 1 0 
1 0 1 0 1 0 1 0 1 
0 1 0 0.99999990074 0 0.99999943037 0 0.99999953841 0 
1 0 1 0 1 0 1 0 1 
0 1 0 1 0 1 0 1 0 
1 0 1 0 1 0 1 0 1 
0 1 0 1 0 1 0 1 0 
1 0 0 0 0 0 0 0 0 
0 0 0 0 0 0 0 0 0 
0 0 0 0 0 0 0 0 0 
0 0 0 0 0 0 0 0 0 
0 0 0 0 0 0 0 0 0 
0 0 0 0 0 0 0 0 0 
0 0 0 0 0 0 0 0 0 
0 0 0 0 0 0 0 0 0 
0 0 0 0 0 0 0 0 0 
0 0 0 0 0 0 0 0 0 
0 0 0 0 0 0 0 0 0 
0 0 0 0 0 0 0 0 0 
0 0 0 0 0 0 0 0 0 
0 0 0 0 0 0 0 0 0 
0 0 0 0 0 0 0 0 0 
0 0 0 0 0 0 0 0 0 
0 0 0 0 0 0 0 0 0 
0 0 0 0 0 0 0 0 0 
0 0 0 0 0 0 0 0 0 
0 0 0 0 0 0 0 0 0 
0 0 0 0 0 0 0 0 0 
0 0 0 0 0 0 0 0 0 
0 0 0 0 0 0 0 0 0 
0 0 0 0 0 0 0 0 0 
0 0 0 0 0 0 0 0 0 
0 0 0 0 0 0 0 0 0 
0 0 0 0 0 0 0 0 0 
0 0 0 0 0 0 0 0 0 
0 0 0 0 0 0 0 0 0 
0 0 0 0 0 0 0 0 0 
0 0 0 0 0 0 0 0 0 
0 0 0 0 0 0 0 0 0 
0 0 0 0 0 0 0 0 0 
0 0 0 0 0 0 0 0 0 
0 0 0 0 0 0 0 0 0 
0 0 0 0 0 0 0 0 0 
0 0 0 0 0 0 0 0 0 
0 0 0 0 0 0 0 0 0 
0 0 0 0 0 0 0 0 0 
0 0 0 0 0 0 0 0 0 
0 0 0 0 0 0 0 0 0 
0 0 0 0 0 0 0 0 0 
0 0 0 0 0 0 0 0 0 
0 0 0 0 0 0 0 0 0 
0 0 0 0 0 0 0 0 0 
0 0 0 0 0 0 0 0 0 
0 0 0 0 0 0 0 0 0 
0 0 0 0 0 0 0 0 0 
0 0 0 0 0 0 0 0 0 
0 0 0 0 0 0 0 0 0 
0 0 0 0 0 0 0 0 0 
0 0 0 0 0 0 0 0 0 
0 0 0 0 0 0 0 0 0 
0 0 0 0 0 0 0 0 0 
0 0 0 0 0 0 0 0 0 
0 0 0 0 0 0 0 0 0 
0 0 0 0 0 0 0 0 0 
0 0 0 0 0 0 0 0 0 
0 0 0 0 0 0 0 0 0 
0 0 0 0 0 0 0 0 0 
0 0 0 0 0 0 0 0 0 
0 0 0 0 0 0 0 0 0 
0 0 0 0 0 0 0 0 0 
0 0 0 0 0 0 0 0 0 
0 0 0 0 0 0 0 0 0 
0 0 0 0 0 0 0 0 0 
0 0 0 0 0 0 0 0 0 
0 0 0 0 0 0 0 0 0 
0 0 0 0 0 0 0 0 0 
0 0 0 0 0 0 0 0 0 
0 0 0 0 0 0 0 0 0 
0 0 0 0 0 0 0 0 0 
0 0 0 0 0 0 0 0 0 
0 0 0 0 0 0 0 0 0 
0 0 0 0 0 0 0 0 0 
0 0 0 0 0 0 0 0 0 
0 0 0 0 0 0 0 0 0 
0 0 0 0 0 0 0 0 0 
0 0 0 0 0 0 0 0 0 
0 0 0 0 0 0 0 0 0 
0 0 0 0 0 0 0 0 0 
0 0 0 0 0 0 0 0 0 
0 0 0 0 0 0 0 0 0 
0 0 0 0 0 0 0 0 0 
0 0 0 0 0 0 0 0 0 
0 0 0 0 0 0 0 0 0 
0 0 0 0 0 0 0 0 0 
0 0 0 0 0 0 0 0 0 
0 0 0 0 0 0 0 0 0 
0 0 0 0 0 0 0 0 0 
0 0 0 0 0 0 0 0 0 
0 0 0 0 0 0 0 0 0 
0 0 0 0 0 0 0 0 0 
0 0 0 0 0 0 0 0 0 
0 0 0 0 0 0 0 0 0 
0 0 0 0 0 0 0 0 0 
0 0 0 0 0 0 0 0 0 
0 0 0 0 0 0 0 0 0 
0 0 0 0 0 0 0 0 0 
0 0 0 0 0 0 0 0 0 
0 0 0 0 0 0 0 0 0 
0 0 0 0 0 0 0 
Thickness 1 1114 double
3.0843743587 3.0843743587 1.7116811635 1.9843670672 3.0843725678 1.9494773495 3.0843744065 1.9512136642 3.0843761364 
1.736414245 3.084373816 1.4510218628 3.0843711819 1.3862395711 3.0843762115 1.4367523966 3.084376142 1.4166554335 
3.0843743587 1.4393290494 3.0843751466 1.5233006804 3.084376773 1.6520508744 3.0843743587 1.9983980624 3.0843743587 
2.1629846179 3.0843743587 2.2788584186 3.0843743587 2.1774147493 3.0843743587 2.1654141557 3.0843744295 2.198256635 
3.0843743994 2.3121498424 3.084374223 2.5584897461 3.0843743587 2.8496172107 3.0843743587 3.0596013582 3.0843743587 
3.0307136909 3.0843743587 2.9171902145 3.0843743587 2.6109210426 3.0843743587 2.1197588039 3.0843743587 2.2762257216 
3.0843743587 2.2349555237 3.0843743587 2.0423150016 3.0843743587 1.8459579354 3.0843743587 1.7560380027 3.0843743587 
1.6940265084 3.0843743587 1.7409430805 3.0843743587 1.7158088229 3.0843743587 1.6109739106 3.0843743587 1.5413928787 
3.0843743587 1.5605758955 3.0843743587 1.7464705097 3.0843743587 2.0114864178 3.0843743587 1.9132440229 3.0843743587 
1.9066514403 3.0843743587 2.1410042746 3.0843743587 3.0843743587 3.0702069954 3.0379384475 3.0843743587 3.0542995836 
3.0843743587 2.6695739511 3.0843743587 2.4519583687 3.0843743587 2.4077034968 3.0843743587 2.3667318307 3.0843743587 
2.3959624854 3.0843743587 2.5257760238 3.0843743587 2.6924116399 3.0843743587 2.8569722938 3.0843743587 3.0729942315 
3.0843743587 3.2961855706 3.0843743587 3.4952118205 3.0843743587 3.6574318639 3.0843743587 3.318321193 3.0843743587 
3.0360173706 3.0843743587 2.8069723377 3.0843743587 2.7893340362 3.0843743587 2.7245162533 3.0843743587 2.6240258918 
3.0843743587 2.4584606665 3.0843743587 2.3955595255 3.0843743587 2.4806938154 3.0843743587 2.7345327827 3.0843743587 
2.5605529739 3.0843743587 2.6122022099 3.0843743587 2.467081194 3.0843743587 2.3942500267 3.0843743587 2.7142041993 
3.0843743587 2.9282646523 3.0843743587 3.1018613394 3.0843743587 3.244847384 3.0843743587 3.3073375313 3.0843743587 
3.1813924158 3.0843743587 3.4642150101 3.0843742755 3.6896467253 3.084373881 3.6050600194 3.0843739521 3.4631197295 
3.0843743587 3.3152743608 3.0843743587 2.9318649104 3.0843743587 2.6024145738 3.0843743587 2.2749504809 3.0843743587 
1.9928497145 3.0843743587 1.7099636173 3.0843743587 2.1460136859 3.0843743587 2.4535240525 3.0843743587 2.6985500713 
3.0843743587 2.8464381602 3.0843743587 2.9322244522 3.0843743587 2.9985186295 3.0843743587 3.0455484035 3.0843743587 
2.7736960076 3.0843743587 2.5523340834 3.0843743587 2.5541886122 3.0843743587 2.5767184912 3.0843743587 2.6081213899 
3.0843743587 2.8306786214 2.4499055813 2.4046569098 2.5554502818 2.2469034537 1.7626335484 1.5371606861 1.454858888 
1.4563730973 1.5162713735 1.6587024579 1.9583373668 2.458070549 3.0445876955 3.079626032 2.9039166643 2.7343153321 
2.628263897 2.6366988285 2.7860765419 3.2052363307 3.5647650412 3.6152812188 3.3784828845 3.1213911136 2.7234816509 
2.9543619159 2.9187123231 2.7403928531 2.4508371371 2.1856054202 2.0137447524 2.0206583805 1.9710893555 1.898933756 
1.9025977918 2.0286530791 2.3300272663 2.8970512433 3.2965069392 3.4399850207 3.3175215157 2.7511755153 3.0127895297 
3.0948383602 2.9237964574 2.7165212929 2.5190283757 2.5966498475 2.7939801021 2.8925819155 3.0153192363 3.1756096242 
3.2113594594 3.3996632714 3.5504479564 3.7041607607 3.4122484967 3.0375244233 2.7826211832 2.7019603633 2.5777784961 
2.4565261502 2.3658067007 2.3941728981 2.6171915497 2.8908166086 3.0545765601 2.9655883218 3.0147496121 2.8935145109 
2.7990419605 2.8338237288 3.0192202575 3.1856058091 3.3153120193 3.3548341958 3.746296052 4.0304079602 4.2084860584 
4.0184525946 3.7049591094 3.2878178902 2.9421305197 2.7752194758 2.4916784762 2.2392809713 2.4613662283 2.6171168806 
2.8950179673 3.0636528326 3.0736866874 3.1204261835 3.1453157194 2.995790859 2.900152446 2.8849258361 2.9186426638 
2.9294791829 3.0715358051 3.2001746866 3.2394173668 3.3592152927 2.1233974762 2.492435933 2.0033487142 1.9328263875 
1.8313169765 1.9233592406 2.1217620574 2.4337766747 2.9757956495 3.7559863884 3.896653149 3.6849432554 3.2758056325 
2.9419707439 2.8542141737 2.9001858946 3.1683242924 3.4936444827 3.7563205436 3.4724844864 3.2773389428 3.6427821792 
3.5033069077 3.6416508859 3.3394412427 3.0222333079 2.7325478686 2.5100309385 2.3865232579 2.3491538517 2.3161838876 
2.3959312759 2.6053253426 2.9795728897 3.7785972563 3.9777503055 3.871138397 3.6587223038 3.0183705735 2.7505398211 
2.8470207498 3.4060949719 3.26097356 3.4597834734 3.6421683178 3.4470217679 3.1564400385 2.9503562076 2.8655579574 
3.0223707251 3.1491669559 3.2811634582 3.8485671556 3.5275635418 4.126605358 4.3428080383 4.1448385023 3.8166466997 
3.1982216225 2.9952849687 3.0896746382 2.837517546 2.608958596 2.6195528034 2.7819120044 3.0418176641 3.1305058186 
3.1044432242 3.162229319 3.2118379694 3.1568355834 3.1333561124 3.217805529 3.1268467134 3.0166708649 3.2084936559 
3.3098819196 3.1775958252 2.9650236235 2.6421014484 2.583438524 2.4617514092 2.8047929884 3.0391436936 3.1547272866 
3.3279927983 3.4131845349 3.3454808572 3.4206801027 3.5535284087 3.7516263493 3.6457717899 3.319449898 2.9841533435 
2.8018556019 2.6370975611 2.439108237 2.4812161966 2.5290455853 2.5889195083 2.6894102103 3.0889509242 3.4964234817 
4.1607206333 3.9309735788 3.3350729802 3.3424758463 3.8038660966 3.543431107 3.9301378257 3.9844921378 3.9242112463 
3.6193871842 3.2824247012 2.9207875473 2.7068327997 2.5578114895 2.5750847812 2.5923499664 2.6555422047 2.7794131408 
2.9978146857 3.290203892 3.6546459091 3.7915229803 3.397841445 3.023772409 2.7404674712 2.8574457443 2.6828589727 
2.8695555502 2.5864240235 2.468946179 2.3413695223 2.3199650004 2.4687163359 2.8014410711 3.30063703 4.0216012093 
4.4644134881 4.1413129336 3.6340048854 3.1922406879 3.0883093301 3.1052450561 3.2629531241 3.5047424997 3.7210957766 
3.4632709436 3.1251177418 3.0682378383 3.1408855997 3.7677965697 3.3949609411 3.9186434876 3.2324303942 3.4100680128 
3.8139992276 3.8323550019 3.7876380403 3.3810451165 3.6781653419 3.2412322303 2.9745946801 3.0166202116 3.1358243851 
3.3050510417 3.5898494526 3.5315794442 3.8258946681 3.3493594649 3.391474909 3.5880383402 3.6594927471 3.7522366286 
3.6618907554 3.4875221538 3.0071141046 3.1417083957 3.5723189637 3.316332337 2.9388014821 2.8023276645 2.8814985153 
3.1107732951 3.1426194719 3.1040636159 3.259406277 3.3659709501 3.2981776443 3.2885546445 3.3634051737 3.2943085512 
3.141669418 3.3637873768 3.4188811943 3.2676845129 2.9403183233 2.4987703673 2.4013645603 2.441276923 2.7847633523 
3.0472348592 3.2487542432 3.3228006248 3.3654682933 3.2769404954 3.3745287068 3.4968365582 3.8068225043 3.9171792591 
3.7915683168 2.9470586035 3.14065347 2.7419081155 2.5540613768 2.521799653 2.5398405457 2.5958834208 2.7368467442 
3.0026128184 3.3152572073 3.5787909846 4.4279314662 3.9579668692 4.4683805219 4.2357773865 3.5762103352 3.1968723028 
3.2414370478 3.320293528 3.3128496939 3.1098711598 3.5553477233 3.8137306678 4.3143735063 4.0715251716 4.6924738653 
4.8794939444 4.4888397491 3.8098722862 3.5005914669 3.3784645652 3.6121268317 3.4744502618 3.7489949266 4.0558501876 
3.9574248782 3.8340532357 3.6505383354 3.3182278854 2.9664784334 2.7418854691 2.6724693898 2.6801120745 2.6729789273 
2.7383412136 2.7967956893 2.7835900953 2.9804981784 3.1181861122 3.4189633116 3.0899658941 3.6125342092 3.6022599289 
3.4265013595 3.2012456158 2.9911281217 3.0066114696 3.1207998855 3.4100650115 3.6211290911 3.6555986504 3.8865425801 
4.1113988718 4.0795905116 3.6503789584 3.2147155929 2.9869163495 2.851893236 2.7956257859 2.7327179318 2.5818465897 
2.6182631963 2.9821838315 3.6194727996 4.0946306966 4.5780123102 3.7570367759 4.1859051176 3.4165894898 3.2161018725 
3.2392543309 3.3513060872 3.5047624168 3.4937374539 3.3640290754 3.2013838196 3.2724417194 3.1269303278 3.1411883818 
3.5139802578 3.3575999121 3.7507286208 3.9346958839 4.6328416034 4.7206459578 3.9903100053 3.7322175476 3.9719987698 
4.0020014868 3.7130820458 3.5471126512 3.4269105616 3.2043280303 3.1869528197 3.1248770979 3.1059026399 3.0100196625 
2.7515352858 3.045921907 3.8888342846 3.6204033572 3.078061968 2.8167175035 2.960096048 3.2443362505 3.2403966177 
3.3557863953 3.4712163538 3.4943729327 3.4006104298 3.3819765988 3.4911596454 3.4097806697 3.2819335943 3.3251815199 
3.1335492556 3.263488238 2.7780465211 2.4497741859 2.4466610085 2.5150323361 2.8228709722 2.9929989069 3.0179711088 
2.9997178286 3.0101419668 3.0816514444 3.245312125 3.4505506685 3.7892812258 4.0329230129 3.9134847994 3.9021941173 
3.7366399703 3.8074196263 3.6524760211 3.3874495007 3.2055633182 2.9081570676 2.6405312752 2.6683276369 2.7409731072 
3.3830047268 3.4715223088 3.7778881296 3.9043640881 4.0095598017 3.7705158675 4.0436993102 3.7061865567 3.3865842917 
3.1798748784 2.9561716707 2.9124539887 2.8808052262 2.9219157092 2.9465437 2.8973186834 3.1684987386 4.0577850595 
4.2951187217 3.6344738939 2.8980507814 3.1067953282 3.4158827595 3.4505631555 3.5193695405 3.6177684724 3.6333819496 
3.4678612784 3.3489408083 3.2570379889 3.2764597823 3.2547631073 3.4306321375 3.5649847887 3.5111023243 3.6428195261 
3.3097989923 3.1232154888 2.9412596481 2.7252991984 2.4697834658 2.439249334 2.4544180358 2.6084282687 2.7148444022 
2.7728382773 2.7294908904 2.7241080834 2.983864508 3.2601766685 3.5492609676 3.7756301304 3.9575650341 3.8512757741 
3.7987429188 3.7676841668 3.662734593 3.614374207 3.5521921753 3.4377876491 3.2154386158 3.0236760349 3.0460427249 
3.976092575 3.8761498998 3.8020754882 3.6386247131 3.3172057625 3.0082082102 2.740751432 2.5945173149 2.5082843951 
2.5973831444 2.6453121606 2.6654875836 2.640429823 2.7734578097 2.9257822495 2.7708768389 3.0316320187 2.6923401587 
3.4310765218 3.6069806256 3.7181082172 3.4767996639 3.2080639974 3.220645539 3.3442165006 3.5193141092 3.8043349731 
4.0438321066 4.2250098315 4.1912663743 3.8297932875 3.4191993676 3.1102637938 3.0136707687 3.0969154091 3.1575788258 
2.9471008733 2.8035488192 3.0716146147 3.6856233864 4.0254472674 4.2420401734 4.3978650905 4.3177818211 4.3270365853 
4.2508802404 4.0612641451 3.7247677124 3.4413893914 3.3567391961 3.3840645837 3.4467882265 3.5426990614 3.6985930175 
3.6939807145 3.6629140346 3.6514548237 3.3228857251 3.1738077249 3.3031637101 3.5348510219 3.5150467607 3.537290693 
3.5631987988 3.7433143735 3.4285990024 2.9739951516 2.9395960348 2.890482653 2.9887192191 3.1167936331 3.0363156715 
3.0780248552 3.7890485 4.344630537 3.0110413264 3.6139502621 3.2446371902 3.4089831941 3.4838806207 3.5698538536 
3.6548242971 3.6770317338 3.5665498477 3.4992794257 3.4959325328 3.5147578284 3.5325792315 3.5415392286 3.5719178591 
3.5268825397 3.5163168273 3.4095606281 3.4993527392 3.3250726635 3.1368925552 2.9628260091 2.7773555973 2.5903275783 
2.5732719611 2.5485564327 2.5271100607 2.5495996004 2.673763944 2.5708948313 2.8574953099 2.6100825875 3.2041831855 
3.5791703166 3.7753780447 4.2069006585 4.1882252642 3.5932735403 3.7084356927 3.6542418526 3.6548494133 3.3244198385 
3.3422788334 3.7905628998 3.7248220133 3.7336889192 3.717937538 3.3626618117 3.0314981427 2.7499009217 2.5091584713 
2.2104188635 2.3197306141 2.4834348282 2.5450040135 2.5080673204 2.5781384808 2.5350296081 2.83777504 2.8581434663 
3.0685322137 3.3572505263 3.474942181 3.5803305596 3.3692144939 3.2597855308 3.3518229245 3.4623067403 3.5706645914 
3.8619612876 4.0960340749 4.2734139297 4.2102160592 3.9456980372 3.6417742396 3.301908824 3.253571107 3.3794280901 
3.5796389014 3.3951266848 3.2288310461 3.0898468253 3.5056584092 3.787534521 3.8278941063 3.8842604865 4.0594365417 
4.0670430096 3.9344775141 4.1049698564 4.0439075192 3.9146607453 3.8008909995 3.7227446248 3.7612204049 3.7955419111 
3.7620727192 3.7809921671 3.9834810911 4.0288198971 4.0080146814 3.6975847835 3.3888434357 3.2474318595 3.2583116979 
3.4620540987 3.4620996096 3.4939372898 3.5059342105 3.2892035503 3.5456645591 3.8402222636 3.927909419 4.0820095998 
4.5104953784 4.7947178333 4.9182060119 4.398971533 3.8170765864 3.5136197893 3.4831150438 3.5401479003 3.561839241 
3.6106873683 3.6897566765 3.7448094985 3.6459428443 3.673155305 3.553187022 3.6598140085 3.6436717588 3.3521537837 
3.0612274493 2.7987591978 2.4822706892 2.0975351497 2.1014952383 2.2699892773 2.4240715798 2.4481903773 2.9518792256 
2.7215832428 2.7218715908 3.1673020628 3.1997457624 3.2405471983 3.3006191337 3.3517758116 3.2731597076 3.1693303888 
3.270271365 3.3934668912 3.4927740161 4.0076710189 3.9328642089 4.1007690949 4.0534045927 3.8650312928 3.5411871667 
3.1719257182 3.2550939316 3.6394609828 4.130217792 3.426019169 3.738774098 3.1785519814 3.2649500986 3.5468456767 
3.510110272 3.5206664377 3.6646426051 3.6796050686 3.6800729215 3.5148274621 2.318940401 2.2472393214 3.5168430449 
3.3299574804 3.171603613 3.2457621694 3.3968307211 3.6669751947 4.1121193062 2.9346579645 2.7490851089 2.8087138567 
2.8441131236 2.8506475319 2.9630597664 3.1626066362 3.7333464382 4.2378195765 3.8818162622 3.9152253335 3.5159801367 
3.1591564875 3.310423503 3.4205645474 3.4551942628 3.5534859991 3.671229865 3.6069937892 3.5260809732 3.5488212213 
3.5967214438 3.6106282262 3.5625514559 3.4935000037 3.4536258597 3.384744795 3.1914247494 3.4110038386 3.2045273824 
3.355243199 3.3183661296 3.2041057721 3.1071085408 3.3450017142 3.525605611 3.8020731921 3.8360690423 3.8658978928 
3.7049027999 3.7312860885 4.0114666257 4.6187021049 4.2041124095 4.0022406819 2.6710810556 2.5791015974 2.4861028265 
2.4876413499 2.4382198237 2.2219806094 2.0414776045 2.0098931356 2.2123082934 2.3643801054 2.5278247519 2.8232463514 
3.221747823 3.186913192 3.6598711749 3.4678175174 3.7051635254 3.5984905923 4.571102243 4.230737872 3.7287061691 
3.0586830069 3.3720315461 3.2063441114 3.3600600594 3.5327894372 3.6947100517 3.7169136114 3.5737835694 3.4964980796 
3.4874267607 3.4583124065 3.5573442234 3.6020461019 3.2579896773 3.3571916305 3.3683405303 3.23564166 3.3070164976 
2.8373473394 2.9698286177 2.9943030707 2.9880025821 3.1509960724 3.4477823278 3.6730086627 3.7756337874 3.5162766938 
3.2614280819 3.2325812812 3.3552099158 3.3492626953 3.2517296662 3.3233291368 2.1666100827 2.3385482345 2.7159888987 
3.1828786677 3.2303585508 3.1308067145 3.2823289253 3.2169657169 3.3649640391 3.4511201486 3.4367859522 2.0907842948 
3.3158887164 3.0880533385 2.7901221788 3.6158522566 2.4173940219 3.370316069 3.2961812404 3.4428128123 3.1209178025 
3.0467666566 3.4031615561 3.4215789925 3.3309593969 3.4067415881 3.5033203791 3.1634528604 
Total_Motion 1 1114 double
6.0221620875 6.0093606116 6.1114761226 6.0869437831 6.2140964798 6.1887911144 6.3903449195 6.3605980702 6.5780357387 
6.620736488 6.8428934621 6.8755203189 7.0656214845 7.1001345127 7.3859137968 7.3129290258 7.7584940067 7.5833075845 
8.2183964565 7.8764669612 8.8176299428 8.3160138739 9.5996055754 8.880163091 10.432549727 9.5032326931 11.027730418 
10.066724557 11.302051973 10.349461875 11.298475196 10.434561048 11.181606327 10.405808259 10.968987591 10.231286378 
10.659018742 9.9893505037 10.266537515 9.6544717467 9.8032372935 9.2954153663 9.3198676857 8.8183865141 8.8759506027 
8.3235550436 8.4001324664 7.8494989181 7.9001352954 7.3380705954 7.4406872484 6.9342686529 7.0393663586 6.5707841734 
6.6491485729 6.1859858938 6.3498133185 5.9265912317 6.2174828045 5.7942770835 6.3201880257 5.8687783479 6.5591924728 
6.1384963186 6.8440273488 6.401874177 7.0860949614 6.6356111172 7.1985687996 6.7462176548 7.0126562659 6.6540701624 
6.8924288665 6.5170074821 6.6702566514 6.3042565706 6.4731181875 6.1594210437 6.3095702538 6.1587029495 6.1542542261 
6.1253234153 6.0304370326 6.1160549057 9.3839756225 9.3408697468 8.7225459851 8.7925159631 9.2819742792 8.6285151158 
9.1771742097 8.4679549546 9.0440912384 8.3280409468 8.8861179714 8.2008579465 8.7773250586 8.0547982591 8.668708925 
7.921628972 8.5561411691 7.7959706307 8.4354829825 7.7243314691 8.3024964003 7.6731223534 8.1523815939 7.6234483555 
8.1253992185 7.6821393067 8.1667513557 7.7667973061 8.2680099 7.8505850118 8.4190125258 7.9294590637 8.4662053366 
7.989934069 8.4527245195 8.0324818992 8.4308428919 7.9192300997 8.2788871814 7.7593801918 8.0536837708 7.5731318984 
7.7733939958 7.3032127288 7.5800908163 7.0971898187 7.450225911 6.9623384775 7.4190598678 6.9764748251 7.4230529207 
7.1602739235 7.4455253822 7.2305358032 7.3995939391 7.1993935071 7.3200931879 7.1393072395 7.1920215562 6.9761764387 
6.9867263853 6.7005760596 6.7609675665 6.3618645368 6.5524128185 6.0242089821 6.3468109613 5.6796064855 6.1442241453 
5.4717692467 6.1904817058 5.4565551286 6.2977758194 5.5159322264 6.4978638273 5.7143408388 6.6675650513 5.8966499714 
6.8122835219 6.066661571 6.7734121597 6.1284287584 6.7589089846 6.1836119699 6.7827866079 6.2281413914 6.8949381235 
6.3353070396 7.0510525311 6.4956970567 7.3841648752 6.8045535735 7.731343007 7.165084099 8.1092357247 7.5859941605 
8.4548825335 7.9163335733 8.7739239639 8.176848177 8.7761370682 8.1897492245 8.6965107263 8.1644259228 8.5889581072 
8.1331834084 8.5384778135 8.135061684 8.6485578107 8.2317001048 8.8141886622 8.3807847229 9.0363300665 8.5474458181 
9.2178692978 8.6817567925 6.2843295813 6.1756439222 6.4031112482 6.7825580489 7.0768240275 7.2389179234 7.4037114029 
7.6297888087 7.8798057535 8.1212211014 8.4521145133 8.8692701768 9.2565258773 9.4952157379 9.5910851341 9.6073803332 
9.4817370393 9.3631501435 9.2459723759 8.959311052 8.596688208 8.168870155 7.6648779962 6.998132415 6.5139718598 
6.1393543927 5.8071254132 5.6172915722 5.5902531849 5.6823358016 5.9360394049 6.1958854701 6.4397187539 6.5534616102 
6.4698390967 6.3704859627 6.2189834851 6.1303390524 6.1799844847 6.2293464027 6.2067372014 6.1947261271 7.881120829 
7.9646076657 7.7467163171 7.589771637 7.411407625 7.2091245908 7.0550506915 6.9678868845 6.9924701593 7.0685140541 
7.1178301187 7.2092971615 7.3458744566 7.4516721688 7.5342985106 7.6012295937 7.6438422116 7.5693840544 7.4349504476 
7.2353269263 7.009348967 6.8094099901 6.6660634123 6.6080708342 7.1408537924 7.0426331391 7.1768885053 7.1731001303 
6.9858374309 6.7098717582 6.3508186832 5.923146022 5.3783176814 5.0085815177 4.9929690346 4.99787121 5.0731202164 
5.2016940719 5.294242514 5.3666418946 5.444755905 5.530411143 5.7060827066 5.9259288309 6.1679785431 6.5041821329 
6.9335103653 7.2861083257 7.5618466245 7.5666446832 7.5444920488 7.475943276 7.4538476265 7.5570691049 7.7232592887 
7.9006276604 7.9493900981 8.0118291747 6.9424606326 6.9030121145 7.3052311259 7.1703712779 7.4495104258 7.5638768776 
7.6980876497 7.8792864982 8.0338631284 8.2101609513 8.4459040473 8.6384920007 8.7736423883 8.8751671914 8.9045600987 
8.8444316209 8.8692654414 8.8145448792 8.6563898775 8.4076855073 8.083401733 7.7080167706 7.2810306983 6.0156308975 
6.2940564045 5.7678727105 5.6790721317 5.7067626628 5.8122208204 6.0987363103 6.3547551545 6.5779746249 6.7062852673 
6.6286647437 6.5561412419 6.4884537393 6.5305773382 6.4829843692 6.3701474391 6.2958767416 6.2613883407 6.3322009709 
6.3822348167 6.6530451683 6.9912184639 7.1906856596 7.245425331 7.4084115438 7.4523819177 7.2340616192 6.9416765561 
6.5929436291 6.2327378178 5.9278590943 4.6762987226 4.8455651547 4.640168869 4.6371529194 4.643762229 4.6857469986 
4.7495623305 4.8268294931 4.9129383784 5.1308132057 5.3129061696 5.5356141907 5.808009184 6.090347977 6.3913013108 
6.6827537431 6.7006375104 6.6832598317 6.6253505202 6.6146341389 6.7669668283 6.917340308 7.0686875783 7.0496936985 
7.1241861056 7.0606016853 7.0035483001 6.9113058484 6.820284538 6.6635207534 6.4467516509 6.3085517015 6.2383851585 
6.3945822949 6.5290816038 6.6502612547 6.7812914745 6.9199039477 7.0568386161 7.1431766848 7.157798496 7.2719462556 
7.2668664279 7.1645151359 6.9766033881 6.8091721545 6.6363003828 6.5777423154 6.4839669964 6.7501689691 7.1704647202 
7.7618773274 7.594463076 5.2407306405 5.8126065213 6.6622347006 6.9557502572 6.3957721829 6.1753384701 5.9968974976 
5.9739003172 6.0901566827 6.3300635658 6.6018013512 6.8124677685 6.9282034822 6.9486467574 6.8974995216 6.8398167548 
6.7724206445 6.7355514217 6.4793945049 6.6497747754 6.3264957931 6.293666569 6.3936601913 6.4740730835 7.5960509507 
7.461112846 7.7021951878 7.7771595586 7.8448068149 7.9356967532 8.0483145246 8.1582801083 8.2060687339 8.2261690263 
8.336777734 8.3908001378 8.3943656875 8.4316998223 8.4181392826 8.3993359137 8.3485473752 8.2404307972 8.0471331135 
7.7285523946 7.4831584129 7.2872145669 7.1189613345 6.8221112843 6.9309617573 6.6739557968 7.1132308988 7.3077775433 
6.9779560242 7.1233960511 6.6951685556 6.7717854481 7.7529303499 7.4782012833 7.2020347789 6.9176395428 6.6041149841 
6.3608262805 6.3149483957 5.8276438021 6.3943160742 5.2996949882 4.952460664 4.6909174946 4.5831060683 4.4865478301 
4.4144596611 4.3801575272 4.3767276128 4.4422115583 4.5095296615 4.6957346833 4.9400544715 5.0707732648 5.1522283822 
5.247525124 5.4244154081 5.6915334693 5.7212838479 5.7199120041 5.6910492451 5.7544753664 5.9322220039 6.0894134034 
6.2488714045 6.0108444493 6.1362455944 6.1430749442 6.1184139179 6.0704168299 5.976152606 5.8619730558 5.6757025014 
5.6097933164 5.6441418715 5.8344988535 6.0413728969 6.2510886782 6.4114232596 6.5636179854 6.6475405074 6.7409245785 
6.7614666587 6.9525036496 6.9378992872 6.8817334669 6.7194536142 6.6217941644 6.5334945062 6.5085127403 6.5772029577 
6.7353488351 7.0473530138 7.4108002533 7.8220688317 7.6207129422 7.9053154414 7.8528386371 7.5893017517 7.3260941732 
7.0834538869 6.8103619397 6.9113860151 6.5823583649 7.2108631483 7.4297678253 7.643589468 7.4632720335 7.8331404079 
7.9140765047 7.8649132578 7.7378761916 7.526921764 7.3005023046 7.0787478828 6.806699107 6.5801577154 6.4712450038 
6.3382655293 6.2880836752 6.3480887373 6.5049356874 6.7479834366 6.9701144384 7.1003071727 7.1808020387 7.1565131949 
7.0703026881 6.9992829676 6.9235269456 6.8647811312 6.849554358 6.7943002357 6.8071557238 6.6903831928 6.5526348852 
6.4757522225 6.3617030819 6.3478009105 6.3986135537 6.4903120791 6.5136490002 6.5752941705 6.740936791 6.7035931279 
6.8567655072 7.0227267789 7.3007650795 7.5770512944 7.748366547 7.853192593 7.8853131324 7.9280873297 8.0017561238 
8.0085393224 7.9844073107 7.9744656714 8.0051665388 8.2202075825 8.3839861868 8.4216136996 8.1970898032 8.1362980984 
8.1202351567 8.1046292969 8.036573567 7.9171383707 7.7788313365 7.6628522569 7.4669571248 7.2320765579 6.966083601 
6.6927802743 6.636284085 6.6341957288 6.534303835 8.4616425479 8.4855696938 6.9692331206 6.7196649467 6.5981020979 
7.1981967745 5.9709079786 5.5321957964 5.2378504497 4.9837890998 4.8531696967 4.6535314449 4.5012221482 4.3607549976 
4.2847332697 4.288573071 4.3780876921 4.5020328632 4.6560735514 4.6801633588 4.7239701733 4.7193002909 4.8654890515 
4.8417331829 4.8828823039 4.9430400091 4.9531904712 5.0437785686 5.2273998826 5.4296135436 5.6535095996 5.4913949861 
5.2565439137 5.328323378 5.293763217 5.3352655574 5.2716730697 5.1963575836 5.084640158 5.0661313929 5.2495970717 
5.4404023501 5.6496199291 5.7971968069 5.9551352909 6.1307551852 6.271106763 6.4036941308 6.4928101157 6.3157614114 
6.3533306599 6.1207235907 6.5691992308 6.6872573899 6.6878407715 6.6205501333 6.4829246778 6.4534947671 6.510605761 
5.2749295626 5.0348256046 7.3279746671 7.7681281657 7.5377291773 8.091131375 6.8139455411 6.1714066708 5.742217116 
5.6169143376 5.4174057104 5.1824335372 4.9239207124 4.664730818 4.4250908901 4.3573887766 4.3715060034 4.5070526492 
4.7334453518 4.6949380497 4.6395017521 4.5144269593 4.4068113662 4.4563439533 4.4983628545 4.5013352081 4.5145436475 
4.490582784 4.5282651424 4.6297421372 4.8745578281 5.1311502516 5.0476410139 4.7871996886 4.7209609442 4.7517209247 
4.7059693026 4.7094292111 4.6895091409 4.7651904094 4.8173781374 4.7807366926 4.724569468 4.7557291606 4.8710636928 
5.079662354 5.2761853941 5.4437566134 5.4984890909 5.5738714469 5.6848851994 5.9165665377 6.1445323662 5.9413922951 
5.9771090447 5.7746809087 6.1934876167 6.4241597243 6.544155558 6.4991232481 6.449683022 6.3941966181 6.4441322057 
6.4586317027 6.3855390311 6.4057892827 6.5494827629 6.7430381611 6.9453970177 7.1170408417 7.1862353258 7.1608578251 
7.1031517901 7.006956673 6.9072159579 6.8713478074 6.855269993 6.839948572 6.7197841026 6.6626416784 6.4069214907 
6.7356647939 6.6734514817 6.5272655377 6.4041299582 6.3175320526 6.2825662386 6.315710147 6.3835244756 6.4183069118 
6.4953766645 6.5990205187 6.7967237173 7.0527372918 7.3719320701 7.6380280611 7.6932694691 7.6617463167 7.6241279726 
7.5793263155 7.6355274777 7.6704619134 7.7183163927 7.8319666907 7.9657337305 8.2720368106 8.7511042443 8.6354295946 
8.7861475684 8.673631886 8.4991941967 8.2826380068 8.0927302883 8.0098808642 7.9594440987 7.9044990165 7.8681940619 
7.8315548426 7.6983948102 7.5335040514 7.1832988281 6.8191995057 6.5298069891 6.3644283569 6.2802621744 6.5118294309 
6.4428532821 6.3310359798 6.2366229157 6.0057786789 5.7012958852 5.3193336278 4.9637409004 4.6259368856 4.5466966561 
4.5182870225 4.6795459278 4.9266530205 4.7551200579 4.909251584 4.6287519571 4.4738905819 4.4966509726 4.5225880201 
4.5795771894 4.5961755393 4.5244913971 4.4506183155 4.4280641258 4.4988423259 4.6686818411 4.7943457973 4.7360011257 
4.8765126119 4.9750325325 5.267283201 4.6854331825 4.612566411 4.4538366176 4.4292850385 4.4474188161 4.490388511 
4.5587771191 4.6782544319 4.7967633775 4.9415682853 5.1808218737 5.3727405468 5.3976715467 5.4388329268 5.4644741798 
5.5665647335 5.7532238842 5.1076294713 5.3041561974 5.653288953 5.7273037766 5.7214483305 5.8096633697 5.9992217098 
6.2999160422 6.300604522 6.2969311936 6.4241323062 6.5534976496 6.7086605467 6.8572104528 6.9640180914 6.9755671278 
6.9350487877 6.8211032583 6.6699103116 6.5598433542 6.571233125 6.6143462278 5.930691589 5.9620120797 5.3256756192 
6.3439980976 6.5769426777 6.5756906553 6.49313747 6.2888625135 6.1052795069 6.068768689 6.0824969477 6.1338600414 
6.1622057768 6.192362701 6.1943701781 6.3088028391 6.5343628982 6.7734921899 6.9887390274 7.051047003 6.9901200533 
6.8610171387 6.9547622812 7.0383827558 7.1981511691 7.2877139692 7.4646460124 7.6987939423 8.0608902614 8.4352786392 
8.8721848669 8.6762626235 9.0355448499 8.9727125694 8.9115392895 8.6391679259 8.3325145038 8.056092089 7.9419223611 
7.8309493923 7.6577825836 7.6967200022 7.7216174625 7.5683960133 7.3464659564 7.0166889468 6.6490053545 6.3634247289 
6.2326800687 6.0732337244 6.110510715 6.195321549 6.7102693202 7.0593638645 7.2432408104 7.4049769548 7.5660389858 
7.629051631 7.7797366073 7.9093860399 7.9557286451 8.0020616378 7.9119883059 7.6675863953 8.1165460542 8.499558005 
8.3398450379 8.6800971419 7.7910947402 6.9030973596 6.1247969803 6.0881232022 6.1895679241 6.3605619005 6.5133646666 
6.5693003366 6.5763794039 6.5926182431 6.5646940744 6.4555734915 6.0760646118 5.9527255512 5.9148691058 4.7731389198 
4.6380057501 4.7872383846 5.4074635525 5.9631474227 6.2675631366 6.4306956918 6.3795704316 6.0597285979 5.8741111762 
5.8174486067 5.75776098 5.724150259 5.6430652787 5.7156127169 5.5849719162 5.6646320505 5.8574506914 6.0241295648 
6.1757002498 6.2000727498 6.1368439148 5.8229234678 6.4338672027 6.1722439768 6.6939689327 6.9154675763 7.1111849462 
7.4646718734 7.7672164582 8.0747424354 8.319145665 5.6861251177 5.4786044752 5.5052282143 5.6150315486 6.3052363828 
6.294735058 6.3910330405 6.719988457 6.984741079 7.1806465535 7.4559804913 6.8001891248 6.368116328 5.8612448646 
5.4182906954 5.068312996 4.9360444067 4.8706551381 4.9558682604 5.2019270251 5.5951715431 5.2978970491 5.2175266611 
5.0997842795 4.9133846168 4.7847897403 4.8064313131 4.7646230522 4.7598213508 4.7587412348 4.7262871013 4.6616070072 
4.518624517 4.4724010825 4.6027793247 4.7579012584 4.8673654302 5.1042658981 5.5540220059 5.378745512 5.7393326751 
4.9654666811 4.6543179124 4.5442064625 4.5886652529 8.3897370463 8.7435765153 9.0155853533 8.9849079398 8.9552213909 
8.9001450901 8.5610909461 8.1883171007 7.9110874483 7.7283881511 7.676352532 5.0084430252 5.1478861665 5.3273129252 
5.5373700202 5.5955481458 5.8103705794 5.7816890435 6.072931438 5.6031462117 5.5655698295 5.5406286942 5.5792415393 
5.5864850355 5.7916593397 5.9168614575 6.0778962357 5.7929931996 5.8152023019 7.9189463626 8.0844813727 8.4048219022 
7.6506484583 5.6027196323 5.5309939551 5.3592565317 5.1932163455 5.0687162663 5.0525192996 5.1040351112 5.1400619009 
5.1509591121 5.0033665176 4.811315881 4.7207214183 5.2725280156 4.9960643636 5.4581509075 5.8605363182 4.9952488791 
7.0483412361 6.4720832548 6.0550918841 5.76248278 5.4941999999 5.3089933895 5.2363606521 5.5839859 5.8185618234 
6.112335256 6.3726295749 6.6413050066 6.9828325202 7.4223217764 7.7773577246 5.8331597984 5.8548385477 5.7934904347 
6.1059124036 6.2261298101 5.8980617583 5.5439123975 5.5822854946 5.4631282781 5.4799885346 5.2347638599 6.1919732183 
6.2472245295 6.1950963573 6.1575022545 8.8552079968 6.1936085934 5.1843928529 5.2355087773 5.1268956042 6.4499251925 
6.7706252844 6.5773224885 6.0818152591 5.9062241596 4.9319083559 4.8295292059 5.6318072973 
VAJ 1 1114 double
1 1 0 0 0.99999881155 0 1.0000000427 0 1.0000013454 
0 0.99999967501 0 0.99999809768 0 1.0000010742 0 1.0000010751 0 
1 0 1.000000481 0 1.0000015243 0 1 0 1 
0 1 0 1 0 1 0 1.0000000581 0 
1.0000000321 0 0.99999988331 0 1 0 1 0 1 
0 1 0 1 0 1 0 1 0 
1 0 1 0 1 0 1 0 1 
0 1 0 1 0 1 0 1 0 
1 0 1 0 1 0 1 0 1 
0 1 0 0 0 0 0 0 0 
0 0 0 0 0 0 0 0 0 
0 0 0 0 0 0 0 0 0 
0 0 0 0 0 0 0 0 0 
0 0 0 0 0 0 0 0 0 
0 0 0 0 0 0 0 0 0 
0 0 0 0 0 0 0 0 0 
0 0 0 0 0 0 0 0 0 
0 0 0 0 0 0 0 0 0 
0 0 0 0 0 0 0 0 0 
0 0 0 0 0 0 0 0 0 
0 0 0 0 0 0 0 0 0 
0 0 0 0 0 0 0 0 0 
0 0 0 0 0 0 0 0 0 
0 0 0 0 0 0 0 0 0 
0 0 0 0 0 0 0 0 0 
0 0 0 0 0 0 0 0 0 
0 0 0 0 0 0 0 0 0 
0 0 0 0 0 0 0 0 0 
0 0 0 0 0 0 0 0 0 
0 0 0 0 0 0 0 0 0 
0 0 0 0 0 0 0 0 0 
0 0 0 0 0 0 0 0 0 
0 0 0 0 0 0 0 0 0 
0 0 0 0 0 0 0 0 0 
0 0 0 0 0 0 0 0 0 
0 0 0 0 0 0 0 0 0 
0 0 0 0 0 0 0 0 0 
0 0 0 0 0 0 0 0 0 
0 0 0 0 0 0 0 0 0 
0 0 0 0 0 0 0 0 0 
0 0 0 0 0 0 0 0 0 
0 0 0 0 0 0 0 0 0 
0 0 0 0 0 0 0 0 0 
0 0 0 0 0 0 0 0 0 
0 0 0 0 0 0 0 0 0 
0 0 0 0 0 0 0 0 0 
0 0 0 0 0 0 0 0 0 
0 0 0 0 0 0 0 0 0 
0 0 0 0 0 0 0 0 0 
0 0 0 0 0 0 0 0 0 
0 0 0 0 0 0 0 0 0 
0 0 0 0 0 0 0 0 0 
0 0 0 0 0 0 0 0 0 
0 0 0 0 0 0 0 0 0 
0 0 0 0 0 0 0 0 0 
0 0 0 0 0 0 0 0 0 
0 0 0 0 0 0 0 0 0 
0 0 0 0 0 0 0 0 0 
0 0 0 0 0 0 0 0 0 
0 0 0 0 0 0 0 0 0 
0 0 0 0 0 0 0 0 0 
0 0 0 0 0 0 0 0 0 
0 0 0 0 0 0 0 0 0 
0 0 0 0 0 0 0 0 0 
0 0 0 0 0 0 0 0 0 
0 0 0 0 0 0 0 0 0 
0 0 0 0 0 0 0 0 0 
0 0 0 0 0 0 0 0 0 
0 0 0 0 0 0 0 0 0 
0 0 0 0 0 0 0 0 0 
0 0 0 0 0 0 0 0 0 
0 0 0 0 0 0 0 0 0 
0 0 0 0 0 0 0 0 0 
0 0 0 0 0 0 0 0 0 
0 0 0 0 0 0 0 0 0 
0 0 0 0 0 0 0 0 0 
0 0 0 0 0 0 0 0 0 
0 0 0 0 0 0 0 0 0 
0 0 0 0 0 0 0 0 0 
0 0 0 0 0 0 0 0 0 
0 0 0 0 0 0 0 0 0 
0 0 0 0 0 0 0 0 0 
0 0 0 0 0 0 0 0 0 
0 0 0 0 0 0 0 0 0 
0 0 0 0 0 0 0 0 0 
0 0 0 0 0 0 0 0 0 
0 0 0 0 0 0 0 0 0 
0 0 0 0 0 0 0 0 0 
0 0 0 0 0 0 0 0 0 
0 0 0 0 0 0 0 0 0 
0 0 0 0 0 0 0 0 0 
0 0 0 0 0 0 0 0 0 
0 0 0 0 0 0 0 0 0 
0 0 0 0 0 0 0 0 0 
0 0 0 0 0 0 0 0 0 
0 0 0 0 0 0 0 0 0 
0 0 0 0 0 0 0 0 0 
0 0 0 0 0 0 0 0 0 
0 0 0 0 0 0 0 0 0 
0 0 0 0 0 0 0 0 0 
0 0 0 0 0 0 0 0 0 
0 0 0 0 0 0 0 0 0 
0 0 0 0 0 0 0 0 0 
0 0 0 0 0 0 0 0 0 
0 0 0 0 0 0 0 0 0 
0 0 0 0 0 0 0 0 0 
0 0 0 0 0 0 0 0 0 
0 0 0 0 0 0 0 0 0 
0 0 0 0 0 0 0 0 0 
0 0 0 0 0 0 0 0 0 
0 0 0 0 0 0 0 0 0 
0 0 0 0 0 0 0 0 0 
0 0 0 0 0 0 0 0 0 
0 0 0 0 0 0 0 0 0 
0 0 0 0 0 0 0 0 0 
0 0 0 0 0 0 0 0 0 
0 0 0 0 0 0 0 0 0 
0 0 0 0 0 0 0 0 0 
0 0 0 0 0 0 0 0 0 
0 0 0 0 0 0 0 0 0 
0 0 0 0 0 0 0 0 0 
0 0 0 0 0 0 0 0 0 
0 0 0 0 0 0 0 0 0 
0 0 0 0 0 0 0 
vtkValidPointMask 1 1114 char
1 1 1 1 1 1 1 1 1 
1 1 1 1 1 1 1 1 1 
1 1 1 1 1 1 1 1 1 
1 1 1 1 1 1 1 1 1 
1 1 1 1 1 1 1 1 1 
1 1 1 1 1 1 1 1 1 
1 1 1 1 1 1 1 1 1 
1 1 1 1 1 1 1 1 1 
1 1 1 1 1 1 1 1 1 
1 1 1 1 1 1 1 1 1 
1 1 1 1 1 1 1 1 1 
1 1 1 1 1 1 1 1 1 
1 1 1 1 1 1 1 1 1 
1 1 1 1 1 1 1 1 1 
1 1 1 1 1 1 1 1 1 
1 1 1 1 1 1 1 1 1 
1 1 1 1 1 1 1 1 1 
1 1 1 1 1 1 1 1 1 
1 1 1 1 1 1 1 1 1 
1 1 1 1 1 1 1 1 1 
1 1 1 1 1 1 1 1 1 
1 1 1 1 1 1 1 1 1 
1 1 1 1 1 1 1 1 1 
1 1 1 1 1 1 1 1 1 
1 1 1 1 1 1 1 1 1 
1 1 1 1 1 1 1 1 1 
1 1 1 1 1 1 1 1 1 
1 1 1 1 1 1 1 1 1 
1 1 1 1 1 1 1 1 1 
1 1 1 1 1 1 1 1 1 
1 1 1 1 1 1 1 1 1 
1 1 1 1 1 1 1 1 1 
1 1 1 1 1 1 1 1 1 
1 1 1 1 1 1 1 1 1 
1 1 1 1 1 1 1 1 1 
1 1 1 1 1 1 1 1 1 
1 1 1 1 1 1 1 1 1 
1 1 1 1 1 1 1 1 1 
1 1 1 1 1 1 1 1 1 
1 1 1 1 1 1 1 1 1 
1 1 1 1 1 1 1 1 1 
1 1 1 1 1 1 1 1 1 
1 1 1 1 1 1 1 1 1 
1 1 1 1 1 1 1 1 1 
1 1 1 1 1 1 1 1 1 
1 1 1 1 1 1 1 1 1 
1 1 1 1 1 1 1 1 1 
1 1 1 1 1 1 1 1 1 
1 1 1 1 1 1 1 1 1 
1 1 1 1 1 1 1 1 1 
1 1 1 1 1 1 1 1 1 
1 1 1 1 1 1 1 1 1 
1 1 1 1 1 1 1 1 1 
1 1 1 1 1 1 1 1 1 
1 1 1 1 1 1 1 1 1 
1 1 1 1 1 1 1 1 1 
1 1 1 1 1 1 1 1 1 
1 1 1 1 1 1 1 1 1 
1 1 1 1 1 1 1 1 1 
1 1 1 1 1 1 1 1 1 
1 1 1 1 1 1 1 1 1 
1 1 1 1 1 1 1 1 1 
1 1 1 1 1 1 1 1 1 
1 1 1 1 1 1 1 1 1 
1 1 1 1 1 1 1 1 1 
1 1 1 1 1 1 1 1 1 
1 1 1 1 1 1 1 1 1 
1 1 1 1 1 1 1 1 1 
1 1 1 1 1 1 1 1 1 
1 1 1 1 1 1 1 1 1 
1 1 1 1 1 1 1 1 1 
1 1 1 1 1 1 1 1 1 
1 1 1 1 1 1 1 1 1 
1 1 1 1 1 1 1 1 1 
1 1 1 1 1 1 1 1 1 
1 1 1 1 1 1 1 1 1 
1 1 1 1 1 1 1 1 1 
1 1 1 1 1 1 1 1 1 
1 1 1 1 1 1 1 1 1 
1 1 1 1 1 1 1 1 1 
1 1 1 1 1 1 1 1 1 
1 1 1 1 1 1 1 1 1 
1 1 1 1 1 1 1 1 1 
1 1 1 1 1 1 1 1 1 
1 1 1 1 1 1 1 1 1 
1 1 1 1 1 1 1 1 1 
1 1 1 1 1 1 1 1 1 
1 1 1 1 1 1 1 1 1 
1 1 1 1 1 1 1 1 1 
1 1 1 1 1 1 1 1 1 
1 1 1 1 1 1 1 1 1 
1 1 1 1 1 1 1 1 1 
1 1 1 1 1 1 1 1 1 
1 1 1 1 1 1 1 1 1 
1 1 1 1 1 1 1 1 1 
1 1 1 1 1 1 1 1 1 
1 1 1 1 1 1 1 1 1 
1 1 1 1 1 1 1 1 1 
1 1 1 1 1 1 1 1 1 
1 1 1 1 1 1 1 1 1 
1 1 1 1 1 1 1 1 1 
1 1 1 1 1 1 1 1 1 
1 1 1 1 1 1 1 1 1 
1 1 1 1 1 1 1 1 1 
1 1 1 1 1 1 1 1 1 
1 1 1 1 1 1 1 1 1 
1 1 1 1 1 1 1 1 1 
1 1 1 1 1 1 1 1 1 
1 1 1 1 1 1 1 1 1 
1 1 1 1 1 1 1 1 1 
1 1 1 1 1 1 1 1 1 
1 1 1 1 1 1 1 1 1 
1 1 1 1 1 1 1 1 1 
1 1 1 1 1 1 1 1 1 
1 1 1 1 1 1 1 1 1 
1 1 1 1 1 1 1 1 1 
1 1 1 1 1 1 1 1 1 
1 1 1 1 1 1 1 1 1 
1 1 1 1 1 1 1 1 1 
1 1 1 1 1 1 1 1 1 
1 1 1 1 1 1 1 1 1 
1 1 1 1 1 1 1 1 1 
1 1 1 1 1 1 1 1 1 
1 1 1 1 1 1 1 
Stress_X_Pt 1 1114 double
0.017245552503 0.01419583708 0.012335270643 0.016412450932 0.0077375273686 0.0073883561417 0.0039515580283 0.0046191694564 0.00070044666063 
0.0022725751624 0.0011613345705 0.0018290224834 0.0018264714713 0.0025663386607 -0.00013624396843 0.0025916286525 0.0004244382435 0.0033826887811 
0.0019425104838 0.0048716954188 0.0034411773086 0.00673067756 0.0042330154683 0.0081988965394 0.0049986806698 0.0090563204139 0.0060622778255 
0.0097870506579 0.0069171644282 0.010610970785 0.0076365706045 0.011346079758 0.0079069812782 0.011647532461 0.0076626574155 0.011136344983 
0.0069021126255 0.0098069861997 0.0058548429515 0.0082182696788 0.0052983639762 0.0068697119132 0.0056941432413 0.0060903398553 0.0065559498034 
0.0058767748997 0.0072206540499 0.0056783313048 0.0076265675016 0.0055845711613 0.0067805475555 0.0048835470807 0.0041601505363 0.0033510468202 
0.0017965318984 0.002574111888 0.0006320223838 0.002551005975 0.00010759109045 0.0027060010721 -0.00039189634936 0.003027600003 -0.001246736967 
0.0032572599011 -0.0017661307356 0.003475038131 -0.0016930455458 0.0041188456526 -0.0013371178648 0.0051895594806 -0.00048939032422 0.0063959670442 
0.00088078978297 0.0073670578786 0.0029589736951 0.0082720023638 0.0062318220735 0.009960594587 0.010362593457 0.012672947953 0.013892015908 
0.015512510436 0.015826866962 0.017057585996 0.010078867897 0.0062590017915 0.011797863059 0.014374567661 0.003473034245 0.0097129124333 
0.0014658654109 0.0083163052332 -2.2622116376e-06 0.0074145484105 -0.00092155855964 0.0067485261388 -0.0009778822423 0.0062272972136 -0.00054931419436 
0.0059776161215 -4.7734705731e-05 0.0059582212707 0.00071915413719 0.0062599367811 0.0022747669136 0.007126330107 0.0052077256842 0.0078558048117 
0.0080750701018 0.0080123455264 0.0091035868973 0.0077791947406 0.0086503406055 0.006992921466 0.0076611614786 0.0058056333801 0.0072591314092 
0.0050358157605 0.0078502665274 0.0050648236065 0.0087873600423 0.0052257440984 0.0095756524242 0.0053632896161 0.0093685430475 0.0054194135009 
0.0077951198909 0.0056365772616 0.0056661993731 0.0062688097823 0.0034675376955 0.0062763573369 0.0014556399256 0.0065903030219 -3.3694959711e-06 
0.0056796635181 0.0004523145617 0.0066498713859 0.0030317641795 0.0095698488876 0.0067633937579 0.013372800662 0.011168963276 0.016531949397 
0.015392058529 0.01871805219 0.019416282885 0.020548185334 0.023199252784 0.022138475906 0.026005075313 0.023558719549 0.024122466333 
0.022550332826 0.01744842343 0.017609572737 0.01034471998 0.011833968339 0.0042872743215 0.0075638458366 -0.0021305708215 0.0039792815223 
-0.0051161851734 0.0023894095793 -0.0043593591545 0.0031033778796 -0.0042148253415 0.003599166288 -0.0035907312995 0.0034531055135 -0.0027438282268 
0.0031274444773 -0.00051307067042 0.0032803985814 0.002614505298 0.0033331605082 0.0041874052258 0.0033700425993 0.0045529277995 0.0037033786066 
0.0046779403929 0.0037623664248 0.0046389512718 0.0038243527524 0.0049972529523 0.004532666353 0.0063385367393 0.0059266567696 0.0084602993447 
0.0076623334317 0.011314179283 0.010173359653 0.013931401074 0.012923417613 0.015979888849 0.015398043208 0.016707112081 0.016983015463 
0.014350195881 0.016511909897 0.010808843072 0.015816844534 0.0068771879887 0.0041274926625 0.0025477242307 0.0029087742441 0.0042711539427 
0.005786294234 0.0078967952868 0.010788917542 0.01340710232 0.014430413721 0.014618826564 0.015287845163 0.016096715583 0.016523438971 
0.016118345316 0.014551623724 0.012124244124 0.009366565384 0.0068343167659 0.0049184625386 0.0037151516881 0.0035951401573 0.0033194684074 
0.0024796086363 0.002870561555 0.0038201696589 0.0048133455566 0.0062191908946 0.007918852265 0.0094487802126 0.011165560922 0.013204812771 
0.014866642887 0.015456936555 0.015034051612 0.014396192739 0.014694365906 0.016284470679 0.01809481997 0.01855979627 0.018709474476 
0.019083449151 0.018549345667 0.018332726089 0.017399526434 0.015525726601 0.013877485879 0.013048161985 0.012562247925 0.012288696365 
0.011099422816 0.008939839201 0.0071341890143 0.0055543037597 0.0038983963896 0.0028063664795 0.0025260737166 0.0022785840556 0.0020290066605 
0.0024429161567 0.0040916340658 0.0065587980207 0.0083545311354 0.0095586087555 0.012485523475 0.011090546846 0.015703983605 0.019025745336 
0.020955305547 0.021344165318 0.020765244961 0.019790991675 0.018279688247 0.018972388003 0.016674973303 0.013355747564 0.011335100047 
0.010571677703 0.010574665386 0.011176870205 0.011238188017 0.0097872659098 0.0079122665338 0.0060460671084 0.0038289132062 0.0026766533847 
0.0027138486039 0.0027557908325 0.0031133590965 0.0041190753109 0.005586942425 0.0073175583966 0.0096827566158 0.012493446702 0.015425062506 
0.017913503572 0.019172830973 0.019404489547 0.010652374942 0.011135514826 0.0026136520319 0.0031712563941 0.002854167833 0.0042106291512 
0.0066120169358 0.0096056620823 0.013202699833 0.016424301313 0.017529436387 0.017220120411 0.017289953306 0.017786188982 0.018332622945 
0.018478915095 0.017430435168 0.014978888445 0.01183524169 0.0086658420041 0.00569325377 0.0035833102884 0.0028091891436 0.0022641040268 
0.0032939257799 0.0022314913222 0.0031226803549 0.0045197738218 0.0064391013002 0.008804885787 0.011247796239 0.01365275681 0.015986585058 
0.017716262024 0.018293978646 0.017553619575 0.015546125546 0.013628935441 0.01391198393 0.015635559801 0.018877829425 0.019944131374 
0.01568543422 0.0038399499608 0.0034220453235 0.012007768033 0.012062993599 0.014077039901 0.016111662844 0.017583519919 0.01804988645 
0.017519713147 0.01629032637 0.014373015845 0.014503225451 0.015065380372 0.01307478128 0.011824178975 0.010926092975 0.01090056519 
0.011643541744 0.010977463331 0.0086206080159 0.0066119288094 0.0051266406663 0.0035340439645 0.0025725871674 0.0025078189792 0.0027590843383 
0.0032152976491 0.0040427973145 0.0055299673695 0.0076165596256 0.010008737212 0.012524090009 0.015367098385 0.017818799708 0.019078150857 
0.020016991533 0.021281971131 0.022845251486 0.024198715109 0.024377511814 0.022620853502 0.01935045002 0.016404488357 0.014790863963 
0.01372341346 0.0127405643 0.011687278282 0.010046669515 0.0080322640715 0.0059878595639 0.0041769118397 0.0029684156645 0.0027006285382 
0.0028335164534 0.0030526852352 0.0036443446297 0.0048894607462 0.0063839211361 0.0079489980126 0.0099023866933 0.011370157357 0.011677313596 
0.011663887836 0.011008062866 0.013971454464 0.012411743402 0.0034670443274 0.0041937935748 0.002575439692 0.0019110501453 0.002051738411 
0.0031368441414 0.004907543771 0.0072954787174 0.010094977217 0.012848105282 0.015373907052 0.017718935851 0.019430181477 0.020267975982 
0.020038385876 0.018783693668 0.011609190144 0.012577379821 0.01168408501 0.01360955718 0.01573366276 0.014821840217 0.0022661562252 
0.0026923977712 0.0029384951922 0.0049530628603 0.0080246459693 0.011943559628 0.016364990035 0.019908480812 0.020787142217 0.019796855748 
0.019213223457 0.01925510494 0.019808385987 0.020054847933 0.019252791535 0.017385183368 0.014664030401 0.011555624194 0.008375258185 
0.0053756043199 0.0036963344901 0.0041306884959 0.0050820056349 0.0038526833523 0.0047388845123 0.0028140515205 0.0044969921 0.0034985849634 
0.0055495974375 0.0042415238762 0.014572423417 0.017329648137 0.012597119436 0.013542002998 0.013945644489 0.013783522649 0.013118420029 
0.012307639932 0.011506038485 0.011354856426 0.010726374108 0.012037022505 0.012707049958 0.012866180856 0.012256475165 0.011325466679 
0.010183969513 0.0095188796986 0.0098091135733 0.0091493641958 0.0071200471139 0.0059880606132 0.0053056908073 0.0036022093263 0.0023567347671 
0.0025418755249 0.0030262169312 0.003298302996 0.0038947928697 0.0051855705678 0.0070340645034 0.0090996045619 0.011209360557 0.013651465066 
0.015736830654 0.016872344166 0.0194787574 0.021822709125 0.024685513228 0.027198920492 0.027780898381 0.025845400523 0.02237658808 
0.01921591023 0.01699778554 0.015175661072 0.013388529886 0.011642407626 0.0098561397754 0.0079940762371 0.0061272970634 0.0045927278115 
0.0036087676999 0.0027008698671 0.002533634135 0.0033184933709 0.0042020724504 0.0055056212004 0.0070379080717 0.0082850817901 0.0093053462915 
0.009865978267 0.010162146296 0.010378031759 0.010415775701 0.010027013952 0.01017090911 0.010512888199 0.011524091242 0.012330168393 
0.012381461216 0.012007875368 0.0083423684118 0.0079239776824 0.0087992098415 0.0081896163756 0.0087166923331 0.0073796749348 0.0097334729508 
0.0096693846863 0.0095595938619 0.010376024991 0.01158544817 0.012018603738 0.011632255046 0.0026597314863 0.0030779069639 0.0019719926058 
0.0017343257496 0.002243574796 0.0035179350525 0.0055169635452 0.0081887115957 0.011148909107 0.013955680886 0.016526901629 0.018720777705 
0.020372543484 0.021644792054 0.022168883588 0.021297090221 0.019760886207 0.015986721963 0.018414973747 0.013700917363 0.011865273584 
0.010562096024 0.00974659645 0.0099870308768 0.0109687082 0.01106567611 0.011474459432 0.0097009001765 0.0080873674015 0.0074921896448 
0.0054008357693 0.0039776510675 0.002944585809 0.0021147985244 0.0019632879994 0.0028295005322 0.0048380753724 0.0081484719412 0.012947935378 
0.01853578235 0.022220286075 0.022337179165 0.020640390459 0.019011232536 0.021845174488 0.021406977903 0.021937623154 0.021132265683 
0.019305537455 0.016746926354 0.013893387048 0.010930123506 0.0078186951578 0.0059323535534 0.0056578756776 0.0056321559241 0.0051442106487 
0.0032348512614 0.0037077943271 0.003134555649 0.002283471782 0.020158282947 0.017666675383 0.010545897298 0.011237943312 0.0099086861592 
0.0095286760479 0.01062687207 0.011378075462 0.011728725862 0.011605363805 0.010955104372 0.0098983130883 0.0085174645064 0.0073505472392 
0.0068808915094 0.0061343807029 0.0051396925701 0.0052097326843 0.0054271699628 0.0039724075468 0.0024213266443 0.0024539529113 0.0030828061863 
0.0033770499285 0.0036647950183 0.0045567232301 0.0060405770782 0.0077389401849 0.0094085586024 0.011177394306 0.012611971702 0.013299175305 
0.021660459694 0.018728064839 0.024872805458 0.027606116608 0.028491968755 0.027368647046 0.025192042813 0.022939448245 0.020501823165 
0.017591290642 0.014530772576 0.011728070909 0.0094268135726 0.0075507919537 0.0059294347884 0.0046629372519 0.0039834755783 0.0037468855153 
0.0027605094365 0.0034263922134 0.0021608831012 0.0022904554498 0.0028805557522 0.0035419747583 0.0046848008642 0.0061413273215 0.0076831158949 
0.016009260435 0.013645459199 0.010767979547 0.0094123713206 0.0084033005405 0.0080992080038 0.0090639158152 0.0098316622898 0.01054242036 
0.010582922027 0.010330553865 0.0094338175841 0.0081855960889 0.0067590459948 0.0056035250891 0.0052170085255 0.0047732533421 0.0043787200702 
0.0052040678449 0.0054128939519 0.0040956668672 0.0025145965628 0.002401586331 0.0029744559433 0.0031687095179 0.0031536986935 0.0037254791823 
0.0047975943307 0.0059962624218 0.0072523942217 0.0085925804451 0.0099125539418 0.010994594311 0.011923778569 0.014208281646 0.012967976276 
0.015979144489 0.018261355348 0.020972483791 0.023874623701 0.026446528733 0.027796380688 0.027929841541 0.027193759568 0.025537295733 
0.022988269106 0.019943249226 0.015710585983 0.012037377106 0.0093145580031 0.0072607870679 0.0057113071671 0.004581708461 0.0043138947221 
0.003070013714 0.0039659832255 0.0025251306943 0.0020567686879 0.0022344958658 0.0029499523807 0.0035562121775 0.0046879854635 0.0062831831165 
0.0017607413465 0.001972097758 0.002786302357 0.004210007959 0.006298556691 0.0089497058652 0.011874927441 0.015013551572 0.017992519774 
0.020087380428 0.021520130802 0.022820305079 0.023435340263 0.022593200672 0.021238830561 0.020917389076 0.01714029233 0.020143518224 
0.014792496106 0.012874632375 0.011243718211 0.0099937140476 0.0089137662435 0.0080225378042 0.007741457317 0.0076436115196 0.0071383930044 
0.0060633460525 0.0046047893702 0.0032886973349 0.0023648450733 0.0019362366584 0.0021941331506 0.0033954683458 0.0054541643476 0.0083471297985 
0.012880583759 0.018448025687 0.021652941592 0.020978844259 0.018851654604 0.016763929743 0.01476430078 0.016332387459 0.013249311829 
0.019765316043 0.022595205344 0.023784357589 0.023432586808 0.022010909859 0.019775703549 0.016862836666 0.013623178238 0.010769909015 
0.0084347256925 0.0068505614763 0.0060794805177 0.0054657374276 0.0051160948351 0.0046283834381 0.0026738947199 0.0038207129692 0.0023218281955 
0.0024331734749 0.0018588710518 0.0095337482635 0.0092346007004 0.0082313199528 0.006958107464 0.005893707159 0.0051074500661 0.0048560319701 
0.0049089713721 0.0051792163868 0.0059914605226 0.0041415182059 0.0055917357095 0.002745929698 0.0025726800086 0.0028141614166 0.0027670320123 
0.0027463498991 0.0031506048399 0.0038734836271 0.0047644319711 0.0058535838034 0.0072200383293 0.0087447606493 0.010021504015 0.011118564056 
0.012008213671 0.013696363196 0.012294530869 0.014932308812 0.016372811981 0.01806403324 0.020104813855 0.022540221456 0.024902087171 
0.026439042762 0.027000960428 0.026687332895 0.025348145049 0.023498064373 0.022187307943 0.012454753276 0.016280619195 0.0093687667977 
0.0070736446651 0.0054717416642 0.0061369450996 0.0066563354339 0.0052415248938 0.0038065679255 0.0051432845648 0.0028631847235 0.0028879814781 
0.0028503561625 0.0018130741082 0.0024540557351 0.0034694984788 0.0049041470629 0.0068796901032 0.0092936963774 0.01207283535 0.015601019608 
0.019250588026 0.021726820618 0.023300891276 0.024586809799 0.02487071557 0.02340239659 0.023607590422 0.019109393936 0.022069366183 
0.01607110654 0.013845577138 0.012348234886 0.011113562156 0.0097226942889 0.008102645399 0.006654468365 0.0056636752561 0.0047937636264 
0.0048556653783 0.0045526424656 0.0037166426773 0.0026480183878 0.0019624104607 0.0021567727963 0.0030977463466 0.0045143045136 0.006216707523 
0.0083342794096 0.011771697784 0.016029771185 0.01841699006 0.017620916944 0.015531451674 0.013814096572 0.012233470799 0.010742945131 
0.011879421072 0.0094596189447 0.014887590194 0.017695258837 0.020189369097 0.021856084466 0.021471206564 0.019446102437 0.017145091668 
0.014328063 0.010523340106 0.0088526479667 0.0077478410676 0.0068974186433 0.0063805343816 0.0058079754235 0.0054175251862 0.0049837628612 
0.0043450545054 0.0032191729406 0.0037991021527 0.0023657978163 0.007081339485 0.0072016807972 0.0067159504397 0.0074436421273 0.0086848962819 
0.0085692553548 0.0092849913053 0.0095568720717 0.0098196780309 0.0096256057732 0.010013320949 0.010818600189 0.009080333286 0.0083314019721 
0.007520191255 0.0086606700206 0.0075926166028 0.0084980018437 0.0030358720687 0.0020627186459 0.0041984478594 0.0055176521419 0.0071980959037 
0.0092177726328 0.011740791146 0.015355302254 0.019526781049 0.022723930422 0.024666188285 0.02604825981 0.025858115405 0.021191063896 
0.023781973248 0.024479165673 0.018127954099 0.01544159092 0.013314470649 0.011871128809 0.010885748314 0.0096113238484 0.0078973678173 
0.0062287147157 0.0049754114589 0.0041350192623 0.0033900256967 0.003463396919 0.002884932328 0.0021489304199 0.0019517489709 0.0028430550883 
0.0044301101007 0.0056952004088 0.0066255154088 0.0077759601176 0.012784422608 0.010181078687 0.014318726258 0.013742552605 0.012182318373 
0.011067257263 0.010070618941 0.0089056732832 0.0079220352927 0.0035271749948 0.0038564775023 0.019670878071 0.02150198957 0.0036609795061 
0.0045175494743 0.0054931024788 0.0062157812063 0.0064277763013 0.0066702530021 0.0074848525692 0.0081741749309 0.0074023454217 0.0064515700797 
0.0059599528322 0.0056982407114 0.005615440663 0.0058626002865 0.0064351860201 0.0072306698421 0.0066734725842 0.0065340641886 0.00607856235 
0.0046672666213 0.0032106381841 0.002458076633 0.0022194292687 0.0023522543197 0.0026057813084 0.0029565147706 0.0036266995012 0.0045246690279 
0.0055451673688 0.0068055755692 0.0082807616564 0.0095908863004 0.010327732889 0.010562770534 0.010523436358 0.013632179704 0.012049943209 
0.015300014522 0.016864679754 0.017959825074 0.019077218603 0.0094656347064 0.0099497492192 0.010570251616 0.013189900899 0.015632044524 
0.015723641496 0.016150486888 0.01604027045 0.013165514357 0.012105611619 0.011372979109 0.025312674232 0.025830148719 0.025454896968 
0.024294980802 0.023237104838 0.023109598085 0.019985113759 0.021740579512 0.018947169185 0.016234629555 0.012740027625 0.0095258571673 
0.0070088520879 0.0072031784803 0.0048522785073 0.0061687148409 0.0035717200371 0.0025619452063 0.010728107144 0.011706163641 0.011489865184 
0.007464895118 0.0062475963496 0.0050352605758 0.0033863771241 0.0021838553948 0.0018680516223 0.0023247648205 0.0027560507297 0.0030025314773 
0.0034917767043 0.0042293049046 0.0051045571454 0.0061834907392 0.0090916075278 0.0094128825391 0.015284623718 0.01330258674 0.0174039579 
0.0072417369811 0.0069777643075 0.0070373249473 0.0072883527027 0.0075460301014 0.0076452734647 0.0075496427404 0.0086413017707 0.0099572755862 
0.010534404544 0.010093546705 0.0092462914763 0.008657480008 0.0082374652848 0.0079245860688 0.016862041783 0.013232258148 0.010008773068 
0.011724519543 0.010800788489 0.010577287059 0.0063111913623 0.0078038787469 0.0050434696022 0.0043230912027 0.0044976243516 0.01844365662 
0.0072760093026 0.0085715611931 0.010911728721 0.012387419585 0.0143382065 0.0067323808325 0.0080018448643 0.0054713974241 0.010210772976 
0.0066218540305 0.01171671475 0.0018563570629 0.0025635239144 0.0088438994717 0.0075714504346 0.0090571308974 
Stress_Y_Pt 1 1114 double
0.020919103175 0.018522375729 0.017929306952 0.019990552217 0.0060653479377 0.008276382232 0.00063419139042 0.0022583164427 -0.001684617193 
-0.00027677182516 -0.0014058024972 -0.0010513215238 -0.0020536211669 -0.0023558591201 -0.0059865796939 -0.0049697256181 -0.0050090732984 -0.0043782778666 
-0.0028660739772 -0.0020081286057 -0.0012925738411 0.00010303160525 -0.00087545058341 0.00099850293191 -0.00041362200864 0.0011955668451 0.00061225594254 
0.0016742137668 0.0017022050451 0.0027196201263 0.0031705475412 0.0040785075398 0.0042417263612 0.0052085756324 0.0049361013807 0.0057154740207 
0.0035703658359 0.0043153933366 0.00088115875405 0.0019440526994 0.00027317257627 0.0010659161817 0.0010065381648 0.0014554815716 0.0026392805739 
0.0029367010866 0.0050252641086 0.0049495126586 0.0070320954546 0.0065045816591 0.0070074584801 0.0063219908625 0.0035894691828 0.003173131714 
-0.00069086794974 -0.00071491174458 -0.0032293414697 -0.003068965394 -0.004212257918 -0.0040525728837 -0.0047203090508 -0.0042697467725 -0.0050885241944 
-0.0041411207058 -0.0048634873237 -0.0038977112854 -0.0046259108931 -0.0037057803711 -0.0046957675368 -0.0036406962899 -0.0050802705809 -0.0039796629571 
-0.0060969546903 -0.0050389533862 -0.006744556129 -0.0058835978853 -0.0053516302723 -0.0049024574691 -0.0010007837554 -0.00086847716011 0.0061117840232 
0.0062713881489 0.013514738996 0.013981341384 0.0050538898213 0.0027676773025 0.0030128188664 0.0054025992868 0.0023766022641 0.0025438762386 
0.0030572683318 0.0032948773587 0.002751614782 0.0031829573563 0.00085675976152 0.0015455425782 -0.00054445766 -0.00022494677614 -0.0012626411626 
-0.0010964715184 -0.0012940652668 -0.00084395446902 1.7180806026e-05 0.00076566004282 0.0031683320412 0.0043534756405 0.0072258473374 0.0081316702999 
0.0096950707957 0.0098555306904 0.0093550016172 0.0094567462802 0.0081214408856 0.0081363155041 0.0079899372067 0.0076243262738 0.0091976430267 
0.0086407558993 0.011631714646 0.010678644292 0.013937824406 0.012282657437 0.014679464046 0.01292002527 0.013253572863 0.012428004527 
0.010679829866 0.01125725219 0.0074215950444 0.0091732942965 0.0021192358108 0.0043696288485 -0.0027357378276 -0.00094754960155 -0.0051588367205 
-0.0039542836603 -0.0050482519437 -0.0033309462133 -0.0010085467948 0.0011112102538 0.0050128520234 0.0070019302075 0.0092574250884 0.010260021081 
0.010190036148 0.010140769416 0.010239378083 0.0093726450577 0.011392788962 0.0095589486882 0.0141501287 0.011681638192 0.015603808686 
0.013256457169 0.0097897283267 0.0089987590909 0.001595531241 0.00240478864 -0.0012726844288 -0.0004416591546 0.00028935680166 0.00059317158593 
0.0043486353243 0.0042820079834 0.006742459489 0.0078272031387 0.0065736051183 0.0091261436464 0.0065439846367 0.0089538844768 0.0070040915161 
0.0090833299328 0.0076113380492 0.0097530595958 0.0079918347765 0.0096863574581 0.0084349275567 0.0097392376047 0.0086452174 0.0097853373736 
0.0088254073635 0.0092512422707 0.0086312661879 0.0085570609663 0.0080684018321 0.007947190199 0.0082457312383 0.0081221612636 0.0093293497339 
0.008956048172 0.010586667806 0.010018345434 0.01081023505 0.01036323444 0.011101097334 0.010706761619 0.011323137209 0.010822687531 
0.0088866734877 0.008709432208 0.0092409781646 0.01425343263 0.0044672618678 0.0024188159849 0.00054210830422 -0.0011109111219 -0.0022674586799 
-0.0020626822588 -9.3173868663e-05 0.0023326363444 0.0037814789102 0.0036189111997 0.0031312190695 0.0037795034004 0.0049029581714 0.0058986748336 
0.0061723332619 0.0052194347372 0.0038480038638 0.0029794428847 0.0029327460215 0.003627128026 0.0042987749912 0.00472640628 0.0047237314866 
0.0023460166994 -0.00044696513214 -0.0021963242034 -0.0028847168433 -0.0025627953291 -0.0017749586541 -0.0013964371528 -0.0012098663428 -0.0009975924404 
-0.0011164468742 -0.0018459582957 -0.0025086282481 -0.0022144797426 0.00045159751926 0.0057631640229 0.011275021709 0.014889754588 0.0034883879707 
0.0038741644821 0.0043192876619 0.0045888697496 0.0033897557878 0.0012121512555 9.114506247e-05 0.00088192502881 0.0029518484007 0.0064364247373 
0.0093600517139 0.010008547688 0.0093646382447 0.0080885685747 0.0072717481526 0.0077968719415 0.0089186883997 0.0095556897577 0.010015918873 
0.010687189642 0.011385692284 0.011183777358 0.008064035268 0.0038628523616 -0.00047551969783 -0.0022895200333 0.0042854992671 0.0092709582532 
0.011182188289 0.0099910141435 0.0081780637847 0.0072704384802 0.0077738137916 0.0093400495825 0.0073358815862 0.0037561312347 0.0016044573567 
0.001743838613 0.0046283989795 0.0094567047199 0.012532492168 0.012358715525 0.011580270017 0.011760816677 0.011659654789 0.011433652602 
0.010738065233 0.009310336085 0.0082997027785 0.0076888645999 0.0077108518453 0.0080455692951 0.0084827087121 0.0087110863533 0.009031513473 
0.0091648134403 0.007892092457 0.0057615665719 -0.00069449188595 0.0023688965157 0.0023877928325 0.0034335916862 0.001080753209 0.00033548509236 
0.00055482771859 0.0017398875134 0.0037326065358 0.0051870937459 0.004814769316 0.0037345556193 0.0038196928799 0.0047835888108 0.0056274168892 
0.0058441086439 0.0055505846394 0.0052251453744 0.0049657780328 0.0048847642611 0.004552928498 0.003651507257 0.0032572299824 0.0018372090271 
0.0035311981337 0.00012004288328 -0.00085500428941 -0.0010309142122 -0.00040485032838 0.00060172498434 0.0012244140025 0.0014906534052 0.0017811734215 
0.00193127901 0.0018440961117 0.0017257974173 0.0019286389328 0.0022257657433 0.0041956451023 0.0056327150087 0.0070692392183 0.0081180655397 
0.0068359413417 0.004256552842 0.0040716307703 0.0014324228396 0.0030533126555 0.0055110728135 0.0097134315874 0.011082562851 0.0096507458948 
0.0076443310827 0.0065882927738 0.0061705010012 0.0062868099194 0.0071192044998 0.0047654912341 0.0037465358619 0.0034415096161 0.0054436079809 
0.010254789377 0.01368616079 0.013604105916 0.012411933159 0.012036771746 0.012237693649 0.011943849968 0.010441540973 0.0087670253124 
0.0079156350112 0.0073809955502 0.0071671678452 0.0070429159096 0.0068065553205 0.0065890882397 0.0067741422681 0.0070068198256 0.006527636433 
0.0056613999186 0.0049660418881 0.0051983292215 0.006252518273 0.0068551638396 0.0060111916391 0.0040367188922 0.0029569708568 0.0039361258969 
0.0058968283702 0.0080562602961 0.0095365252346 0.00951031968 0.0086825604085 0.0077703263378 0.0072363199433 0.0070623557083 0.0072650405345 
0.007465708768 0.0079245629022 0.0088976476109 0.010340630775 0.011417479487 0.010459588375 0.007947821985 0.0058468964999 0.0048083321308 
0.0057057014201 0.0045662472257 0.0064930284861 0.0058750230819 0.0042622342007 0.0047278184211 0.0031987713301 0.0019579464279 0.00089065997054 
0.00037809703826 0.00045011612787 0.0011172402778 0.0021325245034 0.0029200619902 0.0034151190193 0.0038925139233 0.0041534139891 0.0044737197459 
0.0048310752609 0.0049815775128 0.0029962382978 0.0033228832763 0.0020215408294 0.0019306695031 0.0034136657196 0.0045367684215 0.003336513706 
0.0044791765977 0.0021023318695 0.0016113055171 0.0019103259838 0.0031004183111 0.0049595168675 0.0060984753072 0.005409623147 0.0039926090394 
0.0036490667611 0.0048864524579 0.0058540401515 0.0060052729677 0.0058746981667 0.0060088309692 0.0061285814736 0.0060647557257 0.0054538655095 
0.0039869930479 0.0032040427905 0.0040067342925 0.0047079665819 0.0043520998443 0.0045002462575 0.0039070089115 0.004379778984 0.0049481620081 
0.0052024606848 0.0052309556243 0.0039857611409 0.0056250929483 0.0097322319634 0.010751567781 0.0092429334763 0.0072776731104 0.0062038671458 
0.005964335287 0.0057338245679 0.0057517735986 0.005508432514 0.0060512302443 0.0064231625292 0.0062635559589 0.005701801856 0.0053683508886 
0.0051630103262 0.0064211270073 0.010201604455 0.013512498001 0.013925850391 0.013182029594 0.013037947938 0.012999563478 0.01214976795 
0.010339064989 0.0086104394868 0.0076382828411 0.0070784500567 0.0066261632601 0.0061270319857 0.0055446457118 0.0050121977692 0.004988956498 
0.0051819578512 0.0051739783958 0.00562445994 0.0059826594079 0.0069213839015 0.008314629551 0.0092015108094 0.0087831291603 0.0074623915134 
0.0068871043622 0.0076433096547 0.008690801682 0.0092156000901 0.0091378560755 0.0085564575857 0.0078690081136 0.0074096909957 0.0071753298398 
0.0069522805279 0.0056894909358 0.005635847454 0.0063687002985 0.0076824203134 0.0095862227026 0.011314904783 0.011600670715 0.010574565735 
0.0085936198011 0.0066296875011 0.0052835638635 0.0048392219469 0.004260091926 0.0070376740769 0.0094912739005 0.010153204203 0.008762706304 
0.0067911574151 0.0057980183046 0.0084551275941 0.010207913816 0.0065517489566 0.0048458187375 0.0035388670512 0.0034808488563 0.0052393606165 
0.0075984149007 0.0094905646984 0.0096633832436 0.0078863486415 0.0061311500613 0.0054062561831 0.0060124834999 0.0064520010492 0.0031655480852 
0.0024845365842 0.0018782147672 0.0015311315656 0.0016425118374 0.0022337116534 0.0030949632637 0.0040529523394 0.0050448577385 0.0057581501314 
0.0061801896663 0.0067977735307 0.007413047133 0.0075524563435 0.0076890514465 0.0064832457574 0.0082641264889 0.005070797517 0.0038418726763 
0.0024969291699 0.00092184336972 0.00042695416778 0.0014672983525 0.0029829030973 0.004963415442 0.0045390236191 0.0051819910295 0.0055561204208 
0.0058824938023 0.0059343897738 0.0058159567416 0.0053110452136 0.0043704341515 0.0032944331178 0.0027141017199 0.0029491500172 0.004219472874 
0.0060781817883 0.0067052615341 0.0055712223984 0.0041269586072 0.0032768149977 0.0064801299013 0.0054827823769 0.006564265117 0.0062746843323 
0.0061986777 0.006285557407 0.0061989700189 0.0058092504041 0.0046640343498 0.0041019148775 0.0049398191622 0.0053971403977 0.0051910581533 
0.0036564604379 0.0041947981226 0.0038524311967 0.0035812388523 0.0038984483108 0.0030639268807 0.0052584933583 0.0054205058841 0.0055386911845 
0.0053192611085 0.005777038401 0.0060677732108 0.0063102750573 0.0064159189351 0.0064648132538 0.0065797804855 0.0066391626606 0.0074432091787 
0.0098186640535 0.012416421901 0.013448733138 0.013354240218 0.013636559714 0.013637807686 0.012319273548 0.010305827018 0.0086806893814 
0.0076170838438 0.0068019458558 0.0060899963137 0.0053848697571 0.0046241249656 0.0039430211182 0.0036680112244 0.0037120957277 0.003930353676 
0.0070656914031 0.0060868859291 0.0083641870879 0.0099349173252 0.011066204635 0.01125469408 0.010917954613 0.010945342248 0.011184589704 
0.010796249844 0.0096891520079 0.0085992529057 0.0078633978264 0.0074383006431 0.0072849598946 0.0071685008006 0.0070456202763 0.0068630146561 
0.0055714085465 0.0063986832974 0.0045222186018 0.0042224999052 0.0045638559386 0.0052351286868 0.0071120130597 0.0095053708646 0.011052269256 
0.0051455826033 0.004179083393 0.0051214925479 0.0050735027762 0.0055502164178 0.0052626827965 0.0056628066814 0.0058449488133 0.0060638211047 
0.0060985165183 0.0062149141449 0.0066020136001 0.0070534213446 0.0072679095902 0.0077506513335 0.0093171887565 0.011247474235 0.012305230601 
0.012420751713 0.013365602354 0.013623401755 0.012292610947 0.010375073645 0.0088612339459 0.0076141111786 0.0065907179378 0.0057727898238 
0.0049114360008 0.0040104389773 0.003312058514 0.0029142881394 0.002729766944 0.0028963210643 0.0032448730781 0.0044874320156 0.0034622870735 
0.0056852023117 0.006793293287 0.0080222289544 0.0094932697248 0.011103421682 0.01246904768 0.013438261813 0.014068390941 0.01428792486 
0.013761012815 0.011693856865 0.0092503274791 0.0079742114758 0.007485428825 0.0072613682132 0.007250330993 0.0071634348715 0.0070098630385 
0.0055194782326 0.0066103306599 0.0042182540055 0.0033182881307 0.0035103700745 0.0037844181061 0.004303277703 0.0065239471151 0.0094344798476 
0.0031829202781 0.0029727277579 0.0027478645206 0.0026009856956 0.0027755882475 0.00324361003 0.0038775615394 0.0050080890069 0.0065459173638 
0.0077149058925 0.0086575404275 0.009633449954 0.010132775875 0.0098409436177 0.0092801473414 0.010239662835 0.0088256057352 0.010858272202 
0.0069198699202 0.0052887388738 0.0036821158137 0.0020490988099 0.00073142465772 0.00023462167883 0.00085732982916 0.0021107039647 0.003859883931 
0.0056899575284 0.0066593213705 0.0068541239016 0.0067240955541 0.0064213448204 0.0059030128177 0.0052183809457 0.0047181871487 0.0045645615901 
0.0052146076341 0.0065117373597 0.0066305999644 0.0052563739009 0.0040905401111 0.0035008312552 0.0032313861302 0.0031643725233 0.0033195700962 
0.0041237169062 0.0061104142806 0.0074929131661 0.0075171462959 0.0067990454845 0.0060681932373 0.0057317524916 0.0055786081357 0.005424064002 
0.0050356701249 0.0052290993044 0.0063505934086 0.0068225500872 0.0065395047422 0.0055453093955 0.0034127982217 0.0040955278673 0.0032453122549 
0.0035961832618 0.0033292594017 0.005805503577 0.0058393237414 0.0062313314993 0.0067754023476 0.0071437825682 0.007528117043 0.0085734421154 
0.010063030524 0.010943605332 0.010961510008 0.013129989849 0.012861550087 0.012092438759 0.010605532443 0.0091147208586 0.0076563606272 
0.006604766706 0.0056227388559 0.0044963216642 0.0035304236808 0.0028611650341 0.0024965047487 0.0022184470145 0.0020650793449 0.0024398553942 
0.0028379749856 0.0038650312345 0.0031605533441 0.0049922179896 0.0061524300836 0.0072425665567 0.0085151538951 0.010023471666 0.01157605066 
0.0130849774 0.01461701165 0.015865683556 0.016166670946 0.015307560563 0.01350875129 0.0075688787038 0.0084865725366 0.00734177907 
0.0072874726029 0.0072663542815 0.0117396391 0.010594588704 0.0072410438443 0.005945631885 0.0068732058862 0.0044142112019 0.0029181256425 
0.0029755529831 0.0031872410327 0.0034038808662 0.0036065952736 0.0037123236689 0.003950751503 0.0043019878212 0.0046933377162 0.0057492916239 
0.0075874404283 0.0096130000893 0.011650010245 0.013069812907 0.013208637247 0.012090859935 0.01327347178 0.010252231034 0.011573724449 
0.0086944482755 0.0069338585017 0.0051710079424 0.0034966066014 0.0018500972365 0.00054444983834 0.00014888729856 0.00053500205468 0.0016993686557 
0.0037583799567 0.0058758523082 0.0073410705663 0.0077988893026 0.0078009663848 0.0078877796186 0.0078386702808 0.0076348073781 0.0073176102014 
0.0066144524608 0.0062397960573 0.0064710844308 0.0060873387847 0.0048541644355 0.003930788429 0.0036745406687 0.0036824490526 0.003899137082 
0.0035043621319 0.00423388544 0.0034520900226 0.0041746618226 0.0058958857553 0.0081085046986 0.0086975150043 0.0073568555526 0.0057115743402 
0.0047180842375 0.0044437075499 0.0049660637742 0.0050523770042 0.0057555356761 0.0074184582336 0.0083212290192 0.008022106369 0.0068045669468 
0.0048509822809 0.0031034094864 0.0031403299072 0.003349421022 0.009606515523 0.0081129991449 0.0061079023872 0.0046659168438 0.0031885338249 
0.0036658450845 0.00571355375 0.007987100631 0.0097191075329 0.0088927426841 0.0067003133008 0.0055324754212 0.0049417704577 0.0045779593056 
0.0053637059173 0.0044607685995 0.0057136287214 0.0056779857259 0.0041183890426 0.0033201710321 0.0047379110474 0.0049472117098 0.0051123647718 
0.0053435903974 0.0055558015592 0.0062905555824 0.0079738133354 0.010685702553 0.014186710492 0.015864693793 0.0154522839 0.010048603825 
0.01150689957 0.01264164038 0.0088883134304 0.0078173798975 0.0064588066889 0.0048485426814 0.0035107183503 0.0021540627815 0.00085872151612 
0.00045522521032 0.00062282453291 0.0010242284479 0.0062794936821 0.0043303936836 0.0078495985363 0.0086059591267 0.0090402101632 0.0096052652225 
0.010060470784 0.0099369010422 0.0094188100193 0.0088156970218 0.0066168020712 0.0073731832672 0.0058190592099 0.0048162480816 0.004086119181 
0.0039142406313 0.004018538224 0.0044503187528 0.0050796198193 0.0027353471087 0.0017499534297 0.009815569967 0.011192017235 0.0035826722742 
0.0057340804487 0.0081042842939 0.009299154859 0.0090130468598 0.0073735213373 0.0056163670961 0.0056898222538 0.005856933305 0.006250935141 
0.0066741550108 0.0071045072982 0.0078396671452 0.0087577019585 0.0094721850473 0.0095738093369 0.010684835957 0.011549868 0.012313995278 
0.012541304808 0.011821639258 0.010666531045 0.0092876083218 0.0079787342111 0.0067744583357 0.0053745282348 0.00402984221 0.0030530342483 
0.0023969460162 0.0020771568234 0.0019622886321 0.0015684312384 0.0015713881585 0.0021483784076 0.0025303849834 0.0046314767678 0.00375226303 
0.0056973118335 0.0066860428778 0.0074012079276 0.0083208992146 0.0054914072389 0.004271304002 0.0036040631239 0.0037310026819 0.00428216268 
0.0053210385377 0.0078369134571 0.0094958934933 0.0075099741109 0.004723540158 0.0037455175382 0.014461284271 0.016196050216 0.016742357519 
0.015871059848 0.014550058171 0.012942981208 0.0091847395524 0.010228957748 0.0087529700249 0.0081233530072 0.0075635462999 0.0074333203956 
0.0074525647797 0.0070780603215 0.0059749023058 0.0061591459671 0.0050598861417 0.0036519120331 0.0088895680383 0.0097628962249 0.0074937311001 
0.0054167586379 0.011461847695 0.011721622199 0.011079070158 0.010144436266 0.0091535518877 0.0081365280785 0.0066958401585 0.0049538359744 
0.0035116592189 0.0024921937729 0.0018725165864 0.0016396548308 0.0015017413825 0.0011132000169 0.0066745640943 0.0055825135205 0.007604961982 
0.0052513829432 0.0054405570263 0.0057548896875 0.0061620674096 0.0068436262663 0.0077122749062 0.0084898021693 0.0082432179479 0.0070565642091 
0.0060450212331 0.0052386296447 0.0047190231271 0.0045015574433 0.0044615522493 0.004700389225 0.0079857789678 0.0074165953556 0.0072476798669 
0.0043339201366 0.0035529087763 0.0030474371742 0.00095613526355 0.0012592906278 0.00089700600074 0.00097320766266 0.0013359945733 0.0079562248429 
0.0059757898562 0.0062890269328 0.0064851788338 0.0047782663023 0.0068659123499 0.0014432182361 0.0014520517725 0.0012608494144 0.0050336291315 
0.0043671062449 0.0056915027089 0.0030620335601 0.0027917961706 0.0014631767117 0.0017616180121 0.0017971436901 
Stress_Z_Pt 1 1114 double
0.014162961859 0.018696077168 0.015067467 0.010650982615 0.018072121777 0.016570847249 0.014856702182 0.015556950821 0.011443889234 
0.014494487317 0.0077957548201 0.012766676955 0.0015551928664 0.0096439167974 -0.0013332775388 0.0081820022983 0.00080850623181 0.0083323260565 
0.0021248253179 0.0077594017203 0.0025976379402 0.0064802910201 0.0023530643666 0.0050569878076 0.0019354100805 0.0038545910502 0.0014468588051 
0.0029850254359 0.0010455865413 0.0025240671821 0.00099458853947 0.0022245255823 0.001102017879 0.0021664001106 0.0013201130787 0.0024037015392 
0.0012176629389 0.0026714616106 0.0016351712984 0.0033606494835 0.0024203381035 0.0041430732235 0.0038440870121 0.0052562338533 0.0069257358555 
0.0077411142411 0.01054545166 0.011103821453 0.014396767132 0.014555007452 0.015551514458 0.01587508223 0.011534641497 0.013497762848 
0.0061402011197 0.0099648128962 0.0025498542818 0.0075427650881 0.00031229859451 0.0059825401113 -0.0013115326874 0.0048313708976 -0.002206372912 
0.0039356179186 -0.0021826352458 0.0031896465225 -0.0019855519058 0.0025286811288 -0.0017717719311 0.0020540995174 -0.0016447743401 0.0017081380356 
-0.001783680229 0.0014024856209 -0.0016314756358 0.0012826832826 -0.00083136925241 0.0014180806174 0.0011659555603 0.0023277168511 0.0048329931451 
0.0045125715551 0.0087391163688 0.0069486321881 0.0012183609506 -0.001186292051 0.0015999418029 0.0030932976442 -0.0025315589737 0.00073414447252 
-0.0029202010483 0.00064559374005 -0.00361175742 0.0005515194498 -0.0051984849852 -4.3880310841e-05 -0.0066452985629 -0.0007597100921 -0.0076210561674 
-0.0011126248864 -0.0077507568058 -0.00086652673781 -0.0066753642168 0.00021334958728 -0.0043127135141 0.0024158154265 -0.0011316339369 0.0048426756694 
0.0020942718838 0.0070374744537 0.0047426206293 0.0090574166388 0.0074045620859 0.010840302566 0.010901202448 0.013257546583 0.015607139096 
0.016854388174 0.02154468745 0.020989593118 0.026161187328 0.0238372772 0.026261980645 0.024245988578 0.021114712581 0.021951277275 
0.013622908853 0.017733622342 0.0071629534941 0.013226803741 0.0031734106014 0.0095478883886 0.00097407437534 0.007863343841 -0.0011429264359 
0.0049671491533 -0.0021391634364 0.0043188867858 -0.00049192609731 0.0049375255476 0.0023403946543 0.0054525150335 0.0041981734103 0.0046613626764 
0.0046470547095 0.003435096005 0.0049557313323 0.0031216751377 0.0055626365356 0.0035232834052 0.0083261416294 0.0061005967145 0.011189599521 
0.0085837686202 0.0080427855719 0.0068199660163 0.0047337813303 0.0050224907463 0.0060523145366 0.0056708061602 0.0075635933317 0.0061918286374 
0.0058871253859 0.0053928281413 0.0032620478887 0.0051569414791 0.002820527181 0.006544850301 0.0035625894088 0.0083594870521 0.0050217222888 
0.010849553277 0.0056036582682 0.01263755525 0.0063345879316 0.013286025729 0.0090605227742 0.014738393598 0.012679988053 0.016580799827 
0.015685853083 0.017406108556 0.016910511069 0.017117700074 0.016661336645 0.01628243085 0.015984981321 0.015463866759 0.014802333433 
0.014314798405 0.012901971117 0.012633153936 0.01033746358 0.010440904647 0.0079241923522 0.008224199526 0.0060656704009 0.0063308668323 
0.0039048697799 0.0046280372189 0.01670087711 0.014560633805 0.017179848626 0.018665996194 0.019985193852 0.020122190006 0.019362736028 
0.017318383791 0.014372289414 0.010957889259 0.0079449242912 0.0054988011252 0.0038468924467 0.0031988797709 0.0027797801886 0.0025775698014 
0.0028073478607 0.0034178178757 0.0044774210546 0.0056509115966 0.007046175655 0.0093566589057 0.01259966963 0.01634148825 0.016988948453 
0.015750407474 0.014240405522 0.013352615526 0.012746874942 0.012072613696 0.010877984809 0.0089643220417 0.0069800488418 0.0052970458055 
0.0040144894156 0.0032641148428 0.0030804000562 0.0029682521126 0.0030791360186 0.0041842374485 0.0063593100058 0.010165585903 0.0032636620454 
0.0036666215165 0.0033890826744 0.0038452237495 0.0043842194136 0.0046462117461 0.0051747842226 0.0062677009264 0.0075886916602 0.0094510721974 
0.011376342503 0.012754000723 0.013708126964 0.014277657494 0.015443144366 0.017656296492 0.019866779912 0.021064424422 0.02174175391 
0.022189856973 0.021320522297 0.018930256832 0.015819450608 0.013319231104 0.010178474709 0.010598853541 0.0098645091057 0.0084581824485 
0.0058663110249 0.003343643446 0.0019827168726 0.002047392074 0.0042199072661 0.0058018530253 0.0049806541065 0.0046504654456 0.0050089779543 
0.0052755454089 0.0063225590857 0.0090769709786 0.012218053453 0.014820678392 0.017503086012 0.019848745782 0.020873307716 0.021119009703 
0.02061850857 0.019302584697 0.017883209977 0.016402996145 0.015166923171 0.014086331706 0.012719243765 0.01090064575 0.0089499483583 
0.0071395551786 0.0055056188721 0.0044343219488 0.010783813661 0.011610418325 0.021557678469 0.019594866317 0.021994023584 0.021189642139 
0.019297290128 0.016063485527 0.012404150097 0.009245471796 0.0063273701817 0.0038124612765 0.0025607926655 0.0021852696664 0.0020974036888 
0.0022438273882 0.002760160598 0.0040539879119 0.0059982780367 0.0082649163669 0.010715784738 0.013699708041 0.016770919319 0.016599600902 
0.017944775987 0.015470638406 0.01517444104 0.015130089829 0.014711063821 0.013436770765 0.011121778982 0.0083276039222 0.0057651450625 
0.0037393517559 0.0026333334972 0.0026439905632 0.0029107915238 0.0032166984165 0.005221355008 0.0083674716298 0.012862519128 0.016792987473 
0.017439218238 0.018555658404 0.018803948071 0.0095909077208 0.0095911719836 0.0088159827283 0.0079678950133 0.0066924238345 0.0047711006482 
0.0030972248642 0.0026520204847 0.0031727323076 0.0041308282525 0.0048608082579 0.0040852153325 0.0050804786151 0.0065287628677 0.0092342210701 
0.013226986863 0.015922069084 0.017088665161 0.018452340271 0.020140348002 0.021482819226 0.021652874071 0.020595694426 0.019436192233 
0.018475560937 0.017013064586 0.015530333621 0.014347286895 0.012903273106 0.011091858847 0.0094108274207 0.007748895674 0.005561577389 
0.003710414283 0.0027663352666 0.0024947907077 0.0026624678285 0.0031592102023 0.0039910246269 0.0047010642011 0.0055419765413 0.0069235104602 
0.0082899640547 0.0097479391843 0.011517561506 0.012852500658 0.013408981264 0.013682998484 0.014536428731 0.016056274809 0.018484246451 
0.019741223659 0.020354818087 0.020428129937 0.019667842891 0.018102677539 0.015910726506 0.013926040148 0.012174205622 0.0097875921056 
0.0070833086036 0.007326483028 0.0045953609515 0.0035437321058 0.018532508984 0.019148202147 0.018089069054 0.017418853939 0.016793053132 
0.016735777725 0.017001861706 0.01698766835 0.016077451408 0.01382490457 0.010734908748 0.0077787735499 0.0053437849856 0.0040614789468 
0.0040657089557 0.0042466030573 0.0062284185551 0.0042223164928 0.0084352211561 0.011543367291 0.014748024521 0.015556385973 0.018861731049 
0.017841702327 0.019177602138 0.019200948067 0.018524026964 0.016751715215 0.014131706441 0.011361223878 0.0083889610833 0.0053172805929 
0.0031248109415 0.0024035880924 0.0024932114757 0.0026087646256 0.0031515798182 0.0048442682019 0.0072865983238 0.0096157877706 0.011557126651 
0.013728114776 0.016406714451 0.019085795619 0.019443368539 0.017540662549 0.016805529129 0.017561820336 0.016908926656 0.015915700002 
0.014549264451 0.014459692563 0.0035387139651 0.0040555755841 0.0066432525637 0.0062907838728 0.0050897757756 0.0036260880879 0.0027533252724 
0.0027691169525 0.0028873388655 0.0034253278282 0.002812099352 0.003899220028 0.0039670498227 0.003881881712 0.004350813746 0.0057627464412 
0.0078861260554 0.011270794319 0.015205340926 0.017029899638 0.017225959338 0.018308816012 0.02033018833 0.021830338519 0.021880464628 
0.020846395753 0.019752317108 0.018798679113 0.017457878683 0.015888684196 0.01439148793 0.01269202237 0.010833618697 0.009303533705 
0.0077337721596 0.0050275816116 0.0032599848928 0.0025303690927 0.002424537437 0.0026915741619 0.0032910465961 0.0042381189414 0.005159152206 
0.006215160829 0.0074040013133 0.0083715114743 0.0093044277746 0.010352458572 0.011349982349 0.012065391289 0.012491154484 0.013091921341 
0.01369528356 0.017873421777 0.016957691405 0.018627146725 0.01869293116 0.017841628753 0.016844841186 0.016000701735 0.014342640061 
0.012285148259 0.010353919351 0.00851998711 0.0056486622198 0.0066604067106 0.0049232585588 0.0049084690399 0.0051554363454 0.0048690674594 
0.0038102981052 0.002896762162 0.011387051549 0.013376449933 0.0093596242368 0.0070682649966 0.0041088536382 0.0049100165488 0.0038367529633 
0.0035709947697 0.0035955372732 0.0040185198304 0.0041480783839 0.0036575301201 0.0029452640447 0.015527212061 0.013781876769 0.017557788175 
0.017486916389 0.017251222394 0.017141279764 0.017358826473 0.017508512363 0.01691800775 0.015219208086 0.012696438935 0.0098504555644 
0.0072708344087 0.0057302052155 0.005348735489 0.0052858841373 0.0048953145742 0.0038746827049 0.0044649991905 0.0038599561667 0.004569633631 
0.0059504483361 0.0078869640129 0.010698619299 0.013204574352 0.013927261811 0.015121248551 0.01356112957 0.014828817453 0.013150628423 
0.013252431061 0.014019876486 0.015122369165 0.015930337133 0.016099734697 0.015788496938 0.015593302436 0.015827145427 0.015964164399 
0.015040925471 0.012750507565 0.0097988521447 0.0069115988445 0.00465760933 0.0034315400408 0.0031985463575 0.0036553405225 0.0043327748426 
0.0060952918138 0.0085093885427 0.010425463784 0.011801918969 0.013239362743 0.015494375722 0.017775991466 0.017559621483 0.014939320972 
0.013390824432 0.012178953737 0.014866847545 0.015579384984 0.0030224453076 0.0035820177291 0.0025700824917 0.0026273546973 0.0026943866396 
0.002517489891 0.0031160954386 0.0035146207665 0.0036234534346 0.0038057190832 0.0046676050406 0.0063506504521 0.0086845564656 0.011798078893 
0.014704675181 0.015658602118 0.015783300623 0.017298980383 0.020245315507 0.02257109154 0.022545670625 0.021210140083 0.020106082782 
0.019113651942 0.017587266397 0.01580218412 0.014195117168 0.012426972622 0.010436333017 0.0086503237253 0.0070129260421 0.0051540957065 
0.0025094252196 0.00283897802 0.0024990196107 0.0027636911254 0.0033185256179 0.0042070350028 0.00529066124 0.0065136823105 0.0073650086997 
0.0077514923178 0.0083162114024 0.0092248911969 0.01020938321 0.010983147426 0.011507650837 0.012032801751 0.012598657981 0.012447100133 
0.013449522201 0.01220876514 0.014867623337 0.015993797453 0.016629015561 0.017161653843 0.017288858537 0.016450612573 0.015121778473 
0.0033180501778 0.0036160139134 0.0027534079854 0.0025984311942 0.0026041300152 0.0027452186332 0.0026564262807 0.0028547504335 0.003101964714 
0.0032477132627 0.0037899128511 0.004939426668 0.0067447941983 0.0089235526975 0.01144639845 0.013805089286 0.014580135699 0.014574870933 
0.016262211837 0.019737653434 0.02264452586 0.022687276825 0.021167835221 0.019874799531 0.018485856708 0.016617798479 0.014833823312 
0.013347225497 0.011643518927 0.0096581068356 0.0077248703456 0.0061300786911 0.004808923346 0.0037597818882 0.0029209492495 0.0031595870387 
0.0027707862318 0.0025888223317 0.0025433601113 0.002671923372 0.002998083597 0.0035569686443 0.0045067504398 0.005625216756 0.0064306366257 
0.0065718091791 0.0068892376497 0.0080985922832 0.0089789675549 0.0099504617974 0.010502238758 0.010936695151 0.011546970811 0.011263240827 
0.012019091286 0.011052636197 0.01334030088 0.014475907199 0.015398407045 0.015582181513 0.015716862399 0.016043531243 0.015197091177 
0.016129636671 0.016505863285 0.0164637696 0.016284589423 0.016394474776 0.016546946485 0.016223231563 0.015378198819 0.013961778022 
0.011586099863 0.0090342194308 0.0072723708581 0.0062590501038 0.0057482259581 0.0054190163501 0.005303780199 0.0041916202754 0.004821549519 
0.003778487735 0.003782690037 0.0042651731637 0.0055881807348 0.0077865871135 0.010114460019 0.011633627117 0.011918545933 0.011865118053 
0.01227050391 0.013046127744 0.014142672764 0.015304167289 0.015943214064 0.015790491831 0.015026821056 0.014090474462 0.013716216199 
0.014058215311 0.014086694689 0.0126961926 0.010222474579 0.0078769905958 0.0060067150043 0.0047118894872 0.0034767873585 0.0041358679882 
0.0034428090439 0.004403686733 0.0052424782189 0.0054043695563 0.0056690766942 0.0067665746901 0.0083501046756 0.0096519615036 0.010733056813 
0.011968120467 0.01349388971 0.014568226412 0.014318138594 0.013357364573 0.012551727705 0.010948872427 0.012251069071 0.011300708788 
0.012180634541 0.013177261222 0.0030365636339 0.003785134817 0.0049854515819 0.0066200355068 0.0085313901072 0.010481607867 0.012300281087 
0.013477559667 0.014058656292 0.015110954642 0.022269111592 0.019854925107 0.022141032852 0.020525523927 0.01872528065 0.016849660315 
0.015129284235 0.013692398788 0.012386401184 0.010912440019 0.0092226434499 0.0075683060568 0.0061692037852 0.0050493697636 0.0043601209763 
0.0037822636077 0.0029053462204 0.0032030855073 0.0026944165002 0.0025130746653 0.0024546613568 0.002541812195 0.0027911437792 0.003205066314 
0.0038281701854 0.0046311430633 0.0054183021421 0.0057800812647 0.0055809102487 0.0055646896362 0.0094828363508 0.0088073515799 0.010150118265 
0.0104590517 0.010716499761 0.017674444243 0.01661920012 0.010706610512 0.011125593912 0.01094982028 0.012080754386 0.013570650853 
0.014482461149 0.014053541003 0.014605841367 0.014717048267 0.014674236765 0.014843793586 0.015001222491 0.014767271467 0.014391421108 
0.013775875093 0.012110613752 0.0099297605921 0.0082742053783 0.0069618488196 0.006020182278 0.0053266745061 0.003897071525 0.0038631167845 
0.0037612722954 0.0035387165844 0.0034995350288 0.0039180765161 0.0051300696796 0.0068863133201 0.0085435970686 0.0093749058433 0.0098890900612 
0.011050763307 0.012273988687 0.013555646176 0.014983599773 0.016477229306 0.017667799257 0.017928148154 0.017012300668 0.015170288505 
0.01331668254 0.012434288394 0.012283810182 0.011687978636 0.010023996467 0.0081218234263 0.006642569555 0.0054580854485 0.0045881072292 
0.0038816272863 0.0040007302887 0.0037914616987 0.0038969317102 0.0048748152331 0.0062538076891 0.0062061446952 0.0055647112895 0.0059623528505 
0.0067947800271 0.0073941465467 0.0091355950572 0.010438793028 0.011045549531 0.012001111871 0.012558580376 0.013251550728 0.013918188633 
0.014049449004 0.01252613822 0.013995526358 0.011191110592 0.012797361705 0.010184013983 0.0078553106869 0.0068347586785 0.0044022397487 
0.0024689447891 0.0021441510762 0.0024279258505 0.0032203517621 0.0036540154833 0.0035064136027 0.0032120802789 0.0028123338707 0.0029549544561 
0.0032269167132 0.0035073033068 0.0029556325171 0.0029037538916 0.012668681564 0.012361886445 0.012860375922 0.013069705805 0.013372711837 
0.013477360364 0.013197836699 0.012852355139 0.01238216483 0.011171393329 0.0090083031915 0.0081382023636 0.006782956887 0.0030072130263 
0.0033519309945 0.0038833160652 0.0030270829448 0.0031182679813 0.0031474400312 0.0031707335147 0.0034274738864 0.0042456359137 0.0059186219005 
0.0070986422943 0.0077949652914 0.0085783354007 0.012754946016 0.01157421479 0.014017119072 0.015621666098 0.017677695956 0.019912543241 
0.021043110639 0.019889424555 0.017195949797 0.014508709311 0.011410676641 0.012247355422 0.010856851935 0.0096516602207 0.0080443576444 
0.0066807480762 0.005549350637 0.0046096388251 0.003878228832 0.01048886287 0.0095161481295 0.0076815254288 0.0065913470462 0.014650802827 
0.015295190038 0.015109900152 0.013545994647 0.011506575393 0.0099462564103 0.0090318298899 0.00367980398 0.0047733744141 0.0061103791231 
0.0077655717032 0.0094574606046 0.01106304815 0.012454062002 0.013422873104 0.014079628279 0.018553630915 0.018955814963 0.020810535643 
0.022437954787 0.021455268841 0.019058800302 0.016791767441 0.015112216352 0.013871260919 0.012792860158 0.011813139543 0.010706642643 
0.0093643397558 0.0079734299798 0.0067187980749 0.0055760538671 0.0047954644542 0.0042466440354 0.0036071292707 0.002726231527 0.0028953903238 
0.0025406094501 0.0024466759642 0.0024480363354 0.002582651854 0.0035511742462 0.0035929930746 0.0035902330419 0.0037768760812 0.0040492742943 
0.0046770272311 0.0055734597845 0.0050286479527 0.0033071248326 0.0037479853781 0.0049444149093 0.0047061991645 0.0056775060948 0.0065171588212 
0.0064329067245 0.0058897741449 0.0073161639739 0.0080504695652 0.0091867372394 0.0082946939704 0.0091026027221 0.0099459267221 0.010488546919 
0.010676019127 0.011242835224 0.011606856016 0.011962529272 0.01155134337 0.012009457685 0.0024755252137 0.003682233626 0.0045051230583 
0.0038420609664 0.021205704659 0.022570539266 0.021060566418 0.018174857832 0.015757433837 0.014232535847 0.013161810581 0.012198117794 
0.011280159 0.010275235632 0.0091383969411 0.0079292901792 0.0045922121499 0.0048352039109 0.0026117830421 0.0027679128107 0.0025919797481 
0.0048271667911 0.0059947068803 0.0074468471576 0.0090136569925 0.010624753777 0.012074494734 0.012944331703 0.012792554917 0.011661770754 
0.010526944185 0.0092044100165 0.0077288344037 0.0063569755293 0.0052262428217 0.0045156452494 0.0092872977257 0.010335053783 0.010961716063 
0.0028894396382 0.0029949164794 0.0031387587078 0.0063751027919 0.0053889059927 0.0072889172006 0.0080556437994 0.0085279459599 0.010511802509 
0.012439836438 0.012211126043 0.011836715043 0.0043357597897 0.011321548373 0.0064931466477 0.0054363226518 0.0075126308948 0.016987817828 
0.017189380247 0.0026761619374 0.011837905506 0.012603704585 0.0057149957865 0.0068590091541 0.0043357013492 
Stress_XY_Pt 1 1114 double
0.0050075631589 0.0032971788896 0.0011949278014 0.0036370825437 0.00069362559589 -0.00039404450217 -0.00040685362183 -0.00063533202047 -0.0016709856573 
-0.00091927566245 -0.00069280379103 8.9792956715e-06 0.00029800867742 0.0011279860073 -0.00053368138651 0.0011675291926 -0.00062048843392 0.0010006847406 
-3.3854033973e-05 0.0011744696567 6.2243249431e-05 0.0011093071628 -0.00056822780562 0.0002345614414 -0.0015457073459 -0.0010707478759 -0.0020141021232 
-0.0017593650555 -0.0021747425199 -0.0020018735959 -0.0021432305221 -0.0020681534079 -0.0020189059433 -0.0019484694058 -0.0021172692068 -0.001748285169 
-0.0013293582888 -0.0010377742437 -0.00079730027937 -0.00083748107136 -0.00087468556012 -0.0011591774091 -0.00062602534308 -0.001237929755 -0.0011375061003 
-0.0016893557622 -0.0021836208762 -0.0021903746238 -0.0029406208778 -0.0021698460478 -0.0027772333706 -0.0019061954663 -0.0014505252475 -0.0014777852339 
0.00030106893973 -0.00073165493086 0.0012739468366 -0.00024309204309 0.001277849311 -0.0002835021005 0.0010526120896 -0.00043945360812 0.0012584559736 
-0.00014303211356 0.0017272818368 0.00059125643929 0.002341538202 0.0015571546555 0.0033183456399 0.0028243554116 0.0045434926869 0.0043379084091 
0.0055440124124 0.0057624293258 0.0056312123779 0.0065133877797 0.004691292299 0.0063621826703 0.0034154420719 0.0055828313343 0.0025687649613 
0.0046529507381 0.0033021346899 0.0042868957971 -0.0035069107544 -0.002467842889 -0.0042452599737 -0.0050754466793 -0.0024641895434 -0.0039023112622 
-0.0026929010637 -0.0037335167872 -0.002866359544 -0.0033552271198 -0.0019567996496 -0.0021163744968 -0.0010579582013 -0.00083807532246 -0.00089069051319 
-0.00017642971397 -0.00054420412926 0.00060919448879 0.00027493936068 0.0018791501716 0.0018293386674 0.0034183156386 0.0033492842922 0.0045396478963 
0.0038368160604 0.0045052124769 0.0036335574696 0.0038000937784 0.0033744999673 0.0032360148034 0.0030828098534 0.002686863998 0.0027371600736 
0.0019106144828 0.0029082841938 0.0012517806244 0.0034244015114 0.0010192267073 0.0036544093164 0.0012943354814 0.0034575824393 0.0020060048992 
0.0028173876926 0.002653227275 0.0014119738771 0.0024843114224 -0.00043434186955 0.0014735135919 -0.0017458145157 4.3726842705e-05 -0.0021991294343 
-0.0012709425473 -0.0023527176818 -0.0017592033255 -0.0027030620258 -0.0027148335357 -0.0038440292701 -0.0042865732103 -0.0045942207798 -0.0050770131638 
-0.0034731019987 -0.0040871056844 -0.0014496721415 -0.0021981773825 0.0011256663274 0.00022328517662 0.00327593158 0.0027496970724 0.002380498976 
0.0036409581953 0.0016626025899 0.0036763645185 0.0022069207625 0.0034813703387 0.0027498283889 0.0031877692672 0.0038704308681 0.0034841522574 
0.0059074719902 0.0045569771901 0.00692421454 0.0051437920192 0.0051012819167 0.0038049547584 0.0032344269566 0.0020937756744 0.0024945922196 
0.0010431576047 0.0018768022419 0.00032354122959 0.00029967530281 -0.00070754050103 -0.00093776357244 -0.0014815096365 -0.0013309971546 -0.0015611308336 
-0.0012537175789 -0.0011760401685 -0.00079735252075 -0.00055731464545 -0.00033845000144 -4.9753344683e-05 8.1568752648e-05 0.00030213231366 -0.00016518738994 
0.00013027449313 -0.0014223479084 -0.00092514172866 -0.0029478867073 -0.0024544548069 -0.0043035828276 -0.0039689529804 -0.0050655792002 -0.0052293185145 
-0.0049238209613 -0.0057590735378 -0.0025210959429 -0.0016283556288 -0.0019140737713 -0.0010746533168 0.00063795545429 0.0019615557394 0.0027581934119 
0.0026618792908 0.0022560781217 0.0016331186052 0.00041573519775 -0.00089714779097 -0.0015013630909 -0.001605954516 -0.0016004971403 -0.0014537070238 
-0.0010020755435 -0.00047619469115 -0.00049590047274 -0.00091127301857 -0.0013756292319 -0.0018272312882 -0.0018544155755 -0.00081635825336 -0.00045366878112 
-0.0011009216287 -0.0016635373468 -0.0018826095038 -0.0019904322107 -0.0019755776157 -0.001617005968 -0.00074962839244 0.00050389136777 0.001978325774 
0.0036192193511 0.0053049777634 0.0066988262115 0.0074380087899 0.0073764004046 0.0064015036914 0.0045581032173 0.0015240456742 -0.0058071449166 
-0.0063581727445 -0.0051383465761 -0.0041036130278 -0.0024351111788 -0.00050510270557 0.0011247187849 0.0026780702465 0.004398804449 0.0056130753364 
0.005742264213 0.0048668997479 0.0035958143999 0.0025950531999 0.0018017808325 0.0007784941472 -0.00040774671015 -0.0011162876035 -0.00082085700706 
0.00043144503434 0.0019654875214 0.0029962359113 0.0031437653233 0.0021655797609 -0.0014406367263 -0.00055351528984 -0.0031261424301 -0.0049501479953 
-0.0056548889261 -0.0048871483887 -0.0031800364959 -0.0010929958953 0.0015304433997 0.0045314444578 0.0053643852007 0.0046681450913 0.0035728216171 
0.0029461802915 0.0030400812975 0.0032729860395 0.0027338330401 0.0014773378898 4.7275429097e-05 -0.0010289268102 -0.0015658567427 -0.0017138311814 
-0.0014034434134 -0.00083075786097 -0.0002088781921 0.00026828926548 0.0004808431986 0.00039119396388 -0.00024340319942 -0.0014690807948 -0.0029956744402 
-0.0047009369009 -0.0060504642315 -0.0065562862437 -0.00024334358477 0.0006405604363 0.00042880129331 -0.0012241955774 0.0018000561104 0.0025203623227 
0.0026067116414 0.0019729750638 0.00073216306919 -0.00066160527058 -0.0013788615033 -0.0012154493379 -0.00077826459528 -0.00051480579714 -0.00042658740676 
-0.00023251894709 3.4446802601e-05 5.2461349696e-05 -0.00022158574575 -0.00060693228443 -0.00098935577262 -0.0011980831041 -0.00092257444339 -0.00071968654447 
0.00012891712322 -0.0015072736423 -0.0019163466641 -0.0020275306888 -0.0019066976092 -0.0015955669223 -0.00096468740958 4.489265848e-05 0.0013073182781 
0.0026648440398 0.0040486883954 0.0052826533793 0.0057551955804 0.0060174433747 0.005055223126 0.0031682963308 0.00060245317582 -0.0026300683821 
-0.0044166129665 0.00026220615837 -0.00042528712947 -0.0014447831345 -0.00049968045641 -0.0028622119571 -0.0043417744455 -0.0051750990096 -0.0048119901912 
-0.0034165215329 -0.0017134324589 -0.00040603864181 0.0043283444247 0.003546683176 0.0040413897368 0.0033226290252 0.0027568792575 0.0027921905275 
0.0032534331549 0.003195335099 0.0021854924853 0.00060880718229 -0.00085350502923 -0.0015062349557 -0.001348974547 -0.00081559804676 -0.00032129700412 
0.00011123148215 0.00048137427439 0.00064276725607 0.00061863898009 0.00028780831781 -0.00051576416445 -0.0017656084383 -0.0033432237688 -0.0049210639554 
-0.0060105010634 -0.0063663303154 -0.0061593297869 -0.0056184041314 -0.004631982476 -0.0029164509324 -0.00059098897327 0.0018574006535 0.004020291206 
0.0056283830199 0.0061910132645 0.005435338011 0.0040263649425 0.0026522567496 0.0016537276533 0.001010748143 0.00030012805582 -0.00036274069225 
-0.00071703040885 -0.00056142223184 0.00014741569612 0.0011565247332 0.0021613785939 0.0026909544831 0.0024222456268 0.0015502546594 0.00072435547918 
-0.0010922185727 0.00055980008619 0.0016771702212 0.00017295832185 0.00019163248635 -0.0002193883347 -0.00010767249842 -0.0007659653711 -0.0012738095247 
-0.001510499249 -0.0015361309634 -0.0014112328936 -0.0011898839584 -0.00080692537449 -8.6109575932e-05 0.00096129933809 0.0021209811384 0.0033345319098 
0.0043760088738 0.0048304639058 0.003416301508 0.0044603856513 0.0021273358143 0.00042782633682 -0.0023857286724 -0.0045324543607 -2.0041992684e-05 
-0.0013615891803 0.0010800356067 0.0016645145806 0.0016805209889 0.00097031360929 -0.00041738339496 -0.0015961557365 -0.0016091361176 -0.00068284452573 
0.00063215538685 0.00097854762862 0.00088821378631 0.00065422318039 0.00043754696162 0.00024895153183 6.2596027419e-05 9.6941330412e-06 -5.0915768952e-05 
-0.00024362413387 -0.00046924122944 -0.00063453278926 -0.00044285991135 -0.00028128134818 -0.00010544871293 -0.00021118748282 -0.0027035930834 -0.0024884776503 
-0.00354622124 -0.0031087473035 0.0047735114349 0.0048255190486 -0.0025366408809 -0.0034506501397 -0.0036200089962 -0.0029477789067 -0.0018330650928 
-0.00092178421619 -0.0004219132552 0.00022348474158 -0.00017398840464 0.0010543621538 0.0020873189496 0.0028494320286 0.0031259359675 0.0030007706955 
0.0027134938864 0.002763127326 0.0033318008645 0.0033977795392 0.0022411041136 0.00043577501492 -0.0010472298163 -0.0016568255378 -0.0014043838455 
-0.00065927780815 4.6933149861e-05 0.00055236220214 0.00088950310601 0.0010414611897 0.0010779138684 0.00088552903617 0.00029220832948 -0.00073417141539 
-0.0021290109871 -0.0036676323507 -0.0051615497796 -0.0057065507863 -0.0058620242635 -0.0056907668477 -0.0048777442425 -0.0031972730649 -0.00072808442928 
0.0021328927105 0.004693499417 0.0060663084732 0.0058927309001 0.0045859723468 0.0029679514118 0.0017077194498 0.00099087379931 0.00060722887429 
0.00036713224472 -0.00045378934738 -0.00022674154661 -0.00041102483374 -2.6171024729e-05 0.0006480828215 0.0015049651556 0.0021508530093 0.0018925692129 
0.001563419326 0.0013228947355 0.0012924271286 0.0010459410041 0.0016071920982 0.00024217741884 -0.00068415305577 -0.0014776665048 -0.0019582578097 
-0.0018981176545 -0.0014787938853 0.0011206972122 0.00092776706151 0.0014019485097 0.0018546338542 0.0022835751588 0.0024151239195 0.0020738878811 
0.0016298026458 0.00083549693227 -0.00020114045765 -0.00076906978211 -0.00088240837795 -0.00091046188027 5.154183691e-05 0.00025705468579 -0.00039161357927 
-0.00067111196404 -0.00082911121717 -0.00082693975855 -0.00071161472442 -0.00055953341234 -0.0004858480761 -0.00040564744631 1.9275641534e-05 0.0008335661405 
0.0019119137141 0.0032343388884 0.0043998982292 0.0049963728525 0.0050627784804 0.0044645017479 0.0046689935261 0.0041473958408 0.0035420997883 
0.0025879631285 0.0016973690654 0.00054928634597 -0.0013153686847 -0.002964704996 -0.0047423018841 -0.0037466231151 -0.0041771596298 -0.0038525030832 
-0.0035583587014 -0.0031144800596 -0.0025590976002 -0.001700669105 -0.0006892645506 -2.9777693271e-06 0.00014116803504 -0.0002078058169 -0.0010849303289 
-0.0022673540152 -0.0026864408865 -0.0018103434704 -0.00042073173972 0.00072779110633 0.00232356778 0.0025299471454 0.0016350422811 0.00082623343042 
0.00039445823495 0.00044422298015 0.00077673201667 0.0012011679937 0.0012645124662 0.0007899271186 0.00027371348915 0.00030503510243 0.00060239932827 
-3.7375226384e-05 0.00047330689995 -0.00034750906343 -0.00038552463957 0.0020734063 0.0013969929569 -0.00028723038704 -0.00076752628229 1.4010580344e-05 
0.00011187210984 0.00011387181985 0.00042901947381 0.00098837912083 0.0018082686875 0.0024625410442 0.0025981271174 0.0024513278622 0.002581685083 
0.0028425410273 0.0024393451895 0.0012150162147 -0.00038014859456 -0.0015722411918 -0.0019442248158 -0.0015754871711 -0.000741029864 0.00014013150212 
0.00081940644304 0.0011803868983 0.0013030703994 0.0013662135752 0.0012666316761 0.00081862901425 -2.7425394364e-06 -0.0010940037228 -0.0020299346943 
-0.0050918514607 -0.0044785905047 -0.005381340161 -0.0052311497275 -0.0043542446219 -0.0026692747488 -0.00024206300441 0.0025731293281 0.0049583478831 
0.0059217895614 0.0052119913744 0.0036387565196 0.0021900426364 0.0012555276771 0.00073719276406 0.00048739220802 0.00039190454603 0.00038015396422 
0.00016034782993 0.00034132620203 8.9428679075e-05 -2.6847193112e-05 -0.00021703675702 -0.00019462272485 -0.00013435710116 0.00024068926541 0.0010195200593 
-0.0035251499503 -0.0023546361772 -0.00029151246818 0.00028160474503 0.00041811082701 0.00062553066527 0.00024320203011 0.00017201546507 0.00022844001554 
0.0006223983728 0.0013058284094 0.0017938407545 0.0018369707104 0.00168099851 0.0016637749213 0.0014546785897 0.00059103863168 -0.000531924401 
-0.001590899966 -0.0019708394248 -0.0022743023001 -0.0017862470995 -0.00081912834867 9.2992435384e-05 0.00074336728721 0.0011059377284 0.0012223311351 
0.0012827306928 0.0012232963636 0.00092146659154 0.00036162111974 -0.00031152980773 -0.00092530698021 -0.0012095977436 -0.0020651287923 -0.0010400683022 
-0.0030251601129 -0.0037547177053 -0.004270030011 -0.0044329744997 -0.004078797705 -0.0030729133578 -0.0014117762184 0.00070109205262 0.00282689702 
0.0044320435263 0.0048098188825 0.004226935911 0.0029557826929 0.0018206662207 0.0011217766441 0.00070120526652 0.0004846550728 0.0005057789167 
0.00030921913276 0.00056340800074 0.0001380136996 0.00012999696219 8.7460975919e-05 -7.8161889178e-05 -0.00021057050708 -0.00023515599878 0.00016394354898 
-0.00041168242024 -0.00041073714601 -0.0003220257895 -0.00013839863095 0.00011126315803 0.00031933441187 0.00031462405514 0.00014504332285 0.00012356115258 
0.0005456264953 0.0016209295572 0.0031973436126 0.0046231298475 0.0053011063719 0.0053000031039 0.0048347841948 0.0038696012925 0.0036491244682 
0.0037632469903 0.0034213474137 0.0028976862668 0.002252810722 0.0015475386172 0.00064224677806 -0.00061547976622 -0.001875018992 -0.0028262516134 
-0.0032500820234 -0.0031652777107 -0.0029322506743 -0.0026419821661 -0.0021520289883 -0.0014967650786 -0.0011611912414 -0.0013863558925 -0.0020416997431 
-0.0031540324853 -0.004170519358 -0.0039129694924 -0.0023952753108 -0.00080247702135 0.0002845435738 0.0008874441628 0.0017775764281 0.0011737790628 
0.0026833841112 0.0036489294725 0.0037441710592 0.0027481745929 0.0014624973264 0.00081699879956 0.0011082212295 0.0017872042954 0.0023685292108 
0.0024181274639 0.0018417496467 0.0012222178921 0.0010685545276 0.0010421137849 0.00066389339918 -9.22213585e-05 -9.8313306808e-05 -0.00011963787256 
-0.00032290913077 -0.00040452901885 0.00052074216364 0.00091985508334 0.0010123922402 0.00079381276532 0.00049989071499 0.00023782021162 -0.00026551927294 
-0.0011711796615 -0.0021042929875 -0.0026775065053 -0.0025239469251 -0.0021396678349 -0.0021371523326 -0.0010591863829 -7.1767342888e-05 0.0004842281669 
0.00069848548446 0.00073520983278 0.00076453974907 0.00076590373646 0.00065675889346 0.00038267999844 6.0423109062e-05 -0.00026895095743 -0.00043933714915 
-0.00031711726388 -0.00057514688888 8.4351763689e-05 -0.0014555271773 -0.0022992338345 -0.0028400804149 -0.003004842205 -0.0028825987538 -0.0024269793939 
-0.0014567856051 -9.4395123597e-05 0.0013573994656 0.0026026012492 0.0034521373454 0.0036912281648 0.0023872007732 0.0031648193253 0.0016076374741 
0.0010521436052 0.00071189689334 -0.0020993915095 -0.0026710724924 0.00083489649114 0.00060364195815 0.00097920931876 0.00017751286941 -0.00018179321778 
-6.647405462e-05 -0.00031615722946 -0.00010831083819 0.00015283735775 0.00045261076593 0.00075940433453 0.00098331957997 0.00098150699341 0.00068581233791 
0.00027577747824 0.00034817261621 0.0013263044384 0.0028915966977 0.0041943080723 0.0047778032022 0.0028640330536 0.0020553619543 0.0010776443814 
0.0027110138908 0.0029128926108 0.00273132039 0.0023125346634 0.0018406590389 0.0013051140268 0.0006013600032 -0.00029653060119 -0.0012343892537 
-0.0021247619297 -0.00249449478 -0.0025011916878 -0.002482497599 -0.0025176142226 -0.0024925112375 -0.0022460345353 -0.0020896305796 -0.0023716627911 
-0.0031698333332 -0.0043517656741 -0.0051759239286 -0.0047240669373 -0.0031629047298 -0.0015673342568 -0.00037355858149 0.00041381147093 0.0007494318852 
0.0013183217525 0.00089358269179 0.0019924409862 0.002802267205 0.0038582361303 0.0046235516202 0.0039987174678 0.002440509852 0.0014762843493 
0.0017787002143 0.0026558496058 0.0029027567944 0.002700265497 0.0023861703812 0.0019020640175 0.0014065206342 0.0009191441568 0.00048432105177 
-8.4972456534e-05 -0.00066843186505 -0.00048585664626 -0.00053209578618 0.00072580870983 0.0013895671291 0.0021003102884 0.0027748369612 0.0024725846597 
0.0026439292706 0.0030987970531 0.0029405064415 0.0021583102352 0.0010232998757 0.00021269416902 -0.00012379796681 0.00037388436613 0.00071903659409 
0.00074054574361 0.00093539712543 0.00064357438532 0.00056164101261 0.00019776384761 -0.00021171052322 0.00058307450672 0.00091671201517 0.0011947139428 
0.001383680501 0.0014050276659 0.001122900765 0.00058130763136 0.00049252588724 0.0015662122285 0.0025514260051 0.0030044433661 -0.00081643672893 
-0.0010657578241 -2.641647734e-05 0.00052415277605 0.0013866157606 0.0019340487779 0.0021000356064 0.001846161962 0.0012118150946 0.00087080642697 
0.00047154091226 -8.1931211753e-05 -0.00053226922682 -0.0015996039147 -0.0013130206935 -0.0016704290465 -0.0018444516754 -0.0021864010487 -0.0025676439982 
-0.0026210935321 -0.0024643982761 -0.0026560568367 -0.0034101701342 -0.0050883328076 -0.004563880153 -0.004683965235 -0.0034676013747 -0.0020983855648 
-0.00093914290119 -4.348839866e-05 0.00043677626309 0.00066253543628 -0.00084338971647 -0.00043791894132 0.0036766239209 0.0031815622351 -0.00035242275408 
-0.00017476311587 0.00019907532806 0.00068728634869 0.0015161227784 0.0022977213375 0.0028126095422 0.00067626052623 0.00032655263931 -0.00027913118743 
-0.00084607296799 -0.0012520491655 -0.0017643838801 -0.002526223805 -0.0032022420783 -0.0035098850494 -0.0025041919434 -0.0022179822748 -0.0024082938908 
-0.0027165061329 -0.0024543665641 -0.001483248765 -0.00053432392815 -2.7976126148e-05 4.7488232667e-05 6.1873393861e-05 0.00020198302809 0.00034969512853 
0.00038068623689 0.00029398904007 0.0001919937813 0.00014105284845 0.00011705762154 0.00022271859143 0.00054698731856 2.0462025986e-05 0.00069216791962 
-0.00072872348437 -0.0015160906187 -0.002100629732 -0.0016987665294 0.0008931738048 0.0013590267554 0.001522104023 0.0024053273955 0.0029217144474 
0.0034919029567 0.0042032634956 0.0042195966817 0.0033338075038 0.0022264064755 0.0020847191724 0.0010880704722 0.0018751133757 0.0024407704477 
0.0026522574481 0.0027027811545 0.0019818356086 0.0023465347767 0.0012744688283 0.0028603153769 0.0023738387099 0.0019137074705 0.0015074076946 
0.0011482853442 0.0013856764417 0.00089820144058 0.001235308082 0.0004677191755 -6.5417072619e-05 0.0035991908517 0.0033274447778 0.0024938220624 
0.00048508987966 -0.0025454435963 -0.002730534412 -0.002562033711 -0.0018502256135 -0.0011717606903 -0.00081744558702 -0.00074117739132 -0.00058308803636 
-0.00023623560992 2.5312630896e-05 0.0001407756281 0.0001920065406 0.00044717064156 0.00039812002797 0.00019619609475 0.00086928702467 -0.00064710378501 
-0.0001461254451 -0.0010263085569 -0.0018552138354 -0.0025057890161 -0.0030335749616 -0.0034530539997 -0.0036799935624 -0.0041260669241 -0.0043418545974 
-0.0040404344327 -0.003224943066 -0.0022220197716 -0.0012189885456 -0.0002992058271 0.00022025962486 0.0018559691671 0.0017251474492 0.0016164424014 
0.0013963460515 0.0015586307272 0.0010701792489 0.00023669559596 0.00043300528705 8.1454072642e-07 -0.0002217547335 -0.00011492895555 0.0012171778217 
0.0014148058835 0.0015667786065 0.0016492967261 0.0026387803664 0.001522019098 0.00017049752933 0.00028986886537 8.0090198935e-05 -0.0040451561799 
-0.0032734432025 -0.0011235580508 -0.00052320090617 -0.00055264440016 0.00033688071562 0.00023691052775 0.00063889900048 
Stress_YZ_Pt 1 1114 double
0.0042310598074 0.0056705486495 0.0038510442682 0.0020634550456 0.0039100741269 0.0042673106655 0.0024490520591 0.0040592277073 0.0032151984051 
0.004815519671 0.0029969123425 0.0051052414929 0.0049251889577 0.0061793660861 0.0061120886821 0.0060701130424 0.0051527828909 0.0046504656784 
0.0040359158302 0.0035345245851 0.0032025193796 0.0025509163679 0.0025387740461 0.0015652182447 0.0020898346556 0.00084098588195 0.0020545487059 
0.00060904175916 0.0019695706433 0.00049316458171 0.0016312900116 0.0003257762437 0.0012398572289 0.000213107749 0.0010850530234 0.00017052605108 
0.00096868205583 0.00011238596926 0.0011216676794 0.00039274158098 0.0013534315513 0.00084480448186 0.00063139097165 0.00068631897147 -0.00066480161058 
6.4665664013e-05 -0.0015112897963 -0.00059205687285 -0.0015991042019 -0.0012933128528 -0.0011280218023 -0.0018094484694 -0.0010229925974 -0.0020513986528 
-0.0020276998403 -0.0025317645632 -0.003422555048 -0.0032680795994 -0.0044104345143 -0.0038622713182 -0.0047075594775 -0.0039041793789 -0.0041433664737 
-0.0030769660953 -0.0031280048424 -0.0018641443603 -0.0023711125832 -0.00094646528305 -0.0019633441116 -0.00038022056106 -0.0020254132687 -0.00029495198396 
-0.0027317296481 -0.00084950914606 -0.0034973733127 -0.0015784152095 -0.0034392823 -0.0017927305491 -0.0019777812413 -0.0010818854153 0.00064714561449 
0.00039693135295 0.0029912223108 0.0014939553585 0.0005773891171 0.0012676560145 0.00077155967301 0.00043343517609 0.0017905274872 0.001069068785 
0.0017887767754 0.0010756507108 0.0018827547319 0.0012239295538 0.0025773668895 0.001998570282 0.0033581022872 0.003085823555 0.00390692777 
0.0039570147637 0.0042524712626 0.0044528477592 0.0043678781949 0.0046195986215 0.0047433427535 0.0047646228923 0.0050783392508 0.0050168399466 
0.0051195193082 0.0051338085905 0.0052299657837 0.0051262726774 0.0055251419544 0.0052790640621 0.0051805686671 0.0051639635349 0.0036736526527 
0.0043190009892 0.0020973110222 0.0029642731824 0.00085292536824 0.0011441854604 -0.00048180912563 -0.0011369536205 -0.0018083250034 -0.0032543576963 
-0.0028526290553 -0.0045084835147 -0.003535993048 -0.0047767441138 -0.0042281732894 -0.0046034202678 -0.0053932042792 -0.0042083845008 -0.0062948823906 
-0.0044156675576 -0.0055603054352 -0.0035061022791 -0.0034494787687 -0.0014990936616 -0.0013219973334 3.244686377e-05 -3.8641446736e-05 0.00038282029709 
0.00030977396818 6.5429296228e-05 0.000519718742 -0.00025791424559 0.0011631490197 -0.00032691835077 0.0023734832648 0.00019400459132 0.0026848949492 
0.0011135984532 0.0021647770191 0.0021597427112 0.0015595477307 0.0025709413458 0.0012438247213 0.002342689666 0.00092124624643 0.00208532135 
0.0016014114954 0.0026513503981 0.0027197825257 0.0033846923616 0.0017632853123 0.0024955559929 3.9152189856e-05 0.00067320190647 -0.0016527806583 
-0.0012425565692 -0.0031928336248 -0.0028347454208 -0.0035908279242 -0.0036830058671 -0.0034251308534 -0.0041675677057 -0.0043072006665 -0.0049135511508 
-0.0053347498178 -0.0053653202485 -0.0052139088511 -0.0049285824643 -0.0040963159408 -0.0039585925406 -0.003300325945 -0.0032101033721 -0.0025872684782 
-0.0024339187948 -0.0012961046596 -0.0011800855063 -0.00041646461614 -0.00016889402104 -0.0002039302708 0.00021912267039 -0.00027079542633 0.0002575534163 
-2.0608174964e-05 0.00027097700513 0.0046845768811 0.0022348495986 0.006025115028 0.0066808329895 0.0069956718944 0.0068003898486 0.0056945824763 
0.0041538604419 0.0029600256239 0.0017903807748 0.00049828077317 -0.00048958777916 -0.0009709156584 -0.0010438046011 -0.00081538929953 -0.00049752110226 
-0.00036803868829 -0.00038160769896 -0.00012131773747 0.00046355396171 0.0010004667274 0.0011516358063 0.00054664044183 -0.00061593676946 -0.0018833315698 
-0.0023735458963 -0.0024652790744 -0.0026018979843 -0.0027483755257 -0.0025453944108 -0.0016869500541 -0.00050559983174 0.00045634589515 0.0010561147938 
0.0012014776876 0.00084656057152 0.00028967324465 -0.00018523494077 -0.00050692295372 -0.00067753404619 -0.00066276417783 8.3579609054e-05 -2.260866313e-05 
0.00010067004769 -5.5487442296e-05 0.00013216541993 0.00082498678239 0.0020424733957 0.0032546186121 0.0041054993053 0.0046882383758 0.0049840632128 
0.0051619404694 0.005139751127 0.0048117097467 0.0045439801179 0.0044973576441 0.0043026426574 0.0031767646142 0.00097500469747 -0.0018162380056 
-0.0045392367756 -0.0061841212446 -0.0062683264259 -0.0053468132392 -0.0040291161276 -0.00097425682543 -0.0020853861934 0.00038410650086 0.00077286144005 
0.00028600833684 -0.00034844554466 -0.0010005561344 -0.0016439427563 -0.0018680992536 -0.00052268295258 0.0016810035013 0.0031643818947 0.0033745112596 
0.0033232907299 0.0035664341412 0.003617691109 0.0029688154464 0.00155959732 -0.00024350044623 -0.0020022929966 -0.0036518832785 -0.0050001956988 
-0.0054691137047 -0.0051405172562 -0.0045056911185 -0.003831441747 -0.0031747011817 -0.0023654744436 -0.0012437830519 -0.00010243606812 0.00062499341584 
0.00089599487546 0.00069685382914 0.00032714529516 -0.0020398002525 -0.0022446978255 0.0059047965333 0.0061984407948 0.0053783225594 0.0047234027879 
0.0037959415349 0.0026982384734 0.0015251592704 0.00034821441295 -0.00055287878422 -0.0010501011275 -0.00098981554038 -0.00048123368674 -9.0106980224e-06 
0.00014728450219 0.0001204073867 0.00024204407418 0.00068921075945 0.0013102592202 0.0015255413891 0.00096510737239 0.00046348290743 -0.0011171635706 
-0.00072922303298 -0.001274495502 -0.0014259972813 -0.0015530577366 -0.0015221913345 -0.0011702602496 -0.00051073676696 0.00012146073777 0.000482068775 
0.00050800607414 0.00016598035063 -0.00034879970099 -0.00097134482276 -0.001352570056 -0.0017805082607 -0.0011049217392 0.00061744448976 0.0027065264585 
0.0050506857224 8.5171835963e-05 0.0013737052686 -0.00033769490619 -0.00041244850445 0.00031608214886 -0.00014068787459 -0.00053920552091 -0.0007084691315 
-0.0009756131476 -0.0013927083637 -0.0017974588845 0.00088570091975 -0.00072413310772 0.0022698574467 0.002971941547 0.0032351517584 0.0033398774103 
0.0034300411353 0.0032516756328 0.0024671077845 0.00109292056 -0.00092192077136 -0.0031046213408 -0.0045857314835 -0.004966401495 -0.0047671936918 
-0.0043989664409 -0.0039195567952 -0.0034231037716 -0.0026805468951 -0.0016141551168 -0.00043516120036 0.00053942216641 0.0010448121466 0.0008959412371 
0.00038598231913 -5.4957901739e-05 -0.0003594590562 -0.0004913675657 -0.00036987737985 0.0001124176124 0.0010535782421 0.0022751164215 0.0034388003405 
0.0044051037403 0.005044396501 0.0051969118649 0.0048197960714 0.0041238108533 0.0035250591463 0.0032752531115 0.0027862070128 0.0019214345084 
6.3260071329e-05 -0.0021298003703 -0.0042389648734 -0.0057438545628 -0.0061025074683 -0.0053925664397 -0.0039207782829 -0.0020864813996 -0.00060336049728 
0.00011379513853 2.2959231046e-05 -0.001861981058 -0.0019403279875 0.0011305976041 0.0025770533248 0.00021052424927 -0.00021269942044 -0.00031228891658 
-0.00039651461429 -0.00058936890491 -0.00084877773043 -0.0010344340553 -0.0010040329435 -0.00080602347998 -0.00067069858824 -0.00076010855855 -0.0011243700087 
-0.0016170629824 -0.0019620267267 -0.0016561235243 -0.0019797551213 -0.00018933237516 0.0015317608231 0.0030674309528 0.0048851869651 0.0045238999301 
0.0050552043831 0.0038805348449 0.0033023828873 0.0027282406809 0.0019684979052 0.0010726121691 0.00030748686913 -0.00023946523106 -0.00058319059644 
-0.00041292187379 -3.352718727e-05 0.00034806277631 0.00042671294068 0.00040707571316 0.00055145490478 0.00091029352916 0.0013812854595 0.0015278889623 
0.001177213504 0.0012276794587 0.0026267053036 0.0039063430158 0.0026040179364 0.0038366183871 0.0014363304508 0.0060694299173 0.005242335028 
0.005473784171 0.0051360383319 -0.0019182079413 -0.002251172351 -0.00055507119578 -0.0010318536952 -0.0010035293526 -0.0009131985862 -0.0010708548507 
-0.0012846006284 -0.001295685579 -0.0015946932253 -0.0010759699944 -0.0015422670986 -0.00073861188139 0.00043418775022 0.0015605094231 0.0024231808493 
0.0029300463502 0.0031351863872 0.0035067357821 0.00376551511 0.0033164927154 0.0022061334748 0.000221756869 -0.0020789788978 -0.0034994233283 
-0.0039940360584 -0.004214499495 -0.004257224733 -0.0040560408379 -0.0036736769252 -0.0029656503466 -0.0019234576903 -0.00076362884261 0.00028019939077 
0.00097189375083 0.00097535450477 0.00047632439237 9.8329079265e-05 -0.0001340600769 -0.00031253803843 -0.00032210286008 2.0584480808e-05 0.00083820662257 
0.0021025781753 0.0033525028266 0.0041303281323 0.0044223614386 0.0043748815078 0.0039494084194 0.003273018694 0.0027082855231 0.0023939071107 
0.0021066204063 -0.00063210995359 0.00078933528494 -0.0024144362542 -0.003939414979 -0.004772761371 -0.0049148563994 -0.0047188924315 -0.0032724034681 
-0.0015421702847 -0.00035602794742 0.00024637424576 0.00015283419634 0.00046832469525 -1.0318482964e-05 -0.00053691862195 -0.00096226921596 -0.00084473261813 
-0.00064108512743 -0.00069173098018 -0.00016224339197 -0.0013158055808 0.00062306133623 0.00090508855646 0.0003967197772 0.00058711597376 0.00019677798628 
2.3352182325e-05 -0.00016190620227 -0.00026178033295 -0.00025098185824 -0.00024978123793 -0.00039595767157 0.001543959821 0.0016909873812 0.00064680221112 
0.00017542619025 6.0112552092e-06 -6.2694357439e-05 -0.00024127570578 -0.00059986050474 -0.0011041375692 -0.0015860560816 -0.0018846476451 -0.0020755247388 
-0.0022954590968 -0.0025730282941 -0.0028570556315 -0.002974100702 -0.0029085786082 -0.0024381412659 -0.0027953083627 -0.0022320634453 -0.0019006123475 
-0.00090641022689 0.00077656900248 0.0021236314496 0.0029064744012 0.003834821342 0.0059135052143 0.0045799858635 0.005830069189 0.0047157012159 
0.0046114827273 0.0046001764713 0.004660232109 0.0044662714936 0.0037726267474 0.0027170168178 0.0016469227967 0.00080853080453 0.00026407947007 
4.7293899115e-05 0.00012825012163 0.00025526636637 0.0002177170154 0.00019956571123 0.00063827487611 0.00031897421104 0.00075830657443 0.00084557365335 
0.0010981988016 0.0013584982662 0.001491950301 0.0014480593964 0.0010981087835 0.0014426175185 0.0029304593336 0.0040323249414 0.0040704514831 
0.0033384576673 0.0035959283705 0.0021645518136 0.0012178963225 9.1938674814e-05 0.00037773764416 -0.00048482612146 -0.00073402424459 -0.00064463494346 
-8.2025273514e-05 -0.0010223278659 -0.0009375209047 -0.00040223018186 0.00040371913019 0.0013174091291 0.0021370014292 0.0026897147181 0.0029714904376 
0.0030898858677 0.0031113460427 0.0028816066333 0.0022313470254 0.00088550751389 -0.00092591812427 -0.0022943447984 -0.0030316696502 -0.0034879744053 
-0.0037867742358 -0.0037455539568 -0.003409586323 -0.0028723283904 -0.0020265251223 -0.00099390112155 -2.8292415664e-06 0.00074275510269 0.00099695756217 
0.00029875995278 0.00050056954933 0.0001332255548 -0.00010254305323 -0.00028273619682 -6.7453516749e-05 0.00079332265705 0.0020408448763 0.0029556707013 
0.0032650532085 0.0031170341535 0.0029253961402 0.0028394112596 0.0026254125987 0.0022855725256 0.001988300035 0.0018469028097 0.0016931103601 
0.0012234237802 0.0014366083778 0.00075483251931 -1.1443968106e-05 -0.00097209199521 -0.0022360150469 -0.0032649049535 -0.00336928654 -0.0030778588552 
0.00068978105264 0.00070035144017 -3.9223106796e-05 0.00043745504991 0.0004543318064 0.0010082622102 -9.4340366104e-05 -0.00045283881764 -0.00054305552233 
-8.2648692114e-05 0.00057038990235 0.0012780603283 0.0019407983636 0.0023713342962 0.0024768707808 0.0022974564054 0.0019704379665 0.0016169016162 
0.0012527875486 0.0010047556862 3.0834222343e-05 -0.0010698730966 -0.0020812106668 -0.002764058474 -0.0029337012675 -0.0027973176329 -0.0026373617584 
-0.0023322690395 -0.0016740508436 -0.00085078817938 -8.4938048531e-05 0.00041741129462 0.00058684145188 0.00046922768524 0.00031597624911 0.00023017848616 
0.00037880382297 0.0003762264314 0.00027957838029 6.810209743e-05 -0.00030626476655 -0.00061946425558 -0.00047928348977 0.00025341836044 0.0012704854635 
0.0018875829701 0.0013572476877 0.0015529835218 0.0017473680491 0.0019150349253 0.0020533289644 0.0019878183084 0.0018131350225 0.0015476583503 
0.0011108649924 0.0011191133817 0.00083591626753 0.00031858760349 -0.00019571012611 -0.00084922672022 -0.0017752257409 -0.0019882821944 -0.0014015323366 
0.00050370572762 -3.1808538097e-05 -0.00028700535404 -0.00031855480665 -0.00036350862501 -0.00059819581656 -0.0010899127374 -0.0018039882998 -0.0026663912577 
-0.0033852613415 -0.0037057102891 -0.0037961712806 -0.003802900319 -0.0036393927876 -0.0033833418662 -0.0033060314599 -0.002578762651 -0.0028946566163 
-0.0023031123565 -0.0020009212894 -0.0014924322459 -0.00051322375657 0.00076934268873 0.0016197865771 0.0020286559884 0.0026144508156 0.0032278044382 
0.0035560951801 0.0037449742667 0.0040417660493 0.0044190187473 0.004327483126 0.0034711046028 0.00203289192 0.0003166493525 -0.0010901406667 
-0.001645236378 -0.0012771866168 -0.00038040494883 0.00041537203606 0.00075559651305 0.00084320928727 0.00095513617271 0.00066212056117 0.0010992290772 
0.00039673819265 0.00050395224389 0.00094467600866 0.0013822639594 0.0016217171506 0.0017852364108 0.0017094843206 0.0014283788623 0.0011827462295 
0.00091588695068 0.0012664179376 0.0022667407466 0.0028396902781 0.0028863573389 0.002580587432 0.0029369146796 0.0021327619033 0.0029643900537 
0.0020721032633 0.0010293472005 0.0001184761627 0.00062404521304 0.0011631960515 0.0016687716998 0.0019012741977 0.0017480743991 0.0013478314941 
0.00083158458801 0.00026973016429 -5.7530109189e-05 0.00093832234597 0.0012591632549 0.00013599179692 -0.00088850661268 -0.0015193525905 -0.0016928468976 
-0.0017931853945 -0.0018121961039 -0.0015329935122 -0.0010317558044 -0.00050370784447 -6.0344755184e-05 0.00016289290579 0.00022658525631 0.00024181625122 
0.00016347543897 3.2592105526e-05 1.7147469407e-05 8.3683221192e-05 0.0001561113811 0.0001465277337 -1.5179268303e-05 -0.00034082183993 -0.00079046575411 
-0.0011898569937 -0.0013216130465 -0.0010891547536 -0.00053458581897 5.1463852287e-05 -0.00022386886667 0.0010029939804 0.00050093442223 0.0012281866511 
0.0014461163082 0.0015632149007 0.0010134997137 0.00019094748131 0.0010058510088 0.00064677083719 0.00042465119077 0.00085897071403 0.00071430251555 
-0.00022559483432 0.00010224178595 -0.00049996146072 -0.00072053489566 -0.00065206954605 -0.00055993835849 -0.00064276145713 -0.00099639818654 -0.0017253962287 
-0.0029287211364 -0.0041858761106 -0.0045933675719 -0.0044394957367 -0.0041512081516 -0.0037395909312 -0.0031047067139 -0.0021530211088 -0.002025041962 
-0.0021417593816 -0.0019686615269 -0.0016074290907 -0.0010776113777 -0.0004347079921 0.00023431452064 0.00066732138657 0.00095768456958 0.0012712449185 
0.0019580473599 0.0023924358829 0.0028502274072 0.0034939665347 0.0042019003886 0.0043612394948 0.0034714367357 0.0017510103062 -0.00010807506624 
-0.001661122049 -0.0024458448752 -0.0020529545145 -0.00089083149987 0.00022114576814 0.00087263004389 0.0011662394099 0.0013396237628 0.0014756523015 
0.0012701662054 0.0015890032228 0.00093281418958 0.00079583821935 0.00096594351635 0.0015236231702 0.0021763760014 0.0022259442194 0.0018131062097 
0.0013742169249 0.00084797703312 0.00081437696645 0.00080634721477 0.00098147572135 0.0012334421262 0.0012145569781 0.0012308947844 0.0012213702576 
0.00097974923119 0.0017501706898 0.00072395350253 0.0021454237867 -0.00021246664619 0.00055880129003 0.00077493329445 0.0005614595284 0.00042982884042 
0.00036862328852 0.00046640266737 0.00053750910956 0.00060491042677 0.0006199035779 0.00048675256448 0.00023663986258 0.00085220018809 0.001349751954 
0.001464920264 0.00158769681 0.00099968624272 0.00045441269185 -0.00051312894539 0.00011208758042 -0.00069493658521 -0.00063643339672 -0.00054361212096 
-0.00056589417363 -0.00081299505837 -0.001418403408 -0.0025139457721 -0.0038362316554 -0.0040846810676 -0.004142857797 -0.0037686071591 -0.0010558389185 
-0.0012164558866 -0.0017187331396 -0.0013727709156 -0.0015189695405 -0.0014894208289 -0.0012456127879 -0.00082384873531 -0.00034260756875 -5.5674588566e-06 
0.00014515578664 0.00035903456592 0.00045062497156 0.0011358061965 0.00069227093081 0.0017776799359 0.0027469521447 0.0037586587132 0.0041971212486 
0.0035128306481 0.0018733890465 0.00030588847585 -0.0011353621376 -0.002099940466 -0.0023232383246 -0.0010419625251 7.7026437793e-05 0.00084252207307 
0.0012303641124 0.001469043229 0.0016263960279 0.0016503697552 0.0003362549196 6.9170975621e-05 -8.2214108261e-05 -0.0010007342844 -0.00071735694837 
-0.00043799622654 -8.9817651315e-05 0.00010625904179 0.00040869122677 0.00059227469319 0.0006549266036 0.00082141855091 0.0011826120317 0.0014808922424 
0.0014807430853 0.0012218578631 0.00063602738919 -0.00017411746194 -0.00088938996851 -0.0012780660763 0.00100730946 0.0013715940295 0.0018591131375 
0.0020735112485 0.0016661750051 0.00082224529615 9.5983967185e-05 -0.00057390902657 -0.0010912341822 -0.0011704076169 -0.00094995430845 -0.00063155332464 
-0.00029215369432 1.2071723177e-05 0.0001912960106 0.00020541743288 0.00016408402189 8.8580514785e-05 -0.00010948477575 -0.00028272971667 -0.00026899409932 
-0.00025748512167 -0.0001753514091 -0.00010568421203 -0.00041127083932 0.0010666542221 0.0013675049413 0.0014357138134 0.001202755986 0.0010803677918 
0.00140333327 0.0019857462321 0.0024155066349 0.0016746891313 0.0010110691583 0.00077126977461 -0.0023432240123 -0.0026816850004 -0.0027294064057 
-0.0023036092316 -0.0017163759912 -0.0025690419425 -0.0011603224266 -0.0024916028779 -0.00046237152856 -0.00021985934472 0.00020392831561 0.00055128513691 
0.00081423886877 0.00012154102005 -0.00018352025472 -0.00030950644032 5.8566771258e-05 0.00055353079915 0.0014144690358 0.0017113436479 0.0014727860456 
0.0013827307383 0.0021229956765 0.0031011540559 0.0032937594806 0.0026447589044 0.0015999315219 0.00051608349895 -0.0001773361364 -0.00042243017924 
-0.00048436444013 -0.00040298397653 -0.00016470289574 0.00010060741897 0.00017702950026 0.00023082992751 -0.00083365519822 -0.00085324925749 -0.00069152128708 
0.0014221017482 0.0014069194731 0.001183849643 0.00069934459452 -6.7187895638e-05 -0.00091674236501 -0.0014363447748 -0.0018951160891 -0.0016221632977 
-0.00073060307341 0.00025282587876 0.00095127307577 0.0013061162317 0.0015237749321 0.0016350043394 -0.00093049773568 -0.00051965478428 -6.6982707494e-05 
-0.00076589419041 -0.00065348752347 -0.00036745455509 0.0001326209815 0.00013666408472 0.00017543282956 0.00021024744395 3.0909460293e-05 -0.0016919275513 
-0.00038866489679 -0.00034108010732 -0.00050923243907 0.0013906472886 -0.0010144942862 0.00024256912729 0.00031265184953 0.00013753400981 0.0064570700051 
0.006562462193 -0.00085920844382 0.0011330546986 0.0012005493772 0.00030400982723 0.00026709312078 -4.6985970585e-05 
Stress_XZ_Pt 1 1114 double
-0.0047970698215 -0.0056702692527 -0.0082865337608 -0.0076347922441 -0.0058650490828 -0.0077632628381 -0.0038607261376 -0.0058123143972 -0.0027056294493 
-0.0041546417633 -0.0021664887317 -0.0026136696397 0.00048437417718 0.00014324070071 0.0022871124092 0.0020869465661 0.0027141292812 0.0031432053074 
0.0030589482049 0.0040874776314 0.003238541889 0.0044492342859 0.003204136854 0.0040550206322 0.0027536955895 0.0032014817116 0.0021584397182 
0.0024227615213 0.0016963066882 0.0018471375515 0.001304141595 0.001139087406 0.00079675469897 5.0456605095e-05 3.6939556594e-05 -0.0012573665081 
-0.00048046537268 -0.0023362763532 -0.0017179249844 -0.0033197532903 -0.0029745165957 -0.0039399987436 -0.0031242287951 -0.0041157745873 -0.003029773361 
-0.0043100197217 -0.0028360241558 -0.0042398488149 -0.002094576892 -0.0032433055167 -0.00076885871385 -0.0013717304573 0.000685509287 0.00069801615246 
0.0017419360229 0.0020546944288 0.0020353978034 0.0024202621426 0.0018976535066 0.002470340085 0.001629637205 0.0025051684934 0.0012782946578 
0.0024416469678 0.00078403655789 0.0021781069663 0.0005109859776 0.0018605816367 0.00062369795342 0.0015124898127 0.00085154906265 0.00092583671358 
0.0011913679191 0.00024225751258 0.0012631697464 -0.00041532755131 0.00057818232381 -0.0011311833314 -0.00066431211962 -0.0021694843108 -0.0020461326349 
-0.0037102001661 -0.0035660562571 -0.0057752137072 0.0013383346959 0.0023421309888 0.00035149644827 -0.0008842756215 0.0030488217017 0.0012009608326 
0.0033078533597 0.0018007980107 0.002942219493 0.0022558202763 0.0023539983667 0.0025185668492 0.0017780009657 0.0025758399279 0.0014461923856 
0.0026194559759 0.0014992303913 0.0027981262538 0.0017424591351 0.0031640009256 0.0018633399741 0.0035814898147 0.0022733882652 0.0042095324316 
0.0032009227434 0.0048969957861 0.0042887141462 0.005258475896 0.0052141530905 0.0054900636896 0.005731392419 0.0055619257037 0.0054526270833 
0.0049301277031 0.0038336516591 0.0032664160826 0.0007972655003 0.00082063420996 -0.0026755983126 -0.0018608537866 -0.0049423174933 -0.0041900991346 
-0.0054213772528 -0.0056536874035 -0.0047817931045 -0.0059095328907 -0.0041786925867 -0.0055873851525 -0.0036673458526 -0.0054262289312 -0.0032054045005 
-0.0042771500885 -0.003198901657 -0.0044073200552 -0.0033835198265 -0.0048308819532 -0.0034872951219 -0.0047462304938 -0.0034210532904 -0.0039763486129 
-0.0031809272477 -0.002870842407 -0.002292940917 -0.0015304644076 -0.00031045594369 0.0003242215862 0.0029985180881 0.0028002321342 0.0056595653296 
0.0047041745856 0.0060415577609 0.0055530014215 0.0050977393985 0.0054624674376 0.0033629405079 0.004324659647 0.0020629461505 0.0033723342058 
0.0016364285839 0.0030410752224 0.0010731582006 0.002936651159 0.00057105872838 0.003183236644 0.00089372052753 0.0038422912403 0.0023019143264 
0.0046306627046 0.0043414491229 0.0050511641894 0.0046911577228 0.0041901186923 0.0034220609814 0.0023619221456 0.0025857762666 0.00080396371686 
0.0016741753207 -0.00056793229305 3.2521231333e-05 -0.0021892712539 -0.0018707723648 -0.0038192020875 -0.0037312572822 -0.0053019295447 -0.0054742386565 
-0.0067773745395 -0.0064165107906 -0.0077971713617 -0.0062334032264 -0.0079623971833 -0.0049599050544 -0.007106382167 -0.0027550210943 -0.0051829412696 
-0.00039813522017 -0.0028141456132 -0.010899493936 -0.012260021875 -0.0087090251036 -0.005497505283 -0.0018778562662 0.0013585913694 0.0038782868651 
0.0058254759642 0.0071775460383 0.007424903335 0.0063828588463 0.0048125892645 0.0036156004062 0.0027575978311 0.0015848629191 -0.00021187046514 
-0.0022678652022 -0.0041471968289 -0.0052394605009 -0.0055037463317 -0.0056249195477 -0.0058696428314 -0.0056455943268 -0.0035810380708 -0.0011939948308 
0.001224802807 0.0029093145276 0.0037334281369 0.0044092640746 0.0051093094517 0.0056031573331 0.0056697408436 0.0052088699886 0.0041310331144 
0.0023300528337 2.7624431823e-05 -0.0022902654164 -0.0039784063119 -0.0052310969331 -0.0069436350605 -0.0095062347827 -0.011879717 -0.0010654496728 
-0.0024429452606 0.00036861585977 0.0020327232342 0.0035385861993 0.0045422796975 0.0051294135046 0.005567607237 0.0061179720797 0.0067574415589 
0.0074175905902 0.007590727997 0.0069696103455 0.0062310736394 0.0054640185554 0.0041461475194 0.0023930245661 0.00061218396149 -0.0013418858653 
-0.0037516374723 -0.006155666546 -0.0075219229329 -0.0078883642564 -0.0081125517609 -0.0068407318322 -0.0061877882108 -0.0071698882384 -0.0065923649818 
-0.0051523463917 -0.0033262211946 -0.0014226155654 0.0004634155448 0.0021327095223 0.0034704281716 0.0047077107592 0.0057442537509 0.0058728466975 
0.0059827716323 0.0063801974757 0.0069338832982 0.0076219423208 0.0081068847794 0.0078858033521 0.0066184327006 0.0045856686193 0.0021439125985 
-0.00026312959471 -0.0022662945557 -0.0040934250574 -0.0056981513044 -0.0069829805288 -0.0082345453557 -0.0092837370466 -0.0097456828225 -0.0093882223591 
-0.008048564312 -0.0060384562239 -0.0040486340295 -0.0072477295762 -0.0083889382659 -4.4609099859e-05 -0.0031487515953 0.0033886887832 0.0064148544334 
0.0088545656763 0.010249813087 0.010236214846 0.0088305593235 0.0068958764896 0.0053434370784 0.0040844825562 0.0025836298009 0.00062647929371 
-0.0016336990338 -0.0038216630928 -0.0054790951544 -0.0062980854418 -0.00636640843 -0.0062109666178 -0.005656889407 -0.0039187794318 0.0019531146827 
0.00015013891152 0.0035570664331 0.0048731502611 0.006185885286 0.0074642092222 0.0084300505696 0.0087466095574 0.0081690778024 0.0066297027515 
0.0042096285033 0.0010834008572 -0.0022736252868 -0.005129464576 -0.0073350558523 -0.0091186232166 -0.011163419811 -0.012435381534 -0.012345486321 
-0.011300919112 -0.0012133731298 -0.0020433096943 -0.0081148415338 -0.0081656066468 -0.0078240451403 -0.0068435826106 -0.0055882995948 -0.004132160102 
-0.0024070531072 -0.0006646624679 0.00055998577591 0.0042901302222 0.0030058295233 0.0056833846029 0.0066676764982 0.0076633322751 0.0087414203444 
0.0093796497677 0.0094239495229 0.0090617786627 0.0084192439681 0.0072404942475 0.005470490898 0.0032322592742 0.00086478995945 -0.0012439280472 
-0.0032820465858 -0.0052175543387 -0.006840239279 -0.0081932252506 -0.0091393308248 -0.0095202610828 -0.0093204893637 -0.0084151825868 -0.0068974245805 
-0.0051552857039 -0.0034392438247 -0.0015866315225 0.00056271726498 0.0028761453577 0.0049444774049 0.0063410740113 0.0071655394277 0.0077888483647 
0.0083859304432 0.0088318767957 0.0089510171674 0.0085492618382 0.0076195251895 0.006547553814 0.0053243215661 0.0034064326901 0.001616547328 
4.9043977924e-05 -0.0018468598428 -0.0041325802449 -0.0063348652329 -0.0079420222901 -0.0089058794547 -0.0092814210802 -0.0090053929016 -0.0080824411707 
-0.0069030900486 -0.0068372184178 0.0020699370361 0.0009777069281 -0.0002256638918 -0.0012195359595 0.00091597292976 0.0023021316738 0.0037858718424 
0.0052740667015 0.0068924088264 0.0085492266808 0.0098611479625 0.010381731903 0.0097966867033 0.0080972302239 0.005481924687 0.0022030543623 
-0.0010263512231 -0.0029745840875 -0.0088568382198 -0.0072995998198 -0.009979914641 -0.0098417226691 -0.0090499833459 -0.0085074980743 0.00070468291233 
-0.0019762560696 0.0037968020188 0.0068356833654 0.0096093041357 0.011643486563 0.01207841374 0.010644554393 0.0085425932193 0.006805302226 
0.0050189232454 0.0030003144639 0.0010410799041 -0.0012043143761 -0.0035553841153 -0.0055356834782 -0.0067265594844 -0.0068953856826 -0.0065409058006 
-0.0059683411382 -0.0046598393237 -0.0032636865799 -0.0025255690562 -0.0010227436724 -0.0018945655029 -6.2413026171e-05 -0.0048403920373 -0.0036687953398 
-0.0051310798153 -0.0043778656206 -0.0054078944959 -0.0031313797808 -0.005963792908 -0.0051844628761 -0.0041876600008 -0.0029255616828 -0.0016351730737 
-0.00060325003142 -8.0103345681e-05 0.00097950296185 9.0874349553e-05 0.0018869839841 0.0029024917167 0.004221228126 0.0055810018675 0.0067344281124 
0.0077852162067 0.0085735325702 0.0087340191239 0.0083338376135 0.0077943421202 0.0074282520218 0.0067331815371 0.0054162133019 0.0035893588793 
0.0014768455076 -0.00049895332631 -0.002406887972 -0.0043269285816 -0.0060707243392 -0.007454306935 -0.0083361493889 -0.0086775207892 -0.0085519382264 
-0.0078271881212 -0.0059912089258 -0.0046897846623 -0.0031561571523 -0.0012292812316 0.0012122016778 0.003815894539 0.0059523418313 0.0073475332465 
0.008286768687 0.0090701195877 0.009601921076 0.009661605116 0.0091190123931 0.0081979824463 0.0071518723853 0.0060446173884 0.00488946517 
0.0037645715056 -0.00060011133792 0.00074670037247 -0.0023282788461 -0.0043502323097 -0.0063567963662 -0.0080123373773 -0.0089784186954 -0.0091782892123 
-0.0088783763349 -0.0080387340859 -0.0069009799045 -0.0055946549401 -0.0056413945276 -0.0052961546462 -0.0049224273534 -0.0046127819223 -0.0040487407241 
-0.0031450135284 -0.0020635076507 -0.0079358983785 -0.0083336618263 -0.0070319219958 -0.0057339947671 -0.0044409443508 -0.0049535719445 -0.0043764638831 
-0.0042139117722 -0.0039565998595 -0.0037922941847 -0.0035617140238 -0.0029181942227 -0.0019505914534 0.0018568472296 0.0027241672215 0.0011039367164 
0.0024390913895 0.0039171103854 0.0054781547515 0.0072108054301 0.0090647400357 0.010643997695 0.011425027158 0.011028354988 0.009461389971 
0.0069705853239 0.0039591478999 0.0011835088662 -0.00048799634897 -0.00075037756687 -0.002251513346 -8.7717126007e-05 -0.0042315988685 -0.005864970386 
-0.007169611752 -0.0079231027048 -0.0073924432509 -0.0062249010662 -0.0055634712335 -0.0075416027103 -0.0052210883005 -0.0062620000681 -0.0049058631994 
-0.0044730062364 -0.0039152177633 -0.0031109392294 -0.0016444259963 0.00075014928007 0.003658360336 0.0065751341172 0.0093609576579 0.01183963404 
0.012899927096 0.011664723977 0.0094507585745 0.0076121048769 0.005952605512 0.00080549350241 0.002628181508 -0.0014731948322 -0.0039531376096 
-0.0060354018351 -0.0073169318493 -0.0076261061477 -0.0072251934325 -0.006741480669 -0.0060372737935 -0.0050124955014 -0.0041175804217 -0.00316015305 
-0.0014965363953 -0.0024627945386 -0.0009053074682 -4.3241874664e-05 0.00375888095 0.0040829396457 -0.00067727164787 -0.00095685999986 0.00021050356645 
-0.00036303428442 0.00090852862195 0.0017779391492 0.0027815493522 0.0039168781368 0.0050855014706 0.0060865990818 0.0067881437717 0.007008114364 
0.0067566178041 0.0063531962223 0.0061515080743 0.0062534224708 0.0060316401068 0.0052142201457 0.0037512239069 0.0017869624717 -5.1853538025e-05 
-0.0017023761466 -0.0033185752109 -0.0048643283662 -0.0061416283716 -0.0069881507661 -0.0072971789632 -0.0071144341491 -0.0064415361267 -0.0051451375475 
-0.0017684063714 -0.0030419783434 6.4612577262e-05 0.0024114879052 0.0048007224104 0.0066424047109 0.0078614103841 0.0087404677179 0.0094926359598 
0.0098361633718 0.0095644947141 0.0087503204122 0.0076183320489 0.0064983736956 0.0054306195816 0.0044722014572 0.0038363523005 0.0033727477421 
0.0018066857883 0.002822514507 0.00086580687639 5.624604637e-05 -0.0011492370777 -0.0028771052603 -0.0047896729084 -0.0067171097035 -0.0082772807218 
-0.0036349064321 -0.0035799554898 -0.00148767262 -0.00094190167874 2.221017985e-05 -0.0003419385539 0.00042430707526 0.00099164195854 0.0015907482787 
0.0022694042709 0.0033177616424 0.0043445475749 0.0050972268218 0.0054604290053 0.005488810013 0.0053750120569 0.0052215154283 0.0052115523722 
0.0055557405576 0.0054481537081 0.0048300005728 0.0037365482422 0.0019803595933 0.00031924110226 -0.0010688828697 -0.0023589674674 -0.0035963322152 
-0.0046524064383 -0.0054040487157 -0.0057363921078 -0.0056180030806 -0.0051686574006 -0.0044307952048 -0.0034852967947 -0.0022728730401 -0.0025854515843 
-0.0018798918463 -0.0011768643744 -2.4065207981e-05 0.0016261169148 0.0035814329458 0.0054875366623 0.0070274273166 0.0080121025676 0.0085170730017 
0.0088595089037 0.0090829821303 0.0091534233652 0.0083397000562 0.0072517270455 0.0061157658929 0.0050400766777 0.0041074370965 0.0037682168768 
0.0022869832756 0.0034565940732 0.0010088603108 4.7825453748e-05 -0.00038448242897 -0.0014381371293 -0.0031749943155 -0.0050218575634 -0.0069945765659 
0.0010878022076 0.00240003824 0.0038380874903 0.0053596869111 0.0070579790045 0.0089097999735 0.010667712893 0.011893225368 0.011978543364 
0.010668982519 0.0084076129133 0.0058004726889 0.0034136893228 0.0017554955011 0.00093938492258 0.0019056774327 0.00068198205418 0.0027460516721 
-0.0012829674538 -0.0029704957269 -0.0043681617244 -0.0056311642984 -0.0063596981345 -0.0058171050623 -0.0045733707957 -0.0037069261889 -0.0034587124828 
-0.0034882964101 -0.0033621732146 -0.0030777878128 -0.0025402233005 -0.0013391620378 0.00087476011686 0.0037536354503 0.0066255774582 0.0091089059133 
0.011201995192 0.0122460071 0.01121892943 0.0091099643614 0.0072891429299 0.0056608202867 0.0039445604198 0.0021167416417 0.0022210568713 
0.0019382277533 0.0013723764205 -4.3754771468e-06 -0.0022471517586 -0.0047548996517 -0.0066664522747 -0.0077366281766 -0.0080011859536 -0.007650521351 
-0.007268999354 -0.0068406271748 -0.0061122188345 -0.0053755729459 -0.0046632078011 -0.0039102959563 -0.0020149066404 -0.0030469619669 -0.0014016144754 
-0.00080872608669 6.6195752879e-05 0.0016153622128 0.0026673954271 0.0036196861765 0.0041883584927 0.0044676735997 0.0046677930513 0.004873839207 
0.0050717712147 0.0053037097678 0.0057495710207 0.0045337842312 0.005274913623 0.0036384986597 0.0021462524019 0.00061785813489 -0.00062383688453 
-0.0016775287222 -0.002676835662 -0.0035836986499 -0.0043098763563 -0.0047629378969 -0.0048686029622 -0.0047039844794 -0.0043522530468 -0.0037431927049 
-0.0029847099795 -0.0017886635906 -0.0022382541501 -0.0012430276911 -0.00060579575438 0.0001457192011 0.0012213814189 0.0026625729224 0.0042134498945 
0.0057093753712 0.0070156636648 0.0078331441619 0.0080618874636 0.0080055280123 0.0080739613622 0.0083108514082 0.0090842521749 0.0071756700054 
0.0059576708591 0.0048002761323 0.0057699288009 0.0061787125887 0.0045845371205 0.0032281833701 0.0043859258294 0.0018790358154 -0.00024765747767 
-0.0012669383045 0.0011462292314 0.0023968599562 0.0037345195306 0.0051333321026 0.0066968484316 0.00840556412 0.010135663208 0.011682444485 
0.012339331675 0.011379166273 0.0094155780971 0.0073207955575 0.0053990019951 0.0036874628859 0.0050848887302 0.0027278773778 0.0041972495383 
0.0010811576708 -0.00057697349393 -0.0020869536093 -0.0032912261086 -0.0042837236542 -0.0048270267434 -0.0043817501282 -0.0033975901315 -0.0024410575861 
-0.0021232732979 -0.0021648917755 -0.0021650250128 -0.0019940370985 -0.0015339295205 -0.00048308047553 0.0015430773856 0.0042638949235 0.0068187732249 
0.0087038159836 0.010072333505 0.010600021342 0.0095993756549 0.0077776408289 0.0061904492322 0.004911795957 0.0036254503066 0.0022420315654 
0.00069582594733 0.0010175014977 0.00040432120295 0.00011676782742 -0.00019616410282 -0.00092533292627 -0.0026999340334 -0.0048648337834 -0.006482503959 
-0.0072665280895 -0.0070639104582 -0.007252963027 -0.0071797419029 -0.0068157867063 -0.0064022203442 -0.0061260233633 -0.005839439109 -0.0051259353058 
-0.0039592835237 -0.0018126749055 -0.0024963683099 -0.0011446617282 -0.0074781301664 -0.0068932622671 -0.0060560463462 -0.0059876327869 -0.0054300475167 
-0.0041890922585 -0.0036849428434 -0.003431096382 -0.0031396395061 -0.0030301572406 -0.0029096222715 -0.0023282001493 -0.0016104486858 -0.00084383086869 
0.00035070416925 1.3476728782e-05 0.00059971906376 0.0010102217275 0.0026345295191 0.0014068698656 0.0038369675749 0.0050651510246 0.0063891995233 
0.007806747104 0.009294685442 0.010836755857 0.011818239931 0.011200371431 0.0092745084316 0.0080288142199 0.0068084667437 0.0030345136765 
0.0042983181775 0.0052652471932 0.0020417046908 0.0010165426647 -0.00020040894742 -0.0015197140747 -0.0025155390613 -0.0032398954965 -0.0038882949157 
-0.0036512045772 -0.0031270539621 -0.0026988764293 -0.0011027335713 -0.0013662430283 -0.0010126936613 -0.00078384294648 -0.00017680278143 0.00093541975366 
0.0026838047197 0.0048018582747 0.0065277924296 0.0075163404457 0.0088376633357 0.0087178412359 0.007822714746 0.0063033277402 0.0050114222104 
0.0040705121937 0.0031949435361 0.0021990652021 0.0011969498737 -0.0019571079174 -0.002724061429 0.0091472840868 0.0087277796119 -0.0030234818114 
-0.0046478293953 -0.0060736599844 -0.0067394101061 -0.006549790618 -0.0063674905105 -0.0066224941984 0.0019927906396 0.002890566946 0.0033822425175 
0.0037313139765 0.0042106557521 0.0048151926603 0.0054712445708 0.0059984627878 0.0066651240923 0.0060035536299 0.0057791339544 0.0052007581107 
0.0043378678965 0.0033728254493 0.0020326764206 0.00065620189037 -0.00036741515885 -0.0011428367579 -0.0020151511417 -0.0029736493016 -0.0038077150239 
-0.0043791367207 -0.0046358430991 -0.004577959422 -0.0044727085624 -0.0041436491301 -0.0034742630669 -0.0027871731436 -0.00095066073118 -0.0015547207149 
-0.00030712152511 0.0003192711265 0.00074550403224 0.0015547077928 -0.0022009551467 -0.0013790496596 -0.00046821404248 -0.00078515723726 -0.00088134483667 
-0.0012519103475 -0.0016372959217 -0.0025466803927 -0.0038080663886 -0.0052566140657 -0.0061912342596 0.0064857095713 0.0074641187675 0.0079810470343 
0.0080314013176 0.0079682211702 0.0088800226804 0.0094474097714 0.010194281116 0.0093262065202 0.0091075703967 0.0084646341857 0.0072696370771 
0.0058818679536 0.0059665346518 0.0041248763446 0.005284134415 0.0029888125719 0.0016774612159 -0.0029910018978 -0.0025788221974 -0.0022844021209 
0.0015997421229 0.0050719279097 0.0037739144755 0.0024504094617 0.0011949641248 0.00020873223821 -0.00035695069801 -0.00076942084706 -0.0014192281233 
-0.0023598909902 -0.0032746604411 -0.0039107838529 -0.0042734955787 -0.0038386744563 -0.0042773471214 0.0005061994525 -0.0003089290185 0.0011677905568 
0.0025005897623 0.0030169987585 0.0035170726478 0.004303357855 0.0053331708768 0.0063148252666 0.0066848685965 0.0074789709179 0.0074337704573 
0.0064066888299 0.0051099155098 0.0040492875269 0.0033420702675 0.0027229964617 0.0021691468622 0.0094494498335 0.0087831025012 0.0075906715356 
-0.0012662024819 -0.0019872672856 -0.0022342328448 -0.0035752241965 -0.0036767333513 -0.003345692181 -0.0031073768623 -0.0033637733432 0.010560339782 
0.006195570187 0.0070528369397 0.0083348877961 -0.0015981524193 0.0096684766468 -0.0038828687393 -0.003898412222 -0.0037640837836 -0.0092775262892 
-0.0068364280742 -0.0012034093379 8.0183759565e-05 -8.2010024926e-05 -0.0043127213139 -0.0043077969458 -0.0034010537784 
Disp_X 1 1114 double
0 0 0.0022647951264 -0.0010711762588 0.0037605178077 0.0014857044443 0 -0.0071156080812 0 
-0.020851969719 -0.0097758211195 -0.032087996602 -0.0070377816446 -0.034148581326 0 -0.029650039971 0 -0.024011339992 
0 -0.018356818706 0 -0.013485068455 0 -0.010948276147 0 -0.009560411796 0 
-0.0077228550799 0 -0.0053769196384 0 -0.0031738579273 0 -0.0013974548783 0 -3.1455743738e-05 
0 0.001039615483 0.00022997519409 0.0029858883936 0 0.0048227999359 0 0.0058415648527 0 
0.0059878327884 0 0.0045383838005 0 0.0029547859449 0 0.0034796362743 0 0.0087185101584 
0 0.01393546816 0 0.016661154106 0 0.017608208582 0 0.017340928316 0 
0.016852892935 0 0.016117321327 0 0.014995375648 0 0.013423642144 0 0.01145292446 
0 0.0093784751371 0 0.0062812557444 0 0.0020723538473 0 -0.0019693877548 0 
-0.0040188645944 0 -0.0035499311052 0 0 -0.0024644345976 -0.0053576673381 0 0.0010478234617 
0 0.0044260891154 0 0.0068927304819 0 0.009448283352 0 0.012519503012 0 
0.015558614396 0 0.018183240667 0 0.020037274808 0 0.020598048344 0 0.019625840709 
0 0.017952317372 0 0.016857227311 0 0.016232980415 0 0.016187906265 0 
0.014737992547 0 0.011410278268 0 0.0085178613663 0 0.0091208973899 0 0.013222293928 
0 0.019312027842 0 0.025696203113 0 0.032975912094 0 0.040575735271 0 
0.026114135981 0 0.020218810067 0 0.01521814242 0 0.010788004845 0 0.0078732846305 
0 0.0047441734932 0 0.00071129581193 0 -0.0032489728183 0 -0.006284434814 0 
-0.0031774118543 0 -0.0047080856748 -0.0099235652015 -0.012441135943 -0.014039777219 -0.020640937611 -0.012936451472 -0.025891382247 
0 -0.030285362154 0 -0.031324312091 0 -0.03317290172 0 -0.035835240036 0 
-0.038789894432 0 -0.039662558585 0 -0.035402674228 0 -0.029301671311 0 -0.022565878928 
0 -0.017702156678 0 -0.015103255399 0 -0.013992448337 0 -0.012479899451 0 
-0.011380395852 0 -0.0095863891765 0 -0.0078759109601 0 -0.0061678541824 0 -0.0058347410522 
0 -0.0061049656942 0.0038443906233 0.0052478462458 -0.0088438699022 -0.034335628152 -0.052384857088 -0.057682815939 -0.054283261299 
-0.045056737959 -0.032867502421 -0.022030003369 -0.016746949404 -0.014941551723 -0.011822856963 -0.0075427163392 -0.0039777741767 -0.0013207976008 
0.00021045045287 0.0016972851008 0.0042771133594 0.0074972235598 0.010183992796 0.010662117973 0.0077375220135 0.0031446195208 0.0067243375815 
0.015159242786 0.02206940949 0.026250150055 0.028241150081 0.028604883701 0.0284378957 0.027988120914 0.026423854753 0.023718882352 
0.020116586238 0.015921115875 0.010893412866 0.0053591327742 0.00021189618565 -0.0036620744504 -0.0048617916182 -0.00071931257844 -0.00085158948787 
-0.0060802358203 0.0044899941422 0.0099881896749 0.015640581027 0.021850371733 0.028337914497 0.033001285046 0.03517197445 0.035335116088 
0.033108316362 0.030282041058 0.027915820479 0.026459729299 0.02546088025 0.022747520357 0.01774344407 0.014662067406 0.016039367765 
0.021759232506 0.030771419406 0.041785676032 0.053065378219 0.063631400466 0.034758966416 0.039174720645 0.0254419595 0.014394574799 
0.0072682774626 0.0028288194444 -0.00080676202197 -0.0047396104783 -0.0069502121769 -0.0048424573615 -0.0079041142017 -0.015971569344 -0.02512588352 
-0.033116977662 -0.039775121957 -0.04385773465 -0.04682603851 -0.052755773067 -0.060574878007 -0.064384452999 -0.0599889718 -0.049304526299 
-0.036686223 -0.027054125443 -0.022449396551 -0.020432267338 -0.018548063934 -0.016445310786 -0.013778406195 -0.011465426534 -0.0098335845396 
-0.010281696916 -0.010988887399 -0.0098682120442 0.054255031049 0.071441315114 -0.072232671082 -0.059620644897 -0.077758863568 -0.073550000787 
-0.061434961855 -0.045075234026 -0.029552714899 -0.020944168791 -0.018283704296 -0.01450798288 -0.008651740849 -0.0038088366855 -0.0011149775237 
-4.0822684241e-05 0.0012210011482 0.0048764194362 0.0097114127129 0.013618563302 0.01467144303 0.012093059719 0.0071389316581 0.020075818524 
0.011710051447 0.027258800343 0.032000087202 0.034609824419 0.035736750811 0.036257449538 0.036441475153 0.035296406597 0.03229336068 
0.02765128389 0.021854905412 0.015500261448 0.0080621363595 0.00059617689112 -0.004886941053 -0.0044580176473 0.0016291197389 0.0092034600675 
0.0066738529131 0.0054960446432 0.0052707339637 0.051684062928 0.069658465683 0.038311250508 0.018999740481 0.0053126444109 -0.0015128724044 
-0.0037617380731 -0.0056455312297 -0.0066883759573 -0.010695322417 -0.0063702142797 -0.0183642786 -0.027038503438 -0.035987310112 -0.043746765703 
-0.048346437514 -0.053451888263 -0.064296357334 -0.077789776027 -0.084324836731 -0.079285889864 -0.064957849681 -0.048448253423 -0.033662658185 
-0.025863060728 -0.022441886365 -0.019764075056 -0.016842221841 -0.014027507044 -0.011700058356 -0.010228206404 -0.011752499267 -0.013679759577 
-0.012682977132 -0.0082093356177 -0.001998878317 0.0046135950834 0.011702735908 0.020079441369 0.029446002096 0.038664970547 0.044989164919 
0.047550376505 0.046933028847 0.043395783752 0.038465488702 0.034628838301 0.032143894583 0.030123576522 0.025765197352 0.018721276894 
0.015693750232 0.017742276192 0.025345858186 0.037701066583 0.052062507719 0.064213104546 0.075832888484 0.083737552166 0.084544017911 
0.054572563618 0.077258810401 -0.006133612711 -0.0066513554193 0.01024325937 0.0071244258434 0.016564227641 0.023847339675 0.030350098386 
0.03509035334 0.038029383868 0.039706598967 0.040844805539 0.041847035289 0.041324906051 0.038606870919 0.033522211015 0.026177182794 
0.018804082647 0.011338389479 -0.0074466550723 -0.0039061768912 -0.005278495606 0.0024877069518 0.0096736149862 0.0073412619531 -0.089988984168 
-0.078767217696 -0.094206392765 -0.08843639493 -0.074241772294 -0.055466227233 -0.037438962609 -0.025853134692 -0.020701039582 -0.015991851687 
-0.0081650950015 -0.0027780926321 -0.0011084387079 -0.0012542514596 0.000243436647 0.0054361657239 0.012386689894 0.017951983958 0.020349144936 
0.01914029941 0.015112672932 0.011172482744 0.0096746394411 0.0099008195102 0.010475954972 0.013824149035 -0.049265779555 -0.066987782717 
-0.044316515326 -0.058565616608 -0.00016521578073 0.0033247165848 0.023523157462 0.0045129228383 -0.0051912483759 -0.0071738590486 -0.0071529857814 
-0.0069047114812 -0.006733908318 -0.0062242178246 -0.0062990719453 -0.0060233371332 -0.0076197502203 -0.011664109305 -0.018638042733 -0.026655986905 
-0.035147719085 -0.042670220137 -0.047450248152 -0.056731857359 -0.073659807444 -0.09091117233 -0.09919193387 -0.094371572137 -0.078043445945 
-0.058486890048 -0.040026616305 -0.028781412169 -0.023124055937 -0.019205603749 -0.015708921477 -0.012983231805 -0.01111328695 -0.01012512669 
-0.012132786214 -0.015860488638 -0.014151830226 -0.0098183844239 -0.0035289591178 0.0034791203216 0.011941741221 0.02251349017 0.03465731442 
0.045897569507 0.05333276093 0.056381367147 0.054853662848 0.050284817815 0.044229660183 0.039078466594 0.035479750484 0.032792791724 
0.02952619642 0.015387973748 0.017069781199 0.018707904965 0.028750766069 0.044543083757 0.059867735952 0.068730652332 0.078632287681 
0.087758637965 0.091594330966 0.087775044143 0.064729429781 0.077433370054 0.044881746173 0.020224165171 0.0022390577942 -0.0071212225594 
-0.0090436339378 -0.0083013745025 0.089987799525 0.082879453897 0.089604765177 0.082278810441 0.06307246536 0.06921517849 0.049730475992 
0.031686659902 0.012076418847 -0.0042548398487 -0.010022507049 -0.010416395031 -0.0081063462421 0.021994054317 0.026739200577 0.019857179374 
0.026528427377 0.032643478364 0.037364874035 0.040467713028 0.042558286339 0.044200737029 0.045517228544 0.045718111098 0.043839272112 
0.038615636528 0.030173007399 0.021074201912 0.012822953984 0.0055883936584 -0.0041011651047 -0.00036219856702 -0.0079548303038 -0.010842184536 
-0.0098644075915 -0.0055866967887 0.0027186083607 0.0076861823909 0.0041023734957 -0.0050652371719 -0.0079407934099 -0.024904806167 -0.026055552065 
-0.045687705278 -0.063462533057 -0.0785491243 -0.09313044697 -0.10409267992 -0.10760673136 -0.10119970143 -0.085950382054 -0.065713696182 
-0.045476239175 -0.031375061721 -0.023083381355 -0.017156137154 -0.010926007293 -0.0022612330504 -0.0017247620272 -0.0030883064028 -0.00025172359892 
0.0074615250342 0.017156276852 0.024790363386 0.028447931632 0.028956178576 0.027366606519 0.023690698668 0.020075697452 0.017119372264 
0.012284498662 0.015569899231 0.012709886767 0.016375573352 -0.0033918432891 -0.005836898461 -0.0064851748757 -0.0069665154442 -0.0058192512952 
-0.0057798726484 -0.0061384309083 -0.0067260116339 -0.0082006892189 -0.010972423479 -0.016522306949 -0.023644579574 -0.031439129263 -0.038558896631 
-0.045440133661 -0.059563450515 -0.080796040595 -0.10160065442 -0.11116538942 -0.10619221628 -0.089002594352 -0.068034268916 -0.046944126487 
-0.032443892211 -0.024626687169 -0.018930144608 -0.014743848704 -0.011899448 -0.010475791991 -0.010210442357 -0.012343488634 -0.016075193882 
-0.011262406595 -0.015330905095 -0.0049667865969 0.0020563553553 0.011254171841 0.023741107434 0.037649340928 0.050421655178 0.05919321999 
0.062735818326 0.06023991853 0.05417265743 0.047562625259 0.042115271091 0.037623681128 0.034430216998 0.031646925956 0.03078240715 
0.023809814826 0.029346235096 0.018980227411 0.015574161895 0.014893593267 0.019240204245 0.031939037144 0.05255619064 0.071388073266 
-0.018447436392 -0.019102342427 -0.0073463781737 -0.006458342541 -0.0052348598838 -0.0053948042914 -0.0056284363382 -0.0062797404826 -0.0067573199049 
-0.0074991136789 -0.0090187480673 -0.013287381269 -0.019410762936 -0.02670619823 -0.03429550305 -0.044477492571 -0.060993831605 -0.084112375975 
-0.11047662795 -0.11999941617 -0.11424834281 -0.097103521228 -0.075157642365 -0.053790446371 -0.037382163107 -0.027337478474 -0.020042387769 
-0.014698226936 -0.011391749606 -0.01009860076 -0.010436389595 -0.012623193674 -0.015930064023 -0.018827227876 -0.021128598601 -0.020986661315 
-0.019309094176 -0.016053760424 -0.012011407875 -0.0056837415323 0.0012136808364 0.010783019476 0.023378396407 0.037330511957 0.050635583699 
0.061088208109 0.066063463688 0.061161532998 0.054348330945 0.048266444355 0.043273914605 0.038826752454 0.034801110625 0.034541826695 
0.027479894459 0.033915575594 0.020670076832 0.016356533393 0.014901561663 0.014437539503 0.018955614418 0.032108273357 0.060340642929 
0.022105254233 0.028560491279 0.034602195024 0.039387479424 0.042583096772 0.044932816178 0.046713873744 0.047963738441 0.049160175025 
0.04835415259 0.043226316571 0.034008540213 0.023492857814 0.014126420021 0.007759608794 0.0037904616911 -0.0064135165885 -0.0014355730964 
-0.010021816008 -0.01255973056 -0.014665829949 -0.012320855632 -0.0059859603643 0.0014152540825 0.0047641098499 0.00074503384531 -0.011134477332 
-0.029148915783 -0.049029085785 -0.068726234138 -0.086703456938 -0.10284380615 -0.11432116479 -0.11750722677 -0.11053013057 -0.094490364194 
-0.073042929173 -0.051223583519 -0.035230480134 -0.024637825787 -0.017126943916 -0.011505014263 -0.0072276834399 -0.0034103691578 -0.0045802146196 
-0.002455921378 -0.0030167542864 -0.0048167132773 -0.0051247123629 0.00095818034606 0.012334653176 0.02498886548 0.035182852298 0.039528984576 
0.04028750211 0.040936689824 0.039641007781 0.035490486771 0.029385704547 0.022346330807 0.014987613074 0.017409065738 0.013766280375 
0.014515233226 0.017846159637 -0.0067568602972 -0.007066486869 -0.010289669968 -0.015757072717 -0.022852443159 -0.030875658616 -0.042352259159 
-0.058858711272 -0.079428985715 -0.099779583514 -0.11862253398 -0.12521822751 -0.10277372599 -0.081460617483 -0.06037723273 -0.042769923806 
-0.030920196325 -0.021986462176 -0.015430261381 -0.011422924697 -0.010007908568 -0.010318880901 -0.012098804116 -0.015135475434 -0.017174500972 
-0.019078744575 -0.021454930305 -0.020618913695 -0.020404329523 -0.018371287733 -0.016438573599 -0.01248275768 -0.0064864652231 -7.538580121e-06 
0.0085649685934 0.019974976778 0.034199606627 0.047741517425 0.057927712798 0.06323415786 0.052340950817 0.057015206665 0.047582820058 
0.043500617146 0.039137210697 -0.12178730965 -0.11500884593 0.039296668023 0.033236168325 0.039498161525 0.025323459879 0.016166055575 
0.014075320214 0.023632032797 0.030373372138 0.036358784884 0.041090127081 0.044180497527 0.046641111374 0.048451010138 0.049521464854 
0.051367849112 0.052270174026 0.047524049878 0.037289045751 0.024228425696 0.012441614643 0.0096490075812 -0.0056411391124 0.00021858737455 
-0.011422698386 -0.015169001184 -0.0164485313 -0.017067054287 -0.013902044855 -0.007813969627 -0.0016745463945 0.00088921544375 -0.0033562798053 
-0.015124241821 -0.032545927912 -0.052081488073 -0.072400324047 -0.091763839126 -0.10875103623 -0.12048725039 -0.12372564524 -0.11690499634 
-0.10045744479 -0.077680550516 -0.05499470979 -0.036874551326 -0.025338366628 -0.016913648695 -0.011161714792 -0.0075497943908 -0.0053724744357 
-0.0039972229861 -0.0043503316119 -0.0037626577541 -0.0042119189166 -0.0061949971132 -0.008010241203 -0.0061722011305 0.0044884802774 0.019516509026 
0.033994488418 0.050766032189 0.052012868226 0.049302238971 0.053578894585 0.05619937554 0.052816100419 0.044074628502 0.032301347703 
0.021624799818 0.014931523241 0.014955420978 0.015138912015 0.079024851322 0.083200149238 0.078948050737 0.06839799881 0.053679347038 
0.047022566199 0.033527631313 0.019492965192 0.0032890038565 -0.0099312281236 -0.012517209165 -0.010071765631 -0.0082238828763 -0.0064275781624 
-0.0046518663876 -0.0047261952423 -0.0049688210711 -0.0058430070058 0.031760644168 0.024654801935 0.037659950554 0.042187780142 0.044959567487 
0.0473498106 0.049104765058 0.050169926137 0.052293013781 0.055708978325 0.053725834936 0.040612477809 0.025551851839 -0.0053908629343 
-9.2199123173e-05 0.0064430548809 -0.010228028521 -0.01488461066 -0.017684906721 -0.019192645326 -0.018721362576 -0.015792027116 -0.010155784898 
-0.0052959905006 -0.0034519324545 -0.0048357471824 -0.035405669361 -0.020607506856 -0.053354669362 -0.073742970824 -0.093430303037 -0.11109288037 
-0.12314952165 -0.12711533904 -0.12116553634 -0.10328096151 -0.056301768869 -0.078122876585 -0.038236007094 -0.025923153386 -0.016846653074 
-0.010974516161 -0.0071074892767 -0.0055678961799 -0.0046104015782 -0.011252165772 -0.0077946679667 0.0626430884 0.063177704811 0.016743373126 
0.027133613825 0.044812057167 0.060849692672 0.069663517177 0.06943885982 0.063089504838 -0.0057637244463 -0.0076506570913 -0.012271193787 
-0.019339699298 -0.02798438631 -0.040052164346 -0.054874397814 -0.072013936937 -0.087620690465 -0.12457149476 -0.12568935752 -0.12706010044 
-0.12128122896 -0.10738267004 -0.087786279619 -0.067161612213 -0.048051368445 -0.034119497985 -0.02342239581 -0.015875006095 -0.011429544538 
-0.0098625300452 -0.0098701454699 -0.011231628247 -0.013789583929 -0.015713268891 -0.017088001594 -0.018293553963 -0.020711190999 -0.021554581821 
-0.018993796781 -0.016995748505 -0.015453602187 -0.012053662911 -0.011531490833 -0.0077549600974 -0.0052362009883 -0.0057011498138 -0.0062941643409 
-0.0090595763177 -0.010508491658 -0.0051223780029 0.013613365591 0.030548360199 0.039858985692 0.01645870693 0.030074283481 0.043899971992 
0.054211582989 0.059914108366 0.060636967421 0.058771144599 0.057870864868 0.057983659208 0.054093837738 0.050552763045 0.047138024122 
0.043542787433 0.044626809657 0.038650110364 0.042884595692 0.032510407269 0.024883527309 0.0094482935965 -0.0032911114395 -0.011975705624 
-0.0050491532311 -0.12790437043 -0.12300892919 -0.11040731519 -0.092260234058 -0.072204492986 -0.052035491914 -0.035758148879 -0.023229323328 
-0.014698958024 -0.010366339236 -0.009131715633 -0.0092727374285 -0.015163890086 -0.014982549474 -0.017213059589 -0.019457831979 -0.014508049004 
-0.0065677077509 -0.010791770183 -0.017423501238 -0.026145583019 -0.038990922272 -0.053094688803 -0.065325699747 -0.072113156319 -0.054849490523 
-0.038599912077 -0.025924168527 -0.016901472583 -0.01062870305 -0.0068620508537 -0.0052695474587 0.053171925247 0.050273057073 0.047762721777 
-0.020449355245 -0.020401773974 -0.019555823877 -0.0081744166091 -0.011580931023 -0.0064607234672 -0.0062879864126 -0.0076769283041 0.052726421505 
0.045078974217 0.047059513628 0.048867654055 -0.0094640189782 0.05034795776 -0.0096631711349 -0.012359475717 -0.008226419799 -0.0057564186864 
-0.027168547735 -0.0073834252544 0.018616527319 0.017793528736 -0.01285320241 -0.010431558825 -0.015668505803 
Disp_Y 1 1114 double
0 0 0.014605339617 0.013620893471 0.014313898049 0.0095330961049 0 0.0019936736207 0 
-0.0086051877588 -0.0093896333128 -0.012273442 -0.010297405533 -0.015007904731 0 -0.01362446975 0 -0.010710679926 
0 -0.0085998047143 0 -0.0053403652273 0 -0.0031015167478 0 -0.0017302762717 0 
-0.00069362297654 0 0.0010127034038 0 0.0027246645186 0 0.003921374213 0 0.0042468514293 
0 0.0047562709078 0.0050423885696 0.0044391006231 0 0.0026273981202 0 0.0019403879996 0 
0.0023757414892 0 0.0037261068355 0 0.0048385653645 0 0.0035296690185 0 0.0015596840531 
0 -0.0002613113611 0 -0.001639743452 0 -0.0027214293368 0 -0.0035925551783 0 
-0.004702125676 0 -0.0054795066826 0 -0.0066884364933 0 -0.0068252426572 0 -0.0075445557013 
0 -0.0073634278961 0 -0.0060595120303 0 -0.0045444532298 0 -0.00094426749274 0 
0.0038796577137 0 0.0091376714408 0 0 -0.011287486181 -0.0094046294689 0 -0.011205903254 
0 -0.012091185898 0 -0.011300562881 0 -0.0093376124278 0 -0.0090143401176 0 
-0.0081488974392 0 -0.0075347395614 0 -0.0083452854306 0 -0.0080242026597 0 -0.0095380209386 
0 -0.008058375679 0 -0.0068104001693 0 -0.0048465970904 0 -0.0051102857105 0 
-0.0050211125053 0 -0.0052099628374 0 -0.0053700460121 0 -0.0053535336629 0 -0.004676931072 
0 -0.004166782368 0 -0.001984471688 0 0.0018839874538 0 0.0077660526149 0 
0.0075392019935 0 0.008674534969 0 0.0056777154095 0 0.0017530351179 0 -0.0015296740457 
0 -0.0029086628929 0 -0.0030123107135 0 -0.0032866222318 0 -0.0043958658352 0 
-0.0029819656629 0 -0.0047188075259 -0.013556525111 -0.0084536960348 -0.015860389918 -0.01234964747 -0.016269493848 -0.01294182241 
0 -0.011911859736 0 -0.010790987872 0 -0.010885139927 0 -0.0096012884751 0 
-0.0080255176872 0 -0.0060819755308 0 -0.0056579848751 0 -0.0053338734433 0 -0.0054664732888 
0 -0.0064552831464 0 -0.0066644819453 0 -0.0068596177734 0 -0.0060467952862 0 
-0.0071999668144 0 -0.0079259043559 0 -0.0088994028047 0 -0.0099492445588 0 -0.010096943006 
0 -0.010322396643 0.01279473491 0.021107826382 -0.0006146383821 -0.016237007454 -0.023806309327 -0.026495369151 -0.024792686105 
-0.020704301074 -0.015222565271 -0.009426292032 -0.0041593979113 -0.00088641559705 0.0013531658333 0.003468306968 0.0054122679867 0.0065323440358 
0.0065045417286 0.0051484405994 0.00251438329 0.000158033974 -0.00079527980415 -0.00032144840225 0.0016443548957 0.0045362138189 0.0036896958482 
0.00099199742544 -0.0011110944906 -0.0027379263192 -0.0040185479447 -0.0052965250798 -0.0071446574293 -0.0085684731603 -0.010246933438 -0.011779982597 
-0.012810082175 -0.012106463313 -0.0097126811743 -0.0066072135232 -0.0011925250292 0.0052443705499 0.012462678365 0.020092519 -0.016766479239 
-0.016031580046 -0.017566254362 -0.017938628793 -0.017404107377 -0.016121374443 -0.014728525653 -0.01368351467 -0.014200354926 -0.013189644553 
-0.012238812633 -0.011251403019 -0.009059089236 -0.0070101041347 -0.0062013287097 -0.0062424475327 -0.0069738356397 -0.0076470575295 -0.0077737546526 
-0.0070093781687 -0.0047363699414 -0.00026056045317 0.0038605853915 0.0074039436877 0.012545606121 0.011093620211 0.010272747837 0.0065557388589 
0.0011603874154 -0.0022664780263 -0.003040637821 -0.0029372512363 -0.0029621329159 -0.0028593714815 -0.0038774351124 -0.0058655804023 -0.0088875768706 
-0.0113819791 -0.014356599189 -0.015659520403 -0.014912465587 -0.01227664575 -0.01003885828 -0.0089103933424 -0.0075369873084 -0.0074575408362 
-0.0070192404091 -0.0082029076293 -0.0095572294667 -0.01038443204 -0.010637057014 -0.011698618531 -0.012719370425 -0.013843343593 -0.015072987415 
-0.015627680346 -0.015557179227 -0.015011964366 0.011433714069 0.0097588822246 -0.033818662167 -0.029317194596 -0.035406190902 -0.033062849194 
-0.02676593326 -0.01889571175 -0.011580853723 -0.0049269855954 -0.00033565069316 0.0026007951237 0.0050928336568 0.006919471547 0.0077064610086 
0.0066144596785 0.0032545935828 -0.0012215367751 -0.0050669219345 -0.0069986381568 -0.0068231178448 -0.0050876992755 -0.0020419994835 -0.00038857734762 
0.0015772216721 -0.0024306199048 -0.0040466440842 -0.0053007658571 -0.0066590164788 -0.0084701804444 -0.010692194104 -0.013270323165 -0.015598856844 
-0.017073297873 -0.016947401688 -0.015263290145 -0.01314774435 -0.00558023341 0.0024833723437 0.011872187257 0.019982520491 0.020521894097 
0.011606007814 0.0021156975999 -0.0010016486049 0.012600813992 0.0091874795035 0.012618339621 0.01032121107 0.004905924201 -0.00024487593328 
-0.0025936646853 -0.0026546334848 -0.0020133596845 -0.0033720894717 -0.0024810752366 -0.0047983205877 -0.0071149035357 -0.010351474397 -0.014242273755 
-0.016778256744 -0.015191669576 -0.012066970579 -0.01243578922 -0.012444224209 -0.010555226356 -0.0086234984919 -0.00671697082 -0.0080896588042 
-0.01013510488 -0.011844168417 -0.012850992382 -0.013851379976 -0.014769228175 -0.015749813989 -0.016992283985 -0.017870105803 -0.018259840086 
-0.018349654973 -0.019342731684 -0.020557712764 -0.021475212649 -0.021619975567 -0.021175231785 -0.019815001637 -0.018386323005 -0.0174036026 
-0.016241529956 -0.014888308942 -0.013408557512 -0.01222251635 -0.010292410851 -0.0082645928487 -0.0071630468592 -0.0072638518177 -0.0082169864327 
-0.0091058723629 -0.0090459147468 -0.0073858373798 -0.0039698691107 0.00075946649304 0.003628021339 0.005678571295 0.0057788076811 0.0031949358527 
0.0067451130599 -0.0010583907133 -0.0021593829151 -0.0017680878518 0.00018798864039 -0.0015348823508 -0.00052278896328 -0.0021361086983 -0.0040309200995 
-0.0057879067026 -0.0072250994854 -0.0084881251678 -0.010220762342 -0.012650117278 -0.015486613847 -0.01880045794 -0.021112276241 -0.021814126521 
-0.021130355075 -0.020413275808 -0.00086245470447 -0.0091940890998 0.0083418311551 0.015426159836 0.015640279278 0.0076921833679 -0.03904036805 
-0.03548341617 -0.039715971798 -0.037114720792 -0.030699580908 -0.021861715242 -0.013144851662 -0.0061203609221 -0.00091916386737 0.0022655122448 
0.0052138236351 0.0076862988062 0.0077268579043 0.0046738362871 -0.00114468229 -0.007713500876 -0.012935613282 -0.015910360962 -0.015673784539 
-0.013805299997 -0.011119949631 -0.0081772459671 -0.0070415930822 -0.0028953279834 -0.0065668020397 -0.0015955875861 -0.025595832616 -0.030575986952 
-0.02325408347 -0.027402404696 -0.016040215269 -0.020888943225 0.0075272913091 0.0047283577733 0.00075085874414 -0.0020105396397 -0.0025890946854 
-0.002277773805 -0.0020168076735 -0.001974955434 -0.0023369838018 -0.0021490640938 -0.0029207132757 -0.0040705157444 -0.0054314760491 -0.0074321124703 
-0.010302161798 -0.01371287182 -0.015021448955 -0.013126670383 -0.012199696153 -0.014447119087 -0.016109939665 -0.014346922748 -0.011161388829 
-0.007707035169 -0.0078352848068 -0.0093129724264 -0.011397491209 -0.012733885087 -0.01387347281 -0.014955258928 -0.01594449766 -0.017033450305 
-0.018178690225 -0.019453462213 -0.020509852096 -0.021713132039 -0.022883623838 -0.023718355224 -0.023723939434 -0.022990649566 -0.02203771472 
-0.021094063297 -0.020153701305 -0.018443347886 -0.016605170444 -0.014470858499 -0.012607467361 -0.010672258213 -0.0091091422364 -0.0079082818702 
-0.0075264549814 -0.0093662152067 -0.0088406261057 -0.0089364945889 -0.0068071638234 -0.0030827457085 0.00082752184244 0.0028568406124 0.0028661780525 
0.001068706857 -0.002367524663 -0.006805405952 -0.0074105481617 -0.011639429256 -0.0025534264278 0.00013928834233 -2.4721613954e-05 -0.0012622481445 
-0.0025750964414 -0.0028541036882 -0.0067627788521 -0.0026162774302 -0.011242664419 -0.015399845317 -0.015939947218 -0.018841104582 -0.013123338111 
-0.010052814148 -0.0074257552624 -0.0060140467249 -0.0044562397525 -0.003842352191 -0.0033836341463 -0.0080098668113 -0.0073943263851 -0.0021203358192 
-0.0036368297879 -0.0055787055753 -0.0075087798759 -0.0091062244028 -0.010471203364 -0.012047734112 -0.014193260111 -0.017195172608 -0.021156316623 
-0.024476254359 -0.025904655457 -0.025603456423 -0.024629311636 -0.02420485951 -0.021804481745 -0.024503184482 -0.018007308245 -0.012372028083 
-0.004385270644 0.0037289222237 0.0087979370728 0.0081004351377 0.0021896101534 -0.0042097754776 -0.0069864941761 -0.014960985631 -0.015820492059 
-0.022879416123 -0.028348643333 -0.032879281789 -0.03753849864 -0.040963958949 -0.041540168226 -0.038990762085 -0.033288769424 -0.024698624387 
-0.015439373441 -0.0079293353483 -0.0030196208972 7.7196425991e-05 0.0018042951124 0.0057927425951 0.0073067881167 0.00027582919574 -0.0077839102596 
-0.015873951837 -0.02166469954 -0.024942930788 -0.024153364822 -0.022291265428 -0.01965421997 -0.016466429457 -0.014681661502 -0.012090516277 
-0.0066865975969 -0.009215913713 -0.0040863831528 -0.0028321603313 0.0053106290288 0.0019514564192 -0.003168992931 -0.0027347884607 -0.0031883413903 
-0.0039447820745 -0.0027897446416 -0.0030361369718 -0.0040433239192 -0.0053627151065 -0.0067572314292 -0.0085361413658 -0.010614888743 -0.012626260519 
-0.012573128566 -0.011140987277 -0.01295891311 -0.017747592181 -0.020181464031 -0.018234658986 -0.013751849532 -0.0087770987302 -0.0079602943733 
-0.0081794420257 -0.0097689805552 -0.011093107052 -0.012537099421 -0.013877530582 -0.015028257854 -0.016212847084 -0.017530759797 -0.018917838112 
-0.02332800068 -0.022135451436 -0.024325419217 -0.025198303163 -0.025598354638 -0.025776429102 -0.025460308418 -0.024189248681 -0.022381801158 
-0.020498000085 -0.01824972406 -0.015591955744 -0.012830887921 -0.010671634227 -0.0092116929591 -0.0081302151084 -0.0076505295001 -0.0073246755637 
-0.0069717904553 -0.0066486820579 -0.0076783508994 -0.0085323853418 -0.0089751398191 -0.0083980830386 -0.006435837131 -0.0032623563893 0.00036284251837 
-0.021139962599 -0.020112561062 -0.0040092379786 -0.0048718270846 -0.0050049764104 -0.005496817641 -0.004343315959 -0.0039487308823 -0.0039242892526 
-0.0049451496452 -0.0063418368809 -0.0075894598849 -0.0091128805652 -0.010463573039 -0.011276679114 -0.011419747025 -0.012162921019 -0.01620438695 
-0.023482603952 -0.024452960119 -0.022384127602 -0.016538500786 -0.010338768363 -0.0080251889303 -0.0071878558956 -0.0081692067906 -0.0094275446609 
-0.01088756416 -0.012415749021 -0.013876850717 -0.015305172652 -0.016818756238 -0.018162278458 -0.01923035644 -0.021156070754 -0.020115690306 
-0.021973203868 -0.022995034233 -0.024102210999 -0.025191487744 -0.0265001636 -0.027789859101 -0.028882078826 -0.028696497902 -0.027151878923 
-0.024724274874 -0.022248851135 -0.019008209929 -0.015788961202 -0.012559389696 -0.010100620799 -0.008677941747 -0.0077318008989 -0.0070674922317 
-0.0057472358458 -0.0063912379555 -0.0061404500157 -0.007128987927 -0.0078596267849 -0.007928234525 -0.0077438005246 -0.0070143113844 -0.0066603645682 
-0.0031946871895 -0.004511104431 -0.0064972597174 -0.0085200881585 -0.010241324082 -0.01166785229 -0.013168375008 -0.014888895676 -0.017702460289 
-0.022166110575 -0.026488410309 -0.02874330245 -0.028579790145 -0.027276098728 -0.026153821498 -0.027080241591 -0.02514263615 -0.028310794383 
-0.022386100143 -0.018918473274 -0.014560410753 -0.008247980848 -0.0020030522719 0.0012297976064 0.00040774961235 -0.004118135199 -0.0098522342741 
-0.016459599137 -0.022113835439 -0.027488734573 -0.032403305173 -0.037326920778 -0.041140764952 -0.042195312679 -0.040417358279 -0.035651452839 
-0.028053915128 -0.018763152882 -0.010627464391 -0.0056194714271 -0.002619480947 -0.0011221750174 -0.00088176818099 0.0010687705362 -0.0014702136395 
0.0035853099544 0.0043273940682 0.0013179668458 -0.0061963112094 -0.014810385182 -0.022178368643 -0.026961233467 -0.029520060867 -0.028620136902 
-0.026680102572 -0.024508172646 -0.022319847718 -0.019716046751 -0.016224356368 -0.011568875983 -0.0070986500941 -0.0080883353949 -0.00636456348 
-0.0045832148753 -0.0034323746804 -0.0052388142794 -0.006625847891 -0.007658847142 -0.0089491922408 -0.010023001581 -0.010606484488 -0.011348756962 
-0.013481443748 -0.018661990762 -0.025858486071 -0.026645632461 -0.029685499147 -0.020283419639 -0.013896394521 -0.0096598602831 -0.0073773246258 
-0.0078554172069 -0.0088905626908 -0.010135829449 -0.011618525721 -0.013082091697 -0.014640754089 -0.015962781385 -0.017302477732 -0.018047621474 
-0.018585870042 -0.020696178079 -0.019329221919 -0.021567137912 -0.022385517135 -0.023464981467 -0.024465201423 -0.02590620704 -0.02758802101 
-0.029451606795 -0.031184598804 -0.031501289457 -0.030280208215 -0.027988679707 -0.025188336149 -0.01489903871 -0.018047461286 -0.011884197593 
-0.0095137851313 -0.0080536138266 -0.030690152198 -0.032630536705 -0.007592425216 -0.0057199890725 -0.0070473784581 -0.0047227353789 -0.0049485513009 
-0.006781491451 -0.0036577156279 -0.0048655807041 -0.0068189664744 -0.0087517583743 -0.01038253773 -0.011705781333 -0.013082121499 -0.014448220842 
-0.017028098926 -0.022005621344 -0.027424298227 -0.030531225726 -0.031023906544 -0.029474165291 -0.032087914646 -0.02802329883 -0.030051082373 
-0.025660900399 -0.023018585518 -0.019803302363 -0.016234304756 -0.011911237612 -0.0080129159614 -0.005876403302 -0.0063636023551 -0.0094102919102 
-0.011888341978 -0.015913773328 -0.02014278248 -0.02489612624 -0.03005910106 -0.03526988253 -0.039469417185 -0.041472312063 -0.040424626321 
-0.036011327058 -0.029147904366 -0.020953459665 -0.013110881671 -0.0080249924213 -0.0051225912757 -0.0034490427934 -0.0030446762685 -0.0035145822912 
-0.002782586962 -0.0043808207847 -0.00078201311408 0.00071616453351 -0.00044084023102 -0.0049537792802 -0.013096936047 -0.020697774366 -0.025036614388 
-0.027084376663 -0.027551906183 -0.027876505628 -0.027571566403 -0.025834826753 -0.024573342875 -0.021324777976 -0.016797643155 -0.012256357819 
-0.0085714254528 -0.0051360698417 -0.0062012602575 -0.0047384751961 -0.011248234659 -0.015530104749 -0.019494106993 -0.023669501767 -0.023240633309 
-0.019749887288 -0.017916155979 -0.015051615424 -0.013056839816 -0.010442283936 -0.0068687736057 -0.0050703999586 -0.0057141981088 -0.0060061784461 
-0.0057887602597 -0.0053102616221 -0.0058962544426 -0.0055674081668 -0.0049293311313 -0.0036601673346 -0.0067514604889 -0.0084613505751 -0.0098746018484 
-0.010931824334 -0.012207873166 -0.013500262052 -0.015821531415 -0.02103580907 -0.028934685513 -0.033139493316 -0.033979557455 -0.026820007712 
-0.028109081089 -0.030140955001 -0.02649733983 -0.025202026591 -0.022993430495 -0.020627107471 -0.017853077501 -0.015389634296 -0.0123011088 
-0.010561093688 -0.010457344353 -0.01068169903 -0.013955756091 -0.012278390117 -0.016545362771 -0.020858475938 -0.026005832478 -0.031723000109 
-0.036816801876 -0.039626728743 -0.038942631334 -0.033660180867 -0.020603464916 -0.027296474203 -0.014317687601 -0.0097985928878 -0.0070694270544 
-0.0053813378327 -0.0047068796121 -0.0048411088064 -0.0054502645507 -0.011592189781 -0.011434341781 -0.02082276158 -0.022604135796 -0.0072320140898 
-0.00818317011 -0.010784777813 -0.014765901491 -0.019355520606 -0.022961122915 -0.026293968782 -0.006523674354 -0.0073243086226 -0.0084774987772 
-0.0095679434016 -0.010457445867 -0.011858651415 -0.014621055685 -0.019726565108 -0.025889007375 -0.036652997136 -0.034014202654 -0.03355140239 
-0.030378947034 -0.024045147002 -0.017194939777 -0.012205716223 -0.0091587286443 -0.0089619802311 -0.0095092160627 -0.010333689861 -0.011318600737 
-0.012432911433 -0.013696528971 -0.014873105101 -0.016104931012 -0.016852315515 -0.017192123458 -0.017597710714 -0.021354353055 -0.020310258493 
-0.022296214476 -0.023114308715 -0.023683290929 -0.024639654905 -0.0075832982548 -0.0062576956116 -0.0045019313693 -0.0032371683046 -0.0020496414509 
-0.0044935168698 -0.010050068609 -0.016903903335 -0.021273417398 -0.023219449446 -0.024737531319 -0.032899811864 -0.034244135022 -0.033426392823 
-0.030897157267 -0.027506016195 -0.0252717603 -0.019025573507 -0.019720420241 -0.018922762945 -0.016588974744 -0.013738578185 -0.011232935824 
-0.0090936785564 -0.0087441131473 -0.0066916579381 -0.0081617841497 -0.0051477984525 -0.003869113978 -0.018043296412 -0.01617805101 -0.010784792714 
-0.0060963039286 -0.03698111698 -0.033780004829 -0.027868436649 -0.021418552846 -0.016284821555 -0.012485265732 -0.011198732071 -0.010982325301 
-0.011068070307 -0.01138064079 -0.012043952942 -0.01307831239 -0.016172291711 -0.016253171489 -0.023768784478 -0.022363929078 -0.024556843564 
-0.0065681356937 -0.0076108709909 -0.008933570236 -0.010465303436 -0.012881562114 -0.016060588881 -0.019546205178 -0.023051897064 -0.018393293023 
-0.013983666897 -0.010499501601 -0.008263990283 -0.006702600047 -0.0059038018808 -0.0056309355423 -0.015580239706 -0.012764376588 -0.010639597662 
-0.020787121728 -0.019400477409 -0.018429920077 -0.012858443893 -0.014339097776 -0.012184090912 -0.01165512111 -0.011914591305 -0.015126382932 
-0.0092704184353 -0.0098859118298 -0.011187255383 -0.0060504707508 -0.012679816224 -0.013533466496 -0.014851025306 -0.012767554261 -0.0023780073971 
-0.015545704402 -0.0026286905631 -0.0032948136795 -0.0034376704134 -0.015171388164 -0.014011470601 -0.01611806266 
Disp_Z 1 1114 double
0 0 0.00093358400045 0.0012532941764 0.00029355031438 -0.0017150115455 0 -0.0028250110336 0 
0.00021890472271 0.0051839505322 0.007926565595 0.0098999505863 0.013490372337 0 0.018094714731 0 0.018970320001 
0 0.019416555762 0 0.018305955455 0 0.01703575626 0 0.016863474622 0 
0.01780709438 0 0.01802643761 0 0.017368735746 0 0.016101175919 0 0.014799868688 
0 0.01419321727 0.0039003526326 0.011980782263 0 0.0097568416968 0 0.0062751499936 0 
0.0020661712624 0 -0.0012890099315 0 -0.002622717293 0 -0.00013916105672 0 0.00048765906831 
0 -0.0038744085468 0 -0.0086483713239 0 -0.012587846257 0 -0.01537507493 0 
-0.017596067861 0 -0.019620304927 0 -0.021770333871 0 -0.023706261069 0 -0.024804802611 
0 -0.025794131681 0 -0.02532826364 0 -0.022500377148 0 -0.016461836174 0 
-0.0090161627159 0 -0.0025546082761 0 0 -0.02658322081 -0.021756239235 0 -0.030277438462 
0 -0.03344084695 0 -0.035662218928 0 -0.037280142307 0 -0.037740841508 0 
-0.036834895611 0 -0.034374266863 0 -0.030662743375 0 -0.026395987719 0 -0.02343362011 
0 -0.020267644897 0 -0.017600394785 0 -0.014016606845 0 -0.01062366832 0 
-0.0058897738345 0 -0.0017258203588 0 -0.0001784015767 0 0.0003209655988 0 0.0020278461743 
0 0.0066111218184 0 0.012606439181 0 0.02128993161 0 0.037405312061 0 
0.033124595881 0 0.033863350749 0 0.034777417779 0 0.0316215083 0 0.026967739686 
0 0.023333074525 0 0.019477644935 0 0.01544463262 0 0.011721916497 0 
0.010223051533 0 0.017093079165 0.0080111408606 0.021274076775 0.0096656326205 0.022883856669 0.0082310261205 0.022238537669 
0 0.022001575679 0 0.021389828995 0 0.021563565359 0 0.021264191717 0 
0.019384484738 0 0.016297778115 0 0.010722556151 0 0.0044883531518 0 0.0012321209069 
0 0.00079742574599 0 0.00066791777499 0 -0.00078483496327 0 -0.0029900562949 0 
-0.0054079918191 0 -0.0079438611865 0 -0.0099698230624 0 -0.012084743939 0 -0.013903600164 
0 -0.017338229343 -0.00084814999718 0.0051821595989 -0.0050663477741 -0.00057872658363 0.010703160428 0.021567013115 0.029703401029 
0.034691825509 0.035403057933 0.032109320164 0.027506127954 0.025692429394 0.026019314304 0.025563118979 0.023653501645 0.02135088481 
0.019551474601 0.018616346642 0.017508987337 0.014881715178 0.010148403235 0.0033171030227 -0.0030292847659 -0.0033605024219 0.00146744831 
1.9759061161e-06 -0.0061908136122 -0.013191024773 -0.019547248259 -0.024901878089 -0.028901880607 -0.033133983612 -0.037586100399 -0.041258260608 
-0.043667927384 -0.04461248219 -0.042793806642 -0.036435846239 -0.02533191815 -0.011802375317 -7.6764417827e-06 0.0065052225254 -0.048930197954 
-0.041623100638 -0.054722126573 -0.059644196182 -0.063547588885 -0.065339542925 -0.063512027264 -0.058183029294 -0.050544001162 -0.04165347293 
-0.033930677921 -0.028229193762 -0.023382509127 -0.018889475614 -0.013496042229 -0.006943596527 -0.0018610336119 -0.00067833374487 -0.00041785283247 
0.0011823998066 0.006006358657 0.014101746492 0.029009059072 0.050046373159 0.058241907507 0.052075590938 0.059412706643 0.053501658142 
0.044114030898 0.035954009742 0.029682364315 0.024361934513 0.020533075556 0.020244665444 0.026355983689 0.0312299449 0.033811472356 
0.03456280753 0.034144587815 0.033719804138 0.035224687308 0.036594539881 0.033473014832 0.025090804324 0.013413171284 0.0027936557308 
-0.0028002976906 -0.0028309733607 -0.0016579889925 -0.0021899042185 -0.0045790812001 -0.0074244770221 -0.010186950676 -0.012411446311 -0.014913327061 
-0.018255721778 -0.024840645492 -0.033127848059 0.061850313097 0.071271471679 0.017323922366 0.0069961925037 0.02992018871 0.041050303727 
0.046847488731 0.046710602939 0.041497208178 0.033961419016 0.029761424288 0.028920570388 0.027706567198 0.0250378903 0.022358920425 
0.020637406036 0.020674936473 0.020864669234 0.018712952733 0.01330685243 0.0053249686025 -0.0025260655675 -0.0053673842922 -0.002642683452 
0.00086938409368 -0.0096707576886 -0.017581509426 -0.02506243065 -0.031666878611 -0.037301249802 -0.042954571545 -0.049050297588 -0.054572906345 
-0.058159150183 -0.058988731354 -0.056151650846 -0.047257274389 -0.028305275366 -0.0095691876486 0.0054648052901 0.013791888021 0.011355483904 
0.0035884471145 -3.5896086047e-05 -0.0033047220204 0.076933555305 0.089219816029 0.082208789885 0.073662005365 0.05875403434 0.044511035085 
0.035013988614 0.029052099213 0.026015534997 0.033394224942 0.027905771509 0.038261402398 0.041325379163 0.042483676225 0.041707467288 
0.04229862988 0.046596907079 0.049443718046 0.045126531273 0.033573128283 0.017411936074 0.0024442183785 -0.0066082095727 -0.0062933145091 
-0.0035906131379 -0.0024661920033 -0.0042266445234 -0.006367735099 -0.0084687583148 -0.010658206418 -0.013385490514 -0.017219601199 -0.026587467641 
-0.038974411786 -0.050473034382 -0.060619279742 -0.069498866796 -0.077553279698 -0.084512025118 -0.087600268424 -0.084898501635 -0.076619774103 
-0.064663045108 -0.051362436265 -0.03922855109 -0.030606269836 -0.024607580155 -0.019806370139 -0.013758365065 -0.0060106609017 -0.0011169433128 
-0.0010656641098 -0.0015192155261 -0.0011545539601 0.0042940238491 0.013600626029 0.029849639162 0.049615997821 0.070270851254 0.08957247436 
0.10085426271 0.10223866254 0.025014322251 0.026395116001 0.00038442909135 -0.00086403667228 -0.0010471784044 -0.0056677265093 -0.012498408556 
-0.020287066698 -0.02795708552 -0.035341095179 -0.042000677437 -0.048766694963 -0.0565110147 -0.063404634595 -0.068340368569 -0.069608405232 
-0.066820986569 -0.060922726989 -0.0047541121021 -0.023832667619 0.010822782293 0.017536474392 0.014872144908 0.0066006626002 0.02522462979 
0.014397382736 0.038307327777 0.049554344267 0.055230841041 0.053825691342 0.046795979142 0.037853065878 0.031518749893 0.028926635161 
0.026116367429 0.023298196495 0.020953889936 0.020603714511 0.022721078247 0.02477103658 0.023533726111 0.018204491585 0.010296134278 
0.0014760229969 -0.004794891458 -0.0059956917539 -0.0043877153657 -0.0002220300812 -0.0023513566703 -5.2692037571e-05 0.0014572141226 0.0079693477601 
-0.00044655459351 0.0032340548933 -0.041137453169 -0.054999064654 0.088463112712 0.069543242455 0.051763862371 0.039108302444 0.032082006335 
0.028967630118 0.028429506347 0.028664825484 0.029199037701 0.029493419454 0.033065643162 0.038257393986 0.043044902384 0.046583790332 
0.048110220581 0.047943938524 0.050449438393 0.057115454227 0.059892699122 0.053937327117 0.040228150785 0.021568592638 0.0038533392362 
-0.0076248110272 -0.0081217968836 -0.0055732475594 -0.0029641820583 -0.0034801228903 -0.0046555381268 -0.0058641456999 -0.0075853234157 -0.010006518103 
-0.013841818087 -0.024760520086 -0.041529335082 -0.05476257205 -0.066394470632 -0.077610433102 -0.088754549623 -0.098142854869 -0.10207387805 
-0.098315998912 -0.087457858026 -0.071876563132 -0.055287893862 -0.040705434978 -0.030297769234 -0.023343957961 -0.019069256261 -0.013500055298 
-0.0085071744397 -0.0015033948002 -0.00046817644034 -0.0026688836515 -0.0024005547166 0.004190673586 0.015134221874 0.027527337894 0.040105309337 
0.058924265206 0.078283332288 0.092526763678 0.10557419807 0.098325230181 0.10376675427 0.092155247927 0.074124120176 0.054553225636 
0.040820404887 0.033614289016 0.057995550334 0.037139989436 0.07437941432 0.08310867101 0.096025936306 0.083831600845 0.10089992732 
0.098148308694 0.08704765141 0.0709688887 0.051940504462 0.039327193052 0.032682769001 -0.0016699897824 -0.0043392549269 -0.0020199124701 
-0.0067071653903 -0.01304599829 -0.020607789978 -0.028652973473 -0.036413576454 -0.044132586569 -0.052269972861 -0.060983613133 -0.069231688976 
-0.075932763517 -0.078452020884 -0.076013930142 -0.070488587022 -0.065002568066 -0.049699153751 -0.061465803534 -0.035054717213 -0.0181344226 
-0.001239626552 0.01278348919 0.017470382154 0.015134611167 0.0076693375595 -0.0014746809611 -0.00034847579082 -0.002608405659 -0.0037239654921 
-0.002236940898 0.0021544862539 0.0098488498479 0.01991616562 0.031752284616 0.044818513095 0.055580537766 0.060866940767 0.058857798576 
0.050915248692 0.040979720652 0.033760968596 0.029424197972 0.026040796191 0.019690923393 0.020153125748 0.022285394371 0.027871213853 
0.032464135438 0.032519184053 0.027618361637 0.019472140819 0.0098611935973 0.0019680697005 -0.0029728957452 -0.0054336288013 -0.0045240791515 
-0.0016321090516 -0.0027119929437 -0.00040255050408 -0.00018296894268 0.021689185873 0.022961160168 0.029849987477 0.030133292079 0.030449481681 
0.029780711979 0.031106984243 0.032459098846 0.035784721375 0.040877860039 0.045682188123 0.049859762192 0.052194692194 0.053959544748 
0.058978077024 0.067238666117 0.069330319762 0.061146501452 0.045104537159 0.024591216817 0.0046822647564 -0.0086426585913 -0.0090448828414 
-0.0073753087781 -0.0040651378222 -0.003691483289 -0.0035216812976 -0.0036581899039 -0.0045365984552 -0.0063373832963 -0.0089520486072 -0.014575669542 
-0.057123199105 -0.044449262321 -0.069180637598 -0.0817996189 -0.094764873385 -0.10541407764 -0.10955818743 -0.10483256727 -0.091853380203 
-0.072915755212 -0.053539481014 -0.039303317666 -0.028882645071 -0.021939639002 -0.017457092181 -0.012731629424 -0.0095844957978 -0.0073162778281 
-0.0013764913892 -0.0045715286396 -7.8187353211e-05 -0.00030472132494 -0.0019323265878 -0.0037892919499 -0.0027509911451 0.0072872564197 0.022811232135 
-0.031756691635 -0.020739421248 0.031047780067 0.029227439314 0.02996339649 0.027855539694 0.031767077744 0.033086873591 0.034057497978 
0.036622937769 0.041048660874 0.045798223466 0.050596505404 0.054367639124 0.058843161911 0.064950890839 0.073758371174 0.076557777822 
0.068365566432 0.047900363803 0.026381554082 0.0051564951427 -0.0092600798234 -0.011232600547 -0.0096760643646 -0.0061714733019 -0.0047748005018 
-0.0036282073706 -0.0026301417965 -0.0024237008765 -0.0032110200264 -0.0048181260936 -0.0082788364962 -0.012767597102 -0.026218727231 -0.017306098714 
-0.036220449954 -0.047336470336 -0.05891668424 -0.070834517479 -0.083469368517 -0.096396781504 -0.10701823235 -0.11164841056 -0.10775838792 
-0.094276823103 -0.070410475135 -0.048657599837 -0.03635539487 -0.027412250638 -0.020521743223 -0.015767470002 -0.010910732672 -0.0093483366072 
-0.0021197909955 -0.0075743724592 0.000728609215 0.00090711464873 -6.2715022068e-05 -0.0019809307996 -0.0042694751173 -0.0030460811686 0.01245978009 
-0.0020724674687 -0.0060657220893 -0.01217099838 -0.019563091919 -0.027718225494 -0.035596195608 -0.043877162039 -0.052754987031 -0.061785519123 
-0.071899592876 -0.081216424704 -0.085585676134 -0.083759613335 -0.07775927335 -0.07177413255 -0.071603558958 -0.057464476675 -0.069733947515 
-0.044887587428 -0.03044776246 -0.01454686746 0.00089554477017 0.0126799196 0.016368314624 0.013937764801 0.0064856153913 -0.0012714690529 
-0.005898094736 -0.0048534474336 0.00033444556175 0.0097376778722 0.021530590951 0.035066463053 0.048967070878 0.059978481382 0.065708428621 
0.064351119101 0.056592062116 0.045832015574 0.037480562925 0.03186539188 0.02770560421 0.024681502953 0.020278239623 0.022523729131 
0.018674397841 0.018356623128 0.021029228345 0.028045753017 0.037953522056 0.045296430588 0.046828337014 0.042913079262 0.032627165318 
0.021815957502 0.013818503357 0.006721900776 0.00093858706532 -0.0024976036511 -0.003010135144 -0.0020639458671 -0.0028868257068 -0.0017275089631 
-0.0003953097912 0.00044804974459 0.035391878337 0.039289042354 0.043846957386 0.049102593213 0.054268702865 0.061113677919 0.068516910076 
0.077948465943 0.081008337438 0.078508004546 0.02628217265 0.045466151088 0.006374401506 -0.0063434704207 -0.011471016333 -0.012238388881 
-0.0082594230771 -0.0059269308113 -0.0040667271242 -0.0021801386029 -0.0010367754148 -0.00097062037094 -0.0018216109602 -0.0039529493079 -0.0072930585593 
-0.010717671365 -0.022252637893 -0.014304772951 -0.031052296981 -0.040342498571 -0.04958197847 -0.059689525515 -0.071282304823 -0.082947894931 
-0.094012998044 -0.10424610227 -0.11012315005 -0.10805241764 -0.097112767398 -0.080680899322 -0.034402433783 -0.044343702495 -0.026790920645 
-0.020102245733 -0.01475457754 0.061205048114 0.070865280926 -0.013965584338 -0.0058024283499 -0.01237552613 -0.000228710589 0.0014264300698 
-0.0009736220818 -0.0011714126449 -0.0047868234105 -0.010923100635 -0.018365401775 -0.026230111718 -0.033702395856 -0.041720468551 -0.050494562835 
-0.059589680284 -0.071149222553 -0.084110490978 -0.091494895518 -0.089898772538 -0.081770904362 -0.085792452097 -0.064821586013 -0.077738635242 
-0.052781242877 -0.040028166026 -0.026681328192 -0.012499013916 0.00075298349839 0.011067059822 0.013953390531 0.011690359563 0.0039420286193 
-0.0038495678455 -0.0085870614275 -0.0086392918602 -0.0039022890851 0.006090387702 0.019196629524 0.034803129733 0.050166036934 0.06241896376 
0.069280564785 0.068982638419 0.062422558665 0.052423473448 0.042825698853 0.036266144365 0.031218299642 0.027491750196 0.025317056105 
0.021304219961 0.024334652349 0.019029846415 0.018186112866 0.019476434216 0.026045477018 0.038882240653 0.052780032158 0.060440208763 
0.062143336982 0.061735615134 0.044238202274 0.031547896564 0.028540870175 0.021191313863 0.0129870167 0.0051855482161 -0.00070577574661 
-0.003201337764 -0.0012652592268 -0.0024741757661 -0.00053522363305 0.033958703279 0.051709663123 0.062908284366 0.066222190857 0.078833766282 
0.086939141154 0.088980734348 0.086191639304 0.075669966638 0.059203188866 0.043892338872 0.034750659019 0.029848542064 0.026152508333 
0.027372751385 0.024328323081 0.030545921996 0.033321164548 -0.0038080173545 -3.9719365304e-05 -0.010445776395 -0.017791129649 -0.024702059105 
-0.030903121457 -0.038193460554 -0.046317469329 -0.054535403848 -0.066383391619 -0.08510351181 -0.097162827849 -0.096577778459 -0.06986349076 
-0.080616898835 -0.088368229568 -0.058856703341 -0.047664128244 -0.035968732089 -0.024003952742 -0.012269604951 -0.0019951190334 0.0076381182298 
0.010159598663 0.009064222686 0.0056397207081 -0.010856351815 -0.0066307536326 -0.012067831121 -0.0082916012034 0.0014673626283 0.014690911397 
0.031635720283 0.048257704824 0.063103757799 0.074624955654 0.067452274263 0.073808148503 0.058268170804 0.048465970904 0.041503638029 
0.035565108061 0.03119237721 0.028629764915 0.027825376019 -0.002120352583 0.0018558327574 -0.055236000568 -0.064527288079 -0.0039762323722 
-0.0029551631305 0.0043509588577 0.017121549696 0.030189437792 0.041045177728 0.045935291797 0.03599620983 0.041016228497 0.046915497631 
0.053086150438 0.060606986284 0.068739958107 0.077423773706 0.080746807158 0.080394625664 0.059638090432 0.054707467556 0.042934753001 
0.025639556348 0.0067589166574 -0.0068767853081 -0.013180803508 -0.014761298895 -0.010263647884 -0.0069555677474 -0.0039811725728 -0.00136443472 
0.00033234426519 0.00082757539349 0.00033082938171 -0.00098615244497 -0.0036275531165 -0.0053927819245 -0.0073983715847 -0.026948453858 -0.018373310566 
-0.03603374213 -0.044618107378 -0.050835862756 -0.058211956173 0.03293986246 0.024942530319 0.021656440571 0.020091297105 0.019692789763 
0.022877400741 0.034054081887 0.051492966712 0.070569567382 0.07457254082 0.072747886181 -0.097458444536 -0.10451654345 -0.1038646251 
-0.09466484189 -0.083837166429 -0.072486251593 -0.051693513989 -0.058071427047 -0.049422256649 -0.042403649539 -0.034473463893 -0.027622004971 
-0.020562684163 -0.021344328299 -0.010959200561 -0.018128719181 -0.004243736621 0.00035763910273 0.073872663081 0.062374386936 0.040913559496 
0.032111719251 0.045016530901 0.027693804353 0.0099298041314 -0.00374460686 -0.012242844328 -0.015160339884 -0.011727254838 -0.0075437654741 
-0.0037219868973 -0.00020031802705 0.0018604157958 0.0024908902124 -0.00099251850042 -0.00097286881646 -0.042078241706 -0.031805302948 -0.051341712475 
0.037715960294 0.043714046478 0.050447005779 0.058448176831 0.066690512002 0.074324242771 0.078885547817 0.077504061162 0.071684867144 
0.063337646425 0.054204002023 0.046433862299 0.040016736835 0.035080809146 0.031846530735 -0.043961644173 -0.036618933082 -0.029640998691 
-0.022015707567 -0.014377812855 -0.010335134342 0.0067810653709 0.0047455271706 0.0067763924599 0.005584070459 0.0036741942167 -0.048533059657 
-0.023379778489 -0.027291240171 -0.034033559263 0.024150470272 -0.041164122522 0.0041456762701 0.0025224131532 0.0044662440196 -0.0039849355817 
-0.0035646045581 0.030703360215 0.0012512785615 0.0014649004443 0.00097432674374 0.0021345720161 -0.00069153722143 
Disp_FEB 3 1114 double
0 0 0 0 0 0 0.0022647951264 0.014605339617 0.00093358400045 
-0.0010711762588 0.013620893471 0.0012532941764 0.0037605178077 0.014313898049 0.00029355031438 0.0014857044443 0.0095330961049 -0.0017150115455 
0 0 0 -0.0071156080812 0.0019936736207 -0.0028250110336 0 0 0 
-0.020851969719 -0.0086051877588 0.00021890472271 -0.0097758211195 -0.0093896333128 0.0051839505322 -0.032087996602 -0.012273442 0.007926565595 
-0.0070377816446 -0.010297405533 0.0098999505863 -0.034148581326 -0.015007904731 0.013490372337 0 0 0 
-0.029650039971 -0.01362446975 0.018094714731 0 0 0 -0.024011339992 -0.010710679926 0.018970320001 
0 0 0 -0.018356818706 -0.0085998047143 0.019416555762 0 0 0 
-0.013485068455 -0.0053403652273 0.018305955455 0 0 0 -0.010948276147 -0.0031015167478 0.01703575626 
0 0 0 -0.009560411796 -0.0017302762717 0.016863474622 0 0 0 
-0.0077228550799 -0.00069362297654 0.01780709438 0 0 0 -0.0053769196384 0.0010127034038 0.01802643761 
0 0 0 -0.0031738579273 0.0027246645186 0.017368735746 0 0 0 
-0.0013974548783 0.003921374213 0.016101175919 0 0 0 -3.1455743738e-05 0.0042468514293 0.014799868688 
0 0 0 0.001039615483 0.0047562709078 0.01419321727 0.00022997519409 0.0050423885696 0.0039003526326 
0.0029858883936 0.0044391006231 0.011980782263 0 0 0 0.0048227999359 0.0026273981202 0.0097568416968 
0 0 0 0.0058415648527 0.0019403879996 0.0062751499936 0 0 0 
0.0059878327884 0.0023757414892 0.0020661712624 0 0 0 0.0045383838005 0.0037261068355 -0.0012890099315 
0 0 0 0.0029547859449 0.0048385653645 -0.002622717293 0 0 0 
0.0034796362743 0.0035296690185 -0.00013916105672 0 0 0 0.0087185101584 0.0015596840531 0.00048765906831 
0 0 0 0.01393546816 -0.0002613113611 -0.0038744085468 0 0 0 
0.016661154106 -0.001639743452 -0.0086483713239 0 0 0 0.017608208582 -0.0027214293368 -0.012587846257 
0 0 0 0.017340928316 -0.0035925551783 -0.01537507493 0 0 0 
0.016852892935 -0.004702125676 -0.017596067861 0 0 0 0.016117321327 -0.0054795066826 -0.019620304927 
0 0 0 0.014995375648 -0.0066884364933 -0.021770333871 0 0 0 
0.013423642144 -0.0068252426572 -0.023706261069 0 0 0 0.01145292446 -0.0075445557013 -0.024804802611 
0 0 0 0.0093784751371 -0.0073634278961 -0.025794131681 0 0 0 
0.0062812557444 -0.0060595120303 -0.02532826364 0 0 0 0.0020723538473 -0.0045444532298 -0.022500377148 
0 0 0 -0.0019693877548 -0.00094426749274 -0.016461836174 0 0 0 
-0.0040188645944 0.0038796577137 -0.0090161627159 0 0 0 -0.0035499311052 0.0091376714408 -0.0025546082761 
0 0 0 0 0 0 -0.0024644345976 -0.011287486181 -0.02658322081 
-0.0053576673381 -0.0094046294689 -0.021756239235 0 0 0 0.0010478234617 -0.011205903254 -0.030277438462 
0 0 0 0.0044260891154 -0.012091185898 -0.03344084695 0 0 0 
0.0068927304819 -0.011300562881 -0.035662218928 0 0 0 0.009448283352 -0.0093376124278 -0.037280142307 
0 0 0 0.012519503012 -0.0090143401176 -0.037740841508 0 0 0 
0.015558614396 -0.0081488974392 -0.036834895611 0 0 0 0.018183240667 -0.0075347395614 -0.034374266863 
0 0 0 0.020037274808 -0.0083452854306 -0.030662743375 0 0 0 
0.020598048344 -0.0080242026597 -0.026395987719 0 0 0 0.019625840709 -0.0095380209386 -0.02343362011 
0 0 0 0.017952317372 -0.008058375679 -0.020267644897 0 0 0 
0.016857227311 -0.0068104001693 -0.017600394785 0 0 0 0.016232980415 -0.0048465970904 -0.014016606845 
0 0 0 0.016187906265 -0.0051102857105 -0.01062366832 0 0 0 
0.014737992547 -0.0050211125053 -0.0058897738345 0 0 0 0.011410278268 -0.0052099628374 -0.0017258203588 
0 0 0 0.0085178613663 -0.0053700460121 -0.0001784015767 0 0 0 
0.0091208973899 -0.0053535336629 0.0003209655988 0 0 0 0.013222293928 -0.004676931072 0.0020278461743 
0 0 0 0.019312027842 -0.004166782368 0.0066111218184 0 0 0 
0.025696203113 -0.001984471688 0.012606439181 0 0 0 0.032975912094 0.0018839874538 0.02128993161 
0 0 0 0.040575735271 0.0077660526149 0.037405312061 0 0 0 
0.026114135981 0.0075392019935 0.033124595881 0 0 0 0.020218810067 0.008674534969 0.033863350749 
0 0 0 0.01521814242 0.0056777154095 0.034777417779 0 0 0 
0.010788004845 0.0017530351179 0.0316215083 0 0 0 0.0078732846305 -0.0015296740457 0.026967739686 
0 0 0 0.0047441734932 -0.0029086628929 0.023333074525 0 0 0 
0.00071129581193 -0.0030123107135 0.019477644935 0 0 0 -0.0032489728183 -0.0032866222318 0.01544463262 
0 0 0 -0.006284434814 -0.0043958658352 0.011721916497 0 0 0 
-0.0031774118543 -0.0029819656629 0.010223051533 0 0 0 -0.0047080856748 -0.0047188075259 0.017093079165 
-0.0099235652015 -0.013556525111 0.0080111408606 -0.012441135943 -0.0084536960348 0.021274076775 -0.014039777219 -0.015860389918 0.0096656326205 
-0.020640937611 -0.01234964747 0.022883856669 -0.012936451472 -0.016269493848 0.0082310261205 -0.025891382247 -0.01294182241 0.022238537669 
0 0 0 -0.030285362154 -0.011911859736 0.022001575679 0 0 0 
-0.031324312091 -0.010790987872 0.021389828995 0 0 0 -0.03317290172 -0.010885139927 0.021563565359 
0 0 0 -0.035835240036 -0.0096012884751 0.021264191717 0 0 0 
-0.038789894432 -0.0080255176872 0.019384484738 0 0 0 -0.039662558585 -0.0060819755308 0.016297778115 
0 0 0 -0.035402674228 -0.0056579848751 0.010722556151 0 0 0 
-0.029301671311 -0.0053338734433 0.0044883531518 0 0 0 -0.022565878928 -0.0054664732888 0.0012321209069 
0 0 0 -0.017702156678 -0.0064552831464 0.00079742574599 0 0 0 
-0.015103255399 -0.0066644819453 0.00066791777499 0 0 0 -0.013992448337 -0.0068596177734 -0.00078483496327 
0 0 0 -0.012479899451 -0.0060467952862 -0.0029900562949 0 0 0 
-0.011380395852 -0.0071999668144 -0.0054079918191 0 0 0 -0.0095863891765 -0.0079259043559 -0.0079438611865 
0 0 0 -0.0078759109601 -0.0088994028047 -0.0099698230624 0 0 0 
-0.0061678541824 -0.0099492445588 -0.012084743939 0 0 0 -0.0058347410522 -0.010096943006 -0.013903600164 
0 0 0 -0.0061049656942 -0.010322396643 -0.017338229343 0.0038443906233 0.01279473491 -0.00084814999718 
0.0052478462458 0.021107826382 0.0051821595989 -0.0088438699022 -0.0006146383821 -0.0050663477741 -0.034335628152 -0.016237007454 -0.00057872658363 
-0.052384857088 -0.023806309327 0.010703160428 -0.057682815939 -0.026495369151 0.021567013115 -0.054283261299 -0.024792686105 0.029703401029 
-0.045056737959 -0.020704301074 0.034691825509 -0.032867502421 -0.015222565271 0.035403057933 -0.022030003369 -0.009426292032 0.032109320164 
-0.016746949404 -0.0041593979113 0.027506127954 -0.014941551723 -0.00088641559705 0.025692429394 -0.011822856963 0.0013531658333 0.026019314304 
-0.0075427163392 0.003468306968 0.025563118979 -0.0039777741767 0.0054122679867 0.023653501645 -0.0013207976008 0.0065323440358 0.02135088481 
0.00021045045287 0.0065045417286 0.019551474601 0.0016972851008 0.0051484405994 0.018616346642 0.0042771133594 0.00251438329 0.017508987337 
0.0074972235598 0.000158033974 0.014881715178 0.010183992796 -0.00079527980415 0.010148403235 0.010662117973 -0.00032144840225 0.0033171030227 
0.0077375220135 0.0016443548957 -0.0030292847659 0.0031446195208 0.0045362138189 -0.0033605024219 0.0067243375815 0.0036896958482 0.00146744831 
0.015159242786 0.00099199742544 1.9759061161e-06 0.02206940949 -0.0011110944906 -0.0061908136122 0.026250150055 -0.0027379263192 -0.013191024773 
0.028241150081 -0.0040185479447 -0.019547248259 0.028604883701 -0.0052965250798 -0.024901878089 0.0284378957 -0.0071446574293 -0.028901880607 
0.027988120914 -0.0085684731603 -0.033133983612 0.026423854753 -0.010246933438 -0.037586100399 0.023718882352 -0.011779982597 -0.041258260608 
0.020116586238 -0.012810082175 -0.043667927384 0.015921115875 -0.012106463313 -0.04461248219 0.010893412866 -0.0097126811743 -0.042793806642 
0.0053591327742 -0.0066072135232 -0.036435846239 0.00021189618565 -0.0011925250292 -0.02533191815 -0.0036620744504 0.0052443705499 -0.011802375317 
-0.0048617916182 0.012462678365 -7.6764417827e-06 -0.00071931257844 0.020092519 0.0065052225254 -0.00085158948787 -0.016766479239 -0.048930197954 
-0.0060802358203 -0.016031580046 -0.041623100638 0.0044899941422 -0.017566254362 -0.054722126573 0.0099881896749 -0.017938628793 -0.059644196182 
0.015640581027 -0.017404107377 -0.063547588885 0.021850371733 -0.016121374443 -0.065339542925 0.028337914497 -0.014728525653 -0.063512027264 
0.033001285046 -0.01368351467 -0.058183029294 0.03517197445 -0.014200354926 -0.050544001162 0.035335116088 -0.013189644553 -0.04165347293 
0.033108316362 -0.012238812633 -0.033930677921 0.030282041058 -0.011251403019 -0.028229193762 0.027915820479 -0.009059089236 -0.023382509127 
0.026459729299 -0.0070101041347 -0.018889475614 0.02546088025 -0.0062013287097 -0.013496042229 0.022747520357 -0.0062424475327 -0.006943596527 
0.01774344407 -0.0069738356397 -0.0018610336119 0.014662067406 -0.0076470575295 -0.00067833374487 0.016039367765 -0.0077737546526 -0.00041785283247 
0.021759232506 -0.0070093781687 0.0011823998066 0.030771419406 -0.0047363699414 0.006006358657 0.041785676032 -0.00026056045317 0.014101746492 
0.053065378219 0.0038605853915 0.029009059072 0.063631400466 0.0074039436877 0.050046373159 0.034758966416 0.012545606121 0.058241907507 
0.039174720645 0.011093620211 0.052075590938 0.0254419595 0.010272747837 0.059412706643 0.014394574799 0.0065557388589 0.053501658142 
0.0072682774626 0.0011603874154 0.044114030898 0.0028288194444 -0.0022664780263 0.035954009742 -0.00080676202197 -0.003040637821 0.029682364315 
-0.0047396104783 -0.0029372512363 0.024361934513 -0.0069502121769 -0.0029621329159 0.020533075556 -0.0048424573615 -0.0028593714815 0.020244665444 
-0.0079041142017 -0.0038774351124 0.026355983689 -0.015971569344 -0.0058655804023 0.0312299449 -0.02512588352 -0.0088875768706 0.033811472356 
-0.033116977662 -0.0113819791 0.03456280753 -0.039775121957 -0.014356599189 0.034144587815 -0.04385773465 -0.015659520403 0.033719804138 
-0.04682603851 -0.014912465587 0.035224687308 -0.052755773067 -0.01227664575 0.036594539881 -0.060574878007 -0.01003885828 0.033473014832 
-0.064384452999 -0.0089103933424 0.025090804324 -0.0599889718 -0.0075369873084 0.013413171284 -0.049304526299 -0.0074575408362 0.0027936557308 
-0.036686223 -0.0070192404091 -0.0028002976906 -0.027054125443 -0.0082029076293 -0.0028309733607 -0.022449396551 -0.0095572294667 -0.0016579889925 
-0.020432267338 -0.01038443204 -0.0021899042185 -0.018548063934 -0.010637057014 -0.0045790812001 -0.016445310786 -0.011698618531 -0.0074244770221 
-0.013778406195 -0.012719370425 -0.010186950676 -0.011465426534 -0.013843343593 -0.012411446311 -0.0098335845396 -0.015072987415 -0.014913327061 
-0.010281696916 -0.015627680346 -0.018255721778 -0.010988887399 -0.015557179227 -0.024840645492 -0.0098682120442 -0.015011964366 -0.033127848059 
0.054255031049 0.011433714069 0.061850313097 0.071441315114 0.0097588822246 0.071271471679 -0.072232671082 -0.033818662167 0.017323922366 
-0.059620644897 -0.029317194596 0.0069961925037 -0.077758863568 -0.035406190902 0.02992018871 -0.073550000787 -0.033062849194 0.041050303727 
-0.061434961855 -0.02676593326 0.046847488731 -0.045075234026 -0.01889571175 0.046710602939 -0.029552714899 -0.011580853723 0.041497208178 
-0.020944168791 -0.0049269855954 0.033961419016 -0.018283704296 -0.00033565069316 0.029761424288 -0.01450798288 0.0026007951237 0.028920570388 
-0.008651740849 0.0050928336568 0.027706567198 -0.0038088366855 0.006919471547 0.0250378903 -0.0011149775237 0.0077064610086 0.022358920425 
-4.0822684241e-05 0.0066144596785 0.020637406036 0.0012210011482 0.0032545935828 0.020674936473 0.0048764194362 -0.0012215367751 0.020864669234 
0.0097114127129 -0.0050669219345 0.018712952733 0.013618563302 -0.0069986381568 0.01330685243 0.01467144303 -0.0068231178448 0.0053249686025 
0.012093059719 -0.0050876992755 -0.0025260655675 0.0071389316581 -0.0020419994835 -0.0053673842922 0.020075818524 -0.00038857734762 -0.002642683452 
0.011710051447 0.0015772216721 0.00086938409368 0.027258800343 -0.0024306199048 -0.0096707576886 0.032000087202 -0.0040466440842 -0.017581509426 
0.034609824419 -0.0053007658571 -0.02506243065 0.035736750811 -0.0066590164788 -0.031666878611 0.036257449538 -0.0084701804444 -0.037301249802 
0.036441475153 -0.010692194104 -0.042954571545 0.035296406597 -0.013270323165 -0.049050297588 0.03229336068 -0.015598856844 -0.054572906345 
0.02765128389 -0.017073297873 -0.058159150183 0.021854905412 -0.016947401688 -0.058988731354 0.015500261448 -0.015263290145 -0.056151650846 
0.0080621363595 -0.01314774435 -0.047257274389 0.00059617689112 -0.00558023341 -0.028305275366 -0.004886941053 0.0024833723437 -0.0095691876486 
-0.0044580176473 0.011872187257 0.0054648052901 0.0016291197389 0.019982520491 0.013791888021 0.0092034600675 0.020521894097 0.011355483904 
0.0066738529131 0.011606007814 0.0035884471145 0.0054960446432 0.0021156975999 -3.5896086047e-05 0.0052707339637 -0.0010016486049 -0.0033047220204 
0.051684062928 0.012600813992 0.076933555305 0.069658465683 0.0091874795035 0.089219816029 0.038311250508 0.012618339621 0.082208789885 
0.018999740481 0.01032121107 0.073662005365 0.0053126444109 0.004905924201 0.05875403434 -0.0015128724044 -0.00024487593328 0.044511035085 
-0.0037617380731 -0.0025936646853 0.035013988614 -0.0056455312297 -0.0026546334848 0.029052099213 -0.0066883759573 -0.0020133596845 0.026015534997 
-0.010695322417 -0.0033720894717 0.033394224942 -0.0063702142797 -0.0024810752366 0.027905771509 -0.0183642786 -0.0047983205877 0.038261402398 
-0.027038503438 -0.0071149035357 0.041325379163 -0.035987310112 -0.010351474397 0.042483676225 -0.043746765703 -0.014242273755 0.041707467288 
-0.048346437514 -0.016778256744 0.04229862988 -0.053451888263 -0.015191669576 0.046596907079 -0.064296357334 -0.012066970579 0.049443718046 
-0.077789776027 -0.01243578922 0.045126531273 -0.084324836731 -0.012444224209 0.033573128283 -0.079285889864 -0.010555226356 0.017411936074 
-0.064957849681 -0.0086234984919 0.0024442183785 -0.048448253423 -0.00671697082 -0.0066082095727 -0.033662658185 -0.0080896588042 -0.0062933145091 
-0.025863060728 -0.01013510488 -0.0035906131379 -0.022441886365 -0.011844168417 -0.0024661920033 -0.019764075056 -0.012850992382 -0.0042266445234 
-0.016842221841 -0.013851379976 -0.006367735099 -0.014027507044 -0.014769228175 -0.0084687583148 -0.011700058356 -0.015749813989 -0.010658206418 
-0.010228206404 -0.016992283985 -0.013385490514 -0.011752499267 -0.017870105803 -0.017219601199 -0.013679759577 -0.018259840086 -0.026587467641 
-0.012682977132 -0.018349654973 -0.038974411786 -0.0082093356177 -0.019342731684 -0.050473034382 -0.001998878317 -0.020557712764 -0.060619279742 
0.0046135950834 -0.021475212649 -0.069498866796 0.011702735908 -0.021619975567 -0.077553279698 0.020079441369 -0.021175231785 -0.084512025118 
0.029446002096 -0.019815001637 -0.087600268424 0.038664970547 -0.018386323005 -0.084898501635 0.044989164919 -0.0174036026 -0.076619774103 
0.047550376505 -0.016241529956 -0.064663045108 0.046933028847 -0.014888308942 -0.051362436265 0.043395783752 -0.013408557512 -0.03922855109 
0.038465488702 -0.01222251635 -0.030606269836 0.034628838301 -0.010292410851 -0.024607580155 0.032143894583 -0.0082645928487 -0.019806370139 
0.030123576522 -0.0071630468592 -0.013758365065 0.025765197352 -0.0072638518177 -0.0060106609017 0.018721276894 -0.0082169864327 -0.0011169433128 
0.015693750232 -0.0091058723629 -0.0010656641098 0.017742276192 -0.0090459147468 -0.0015192155261 0.025345858186 -0.0073858373798 -0.0011545539601 
0.037701066583 -0.0039698691107 0.0042940238491 0.052062507719 0.00075946649304 0.013600626029 0.064213104546 0.003628021339 0.029849639162 
0.075832888484 0.005678571295 0.049615997821 0.083737552166 0.0057788076811 0.070270851254 0.084544017911 0.0031949358527 0.08957247436 
0.054572563618 0.0067451130599 0.10085426271 0.077258810401 -0.0010583907133 0.10223866254 -0.006133612711 -0.0021593829151 0.025014322251 
-0.0066513554193 -0.0017680878518 0.026395116001 0.01024325937 0.00018798864039 0.00038442909135 0.0071244258434 -0.0015348823508 -0.00086403667228 
0.016564227641 -0.00052278896328 -0.0010471784044 0.023847339675 -0.0021361086983 -0.0056677265093 0.030350098386 -0.0040309200995 -0.012498408556 
0.03509035334 -0.0057879067026 -0.020287066698 0.038029383868 -0.0072250994854 -0.02795708552 0.039706598967 -0.0084881251678 -0.035341095179 
0.040844805539 -0.010220762342 -0.042000677437 0.041847035289 -0.012650117278 -0.048766694963 0.041324906051 -0.015486613847 -0.0565110147 
0.038606870919 -0.01880045794 -0.063404634595 0.033522211015 -0.021112276241 -0.068340368569 0.026177182794 -0.021814126521 -0.069608405232 
0.018804082647 -0.021130355075 -0.066820986569 0.011338389479 -0.020413275808 -0.060922726989 -0.0074466550723 -0.00086245470447 -0.0047541121021 
-0.0039061768912 -0.0091940890998 -0.023832667619 -0.005278495606 0.0083418311551 0.010822782293 0.0024877069518 0.015426159836 0.017536474392 
0.0096736149862 0.015640279278 0.014872144908 0.0073412619531 0.0076921833679 0.0066006626002 -0.089988984168 -0.03904036805 0.02522462979 
-0.078767217696 -0.03548341617 0.014397382736 -0.094206392765 -0.039715971798 0.038307327777 -0.08843639493 -0.037114720792 0.049554344267 
-0.074241772294 -0.030699580908 0.055230841041 -0.055466227233 -0.021861715242 0.053825691342 -0.037438962609 -0.013144851662 0.046795979142 
-0.025853134692 -0.0061203609221 0.037853065878 -0.020701039582 -0.00091916386737 0.031518749893 -0.015991851687 0.0022655122448 0.028926635161 
-0.0081650950015 0.0052138236351 0.026116367429 -0.0027780926321 0.0076862988062 0.023298196495 -0.0011084387079 0.0077268579043 0.020953889936 
-0.0012542514596 0.0046738362871 0.020603714511 0.000243436647 -0.00114468229 0.022721078247 0.0054361657239 -0.007713500876 0.02477103658 
0.012386689894 -0.012935613282 0.023533726111 0.017951983958 -0.015910360962 0.018204491585 0.020349144936 -0.015673784539 0.010296134278 
0.01914029941 -0.013805299997 0.0014760229969 0.015112672932 -0.011119949631 -0.004794891458 0.011172482744 -0.0081772459671 -0.0059956917539 
0.0096746394411 -0.0070415930822 -0.0043877153657 0.0099008195102 -0.0028953279834 -0.0002220300812 0.010475954972 -0.0065668020397 -0.0023513566703 
0.013824149035 -0.0015955875861 -5.2692037571e-05 -0.049265779555 -0.025595832616 0.0014572141226 -0.066987782717 -0.030575986952 0.0079693477601 
-0.044316515326 -0.02325408347 -0.00044655459351 -0.058565616608 -0.027402404696 0.0032340548933 -0.00016521578073 -0.016040215269 -0.041137453169 
0.0033247165848 -0.020888943225 -0.054999064654 0.023523157462 0.0075272913091 0.088463112712 0.0045129228383 0.0047283577733 0.069543242455 
-0.0051912483759 0.00075085874414 0.051763862371 -0.0071738590486 -0.0020105396397 0.039108302444 -0.0071529857814 -0.0025890946854 0.032082006335 
-0.0069047114812 -0.002277773805 0.028967630118 -0.006733908318 -0.0020168076735 0.028429506347 -0.0062242178246 -0.001974955434 0.028664825484 
-0.0062990719453 -0.0023369838018 0.029199037701 -0.0060233371332 -0.0021490640938 0.029493419454 -0.0076197502203 -0.0029207132757 0.033065643162 
-0.011664109305 -0.0040705157444 0.038257393986 -0.018638042733 -0.0054314760491 0.043044902384 -0.026655986905 -0.0074321124703 0.046583790332 
-0.035147719085 -0.010302161798 0.048110220581 -0.042670220137 -0.01371287182 0.047943938524 -0.047450248152 -0.015021448955 0.050449438393 
-0.056731857359 -0.013126670383 0.057115454227 -0.073659807444 -0.012199696153 0.059892699122 -0.09091117233 -0.014447119087 0.053937327117 
-0.09919193387 -0.016109939665 0.040228150785 -0.094371572137 -0.014346922748 0.021568592638 -0.078043445945 -0.011161388829 0.0038533392362 
-0.058486890048 -0.007707035169 -0.0076248110272 -0.040026616305 -0.0078352848068 -0.0081217968836 -0.028781412169 -0.0093129724264 -0.0055732475594 
-0.023124055937 -0.011397491209 -0.0029641820583 -0.019205603749 -0.012733885087 -0.0034801228903 -0.015708921477 -0.01387347281 -0.0046555381268 
-0.012983231805 -0.014955258928 -0.0058641456999 -0.01111328695 -0.01594449766 -0.0075853234157 -0.01012512669 -0.017033450305 -0.010006518103 
-0.012132786214 -0.018178690225 -0.013841818087 -0.015860488638 -0.019453462213 -0.024760520086 -0.014151830226 -0.020509852096 -0.041529335082 
-0.0098183844239 -0.021713132039 -0.05476257205 -0.0035289591178 -0.022883623838 -0.066394470632 0.0034791203216 -0.023718355224 -0.077610433102 
0.011941741221 -0.023723939434 -0.088754549623 0.02251349017 -0.022990649566 -0.098142854869 0.03465731442 -0.02203771472 -0.10207387805 
0.045897569507 -0.021094063297 -0.098315998912 0.05333276093 -0.020153701305 -0.087457858026 0.056381367147 -0.018443347886 -0.071876563132 
0.054853662848 -0.016605170444 -0.055287893862 0.050284817815 -0.014470858499 -0.040705434978 0.044229660183 -0.012607467361 -0.030297769234 
0.039078466594 -0.010672258213 -0.023343957961 0.035479750484 -0.0091091422364 -0.019069256261 0.032792791724 -0.0079082818702 -0.013500055298 
0.02952619642 -0.0075264549814 -0.0085071744397 0.015387973748 -0.0093662152067 -0.0015033948002 0.017069781199 -0.0088406261057 -0.00046817644034 
0.018707904965 -0.0089364945889 -0.0026688836515 0.028750766069 -0.0068071638234 -0.0024005547166 0.044543083757 -0.0030827457085 0.004190673586 
0.059867735952 0.00082752184244 0.015134221874 0.068730652332 0.0028568406124 0.027527337894 0.078632287681 0.0028661780525 0.040105309337 
0.087758637965 0.001068706857 0.058924265206 0.091594330966 -0.002367524663 0.078283332288 0.087775044143 -0.006805405952 0.092526763678 
0.064729429781 -0.0074105481617 0.10557419807 0.077433370054 -0.011639429256 0.098325230181 0.044881746173 -0.0025534264278 0.10376675427 
0.020224165171 0.00013928834233 0.092155247927 0.0022390577942 -2.4721613954e-05 0.074124120176 -0.0071212225594 -0.0012622481445 0.054553225636 
-0.0090436339378 -0.0025750964414 0.040820404887 -0.0083013745025 -0.0028541036882 0.033614289016 0.089987799525 -0.0067627788521 0.057995550334 
0.082879453897 -0.0026162774302 0.037139989436 0.089604765177 -0.011242664419 0.07437941432 0.082278810441 -0.015399845317 0.08310867101 
0.06307246536 -0.015939947218 0.096025936306 0.06921517849 -0.018841104582 0.083831600845 0.049730475992 -0.013123338111 0.10089992732 
0.031686659902 -0.010052814148 0.098148308694 0.012076418847 -0.0074257552624 0.08704765141 -0.0042548398487 -0.0060140467249 0.0709688887 
-0.010022507049 -0.0044562397525 0.051940504462 -0.010416395031 -0.003842352191 0.039327193052 -0.0081063462421 -0.0033836341463 0.032682769001 
0.021994054317 -0.0080098668113 -0.0016699897824 0.026739200577 -0.0073943263851 -0.0043392549269 0.019857179374 -0.0021203358192 -0.0020199124701 
0.026528427377 -0.0036368297879 -0.0067071653903 0.032643478364 -0.0055787055753 -0.01304599829 0.037364874035 -0.0075087798759 -0.020607789978 
0.040467713028 -0.0091062244028 -0.028652973473 0.042558286339 -0.010471203364 -0.036413576454 0.044200737029 -0.012047734112 -0.044132586569 
0.045517228544 -0.014193260111 -0.052269972861 0.045718111098 -0.017195172608 -0.060983613133 0.043839272112 -0.021156316623 -0.069231688976 
0.038615636528 -0.024476254359 -0.075932763517 0.030173007399 -0.025904655457 -0.078452020884 0.021074201912 -0.025603456423 -0.076013930142 
0.012822953984 -0.024629311636 -0.070488587022 0.0055883936584 -0.02420485951 -0.065002568066 -0.0041011651047 -0.021804481745 -0.049699153751 
-0.00036219856702 -0.024503184482 -0.061465803534 -0.0079548303038 -0.018007308245 -0.035054717213 -0.010842184536 -0.012372028083 -0.0181344226 
-0.0098644075915 -0.004385270644 -0.001239626552 -0.0055866967887 0.0037289222237 0.01278348919 0.0027186083607 0.0087979370728 0.017470382154 
0.0076861823909 0.0081004351377 0.015134611167 0.0041023734957 0.0021896101534 0.0076693375595 -0.0050652371719 -0.0042097754776 -0.0014746809611 
-0.0079407934099 -0.0069864941761 -0.00034847579082 -0.024904806167 -0.014960985631 -0.002608405659 -0.026055552065 -0.015820492059 -0.0037239654921 
-0.045687705278 -0.022879416123 -0.002236940898 -0.063462533057 -0.028348643333 0.0021544862539 -0.0785491243 -0.032879281789 0.0098488498479 
-0.09313044697 -0.03753849864 0.01991616562 -0.10409267992 -0.040963958949 0.031752284616 -0.10760673136 -0.041540168226 0.044818513095 
-0.10119970143 -0.038990762085 0.055580537766 -0.085950382054 -0.033288769424 0.060866940767 -0.065713696182 -0.024698624387 0.058857798576 
-0.045476239175 -0.015439373441 0.050915248692 -0.031375061721 -0.0079293353483 0.040979720652 -0.023083381355 -0.0030196208972 0.033760968596 
-0.017156137154 7.7196425991e-05 0.029424197972 -0.010926007293 0.0018042951124 0.026040796191 -0.0022612330504 0.0057927425951 0.019690923393 
-0.0017247620272 0.0073067881167 0.020153125748 -0.0030883064028 0.00027582919574 0.022285394371 -0.00025172359892 -0.0077839102596 0.027871213853 
0.0074615250342 -0.015873951837 0.032464135438 0.017156276852 -0.02166469954 0.032519184053 0.024790363386 -0.024942930788 0.027618361637 
0.028447931632 -0.024153364822 0.019472140819 0.028956178576 -0.022291265428 0.0098611935973 0.027366606519 -0.01965421997 0.0019680697005 
0.023690698668 -0.016466429457 -0.0029728957452 0.020075697452 -0.014681661502 -0.0054336288013 0.017119372264 -0.012090516277 -0.0045240791515 
0.012284498662 -0.0066865975969 -0.0016321090516 0.015569899231 -0.009215913713 -0.0027119929437 0.012709886767 -0.0040863831528 -0.00040255050408 
0.016375573352 -0.0028321603313 -0.00018296894268 -0.0033918432891 0.0053106290288 0.021689185873 -0.005836898461 0.0019514564192 0.022961160168 
-0.0064851748757 -0.003168992931 0.029849987477 -0.0069665154442 -0.0027347884607 0.030133292079 -0.0058192512952 -0.0031883413903 0.030449481681 
-0.0057798726484 -0.0039447820745 0.029780711979 -0.0061384309083 -0.0027897446416 0.031106984243 -0.0067260116339 -0.0030361369718 0.032459098846 
-0.0082006892189 -0.0040433239192 0.035784721375 -0.010972423479 -0.0053627151065 0.040877860039 -0.016522306949 -0.0067572314292 0.045682188123 
-0.023644579574 -0.0085361413658 0.049859762192 -0.031439129263 -0.010614888743 0.052194692194 -0.038558896631 -0.012626260519 0.053959544748 
-0.045440133661 -0.012573128566 0.058978077024 -0.059563450515 -0.011140987277 0.067238666117 -0.080796040595 -0.01295891311 0.069330319762 
-0.10160065442 -0.017747592181 0.061146501452 -0.11116538942 -0.020181464031 0.045104537159 -0.10619221628 -0.018234658986 0.024591216817 
-0.089002594352 -0.013751849532 0.0046822647564 -0.068034268916 -0.0087770987302 -0.0086426585913 -0.046944126487 -0.0079602943733 -0.0090448828414 
-0.032443892211 -0.0081794420257 -0.0073753087781 -0.024626687169 -0.0097689805552 -0.0040651378222 -0.018930144608 -0.011093107052 -0.003691483289 
-0.014743848704 -0.012537099421 -0.0035216812976 -0.011899448 -0.013877530582 -0.0036581899039 -0.010475791991 -0.015028257854 -0.0045365984552 
-0.010210442357 -0.016212847084 -0.0063373832963 -0.012343488634 -0.017530759797 -0.0089520486072 -0.016075193882 -0.018917838112 -0.014575669542 
-0.011262406595 -0.02332800068 -0.057123199105 -0.015330905095 -0.022135451436 -0.044449262321 -0.0049667865969 -0.024325419217 -0.069180637598 
0.0020563553553 -0.025198303163 -0.0817996189 0.011254171841 -0.025598354638 -0.094764873385 0.023741107434 -0.025776429102 -0.10541407764 
0.037649340928 -0.025460308418 -0.10955818743 0.050421655178 -0.024189248681 -0.10483256727 0.05919321999 -0.022381801158 -0.091853380203 
0.062735818326 -0.020498000085 -0.072915755212 0.06023991853 -0.01824972406 -0.053539481014 0.05417265743 -0.015591955744 -0.039303317666 
0.047562625259 -0.012830887921 -0.028882645071 0.042115271091 -0.010671634227 -0.021939639002 0.037623681128 -0.0092116929591 -0.017457092181 
0.034430216998 -0.0081302151084 -0.012731629424 0.031646925956 -0.0076505295001 -0.0095844957978 0.03078240715 -0.0073246755637 -0.0073162778281 
0.023809814826 -0.0069717904553 -0.0013764913892 0.029346235096 -0.0066486820579 -0.0045715286396 0.018980227411 -0.0076783508994 -7.8187353211e-05 
0.015574161895 -0.0085323853418 -0.00030472132494 0.014893593267 -0.0089751398191 -0.0019323265878 0.019240204245 -0.0083980830386 -0.0037892919499 
0.031939037144 -0.006435837131 -0.0027509911451 0.05255619064 -0.0032623563893 0.0072872564197 0.071388073266 0.00036284251837 0.022811232135 
-0.018447436392 -0.021139962599 -0.031756691635 -0.019102342427 -0.020112561062 -0.020739421248 -0.0073463781737 -0.0040092379786 0.031047780067 
-0.006458342541 -0.0048718270846 0.029227439314 -0.0052348598838 -0.0050049764104 0.02996339649 -0.0053948042914 -0.005496817641 0.027855539694 
-0.0056284363382 -0.004343315959 0.031767077744 -0.0062797404826 -0.0039487308823 0.033086873591 -0.0067573199049 -0.0039242892526 0.034057497978 
-0.0074991136789 -0.0049451496452 0.036622937769 -0.0090187480673 -0.0063418368809 0.041048660874 -0.013287381269 -0.0075894598849 0.045798223466 
-0.019410762936 -0.0091128805652 0.050596505404 -0.02670619823 -0.010463573039 0.054367639124 -0.03429550305 -0.011276679114 0.058843161911 
-0.044477492571 -0.011419747025 0.064950890839 -0.060993831605 -0.012162921019 0.073758371174 -0.084112375975 -0.01620438695 0.076557777822 
-0.11047662795 -0.023482603952 0.068365566432 -0.11999941617 -0.024452960119 0.047900363803 -0.11424834281 -0.022384127602 0.026381554082 
-0.097103521228 -0.016538500786 0.0051564951427 -0.075157642365 -0.010338768363 -0.0092600798234 -0.053790446371 -0.0080251889303 -0.011232600547 
-0.037382163107 -0.0071878558956 -0.0096760643646 -0.027337478474 -0.0081692067906 -0.0061714733019 -0.020042387769 -0.0094275446609 -0.0047748005018 
-0.014698226936 -0.01088756416 -0.0036282073706 -0.011391749606 -0.012415749021 -0.0026301417965 -0.01009860076 -0.013876850717 -0.0024237008765 
-0.010436389595 -0.015305172652 -0.0032110200264 -0.012623193674 -0.016818756238 -0.0048181260936 -0.015930064023 -0.018162278458 -0.0082788364962 
-0.018827227876 -0.01923035644 -0.012767597102 -0.021128598601 -0.021156070754 -0.026218727231 -0.020986661315 -0.020115690306 -0.017306098714 
-0.019309094176 -0.021973203868 -0.036220449954 -0.016053760424 -0.022995034233 -0.047336470336 -0.012011407875 -0.024102210999 -0.05891668424 
-0.0056837415323 -0.025191487744 -0.070834517479 0.0012136808364 -0.0265001636 -0.083469368517 0.010783019476 -0.027789859101 -0.096396781504 
0.023378396407 -0.028882078826 -0.10701823235 0.037330511957 -0.028696497902 -0.11164841056 0.050635583699 -0.027151878923 -0.10775838792 
0.061088208109 -0.024724274874 -0.094276823103 0.066063463688 -0.022248851135 -0.070410475135 0.061161532998 -0.019008209929 -0.048657599837 
0.054348330945 -0.015788961202 -0.03635539487 0.048266444355 -0.012559389696 -0.027412250638 0.043273914605 -0.010100620799 -0.020521743223 
0.038826752454 -0.008677941747 -0.015767470002 0.034801110625 -0.0077318008989 -0.010910732672 0.034541826695 -0.0070674922317 -0.0093483366072 
0.027479894459 -0.0057472358458 -0.0021197909955 0.033915575594 -0.0063912379555 -0.0075743724592 0.020670076832 -0.0061404500157 0.000728609215 
0.016356533393 -0.007128987927 0.00090711464873 0.014901561663 -0.0078596267849 -6.2715022068e-05 0.014437539503 -0.007928234525 -0.0019809307996 
0.018955614418 -0.0077438005246 -0.0042694751173 0.032108273357 -0.0070143113844 -0.0030460811686 0.060340642929 -0.0066603645682 0.01245978009 
0.022105254233 -0.0031946871895 -0.0020724674687 0.028560491279 -0.004511104431 -0.0060657220893 0.034602195024 -0.0064972597174 -0.01217099838 
0.039387479424 -0.0085200881585 -0.019563091919 0.042583096772 -0.010241324082 -0.027718225494 0.044932816178 -0.01166785229 -0.035596195608 
0.046713873744 -0.013168375008 -0.043877162039 0.047963738441 -0.014888895676 -0.052754987031 0.049160175025 -0.017702460289 -0.061785519123 
0.04835415259 -0.022166110575 -0.071899592876 0.043226316571 -0.026488410309 -0.081216424704 0.034008540213 -0.02874330245 -0.085585676134 
0.023492857814 -0.028579790145 -0.083759613335 0.014126420021 -0.027276098728 -0.07775927335 0.007759608794 -0.026153821498 -0.07177413255 
0.0037904616911 -0.027080241591 -0.071603558958 -0.0064135165885 -0.02514263615 -0.057464476675 -0.0014355730964 -0.028310794383 -0.069733947515 
-0.010021816008 -0.022386100143 -0.044887587428 -0.01255973056 -0.018918473274 -0.03044776246 -0.014665829949 -0.014560410753 -0.01454686746 
-0.012320855632 -0.008247980848 0.00089554477017 -0.0059859603643 -0.0020030522719 0.0126799196 0.0014152540825 0.0012297976064 0.016368314624 
0.0047641098499 0.00040774961235 0.013937764801 0.00074503384531 -0.004118135199 0.0064856153913 -0.011134477332 -0.0098522342741 -0.0012714690529 
-0.029148915783 -0.016459599137 -0.005898094736 -0.049029085785 -0.022113835439 -0.0048534474336 -0.068726234138 -0.027488734573 0.00033444556175 
-0.086703456938 -0.032403305173 0.0097376778722 -0.10284380615 -0.037326920778 0.021530590951 -0.11432116479 -0.041140764952 0.035066463053 
-0.11750722677 -0.042195312679 0.048967070878 -0.11053013057 -0.040417358279 0.059978481382 -0.094490364194 -0.035651452839 0.065708428621 
-0.073042929173 -0.028053915128 0.064351119101 -0.051223583519 -0.018763152882 0.056592062116 -0.035230480134 -0.010627464391 0.045832015574 
-0.024637825787 -0.0056194714271 0.037480562925 -0.017126943916 -0.002619480947 0.03186539188 -0.011505014263 -0.0011221750174 0.02770560421 
-0.0072276834399 -0.00088176818099 0.024681502953 -0.0034103691578 0.0010687705362 0.020278239623 -0.0045802146196 -0.0014702136395 0.022523729131 
-0.002455921378 0.0035853099544 0.018674397841 -0.0030167542864 0.0043273940682 0.018356623128 -0.0048167132773 0.0013179668458 0.021029228345 
-0.0051247123629 -0.0061963112094 0.028045753017 0.00095818034606 -0.014810385182 0.037953522056 0.012334653176 -0.022178368643 0.045296430588 
0.02498886548 -0.026961233467 0.046828337014 0.035182852298 -0.029520060867 0.042913079262 0.039528984576 -0.028620136902 0.032627165318 
0.04028750211 -0.026680102572 0.021815957502 0.040936689824 -0.024508172646 0.013818503357 0.039641007781 -0.022319847718 0.006721900776 
0.035490486771 -0.019716046751 0.00093858706532 0.029385704547 -0.016224356368 -0.0024976036511 0.022346330807 -0.011568875983 -0.003010135144 
0.014987613074 -0.0070986500941 -0.0020639458671 0.017409065738 -0.0080883353949 -0.0028868257068 0.013766280375 -0.00636456348 -0.0017275089631 
0.014515233226 -0.0045832148753 -0.0003953097912 0.017846159637 -0.0034323746804 0.00044804974459 -0.0067568602972 -0.0052388142794 0.035391878337 
-0.007066486869 -0.006625847891 0.039289042354 -0.010289669968 -0.007658847142 0.043846957386 -0.015757072717 -0.0089491922408 0.049102593213 
-0.022852443159 -0.010023001581 0.054268702865 -0.030875658616 -0.010606484488 0.061113677919 -0.042352259159 -0.011348756962 0.068516910076 
-0.058858711272 -0.013481443748 0.077948465943 -0.079428985715 -0.018661990762 0.081008337438 -0.099779583514 -0.025858486071 0.078508004546 
-0.11862253398 -0.026645632461 0.02628217265 -0.12521822751 -0.029685499147 0.045466151088 -0.10277372599 -0.020283419639 0.006374401506 
-0.081460617483 -0.013896394521 -0.0063434704207 -0.06037723273 -0.0096598602831 -0.011471016333 -0.042769923806 -0.0073773246258 -0.012238388881 
-0.030920196325 -0.0078554172069 -0.0082594230771 -0.021986462176 -0.0088905626908 -0.0059269308113 -0.015430261381 -0.010135829449 -0.0040667271242 
-0.011422924697 -0.011618525721 -0.0021801386029 -0.010007908568 -0.013082091697 -0.0010367754148 -0.010318880901 -0.014640754089 -0.00097062037094 
-0.012098804116 -0.015962781385 -0.0018216109602 -0.015135475434 -0.017302477732 -0.0039529493079 -0.017174500972 -0.018047621474 -0.0072930585593 
-0.019078744575 -0.018585870042 -0.010717671365 -0.021454930305 -0.020696178079 -0.022252637893 -0.020618913695 -0.019329221919 -0.014304772951 
-0.020404329523 -0.021567137912 -0.031052296981 -0.018371287733 -0.022385517135 -0.040342498571 -0.016438573599 -0.023464981467 -0.04958197847 
-0.01248275768 -0.024465201423 -0.059689525515 -0.0064864652231 -0.02590620704 -0.071282304823 -7.538580121e-06 -0.02758802101 -0.082947894931 
0.0085649685934 -0.029451606795 -0.094012998044 0.019974976778 -0.031184598804 -0.10424610227 0.034199606627 -0.031501289457 -0.11012315005 
0.047741517425 -0.030280208215 -0.10805241764 0.057927712798 -0.027988679707 -0.097112767398 0.06323415786 -0.025188336149 -0.080680899322 
0.052340950817 -0.01489903871 -0.034402433783 0.057015206665 -0.018047461286 -0.044343702495 0.047582820058 -0.011884197593 -0.026790920645 
0.043500617146 -0.0095137851313 -0.020102245733 0.039137210697 -0.0080536138266 -0.01475457754 -0.12178730965 -0.030690152198 0.061205048114 
-0.11500884593 -0.032630536705 0.070865280926 0.039296668023 -0.007592425216 -0.013965584338 0.033236168325 -0.0057199890725 -0.0058024283499 
0.039498161525 -0.0070473784581 -0.01237552613 0.025323459879 -0.0047227353789 -0.000228710589 0.016166055575 -0.0049485513009 0.0014264300698 
0.014075320214 -0.006781491451 -0.0009736220818 0.023632032797 -0.0036577156279 -0.0011714126449 0.030373372138 -0.0048655807041 -0.0047868234105 
0.036358784884 -0.0068189664744 -0.010923100635 0.041090127081 -0.0087517583743 -0.018365401775 0.044180497527 -0.01038253773 -0.026230111718 
0.046641111374 -0.011705781333 -0.033702395856 0.048451010138 -0.013082121499 -0.041720468551 0.049521464854 -0.014448220842 -0.050494562835 
0.051367849112 -0.017028098926 -0.059589680284 0.052270174026 -0.022005621344 -0.071149222553 0.047524049878 -0.027424298227 -0.084110490978 
0.037289045751 -0.030531225726 -0.091494895518 0.024228425696 -0.031023906544 -0.089898772538 0.012441614643 -0.029474165291 -0.081770904362 
0.0096490075812 -0.032087914646 -0.085792452097 -0.0056411391124 -0.02802329883 -0.064821586013 0.00021858737455 -0.030051082373 -0.077738635242 
-0.011422698386 -0.025660900399 -0.052781242877 -0.015169001184 -0.023018585518 -0.040028166026 -0.0164485313 -0.019803302363 -0.026681328192 
-0.017067054287 -0.016234304756 -0.012499013916 -0.013902044855 -0.011911237612 0.00075298349839 -0.007813969627 -0.0080129159614 0.011067059822 
-0.0016745463945 -0.005876403302 0.013953390531 0.00088921544375 -0.0063636023551 0.011690359563 -0.0033562798053 -0.0094102919102 0.0039420286193 
-0.015124241821 -0.011888341978 -0.0038495678455 -0.032545927912 -0.015913773328 -0.0085870614275 -0.052081488073 -0.02014278248 -0.0086392918602 
-0.072400324047 -0.02489612624 -0.0039022890851 -0.091763839126 -0.03005910106 0.006090387702 -0.10875103623 -0.03526988253 0.019196629524 
-0.12048725039 -0.039469417185 0.034803129733 -0.12372564524 -0.041472312063 0.050166036934 -0.11690499634 -0.040424626321 0.06241896376 
-0.10045744479 -0.036011327058 0.069280564785 -0.077680550516 -0.029147904366 0.068982638419 -0.05499470979 -0.020953459665 0.062422558665 
-0.036874551326 -0.013110881671 0.052423473448 -0.025338366628 -0.0080249924213 0.042825698853 -0.016913648695 -0.0051225912757 0.036266144365 
-0.011161714792 -0.0034490427934 0.031218299642 -0.0075497943908 -0.0030446762685 0.027491750196 -0.0053724744357 -0.0035145822912 0.025317056105 
-0.0039972229861 -0.002782586962 0.021304219961 -0.0043503316119 -0.0043808207847 0.024334652349 -0.0037626577541 -0.00078201311408 0.019029846415 
-0.0042119189166 0.00071616453351 0.018186112866 -0.0061949971132 -0.00044084023102 0.019476434216 -0.008010241203 -0.0049537792802 0.026045477018 
-0.0061722011305 -0.013096936047 0.038882240653 0.0044884802774 -0.020697774366 0.052780032158 0.019516509026 -0.025036614388 0.060440208763 
0.033994488418 -0.027084376663 0.062143336982 0.050766032189 -0.027551906183 0.061735615134 0.052012868226 -0.027876505628 0.044238202274 
0.049302238971 -0.027571566403 0.031547896564 0.053578894585 -0.025834826753 0.028540870175 0.05619937554 -0.024573342875 0.021191313863 
0.052816100419 -0.021324777976 0.0129870167 0.044074628502 -0.016797643155 0.0051855482161 0.032301347703 -0.012256357819 -0.00070577574661 
0.021624799818 -0.0085714254528 -0.003201337764 0.014931523241 -0.0051360698417 -0.0012652592268 0.014955420978 -0.0062012602575 -0.0024741757661 
0.015138912015 -0.0047384751961 -0.00053522363305 0.079024851322 -0.011248234659 0.033958703279 0.083200149238 -0.015530104749 0.051709663123 
0.078948050737 -0.019494106993 0.062908284366 0.06839799881 -0.023669501767 0.066222190857 0.053679347038 -0.023240633309 0.078833766282 
0.047022566199 -0.019749887288 0.086939141154 0.033527631313 -0.017916155979 0.088980734348 0.019492965192 -0.015051615424 0.086191639304 
0.0032890038565 -0.013056839816 0.075669966638 -0.0099312281236 -0.010442283936 0.059203188866 -0.012517209165 -0.0068687736057 0.043892338872 
-0.010071765631 -0.0050703999586 0.034750659019 -0.0082238828763 -0.0057141981088 0.029848542064 -0.0064275781624 -0.0060061784461 0.026152508333 
-0.0046518663876 -0.0057887602597 0.027372751385 -0.0047261952423 -0.0053102616221 0.024328323081 -0.0049688210711 -0.0058962544426 0.030545921996 
-0.0058430070058 -0.0055674081668 0.033321164548 0.031760644168 -0.0049293311313 -0.0038080173545 0.024654801935 -0.0036601673346 -3.9719365304e-05 
0.037659950554 -0.0067514604889 -0.010445776395 0.042187780142 -0.0084613505751 -0.017791129649 0.044959567487 -0.0098746018484 -0.024702059105 
0.0473498106 -0.010931824334 -0.030903121457 0.049104765058 -0.012207873166 -0.038193460554 0.050169926137 -0.013500262052 -0.046317469329 
0.052293013781 -0.015821531415 -0.054535403848 0.055708978325 -0.02103580907 -0.066383391619 0.053725834936 -0.028934685513 -0.08510351181 
0.040612477809 -0.033139493316 -0.097162827849 0.025551851839 -0.033979557455 -0.096577778459 -0.0053908629343 -0.026820007712 -0.06986349076 
-9.2199123173e-05 -0.028109081089 -0.080616898835 0.0064430548809 -0.030140955001 -0.088368229568 -0.010228028521 -0.02649733983 -0.058856703341 
-0.01488461066 -0.025202026591 -0.047664128244 -0.017684906721 -0.022993430495 -0.035968732089 -0.019192645326 -0.020627107471 -0.024003952742 
-0.018721362576 -0.017853077501 -0.012269604951 -0.015792027116 -0.015389634296 -0.0019951190334 -0.010155784898 -0.0123011088 0.0076381182298 
-0.0052959905006 -0.010561093688 0.010159598663 -0.0034519324545 -0.010457344353 0.009064222686 -0.0048357471824 -0.01068169903 0.0056397207081 
-0.035405669361 -0.013955756091 -0.010856351815 -0.020607506856 -0.012278390117 -0.0066307536326 -0.053354669362 -0.016545362771 -0.012067831121 
-0.073742970824 -0.020858475938 -0.0082916012034 -0.093430303037 -0.026005832478 0.0014673626283 -0.11109288037 -0.031723000109 0.014690911397 
-0.12314952165 -0.036816801876 0.031635720283 -0.12711533904 -0.039626728743 0.048257704824 -0.12116553634 -0.038942631334 0.063103757799 
-0.10328096151 -0.033660180867 0.074624955654 -0.056301768869 -0.020603464916 0.067452274263 -0.078122876585 -0.027296474203 0.073808148503 
-0.038236007094 -0.014317687601 0.058268170804 -0.025923153386 -0.0097985928878 0.048465970904 -0.016846653074 -0.0070694270544 0.041503638029 
-0.010974516161 -0.0053813378327 0.035565108061 -0.0071074892767 -0.0047068796121 0.03119237721 -0.0055678961799 -0.0048411088064 0.028629764915 
-0.0046104015782 -0.0054502645507 0.027825376019 -0.011252165772 -0.011592189781 -0.002120352583 -0.0077946679667 -0.011434341781 0.0018558327574 
0.0626430884 -0.02082276158 -0.055236000568 0.063177704811 -0.022604135796 -0.064527288079 0.016743373126 -0.0072320140898 -0.0039762323722 
0.027133613825 -0.00818317011 -0.0029551631305 0.044812057167 -0.010784777813 0.0043509588577 0.060849692672 -0.014765901491 0.017121549696 
0.069663517177 -0.019355520606 0.030189437792 0.06943885982 -0.022961122915 0.041045177728 0.063089504838 -0.026293968782 0.045935291797 
-0.0057637244463 -0.006523674354 0.03599620983 -0.0076506570913 -0.0073243086226 0.041016228497 -0.012271193787 -0.0084774987772 0.046915497631 
-0.019339699298 -0.0095679434016 0.053086150438 -0.02798438631 -0.010457445867 0.060606986284 -0.040052164346 -0.011858651415 0.068739958107 
-0.054874397814 -0.014621055685 0.077423773706 -0.072013936937 -0.019726565108 0.080746807158 -0.087620690465 -0.025889007375 0.080394625664 
-0.12457149476 -0.036652997136 0.059638090432 -0.12568935752 -0.034014202654 0.054707467556 -0.12706010044 -0.03355140239 0.042934753001 
-0.12128122896 -0.030378947034 0.025639556348 -0.10738267004 -0.024045147002 0.0067589166574 -0.087786279619 -0.017194939777 -0.0068767853081 
-0.067161612213 -0.012205716223 -0.013180803508 -0.048051368445 -0.0091587286443 -0.014761298895 -0.034119497985 -0.0089619802311 -0.010263647884 
-0.02342239581 -0.0095092160627 -0.0069555677474 -0.015875006095 -0.010333689861 -0.0039811725728 -0.011429544538 -0.011318600737 -0.00136443472 
-0.0098625300452 -0.012432911433 0.00033234426519 -0.0098701454699 -0.013696528971 0.00082757539349 -0.011231628247 -0.014873105101 0.00033082938171 
-0.013789583929 -0.016104931012 -0.00098615244497 -0.015713268891 -0.016852315515 -0.0036275531165 -0.017088001594 -0.017192123458 -0.0053927819245 
-0.018293553963 -0.017597710714 -0.0073983715847 -0.020711190999 -0.021354353055 -0.026948453858 -0.021554581821 -0.020310258493 -0.018373310566 
-0.018993796781 -0.022296214476 -0.03603374213 -0.016995748505 -0.023114308715 -0.044618107378 -0.015453602187 -0.023683290929 -0.050835862756 
-0.012053662911 -0.024639654905 -0.058211956173 -0.011531490833 -0.0075832982548 0.03293986246 -0.0077549600974 -0.0062576956116 0.024942530319 
-0.0052362009883 -0.0045019313693 0.021656440571 -0.0057011498138 -0.0032371683046 0.020091297105 -0.0062941643409 -0.0020496414509 0.019692789763 
-0.0090595763177 -0.0044935168698 0.022877400741 -0.010508491658 -0.010050068609 0.034054081887 -0.0051223780029 -0.016903903335 0.051492966712 
0.013613365591 -0.021273417398 0.070569567382 0.030548360199 -0.023219449446 0.07457254082 0.039858985692 -0.024737531319 0.072747886181 
0.01645870693 -0.032899811864 -0.097458444536 0.030074283481 -0.034244135022 -0.10451654345 0.043899971992 -0.033426392823 -0.1038646251 
0.054211582989 -0.030897157267 -0.09466484189 0.059914108366 -0.027506016195 -0.083837166429 0.060636967421 -0.0252717603 -0.072486251593 
0.058771144599 -0.019025573507 -0.051693513989 0.057870864868 -0.019720420241 -0.058071427047 0.057983659208 -0.018922762945 -0.049422256649 
0.054093837738 -0.016588974744 -0.042403649539 0.050552763045 -0.013738578185 -0.034473463893 0.047138024122 -0.011232935824 -0.027622004971 
0.043542787433 -0.0090936785564 -0.020562684163 0.044626809657 -0.0087441131473 -0.021344328299 0.038650110364 -0.0066916579381 -0.010959200561 
0.042884595692 -0.0081617841497 -0.018128719181 0.032510407269 -0.0051477984525 -0.004243736621 0.024883527309 -0.003869113978 0.00035763910273 
0.0094482935965 -0.018043296412 0.073872663081 -0.0032911114395 -0.01617805101 0.062374386936 -0.011975705624 -0.010784792714 0.040913559496 
-0.0050491532311 -0.0060963039286 0.032111719251 -0.12790437043 -0.03698111698 0.045016530901 -0.12300892919 -0.033780004829 0.027693804353 
-0.11040731519 -0.027868436649 0.0099298041314 -0.092260234058 -0.021418552846 -0.00374460686 -0.072204492986 -0.016284821555 -0.012242844328 
-0.052035491914 -0.012485265732 -0.015160339884 -0.035758148879 -0.011198732071 -0.011727254838 -0.023229323328 -0.010982325301 -0.0075437654741 
-0.014698958024 -0.011068070307 -0.0037219868973 -0.010366339236 -0.01138064079 -0.00020031802705 -0.009131715633 -0.012043952942 0.0018604157958 
-0.0092727374285 -0.01307831239 0.0024908902124 -0.015163890086 -0.016172291711 -0.00099251850042 -0.014982549474 -0.016253171489 -0.00097286881646 
-0.017213059589 -0.023768784478 -0.042078241706 -0.019457831979 -0.022363929078 -0.031805302948 -0.014508049004 -0.024556843564 -0.051341712475 
-0.0065677077509 -0.0065681356937 0.037715960294 -0.010791770183 -0.0076108709909 0.043714046478 -0.017423501238 -0.008933570236 0.050447005779 
-0.026145583019 -0.010465303436 0.058448176831 -0.038990922272 -0.012881562114 0.066690512002 -0.053094688803 -0.016060588881 0.074324242771 
-0.065325699747 -0.019546205178 0.078885547817 -0.072113156319 -0.023051897064 0.077504061162 -0.054849490523 -0.018393293023 0.071684867144 
-0.038599912077 -0.013983666897 0.063337646425 -0.025924168527 -0.010499501601 0.054204002023 -0.016901472583 -0.008263990283 0.046433862299 
-0.01062870305 -0.006702600047 0.040016736835 -0.0068620508537 -0.0059038018808 0.035080809146 -0.0052695474587 -0.0056309355423 0.031846530735 
0.053171925247 -0.015580239706 -0.043961644173 0.050273057073 -0.012764376588 -0.036618933082 0.047762721777 -0.010639597662 -0.029640998691 
-0.020449355245 -0.020787121728 -0.022015707567 -0.020401773974 -0.019400477409 -0.014377812855 -0.019555823877 -0.018429920077 -0.010335134342 
-0.0081744166091 -0.012858443893 0.0067810653709 -0.011580931023 -0.014339097776 0.0047455271706 -0.0064607234672 -0.012184090912 0.0067763924599 
-0.0062879864126 -0.01165512111 0.005584070459 -0.0076769283041 -0.011914591305 0.0036741942167 0.052726421505 -0.015126382932 -0.048533059657 
0.045078974217 -0.0092704184353 -0.023379778489 0.047059513628 -0.0098859118298 -0.027291240171 0.048867654055 -0.011187255383 -0.034033559263 
-0.0094640189782 -0.0060504707508 0.024150470272 0.05034795776 -0.012679816224 -0.041164122522 -0.0096631711349 -0.013533466496 0.0041456762701 
-0.012359475717 -0.014851025306 0.0025224131532 -0.008226419799 -0.012767554261 0.0044662440196 -0.0057564186864 -0.0023780073971 -0.0039849355817 
-0.027168547735 -0.015545704402 -0.0035646045581 -0.0073834252544 -0.0026286905631 0.030703360215 0.018616527319 -0.0032948136795 0.0012512785615 
0.017793528736 -0.0034376704134 0.0014649004443 -0.01285320241 -0.015171388164 0.00097432674374 -0.010431558825 -0.014011470601 0.0021345720161 
-0.015668505803 -0.01611806266 -0.00069153722143 
