# vtk DataFile Version 5.1
vtk output
ASCII
DATASET POLYDATA
POINTS 1116 double
52.981952374 75.224627905 44.021810855 52.762770133 74.803224387 45.426238787 54.126585875 75.145531872 45.319304651 
54.216215249 75.496217783 43.827675833 52.514343937 74.241474147 46.81085609 53.99477933 74.695014409 46.761737461 
52.512567501 73.51821966 48.147282066 53.996705747 74.028912678 48.104230022 52.671361103 72.774195605 49.452631681 
54.142807179 73.289148899 49.389660363 52.986175385 72.009990437 50.727785407 54.449245839 72.524419569 50.633412891 
53.508182778 71.128340809 51.848985592 54.910739397 71.682108914 51.778672212 54.083627732 70.240726585 52.938359959 
55.449327254 70.808122609 52.873502176 54.712482438 69.350104612 53.996881974 56.032585118 69.859072147 53.898189741 
55.359551364 68.111388171 54.591362428 56.627921992 68.643100916 54.463234237 55.833333608 66.746358937 54.979930661 
57.126353821 67.293019123 54.807381318 56.173416613 65.283387911 55.207598694 57.551685824 65.874871899 55.026262947 
56.6374309 63.866423386 55.500919119 58.020691707 64.478670546 55.322351474 57.150717018 62.449004321 55.620221885 
58.551143396 63.103050087 55.544892759 57.718450106 61.043354858 55.633725571 59.183891206 61.760161777 55.725424257 
58.584484292 59.811266214 55.836400085 59.961269776 60.479221349 55.791482413 59.446778566 58.574560434 55.929540707 
60.772018224 59.213963712 55.807792249 60.300536009 57.327315448 55.772656131 61.57312748 57.945945205 55.645767805 
61.033635859 56.07595518 55.400822289 62.301068128 56.66937285 55.270517079 61.632662288 54.820022055 54.79013913 
62.883290089 55.43304687 54.598953034 62.007686075 53.626637547 53.951167576 63.324971926 54.216202335 53.747005441 
62.292182872 52.458303694 53.022727279 63.683857234 53.01635215 52.815391988 62.399306677 51.331754946 52.008554214 
63.909450981 51.829085142 51.68891711 62.421762814 50.258970814 50.946482895 63.816941767 50.631280487 50.539377826 
62.240189569 49.315746899 49.768987927 63.609556416 49.638853897 49.339720118 62.020413574 48.565402224 48.479553307 
63.35729763 48.910393805 48.061688648 61.771071691 47.954186561 47.112293482 63.061155526 48.309107094 46.708764725 
61.283540141 47.817048025 45.679589532 62.634422706 48.177663867 45.301183616 60.793849724 47.874824951 44.256652183 
62.159084029 48.263698398 43.894755885 60.301821519 48.143671229 42.844290855 61.658448769 48.52932662 42.508583803 
59.773116973 48.456820498 41.454531674 61.125583322 48.897127249 41.155462034 59.197815358 48.809774327 40.094657079 
60.578264275 49.299048773 39.817121255 58.583519461 49.212659591 38.766607249 60.040973924 49.748756823 38.496918891 
58.141963396 49.983221528 37.533563398 59.533816877 50.428996396 37.259552066 57.589090183 50.862914529 36.44353117 
59.004059631 51.236438977 36.108754698 56.93433884 51.844563224 35.486271412 58.468097473 52.21030512 35.104351883 
56.506731893 53.001265701 34.598394014 58.010792414 53.315309764 34.181497663 56.120336964 54.207670214 33.764382244 
57.601184764 54.485164704 33.30836356 55.785505384 55.47626055 32.997765673 57.229319688 55.729765395 32.524820399 
55.467232998 56.818326306 32.362597263 56.875162776 57.053651638 31.845804364 55.1720488 58.206683296 31.837853672 
56.52901112 58.42332331 31.261320376 54.915957978 59.662644458 31.486102081 56.181077153 59.855209724 30.818944162 
54.51618653 61.112928841 31.286389922 55.801813554 61.33925417 30.510327698 54.128147418 62.573406367 31.133993538 
55.432423082 62.845933938 30.276930275 53.781157666 64.048076664 31.015333428 55.070665565 64.47402344 30.178635688 
53.489726109 65.509035586 31.310653616 54.630228402 66.051211914 30.554649407 53.244571362 66.889218617 31.854071249 
54.313548635 67.447821176 31.189976609 53.028695308 68.167629068 32.630377683 54.080364163 68.736592425 32.041406016 
52.793839347 69.230167362 33.691032974 53.974627534 69.826107556 33.135925902 52.628981507 70.215593292 34.831712796 
53.897947529 70.824755635 34.303299021 52.50365448 71.157470703 36.017585754 53.850038702 71.77045205 35.528959802 
52.476456651 72.046785514 37.249459953 53.834679999 72.657055641 36.794077815 52.481348467 72.885247774 38.513693664 
53.84073048 73.509258828 38.08502092 52.539952801 73.638591652 39.832091605 53.89741577 74.282048199 39.427356976 
52.632335566 74.366539546 41.162631786 54.012726829 74.913053501 40.838066999 52.769112914 74.942384948 42.543916111 
54.144877878 75.340895073 42.328652645 84.390699466 55.635742141 42.826813071 84.662955148 56.050373095 44.271560537 
83.435777221 55.499145261 44.495189969 83.334886019 55.09038866 43.023845258 84.868621153 56.621290199 45.676183056 
83.532803284 56.097018593 45.910565296 84.909569379 57.359364797 47.030391546 83.600515434 56.809059511 47.274324384 
84.959909948 58.340440904 48.210910729 83.579827776 57.796052054 48.481610382 84.996879342 59.385693332 49.343093132 
83.513799194 58.8563019 49.618263358 84.805285386 60.508216654 50.384027641 83.326642004 60.015268719 50.629737375 
84.595512377 61.655137928 51.390522163 83.102447413 61.198521793 51.613378421 84.318190159 62.892716428 52.269045554 
82.805449712 62.474415391 52.433690498 83.981537438 64.166405941 53.042319158 82.47593572 63.772421682 53.220020011 
83.470495541 65.546235967 53.506233788 82.066990175 65.187728245 53.68463401 83.015481097 66.959090449 53.892074198 
81.683184271 66.62714138 54.083955779 82.713718692 68.462276814 54.064357995 81.350444069 68.110317779 54.359204784 
82.401092161 69.965544665 54.211690973 81.025971745 69.607205066 54.587125061 82.072990247 71.468928589 54.323482808 
80.674763085 71.114191695 54.74911182 81.663064163 72.952886447 54.324716012 80.267164754 72.619037211 54.778256241 
81.210140613 74.426636177 54.267852188 79.824739403 74.121663502 54.736737588 80.660787589 75.749826462 53.707399717 
79.263166397 75.530630041 54.281545548 80.145024548 77.000435112 53.004329388 78.750346472 76.89048154 53.571389164 
79.737077797 78.066288231 51.966134761 78.264031248 77.918475627 52.452826279 79.361106224 78.965978612 50.784722259 
77.868059792 78.842531551 51.207749291 79.007112521 79.751458431 49.504870152 77.503129347 79.676774279 49.91270093 
78.552418624 80.265157166 48.124462709 77.100682094 80.116582678 48.439508674 78.181440485 80.723918322 46.705573806 
76.761786533 80.517652805 46.958960366 77.965745382 81.107041725 45.226721689 76.479109596 80.878929292 45.469338059 
77.734878593 81.08323319 43.711779904 76.236443063 80.964458535 43.928938836 77.522270531 81.02564436 42.186186484 
76.000307904 80.871230925 42.390301634 77.349988167 81.049564131 40.653196551 75.797207944 80.793273152 40.843167851 
77.152244147 80.875711743 39.134151151 75.609197538 80.686058999 39.3027537 77.007456631 80.644529032 37.617583589 
75.448814397 80.439358966 37.774542558 76.932943374 80.36230075 36.102622707 75.352518658 80.047311483 36.270779296 
76.999785394 79.623541677 34.756366962 75.370490582 79.314466735 34.911289187 77.090673427 78.720228779 33.523576434 
75.451898688 78.438592778 33.632473822 77.199927065 77.646156926 32.421421817 75.572775726 77.426990058 32.44993195 
77.289506354 76.630085488 31.263961581 75.690658267 76.496575006 31.214518262 77.361954112 75.760289773 30.002225299 
75.807103061 75.646937651 29.920897873 77.420532227 75.011230469 28.654712677 75.928038021 74.878104084 28.591636578 
77.453910838 74.11694741 27.397948903 76.044646753 73.909732489 27.414988706 77.586937015 73.06217537 26.330841282 
76.210010863 72.785116987 26.416834691 77.874815069 71.758004161 25.558458484 76.459871163 71.476491995 25.739649553 
78.286393704 70.304763007 25.287217039 76.809688948 70.00288725 25.497919405 78.727015997 68.837692378 25.113183631 
77.19656104 68.51864839 25.364281724 79.186193588 67.369161069 25.003145869 77.585061383 67.033574537 25.299955212 
79.554040535 65.871551243 25.049674751 77.95955387 65.543512684 25.349107507 79.922097257 64.415559882 25.329236936 
78.364346535 64.083853321 25.647380529 80.294469376 63.006097901 25.823457681 78.789912554 62.715919724 26.181226942 
80.746662793 61.823859456 26.705582886 79.257856019 61.488528477 27.003201031 81.166299825 60.783062194 27.744839513 
79.730120299 60.362476993 27.964027203 81.556833376 59.86870498 28.924562333 80.189099528 59.404352744 29.086888339 
82.122525142 58.996316478 30.063322502 80.699914275 58.50412387 30.243509047 82.673410577 58.203376381 31.256471407 
81.216017179 57.651254167 31.441225422 83.156243841 57.599696545 32.591669594 81.679660234 56.994314283 32.77245174 
83.536928908 57.070268679 33.984844937 82.093547425 56.395685766 34.150793535 83.842710174 56.595288713 35.420534093 
82.396956315 55.922618603 35.594815221 83.961913674 56.133062732 36.885632355 82.670795653 55.431699345 37.035067579 
84.102300859 55.737977446 38.354829457 82.989182872 55.007318462 38.472348988 84.587597824 55.773487743 39.818911892 
83.266727843 54.926017813 39.981607892 84.661025218 55.735349207 41.311123815 83.365598595 54.951911066 41.505711434 
55.367730718 75.218356885 46.775716134 55.493581175 75.617121501 45.288481681 55.325697081 74.650420654 48.153914273 
55.458592359 73.931127489 49.440061883 55.766551086 73.160836868 50.666198578 56.217044857 72.339332759 51.812675581 
56.768841902 71.447947623 52.875412448 57.369928739 70.453295723 53.839137228 57.96548922 69.228426486 54.385701518 
58.467845236 67.902234275 54.80484511 58.89823789 66.525907001 55.187411642 59.366315698 65.141275089 55.514913364 
59.89644595 63.763814948 55.750554923 60.525943869 62.426108067 55.9588775 61.283642339 61.123501372 55.994839256 
62.084683437 59.827416275 55.997308931 62.891792124 58.577208246 55.669973756 63.634655188 57.287066936 55.260550885 
64.208444239 56.059643643 54.524314387 64.682546564 54.831766035 53.71506809 65.182741662 53.571723755 52.795689401 
65.849959663 52.11124004 51.573985623 65.342756879 50.732369468 50.203658786 65.026314628 49.704099429 48.994881456 
64.744237734 48.970595132 47.691754763 64.431624655 48.436499579 46.325287427 64.018250543 48.371023862 44.921743976 
63.538285997 48.558238567 43.532511296 63.022310768 48.897401745 42.176412597 62.492238352 49.295966963 40.840439044 
61.961566736 49.717957894 39.512507301 61.449820088 50.168077593 38.187243004 60.945879229 50.808839182 36.932241063 
60.443333558 51.552975355 35.727573041 59.941052095 52.496217353 34.67634742 59.484256238 53.58447341 33.728828513 
59.06503436 54.745713861 32.845802196 58.661053189 55.957235799 31.994874655 58.260155366 57.229232694 31.222967726 
57.86593836 58.572140837 30.569264303 57.466321852 59.984992754 30.055287608 57.041938374 61.419315171 29.615388021 
56.658821728 62.980000667 29.201454258 56.428516591 64.973045772 28.826481501 55.619463385 66.760445366 29.539798693 
55.186502655 68.228709474 30.318680562 54.944422865 69.531306042 31.241527904 54.900304328 70.657897734 32.361566209 
54.897132992 71.682646525 33.574750237 54.908552976 72.641018508 34.839805542 55.001519191 73.487847102 36.190971087 
55.095655116 74.283595551 37.581348361 55.281166455 74.900489062 39.042338249 55.487290616 75.389406375 40.56191743 
55.604342213 75.702399885 42.162728104 55.625272234 75.768837353 43.743420213 82.224130926 55.508666279 46.17459132 
82.194997787 54.866355403 44.746509241 82.262611763 56.259733473 47.542587751 82.209137834 57.237145427 48.770173188 
82.075373183 58.336800676 49.877728434 81.864515283 59.514486012 50.885584579 81.617239717 60.735059215 51.835596433 
81.308201177 62.051768309 52.613481457 80.986663142 63.400918541 53.333019256 80.64332652 64.820328564 53.868065338 
80.321294784 66.251931795 54.388474629 80.022105338 67.727438825 54.80226441 79.739814022 69.216319309 55.207468553 
79.397111513 70.747317592 55.445352432 79.023486197 72.302314402 55.608285682 78.579404127 73.875804973 55.591875994 
77.969185079 75.377469572 55.137485801 77.286120673 76.866585935 54.336513261 76.77188689 77.945467613 53.025185813 
76.362994064 78.876018901 51.695409013 75.985168956 79.705224165 50.291590511 75.612490695 80.122958803 48.774493035 
75.278455628 80.482700485 47.248141812 74.985157691 80.735801855 45.709079355 74.719984893 80.870105277 44.149929835 
74.467670663 80.923464475 42.579752522 74.240817553 80.862827923 41.013153718 74.025557531 80.691385106 39.450000589 
73.843053868 80.354809116 37.903368436 73.719510659 79.862674505 36.391879736 73.696755962 79.160531087 34.970323071 
73.79032028 78.269634109 33.650847134 73.944527088 77.310357065 32.39125856 74.111563327 76.445843955 31.087557451 
74.274710173 75.676941701 29.726334174 74.444054865 74.921837375 28.380359421 74.604659104 73.855512175 27.251613341 
74.792860195 72.614238614 26.329879532 75.014416647 71.211456484 25.815736386 75.312613635 69.716820519 25.613570805 
75.652030432 68.216424464 25.54623609 76.001472335 66.710518569 25.525959682 76.381205427 65.216994763 25.626933878 
76.811962141 63.747576322 25.913254796 77.276187368 62.398514258 26.485911529 77.772054465 61.157826556 27.291498334 
78.26971995 60.004452265 28.225133083 78.759112088 58.994619109 29.304850701 79.252813747 58.065987347 30.467105611 
79.7459275 57.175525116 31.670871141 80.203565902 56.437352474 32.983681579 80.642914853 55.763374267 34.337097974 
81.049534027 55.145927753 35.726240947 81.452188729 54.557267369 37.128365738 81.885441327 54.023555718 38.529075636 
82.148759251 53.923971471 40.119176256 82.226578186 54.041141478 41.723741783 82.186340431 54.379263257 43.256316764 
56.610220719 75.171552422 48.236071972 56.740849135 75.576650033 46.81903504 56.712520372 74.502216946 49.495131023 
57.007517237 73.795574699 50.724284577 57.481527583 73.005355914 51.847113961 58.07519985 72.116712804 52.877438831 
58.713548695 71.121353051 53.819447302 59.28719374 69.897258381 54.479464575 59.76862923 68.597874589 55.122275224 
60.138582175 67.215324847 55.670123702 60.593324008 65.800754225 56.001193687 61.124137215 64.407471516 56.22751239 
61.784208912 63.065480214 56.331277964 62.562466374 61.765887701 56.347303447 63.392272467 60.482881422 56.222647143 
64.245389523 59.224460057 55.827128743 64.99077591 57.925152531 55.331765896 65.59397033 56.636946583 54.690919964 
66.052985936 55.340274844 53.986198113 66.584364554 54.128907046 53.253750025 67.401554624 52.973847842 52.503285999 
66.414076607 49.510898477 48.640802019 66.78142806 50.34986001 49.799913514 66.153730048 48.895685034 47.357072335 
65.854758382 48.463335984 45.953444789 65.437928835 48.414381201 44.538491508 64.942302893 48.655161077 43.138981311 
64.415119734 49.012876911 41.776988434 63.878965378 49.48176578 40.457041907 63.35253414 49.964524752 39.143673651 
62.849951923 50.493684394 37.843446056 62.363971465 51.149124442 36.589452688 61.879242106 51.868870965 35.357018972 
61.398435025 52.761634689 34.244452697 60.935743377 53.798218406 33.22937733 60.502174554 54.926880227 32.280028152 
60.089152551 56.141797369 31.413308402 59.674072815 57.411286329 30.613692594 59.244738428 58.719210704 29.891416246 
58.795046997 60.07201321 29.303402615 58.322058109 61.43832145 28.802885475 57.997819727 62.804291082 28.273454324 
58.032912132 64.316343301 27.747117995 56.098476502 69.089881609 29.485593611 56.505728017 67.765243512 28.645632325 
55.866600889 70.409393856 30.430444748 55.864414151 71.538377201 31.575589538 55.918399621 72.579310985 32.824752405 
56.016499575 73.515637706 34.154400117 56.157186964 74.375044568 35.563677767 56.298193651 75.174692351 37.033853351 
56.63257685 75.629880508 38.613211065 56.941819724 75.965073309 40.253945922 57.210197144 76.114887076 42.006491189 
57.124578926 76.005249441 43.760806301 56.902019627 75.935165581 45.37611034 67.469704451 51.158975127 50.94255003 
68.536158922 52.042674285 51.808646667 57.255167594 66.538223786 27.876070424 58.437396461 65.721040125 27.107796714 
80.952288186 55.612933187 47.885966982 80.905923404 54.863816361 46.487618889 80.8564713 56.641790628 49.10750565 
80.68989137 57.760262575 50.220554357 80.421775125 58.995126345 51.181092995 80.149350038 60.249312135 52.10151855 
79.8201388 61.610303243 52.835559568 79.525003858 62.979901643 53.572020613 79.256594854 64.372496032 54.27113507 
78.971998314 65.824635999 54.83252404 78.751008728 67.276851544 55.427497933 78.51452444 68.771826728 55.947382737 
78.255855768 70.308213588 56.378858435 77.895029248 71.92970093 56.614777525 77.43190889 73.510201118 56.604228345 
76.683042285 75.151690223 56.200286614 75.377327215 76.831504703 55.275951937 75.138456421 78.049778363 53.518023029 
74.799169257 78.949665139 52.04684899 74.443980675 79.703706575 50.604328314 74.090228635 80.095989639 49.063088049 
73.768878718 80.395059668 47.505948304 73.478664798 80.57234306 45.935150837 73.195297672 80.734335012 44.366350172 
72.919279754 80.836725016 42.786598855 72.651047786 80.862592941 41.19198089 72.417111713 80.727481053 39.599611158 
72.206450894 80.333493695 38.017722319 72.034020974 79.77891522 36.462565783 72.006060894 79.049984779 34.978477644 
72.104410965 78.136822238 33.609029228 72.31020626 77.214192723 32.270247494 72.533098472 76.495252196 30.853729927 
72.743842695 75.713030288 29.485358811 72.947231604 74.921245196 28.155285488 73.123348409 73.756860909 27.087552856 
73.319031034 72.429525828 26.23507572 73.525966051 70.963984398 25.863302195 73.782163631 69.45207665 25.648138041 
74.077668525 67.924192843 25.541407759 74.40579408 66.391890299 25.563361542 74.782811973 64.870231172 25.724116217 
75.24301844 63.396831237 26.08270379 75.75278438 62.052119474 26.718271512 76.280610066 60.809355021 27.537440137 
76.806358021 59.636757329 28.452964547 77.309986134 58.583579834 29.511800202 77.795822124 57.61559719 30.674919892 
78.266345291 56.683805064 31.891380644 78.730065873 55.846347301 33.179594084 79.231446099 55.036655572 34.482010631 
79.725675382 54.303551074 35.828974758 80.212071088 53.656984016 37.229668731 80.701551308 53.071691338 38.625942497 
80.921883783 53.024314146 40.309097583 80.988035164 53.231008927 41.961121473 80.95227611 53.631327765 43.524641321 
80.907367441 54.203133938 45.034475141 57.965149861 67.663823971 27.29827207 58.948814476 67.051640678 26.631930181 
57.314980531 68.698930557 27.793806531 56.999093825 69.984686683 28.633183154 56.836110084 71.306152033 29.604087035 
56.949811867 72.394437998 30.811344347 57.105591523 73.367223471 32.130413584 57.228658943 74.321313817 33.495084095 
57.394208222 75.196029921 34.931865628 57.578163615 75.992942981 36.43275285 57.931250855 76.46445863 38.078035872 
58.407349459 76.756160331 39.833897295 59.14561001 76.788161952 41.93256863 58.71433595 76.34117631 44.004619172 
58.35468157 76.100409506 45.613335049 58.034675024 75.958805884 47.053877821 57.847622635 75.580216523 48.409559704 
57.869090797 75.034252367 49.584044097 58.191061643 74.380528931 50.735214106 58.704268628 73.662347609 51.818137148 
59.311182964 72.872831141 52.837314239 60.001286801 71.926537996 53.867525948 60.64841023 70.76308874 54.842005405 
61.038634773 69.315824864 55.631316946 61.388552512 67.833079467 56.219901682 61.783084514 66.419453998 56.578523832 
62.307014759 65.002654947 56.749380705 62.960651177 63.669236981 56.811491838 63.804464058 62.431861307 56.683730859 
64.683329782 61.17017099 56.425524542 65.564686379 59.927090716 55.998123551 66.483857751 58.569992741 55.507889775 
67.035151472 57.109240621 54.901355309 67.39666617 55.746438451 54.300355515 67.796054925 54.672217181 53.675555787 
68.597111798 53.729469261 53.180941865 69.637747995 52.913403836 52.500289275 69.681619857 51.218946046 51.071400493 
70.743690783 52.115880996 51.719864076 68.700431618 50.525580204 50.29266789 67.997371722 49.888547429 49.419016463 
67.728970226 49.232581603 48.366871686 67.582480856 48.716618853 47.072595008 67.303132354 48.44343016 45.633207041 
66.897277519 48.427807697 44.161144753 66.364544328 48.725648239 42.74038587 65.806164902 49.097637766 41.363394108 
65.259279774 49.595282708 40.045199064 64.736308135 50.138460407 38.748864935 64.246127863 50.764977764 37.486296479 
63.783353653 51.421674116 36.220241751 63.329245872 52.143123529 34.964817087 62.860063677 53.031532933 33.827662205 
62.393448405 54.014248991 32.732721862 61.94699844 55.082124543 31.702535786 61.523938229 56.313753897 30.80092652 
61.096813117 57.593625747 29.972329511 60.661180852 58.918661488 29.234330924 60.131905461 60.223427569 28.572333868 
59.611688576 61.476580358 28.048132791 59.276557212 62.67210361 27.641533236 59.357009591 63.859440372 27.037251923 
59.767162062 65.160428987 26.514420639 60.245731103 66.529726998 26.045693472 59.393277954 68.274931583 26.458161206 
60.672321222 68.011376506 25.888948242 58.533506722 68.451183607 26.951548477 79.557170042 55.977475798 49.548783748 
79.623418815 54.954486869 48.274675562 79.384540727 57.097585408 50.701959699 79.07840483 58.35235519 51.683620599 
78.77961674 59.638369013 52.618120896 78.427571453 61.025098899 53.358873503 78.117213502 62.448605974 54.051114508 
77.871404754 63.886597528 54.733585773 77.660280271 65.329335857 55.399182877 77.473969425 66.781069985 56.056974277 
77.286694866 68.261866169 56.695910083 77.011384689 69.793959392 57.164082809 76.652149054 71.419396476 57.531511495 
76.107751047 72.963223412 57.445608776 75.296521409 74.445439658 57.153083408 74.230610242 75.673586554 56.629629859 
73.220118038 78.973089209 52.278042653 73.412998717 78.224372426 53.636510126 72.867460791 79.64661223 50.83768575 
72.543236951 80.036625389 49.3109411 72.241408729 80.302829367 47.744304436 71.959070187 80.482524527 46.170912648 
71.668468879 80.633771334 44.592151106 71.368894246 80.715962818 43.000052763 71.074571503 80.689555928 41.398359973 
70.80300631 80.665059544 39.789249545 70.551137715 80.283936086 38.152393136 70.330912116 79.684653791 36.566483695 
70.183415523 78.917734829 34.966802024 70.400373106 77.991224549 33.46856598 70.673859534 77.148588606 32.059993879 
70.962302692 76.469427107 30.602998221 71.220572686 75.710507582 29.21559682 71.45378136 74.909635824 27.88807227 
71.632540799 73.687186313 26.851039672 71.816941275 72.26139307 26.122382031 72.005021854 70.741269194 25.840819623 
72.230656883 69.200837469 25.645498598 72.497763735 67.643791289 25.502128872 72.788958309 66.074152179 25.513770827 
73.164849408 64.525943502 25.779472296 73.645965301 63.010778791 26.164938745 74.213363919 61.649913694 26.8389193 
74.791621605 60.382052311 27.654131161 75.353679785 59.198115403 28.580406016 75.862549527 58.151732701 29.681007481 
76.332223086 57.149297607 30.857427566 76.766799284 56.197299667 32.109566559 77.221728505 55.271355168 33.397183776 
77.771712194 54.392497262 34.696238467 78.329974401 53.597643664 36.042071805 78.881722382 52.859816198 37.419317783 
79.396561571 52.222290529 38.820829966 79.657785619 52.160449788 40.555066036 79.752840264 52.385937775 42.25892405 
79.64585707 52.919473409 43.825583002 79.560741766 53.540001461 45.350079825 79.553702617 54.21541037 46.840943666 
73.359377822 77.294988724 54.955847299 72.732597536 76.298092459 55.998547351 58.272681074 69.384191786 27.123983549 
58.14251023 70.665794806 27.869520035 58.040485915 72.075576725 28.814415535 58.239672441 73.079226423 30.106066934 
58.412640022 74.065502576 31.463314239 58.58527449 74.98926419 32.876603386 58.784956889 75.866267588 34.336530959 
58.9951603 76.694636317 35.835113528 59.28763685 77.230906919 37.47549339 59.758995188 77.621871986 39.128362487 
60.544069521 77.852477289 40.774437845 59.703691716 76.420327496 46.130833864 60.215763834 76.618414629 44.687441792 
59.265050941 76.275162738 47.443514156 59.024503826 75.797084468 48.589733898 58.93496547 75.384009361 49.636253787 
59.270091197 74.918416494 50.587488229 59.830000018 74.359036654 51.605236899 60.529100382 73.690166916 52.665339587 
61.296535827 72.941514391 53.817341145 62.364503922 71.845559608 55.188029454 62.472029319 69.952721755 56.180732542 
62.682565292 68.370281882 56.817104471 63.014323137 66.87854888 57.176385033 63.482668227 65.457344768 57.314836289 
64.056792389 64.228004297 57.292826944 64.97729152 63.144139686 57.143182872 65.861485599 61.939651718 56.736545041 
66.833430839 60.725277333 56.274435448 68.292255269 59.329192015 55.710792019 68.641991043 57.40699984 55.038475969 
68.709886317 55.990660369 54.440922168 68.68079301 55.071938209 53.941233096 69.535008944 54.583028012 53.651979705 
70.622944975 53.828955853 53.16292787 71.741354649 53.116487215 52.329408733 71.802994279 51.401326978 50.726947459 
72.754769833 52.45155086 51.299172435 70.696570448 50.588467195 50.145057619 69.65684049 49.969503121 49.556774126 
68.874844652 49.583903598 49.122992424 68.959102446 49.144918554 48.246491624 69.02409663 48.709123079 46.942912902 
68.886693747 48.47780631 45.345523407 68.357369126 48.453373545 43.748482067 67.759052824 48.800652552 42.286686883 
67.184310792 49.185008559 40.93156567 66.625051879 49.693885616 39.617085233 66.100991069 50.257382723 38.331148286 
65.628250927 50.939138872 37.096013529 65.202492982 51.681757291 35.865844403 64.792777744 52.448392548 34.6191558 
64.321278169 53.339077118 33.457338742 63.852896213 54.300974588 32.321538047 63.409661842 55.350090905 31.230722533 
62.972618368 56.532633759 30.231455966 62.529132223 57.808706194 29.320719684 62.051693912 59.145950191 28.534932005 
61.508634482 60.513716497 27.817166627 60.770070274 61.723189445 27.393267413 60.219640529 62.57347583 27.212093092 
60.588040572 63.357794545 26.643011084 61.115442136 64.558793427 26.024070448 61.699670089 65.986930631 25.656092496 
62.114084805 67.572505808 25.393955269 60.885761613 69.558926147 26.138845627 62.388693995 69.291733292 25.571362571 
59.473150565 69.586334214 26.617136191 60.841380926 77.147235845 43.225999478 61.739447851 77.951088239 42.047949627 
71.928418267 77.479523706 54.684424457 71.409428299 76.645719364 55.462925689 71.911068229 78.169260549 53.606813052 
71.660338758 78.822997584 52.37842957 71.317513235 79.380150929 50.990099806 70.995628393 79.843154951 49.52406363 
70.717585981 80.124656934 47.96868237 70.455018726 80.298708062 46.395851688 70.15892146 80.444243915 44.821577659 
69.827464985 80.493664123 43.236050785 69.489292925 80.537055247 41.638025316 69.22268556 80.477554374 40.023445341 
68.926747937 80.124974108 38.423068974 68.556645891 79.531457726 36.789739162 67.960784946 78.663154751 34.920552541 
68.639879145 77.769584693 33.226571385 69.066061351 77.067333223 31.712481145 69.423402108 76.453352412 30.251198621 
69.717844491 75.663277859 28.896102345 69.964421426 74.858044614 27.603610649 70.149249696 73.499192654 26.742549934 
70.306207596 72.059947161 26.064695103 70.468068889 70.532803271 25.755257275 70.663769608 68.970378997 25.528207512 
70.901768705 67.389429732 25.350743538 71.167340835 65.812204203 25.353156321 71.43589599 64.138570447 25.630387848 
72.050889913 62.544647682 26.139992176 72.674198038 61.185042968 26.88781114 73.311124046 59.908391188 27.728803382 
73.915426822 58.719749266 28.647331215 74.434204977 57.660498016 29.763276994 74.875222698 56.657953905 30.972679964 
75.242245052 55.730470322 32.264456727 75.65216888 54.743269068 33.651968314 76.275431421 53.84835225 35.015033327 
76.892707473 53.028516836 36.378913981 77.461490961 52.246978968 37.753995175 77.977054904 51.501910572 39.112021653 
78.295381853 51.411848464 40.859620881 78.429843108 51.632578474 42.581462632 78.284479152 52.237668782 44.141379093 
78.203002352 52.807844111 45.728167704 78.230326793 53.483189003 47.279834889 78.308543999 54.278073209 48.718173744 
78.245099619 55.340057209 49.995262687 78.069692949 56.454453561 51.182179608 77.754052556 57.682459893 52.241442679 
77.465216617 58.952875234 53.277466521 77.134597859 60.363781392 54.075358548 76.87806045 61.817619574 54.815584023 
76.615304069 63.305213425 55.44416483 76.371209567 64.794899412 56.017323105 76.181754608 66.256604208 56.648964072 
75.956994616 67.738915113 57.238463052 75.669646476 69.247186764 57.676189729 75.312321923 70.813411073 58.082072016 
74.736006766 72.269637844 57.967956686 74.027003991 73.655984668 57.774818347 73.062871379 74.625399443 57.21681354 
71.914093641 75.293499429 56.70463264 70.709482375 75.672944894 56.020220828 70.351783221 76.951352633 54.897877494 
69.557178537 76.092188122 55.375279473 70.971289665 77.52356272 54.451028717 59.501857366 71.038135739 27.248466173 
59.511722104 72.462477409 28.118262338 59.63642114 73.643385216 29.406407015 59.787259162 74.722401385 30.788147537 
60.001021404 75.595727578 32.2785288 60.259250504 76.438581013 33.782273001 60.55177828 77.207835796 35.308937598 
60.735894929 77.778304176 36.919592694 61.091120788 78.238572175 38.425033678 61.760717292 78.566553942 39.846227786 
62.730105896 78.752105859 41.129631467 62.921882321 78.161162637 43.182815202 63.723836735 78.993529684 42.253426905 
62.165877528 77.407535283 44.246774946 61.500405128 77.020300913 45.549823854 60.918593038 76.809916441 46.818334726 
60.427115374 76.430503596 48.016677207 60.013009305 76.014615469 48.994260345 59.69509167 75.665507952 49.678946328 
60.151084216 75.501365537 50.361629773 60.786386129 75.152436194 51.267494248 61.547091543 74.698904217 52.3359871 
62.397976087 74.15585665 53.437314097 63.454977044 73.608213274 54.58378057 64.02727898 68.686270301 57.466821236 
63.931921537 70.271917919 56.954154979 64.267860136 67.178662251 57.784886116 64.640802031 65.797616588 57.735352942 
64.92679337 64.70525007 57.603591219 66.105867848 64.103134273 57.69422298 66.972932534 62.687217924 57.125895504 
67.793229607 61.626995147 56.696286572 69.048805751 60.922048257 56.416197562 70.060515761 55.698796743 54.24752444 
70.420097649 57.192390905 54.962449922 64.155865539 71.815390514 56.219710419 64.777549739 73.307575829 55.568985177 
70.433325016 58.961036977 55.625762838 70.64061234 60.587224619 56.297534052 72.690849828 54.154809772 52.856194973 
71.481808057 55.047081228 53.775885156 73.560272246 53.531491333 51.777921028 73.761467133 51.997563108 50.079041997 
74.435134804 53.113521134 50.796190656 72.733501859 50.835394655 49.539493688 71.515138401 49.902828612 49.056728128 
70.2178546 49.294525223 48.524633338 70.579457114 48.872606351 47.095097429 70.850625671 48.466455522 45.099632447 
69.843236618 48.40516656 43.147660027 69.137064681 48.854833519 41.740992226 68.515562484 49.302540076 40.4226567 
67.953604744 49.804571311 39.163948077 67.436164235 50.395540645 37.923655143 66.989453873 51.097447871 36.722305106 
66.632932631 51.873195544 35.534519613 66.305645083 52.79279106 34.331488901 65.777305636 53.706024587 33.153035861 
65.298639866 54.669541983 31.999690215 64.871390472 55.68054873 30.851473202 64.462287943 56.839630169 29.793859576 
64.000993426 58.064605931 28.807157112 63.541506261 59.419529034 27.877683488 63.111908103 61.161864004 26.86983864 
61.717319702 62.490583102 26.614922611 62.508928496 63.779880157 25.910831151 63.208660935 65.304549357 25.399728884 
63.800902063 67.032530767 25.173623055 63.973525855 68.917393815 25.139734081 62.537648002 71.023209699 25.948294759 
64.144457887 70.588169134 25.563450716 60.955457275 71.175628074 26.571770213 70.664951928 77.942932037 53.647286803 
70.224405476 78.51367403 52.546191937 69.795144513 79.049206273 51.185445216 69.458938221 79.53137302 49.737057347 
69.212466425 79.832862669 48.183964691 68.983295483 80.036418134 46.626077148 68.70023791 80.149195515 45.066965999 
68.316251589 80.221683248 43.536081896 67.899345807 80.280951782 41.918697774 67.688959574 80.233037367 40.315552689 
67.400232384 79.936496841 38.781772616 66.911716005 79.46834996 37.314687995 66.162930598 78.826336784 35.931649917 
67.531700924 76.884729653 31.229042128 66.990059631 77.41903781 32.55464548 67.933552648 76.312599254 29.838579299 
68.241116775 75.503451654 28.574780177 68.484974054 74.599049574 27.320423863 68.673641131 73.292122594 26.587388161 
68.803528877 71.870906464 25.97898972 68.919053202 70.350786155 25.624800287 69.073043599 68.778149892 25.367418836 
69.319327496 67.222864572 25.184526308 69.542748295 65.666253231 25.186100126 69.337896699 63.721525771 25.396470817 
70.404504495 61.954532393 26.154358883 71.172995525 60.5937544 26.979148653 71.855646341 59.372387137 27.823264054 
72.500488291 58.238802546 28.737301586 73.009142615 57.254288599 29.875784045 73.391626288 56.292665245 31.042292313 
73.670887014 55.365598541 32.367139047 73.7310411 54.151887025 33.948037733 74.80886507 53.213418704 35.416869463 
75.495140023 52.428045163 36.794500945 76.058281777 51.689751906 38.174737966 76.556606579 50.942186774 39.53046154 
76.944697368 50.791111388 41.212300884 77.138563996 50.875689015 42.910990651 76.974458526 51.434753465 44.498396548 
76.898975813 51.934087293 46.139343414 76.88321268 52.60840444 47.846622057 76.957385627 53.666977844 49.26424127 
76.976399031 54.744811981 50.499515676 76.809089893 55.771534729 51.658459679 76.46749757 56.935140415 52.802765946 
76.126842253 58.213694195 53.922546638 75.741582597 59.697613715 54.750562593 75.499261729 61.226284053 55.479729122 
75.250077128 62.786059054 56.002456109 75.016417358 64.305115121 56.529132756 74.776887115 65.804266043 57.011000275 
74.549341016 67.254644944 57.54766313 74.241746814 68.741819997 57.851880307 73.897568748 70.162395804 58.20278892 
73.409022811 71.58066099 58.094585352 72.823403529 72.811360891 57.946430212 72.152448187 73.739903413 57.466913638 
71.151580599 74.245715578 57.005963244 69.949955738 74.694245146 56.573420291 68.745563902 75.080629058 55.927675294 
68.430835912 76.617491874 54.534098261 67.536553339 75.538265445 55.209759411 69.564193047 77.39361931 54.000248849 
66.227264306 77.944732773 33.84118136 65.056473294 78.255210489 34.809848213 72.107026745 49.425163288 47.614741135 
72.674049171 48.965205339 46.056142227 70.42478038 49.039201407 41.075347255 71.190520127 48.715179952 42.31734823 
69.798847249 49.451538091 39.887996631 69.245469843 49.943581144 38.697157314 68.743678867 50.563641575 37.541608117 
68.339884468 51.265852186 36.434135238 68.062588295 52.119418557 35.34659645 68.043438429 53.228963822 34.087203825 
67.243484881 54.156342356 32.83307028 66.704975957 55.046722896 31.678677614 66.331220346 55.983426898 30.520883682 
65.985343101 57.115612853 29.397946845 65.506137023 58.299501543 28.365165502 65.089657895 59.555355198 27.485461855 
64.936428067 60.864659526 26.721587792 63.979823216 62.858104215 25.883623441 65.5259333 62.102790832 26.008194841 
61.069612963 72.745835947 27.449424402 61.118172889 74.14154045 28.725486507 61.284947129 75.271076748 30.162691273 
61.484799441 76.134425288 31.756519206 61.777038551 76.860672937 33.267531249 62.462052962 77.689904621 34.912750979 
62.157142811 78.118255337 36.543002652 62.474349565 78.564912023 37.85630723 63.026769245 78.946578077 39.126195754 
63.746083486 79.332433241 40.318672618 64.61938904 79.540537861 41.350022974 64.837479064 79.174206846 43.319817847 
66.066121842 79.894116185 42.209275071 64.009270936 78.360132558 44.19790892 63.303201868 77.778528305 45.280026686 
62.648459177 77.434702073 46.486893856 62.050519535 77.091974641 47.706308589 61.487210883 76.546447674 48.791586759 
60.834341275 76.043741587 49.717061334 61.669289774 75.868694807 50.628148773 62.486057622 75.670048998 51.741404241 
63.355021293 75.310168239 52.885142764 64.35015159 74.953589619 53.98644417 65.519619975 74.669945142 54.970703304 
66.118847197 73.074033621 56.432818389 66.768984289 74.335257419 55.821218675 65.607729505 71.720855784 56.927340084 
65.368620722 70.398316362 57.619085947 65.433507828 68.844358097 57.932706776 65.652675248 67.286638735 58.18741282 
65.943698581 65.795129346 57.996574599 73.730468712 55.286804074 53.214680106 72.554593446 56.681123679 54.474603397 
74.453325751 54.424688269 52.10832274 75.146387355 51.705412514 48.554472884 75.617132925 53.15640205 49.936482075 
73.605856206 50.291139697 48.077364195 68.807516719 77.981241048 52.853037067 68.297983124 78.594567076 51.433633523 
67.925625677 79.112452829 49.949510297 67.743401879 79.429247961 48.373498745 67.596248707 79.636927668 46.842300942 
67.344914007 79.743072656 45.374323608 66.864741927 79.802006899 43.900049165 66.251927227 80.062852254 40.545802404 
65.96587674 79.823701574 39.182343973 65.463567423 79.405620879 37.899345734 64.794893906 78.891553727 36.689219297 
66.074420966 76.666412029 30.685509537 65.601416617 77.120425342 31.920539348 66.501254138 76.103611373 29.448422494 
66.808769607 75.330038233 28.278380799 67.039185545 74.324691371 27.208937199 67.235939094 73.088996744 26.50492736 
67.307332159 71.770457033 25.905799313 67.362307479 70.266864322 25.511017879 67.485368385 68.645204504 25.202742954 
67.753241237 67.044956408 25.051449359 68.230574634 65.812107831 25.091856654 67.411988415 64.75430288 25.135951738 
69.71576774 59.974654512 27.248177851 68.916076304 61.161231906 26.471091807 70.43260351 58.832374201 28.082878572 
71.113889743 57.819653009 28.943768578 71.61122843 56.916931532 29.99036736 71.971184842 56.055513197 31.101799389 
72.083442507 55.205213163 32.235938206 71.95161921 54.307191914 33.342215826 74.193086075 51.746585915 37.233366716 
73.469229191 52.416374661 36.01323798 74.701772478 51.071267344 38.575980153 75.154996628 50.404771158 40.007020054 
75.549196863 50.251285097 41.617086474 75.814690398 50.248796619 43.190617942 75.771752156 50.500710871 44.765667022 
75.576079785 50.871012949 46.504491191 67.859383279 62.40626701 25.852664456 66.410747757 63.439595668 25.441010949 
72.167801465 48.599162329 43.639386473 73.262049517 49.017758249 44.561647618 72.548451267 53.002543866 34.895767017 
71.354636934 53.421606426 34.193618947 75.805029927 54.237699183 50.948382685 75.575253128 55.108274019 52.005881106 
75.086274496 56.187909915 53.101601796 74.508390438 57.519941746 54.268103239 74.160576014 59.173769369 55.130974412 
73.963509359 60.797791518 55.882569099 73.786025717 62.356383376 56.410658905 73.600088734 63.893895883 56.926634343 
73.36441049 65.402138609 57.347753066 73.112928827 66.87354465 57.736886186 72.811930031 68.330338258 57.963284113 
72.483340733 69.730039073 58.144722883 72.115100093 71.070865799 58.016777031 71.732749598 72.249429596 57.869408655 
71.48509735 73.0886211 57.577829164 70.613396269 73.245880933 57.336340851 69.357953976 73.522639725 57.002788449 
68.042775798 73.991563761 56.546129648 66.330847265 75.92151557 54.27354139 68.11645127 63.203064997 57.36907725 
67.678829108 64.460762596 57.833582464 68.446773416 62.323337681 57.009338222 69.431051678 62.147505214 56.944727446 
70.767194722 62.057775517 56.867246197 72.312117863 60.529749201 56.161153608 72.264505928 62.120756537 56.72387107 
72.368619122 58.836507095 55.435206529 65.421708921 75.008633639 28.11073442 65.169858329 75.763601049 29.152911871 
65.68988091 74.047219312 27.160822122 65.915121487 72.980683574 26.48001834 65.823807095 71.790603053 25.874995331 
65.749172192 70.309918125 25.426829448 65.76411876 68.576276834 25.056176859 65.900300788 66.342998141 25.036848124 
64.879690169 64.451398617 25.380099367 72.143102991 63.607205306 57.209234933 71.926687826 65.10811392 57.559593869 
71.674849043 66.577147568 57.880581966 71.383093819 68.029040665 58.004563776 71.073714149 69.447653523 58.108399309 
70.767297269 70.802096281 57.911113415 70.504890582 72.098272886 57.735149086 68.928341923 72.115350443 57.557718526 
67.500569175 72.704679832 57.015615872 66.926566114 71.575008045 57.469797083 66.810746986 70.315376343 57.892711869 
66.889208698 68.903695058 58.150382792 67.104752481 67.417875837 58.272215151 67.367364769 65.959137832 58.109742067 
67.241349514 77.100385556 53.246955166 66.803473138 77.921641689 51.629944417 66.370289119 78.494231848 50.053733759 
66.333268742 78.882540747 48.372567262 66.328761432 79.126454617 46.923604387 66.193100281 79.273744937 45.693093616 
65.668581906 79.236797067 44.506108654 62.448546683 76.645646694 49.797572854 63.462750872 76.593901725 50.963331819 
64.296489958 76.385710342 52.26256267 65.201407723 76.025274399 53.338457216 64.826914914 78.634605041 45.192395645 
64.281535293 78.181068459 46.156811948 63.768036779 77.787258166 47.358933167 63.21364715 77.307502181 48.697670794 
67.968982336 71.380104005 57.741710676 68.093510479 70.327179851 57.946893176 68.293854047 69.019201936 58.184971179 
68.540045134 67.585803678 58.213002438 68.804454097 66.146135215 58.09061376 69.086264065 64.710241931 57.786216322 
69.338592582 63.380257875 57.361772875 70.697213884 63.450957962 57.363787619 65.192315823 79.820497998 40.511306647 
64.762890345 79.59781551 39.602735682 64.236059033 79.205932982 38.487166532 63.688727629 78.787929019 37.402258601 
64.976991927 77.480721276 33.013218826 63.923813063 77.644272522 33.882558342 62.964219388 72.870424468 26.820500876 
62.696820205 74.49238139 28.234922483 63.085888951 75.703663792 29.767875394 63.005780796 76.454226856 31.441398795 
63.186047613 77.042185925 32.769218471 64.668955706 76.374610059 30.231226567 63.251125623 78.42265203 36.528766764 
66.781848772 61.416613447 26.354536789 67.621981059 60.402158519 26.902921503 68.348252173 59.289914787 27.627092773 
69.081195487 58.241769788 28.445532148 69.854774212 57.411781253 29.199954092 70.277469084 56.636731316 30.132721991 
70.572655089 55.881806768 31.160359516 70.730843225 55.118811423 32.142905067 70.674771146 54.373072749 33.015070294 
70.194970847 53.662571718 33.734009145 70.717027519 52.682550635 34.840695629 69.612839795 52.91006623 34.486905474 
71.576676251 52.230453037 35.524510829 72.310013091 51.738569853 36.515767545 72.923245772 51.125949455 37.644525744 
73.353777725 50.543439249 38.902868688 73.572642376 49.817435707 40.458857918 74.252988104 49.581604696 42.023519014 
74.647068313 49.590716151 43.412015536 74.523058588 49.623463304 44.796081886 74.138241554 49.841356249 46.422133971 
73.709378917 49.146466699 43.53857907 73.132274272 49.023622916 42.628113273 72.37420503 49.186320201 41.452558508 
71.570824241 49.357274503 40.428334585 71.008580119 49.768378511 39.391735651 70.506239103 50.201354636 38.280959654 
70.012127995 50.806019406 37.213970351 69.597584153 51.434814985 36.210739911 68.50228652 54.616549264 32.408042572 
69.140848078 53.986027045 33.261308767 68.065008769 55.396620293 31.410696324 67.772310805 56.283361731 30.312014411 
67.722076697 57.466646617 29.111348291 67.0020164 58.665759157 28.026704601 66.438663671 59.807917551 27.264309779 
66.052692852 60.684717746 26.737759976 64.414983428 72.069818573 26.022113421 68.876774446 57.049611411 29.483212993 
69.062839303 56.379889877 30.28461597 69.327328086 55.667680257 31.245675872 69.587423183 54.975585739 32.13813357 
69.800807233 54.435769149 32.800205753 71.697021411 50.629835094 37.945973075 71.208120066 51.196944397 36.905915619 
72.129479432 50.157912189 39.032774883 72.435332535 49.752838144 39.946200316 65.403057459 78.865536803 45.896973674 
65.221652011 78.621659852 46.793894954 65.400450297 77.246246371 51.692966761 64.641992484 77.676574612 49.953649195 
65.9154387 76.859441142 52.804067853 70.495739959 64.889165606 57.729944934 70.2418492 66.345712569 58.016032238 
69.961207159 67.793927193 58.09504732 69.670596217 69.231109895 58.099047715 69.363574479 70.621870909 57.914923696 
69.357959568 52.121149684 35.309433584 70.253358492 52.143997328 35.351532544 70.673454206 51.716842953 35.987264271 
64.174118852 77.126643521 32.423599025 64.369806231 76.801258567 31.470889421 64.100616972 75.383405784 28.969330516 
64.150104825 74.722736281 28.032738274 64.415304824 73.715300565 27.097939996 64.901839247 72.919901236 26.527901702 
64.984077108 78.26058367 48.086062443 74.88160156 53.927653155 51.300577561 63.931287555 78.35531188 35.690245855 

POLYGONS 1060 4236
OFFSETS vtktypeint64
0 4 8 12 16 20 24 28 32 
36 40 44 48 52 56 60 64 68 
72 76 80 84 88 92 96 100 104 
108 112 116 120 124 128 132 136 140 
144 148 152 156 160 164 168 172 176 
180 184 188 192 196 200 204 208 212 
216 220 224 228 232 236 240 244 248 
252 256 260 264 268 272 276 280 284 
288 292 296 300 304 308 312 316 320 
324 328 332 336 340 344 348 352 356 
360 364 368 372 376 380 384 388 392 
396 400 404 408 412 416 420 424 428 
432 436 440 444 448 452 456 460 464 
468 472 476 480 484 488 492 496 500 
504 508 512 516 520 524 528 532 536 
540 544 548 552 556 560 564 568 572 
576 580 584 588 592 596 600 604 608 
612 616 620 624 628 632 636 640 644 
648 652 656 660 664 668 672 676 680 
684 688 692 696 700 704 708 712 716 
720 724 728 732 736 740 744 748 752 
756 760 764 768 772 776 780 784 788 
792 796 800 804 808 812 816 820 824 
828 832 836 840 844 848 852 856 860 
864 868 872 876 880 884 888 892 896 
900 904 908 912 916 920 924 928 932 
936 940 944 948 952 956 960 964 968 
972 976 980 984 988 992 996 1000 1004 
1008 1012 1016 1020 1024 1028 1032 1036 1040 
1044 1048 1052 1056 1060 1064 1068 1072 1076 
1080 1084 1088 1092 1096 1100 1104 1108 1112 
1116 1120 1124 1128 1132 1136 1140 1144 1148 
1152 1156 1160 1164 1168 1172 1176 1180 1184 
1188 1192 1196 1200 1204 1208 1212 1216 1220 
1224 1228 1232 1236 1240 1244 1248 1252 1256 
1260 1264 1268 1272 1276 1280 1284 1288 1292 
1296 1300 1304 1308 1312 1316 1320 1324 1328 
1332 1336 1340 1344 1348 1352 1356 1360 1364 
1368 1372 1376 1380 1384 1388 1392 1396 1400 
1404 1408 1412 1416 1420 1424 1428 1432 1436 
1440 1444 1448 1452 1456 1460 1464 1468 1472 
1476 1480 1484 1488 1492 1496 1500 1504 1508 
1512 1516 1520 1524 1528 1532 1536 1540 1544 
1548 1552 1556 1560 1564 1568 1572 1576 1580 
1584 1588 1592 1596 1600 1604 1608 1612 1616 
1620 1624 1628 1632 1636 1640 1644 1648 1652 
1656 1660 1664 1668 1672 1676 1680 1684 1688 
1692 1696 1700 1704 1708 1712 1716 1720 1724 
1728 1732 1736 1740 1744 1748 1752 1756 1760 
1764 1768 1772 1776 1780 1784 1788 1792 1796 
1800 1804 1808 1812 1816 1820 1824 1828 1832 
1836 1840 1844 1848 1852 1856 1860 1864 1868 
1872 1876 1880 1884 1888 1892 1896 1900 1904 
1908 1912 1916 1920 1924 1928 1932 1936 1940 
1944 1948 1952 1956 1960 1964 1968 1972 1976 
1980 1984 1988 1992 1996 2000 2004 2008 2012 
2016 2020 2024 2028 2032 2036 2040 2044 2048 
2052 2056 2060 2064 2068 2072 2076 2080 2084 
2088 2092 2096 2100 2104 2108 2112 2116 2120 
2124 2128 2132 2136 2140 2144 2148 2152 2156 
2160 2164 2168 2172 2176 2180 2184 2188 2192 
2196 2200 2204 2208 2212 2216 2220 2224 2228 
2232 2236 2240 2244 2248 2252 2256 2260 2264 
2268 2272 2276 2280 2284 2288 2292 2296 2300 
2304 2308 2312 2316 2320 2324 2328 2332 2336 
2340 2344 2348 2352 2356 2360 2364 2368 2372 
2376 2380 2384 2388 2392 2396 2400 2404 2408 
2412 2416 2420 2424 2428 2432 2436 2440 2444 
2448 2452 2456 2460 2464 2468 2472 2476 2480 
2484 2488 2492 2496 2500 2504 2508 2512 2516 
2520 2524 2528 2532 2536 2540 2544 2548 2552 
2556 2560 2564 2568 2572 2576 2580 2584 2588 
2592 2596 2600 2604 2608 2612 2616 2620 2624 
2628 2632 2636 2640 2644 2648 2652 2656 2660 
2664 2668 2672 2676 2680 2684 2688 2692 2696 
2700 2704 2708 2712 2716 2720 2724 2728 2732 
2736 2740 2744 2748 2752 2756 2760 2764 2768 
2772 2776 2780 2784 2788 2792 2796 2800 2804 
2808 2812 2816 2820 2824 2828 2832 2836 2840 
2844 2848 2852 2856 2860 2864 2868 2872 2876 
2880 2884 2888 2892 2896 2900 2904 2908 2912 
2916 2920 2924 2928 2932 2936 2940 2944 2948 
2952 2956 2960 2964 2968 2972 2976 2980 2984 
2988 2992 2996 3000 3004 3008 3012 3016 3020 
3024 3028 3032 3036 3040 3044 3048 3052 3056 
3060 3064 3068 3072 3076 3080 3084 3088 3092 
3096 3100 3104 3108 3112 3116 3120 3124 3128 
3132 3136 3140 3144 3148 3152 3156 3160 3164 
3168 3172 3176 3180 3184 3188 3192 3196 3200 
3204 3208 3212 3216 3220 3224 3228 3232 3236 
3240 3244 3248 3252 3256 3260 3264 3268 3272 
3276 3280 3284 3288 3292 3296 3300 3304 3308 
3312 3316 3320 3324 3328 3332 3336 3340 3344 
3348 3352 3356 3360 3364 3368 3372 3376 3380 
3384 3388 3392 3396 3400 3404 3408 3412 3416 
3420 3424 3428 3432 3436 3440 3444 3448 3452 
3456 3460 3464 3468 3472 3476 3480 3484 3488 
3492 3496 3500 3504 3508 3512 3516 3520 3524 
3528 3532 3536 3540 3544 3548 3552 3556 3560 
3564 3568 3572 3576 3580 3584 3588 3592 3596 
3600 3604 3608 3612 3616 3620 3624 3628 3632 
3636 3640 3644 3648 3652 3656 3660 3664 3668 
3672 3676 3680 3684 3688 3692 3696 3700 3704 
3708 3712 3716 3720 3724 3728 3732 3736 3740 
3744 3748 3752 3756 3760 3764 3768 3772 3776 
3780 3784 3788 3792 3796 3800 3804 3808 3812 
3816 3820 3824 3828 3832 3836 3840 3844 3848 
3852 3856 3860 3864 3868 3872 3876 3880 3884 
3888 3892 3896 3900 3904 3908 3912 3916 3920 
3924 3928 3932 3936 3940 3944 3948 3952 3956 
3960 3964 3968 3972 3976 3980 3984 3988 3992 
3996 4000 4004 4008 4012 4016 4020 4024 4028 
4032 4036 4040 4044 4048 4052 4056 4060 4064 
4068 4072 4076 4080 4084 4088 4092 4096 4100 
4104 4108 4112 4116 4120 4124 4128 4132 4136 
4140 4144 4148 4152 4156 4160 4164 4168 4172 
4176 4180 4184 4188 4192 4196 4200 4204 4208 
4212 4216 4220 4224 4228 4232 4236 
CONNECTIVITY vtktypeint64
0 1 2 3 1 4 5 2 4 
6 7 5 6 8 9 7 8 10 
11 9 10 12 13 11 12 14 15 
13 14 16 17 15 16 18 19 17 
18 20 21 19 20 22 23 21 22 
24 25 23 24 26 27 25 26 28 
29 27 28 30 31 29 30 32 33 
31 32 34 35 33 34 36 37 35 
36 38 39 37 38 40 41 39 40 
42 43 41 42 44 45 43 44 46 
47 45 46 48 49 47 48 50 51 
49 50 52 53 51 52 54 55 53 
54 56 57 55 56 58 59 57 58 
60 61 59 60 62 63 61 62 64 
65 63 64 66 67 65 66 68 69 
67 68 70 71 69 70 72 73 71 
72 74 75 73 74 76 77 75 76 
78 79 77 78 80 81 79 80 82 
83 81 82 84 85 83 84 86 87 
85 86 88 89 87 88 90 91 89 
90 92 93 91 92 94 95 93 94 
96 97 95 96 98 99 97 98 100 
101 99 100 102 103 101 102 104 105 
103 104 106 107 105 106 108 109 107 
108 110 111 109 110 0 3 111 112 
113 114 115 113 116 117 114 116 118 
119 117 118 120 121 119 120 122 123 
121 122 124 125 123 124 126 127 125 
126 128 129 127 128 130 131 129 130 
132 133 131 132 134 135 133 134 136 
137 135 136 138 139 137 138 140 141 
139 140 142 143 141 142 144 145 143 
144 146 147 145 146 148 149 147 148 
150 151 149 150 152 153 151 152 154 
155 153 154 156 157 155 156 158 159 
157 158 160 161 159 160 162 163 161 
162 164 165 163 164 166 167 165 166 
168 169 167 168 170 171 169 170 172 
173 171 172 174 175 173 174 176 177 
175 176 178 179 177 178 180 181 179 
180 182 183 181 182 184 185 183 184 
186 187 185 186 188 189 187 188 190 
191 189 190 192 193 191 192 194 195 
193 194 196 197 195 196 198 199 197 
198 200 201 199 200 202 203 201 202 
204 205 203 204 206 207 205 206 208 
209 207 208 210 211 209 210 212 213 
211 212 214 215 213 214 216 217 215 
216 218 219 217 218 220 221 219 220 
222 223 221 222 224 225 223 224 226 
227 225 226 112 115 227 2 5 228 
229 5 7 230 228 7 9 231 230 
9 11 232 231 11 13 233 232 13 
15 234 233 15 17 235 234 17 19 
236 235 19 21 237 236 21 23 238 
237 23 25 239 238 25 27 240 239 
27 29 241 240 29 31 242 241 31 
33 243 242 33 35 244 243 35 37 
245 244 37 39 246 245 39 41 247 
246 41 43 248 247 43 45 249 248 
45 47 250 249 47 49 251 250 49 
51 252 251 51 53 253 252 53 55 
254 253 55 57 255 254 57 59 256 
255 59 61 257 256 61 63 258 257 
63 65 259 258 65 67 260 259 67 
69 261 260 69 71 262 261 71 73 
263 262 73 75 264 263 75 77 265 
264 77 79 266 265 79 81 267 266 
81 83 268 267 83 85 269 268 85 
87 270 269 87 89 271 270 89 91 
272 271 91 93 273 272 93 95 274 
273 95 97 275 274 97 99 276 275 
99 101 277 276 101 103 278 277 103 
105 279 278 105 107 280 279 107 109 
281 280 109 111 282 281 111 3 283 
282 3 2 229 283 114 117 284 285 
117 119 286 284 119 121 287 286 121 
123 288 287 123 125 289 288 125 127 
290 289 127 129 291 290 129 131 292 
291 131 133 293 292 133 135 294 293 
135 137 295 294 137 139 296 295 139 
141 297 296 141 143 298 297 143 145 
299 298 145 147 300 299 147 149 301 
300 149 151 302 301 151 153 303 302 
153 155 304 303 155 157 305 304 157 
159 306 305 159 161 307 306 161 163 
308 307 163 165 309 308 165 167 310 
309 167 169 311 310 169 171 312 311 
171 173 313 312 173 175 314 313 175 
177 315 314 177 179 316 315 179 181 
317 316 181 183 318 317 183 185 319 
318 185 187 320 319 187 189 321 320 
189 191 322 321 191 193 323 322 193 
195 324 323 195 197 325 324 197 199 
326 325 199 201 327 326 201 203 328 
327 203 205 329 328 205 207 330 329 
207 209 331 330 209 211 332 331 211 
213 333 332 213 215 334 333 215 217 
335 334 217 219 336 335 219 221 337 
336 221 223 338 337 223 225 339 338 
225 227 340 339 227 115 341 340 115 
114 285 341 228 230 342 343 230 231 
344 342 231 232 345 344 232 233 346 
345 233 234 347 346 234 235 348 347 
235 236 349 348 236 237 350 349 237 
238 351 350 238 239 352 351 239 240 
353 352 240 241 354 353 241 242 355 
354 242 243 356 355 243 244 357 356 
244 245 358 357 245 246 359 358 246 
247 360 359 247 248 361 360 248 249 
362 361 250 251 363 364 251 252 365 
363 252 253 366 365 253 254 367 366 
254 255 368 367 255 256 369 368 256 
257 370 369 257 258 371 370 258 259 
372 371 259 260 373 372 260 261 374 
373 261 262 375 374 262 263 376 375 
263 264 377 376 264 265 378 377 265 
266 379 378 266 267 380 379 267 268 
381 380 268 269 382 381 269 270 383 
382 270 271 384 383 272 273 385 386 
273 274 387 385 274 275 388 387 275 
276 389 388 276 277 390 389 277 278 
391 390 278 279 392 391 279 280 393 
392 280 281 394 393 281 282 395 394 
282 283 396 395 283 229 397 396 229 
228 343 397 249 250 364 398 362 249 
398 399 271 272 386 400 384 271 400 
401 284 286 402 403 286 287 404 402 
287 288 405 404 288 289 406 405 289 
290 407 406 290 291 408 407 291 292 
409 408 292 293 410 409 293 294 411 
410 294 295 412 411 295 296 413 412 
296 297 414 413 297 298 415 414 298 
299 416 415 299 300 417 416 300 301 
418 417 301 302 419 418 302 303 420 
419 303 304 421 420 304 305 422 421 
305 306 423 422 306 307 424 423 307 
308 425 424 308 309 426 425 309 310 
427 426 310 311 428 427 311 312 429 
428 312 313 430 429 313 314 431 430 
314 315 432 431 315 316 433 432 316 
317 434 433 317 318 435 434 318 319 
436 435 319 320 437 436 320 321 438 
437 321 322 439 438 322 323 440 439 
323 324 441 440 324 325 442 441 325 
326 443 442 326 327 444 443 327 328 
445 444 328 329 446 445 329 330 447 
446 330 331 448 447 331 332 449 448 
332 333 450 449 333 334 451 450 334 
335 452 451 335 336 453 452 336 337 
454 453 337 338 455 454 338 339 456 
455 339 340 457 456 340 341 458 457 
341 285 459 458 285 284 403 459 401 
400 460 461 400 386 462 460 386 385 
463 462 385 387 464 463 387 388 465 
464 388 389 466 465 389 390 467 466 
390 391 468 467 391 392 469 468 392 
393 470 469 393 394 471 470 394 395 
472 471 395 396 473 472 396 397 474 
473 397 343 475 474 343 342 476 475 
342 344 477 476 344 345 478 477 345 
346 479 478 346 347 480 479 347 348 
481 480 348 349 482 481 349 350 483 
482 350 351 484 483 351 352 485 484 
352 353 486 485 353 354 487 486 354 
355 488 487 355 356 489 488 356 357 
490 489 357 358 491 490 358 359 492 
491 359 360 493 492 360 361 494 493 
361 362 495 494 362 399 496 495 399 
497 498 496 399 398 499 497 398 364 
500 499 364 363 501 500 363 365 502 
501 365 366 503 502 366 367 504 503 
367 368 505 504 368 369 506 505 369 
370 507 506 370 371 508 507 371 372 
509 508 372 373 510 509 373 374 511 
510 374 375 512 511 375 376 513 512 
376 377 514 513 377 378 515 514 378 
379 516 515 379 380 517 516 380 381 
518 517 381 382 519 518 382 383 520 
519 383 384 521 520 384 401 522 521 
401 461 523 522 461 524 525 523 461 
460 526 524 402 404 527 528 404 405 
529 527 405 406 530 529 406 407 531 
530 407 408 532 531 408 409 533 532 
409 410 534 533 410 411 535 534 411 
412 536 535 412 413 537 536 413 414 
538 537 414 415 539 538 415 416 540 
539 416 417 541 540 417 418 542 541 
419 420 543 544 420 421 545 543 421 
422 546 545 422 423 547 546 423 424 
548 547 424 425 549 548 425 426 550 
549 426 427 551 550 427 428 552 551 
428 429 553 552 429 430 554 553 430 
431 555 554 431 432 556 555 432 433 
557 556 433 434 558 557 434 435 559 
558 435 436 560 559 436 437 561 560 
437 438 562 561 438 439 563 562 439 
440 564 563 440 441 565 564 441 442 
566 565 442 443 567 566 443 444 568 
567 444 445 569 568 445 446 570 569 
446 447 571 570 447 448 572 571 448 
449 573 572 449 450 574 573 450 451 
575 574 451 452 576 575 452 453 577 
576 453 454 578 577 454 455 579 578 
455 456 580 579 456 457 581 580 457 
458 582 581 458 459 583 582 459 403 
584 583 403 402 528 584 418 419 544 
585 542 418 585 586 460 462 587 526 
462 463 588 587 463 464 589 588 464 
465 590 589 465 466 591 590 466 467 
592 591 467 468 593 592 468 469 594 
593 469 470 595 594 470 471 596 595 
471 472 597 596 473 474 598 599 474 
475 600 598 475 476 601 600 476 477 
602 601 477 478 603 602 478 479 604 
603 479 480 605 604 480 481 606 605 
481 482 607 606 482 483 608 607 483 
484 609 608 484 485 610 609 485 486 
611 610 486 487 612 611 487 488 613 
612 488 489 614 613 489 490 615 614 
490 491 616 615 491 492 617 616 492 
493 618 617 493 494 619 618 494 495 
620 619 495 496 621 620 496 498 622 
621 498 623 624 622 498 497 625 623 
497 499 626 625 499 500 627 626 500 
501 628 627 501 502 629 628 502 503 
630 629 503 504 631 630 504 505 632 
631 505 506 633 632 506 507 634 633 
507 508 635 634 508 509 636 635 509 
510 637 636 510 511 638 637 511 512 
639 638 512 513 640 639 513 514 641 
640 514 515 642 641 515 516 643 642 
516 517 644 643 517 518 645 644 518 
519 646 645 519 520 647 646 520 521 
648 647 521 522 649 648 522 523 650 
649 523 525 651 650 525 652 653 651 
525 524 654 652 524 526 587 654 472 
473 599 655 597 472 655 656 586 585 
657 658 585 544 659 657 544 543 660 
659 543 545 661 660 545 546 662 661 
546 547 663 662 547 548 664 663 548 
549 665 664 549 550 666 665 550 551 
667 666 551 552 668 667 552 553 669 
668 553 554 670 669 554 555 671 670 
555 556 672 671 556 557 673 672 557 
558 674 673 558 559 675 674 559 560 
676 675 560 561 677 676 561 562 678 
677 562 563 679 678 563 564 680 679 
564 565 681 680 565 566 682 681 566 
567 683 682 567 568 684 683 568 569 
685 684 569 570 686 685 570 571 687 
686 571 572 688 687 572 573 689 688 
573 574 690 689 574 575 691 690 575 
576 692 691 576 577 693 692 577 578 
694 693 578 579 695 694 579 580 696 
695 580 581 697 696 581 582 698 697 
582 583 699 698 583 584 700 699 584 
528 701 700 528 527 702 701 527 529 
703 702 529 530 704 703 530 531 705 
704 531 532 706 705 532 533 707 706 
533 534 708 707 534 535 709 708 535 
536 710 709 536 537 711 710 537 538 
712 711 538 539 713 712 539 540 714 
713 540 541 715 714 541 542 716 715 
542 586 717 716 586 658 718 717 658 
719 720 718 658 657 721 719 587 588 
722 654 588 589 723 722 589 590 724 
723 590 591 725 724 591 592 726 725 
592 593 727 726 593 594 728 727 594 
595 729 728 595 596 730 729 596 597 
731 730 597 656 732 731 656 733 734 
732 656 655 735 733 655 599 736 735 
599 598 737 736 598 600 738 737 600 
601 739 738 601 602 740 739 602 603 
741 740 603 604 742 741 604 605 743 
742 605 606 744 743 606 607 745 744 
608 609 746 747 609 610 748 746 610 
611 749 748 611 612 750 749 612 613 
751 750 613 614 752 751 614 615 753 
752 615 616 754 753 617 618 755 756 
618 619 620 755 607 608 747 757 745 
607 757 758 616 617 756 759 754 616 
759 760 621 622 761 762 622 624 763 
761 624 764 765 763 624 623 766 764 
623 625 767 766 625 626 768 767 626 
627 628 768 628 629 769 768 629 630 
770 769 630 631 771 770 631 632 772 
771 632 633 773 772 633 634 774 773 
634 635 775 774 635 636 776 775 636 
637 777 776 637 638 778 777 638 639 
779 778 639 640 780 779 640 641 781 
780 641 642 782 781 642 643 783 782 
643 644 784 783 644 645 785 784 645 
646 786 785 646 647 648 786 648 649 
787 786 649 650 788 787 650 651 789 
788 651 653 790 789 653 791 792 790 
653 652 793 791 652 654 722 793 657 
659 794 721 659 660 795 794 660 661 
796 795 661 662 797 796 662 663 798 
797 663 664 799 798 664 665 800 799 
665 666 801 800 666 667 802 801 667 
668 803 802 668 669 804 803 669 670 
805 804 670 671 806 805 672 673 807 
808 673 674 809 807 674 675 810 809 
675 676 811 810 676 677 812 811 677 
678 813 812 678 679 814 813 679 680 
815 814 680 681 816 815 681 682 817 
816 682 683 818 817 683 684 819 818 
684 685 820 819 685 686 821 820 686 
687 822 821 687 688 823 822 688 689 
824 823 689 690 825 824 690 691 826 
825 691 692 827 826 692 693 828 827 
693 694 829 828 694 695 830 829 695 
696 831 830 696 697 832 831 697 698 
833 832 698 699 834 833 699 700 835 
834 700 701 836 835 701 702 837 836 
702 703 838 837 703 704 839 838 704 
705 840 839 705 706 841 840 706 707 
842 841 707 708 843 842 708 709 844 
843 709 710 845 844 710 711 846 845 
711 712 847 846 712 713 848 847 713 
714 849 848 714 715 850 849 715 716 
851 850 716 717 852 851 717 718 853 
852 718 720 854 853 720 855 856 854 
720 719 857 855 719 721 794 857 671 
672 808 858 806 671 858 859 768 769 
860 767 769 770 861 860 771 772 862 
863 772 773 864 862 773 774 865 864 
774 775 866 865 775 776 867 866 776 
777 868 867 777 778 869 868 778 779 
870 869 779 780 871 870 780 781 872 
871 781 782 873 872 782 783 874 873 
783 784 875 874 784 785 876 875 785 
786 787 877 876 785 877 878 722 723 
879 793 723 724 880 879 724 725 881 
880 725 726 882 881 726 727 883 882 
727 728 884 883 728 729 885 884 729 
730 886 885 730 731 887 886 731 732 
888 887 732 734 889 888 734 890 891 
889 734 733 892 890 733 735 893 892 
735 736 894 893 736 737 895 894 737 
738 896 895 738 739 897 896 739 740 
741 897 741 742 898 897 742 743 899 
898 743 744 900 899 744 745 901 900 
745 758 902 901 758 903 904 902 758 
757 905 903 757 747 906 905 747 746 
907 906 746 748 908 907 748 749 909 
908 621 762 755 620 762 761 910 911 
761 763 912 910 765 764 913 914 764 
766 915 913 766 767 860 915 794 795 
916 857 795 796 917 916 796 797 918 
917 797 798 919 918 798 799 920 919 
799 800 921 920 800 801 922 921 801 
802 891 922 802 803 923 891 803 804 
924 923 804 805 925 924 805 806 926 
925 808 807 927 928 807 809 929 927 
809 810 930 929 810 811 931 930 811 
812 932 931 812 813 933 932 813 814 
934 933 814 815 935 934 815 816 936 
935 816 817 937 936 817 818 938 937 
819 820 939 940 820 821 941 939 821 
822 942 941 822 823 943 942 823 824 
944 943 824 825 945 944 825 826 946 
945 827 828 947 948 828 829 949 947 
829 830 950 949 830 831 951 950 831 
832 952 951 832 833 953 952 833 834 
954 953 834 835 913 954 835 836 914 
913 818 819 940 955 938 818 955 956 
770 771 863 957 861 770 957 958 826 
827 948 959 946 826 959 960 836 837 
961 914 837 838 962 961 838 839 963 
962 839 840 964 963 840 841 965 964 
841 842 966 965 842 843 967 966 843 
844 968 967 844 845 969 968 845 846 
970 969 846 847 971 970 847 848 972 
971 848 849 973 972 849 850 974 973 
850 851 975 974 851 852 976 975 852 
853 977 976 853 854 978 977 854 856 
904 978 856 979 902 904 751 752 980 
981 752 753 982 980 753 754 983 982 
754 760 984 983 760 985 986 984 760 
759 987 985 759 756 911 987 756 755 
762 911 962 963 910 912 963 964 911 
910 964 965 987 911 965 966 985 987 
966 967 986 985 929 930 988 989 930 
931 990 988 931 932 991 990 932 933 
992 991 933 934 993 992 934 935 994 
993 935 936 995 994 956 878 877 996 
967 968 997 986 968 969 998 997 969 
970 999 998 970 971 1000 999 971 972 
1001 1000 972 973 1002 1001 973 974 1003 
1002 975 976 1003 974 976 977 1004 1003 
977 978 1005 1004 978 904 903 1005 903 
905 1006 1005 905 906 1007 1006 906 907 
1008 1007 907 908 1009 1008 908 909 1010 
1009 909 751 981 1010 749 750 751 909 
857 916 1011 855 916 917 1012 1011 917 
918 1013 1012 918 919 1014 1013 919 920 
1015 1014 920 921 1016 1015 921 922 1017 
1016 922 891 890 1017 897 898 1018 896 
898 899 1019 1018 899 900 1020 1019 900 
901 1021 1020 901 902 979 1021 890 892 
1022 1017 892 893 1023 1022 893 894 1024 
1023 894 895 1025 1024 895 896 1018 1025 
1005 1006 1026 1004 1006 1007 1027 1026 1007 
1008 1028 1027 1008 1009 1029 1028 1009 1010 
1030 1029 1010 981 1031 1030 981 980 1032 
1031 982 983 1032 980 983 984 1033 1032 
984 986 997 1033 891 923 1034 889 923 
924 1035 1034 924 925 1036 1035 925 926 
1037 1036 859 858 1038 1039 793 879 1040 
791 879 880 1041 1040 880 881 1042 1041 
881 882 1043 1042 882 883 1044 1043 883 
884 1039 1044 927 929 989 1045 885 886 
1037 1046 956 955 1047 878 955 940 1048 
1047 940 939 1049 1048 939 941 1050 1049 
941 942 1051 1050 942 943 1052 1051 943 
944 1053 1052 944 945 1054 1053 945 946 
1055 1054 946 960 1056 1055 960 1057 1058 
1056 960 959 1059 1057 959 948 1060 1059 
948 947 1061 1060 947 949 1062 1061 949 
950 1063 1062 950 951 1064 1063 951 952 
1065 1064 952 953 1066 1065 953 954 1067 
1066 954 913 915 1067 886 887 1036 1037 
887 888 1035 1036 888 889 1034 1035 860 
861 1067 915 861 958 1066 1067 787 788 
996 877 1066 958 1068 1065 958 957 1069 
1068 957 863 1070 1069 863 862 1071 1070 
862 864 1072 1071 864 865 1073 1072 865 
866 1074 1073 866 867 1075 1074 869 870 
1076 1077 870 871 1078 1076 871 872 1079 
1078 872 873 1080 1079 873 874 1081 1080 
874 875 1082 1081 875 876 1083 1082 876 
878 1047 1083 788 789 995 996 789 790 
994 995 790 792 993 994 792 1084 992 
993 1047 1048 1082 1083 1048 1049 1081 1082 
1049 1050 1080 1081 1050 1051 1085 1080 1051 
1052 1086 1085 1052 1053 1087 1086 1053 1054 
1088 1087 1054 1055 1089 1088 1055 1056 1077 
1089 1056 1058 869 1077 1065 1068 1069 1064 
1060 1061 1090 1091 1061 1062 1092 1090 1062 
1063 1093 1092 1063 1064 1069 1070 792 791 
1040 1084 856 855 1011 979 1070 1071 1093 
1063 1017 1022 1094 1016 1022 1023 1095 1094 
1019 1020 1096 1097 1020 1021 1098 1096 1021 
979 1011 1098 1071 1072 1092 1093 1072 1073 
1090 1092 1073 1074 1091 1090 997 998 1099 
1033 998 999 1100 1099 999 1000 1101 1100 
1000 1001 1102 1101 1001 1002 1103 1102 1002 
1003 1004 1103 867 868 1104 1075 868 869 
1058 1104 1032 1033 1099 1031 1058 1057 1105 
1104 1074 1075 1106 1091 1075 1104 1105 1106 
1038 1107 1044 1039 1077 1076 1088 1089 1107 
1108 1043 1044 1076 1078 1087 1088 1043 1108 
1045 1042 1078 1079 1086 1087 1045 989 1109 
1042 989 988 1110 1109 988 990 1111 1110 
990 991 1112 1111 991 992 1084 1112 1080 
1085 1086 1079 1042 1109 1110 1041 1011 1012 
1096 1098 1012 1013 1097 1096 1004 1026 1027 
1103 1013 1014 1113 1097 1027 1028 1102 1103 
1016 1094 1095 1015 1028 1029 1101 1102 1100 
1101 1029 1030 1030 1031 1099 1100 858 808 
928 1038 1045 1108 928 927 1108 1107 1038 
928 912 763 765 1114 1114 765 914 961 
962 912 1114 961 995 936 937 938 938 
956 996 995 1113 1014 1015 1095 1023 1024 
1113 1095 1025 1018 1019 1097 1113 1024 1025 
1097 1037 926 1115 1046 926 806 859 1115 
1115 859 1039 884 1046 1115 884 885 1110 
1111 1040 1041 1111 1112 1084 1040 1059 1060 
1091 1106 1059 1106 1105 1057 
CELL_DATA 1059
FIELD FieldData 6
Stress_X 1 1059 double
6.6439257353e-05 3.4116117604e-05 1.7887206923e-05 3.0438632166e-06 -5.3534090512e-06 -1.2046315533e-05 -2.0831024813e-05 -3.0476116081e-05 -2.7950089134e-05 
-2.1345360437e-05 -1.8378070308e-05 -1.7643600586e-05 -1.6071033315e-05 -2.4549221052e-05 -2.59302833e-05 -1.4867202481e-05 -4.4706484914e-06 4.5355495786e-06 
1.0394107449e-05 8.7159742179e-06 2.7642545319e-06 -2.2454360078e-06 -9.2712971309e-06 -1.8414679289e-05 -2.1556823413e-05 -2.4076867703e-05 -2.2474481739e-05 
-1.2516618881e-05 -4.8910596888e-06 4.4431149036e-06 1.466411959e-05 1.9461449483e-05 2.2713204089e-05 2.5323219234e-05 1.8625012672e-05 9.4440338216e-06 
5.4601132433e-06 4.0959582748e-07 -9.8723048723e-06 -2.4349166779e-05 -5.0816008297e-05 -7.1278380346e-05 -7.4715659139e-05 -6.9892754254e-05 -7.5093768828e-05 
-7.5445488619e-05 -6.4148720412e-05 -4.5427575969e-05 -2.9278931834e-05 -2.433219197e-05 -2.5720966732e-05 -2.4985192795e-05 -1.3332865819e-05 1.2607919416e-05 
3.7834004615e-05 7.0143716584e-05 -5.0382990594e-05 -2.3884633265e-05 -8.9994910013e-06 4.6796653805e-06 1.8350878236e-05 2.9939188607e-05 3.9375881897e-05 
4.1068837163e-05 3.9286838728e-05 3.2138446841e-05 2.1870531782e-05 1.3125588339e-05 2.4109733658e-06 -6.7150563154e-06 -1.718270687e-05 -3.0883871659e-05 
-4.4919412176e-05 -6.159208715e-05 -5.9845548094e-05 -4.2817420763e-05 -3.7575846363e-05 -2.7627800591e-05 -1.4425111658e-05 -1.7076126824e-06 8.1350702885e-07 
-1.0887234566e-05 -1.5791572878e-05 -1.6263153157e-05 -1.394948049e-05 -2.1139951514e-06 -4.3314307732e-06 -2.812481398e-06 -1.9555618564e-05 -2.8485044822e-05 
-3.9389036829e-05 -4.1229650378e-05 -4.4177144446e-05 -3.9253540308e-05 -4.1588518798e-05 -3.7688478187e-05 -3.3216707379e-05 -2.8395015761e-05 -2.4923534511e-05 
-2.1680009013e-05 -1.365265507e-05 -5.8573004935e-06 3.2295408801e-06 1.6058345864e-05 2.3066575523e-05 2.8991664294e-05 1.9220147806e-05 -3.9543915591e-06 
-3.201668369e-05 -5.8239307691e-05 -9.6442141512e-05 -9.4653609267e-05 -7.0166955993e-05 -6.2405444623e-05 2.6745103241e-05 9.6257726909e-06 -2.1696910153e-06 
-1.0800607015e-05 -1.5226655705e-05 -1.7405871404e-05 -3.0735656765e-05 -3.7055906432e-05 -2.9681707019e-05 -2.4982171453e-05 -2.337544538e-05 -2.7205205697e-05 
-3.452882811e-05 -3.87303553e-05 -3.47082605e-05 -2.443937592e-05 -1.1047992302e-05 -3.9174020117e-07 6.0178886088e-06 4.6509135245e-06 -1.8477210517e-07 
-3.7916820474e-06 -1.2756250726e-05 -1.5803292627e-05 -1.6870357285e-05 -9.8295849966e-06 1.413458449e-06 9.3351445685e-06 1.4891955288e-05 1.7400023353e-05 
1.7625547116e-05 1.7618769562e-05 1.1800746506e-05 5.1719950989e-07 -7.5590260167e-06 -1.3756671251e-05 -2.3421791411e-05 -3.984468276e-05 -5.7732191635e-05 
-7.8173303336e-05 -8.6229818407e-05 -7.6431235357e-05 -6.6206615884e-05 -5.4788390116e-05 -4.5366730774e-05 -3.8825728552e-05 -3.6910289055e-05 -3.3443662687e-05 
-3.4988512198e-05 -3.8331028918e-05 -4.0967090172e-05 -3.2481875678e-05 -6.8665872277e-06 1.6899319235e-05 3.673502215e-05 3.8813395804e-05 -2.962970575e-05 
-2.2334688765e-05 -1.4729231225e-05 1.6026904177e-06 1.6068119294e-05 2.4928116545e-05 2.9197963158e-05 2.3663567845e-05 1.7009440853e-05 4.7931921472e-06 
-3.6121325593e-06 -7.7401073213e-06 -1.2652128135e-05 -1.7367117835e-05 -2.5003893825e-05 -3.2416726754e-05 -4.3829601054e-05 -5.3689775086e-05 -5.019249511e-05 
-4.6710942115e-05 -4.1007457185e-05 -2.7886986572e-05 -1.0689551345e-05 -5.3596590988e-06 -1.2699170838e-05 -2.1405903681e-05 -2.5072178687e-05 -1.6984509784e-05 
-1.1085583537e-05 -5.4761567299e-06 -6.7965593189e-06 -1.4388214368e-05 -2.7050329663e-05 -2.9926688512e-05 -3.8578822569e-05 -4.1561888793e-05 -4.0666433051e-05 
-3.8149781176e-05 -3.2210802601e-05 -2.0571455025e-05 -1.7751208361e-05 -1.9345732653e-05 -1.887219878e-05 -1.6703002984e-05 -6.9054985943e-06 2.9002760584e-06 
6.0545548877e-06 9.6073945315e-06 8.741968486e-06 -6.162722002e-06 -2.901039079e-05 -6.1816084781e-05 -9.058129217e-05 -0.00010960829968 -7.4763302109e-05 
-5.3651892813e-05 -5.7509809267e-05 -4.883326983e-05 4.0949516915e-06 -7.0077053351e-06 -1.3926483007e-05 -1.6115485778e-05 -1.8205355445e-05 -2.5799641662e-05 
-3.2883985114e-05 -3.0517581763e-05 -2.7478754419e-05 -2.833228973e-05 -3.0954259273e-05 -4.100856313e-05 -4.5300399506e-05 -4.5031385525e-05 -3.6248620745e-05 
-2.5184306651e-05 -1.5028029338e-05 -7.4183158176e-06 -4.4548778533e-06 -7.8214116002e-06 -8.8913629952e-06 -1.1299397556e-05 -9.1614647317e-06 -2.1342129912e-06 
4.3929362619e-06 1.1115056623e-05 1.4364367416e-05 1.3588224647e-05 9.2984764706e-06 4.6174113777e-06 -3.0659180084e-06 -1.4225382984e-05 -2.3320531909e-05 
-3.0632225389e-05 -4.2106912588e-05 -5.6024240621e-05 -7.1673428465e-05 -8.1077261711e-05 -8.1398902694e-05 -7.1101159847e-05 -5.9543912357e-05 -3.311592809e-05 
-2.7942171073e-05 -2.8385344194e-05 -2.9319262467e-05 -3.4134001908e-05 -3.5488479625e-05 -4.0005401388e-05 -3.8957889046e-05 -2.1205007215e-05 -2.7201454031e-06 
1.4411890334e-05 2.0394041712e-05 1.563902515e-05 -6.5575677581e-06 -9.6361000033e-06 -4.2648571252e-05 -4.5607848733e-05 -2.6151481507e-05 -2.1677757104e-05 
-8.7438456831e-06 4.5634642447e-06 1.4974033547e-05 1.8467453629e-05 1.4945558178e-05 7.7600935811e-07 -8.4926341515e-06 -1.2958803381e-05 -1.3309182577e-05 
-1.7548436517e-05 -1.6985060938e-05 -1.9978646378e-05 -2.2938973416e-05 -2.9897593777e-05 -3.7836216507e-05 -4.4736145355e-05 -4.6955501602e-05 -4.5399116061e-05 
-3.6782508687e-05 -1.8626369638e-05 -1.0604459021e-05 -2.0516165023e-05 -2.9625456591e-05 -3.2432533771e-05 -2.6972891646e-05 -1.8774962882e-05 -1.5127829101e-05 
-1.2026191143e-05 -1.8514514522e-05 -2.6770980185e-05 -3.2511583413e-05 -3.9106900658e-05 -4.0053280827e-05 -3.7036556023e-05 -3.217768608e-05 -2.5828079742e-05 
-1.6836855139e-05 -1.4719737919e-05 -1.7181497242e-05 -2.0351140847e-05 -1.8801043552e-05 -1.0760360965e-05 -5.7516695051e-06 -5.7584425122e-06 -1.4696005337e-06 
-7.1163044595e-06 -2.2334546884e-05 -4.5022374252e-05 -6.9610206992e-05 -7.6023454312e-05 -6.5007203375e-05 -4.8402580433e-05 -4.2528878112e-05 -4.4293366955e-05 
-3.8854919694e-05 -2.9227534469e-05 -3.2988511521e-05 -2.6217210689e-05 -1.9509307094e-05 -1.6916821551e-05 -2.4206090529e-05 -3.2269348594e-05 -3.862430458e-05 
-4.0991777496e-05 -4.2168885557e-05 -4.205852747e-05 -3.8967504224e-05 -2.2375859771e-05 -1.7326311763e-06 1.3861854313e-05 6.6331026574e-06 -2.5263077532e-06 
-1.2522285033e-05 -1.667331162e-05 -1.8452270524e-05 -1.849578257e-05 -2.184738878e-05 -2.524248157e-05 -2.4429946279e-05 -2.4499811843e-05 -2.6449706638e-05 
-3.0935450923e-05 -4.0512422856e-05 -5.1764047384e-05 -5.188092473e-05 -4.6300818212e-05 -3.6421963159e-05 -2.8932463465e-05 -2.3570461053e-05 -1.9042572603e-05 
-1.897504626e-05 -1.8891265427e-05 -1.7515689251e-05 -1.2938586224e-05 -8.161329788e-06 -4.9916593525e-06 -1.6873170807e-06 -1.3942855048e-06 2.1855157684e-06 
4.0811810322e-06 8.3975464804e-06 8.3885879576e-06 3.9725146053e-06 -2.9542500215e-06 -9.5848199635e-06 -1.9047907699e-05 -2.8887267035e-05 -3.7954621803e-05 
-4.949346112e-05 -5.9468115069e-05 -6.9249297667e-05 -7.865234511e-05 -8.4004546807e-05 -8.0318546679e-05 -6.9231056841e-05 -5.8302222897e-05 -4.6504781494e-05 
-3.5624641896e-05 -2.1992571419e-05 -2.1380590624e-05 -2.4557431971e-05 -1.782250547e-05 -7.8376369856e-06 -2.2793625476e-07 2.5338492833e-06 1.0738679066e-06 
-8.8868928287e-06 -2.390251575e-05 -2.2214440833e-05 -2.0807397959e-05 -2.01539915e-05 -1.9478053218e-05 -1.4831402041e-05 -1.5177119167e-05 -1.6671212506e-05 
-3.8354275603e-05 -4.3766471208e-05 -4.6621975343e-05 -4.0851657104e-05 -2.4979446607e-05 -1.8610120605e-05 -2.7778387448e-05 -3.403465962e-05 -3.8595520891e-05 
-3.4344240703e-05 -2.8192125683e-05 -2.3005304683e-05 -2.1337118596e-05 -2.5311695936e-05 -3.14738827e-05 -3.4091783164e-05 -3.794299846e-05 -3.4082782804e-05 
-2.9301034374e-05 -2.650629358e-05 -2.1131392714e-05 -1.5635914679e-05 -1.4749566617e-05 -1.7933467461e-05 -2.134080205e-05 -2.1213863874e-05 -1.669498306e-05 
-1.6907450117e-05 -1.6228830646e-05 -1.4806355466e-05 -2.0389075871e-05 -3.6231176637e-05 -5.6350654631e-05 -6.5705477027e-05 -5.8186440583e-05 -3.9239450416e-05 
-2.7511385269e-05 -3.0782630347e-05 -3.3855405491e-05 -3.128755634e-05 -2.5820741939e-05 -2.5987126719e-05 -2.9038046705e-05 -2.1002746507e-05 -1.5656072719e-05 
-9.510059499e-06 -1.0567154277e-05 -2.1544221454e-05 -3.3068125049e-05 -4.361709216e-05 -4.5671768021e-05 -4.4123898988e-05 -4.3942774937e-05 -4.5048516768e-05 
-4.500826617e-05 6.721394584e-06 -1.6478650195e-06 -8.7116941359e-06 -1.4393320271e-05 -2.1049843781e-05 -2.0721194232e-05 -1.959826659e-05 -1.969641562e-05 
-1.8347764126e-05 -1.9112492737e-05 -1.9396584321e-05 -2.237661829e-05 -2.8190030207e-05 -3.7295667425e-05 -4.9438214774e-05 -5.644950943e-05 -5.3266347095e-05 
-4.6868692152e-05 -3.8877347833e-05 -3.4655135096e-05 -2.8987182304e-05 -2.6204341339e-05 -2.7072839657e-05 -2.3785041776e-05 -2.0865689294e-05 -1.5638348486e-05 
-1.0931243196e-05 -5.5204232012e-06 2.2225872272e-06 2.0798422611e-06 1.0977274769e-06 1.5490647911e-06 4.60070396e-06 4.9071622925e-06 8.6118575382e-07 
-6.1662512962e-06 -1.5890947907e-05 -2.5646140784e-05 -3.4715452784e-05 -4.1517931095e-05 -4.8969282943e-05 -6.2229017203e-05 -7.1850510722e-05 -7.6917196566e-05 
-8.1291596871e-05 -8.1258622231e-05 -7.656908565e-05 -6.7662112997e-05 -5.6632048654e-05 -4.83934964e-05 -3.4523636714e-05 -2.2667594749e-05 -1.1885513231e-05 
-1.027491453e-05 -8.4176508608e-06 -3.4363044961e-06 -2.8171258236e-05 -1.8487435227e-05 -2.6673771572e-05 -3.2678370189e-05 -3.9447291783e-05 -4.28178937e-05 
-4.1800980398e-05 -3.0304408938e-05 -2.756142203e-05 -3.3935779356e-05 -3.9564896724e-05 -4.2464220314e-05 -4.0181985241e-05 -3.5969653254e-05 -3.2836898754e-05 
-3.1110059354e-05 -3.4173535823e-05 -3.6287077819e-05 -3.5340755858e-05 -3.2597112295e-05 -2.4589664463e-05 -2.3990958653e-05 -2.1565569114e-05 -1.7752947315e-05 
-1.5689618522e-05 -1.581318611e-05 -1.9140235963e-05 -2.3518570742e-05 -2.4078652132e-05 -2.4647435566e-05 -2.788835809e-05 -2.9884335163e-05 -2.949829468e-05 
-3.4023498301e-05 -4.6272805776e-05 -6.1264756368e-05 -6.0978414695e-05 -4.9060519814e-05 -3.1043549825e-05 -1.7547907191e-05 -2.2312906367e-05 -2.572707308e-05 
-2.32681341e-05 -2.0862609745e-05 -2.3849856007e-05 -2.4775210477e-05 -2.2423162591e-05 -1.9189888917e-05 -1.6919309928e-05 -1.7004573238e-05 -1.7001388187e-05 
-2.1865005692e-05 -2.929780203e-05 -3.0675499147e-05 -2.5266484954e-05 -2.3472886824e-05 -1.8971204554e-05 -1.303695808e-05 -1.1271605217e-05 -1.0361539353e-05 
-1.0572381143e-05 -1.4249109881e-05 -1.7066271539e-05 -1.5184503354e-05 -5.4999431995e-06 -8.3896620708e-06 -1.7749218387e-05 -3.1923234928e-05 -4.328209252e-05 
-4.7485260438e-05 -4.7332632676e-05 -4.5186276111e-05 -4.6401994041e-05 -5.2942643379e-05 -5.2266223065e-05 -4.1645638703e-05 -2.0265331841e-05 -5.6532639974e-06 
-3.4794579733e-06 -1.0423251297e-05 -1.1986626305e-05 -1.8766964786e-05 -2.2811331291e-05 -2.2425119823e-05 -2.1781783289e-05 -1.8469847419e-05 -1.7673621187e-05 
-1.5773523046e-05 -1.7201826267e-05 -2.5401228413e-05 -3.4187080018e-05 -4.2858995585e-05 -5.4962198192e-05 -5.7602039305e-05 -5.403997784e-05 -3.8222515286e-05 
-3.2308638765e-05 -1.6394398699e-05 -1.6982536181e-05 -4.53348257e-05 -5.1481005357e-05 -3.1062420021e-05 -2.5682817068e-05 -2.1342488253e-05 -1.6203373889e-05 
-9.5232699096e-06 -4.2766637307e-06 2.5072652079e-06 3.5022519569e-06 5.4027111673e-07 4.990846719e-06 3.9068349906e-06 -3.2402076044e-07 -6.9050088314e-06 
-1.6409141608e-05 -2.7950423828e-05 -3.9779701183e-05 -4.89228878e-05 -5.0094138714e-05 -5.2847644838e-05 -6.6648157372e-05 -7.5999567343e-05 -7.8297736763e-05 
-7.74874934e-05 -7.2258844739e-05 -6.4933185058e-05 -6.046181079e-05 -4.7637171519e-05 -3.6770008592e-05 -2.2631367756e-05 -1.4267746337e-05 -5.6053318076e-06 
-5.1246402109e-06 -4.8256147238e-06 -2.4149005185e-05 -3.0127188438e-05 -3.4384687751e-05 -3.9583279431e-05 -4.0878938307e-05 -3.4198426874e-05 -3.4411554225e-05 
-4.053720113e-05 -4.3371390348e-05 -4.6241708333e-05 -4.4197982788e-05 -4.1866933316e-05 -4.1204471927e-05 -4.0220009396e-05 -3.8770238461e-05 -3.3264896047e-05 
-2.5299796107e-05 -1.8646118406e-05 -2.0813016818e-05 -1.7249711163e-05 -1.5829837139e-05 -1.608292223e-05 -1.6986572518e-05 -2.0152125217e-05 -2.5521416319e-05 
-3.0153974876e-05 -3.446802657e-05 -4.0944098146e-05 -4.4182961574e-05 -4.4924345275e-05 -4.6627592383e-05 -5.3478011978e-05 -6.2697203248e-05 -6.0463960835e-05 
-4.6864352043e-05 -2.8933063732e-05 -1.3451964151e-05 -1.326839174e-05 -1.7841199224e-05 -1.6398118532e-05 -1.5725334379e-05 -2.2128799174e-05 -2.4007309548e-05 
-2.5645687856e-05 -2.6167901524e-05 -2.9944159905e-05 -3.2937779906e-05 -3.4078744648e-05 -3.4513701394e-05 -3.5246517655e-05 -3.3202533814e-05 -2.8230637326e-05 
-2.4184431823e-05 -1.9733717636e-05 -1.4962389287e-05 -1.0632274098e-05 -8.575620086e-06 -1.0792711691e-05 -9.7266356534e-06 -1.4744241525e-05 -1.7777620087e-05 
-1.7819629647e-05 -2.0083993149e-05 -4.0987139073e-05 -4.4126449211e-05 2.0370375751e-06 4.2234646003e-07 -4.093594157e-07 -7.4367389971e-06 -1.499499831e-05 
-2.5148658096e-05 -3.7149464333e-05 -5.0941722293e-05 -5.5626020185e-05 -5.3203111747e-05 -5.5733504269e-05 -6.6825123213e-05 -7.5789313996e-05 -7.5382027717e-05 
-7.2092232585e-05 -6.3092709752e-05 -5.1563642046e-05 -5.0576240028e-05 -4.6324594223e-06 -1.4698339328e-05 -2.8185126212e-05 -4.0942733904e-05 -4.9096473958e-05 
-4.9777998356e-05 -4.818063826e-05 -4.8433677875e-05 -4.9852496886e-05 -5.4149222706e-05 -4.9272068281e-05 -4.7266647016e-05 -4.0919327148e-05 -2.5008337616e-05 
-1.2683647583e-05 -1.4015618945e-05 -1.5706295017e-05 -1.9294311642e-05 -2.4172948542e-05 -2.3792246793e-05 -2.3748225431e-05 -2.045331712e-05 -1.7900401872e-05 
-1.7411599401e-05 -1.6916150344e-05 -1.8182070562e-05 -1.436553157e-05 -1.3767255041e-05 -1.4423656467e-05 -2.2147201889e-05 -3.2254392863e-05 -3.5847955587e-05 
-3.0078746931e-05 -1.8343795091e-05 -1.041102314e-05 -5.0266949074e-06 -2.5891264158e-05 -3.0410208637e-05 -3.6037650716e-05 -3.9113794628e-05 -3.6114117393e-05 
-3.9210026443e-05 -4.4975749915e-05 -4.5854292694e-05 -4.6619203204e-05 -4.6339915571e-05 -4.5419266826e-05 -4.7047444241e-05 -4.3206284317e-05 -3.7780246203e-05 
-2.9102280678e-05 -1.9449469619e-05 -1.5622194041e-05 -1.6195568605e-05 -1.4150848074e-05 -1.4169806491e-05 -1.6014371795e-05 -1.7479922462e-05 -2.1282390662e-05 
-3.9886697778e-05 -4.6788045438e-05 -5.395070184e-05 -5.6782730098e-05 -5.6617747759e-05 -5.5905358749e-05 -5.7213903347e-05 -5.8429446653e-05 -4.4308282668e-05 
-2.4348351872e-05 -1.1867191461e-05 -7.2228103818e-06 -9.318919183e-06 -8.1087300714e-06 -1.0604210729e-05 -1.8948991055e-05 -3.3058848203e-05 -2.7643816793e-05 
4.2146230044e-06 7.065709724e-06 -6.5275824454e-05 -6.4889507485e-05 -2.4476286853e-05 -2.766822945e-05 -3.0266737667e-05 -3.6097484553e-05 -3.986883894e-05 
-4.1935258196e-05 -4.0905273636e-05 -3.9362839743e-05 -3.6092791561e-05 -2.9931361496e-05 -2.5509105399e-05 -2.0806986868e-05 -1.6378789951e-05 -1.3223262613e-05 
-7.951994121e-06 -1.1743480172e-05 -1.2248233361e-05 -1.219398473e-05 -1.5818530301e-05 -1.7949951143e-05 -4.979350706e-05 -5.67570969e-05 -5.7453329646e-05 
-5.7213863329e-05 -5.367338963e-05 -5.1970248023e-05 -4.3866966735e-05 -3.8693629904e-05 -3.2442578231e-05 -3.633012966e-05 -4.3083924538e-05 -4.7039698984e-05 
-4.85376695e-05 -2.4583348932e-05 -1.7561105778e-05 -1.4453460608e-05 -1.1700050891e-05 -1.107992648e-05 -1.1441291463e-05 -1.6351857994e-05 -3.7997124309e-05 
-4.5313216106e-05 -3.9509184717e-05 -3.2334970456e-05 -2.6708652513e-05 -2.0649578801e-05 -1.7173253582e-05 -1.3745499018e-05 -8.526790225e-06 -1.1069309039e-05 
-1.4645379451e-05 -1.6128919015e-05 -1.667635479e-05 -1.2685266483e-05 -1.2704427718e-05 -1.6977472114e-05 -2.2200229068e-05 -3.7794263335e-05 -3.6281137e-05 
-2.2495529265e-05 -2.7157544537e-05 -3.2053012546e-05 -3.5361012124e-05 -3.5452547309e-05 -4.0234226617e-05 -4.8411915486e-05 -4.7687757615e-05 -2.6264739063e-05 
-2.4900833523e-05 -2.341209256e-05 -2.0354464141e-05 -1.8980335881e-05 -4.372938929e-05 -2.9304477721e-05 -2.1331812604e-05 -2.1131396352e-05 -2.3293127015e-05 
-1.1277770682e-05 -1.1712731975e-05 -1.6227199012e-05 -1.7731385014e-05 -2.4234230295e-05 -3.595220187e-05 -4.6347930038e-05 -5.4941836424e-05 -5.2958130254e-05 
-5.0919305068e-05 -4.6462180762e-05 -4.4395565055e-05 -4.8697773309e-05 -4.9450325605e-05 -4.9801110436e-05 -3.5512016439e-06 -1.2811760826e-05 -2.5049785108e-05 
-3.9063135773e-05 -4.8521724239e-05 -5.1794031606e-05 -3.4446809877e-05 -5.0098868087e-05 -3.9538655983e-05 -4.4781972974e-05 -5.1148766943e-05 -5.8689493017e-05 
-6.3669256633e-05 -6.6840555519e-05 -6.4956249844e-05 -6.2495862949e-05 -6.1779945099e-05 -6.2983337557e-05 -6.7112108809e-05 -7.0609443355e-05 -6.4920481236e-05 
-5.2812862123e-05 -3.7998906919e-05 -2.0235482225e-05 -8.9707282314e-06 -7.1543172453e-06 1.927852793e-07 -9.5377583875e-07 -5.9977055571e-06 -5.0906328397e-05 
-4.8726054956e-05 -4.8367233831e-05 1.6874996618e-06 9.2749667147e-07 -3.5951226891e-05 3.8514431253e-06 2.5267388537e-06 -9.6344115263e-07 -7.0747864811e-06 
-1.2536865142e-05 -2.208458136e-05 -3.23472741e-05 -4.4875927415e-05 -5.8962727053e-05 -6.069185838e-05 -6.746112922e-05 -7.2990857007e-05 -7.3076975241e-05 
-6.7032291554e-05 -5.8459238062e-05 -4.9910086091e-05 -2.6227777198e-05 -1.5043572603e-05 -9.4941442512e-06 -7.8203202065e-06 -5.3248768381e-05 -6.1292776081e-05 
-6.74672483e-05 -7.100480434e-05 -7.172820915e-05 -6.7951019446e-05 -6.4590305556e-05 -6.4274776378e-05 -6.464280159e-05 -6.0237056459e-05 1.1416849475e-06 
-4.6260640374e-05 -3.2649317291e-05 -1.9943019652e-05 -7.2485013334e-06 -6.0377319642e-06 -2.0084113203e-05 -9.1521842478e-06 -4.4776224968e-05 -3.4752760257e-05 
-2.5337802072e-05 -2.2955735403e-05 -2.1296216801e-05 -1.7984455553e-05 -2.7793657864e-05 -3.9234550059e-05 -4.2704010411e-05 -3.3686788811e-05 -2.6562544008e-05 
-2.0943136406e-05 -1.6368134311e-05 -1.3458110516e-05 -5.6940694776e-05 -6.1421611463e-05 -4.4827011152e-05 -6.8593413744e-05 -5.0609978643e-05 -6.117310113e-05 
-5.0654085499e-05 -6.5081258072e-05 -4.8066493036e-05 -6.4118336013e-05 -3.957496665e-05 -6.7862194555e-05 -2.998587297e-05 -2.2477021048e-05 -1.6178526494e-05 
-1.4193323295e-05 -6.984040283e-06 -7.0745481935e-05 -2.2769487259e-05 -2.3715545467e-05 -2.9591743441e-05 -1.3031230992e-05 -3.1958115869e-05 -1.6887635866e-05 
-4.0088612877e-05 -2.0137469619e-05 -2.579095235e-05 -3.4552689613e-05 -4.664320295e-05 -4.3144806114e-05 -4.8343939852e-05 -2.5729263143e-05 -2.3990905902e-05 
-2.834884981e-05 -1.9670593247e-05 -2.6156238164e-05 -3.1306124583e-05 -2.7761156161e-05 -2.9749233363e-05 -2.7511267035e-05 -5.1402163081e-05 -4.9552272685e-05 
-5.1624680054e-05 -5.0495440519e-05 -1.4461375031e-05 -7.0839528235e-06 -5.7462922996e-05 -6.7500812293e-05 
Stress_Y 1 1059 double
4.5839104132e-05 2.5041346817e-05 1.2043846255e-05 3.7377626541e-06 -2.5284557523e-06 -1.2192916074e-05 -1.8920522052e-05 -3.0877115933e-05 -5.0538623327e-05 
-5.5688302382e-05 -4.6835801186e-05 -3.3173819247e-05 -2.432153633e-05 -1.8567947336e-05 -8.3434179032e-06 -2.3869877168e-06 -3.6926062421e-06 -9.6100638984e-06 
-1.3353669601e-05 -2.0228513677e-05 -2.7808489904e-05 -3.509626913e-05 -3.8804038923e-05 -4.3505646317e-05 -4.5210763346e-05 -5.0160615501e-05 -4.7135614295e-05 
-2.5666045985e-05 -5.9858002714e-06 8.7780599642e-06 1.956136839e-05 2.1743589969e-05 2.6534413337e-05 3.8260113797e-05 3.7931578845e-05 2.9658058338e-05 
3.1114643207e-05 2.9260712836e-05 2.352842057e-05 9.6904204838e-06 -1.3318143829e-05 -3.6612214899e-05 -6.3421524828e-05 -9.2013637186e-05 -0.00011620811711 
-0.00012458473793 -0.00011327614629 -8.4357372543e-05 -5.4735635786e-05 -3.7108307879e-05 -2.2591368179e-05 -1.2372430319e-05 -4.5027636588e-06 5.0937956075e-06 
1.9494022126e-05 4.7149664169e-05 -3.6470370105e-05 -2.3974878786e-05 -1.9644527129e-05 -1.1261987311e-05 -2.6845232242e-06 -8.617849403e-07 4.9530945034e-06 
6.9243869802e-06 7.2727075349e-06 -2.8692929277e-07 -8.7895468823e-06 -2.1246896722e-05 -3.309090971e-05 -4.6113884309e-05 -5.9594211052e-05 -7.4188115832e-05 
-9.1396846983e-05 -9.4721974165e-05 -7.1122027293e-05 -3.1692870834e-05 -1.019794945e-05 7.7606919149e-06 2.7010735721e-05 3.6752375308e-05 3.606104292e-05 
2.612591561e-05 1.9601813619e-05 1.8373673811e-05 2.7463531296e-05 4.6326367737e-05 5.1446000725e-05 4.1591883928e-05 4.2636241915e-07 1.0867925084e-05 
-1.4013009604e-05 -4.2470641347e-05 -6.8324698077e-05 -7.6944306784e-05 -7.1874746936e-05 -5.9574860643e-05 -5.8712510508e-05 -5.6286826293e-05 -4.9481219321e-05 
-4.0172733861e-05 -2.7802292607e-05 -1.5217739019e-05 -4.6884438234e-06 6.6720394898e-06 6.3985007728e-06 7.787186405e-06 5.8204591369e-06 -1.6813567072e-06 
-8.5420042524e-06 -1.1485139112e-05 -3.1830451917e-05 -3.3101827285e-05 -2.5374049073e-05 -3.4167402191e-05 -2.4263241357e-05 -2.3962205887e-05 -2.2932919819e-05 
-2.6487425203e-05 -3.2227613701e-05 -4.0265065763e-05 -6.309057062e-05 -8.048293239e-05 -8.5288054834e-05 -8.1244987086e-05 -7.1174676123e-05 -6.1440972786e-05 
-5.2020768635e-05 -4.8746584071e-05 -5.1204388001e-05 -5.789865827e-05 -5.8594527218e-05 -6.0029946326e-05 -5.9783575125e-05 -6.2755789259e-05 -6.2722392613e-05 
-5.1806764532e-05 -4.1131774196e-05 -2.9909733712e-05 -2.9574954169e-05 -3.0639217584e-05 -2.4603785278e-05 -2.0175595637e-05 -1.9860410248e-05 -2.1981453756e-05 
-2.3890839657e-05 -2.5052306228e-05 -2.8334465242e-05 -2.9227239793e-05 -2.8413040127e-05 -3.4285149013e-05 -4.4129901653e-05 -5.6895976741e-05 -6.7591521656e-05 
-7.9885030573e-05 -9.214990132e-05 -9.8395386885e-05 -0.00010274698434 -0.00010562755779 -0.00011167587945 -0.00011488428572 -0.00011219533189 -9.4922485005e-05 
-7.5032869063e-05 -5.689156751e-05 -4.1735245759e-05 -3.2159317925e-05 -2.5564228054e-05 -2.5448549422e-05 -2.8292801289e-05 -2.8922750062e-05 -2.6633821108e-05 
-3.532291521e-05 -4.0436087147e-05 -3.9650774852e-05 -3.703263792e-05 -3.7513444113e-05 -3.8623362343e-05 -4.717673437e-05 -5.9928344854e-05 -7.8973775089e-05 
-9.2137728643e-05 -9.4837021607e-05 -9.6356052381e-05 -9.9781085737e-05 -0.00010084534006 -9.3172886409e-05 -7.5708579971e-05 -5.6427517848e-05 -3.9511767682e-05 
-3.1185558328e-05 -2.739120464e-05 -2.3898828658e-05 -1.9263676222e-05 -1.756558413e-05 -1.9988772692e-05 -2.2588403226e-05 -2.8016193028e-05 -2.9876842746e-05 
-3.1309966289e-05 -2.6577423341e-05 -2.400678386e-05 -2.187728569e-05 -3.9179129089e-05 -4.6061948524e-05 -6.1048180214e-05 -7.2808172263e-05 -8.1205456809e-05 
-8.6760330305e-05 -8.9754903456e-05 -8.7180982518e-05 -8.8217340817e-05 -9.1263078502e-05 -8.946825983e-05 -8.2499282144e-05 -6.8766457844e-05 -5.6335582485e-05 
-5.3007814131e-05 -4.7903631639e-05 -4.1835544835e-05 -3.6730671127e-05 -2.867533658e-05 -2.2239020836e-05 -9.026578482e-06 -8.1869593487e-06 -3.2572088458e-06 
1.1416607322e-06 -1.5976858776e-05 -2.4571470931e-05 -2.59450062e-05 -2.8099784686e-05 -3.3525051549e-05 -4.0739934775e-05 -5.288954344e-05 -7.114836626e-05 
-8.6899584858e-05 -9.3442096841e-05 -9.3263523013e-05 -8.9707325969e-05 -8.36424515e-05 -8.3652288595e-05 -8.3620478108e-05 -8.5352432507e-05 -8.0628808064e-05 
-7.6399315731e-05 -7.2111310146e-05 -7.0488182246e-05 -6.9669869845e-05 -6.5463769715e-05 -4.2337862396e-05 -3.750596079e-05 -3.3136755519e-05 -2.5793691748e-05 
-1.9790149963e-05 -1.6725640307e-05 -1.7346568711e-05 -2.0242845494e-05 -2.4416351152e-05 -2.7564832635e-05 -3.1756346289e-05 -4.0510516556e-05 -4.8405021516e-05 
-5.2736359066e-05 -5.9700738348e-05 -6.998932804e-05 -8.2411090261e-05 -9.1780646471e-05 -9.8654956673e-05 -9.9744072941e-05 -9.7410462331e-05 -0.00011427371646 
-0.00011718554742 -0.00011270319374 -9.7562580777e-05 -7.9121542512e-05 -5.6929729908e-05 -4.1108829464e-05 -2.9952929253e-05 -2.1640680643e-05 -2.007502917e-05 
-1.8280177756e-05 -1.9564795366e-05 -2.278420834e-05 -4.9082704209e-05 -5.3463620134e-05 -0.00010542145174 -8.9554639999e-05 -3.3097247069e-05 -3.7508249079e-05 
-3.6556404666e-05 -3.5677978303e-05 -3.5047451092e-05 -4.0251532482e-05 -5.4764928791e-05 -7.8814133303e-05 -0.0001009020998 -0.00011338958575 -0.0001137451909 
-0.00011317226017 -0.00010710178321 -9.7858843219e-05 -8.3355160314e-05 -6.8468332756e-05 -5.50132645e-05 -4.1409413825e-05 -3.1900210161e-05 -2.5609633667e-05 
-2.0379191483e-05 -1.3477337234e-05 -9.9553080872e-06 -1.3591140487e-05 -1.5949894077e-05 -2.0235695047e-05 -2.427641266e-05 -2.6195715691e-05 -2.8757747714e-05 
-3.0412064007e-05 -4.0273618652e-05 -5.025253995e-05 -6.1325234128e-05 -7.2635157267e-05 -7.9653858847e-05 -8.5578692961e-05 -9.454604151e-05 -0.00010390196985 
-0.00011174517567 -0.00011555990204 -0.00011920888937 -0.00012234432506 -0.00011635677947 -9.9689292256e-05 -8.1366095401e-05 -6.5913336584e-05 -4.942295709e-05 
-3.8614834921e-05 -3.1186122214e-05 -2.3894839615e-05 -1.6675465304e-05 -5.8637092479e-06 -1.1039022866e-05 -2.3340517146e-05 -1.3285318346e-05 -1.7375292373e-05 
-2.1677373297e-05 -2.4947446946e-05 -8.279519534e-05 -8.7875057943e-05 -9.9087730632e-05 -0.00010202234262 -9.9026729004e-05 -8.9117551397e-05 -7.5098309026e-05 
-5.7755554735e-05 -4.2263389332e-05 -2.9030195947e-05 -2.0927915102e-05 -2.1581910914e-05 -2.0131110432e-05 -1.8044203898e-05 -2.5871977414e-05 -2.9992879718e-05 
-3.4730946936e-05 -3.8126399886e-05 -4.5703731303e-05 -5.6638920796e-05 -7.4691582995e-05 -8.90360825e-05 -9.4230548711e-05 -9.5616473118e-05 -9.5317322121e-05 
-9.7343385278e-05 -0.000101951533 -0.00010659776308 -0.00010146186833 -9.3289003416e-05 -8.5748288257e-05 -8.4465820692e-05 -8.1757796579e-05 -7.7218828665e-05 
-6.8714849476e-05 -6.0782891524e-05 -5.1040249673e-05 -4.4803848141e-05 -3.8721642341e-05 -3.5898981878e-05 -3.0399283787e-05 -2.7592403057e-05 -2.0489551389e-05 
-1.6670192053e-05 -1.483777487e-05 -1.7754122382e-05 -2.3402715669e-05 -2.9796508898e-05 -3.5162483982e-05 -4.3112493586e-05 -5.3892963479e-05 -6.6393440648e-05 
-7.6101481682e-05 -8.1110396422e-05 -8.5822139226e-05 -9.2205147666e-05 -0.00010025332449 -0.00010255247616 -9.7039170214e-05 -8.9383094746e-05 -8.3764716692e-05 
-8.3314684161e-05 -8.494015492e-05 -8.2960905274e-05 -3.2787869714e-05 -3.360491246e-05 -3.4520453482e-05 -3.839393321e-05 -4.7783370974e-05 -6.4221167122e-05 
-8.7833854195e-05 -0.00011841027299 -0.00012653401063 -0.00011851693125 -0.0001087553901 -0.00010027585813 -8.7058266217e-05 -7.4809002399e-05 -6.3003586547e-05 
-3.8541802496e-05 -3.1069437682e-05 -2.6367955797e-05 -2.1480862415e-05 -1.4375069441e-05 -1.188223905e-05 -1.4736158846e-05 -1.5967856598e-05 -2.2074187655e-05 
-2.4963776013e-05 -2.6644313039e-05 -2.9863591408e-05 -3.4643777326e-05 -4.5252822019e-05 -5.5039869039e-05 -6.2847968366e-05 -7.4116323958e-05 -8.0003286712e-05 
-8.8085049356e-05 -9.829850751e-05 -0.00010802415636 -0.00011730932601 -0.00012584034994 -0.00013320808648 -0.00013764541654 -0.00013295575627 -0.00011661143071 
-9.9568685982e-05 -7.97910252e-05 -6.0746715462e-05 -4.5531400247e-05 -3.6324039684e-05 -2.7583828341e-05 -1.5331339455e-05 -5.7759193623e-06 -9.9322987808e-06 
-2.3435133699e-05 -1.7542935893e-05 -1.413112841e-05 -1.7177224436e-05 -2.2403788535e-05 -2.9607164834e-05 -4.561451351e-05 -5.387379133e-05 -8.243710181e-05 
-8.1898680946e-05 -7.862730854e-05 -7.3504663305e-05 -6.5538857598e-05 -6.0596019466e-05 -4.9221875088e-05 -3.7823985622e-05 -2.908053284e-05 -2.0258681616e-05 
-1.7820440917e-05 -1.8776385332e-05 -2.6320996767e-05 -3.1617015338e-05 -3.5153367207e-05 -4.1268784116e-05 -4.789875311e-05 -5.8795401856e-05 -7.3727249401e-05 
-8.3070066466e-05 -8.8314372988e-05 -9.105951176e-05 -9.4194183475e-05 -9.8886543128e-05 -0.00010594226478 -0.0001089912912 -0.0001054686436 -9.7617230495e-05 
-9.4125956821e-05 -9.1915964731e-05 -8.7852778961e-05 -8.0619574874e-05 -7.3757430073e-05 -6.713798939e-05 -5.7502551499e-05 -4.8525165766e-05 -4.1884486564e-05 
-3.8008573028e-05 -3.1455980206e-05 -2.6394944143e-05 -2.5741792342e-05 -2.4782742912e-05 -2.1855928935e-05 -1.64653502e-05 -1.5339101083e-05 -1.9081453502e-05 
-2.4825629225e-05 -3.3016334783e-05 -4.1718132707e-05 -5.0494036259e-05 -5.9716629039e-05 -7.2087110311e-05 -8.5311570729e-05 -9.2156864412e-05 -9.4044218713e-05 
-9.6738767752e-05 -9.8735552456e-05 -0.00010011257837 -9.5843541203e-05 -8.8243970822e-05 -8.6446554633e-05 -8.5669700638e-05 -9.0564150014e-05 -9.054603288e-05 
-8.7798500317e-05 -8.215100388e-05 -1.724807953e-05 -1.3951740584e-05 -4.9666668929e-05 -4.6179735364e-05 -3.8093516196e-05 -3.2403710065e-05 -2.7274758395e-05 
-2.3230935767e-05 -1.6869167666e-05 -1.4916729015e-05 -1.5396441086e-05 -1.5887895643e-05 -2.02021929e-05 -2.3527138183e-05 -2.5382456442e-05 -2.856336323e-05 
-3.3882857679e-05 -4.5528468036e-05 -5.2179762861e-05 -5.9472688008e-05 -7.079882198e-05 -7.989093865e-05 -8.8370543381e-05 -9.6958370705e-05 -0.0001058712005 
-0.00011650187662 -0.00012580541079 -0.00013362967002 -0.00013976001355 -0.00013649350149 -0.00012249716383 -0.00010800298332 -9.0705550974e-05 -7.1119218774e-05 
-5.4150368669e-05 -3.8581398258e-05 -2.9682907552e-05 -1.4939562789e-05 -5.2584027799e-06 -1.0399821804e-05 -1.9330509531e-05 -1.9051687559e-05 -1.5097380128e-05 
-1.5587313101e-05 -2.0774525183e-05 -2.7287676858e-05 -3.077760266e-05 -3.2865824323e-05 -3.8703114114e-05 -4.7610592446e-05 -6.0787144321e-05 -7.830868708e-05 
-0.00010065230163 -0.00012406105816 -0.00013220198161 -0.00011932696361 -0.00010696089157 -9.4213435659e-05 -8.3909188106e-05 -7.6415701187e-05 -6.4438791014e-05 
-5.8662695665e-05 -5.6667198805e-05 -5.4840216762e-05 -4.446922685e-05 -8.0128462287e-05 -7.299468416e-05 -6.1406601162e-05 -5.1040024118e-05 -4.6524957725e-05 
-4.1042585508e-05 -3.4272186895e-05 -2.8050852052e-05 -2.2729986085e-05 -1.9400686142e-05 -1.4779627236e-05 -9.5177683761e-06 -1.1920964425e-05 -1.8944319891e-05 
-2.1439122065e-05 -2.7602181945e-05 -3.048774488e-05 -3.5570967157e-05 -4.1451581637e-05 -4.7193912906e-05 -5.7196513808e-05 -6.7684937676e-05 -7.618246309e-05 
-8.0988764239e-05 -8.6922649643e-05 -9.383384895e-05 -9.926520579e-05 -0.00010369137453 -0.00010240903794 -9.9744895124e-05 -9.8993710708e-05 -8.7750129751e-05 
-7.8984165157e-05 -7.7738484833e-05 -7.1066111559e-05 -9.6993178886e-05 -0.00010455033771 -6.5917876782e-05 -5.4504758737e-05 -4.4321466703e-05 -3.9597096475e-05 
-3.2487998396e-05 -2.9251876185e-05 -2.596122431e-05 -2.356152072e-05 -2.3756536393e-05 -1.8543332772e-05 -1.4061910406e-05 -1.5911708033e-05 -2.076234523e-05 
-2.7746960768e-05 -3.6188503145e-05 -4.5575525291e-05 -5.8097211877e-05 -6.4233587182e-05 -7.0710637374e-05 -8.3695820649e-05 -9.1476511443e-05 -9.5307368611e-05 
-9.8604803497e-05 -9.9957200291e-05 -9.6195741207e-05 -9.2161630164e-05 -9.1036890808e-05 -9.5799383416e-05 -9.344224236e-05 -9.2183137895e-05 -8.4502644313e-05 
-8.6327556346e-05 -8.6540916527e-05 -4.3312920752e-05 -4.035564416e-05 -3.5170211049e-05 -3.1367282645e-05 -2.670343747e-05 -1.921209514e-05 -1.6994323232e-05 
-1.6577207134e-05 -1.5311685274e-05 -2.0348323233e-05 -2.3334918296e-05 -2.4045893952e-05 -2.5168446882e-05 -4.045762762e-05 -4.7463188821e-05 -5.6207518355e-05 
-6.9167479523e-05 -7.855163858e-05 -8.7405103841e-05 -9.3307098723e-05 -0.00010055057646 -0.00011082609853 -0.00011967367027 -0.00012345398136 -0.00012808841711 
-0.00012834345398 -0.0001197110978 -0.00011036093201 -9.6230454801e-05 -8.0839745351e-05 -6.4512372774e-05 -4.6492525144e-05 -3.2524276321e-05 -1.9280874767e-05 
-1.1302754501e-05 -1.6874635548e-05 -1.9187520593e-05 -1.7786960598e-05 -1.6468133254e-05 -1.6357180357e-05 -2.0109877369e-05 -2.7891612262e-05 -3.1055791624e-05 
-3.8059159124e-05 -4.7450092097e-05 -6.2396320573e-05 -8.0130877905e-05 -9.869983478e-05 -0.00011661640019 -0.00013216510706 -0.00013461348135 -0.00012269741273 
-0.00010908570403 -9.6429983387e-05 -8.5465340817e-05 -7.5163443398e-05 -6.9652611273e-05 -6.7500230216e-05 -6.6217893618e-05 -6.1739432567e-05 -5.3151947213e-05 
-5.0889611884e-05 -4.7607914894e-05 -3.41113373e-05 -2.875708924e-05 -2.4072820452e-05 -2.6059053198e-05 -1.1344630366e-05 -1.5895429897e-05 -2.1505342374e-05 
-2.8989890779e-05 -3.8678936107e-05 -4.9153157306e-05 -5.6431465055e-05 -6.4801439294e-05 -6.9639565481e-05 -7.935645408e-05 -8.9522975031e-05 -9.3839298643e-05 
-9.8583353974e-05 -0.00010012466373 -0.00010080946231 -0.00010049354023 -7.9471668869e-05 -6.5578169597e-05 -5.0648104661e-05 -4.2336432671e-05 -3.913574983e-05 
-3.2084833947e-05 -2.7834863431e-05 -2.3444641556e-05 -2.1090041628e-05 -2.2386757337e-05 -1.462939781e-05 -1.2753515875e-05 -1.2432987205e-05 -2.0264214982e-05 
-2.136146577e-05 -2.4623250283e-05 -2.8847896829e-05 -3.2238887798e-05 -4.1107741708e-05 -4.4832599087e-05 -5.4642423493e-05 -6.3209452492e-05 -6.6292581323e-05 
-6.2832790718e-05 -5.7602726883e-05 -6.2674153014e-05 -6.4709442086e-05 -6.917671999e-05 -7.6235592132e-05 -8.6644817202e-05 -7.3633811553e-05 -7.3382892879e-05 
-5.7105877204e-05 -3.6633126001e-05 -3.1420062442e-05 -2.8809508876e-05 -4.3874129915e-05 -3.8639518607e-05 -3.513538104e-05 -2.9995524528e-05 -2.2830334274e-05 
-1.9597962819e-05 -1.871106906e-05 -1.5132947738e-05 -1.7996455426e-05 -2.2364407414e-05 -2.1380350518e-05 -2.4228933398e-05 -3.9230089897e-05 -4.5600860176e-05 
-5.5450142099e-05 -6.9067828008e-05 -7.7044867794e-05 -8.2646627561e-05 -8.8821485406e-05 -9.6079042123e-05 -0.00010548216233 -0.00011315834854 -0.00011493957572 
-0.00011714093853 -0.00011272204574 -0.00010561729869 -9.4114773674e-05 -8.1854894233e-05 -6.9732959673e-05 -5.7874869526e-05 -2.3182014047e-05 -1.7119491531e-05 
-1.9619257728e-05 -2.312147808e-05 -2.1639580154e-05 -1.8398714019e-05 -1.5126785911e-05 -2.1571808247e-05 -2.9633300073e-05 -0.00011567627371 -0.00011170398648 
-1.608025741e-05 -1.1960683878e-05 -3.4989454434e-05 -5.0045946409e-05 -3.7365123717e-05 -4.5585606131e-05 -5.6660439441e-05 -7.259924314e-05 -8.8596716523e-05 
-0.00010592459148 -0.00011908602028 -0.0001312532695 -0.00013445469085 -0.0001247155742 -0.00011364522652 -0.00010242904682 -9.1428119049e-05 -8.352016448e-05 
-7.7012467955e-05 -7.709847705e-05 -7.2551891208e-05 -6.449141074e-05 -5.4864489357e-05 -5.2632705774e-05 -0.00010212675261 -0.00010327373457 -0.00010549571743 
-0.00011400909716 -0.00012314411288 -0.00011292572162 -9.6886200481e-05 -8.3265367721e-05 -5.9017715103e-05 -7.3688483099e-05 -9.2053509434e-05 -0.000109758912 
-0.00012344906281 -5.581538062e-05 -6.8180765084e-05 -7.5656040281e-05 -7.996797649e-05 -8.493745554e-05 -9.1122237791e-05 -0.00010255444795 -0.0001048842023 
-0.00013165043492 -0.00013183375995 -0.00012588327809 -0.00011697581795 -0.0001070685903 -9.8236079793e-05 -8.8963606686e-05 -8.1666214101e-05 -7.8303026385e-05 
-6.6112756031e-05 -5.8328609157e-05 -6.1482984165e-05 -6.3965693698e-05 -6.7834633228e-05 -7.860011101e-05 -8.6896267021e-05 -9.5987750683e-05 -9.6557036159e-05 
-4.6958539315e-05 -4.4023032387e-05 -4.1043742385e-05 -3.469866715e-05 -2.636130921e-05 -2.1030678909e-05 -2.184335608e-05 -1.6136042177e-05 -4.2461575504e-05 
-4.9237398343e-05 -5.8203389926e-05 -5.9212052292e-05 -5.6375560234e-05 -1.9228071324e-05 -2.2051162887e-05 -2.3491369575e-05 -2.7913862141e-05 -3.4276436054e-05 
-6.633643352e-05 -6.9892783358e-05 -7.8368226241e-05 -8.6296982772e-05 -9.67531887e-05 -0.00010529808787 -0.00010961144289 -0.00011057980737 -0.00011917970551 
-0.00012844678713 -1.6856056391e-05 -1.710919787e-05 -2.1217276299e-05 -2.2579968572e-05 -3.3060649002e-05 -7.8513352491e-05 -6.7103763286e-05 -5.2227424021e-05 
-4.2214469431e-05 -3.8098227378e-05 -3.3668267861e-05 -4.6932778787e-05 -2.3593125661e-05 -0.00010516680049 -0.00010927557014 -0.00010887183453 -0.000106255422 
-9.9381250038e-05 -9.0871319117e-05 -8.1956262875e-05 -7.4701703852e-05 -6.7958710133e-05 -6.3107072492e-05 -5.9753438109e-05 -4.8919748224e-05 -3.8080757804e-05 
-2.6442439776e-05 -2.0003199097e-05 -1.9197292204e-05 -2.066689558e-05 -2.3045204216e-05 -1.6798843717e-05 -1.8186734451e-05 -2.3279972083e-05 -2.3099242753e-05 
-2.1155858121e-05 -2.0393623345e-05 -1.9053994038e-05 -1.8247847038e-05 -0.00010025013034 -1.4610604012e-05 -1.674055784e-05 -1.4940610527e-05 -1.4636393644e-05 
-1.5560432075e-05 -2.1565381758e-05 -2.8669608582e-05 -3.8346355723e-05 -6.5685773734e-05 -7.2226604971e-05 -7.8765384387e-05 -8.7472013547e-05 -9.4759328931e-05 
-9.9516488262e-05 -0.0001014926529 -0.00010355962149 -0.00010424930224 -9.550491086e-05 -8.6890708189e-05 -7.8657030826e-05 -0.0001037750626 -0.00010382497567 
-9.8967640952e-05 -9.4362512755e-05 -9.0433728474e-05 -8.214841364e-05 -7.6690055721e-05 -7.3357812653e-05 -7.0881542342e-05 -6.4613152063e-05 -1.3454373402e-05 
-2.8947488317e-05 -2.1867324904e-05 -1.8287308194e-05 -1.8333124899e-05 -7.9884935985e-05 -4.9592224968e-05 -1.4581192772e-05 -2.3760176191e-05 -2.4554119591e-05 
-5.1594302931e-05 -5.4282092606e-05 -5.0430920965e-05 -1.6694337319e-05 -2.1971984097e-05 -2.8773325539e-05 -0.00012776975927 -0.00012269643776 -0.00011496405932 
-0.00010538799688 -9.5183284429e-05 -8.5867002781e-05 -4.853930659e-05 -5.6959957874e-05 -0.00011933764472 -5.6849279645e-05 -3.7548317778e-05 -4.8056896048e-05 
-3.4449323721e-05 -7.3860923294e-05 -3.796681267e-05 -7.6601078035e-05 -4.2045161535e-05 -8.003385301e-05 -4.7509540309e-05 -5.6673834479e-05 -6.6330729169e-05 
-7.5014322647e-05 -7.5023395766e-05 -8.4640385467e-05 -5.6036184105e-05 -4.8538870033e-05 -4.5896314987e-05 -7.6672949945e-05 -3.8227226469e-05 -8.6667605501e-05 
-2.5917588573e-05 -9.7085932794e-05 -0.00010692769865 -0.00011523840658 -3.4522723581e-05 -4.1331892135e-05 -3.7422745663e-05 -4.7947480198e-05 -4.344824265e-05 
-4.9913029216e-05 -0.00011072595225 -0.00010640658729 -2.717114694e-05 -2.614945879e-05 -4.4717955461e-05 -3.3973472455e-05 -2.6128640457e-05 -2.7373394914e-05 
-3.0945917388e-05 -2.711018351e-05 -6.5024680225e-05 -7.0314090408e-05 -3.7832913222e-05 -4.9794016377e-05 
Stress_Z 1 1059 double
-3.6786072997e-06 -4.1927410166e-06 -1.9075034743e-06 -3.4118722851e-06 -6.6168095145e-06 -1.1500140317e-05 -1.9944951418e-05 -3.1657502404e-05 -4.0774822992e-05 
-2.9346343581e-05 -1.6040348783e-05 -7.6565065683e-06 -2.1981638838e-06 -7.3910682659e-06 -1.0353542166e-06 1.3580214727e-05 2.2222686312e-05 2.6899428121e-05 
2.7549132938e-05 1.7972812202e-05 -8.4047724158e-07 -2.4101629606e-05 -5.5885153415e-05 -9.0607623861e-05 -0.00010934308375 -0.00010746128828 -7.8151126218e-05 
-4.8758149205e-05 -2.7164729545e-05 -9.4058477771e-06 6.9781858656e-06 1.7775448214e-05 3.3543910831e-05 3.4898341255e-05 2.3301514375e-05 2.0059040253e-05 
1.7131324057e-05 1.1895380339e-05 4.4627963689e-06 -4.2622173169e-06 -1.4986741007e-05 -2.1435327653e-05 -2.3780867195e-05 -2.6772851925e-05 -3.7763504224e-05 
-4.8108868214e-05 -5.7717646996e-05 -5.5178650655e-05 -4.7235749662e-05 -4.2455783841e-05 -3.9338301576e-05 -3.4889744711e-05 -2.8021977414e-05 -1.9045113731e-05 
-1.2966756913e-05 -5.0982148423e-06 -9.8271179013e-05 -5.299422628e-05 -2.6131465347e-05 -9.884114661e-06 1.698916094e-06 1.441954555e-05 2.2927675673e-05 
2.8321821446e-05 3.0873565265e-05 2.920633051e-05 2.1715031835e-05 9.0528401415e-06 -2.0117706754e-06 -8.7802136477e-06 -1.4064511561e-05 -2.3677128411e-05 
-3.8086720451e-05 -5.8098270529e-05 -6.8181754614e-05 -6.0052756453e-05 -5.3387513617e-05 -4.2946205213e-05 -2.6277266443e-05 -1.2210410205e-05 -6.6159250309e-06 
-4.1890943976e-06 -5.6545500229e-06 -9.8795835584e-06 -1.4527000531e-05 -1.5734378394e-05 -1.9559791326e-05 -2.5122773877e-05 -3.5904344259e-05 -4.1664592572e-05 
-5.6249657064e-05 -6.2818842707e-05 -6.6444117692e-05 -6.5175830969e-05 -6.9026602432e-05 -5.6680517446e-05 -4.1460007196e-05 -3.420667781e-05 -3.1151394069e-05 
-2.7561878596e-05 -1.8244378225e-05 -6.2073781919e-06 7.7865331605e-07 1.2468596651e-05 3.022558667e-05 3.6965222534e-05 3.1400180887e-05 1.5037986486e-05 
-8.4914208855e-06 -4.7648212785e-05 -0.00010438507888 -0.00012156027515 -0.00010552978347 -0.00010962910892 -6.5254906076e-05 -5.6982815295e-05 -5.0604910939e-05 
-4.8004250857e-05 -4.8236510338e-05 -4.7322391765e-05 -5.3942392697e-05 -5.4078816902e-05 -3.7331097701e-05 -2.5739745979e-05 -2.0991823476e-05 -1.9153178073e-05 
-1.6193553165e-05 -1.7282152839e-05 -2.2970849386e-05 -2.8040269171e-05 -2.9121079933e-05 -2.935244629e-05 -2.8710612241e-05 -3.4484310163e-05 -4.7308745707e-05 
-5.8755773352e-05 -8.0043420894e-05 -0.00010213508358 -0.00011385964171 -0.00010663082503 -9.031870286e-05 -7.9081415606e-05 -7.279660349e-05 -6.6597232944e-05 
-5.8257348428e-05 -5.4356085457e-05 -5.3143463447e-05 -4.8325848184e-05 -4.0478480514e-05 -3.4871874959e-05 -3.1821316952e-05 -2.9565195291e-05 -2.1749838197e-05 
-1.6056037566e-05 -1.2800330296e-05 -9.0837211246e-06 -1.3942660189e-05 -2.4148481316e-05 -2.8447528166e-05 -3.0995113775e-05 -3.6208763049e-05 -4.2183797632e-05 
-5.2029074141e-05 -6.3186402258e-05 -7.1297348768e-05 -7.2030707088e-05 -6.9020614319e-05 -6.9699410233e-05 -7.8858858615e-05 -7.8431126894e-05 -8.4517698269e-05 
-6.9805966632e-05 -5.6110089645e-05 -4.2439056415e-05 -3.4963577491e-05 -3.2721840398e-05 -3.2701089367e-05 -3.5202974686e-05 -3.4107604733e-05 -3.3999978768e-05 
-2.9221066143e-05 -2.1525040211e-05 -1.5791440092e-05 -1.3323437088e-05 -1.7591657524e-05 -2.360385588e-05 -3.2401709177e-05 -4.0715345676e-05 -4.8242673074e-05 
-5.6797427533e-05 -6.3360188506e-05 -6.7135515565e-05 -6.462566671e-05 -6.2298764533e-05 -6.5970736614e-05 -7.4832307291e-05 -8.2715610915e-05 -7.9789926531e-05 
-7.5830270362e-05 -7.0646921813e-05 -6.9331515988e-05 -6.4767380536e-05 -5.9587433498e-05 -4.8314537707e-05 -4.4883345254e-05 -4.4022497605e-05 -4.5939224947e-05 
-4.6199183998e-05 -3.8253703678e-05 -2.2163478206e-05 -1.8602386263e-05 -2.2921312848e-05 -2.9016327971e-05 -3.4784250602e-05 -3.2166408346e-05 -2.9964316127e-05 
-3.4848144423e-05 -3.8730871893e-05 -3.9183803892e-05 -4.1884748498e-05 -4.9586735258e-05 -7.0442787546e-05 -9.5479939773e-05 -0.00012314211926 -0.00012319680536 
-0.00011091458873 -0.00010300953727 -9.6199859399e-05 -7.9159472079e-05 -7.348733925e-05 -7.0884358138e-05 -6.5994354372e-05 -6.1220336647e-05 -5.7896988437e-05 
-5.2560415497e-05 -3.7306850572e-05 -2.3790955311e-05 -1.5127195184e-05 -9.539495295e-06 -1.2093452824e-05 -1.3476644199e-05 -1.8586490114e-05 -2.160772965e-05 
-2.4218086764e-05 -2.7849675462e-05 -3.2146148442e-05 -3.9029459003e-05 -5.2018996939e-05 -9.0914705652e-05 -0.00011049916066 -0.00011826126138 -0.00011407991406 
-0.00010660124826 -0.00010287023906 -0.00010240188567 -0.00010093051242 -9.5403855084e-05 -8.6972155259e-05 -7.7305587183e-05 -6.8037305027e-05 -5.5044849432e-05 
-3.970810576e-05 -3.0003875509e-05 -2.3020647859e-05 -1.8727720089e-05 -1.38975347e-05 -1.4055910469e-05 -1.5415131202e-05 -1.8044565877e-05 -3.2818970794e-05 
-3.7325102312e-05 -4.0977560275e-05 -4.9167534598e-05 -6.4861000283e-05 -7.8532735643e-05 -9.2079251772e-05 -9.3971946626e-05 -9.0740286396e-05 -9.6503361419e-05 
-0.00010454372386 -0.00010240336269 -8.8711589342e-05 -7.2704599006e-05 -6.1430371716e-05 -2.7220863558e-05 -1.9815681298e-05 -8.3858547441e-05 -7.0777212386e-05 
-5.4569787608e-05 -4.2811447202e-05 -3.5506793211e-05 -3.4302778658e-05 -3.4523316572e-05 -3.4135362512e-05 -2.6254378099e-05 -2.0277266231e-05 -1.3825398128e-05 
-1.1453003026e-05 -8.905381037e-06 -1.5037401681e-05 -2.4611696062e-05 -3.7729107135e-05 -4.5653792768e-05 -5.7061861298e-05 -6.781744014e-05 -7.5420772191e-05 
-8.0519872427e-05 -7.8411067079e-05 -7.9822195403e-05 -9.423969459e-05 -0.00011110866762 -0.00011602654558 -0.00010960606596 -9.8234559118e-05 -9.0902052762e-05 
-8.3982362412e-05 -8.1400830823e-05 -6.9545159931e-05 -5.6352964748e-05 -4.5599299483e-05 -4.0767190512e-05 -4.0897550207e-05 -3.9428170567e-05 -3.1884937925e-05 
-2.1154788556e-05 -1.7653563191e-05 -2.0446004783e-05 -2.8212731195e-05 -3.346543599e-05 -3.4756016248e-05 -3.7308465835e-05 -4.046167669e-05 -4.2880335968e-05 
-4.7743254981e-05 -5.4213123803e-05 -6.2633189373e-05 -7.3839117249e-05 -8.6542291683e-05 -0.0001111979509 -0.00012624899682 -0.00011378608906 -0.00010422346531 
-9.9325487099e-05 -9.2868001957e-05 -1.7704942366e-05 -2.1148880478e-05 -2.6842331863e-05 -3.3996151615e-05 -4.3899839511e-05 -5.7041172113e-05 -7.2006594564e-05 
-8.7954111223e-05 -0.00010025432857 -0.00010600445967 -0.00011027045548 -0.00011638394062 -0.00011749802798 -0.00010958533676 -9.8484328191e-05 -8.9668952569e-05 
-8.6497013399e-05 -8.2432321506e-05 -7.7246739238e-05 -6.9724796049e-05 -6.3299783505e-05 -5.4438656662e-05 -3.8713104004e-05 -2.5575138352e-05 -1.6594964109e-05 
-1.0854480024e-05 -1.0735428077e-05 -1.5912619347e-05 -1.8698921849e-05 -2.0945739379e-05 -2.5041275876e-05 -3.1038143788e-05 -3.9018595999e-05 -4.6442670282e-05 
-5.401315866e-05 -5.8823694417e-05 -6.2883511418e-05 -6.6050924943e-05 -7.6632313721e-05 -9.1341047664e-05 -0.00010198818927 -0.00011238735169 -0.00011396029731 
-0.00011365684622 -0.00011444152187 -0.0001189699542 -0.0001244378218 -0.00012397886894 -0.00011635466217 -0.00010452067363 -9.209458949e-05 -7.6873257058e-05 
-5.9969472204e-05 -4.2528743506e-05 -3.0202518246e-05 -2.2729278498e-05 -2.0083862182e-05 -1.7462707547e-05 -1.6016898371e-05 -1.6540967408e-05 -1.5867934053e-05 
-1.519775833e-05 -1.416408395e-05 -1.6357806089e-05 -8.4098879597e-05 -6.984754873e-05 -5.5308988522e-05 -4.5492244681e-05 -4.1175295337e-05 -3.8524063712e-05 
-3.5816294258e-05 -3.3682303183e-05 -2.222580224e-05 -1.3595998098e-05 -9.3654480224e-06 -1.0846235455e-05 -1.3610296264e-05 -2.3651944502e-05 -2.9327618904e-05 
-6.2006940425e-05 -7.4035822763e-05 -8.4268118371e-05 -8.9479835879e-05 -8.9790613856e-05 -9.7602394817e-05 -0.00011588937195 -0.00013278577535 -0.00013965409016 
-0.00013124673569 -0.00011856732453 -0.00010580287199 -9.9484554084e-05 -8.9692679467e-05 -7.5584051956e-05 -5.9330173826e-05 -5.0185055443e-05 -4.3782489229e-05 
-3.9816066419e-05 -3.5092460166e-05 -2.514332482e-05 -1.7250753444e-05 -1.5516539861e-05 -1.8706359697e-05 -2.5879216992e-05 -3.1487259548e-05 -3.5317068978e-05 
-4.2884934373e-05 -4.623388304e-05 -4.9378621043e-05 -5.6551485613e-05 -6.8455003202e-05 -8.1021848018e-05 -9.2809503258e-05 -0.00010374653357 -0.00011772338621 
-0.0001222595165 -0.00011927000742 -0.00011348157568 -0.00010923398804 -0.00010363432375 -9.5692885225e-05 -4.8225076171e-05 -3.8440772187e-05 -1.8948809156e-05 
-2.4693677915e-05 -3.7956371671e-05 -5.1357288612e-05 -6.3824743847e-05 -7.9350546002e-05 -9.2579502962e-05 -0.00010333222599 -0.00011451376486 -0.00012393547513 
-0.00012946482457 -0.00010861639748 -9.9055476312e-05 -8.976834215e-05 -8.8237124146e-05 -8.9316861704e-05 -8.5658888565e-05 -7.8143610153e-05 -6.8656772783e-05 
-5.4316024034e-05 -4.1682174924e-05 -2.8780214052e-05 -1.9530783902e-05 -1.3681698874e-05 -1.1862804058e-05 -1.4262024706e-05 -1.6668438548e-05 -1.7858086721e-05 
-2.4693796149e-05 -3.2472384191e-05 -4.1332496039e-05 -4.7530502343e-05 -5.2282186516e-05 -5.8409015764e-05 -6.2202845584e-05 -6.682966341e-05 -6.7883898737e-05 
-7.1331451181e-05 -7.5517622463e-05 -8.2910824858e-05 -9.4487950264e-05 -0.00010443355859 -0.00011462376278 -0.00011781524518 -0.00011932675989 -0.00012460329162 
-0.00013208913151 -0.00013697968097 -0.00013398349984 -0.00012169651745 -0.0001054362001 -8.9620414656e-05 -7.4122654041e-05 -5.7829824073e-05 -4.1367628e-05 
-3.0280220017e-05 -2.4200957341e-05 -2.1877056497e-05 -1.8630495106e-05 -1.5802310372e-05 -1.5794626961e-05 -1.271317069e-05 -1.4704804016e-05 -1.8515458578e-05 
-1.949073885e-05 -1.738210085e-05 -0.00011591565271 -0.00012616701133 -4.465251186e-05 -5.6574215705e-05 -6.67188433e-05 -7.9762154201e-05 -9.0508328867e-05 
-9.8156291642e-05 -0.00010192067566 -0.00011191562953 -0.00013123266399 -0.00014918243687 -0.00015312094183 -0.00014385688701 -0.00013059415505 -0.00011715927394 
-0.00010531758016 -9.3873102742e-05 -7.6877862739e-05 -6.104575732e-05 -5.068433893e-05 -4.4785327191e-05 -3.9542133891e-05 -2.9998755053e-05 -2.0597963157e-05 
-1.6245299776e-05 -1.5274088582e-05 -1.8111424652e-05 -2.5673136406e-05 -2.9694163459e-05 -3.614335219e-05 -4.5977663831e-05 -5.3519685025e-05 -5.9070920543e-05 
-6.7610708356e-05 -8.1868667621e-05 -9.8087439255e-05 -0.0001119039589 -0.00011901848484 -0.0001217655954 -0.00011832163 -0.00012042691378 -0.00012412526121 
-0.00011979777628 -0.00011074667418 -0.00010100869258 -8.9956272859e-05 -7.7738237451e-05 -6.6197761043e-05 -5.5912136304e-05 -4.8534380767e-05 -4.0739414544e-05 
-3.4224158298e-05 -2.9428711059e-05 -2.2903035642e-05 -1.2976267499e-05 -9.7977317637e-06 -1.0116159501e-05 -1.3096360817e-05 -2.0221490558e-05 -2.3571998099e-05 
-3.0133242035e-05 -3.7488909584e-05 -4.7614852519e-05 -4.7207191528e-05 -2.7831316402e-05 -4.3063435442e-05 -5.7164594182e-05 -6.8680077675e-05 -8.0276804511e-05 
-9.3210750492e-05 -0.00010733173258 -0.00011770636775 -0.00013100892829 -0.00014289972023 -0.00014380228822 -0.00014411023585 -0.00012410082854 -0.00011631199595 
-0.00010733811359 -9.5967065135e-05 -9.0190798801e-05 -9.0016561444e-05 -9.067683277e-05 -8.904185961e-05 -8.3867205831e-05 -7.3231545684e-05 -6.2354374677e-05 
-3.000664401e-05 -2.0987663447e-05 -1.600505675e-05 -1.3144565855e-05 -1.1849080693e-05 -1.2875047105e-05 -1.6261430574e-05 -2.5975716198e-05 -4.4801858166e-05 
-4.9980273616e-05 -4.0129780245e-05 -4.9800481065e-05 -3.887245839e-05 -3.2514933991e-05 -6.1709615693e-05 -6.5844964411e-05 -7.0994858106e-05 -7.4114752351e-05 
-7.2688075306e-05 -7.5101794209e-05 -8.0066289229e-05 -8.7163374701e-05 -9.741850954e-05 -0.00010514047608 -0.00011285307846 -0.00011746041855 -0.0001240089623 
-0.00013318464335 -0.00014089346223 -0.00014076537627 -0.00013062616927 -0.00011199113214 -9.0333247499e-05 -7.8365475929e-05 -6.5278611146e-05 -5.0919225032e-05 
-3.7633511965e-05 -2.7686490284e-05 -2.2060379706e-05 -1.8358217858e-05 -1.5677538613e-05 -1.5206896023e-05 -1.2920886547e-05 -1.6885727746e-05 -2.0446865165e-05 
-2.5994057069e-05 -2.9913579056e-05 -5.6486904214e-05 -6.9821442594e-05 -8.3267441369e-05 -9.6889183624e-05 -0.00010663117428 -0.00011069259926 -0.00012173678988 
-0.00014179079153 -0.0001583366975 -0.00016352263629 -0.00015418999828 -0.00014105335867 -0.00012655623141 -9.0713750978e-05 -7.5563286373e-05 -6.2113613239e-05 
-5.189190415e-05 -4.4802432967e-05 -3.7896337744e-05 -2.6064770282e-05 -1.8517592252e-05 -1.5638725017e-05 -1.4779516277e-05 -1.7342370484e-05 -2.3043579858e-05 
-2.9256767448e-05 -3.9431506593e-05 -5.2490384405e-05 -6.2756203988e-05 -7.178656233e-05 -8.0355915998e-05 -9.521235188e-05 -0.00011063087004 -0.00012496755517 
-0.0001277350384 -0.00012187772518 -0.00010963406385 -0.00011041336256 -0.000119448443 -0.000119629869 -0.00010861684859 -9.8406424513e-05 -8.7781118054e-05 
-7.8812823631e-05 -6.9842324592e-05 -6.3079329266e-05 -5.6378990848e-05 -4.8617745051e-05 -3.8098107325e-05 -2.942626088e-05 -2.0999757908e-05 -1.4150302377e-05 
-1.054342647e-05 -1.0958578969e-05 -1.3836369362e-05 -1.6914198568e-05 -2.1420506528e-05 -3.0120152587e-05 -3.5241489968e-05 -4.280902067e-05 -4.9504593335e-05 
-5.3851981647e-05 -5.765199603e-05 -0.00010507586558 -0.00011587202607 -8.1312486145e-05 -8.9355169621e-05 -0.00010344926704 -0.00011160236318 -0.00011999953858 
-0.00012939247245 -0.0001392672857 -0.00014288967941 -0.00012969897944 -0.00010600709356 -8.56865081e-05 -7.4519237387e-05 -6.5390282543e-05 -5.3375370044e-05 
-4.2087165639e-05 -3.1633153412e-05 -2.0841509468e-05 -2.4165305149e-05 -4.3096995796e-05 -5.8647383412e-05 -6.7920649599e-05 -7.902757352e-05 -9.4437549706e-05 
-0.00010905842646 -0.00012230494758 -0.00013322026643 -0.00014300907787 -0.00015701992379 -0.0001560333767 -0.00016086512187 -0.00015138584422 -0.00013618274534 
-0.0001174771387 -0.00010556415509 -9.6853502328e-05 -9.2348578619e-05 -9.1806723503e-05 -8.9853252575e-05 -8.6621650553e-05 -7.8027835116e-05 -6.5489737608e-05 
-5.5913031247e-05 -4.7657857067e-05 -4.3563228246e-05 -3.3261141652e-05 -2.696392221e-05 -1.9593971956e-05 -1.5036760487e-05 -5.5571032135e-05 -5.9853107814e-05 
-6.3112507632e-05 -8.0488585809e-05 -8.3237828221e-05 -8.1630678324e-05 -6.8507782998e-05 -8.3006118075e-05 -9.9575219792e-05 -0.00011230701057 -0.00011870223534 
-0.00013099788339 -0.00015050452203 -0.00016361165035 -0.000165924881 -0.00016030238476 -0.00014752300922 -0.00013628879969 -8.5968247731e-05 -7.33724155e-05 
-6.2185856223e-05 -5.3361120081e-05 -4.4614542276e-05 -3.4376222175e-05 -2.4820308681e-05 -1.8572351109e-05 -1.5934312614e-05 -1.4390409888e-05 -1.6596442947e-05 
-3.317194205e-05 -4.4758646254e-05 -5.7795412431e-05 -6.8056855525e-05 -7.697592082e-05 -8.731813432e-05 -0.00010061141802 -0.00012902681192 -0.00012846929894 
-0.00011648915824 -0.00010873070278 -0.00010677105456 -0.0001129567172 -0.00010956107144 -9.7202122561e-05 -8.829448052e-05 -2.6507010261e-05 -2.0509982278e-05 
-9.9138487712e-05 -8.8041648269e-05 -0.00011957127572 -0.00011312145216 -8.2697748439e-05 -7.5337731687e-05 -6.8400164309e-05 -6.2773862737e-05 -5.7448007283e-05 
-4.9040037993e-05 -3.7576923205e-05 -2.8017504519e-05 -2.0290330212e-05 -1.3931078684e-05 -1.2423855878e-05 -1.3969995052e-05 -1.744936344e-05 -2.2193617042e-05 
-2.3375885576e-05 -3.0513594538e-05 -3.4689153836e-05 -3.7793764932e-05 -4.3090982217e-05 -5.2020117437e-05 -1.2982756743e-05 -1.6938769477e-05 -2.2610798624e-05 
-2.8572816518e-05 -3.5333319829e-05 -4.4056250772e-05 -4.8214020353e-05 -5.3356619901e-05 -6.3957108068e-05 -5.9090249124e-05 -5.3883522924e-05 -4.6935372666e-05 
-3.816206663e-05 -6.1857812398e-05 -5.3489846323e-05 -4.3765245209e-05 -3.433299571e-05 -2.5940598789e-05 -1.8281967641e-05 -1.6885982404e-05 -2.1304880647e-05 
-2.8348846172e-05 -1.950283513e-05 -1.4492242371e-05 -1.3985201804e-05 -1.5865331079e-05 -2.0610361389e-05 -2.5014544008e-05 -2.641050196e-05 -2.9658132917e-05 
-3.4532986319e-05 -4.0795559471e-05 -3.727332296e-05 -3.0515080653e-05 -2.4713261155e-05 -2.0094190404e-05 -1.3366427993e-05 -1.3041139937e-05 -1.5171061932e-05 
-6.4144653152e-05 -7.9778023064e-05 -9.8669792351e-05 -0.0001150410244 -0.0001248618355 -0.00013660381956 -0.00015934980183 -0.00016741525906 -9.4739312772e-05 
-8.9722096163e-05 -8.1888261775e-05 -6.979052705e-05 -6.0263861087e-05 -0.00016021508782 -0.00013904274965 -0.00011896265642 -0.00010641286644 -9.9705423054e-05 
-2.771506297e-05 -2.759632298e-05 -2.516396853e-05 -1.758876715e-05 -1.4130469935e-05 -1.3828900592e-05 -1.4941429072e-05 -1.9289818738e-05 -2.1886877221e-05 
-2.6815370802e-05 -0.00016089562268 -0.00015601304767 -0.00015146727674 -0.00014295021538 -0.0001110045414 -3.8439924538e-05 -5.3424391808e-05 -6.3731662522e-05 
-7.7706499724e-05 -9.3179667601e-05 -0.00010989607108 -7.2377879405e-05 -0.00013514916645 -2.4696531909e-05 -3.1004146877e-05 -3.8396712625e-05 -4.934786557e-05 
-5.9906164097e-05 -7.0198482717e-05 -8.0521167547e-05 -9.0288558567e-05 -0.00010011752602 -0.00010731486691 -0.00011752435967 -0.00012393167708 -0.00012914279068 
-0.00013048802793 -0.00012620301277 -0.00011426085257 -0.00010678975377 -0.00010807081708 -0.00010560078954 -0.00010405825742 -9.7543510492e-05 -0.00014601886505 
-0.00015129751409 -0.00016063224757 -8.4504819824e-05 -9.811756172e-05 -1.5984691345e-05 -9.9161610706e-05 -9.9220109405e-05 -9.6561576356e-05 -0.00010294923413 
-0.00010862363706 -0.00011660977907 -0.00012521042663 -0.0001340269082 -0.00010220594413 -8.4042912931e-05 -7.1318114351e-05 -6.1168182583e-05 -5.3852014389e-05 
-4.3653555622e-05 -3.4830882214e-05 -2.8763512091e-05 -1.6006932128e-05 -1.4859060684e-05 -1.8789611204e-05 -2.588125426e-05 -3.413538434e-05 -4.3201984226e-05 
-5.1224680647e-05 -6.1177168391e-05 -7.1087612014e-05 -7.9116573033e-05 -8.8318847702e-05 -9.6310708614e-05 -0.00010617782391 -0.00011302611529 -9.8558943137e-05 
-0.00012815675291 -0.00012126986257 -0.00011198787979 -0.00010447209934 -3.2652704249e-05 -5.7298700995e-05 -0.00010373706755 -0.00015806061856 -0.00013834406855 
-8.705125947e-05 -7.5347736129e-05 -6.5655869548e-05 -0.00010913015285 -0.00011660433665 -0.00012434087694 -1.9035769583e-05 -1.4357311557e-05 -1.4217533135e-05 
-1.6746054825e-05 -2.0574898372e-05 -2.627287904e-05 -0.00013647213927 -0.00012528483057 -1.7078504243e-05 -0.00012826515012 -0.00013052101713 -0.00013326457702 
-0.00010464244406 -0.00010002358613 -9.3773225672e-05 -8.6331448983e-05 -7.9901583376e-05 -7.4241659604e-05 -6.9802859798e-05 -6.1546015786e-05 -5.3525596741e-05 
-4.4342894398e-05 -3.3099397115e-05 -6.3920524553e-05 -6.2436141889e-05 -7.6394346252e-05 -9.493946709e-05 -2.6273390176e-05 -0.00011360922508 -2.1884377929e-05 
-0.00014188076602 -1.6789976144e-05 -1.3814341401e-05 -1.3990189473e-05 -9.9590390164e-05 -8.483169222e-05 -9.611119458e-05 -6.7843458964e-05 -7.5758660387e-05 
-7.0760601375e-05 -1.5629020709e-05 -1.8401820853e-05 -0.00012646710093 -0.00012188308028 -9.9715471151e-05 -0.00010878593457 -0.00013591250172 -0.00012888172932 
-0.00011979559349 -0.00012603323557 -5.1207283832e-05 -3.7425746996e-05 -0.00012997409794 -0.00013204313291 
Stress_XY 1 1059 double
-4.2949224735e-05 -2.7894107916e-05 -1.7890652089e-05 -1.3071398826e-05 -9.76429601e-06 -8.5633919298e-06 -4.1429420889e-06 -8.6312138592e-07 -8.9926497822e-06 
-1.3147207028e-05 -1.2222241821e-05 -6.5303770498e-06 -4.3935706344e-06 -4.919013918e-06 -1.1251534033e-06 3.6067492601e-06 6.2582389546e-06 1.0862092495e-05 
1.5329556845e-05 1.4684467715e-05 1.1479835848e-05 6.612866855e-06 2.3704801606e-06 -3.5395544273e-06 -8.6592790467e-06 -9.1000683824e-06 -6.1216378526e-06 
2.9056020594e-06 1.1826376976e-05 1.6491261704e-05 1.6966208932e-05 1.6385329218e-05 1.9665005311e-05 1.9290277123e-05 1.4913129235e-05 1.5370955225e-05 
1.9386172426e-05 2.5049770557e-05 3.2442851079e-05 4.0635852201e-05 5.3422329074e-05 6.238927017e-05 5.9425201471e-05 5.449487071e-05 4.9618691264e-05 
3.5823919461e-05 1.8041020667e-05 2.5291424208e-06 -1.1373214875e-05 -2.1286794436e-05 -2.580412729e-05 -2.5737381293e-05 -2.2767815608e-05 -2.4951914384e-05 
-3.2660296711e-05 -4.3913885747e-05 2.3483064524e-06 4.2012652557e-06 -3.7569236611e-07 -7.1548938649e-06 -9.6202811619e-06 -1.0797150935e-05 -9.7530137282e-06 
-6.9943407652e-06 -3.557879154e-06 -6.5751469265e-06 -1.2350805264e-05 -2.0691984901e-05 -1.9422313926e-05 -1.2425362911e-05 -3.0636599604e-06 7.2667835411e-06 
1.0760047189e-05 1.4994726371e-05 1.2935503037e-05 9.9506887636e-06 8.4387038441e-06 7.9940864453e-06 1.3878641766e-05 1.9529497877e-05 1.914780114e-05 
1.4705832655e-05 9.1607907962e-06 8.3668264779e-06 1.2844369849e-05 1.9266852178e-05 2.4156932341e-05 1.6257938114e-05 1.7810238205e-05 1.33983458e-05 
4.718553555e-06 -3.6744565932e-06 -5.5760829127e-06 -2.3482825782e-06 4.115424872e-06 1.2230479115e-05 8.9908244263e-06 1.800441737e-06 -1.4679933429e-06 
-1.1828554989e-06 9.9210217286e-07 3.6944043131e-06 -1.3165522432e-06 -8.4368602984e-06 -1.2087672076e-05 -1.1664614249e-05 -9.5862887974e-06 -5.1660472309e-06 
1.4909022639e-06 4.3004565669e-06 2.672244932e-07 6.9423881541e-06 1.0045503586e-05 3.924874818e-06 -8.1627695181e-06 -3.8265043258e-06 -1.3704859612e-06 
-6.1804416873e-07 3.8220747456e-08 2.7724865959e-06 2.2611463919e-06 8.8267819365e-07 5.6660851442e-06 1.2651405086e-05 1.8161957996e-05 2.1086540073e-05 
2.2220969186e-05 2.5689139875e-05 2.9218508644e-05 3.1249819585e-05 3.2887190173e-05 2.9516124414e-05 2.2512193027e-05 1.2765183783e-05 1.0276645526e-06 
-5.3554895203e-06 -1.0760096302e-05 -1.3444659999e-05 -1.4432494027e-05 -1.3035229131e-05 -6.5667104536e-06 1.7585809928e-06 7.8293642218e-06 1.1468543562e-05 
1.3899695659e-05 1.5964391423e-05 1.7819706045e-05 1.9524375602e-05 2.3280570531e-05 2.964428495e-05 3.7434823753e-05 4.6415167162e-05 5.7412416936e-05 
6.6863096436e-05 6.9229739893e-05 6.4498388383e-05 5.5070126109e-05 4.0641276428e-05 2.0761128326e-05 8.8009460342e-07 -1.3085437786e-05 -1.9686345695e-05 
-2.3033549951e-05 -2.3950029572e-05 -2.0657207642e-05 -1.2723146028e-05 -8.1804910224e-06 -9.2906320788e-06 -1.0195098184e-05 -1.02030981e-05 1.3733785636e-05 
1.6159952793e-05 1.570321183e-05 1.3604632841e-05 1.2156048797e-05 1.1756421372e-05 1.2619999325e-05 1.274184342e-05 7.7402783063e-06 -2.0668455818e-06 
-9.8593227449e-06 -1.0070883036e-05 -6.9691877798e-06 -1.2154777096e-06 4.5332149057e-06 1.207385867e-05 2.2117334083e-05 2.8294431104e-05 2.5044815629e-05 
1.8380796973e-05 1.4633280443e-05 1.3439448594e-05 1.5270292351e-05 1.5075329429e-05 8.2295309767e-06 8.5403513594e-07 -7.1219056963e-07 4.440756129e-06 
1.355524364e-05 1.9608054572e-05 2.288808173e-05 1.9999926735e-05 1.6427318769e-05 1.3736397705e-05 9.5962841442e-06 6.7857508839e-06 6.0020065575e-06 
7.7738168329e-06 9.0556432042e-06 8.968903785e-06 4.9783993745e-06 1.8699054181e-06 1.6651060832e-06 4.8530223467e-06 8.407751011e-06 8.9935401775e-06 
1.0967743037e-05 1.4136081518e-05 1.5149947103e-05 1.7702383047e-05 2.1082933017e-05 2.202432006e-05 1.5741725292e-05 -5.7302881942e-06 -1.5411675122e-05 
-7.5925395322e-06 -2.1198354716e-06 5.6224571381e-06 -6.6713698743e-07 1.1863431837e-06 1.1421536783e-06 1.6125471802e-06 3.0441835861e-06 3.1814383874e-06 
6.449704415e-06 1.6353968022e-05 2.5255183573e-05 3.1154366297e-05 3.5621469578e-05 3.8026810216e-05 3.9300030039e-05 3.8968100853e-05 3.9846036088e-05 
3.8782949559e-05 3.2719148294e-05 2.261453119e-05 1.0615506653e-05 3.1708086112e-07 -8.5755691543e-06 -7.7041486293e-06 -8.217895811e-06 -1.1910034118e-05 
-1.1032846487e-05 -5.2488635447e-06 3.6828836869e-07 3.7058878206e-06 6.2158192122e-06 1.0113429198e-05 1.4655927771e-05 1.9812465325e-05 2.6615018214e-05 
3.535659198e-05 4.5341617806e-05 5.4802221712e-05 6.2103179516e-05 6.767497689e-05 6.8845620262e-05 6.3471023168e-05 5.483104178e-05 2.3470107408e-05 
3.7548149976e-06 -1.4599670067e-05 -2.5173949325e-05 -2.8960679629e-05 -2.845142626e-05 -2.3764583602e-05 -1.5288685972e-05 -8.4915036496e-06 -5.9595517996e-06 
-6.4634136834e-06 -6.7591913648e-06 -3.7456336486e-06 -8.5179035523e-06 -4.3837044359e-06 3.8680358557e-05 4.4471609726e-05 1.5912106392e-05 1.8289956643e-05 
1.9038749087e-05 1.7795269741e-05 1.6264133592e-05 1.3775486877e-05 1.078166315e-05 5.862074886e-06 -3.4097074604e-06 -8.0876252468e-06 -7.0974265327e-06 
-3.9764090616e-06 5.0815350505e-07 7.8174616647e-06 1.6948297343e-05 2.46362506e-05 2.6972156775e-05 2.3808364858e-05 1.7795255189e-05 1.3003535969e-05 
9.2056916401e-06 7.8390612543e-06 7.1846425271e-06 2.1140110675e-06 -3.5716855109e-06 -4.7505300245e-06 -7.8977086559e-07 5.4286165323e-06 1.1083071513e-05 
1.4810143512e-05 1.8284410544e-05 2.0310490072e-05 1.8849139451e-05 1.5309089576e-05 1.1378492673e-05 9.3401449703e-06 8.7191046987e-06 7.6830356193e-06 
6.9522652666e-06 6.8781087066e-06 6.0082438722e-06 5.4846545936e-06 6.2327703745e-06 9.3418593679e-06 1.2912597413e-05 1.648030775e-05 1.9324623281e-05 
2.0965908334e-05 2.2296548195e-05 2.3605003662e-05 2.1463774829e-05 1.3098399904e-05 1.4735358036e-06 -3.5353707517e-06 -3.6105802792e-06 9.459366197e-07 
5.8675659602e-06 1.1769476259e-05 3.2921743696e-05 3.0236888051e-05 1.7506146833e-05 -5.6015085192e-07 -1.750645788e-05 -2.7988255169e-05 -3.1276154914e-05 
-2.9489214285e-05 -2.4594735805e-05 -1.7045598725e-05 -9.4470842669e-06 -5.6432272686e-06 -3.8469588617e-06 -4.1791909098e-06 -2.5941876629e-06 -4.2373748954e-09 
2.1052640022e-06 2.271579433e-06 2.4378261969e-06 3.5921955259e-06 5.651014817e-06 1.0117309102e-05 1.8443030058e-05 2.7025806048e-05 3.4176620829e-05 
4.0153165173e-05 4.5207569201e-05 4.7361438192e-05 4.6461420425e-05 4.5477798267e-05 4.1564257117e-05 3.3840082324e-05 2.2325084501e-05 1.0724243111e-05 
3.1442614272e-06 1.4227494205e-07 -1.1994826536e-06 -5.1218721637e-06 -6.8816434577e-06 -6.036306786e-06 -2.6949253424e-06 -2.3350326046e-06 -7.0495239015e-06 
-1.0338301763e-05 -7.9570281741e-06 -2.8488921089e-06 9.8751706901e-07 4.3961927076e-06 9.7043703136e-06 1.727209019e-05 2.5138706405e-05 3.2278250728e-05 
3.9409358578e-05 4.7979727242e-05 5.6163895351e-05 6.2164755946e-05 6.5221211116e-05 6.417309487e-05 5.8136694861e-05 4.8334652092e-05 3.9107882913e-05 
2.9720697057e-05 2.1582263798e-05 2.3891352612e-05 1.8960341549e-05 2.1155525246e-05 2.1821118935e-05 1.9616778445e-05 1.4454171833e-05 7.8745297287e-06 
6.0231059251e-07 -4.3140016714e-06 -6.1273849497e-06 -4.1262674131e-06 -1.0642052075e-06 4.2078822844e-06 1.1122768228e-05 1.6164040062e-05 2.0401143047e-05 
2.0002849851e-05 1.4985649614e-05 9.8084319688e-06 5.3439771364e-06 3.4347915516e-06 2.6165876079e-06 -1.2101854736e-06 -4.9007617235e-06 -5.2075915846e-06 
-3.2544226087e-06 1.7177977725e-06 6.524078799e-06 1.1182964045e-05 1.7574468075e-05 2.162427154e-05 2.0847599444e-05 1.6459549443e-05 1.2213386981e-05 
1.0592394574e-05 9.81037374e-06 7.9195715443e-06 6.8352824201e-06 6.9031575549e-06 6.7663049776e-06 6.7432160904e-06 6.9515563155e-06 8.9370414571e-06 
1.2421491192e-05 1.6737021724e-05 2.0883253455e-05 2.3823979063e-05 2.5267687306e-05 2.4000770281e-05 1.9269478798e-05 1.0370951713e-05 2.3929178496e-06 
-2.2625818019e-06 -3.2526072573e-06 -3.1515872934e-07 4.2762981138e-06 1.0233899047e-05 1.5080157937e-05 2.2155618353e-05 2.197345384e-05 2.27265391e-05 
1.2254216927e-05 -1.8790934746e-06 -1.5506071577e-05 -2.4707820558e-05 -2.835349369e-05 -2.7433867217e-05 -2.3714961571e-05 -1.7997523173e-05 -1.1952586647e-05 
-6.9782736318e-06 -4.3240092964e-06 -3.5301789012e-06 -6.6916288688e-07 1.7219483652e-06 2.6047546271e-06 3.0306641747e-06 4.5386054808e-06 6.4636092247e-06 
1.019791398e-05 1.6987742129e-05 2.5961480787e-05 3.4389344364e-05 4.1327391955e-05 4.7235305829e-05 5.0158560043e-05 4.9529688113e-05 4.7282272135e-05 
4.0682563849e-05 2.991936708e-05 1.9076760509e-05 1.1624771105e-05 6.7991354626e-06 3.4823708575e-06 2.538978606e-06 2.8451154321e-06 -7.4144134032e-07 
-2.2879232802e-06 -3.751950544e-06 -2.7876826607e-06 2.2279888867e-07 1.0997939626e-06 -3.1960667002e-06 -8.1626576502e-06 -7.0363189479e-06 -3.0899302601e-06 
6.6845541369e-07 5.0014964472e-06 1.147839339e-05 2.0396075342e-05 3.0040697311e-05 3.7217760109e-05 4.1537085053e-05 4.6126486268e-05 5.1413524488e-05 
5.605487604e-05 5.8266810811e-05 5.6434771977e-05 5.0843995268e-05 4.3023374019e-05 3.4392316593e-05 2.6347515814e-05 2.0230274458e-05 1.6452202544e-05 
1.6506653992e-05 1.6860687538e-05 -4.3853738134e-06 -5.6882040553e-06 1.9391251044e-05 1.9575471015e-05 1.610246909e-05 1.1297038327e-05 5.9596400206e-06 
1.758212079e-06 3.6770217093e-07 1.1782098852e-07 -2.8818651572e-06 -5.7099537116e-06 -6.3075967773e-06 -4.614349109e-06 -1.6329779555e-06 2.6760965284e-06 
8.6044974523e-06 1.558443364e-05 2.0420367946e-05 1.9539782443e-05 1.5039692698e-05 1.1632520909e-05 1.2331914149e-05 1.1221678506e-05 8.7765583885e-06 
7.835593351e-06 8.157285265e-06 7.3676483225e-06 6.0976817622e-06 6.7857640715e-06 8.6186373665e-06 1.1997593901e-05 1.5913545212e-05 1.951179911e-05 
2.2652326152e-05 2.6034233088e-05 2.3182012228e-05 1.590697866e-05 7.1196218414e-06 2.8138384778e-07 -1.383756171e-06 -7.454984825e-07 7.1105671395e-07 
3.9805604501e-06 9.9774033515e-06 1.4662770809e-05 1.8136262952e-05 2.116133146e-05 2.2315000024e-05 1.9908557078e-05 1.4510056644e-05 8.1232601588e-06 
6.5801759774e-07 -2.6689822334e-06 -7.305822578e-07 2.2064159566e-06 5.6870817389e-06 9.6272297014e-06 1.3954210772e-05 1.6306230464e-05 1.9869872631e-05 
1.9104365492e-05 2.0474722987e-05 2.0738491003e-05 1.7642019884e-05 1.2470267393e-05 4.075122888e-06 -5.2053637773e-06 -1.3325915461e-05 -1.8816826923e-05 
-2.0815501557e-05 -1.9855830033e-05 -1.7527989257e-05 -1.3291927644e-05 -8.9825480245e-06 -7.2605239438e-06 -5.5979598983e-06 -3.7281729419e-06 -3.2256896247e-06 
-5.017062449e-06 -3.0752009934e-06 -6.1606351665e-07 1.6212711671e-06 1.8531578689e-06 2.7787082217e-06 3.7868537675e-06 6.1014175117e-06 8.7561047621e-06 
2.6543717468e-05 3.487693175e-05 4.3176965846e-05 4.7235258535e-05 4.9033704272e-05 4.8464302381e-05 4.5748332923e-05 3.7991310819e-05 1.4430744159e-05 
9.7993734016e-06 1.8462556909e-05 1.3313216186e-05 2.2301761419e-05 2.8891688999e-05 5.8819914557e-06 6.4190908233e-06 7.2607799666e-06 4.2503738769e-06 
1.6161311578e-06 5.7349325289e-07 -7.714380672e-07 7.3232445175e-07 1.3939114751e-06 -9.4318482979e-07 -5.183272151e-06 -4.2896231207e-06 -1.5297636082e-06 
2.0997081265e-06 6.3596303335e-06 1.3845801732e-05 2.3889666409e-05 3.1503979699e-05 3.7135210732e-05 3.8719688746e-05 4.1181745473e-05 4.3758733227e-05 
4.5913366193e-05 4.5860677346e-05 4.3279294914e-05 4.1616203816e-05 3.2971012843e-05 2.4703678719e-05 1.8065120457e-05 1.5228377379e-05 1.1212228856e-05 
1.3052502254e-05 1.4462883883e-05 1.6723175577e-05 1.3569504517e-05 8.7429561972e-06 3.4233141832e-06 -1.0901380847e-06 -1.8668418988e-06 -1.5882941398e-06 
-3.5661557831e-06 -6.6292395786e-06 -7.3315445661e-06 -6.2679941948e-06 -4.5325837164e-06 -1.8218744344e-06 1.278028958e-05 1.5671415895e-05 1.5315694327e-05 
1.4593583728e-05 1.4330507838e-05 1.3850372852e-05 1.2074498045e-05 9.5381365099e-06 8.2825290519e-06 7.6011601777e-06 6.6197430897e-06 4.0580889618e-06 
5.9060375861e-06 9.0761577667e-06 1.2486578271e-05 1.6034930013e-05 1.8385333533e-05 2.1422825739e-05 2.4896857212e-05 2.1007901523e-05 1.5312938558e-05 
6.9142720349e-06 -4.4588472292e-07 -1.5651314698e-06 1.070813596e-06 2.7046371542e-06 4.9116829359e-06 1.0635350009e-05 1.4335864762e-05 1.7354930606e-05 
1.9344939574e-05 2.04219632e-05 1.8716877094e-05 1.5919446014e-05 1.2052185411e-05 8.0820636867e-06 6.4539040068e-06 6.9825532591e-06 9.6763469628e-06 
1.2657887964e-05 1.5751029423e-05 1.7862188542e-05 1.9228955352e-05 2.1556879801e-05 2.2203856133e-05 2.5280482078e-05 2.4476421459e-05 2.0455427148e-05 
1.8313170585e-05 1.5743777112e-05 5.7704432948e-06 -4.6349487093e-07 2.2099293346e-06 1.391158662e-06 -1.5378828948e-06 -2.3292873266e-06 5.2504697123e-07 
4.1374082684e-06 8.2388187366e-06 1.4424534129e-05 2.4065908292e-05 2.928208778e-05 3.3812917536e-05 3.475334961e-05 3.5059147194e-05 3.6598932638e-05 
3.7797555706e-05 3.5717544961e-05 3.2508472941e-05 2.9623317459e-05 8.3095665104e-06 2.8464378374e-06 -3.648750635e-06 -9.6794483397e-06 -1.3911983842e-05 
-1.5172546227e-05 -1.5731944586e-05 -1.3545449292e-05 -1.094340405e-05 -8.8376727945e-06 -7.1796653174e-06 -5.6533831412e-06 -4.2939605009e-06 -3.2371237921e-06 
-5.0490634749e-06 -4.8002148105e-06 -2.309803449e-06 4.3858210574e-07 1.3948425703e-06 2.1946952984e-06 3.0152893942e-06 4.5350134315e-06 6.6419534051e-06 
1.0639120774e-05 1.774730481e-05 2.1118183213e-05 2.4455672246e-05 3.1212923204e-05 3.674799882e-05 4.2790143198e-05 7.1323488555e-06 9.2272803158e-06 
9.2122409114e-06 8.6119607658e-06 5.4482256928e-06 2.1739492695e-06 1.1969683328e-05 6.2916237766e-06 4.2709976356e-07 -3.4928420973e-06 -3.83925817e-06 
-2.3122847779e-06 -4.2160691009e-06 -6.648746421e-06 -6.7851724452e-06 -8.3953946159e-06 -7.5182351793e-06 -6.6223924478e-06 7.628927051e-06 1.0788161489e-05 
1.2173651157e-05 1.3640142242e-05 1.6235846488e-05 1.4547010323e-05 1.2177194549e-05 9.4788847491e-06 7.6930591604e-06 6.8092003858e-06 7.3075671025e-06 
8.8409160526e-06 1.1982155229e-05 1.457725466e-05 1.6341578885e-05 1.8635266315e-05 1.9635912395e-05 1.9017637896e-05 1.4810708308e-05 7.0335622695e-06 
4.1207249524e-07 -2.8618850934e-07 2.2261983759e-06 4.5487499847e-06 5.9180906646e-06 8.0378813436e-06 1.1787624317e-05 7.2333068601e-06 9.54130428e-06 
-1.8870557028e-07 3.1660738387e-06 1.9999446522e-05 2.3052514734e-05 1.5087612155e-05 1.6864676581e-05 1.6853064153e-05 1.6278901967e-05 1.5272757082e-05 
1.4732234376e-05 1.3730424143e-05 1.3432938431e-05 1.4996057871e-05 1.7768883481e-05 2.1181043849e-05 2.4040788048e-05 2.5046183509e-05 2.5666759029e-05 
2.6939305826e-05 2.6833757147e-05 2.9044203984e-05 2.8667422157e-05 2.2889571483e-05 1.5060786609e-05 4.4898923079e-05 4.2104642489e-05 3.7308138417e-05 
3.1332285289e-05 2.4633141948e-05 2.1144838684e-05 1.5288755094e-05 1.1359390555e-05 1.2882245755e-05 1.1711411389e-05 1.4254208509e-05 1.685733514e-05 
1.8617038222e-05 1.0178113371e-05 1.3644227693e-05 1.586529288e-05 1.43854013e-05 1.1484553397e-05 9.2895315902e-06 7.783160072e-06 2.0908024453e-05 
1.9909719413e-05 2.2788797651e-05 2.6761843401e-05 3.0054483432e-05 3.1768158806e-05 3.1940733606e-05 3.1081406632e-05 3.0020246413e-05 3.3139425796e-05 
3.2519856177e-05 2.6627054467e-05 2.9618602639e-05 3.4135657188e-05 3.58817706e-05 4.0048504161e-05 4.2065817979e-05 4.4864082156e-05 4.7356461437e-05 
1.1994177839e-05 5.2706673159e-06 -1.1371263327e-06 -5.7632928474e-06 -5.9232229432e-06 -2.8940555694e-06 -3.0560229334e-06 -4.4361004257e-06 6.0064394347e-07 
1.5622855472e-06 2.5640306376e-06 5.1238303058e-06 9.0395551524e-06 -3.9232791096e-06 -5.9080025494e-06 -6.2016297306e-06 -4.143658316e-06 -1.3261546883e-06 
3.6291214201e-05 3.8640693674e-05 3.9209782699e-05 4.0692648327e-05 4.1043233068e-05 4.146315041e-05 4.026625902e-05 3.8568225136e-05 3.3128239011e-05 
2.7052583391e-05 -8.6245772764e-06 -9.8358241303e-06 -9.058509022e-06 -9.2487107395e-06 -2.9374327823e-06 1.0261700481e-05 6.9174957389e-06 1.7166101998e-06 
-3.3507558328e-06 -8.5000665422e-06 -1.1195334082e-05 7.1005947575e-06 -1.2202748621e-05 1.7375388779e-05 1.5299548977e-05 1.6305166355e-05 1.7776452296e-05 
1.8206243112e-05 1.9015513317e-05 2.0825094907e-05 2.1707177439e-05 2.025809772e-05 2.2495672965e-05 2.4200020562e-05 2.1065658075e-05 1.8630424165e-05 
1.2886564036e-05 6.1943378569e-06 7.8062333841e-07 5.3871428918e-07 3.4203228552e-06 4.943476597e-06 4.5537403821e-06 5.7963347899e-06 -1.1073659152e-05 
-1.0111975826e-05 -8.9494278654e-06 2.4815769848e-06 2.7066660095e-06 2.2557655029e-05 2.4848566227e-06 1.1276414398e-06 -3.0872300272e-07 -1.4912378674e-06 
-7.9553973364e-07 1.9715973849e-06 5.8309515225e-06 1.0076386388e-05 3.0359884477e-05 3.1701991247e-05 3.1142135413e-05 2.9861566873e-05 3.0243070796e-05 
2.9908507713e-05 2.8811615266e-05 2.4609953471e-05 1.5966072169e-05 1.0265521269e-05 9.9539020084e-06 1.106689524e-05 2.3051130484e-05 2.3609447453e-05 
2.4021854188e-05 2.3615591999e-05 2.3355954909e-05 2.3997647077e-05 2.4670600396e-05 2.4069880965e-05 2.6709712984e-05 2.595938895e-05 1.7311367628e-06 
9.7029533208e-06 4.6765558182e-06 1.9860267457e-06 -3.8097428501e-07 1.1898094272e-05 1.3311484508e-05 -2.0807169676e-06 -3.2619357171e-06 -6.6078587224e-06 
4.6579583568e-07 3.1781214602e-06 6.8647664193e-06 8.2723317973e-07 3.5128905438e-06 7.3129049269e-06 2.9921349778e-05 3.3192285628e-05 3.5580713302e-05 
3.6476914829e-05 3.5815697629e-05 3.5440072679e-05 1.387012162e-05 2.1602485504e-05 3.5677367123e-05 1.9798128051e-05 1.1688157429e-05 1.4461695173e-05 
-5.2619470807e-06 2.9440361686e-05 -3.9946994548e-06 2.9150729461e-05 -1.1854379522e-07 2.7692398362e-05 4.7449607337e-06 9.0932589956e-06 1.3265163034e-05 
1.4795092284e-05 1.2585438526e-05 2.6203571906e-05 6.632386885e-06 2.6694940516e-06 -8.7546192162e-07 3.6774352338e-05 -5.8937944232e-06 3.8562677219e-05 
-3.7383247218e-06 3.9689719415e-05 3.9049031329e-05 3.786070738e-05 2.8702509098e-06 3.693481176e-06 -1.8634024457e-07 1.0210342225e-05 1.2057257663e-05 
1.3754161955e-05 8.1688285718e-06 1.3117496565e-05 -6.0760826273e-06 -6.6171228355e-06 -1.1229658412e-06 -4.7242365326e-06 -9.8305572465e-06 -6.4807695708e-06 
-9.4514589364e-06 -1.2663396774e-05 1.0184823623e-05 9.9416320154e-06 1.4782580365e-05 1.8513777832e-05 
Stress_YZ 1 1059 double
-2.3808261176e-06 -5.422105005e-06 -4.0395752876e-06 -2.2922520202e-06 8.838977692e-07 6.258864687e-06 1.163730758e-05 1.6640176909e-05 2.7683699955e-05 
3.436190309e-05 2.8702635973e-05 1.7063541236e-05 8.5228193711e-06 1.2952116322e-06 -7.8742386904e-06 -1.2271564628e-05 -1.5589568648e-05 -1.9645012799e-05 
-2.5378136343e-05 -2.8515913073e-05 -3.0047069231e-05 -3.0643092032e-05 -2.7108468203e-05 -1.3596333702e-05 6.0659626797e-06 2.363348176e-05 2.6173256629e-05 
2.5028339223e-05 2.8738862966e-05 3.1233415939e-05 2.8621805541e-05 2.1857838874e-05 1.9659757527e-05 1.3953232155e-05 2.5946335427e-06 -3.4599131595e-06 
-1.5373417455e-06 2.0964323539e-06 6.3653910729e-06 1.1274751159e-05 1.5204068404e-05 1.7205697077e-05 8.6220379671e-06 -3.9861115511e-06 -2.0069599486e-05 
-3.603942605e-05 -4.4760843593e-05 -4.1100982344e-05 -3.2862975786e-05 -2.4362332624e-05 -1.7261518224e-05 -1.1092450222e-05 -5.0365101742e-06 -2.3649949981e-06 
-5.2743899914e-07 2.0686320568e-06 -2.0980198315e-05 -2.0490075258e-05 -1.6771567971e-05 -1.0936943909e-05 -5.090500963e-06 -2.1832365746e-06 -9.2018353826e-07 
1.0658829979e-06 3.0969549698e-06 3.6494379856e-06 -3.3950948364e-06 -1.1211689525e-05 -1.0984500477e-05 -8.6853533503e-06 -3.0060678e-06 3.5385107822e-06 
1.4614695829e-05 2.6005203836e-05 2.6718267691e-05 1.6773481548e-05 2.9432142128e-06 -7.5462548921e-06 -1.0076958461e-05 -8.9777386165e-06 -1.3828430383e-05 
-1.3010638213e-05 -7.3801379585e-06 -5.022735877e-06 -9.976962474e-07 -1.6723234353e-07 -3.9604815356e-06 1.80539746e-06 -1.1073670066e-05 -1.6376576241e-05 
-1.7832220692e-05 -2.2155116312e-05 -2.0731398763e-05 -1.4157664737e-05 -7.2201160037e-06 -8.1236275946e-06 -4.6057516556e-06 3.5045616187e-06 1.0843260497e-05 
1.4017128706e-05 1.4064686184e-05 1.3796058738e-05 1.4428911527e-05 1.4249683773e-05 1.1902338883e-05 9.6040448625e-06 6.7663004302e-06 5.4278802963e-06 
6.1310806814e-06 8.1808275354e-06 9.3260241556e-06 8.0386844274e-06 -5.693924777e-06 -1.8836213712e-05 2.647949259e-06 7.461932455e-06 1.3425895304e-05 
1.9773635358e-05 2.6217860068e-05 3.3876145608e-05 3.8570662582e-05 4.006510062e-05 3.5801625927e-05 2.5589175493e-05 1.6212305127e-05 1.0543402823e-05 
5.4038032431e-06 -2.2945780529e-06 -8.6391692093e-06 -1.546609019e-05 -2.2890195396e-05 -2.8783699236e-05 -3.2688811189e-05 -3.5605135054e-05 -3.9014161302e-05 
-4.0559298213e-05 -3.4927448723e-05 -2.3107930247e-05 -4.0731783884e-06 7.6764727055e-06 1.2646293726e-05 1.482760581e-05 1.7560489141e-05 1.9672417693e-05 
1.9443346901e-05 1.6851423425e-05 1.4209187611e-05 1.2355165381e-05 1.1460950191e-05 1.1009760783e-05 1.0930142707e-05 9.9990120361e-06 6.9122620516e-06 
9.3378048405e-07 -8.3936220108e-06 -1.9158522264e-05 -3.0487368349e-05 -3.8301124732e-05 -4.436015297e-05 -4.947494017e-05 -5.5499487644e-05 -5.848424189e-05 
-5.4157833802e-05 -4.7574176278e-05 -3.6880228436e-05 -2.3822369258e-05 -1.3022599887e-05 -5.6914927882e-06 -1.9693268314e-06 6.3099304271e-07 -2.81429202e-05 
-2.7285066608e-05 -2.2804688342e-05 -1.7501713955e-05 -1.2029584468e-05 -8.5298725025e-06 -8.2921078501e-06 -1.1037176591e-05 -1.4888709302e-05 -1.56175538e-05 
-9.929933185e-06 -1.8299086832e-06 6.1406522036e-06 1.338967013e-05 2.2656982765e-05 3.0431716368e-05 3.4363249142e-05 3.4611668525e-05 3.1491814298e-05 
2.2543918021e-05 1.4578973605e-05 7.2149600783e-06 2.9773134429e-06 1.4808540527e-06 -1.0379030755e-06 -6.3754514485e-06 -1.1793020349e-05 -1.7304006178e-05 
-1.9159659132e-05 -1.8348880985e-05 -2.1763626137e-05 -2.3811568099e-05 -3.0867737223e-05 -3.7102763599e-05 -3.8222475268e-05 -3.4412281821e-05 -3.0099527066e-05 
-2.6947454899e-05 -2.378663703e-05 -1.4174345779e-05 -2.6047027859e-06 8.6984564405e-06 1.8403099602e-05 2.3670831069e-05 2.5112854928e-05 2.4370239771e-05 
2.1782541808e-05 1.7995500457e-05 1.4619574358e-05 1.160924694e-05 1.0672431017e-05 1.0568045582e-05 9.7722777355e-06 2.5034812552e-06 -5.7325196394e-06 
-1.778863043e-05 -2.3290343961e-05 -2.4210021365e-05 1.9336934201e-05 2.6104513381e-05 3.4378692362e-05 4.1773360863e-05 4.8322090151e-05 5.0384242058e-05 
4.8474026698e-05 4.3939005991e-05 3.5803728679e-05 2.7192778361e-05 1.9855802748e-05 1.22038482e-05 3.7040840652e-06 -7.0010478339e-06 -1.8148861272e-05 
-2.7117695936e-05 -3.3787713619e-05 -3.7667829019e-05 -4.1379506001e-05 -4.4633943617e-05 -4.0016075218e-05 -3.0875635275e-05 -1.6826030333e-05 -4.8545703066e-06 
5.7584666138e-06 1.2842614524e-05 1.8232529328e-05 2.4465807655e-05 2.9462438761e-05 3.3410738979e-05 3.6265624658e-05 3.8377569581e-05 3.8027632399e-05 
3.3925087337e-05 2.9438431739e-05 2.5193508918e-05 1.9974546376e-05 1.1931618246e-05 2.5771496439e-06 -6.6794323175e-06 -1.4257298062e-05 -4.5443892304e-05 
-5.3366220527e-05 -5.8190722484e-05 -5.9964284446e-05 -5.7500783441e-05 -5.1310958952e-05 -4.0194798203e-05 -2.6787785828e-05 -1.6770416551e-05 -8.1359985415e-06 
-7.7688667943e-07 7.8717521319e-06 1.5088101463e-05 -4.400369653e-05 -4.3985655793e-05 -3.3582960896e-05 -1.5832940335e-05 -3.5095166822e-05 -3.3047759644e-05 
-2.9971886761e-05 -2.6168332624e-05 -2.3371729185e-05 -2.4436445528e-05 -2.9096296203e-05 -3.2345760701e-05 -2.8601047234e-05 -1.8359227397e-05 -7.5002731137e-06 
2.5445433494e-06 1.2886390323e-05 2.2025478756e-05 2.7873145882e-05 2.9716704375e-05 3.3375723433e-05 3.3647582313e-05 2.770339961e-05 2.1917978302e-05 
1.5839690604e-05 9.2372811196e-06 5.9049507399e-06 1.5194608523e-06 -7.542833373e-06 -1.8488115529e-05 -2.5619279768e-05 -2.9493778129e-05 -3.1910440157e-05 
-3.5701654269e-05 -4.0929764509e-05 -4.5388584113e-05 -4.8622252507e-05 -4.4405889639e-05 -3.7611614971e-05 -3.3575168345e-05 -3.2513813494e-05 -2.8277201636e-05 
-1.7573191144e-05 -4.2682654566e-06 9.1948304544e-06 2.2335059839e-05 3.2600419217e-05 3.9641079638e-05 4.1229384806e-05 3.9255708543e-05 3.578804899e-05 
3.0879113183e-05 2.6602543585e-05 2.2760948923e-05 1.8992344849e-05 1.6065092495e-05 7.6350834206e-06 -3.0911835438e-06 -1.950816295e-05 -2.7644495276e-05 
-3.0219407563e-05 -3.377440953e-05 -1.1855249795e-05 -2.5646970244e-05 -3.7867397623e-05 -4.749490472e-05 -5.3111736634e-05 -5.4077554523e-05 -5.2237377531e-05 
-4.7069959692e-05 -3.7307661842e-05 -2.6109230021e-05 -1.4683418158e-05 -3.4638160287e-06 6.6546804192e-06 1.5696345145e-05 2.1399915568e-05 2.4662667784e-05 
3.1522937206e-05 3.964492862e-05 4.7380766773e-05 5.2906223573e-05 5.4991614888e-05 5.1897808589e-05 4.61239797e-05 3.9469494368e-05 3.3197487937e-05 
2.6132398489e-05 1.7024967747e-05 5.4508973335e-06 -7.334737802e-06 -1.9216766304e-05 -2.9786144296e-05 -3.5932422179e-05 -4.1234889068e-05 -4.4896612962e-05 
-4.5905682782e-05 -4.4717577111e-05 -4.2293406295e-05 -4.0298273234e-05 -3.9061116695e-05 -3.6794866901e-05 -3.067736543e-05 -2.1023133741e-05 -9.5440173027e-06 
2.8019721867e-06 1.2506479834e-05 2.0225981643e-05 2.8613852919e-05 3.7188568967e-05 4.4744494517e-05 4.9893806136e-05 5.345838872e-05 5.4302690842e-05 
4.9746518926e-05 4.2329120333e-05 3.475633639e-05 2.7623722417e-05 1.9881954358e-05 1.0221248886e-05 1.8638770598e-06 -1.873057272e-06 -1.9358449208e-06 
-3.1470447084e-06 -8.755521776e-06 -1.3076530195e-05 -3.7164183595e-05 -3.6651992559e-05 -3.5309694795e-05 -3.3902571886e-05 -3.3944314055e-05 -3.6926932808e-05 
-3.9562044549e-05 -3.5921751987e-05 -2.4488048439e-05 -1.2163965948e-05 -1.9039201788e-06 7.6585920397e-06 1.6497629986e-05 2.3704265914e-05 2.6963447453e-05 
3.3638509194e-05 2.9714468837e-05 2.5158053177e-05 1.9908293325e-05 1.345713008e-05 8.3743680079e-06 1.5444636574e-06 -8.5865249275e-06 -1.8789116439e-05 
-2.6100044124e-05 -3.1944771763e-05 -3.6991197703e-05 -4.21742443e-05 -4.8203306505e-05 -5.2109593526e-05 -5.1731723943e-05 -4.6576016757e-05 -4.056841135e-05 
-3.6657020246e-05 -3.3568547224e-05 -2.6855450415e-05 -1.5883353626e-05 -3.1772397051e-06 1.0257331269e-05 2.4450213459e-05 3.7447389332e-05 4.686633838e-05 
4.987961438e-05 4.8082445574e-05 4.368860391e-05 3.8483853132e-05 3.4638542274e-05 3.0292503652e-05 2.4479535568e-05 1.7179496353e-05 4.0136128518e-06 
-5.8035434449e-06 -1.5413990695e-05 -2.5337960324e-05 -3.1563911762e-05 -3.6240588088e-05 -3.7547659304e-05 3.2758875022e-05 3.0703191442e-05 -2.2716449166e-05 
-3.2166110032e-05 -4.1929557483e-05 -4.6548604587e-05 -4.6749562898e-05 -4.5374788897e-05 -4.1012546717e-05 -3.3219250327e-05 -2.4336386559e-05 -1.3714426132e-05 
-2.2859842375e-06 2.2560348953e-05 2.521762508e-05 2.9843329685e-05 3.4077151213e-05 4.0966453525e-05 4.8230653192e-05 5.4040388932e-05 5.5310261814e-05 
5.1006220019e-05 4.4975695346e-05 4.0476217691e-05 3.493319673e-05 2.7164116545e-05 1.6501238861e-05 4.6746035878e-06 -8.5272376964e-06 -1.9859868189e-05 
-3.1065912481e-05 -3.997390013e-05 -4.4428557885e-05 -4.6273129556e-05 -4.6794819355e-05 -4.6239583753e-05 -4.4702108426e-05 -4.2625666538e-05 -3.9439350076e-05 
-3.7101108319e-05 -3.4864013287e-05 -3.3587923099e-05 -2.7807724109e-05 -2.1179292162e-05 -9.0276453193e-06 3.2523378195e-06 1.4735121113e-05 2.4193330319e-05 
3.4001372114e-05 4.4974425691e-05 5.4897609516e-05 6.1134203861e-05 6.4210253186e-05 6.4444582677e-05 6.0706839577e-05 5.3829702665e-05 4.5434691856e-05 
3.7064073695e-05 2.8219987144e-05 1.8680870198e-05 1.0913548067e-05 7.5957027548e-06 6.6064394559e-06 2.7569508347e-06 -5.3062699408e-06 -1.5926654669e-05 
-1.8794042262e-05 -2.0376181055e-05 1.4096597624e-05 7.126942819e-06 3.3648080716e-05 3.4793974919e-05 3.476366328e-05 3.2556359656e-05 2.9116452424e-05 
2.4029452106e-05 1.7554482838e-05 1.1229547454e-05 3.3096996503e-06 -6.9718257691e-06 -1.744610563e-05 -2.5600906156e-05 -3.2443178497e-05 -3.8348378439e-05 
-4.3903128244e-05 -4.9445774494e-05 -5.1965344028e-05 -5.0354345149e-05 -4.6389788622e-05 -4.2411666072e-05 -3.6686662497e-05 -3.1892614061e-05 -2.4047232728e-05 
-1.3485164345e-05 -1.6088673647e-06 1.0303271665e-05 2.5393639589e-05 3.915474008e-05 5.0059512432e-05 5.5328942835e-05 5.625473932e-05 5.2448140195e-05 
4.6863762691e-05 4.2580049922e-05 3.8868191041e-05 3.0220217013e-05 1.8418073523e-05 1.7596886437e-06 -8.0630306911e-06 -1.4191602531e-05 -2.2982500013e-05 
-3.2267638744e-05 -3.788912727e-05 -3.9066799218e-05 -3.981068221e-05 -4.1238901758e-05 -4.3004594772e-05 -4.3558116886e-05 -4.418296885e-05 -4.4935757614e-05 
-4.3826425099e-05 -3.9899026888e-05 -2.9127726521e-05 -1.6042391508e-05 -4.9963236961e-06 4.4355842874e-06 1.2674351638e-05 1.9642142433e-05 2.4322440368e-05 
2.8816370104e-05 3.1649818993e-05 3.5157867387e-05 3.6370729504e-05 -3.1411233067e-05 -4.1937579226e-05 -4.5680939365e-05 -4.4991364121e-05 -4.1390587285e-05 
-3.7559573684e-05 -3.2045078115e-05 -2.5318662665e-05 -1.7177098925e-05 -8.7786656877e-06 2.2931813248e-07 7.5391631071e-06 1.4997398466e-05 2.1013902369e-05 
2.7315358238e-05 3.10860014e-05 3.3999240259e-05 3.6301400542e-05 4.1248487832e-05 4.6697743528e-05 5.20102476e-05 5.3601826949e-05 5.0159553211e-05 
3.7634326873e-05 3.2496329368e-05 2.4585449864e-05 1.4399487554e-05 3.251850103e-06 -8.7739754235e-06 -2.1157022275e-05 -3.3500691643e-05 -4.7103774705e-05 
-4.7197692766e-05 4.1990060708e-05 4.4114713091e-05 -4.527814599e-05 -4.1061441152e-05 -4.6598786867e-05 -4.555452324e-05 -4.3935422582e-05 -4.0783917939e-05 
-3.6490393541e-05 -3.3899916161e-05 -3.4017630242e-05 -2.7960866646e-05 -2.0368441255e-05 -9.375055015e-06 4.3149943849e-06 1.6819150915e-05 2.7549047445e-05 
3.8256101107e-05 5.0314443797e-05 6.1151229602e-05 6.856960681e-05 6.9826317485e-05 6.7511995439e-05 6.4498221036e-05 5.9095586039e-05 5.2164457884e-05 
4.4259853894e-05 3.486769856e-05 2.5033268685e-05 1.5695581169e-05 1.4022633877e-05 8.748147593e-06 -1.2751074507e-07 -1.1601601727e-05 -2.190980922e-05 
-2.7447526008e-05 -3.1248400774e-05 3.5383807699e-05 3.6696830648e-05 3.6089368223e-05 3.3604836062e-05 2.8745509553e-05 2.1566222131e-05 1.4900589122e-05 
7.1413255682e-06 -3.058126822e-06 -1.4782881408e-05 -2.3458809665e-05 -3.0229606637e-05 -3.570642366e-05 -4.668949623e-05 -4.8673322453e-05 -4.7719760914e-05 
-4.4925327529e-05 -4.079059363e-05 -3.4955115552e-05 -2.9728545996e-05 -2.1785826902e-05 -1.1806874681e-05 -1.0779856296e-07 1.1496844309e-05 2.612512435e-05 
4.0724666178e-05 5.2497925935e-05 5.9490666899e-05 6.250901788e-05 6.0715083237e-05 5.6533794123e-05 5.1823670219e-05 4.6639666834e-05 3.6034700315e-05 
2.1519617803e-05 4.1838816287e-06 -6.2547146626e-06 -1.279062235e-05 -2.0870073058e-05 -3.1868781662e-05 -3.7722933484e-05 -4.002883361e-05 -4.2212093831e-05 
-4.4498341595e-05 -4.7778357839e-05 -4.9758440582e-05 -5.1381954108e-05 -5.099541886e-05 -4.7175515647e-05 -4.033435107e-05 -2.9019092835e-05 -1.7130125343e-05 
-6.3437501012e-06 2.9216992061e-06 1.039991912e-05 1.6505155145e-05 2.1993781047e-05 2.6337076633e-05 3.2216496038e-05 3.4582448279e-05 3.6765602999e-05 
3.7874277041e-05 3.7711626646e-05 -4.2964627937e-05 -3.9089431084e-05 -3.0941679142e-05 -2.49253535e-05 5.4590586842e-06 1.7826563635e-05 2.8794038371e-05 
4.0050083044e-05 5.3009141993e-05 6.4685373218e-05 7.1478643804e-05 7.1017173468e-05 6.7019209382e-05 6.3778323238e-05 6.0383608798e-05 5.5051754316e-05 
4.7942728997e-05 3.9284786908e-05 2.2295289455e-05 3.1084964576e-05 -4.0609022108e-05 -4.6154222218e-05 -4.5871049224e-05 -4.1495139158e-05 -3.7480378523e-05 
-3.3263069781e-05 -2.778828275e-05 -2.1406771339e-05 -1.4821564037e-05 -8.7755051936e-06 -2.8953768378e-06 3.9906217353e-06 1.5416575479e-05 2.302840403e-05 
2.7941896406e-05 3.3103169699e-05 3.6675053707e-05 3.8477024646e-05 4.0996499592e-05 4.5589236834e-05 5.0183702115e-05 5.1784703828e-05 4.8328452976e-05 
4.3657102651e-05 3.9910311898e-05 3.9667509554e-05 3.6381712562e-05 3.3455384255e-05 2.7157633667e-05 1.8920509319e-05 -4.7603483836e-05 -4.8283065553e-05 
-4.6084231144e-05 -4.2519397539e-05 -3.7571393477e-05 -3.3576721762e-05 3.877076233e-05 3.9017933886e-05 3.7343481381e-05 3.3075601095e-05 2.6306803193e-05 
1.9541728761e-05 1.2470188267e-05 1.9761534986e-06 -1.0379480955e-05 -1.8416860257e-05 -2.5845751225e-05 -3.197128899e-05 -4.4877509936e-05 -4.5600958401e-05 
-4.5670127292e-05 -4.4055119361e-05 -3.9578972064e-05 -3.3894106309e-05 -2.8265090805e-05 -2.0603451048e-05 -1.0687879694e-05 7.1241942123e-07 1.0868497156e-05 
4.4835032895e-05 5.4969445046e-05 6.1733386246e-05 6.5436841396e-05 6.5590866143e-05 6.3515057263e-05 5.9972371673e-05 3.9806338464e-05 2.4284989195e-05 
9.2827058324e-06 -6.4522868115e-07 -8.7214484665e-06 -1.8117412765e-05 -2.7158117518e-05 -3.5438388295e-05 -4.129500303e-05 3.2637435652e-05 2.3569124096e-05 
-5.5014520512e-06 -1.5208671357e-05 5.2791576309e-05 6.2698745751e-05 -4.4605676521e-05 -4.629428804e-05 -4.8559926654e-05 -5.1038645324e-05 -5.2658986533e-05 
-5.0991366152e-05 -4.5868422603e-05 -3.8326208596e-05 -2.7548338039e-05 -1.6728447008e-05 -6.6011175477e-06 2.8105407637e-06 1.055318171e-05 1.7012411263e-05 
2.2641963369e-05 2.4999399102e-05 2.9789771361e-05 3.4097887692e-05 3.5914923501e-05 3.898781506e-05 -1.1977798749e-05 -2.2594165785e-05 -3.0443621654e-05 
-3.6359106161e-05 -4.1582778067e-05 -4.7804285714e-05 -4.9599315389e-05 -4.9098798627e-05 -4.7009594709e-05 -4.9417856644e-05 -5.1842314861e-05 -4.9897316785e-05 
-4.4670108764e-05 -4.470408021e-05 -4.307749623e-05 -3.8521669921e-05 -3.4029213566e-05 -2.7580712413e-05 -1.9062184947e-05 -7.8764251157e-06 2.4612283596e-05 
-3.5990749893e-05 -2.5491965062e-05 -1.4732031559e-05 -4.0687345972e-06 5.6224494074e-06 1.3460937225e-05 1.9558969143e-05 2.4826553272e-05 2.698706885e-05 
3.0666127714e-05 3.6226050725e-05 3.4408836655e-05 3.2692350942e-05 2.8133432352e-05 2.0907729777e-05 1.1164943317e-05 -1.8616400155e-07 9.1835772764e-06 
3.9242011553e-05 4.1594557842e-05 4.2460236727e-05 3.8913436583e-05 3.1394913094e-05 2.5230752726e-05 1.8958531655e-05 1.0503247722e-05 4.545806587e-05 
4.9751037295e-05 5.039091775e-05 4.6673565521e-05 4.2809333536e-05 2.0789573682e-05 2.7545251214e-05 3.5167831811e-05 4.0176622861e-05 4.2991712689e-05 
2.9338851164e-05 2.8486463634e-05 2.2808315407e-05 1.5413330402e-05 5.564534149e-06 -5.2465779845e-06 -1.6269223124e-05 -2.473350105e-05 -2.8750253477e-05 
-3.3029380575e-05 -8.1882035374e-06 -1.4320765331e-05 -2.126328036e-05 -2.6940952012e-05 -4.0046863433e-05 -3.6716206523e-05 -4.315606202e-05 -4.4996522774e-05 
-4.2384799599e-05 -3.9163645852e-05 -3.5969085729e-05 -4.4235624955e-05 -2.5870029276e-05 3.1364863389e-05 3.9401624235e-05 4.8359481298e-05 5.6524022511e-05 
6.206746184e-05 6.5737716795e-05 6.8170171289e-05 6.8089095294e-05 6.687601126e-05 6.8471177656e-05 7.1966955147e-05 6.5341191657e-05 5.5548422097e-05 
4.143024853e-05 2.5784751415e-05 1.1860827726e-05 1.3842728777e-06 -6.570462574e-06 -1.257254371e-05 -2.2072703359e-05 -3.1858988223e-05 -2.1015393941e-05 
-1.5400255506e-05 -1.1591426301e-05 -2.6364508813e-05 -1.9982144295e-05 1.6267424144e-05 -1.3934171875e-05 -1.1618972167e-05 -3.4473760024e-06 7.7596259871e-06 
1.7708825908e-05 2.8834210752e-05 4.0659768274e-05 5.3665993619e-05 7.0485715696e-05 6.7048604251e-05 6.3336177845e-05 6.0383859818e-05 5.6440207118e-05 
5.0030328566e-05 4.2666524678e-05 3.6854929931e-05 6.3280085669e-06 -6.32850697e-06 -1.8453545636e-05 -2.7499831049e-05 4.2829993617e-05 5.0266207836e-05 
5.6815162679e-05 6.1131569964e-05 6.5011736297e-05 6.8157234637e-05 6.9667017669e-05 7.0028167102e-05 7.1557158662e-05 7.3567767686e-05 -7.8905623013e-06 
4.1520201194e-05 2.700478035e-05 1.4927512893e-05 -8.7727732989e-07 -3.1119685445e-05 3.8908099668e-05 9.3700446087e-06 2.5229437597e-05 3.1028215744e-05 
4.9313406635e-05 4.6055454732e-05 4.2120329454e-05 1.751471973e-05 2.8592188755e-05 4.1155613872e-05 -2.2726007955e-05 -1.1404084034e-05 -4.9590903473e-07 
8.9437216957e-06 1.6440639229e-05 2.2461856133e-05 6.5608932346e-05 7.2222755989e-05 -1.9561790396e-05 7.1012967965e-05 5.3913612646e-05 6.4849657065e-05 
-3.9026504965e-05 7.0945578045e-05 -4.0435348637e-05 6.8728164479e-05 -4.251298742e-05 6.5293563239e-05 -4.3598141929e-05 -4.4254797103e-05 -4.2722676881e-05 
-3.8232938095e-05 -3.4977605537e-05 6.1950988311e-05 -4.5080301788e-05 4.3807456677e-05 4.6814297093e-05 2.4668333936e-05 4.4648459152e-05 1.9144357793e-05 
2.9972597986e-05 1.1814375284e-05 2.324500656e-06 -8.4947459982e-06 -4.1976596549e-05 -4.3144562369e-05 -4.1463634261e-05 -4.565537165e-05 -4.5326654799e-05 
-4.6335393563e-05 3.9125015974e-06 1.6799505829e-05 3.6544577597e-05 3.8525296986e-05 4.9036796554e-05 4.5626391511e-05 -3.0554860132e-05 -3.4550728742e-05 
-3.5955341446e-05 -3.0763138056e-05 -4.2098203267e-05 -3.67564935e-05 5.4694970459e-05 6.5408392402e-05 
Stress_XZ 1 1059 double
-3.8955972741e-06 1.2974240349e-07 3.3989274471e-06 4.9985574151e-06 5.6150201999e-06 7.3686037467e-06 4.4622538553e-06 2.4897699404e-06 4.9717941693e-06 
-3.5126754483e-07 -3.679490419e-06 -5.8535733842e-06 -6.8430335887e-06 -2.7321741527e-06 -7.6548644756e-07 -5.6759131439e-06 -1.0270978237e-05 -1.4093092432e-05 
-1.5396146409e-05 -1.3924091945e-05 -9.8217760751e-06 -5.6199182836e-06 7.375629707e-07 6.5356975938e-06 9.1191368483e-06 7.0674600465e-06 1.9713962729e-07 
1.7219407766e-07 7.216544418e-06 1.7390037101e-05 2.3935890567e-05 2.5354891477e-05 2.3541222617e-05 2.3207288905e-05 1.7678426957e-05 1.2746727407e-05 
1.079388494e-05 8.7183634605e-06 4.4705993787e-06 -1.1179361081e-06 -3.7982604226e-06 -4.6045829549e-06 -3.1559918625e-06 -3.1315246929e-07 2.851365025e-06 
3.6211615679e-06 2.0654383661e-06 -1.5288333088e-06 -9.193862752e-06 -1.8145401555e-05 -2.4593597118e-05 -2.7162386687e-05 -2.3814291126e-05 -1.9362429157e-05 
-1.4148188711e-05 -1.3626284272e-05 1.9385703126e-05 1.5581023035e-05 1.7613519958e-05 1.62704182e-05 1.6744908862e-05 2.1771238607e-05 2.970332207e-05 
3.2581800042e-05 3.0123723263e-05 2.3692588002e-05 2.2001060643e-05 1.8855880626e-05 1.3600564671e-05 8.8684146249e-06 1.4556610495e-06 -8.3355762399e-06 
-1.8909377104e-05 -3.0688122933e-05 -3.6106157495e-05 -3.5977340303e-05 -3.2352450944e-05 -2.3786982638e-05 -1.6415278878e-05 -1.0620125067e-05 -4.2144242798e-06 
-5.0189701142e-06 -6.9594780143e-06 1.0557131418e-06 4.6828654376e-06 3.4012484775e-06 1.0049147022e-05 6.2917551986e-06 1.8244507373e-05 1.8396664018e-05 
1.2545628124e-05 8.9395007308e-06 1.2208282897e-05 1.7034306438e-05 2.13983094e-05 2.296267121e-05 1.899065137e-05 1.443054316e-05 1.11675281e-05 
7.5915968409e-06 5.1905470855e-07 -1.0229278814e-05 -1.940823131e-05 -2.7497419069e-05 -2.973154551e-05 -3.1068200769e-05 -3.0049686757e-05 -2.5161030862e-05 
-2.2829555746e-05 -2.4175795261e-05 -2.8072367058e-05 -2.1689811547e-05 1.7454660792e-06 1.9473834982e-05 7.3715259532e-06 9.4993620223e-06 1.1162070223e-05 
1.2244271602e-05 1.1800812899e-05 1.0339031178e-05 1.0438157005e-05 7.0702831181e-06 3.096424507e-06 1.5457545715e-06 1.8193464939e-06 2.2804238142e-06 
3.3623173294e-06 5.3422763813e-06 4.7671010179e-06 1.4590084447e-06 -2.4116973236e-06 -7.3773703662e-06 -1.0574274711e-05 -1.0501437828e-05 -8.3874610937e-06 
-5.3938474593e-06 3.3566200273e-06 9.3003163784e-06 1.1780247405e-05 1.1513571735e-05 8.1911284724e-06 8.9794330052e-06 1.2069677723e-05 1.3067831787e-05 
1.1153372725e-05 5.6496037359e-06 -3.2032789932e-06 -1.0857748748e-05 -1.5504539988e-05 -1.8321241441e-05 -2.0670322556e-05 -2.2091891879e-05 -2.1580875909e-05 
-1.5348568922e-05 -2.4054158985e-06 8.7161724878e-06 1.7275511709e-05 2.209772174e-05 2.1096093406e-05 1.1674444977e-05 -9.5036517678e-07 -1.224738844e-05 
-2.072901043e-05 -2.8481757909e-05 -3.4837212297e-05 -3.489746814e-05 -3.0703151424e-05 -2.5008792363e-05 -1.6774878532e-05 2.453375032e-07 2.8290596674e-05 
2.1888396077e-05 1.5408535546e-05 1.1028367226e-05 1.1016942153e-05 1.3170449165e-05 1.5372201233e-05 1.3784692783e-05 7.4007793955e-06 1.2177489452e-06 
-2.5059050586e-06 -4.9312116062e-06 -7.3605283433e-06 -8.9838222266e-06 -1.061027524e-05 -1.177849299e-05 -1.6213985873e-05 -3.0850471376e-05 -4.3846172048e-05 
-4.5099608542e-05 -4.2828716687e-05 -3.6589339288e-05 -2.6867921406e-05 -2.1571626348e-05 -1.7030450181e-05 -9.4887291198e-06 -1.6707953137e-06 5.0697844927e-06 
1.0657837265e-05 1.3890954506e-05 2.0798926926e-05 2.6821471693e-05 2.8540049243e-05 2.5762174118e-05 2.1846588425e-05 2.0181405489e-05 2.0124278308e-05 
2.0716543077e-05 2.0353229047e-05 1.8284566977e-05 1.5247834199e-05 1.301332577e-05 1.0634606951e-05 5.5591185628e-06 -2.9642574191e-06 -1.2729060472e-05 
-2.1936013582e-05 -3.0212204365e-05 -3.5480486986e-05 -3.9709157136e-05 -4.3334552174e-05 -4.9139449402e-05 -5.8480432926e-05 -4.70973755e-05 -8.9656577984e-06 
1.0487265172e-05 2.0558700271e-05 2.973599112e-05 4.4050252654e-06 8.4100238382e-06 1.1217106476e-05 1.1429399819e-05 1.1105113117e-05 9.1487127065e-06 
2.0927586775e-06 -2.9067855394e-06 -1.6617692609e-06 1.8967409687e-06 4.5584065447e-06 6.2163708208e-06 7.5562688835e-06 8.3913746494e-06 8.0261961557e-06 
7.0094724833e-06 5.803879958e-06 3.0640705972e-06 -4.3844110564e-07 -4.7083431127e-06 -8.6974796432e-06 -3.6360042941e-06 2.6363975394e-06 6.7906612458e-06 
7.3979299486e-06 6.6465281634e-06 6.4428622863e-06 4.3718659981e-06 -1.2037179431e-06 -9.2306572697e-06 -1.6756206605e-05 -2.1851808924e-05 -2.4777953513e-05 
-2.6110716135e-05 -2.6946245271e-05 -2.5750625355e-05 -2.0993120415e-05 -1.2803513528e-05 -2.394732519e-06 5.9386902649e-06 1.0821064279e-05 1.1865704437e-05 
4.1066364247e-06 -4.9399591262e-06 -1.2952558791e-05 -1.9420880562e-05 -2.49414461e-05 -2.9698176149e-05 -3.1928924727e-05 -2.8654230846e-05 -2.1132687834e-05 
-1.2273580978e-05 -4.2741012294e-06 1.1482804894e-06 -9.2580012279e-06 -6.6867323767e-06 1.4510983419e-05 1.2053457795e-05 2.4235954697e-05 2.0495959689e-05 
1.5954157789e-05 1.2290321138e-05 1.0520925571e-05 9.5310815595e-06 7.7321328718e-06 5.0247435865e-06 1.4231997056e-06 -2.837345221e-07 -2.747525059e-06 
-4.7006283239e-06 -6.6657885327e-06 -8.8753777163e-06 -1.2908275494e-05 -1.8220041966e-05 -2.8251812182e-05 -4.0228998841e-05 -4.3876931159e-05 -4.2800678784e-05 
-3.8280275476e-05 -3.0964976759e-05 -2.4869837944e-05 -1.731409975e-05 -8.6608797574e-06 1.2227614477e-09 7.2987731983e-06 1.2621881979e-05 1.7042759282e-05 
2.2827562134e-05 3.0264283851e-05 3.2234511309e-05 3.0534905818e-05 2.7564172342e-05 2.433915688e-05 2.1316924176e-05 1.7209522412e-05 1.4322334209e-05 
1.2617864741e-05 1.0943193956e-05 9.0094245024e-06 7.5129664765e-06 5.5531372709e-06 -4.5930906367e-07 -9.8431182778e-06 -1.9499428163e-05 -2.8319389457e-05 
-3.5154916986e-05 -4.0196304326e-05 -4.5982727897e-05 -5.1105962484e-05 -5.155499457e-05 -4.2758940253e-05 -2.4327806386e-05 -3.4668335047e-06 9.5203240562e-06 
1.9180535674e-05 2.4123501134e-05 8.3946752056e-06 1.0022910828e-05 5.7609595387e-06 -2.1687569642e-06 -1.0114953511e-05 -1.5415722373e-05 -1.9333616365e-05 
-2.1576659492e-05 -2.3476768547e-05 -2.5382321837e-05 -2.4545433917e-05 -1.7850330551e-05 -1.072008854e-05 -5.7692013797e-06 -2.3349862204e-06 1.7706082645e-06 
5.1045540204e-06 7.8541979747e-06 8.7473126769e-06 7.6083397289e-06 4.0012150748e-06 -2.8789634143e-06 -5.8620616983e-06 -3.2152534004e-06 4.0452553662e-07 
3.5728462535e-06 5.8583991631e-06 7.5555517469e-06 9.0990652097e-06 9.9764347397e-06 1.1936883311e-05 1.1912609807e-05 9.4600954981e-06 5.7536653912e-06 
2.1813216335e-06 -4.2495139496e-07 -1.429046506e-06 -6.8673707574e-06 -1.1700270989e-05 -1.1526164599e-05 -7.799215382e-06 -1.3376738934e-06 1.2165246517e-06 
1.4683524796e-06 1.3325982309e-06 5.1457817563e-07 -2.8388731153e-06 -8.9825553005e-06 -1.7260796085e-05 -2.4768412914e-05 -2.9305800126e-05 -3.0788520235e-05 
-3.0375680581e-05 -3.0334509574e-05 -2.8188123906e-05 -2.300360029e-05 -1.3949491404e-05 -3.9550568545e-06 2.8257775284e-06 5.7871361605e-06 5.3728786042e-06 
3.564161716e-06 1.5685313883e-06 4.0116078708e-06 2.2314883608e-05 1.9739183699e-05 1.5888232156e-05 1.124676146e-05 7.1772874435e-06 3.479510724e-06 
1.2135385532e-06 1.7068052784e-06 9.2472737379e-07 -7.3945045642e-07 -2.6717332275e-06 -4.8844772209e-06 -7.6622045526e-06 -9.9673870864e-06 -1.4472703697e-05 
-3.4159940697e-05 -3.8714544644e-05 -3.9706446842e-05 -3.7159166823e-05 -3.1599582144e-05 -2.305914677e-05 -1.3695937923e-05 -6.096555353e-06 7.5017317158e-07 
5.9413891904e-06 1.0719732018e-05 1.6085696188e-05 2.2773165256e-05 3.0072862501e-05 3.2982999983e-05 3.1657840736e-05 2.8559566999e-05 2.529100675e-05 
1.9947501642e-05 1.3241020497e-05 8.8586493803e-06 7.2714537964e-06 6.4927112362e-06 4.2994010983e-06 2.2023068595e-06 2.0858560674e-06 -1.4909386437e-06 
-7.9725841715e-06 -1.5989580788e-05 -2.6103605705e-05 -3.5319357266e-05 -4.1413048166e-05 -4.6034328989e-05 -4.5806162234e-05 -4.2816875066e-05 -4.083593376e-05 
-3.2541756809e-05 -1.6994572434e-05 -4.3119093789e-06 7.8918737927e-06 1.7475727873e-05 2.2096499379e-05 -2.5410039598e-05 -1.7443158868e-05 4.0929335228e-06 
9.3363991027e-07 -4.550160611e-06 -1.0433409443e-05 -1.3857251361e-05 -1.5919747966e-05 -1.6445786969e-05 -1.6264266378e-05 -1.6692689314e-05 -1.7298048988e-05 
-1.4306117009e-05 -6.3100847001e-06 -2.0071595372e-06 5.9600154145e-07 1.9702401914e-06 4.30656155e-06 4.8226243052e-06 2.7533014872e-06 -1.5038301626e-06 
-5.9491226239e-06 -6.6052289185e-06 -3.5469079194e-06 -6.8027918587e-07 1.6371603806e-06 3.8187858991e-06 5.0556800488e-06 8.2763899627e-06 1.1703971722e-05 
1.4437231584e-05 1.5769270249e-05 1.2376652194e-05 9.1542196969e-06 7.0483806667e-06 4.9941631914e-06 3.1171036881e-06 2.3991456146e-06 -2.2605186132e-06 
-6.8939025368e-06 -1.1155153516e-05 -1.0682306311e-05 -1.0201614714e-05 -8.6840582298e-06 -7.4081362982e-06 -5.5625109781e-06 -4.7653661568e-06 -5.2873565437e-06 
-8.3066634033e-06 -1.4261680917e-05 -2.2559297577e-05 -2.9605907912e-05 -3.3192231058e-05 -3.3113061363e-05 -3.1613657484e-05 -3.025299884e-05 -2.8269290851e-05 
-2.3683289328e-05 -1.5277275452e-05 -6.2655112743e-06 -1.2579232589e-06 3.2698741848e-07 1.9399767837e-07 -5.4031835361e-07 -1.0010273854e-07 1.7994169639e-06 
1.9896822323e-06 2.2702308797e-06 -1.2283676369e-05 -1.4396538063e-05 -1.8547232685e-05 -2.5246610676e-05 -2.9240442018e-05 -3.2600728446e-05 -3.4610206058e-05 
-3.3788604924e-05 -2.8610931622e-05 -2.00282484e-05 -1.0689333976e-05 -3.6340702536e-06 1.3468361431e-06 4.5624024096e-06 8.2059077613e-06 1.3202986338e-05 
2.0559136829e-05 2.8194926927e-05 3.1144256354e-05 3.0456849345e-05 2.7662546927e-05 2.2294914743e-05 1.5506378986e-05 9.3900325737e-06 5.2028276514e-06 
3.7274078295e-06 3.2450129765e-06 3.7878427861e-07 -2.0440147637e-06 -1.8614264263e-06 -3.9447349991e-06 -8.3146733232e-06 -1.546535168e-05 -2.6355479349e-05 
-3.7662990508e-05 -4.4292359235e-05 -4.7306177294e-05 -4.6772191126e-05 -4.335957783e-05 -4.2339976062e-05 -3.6953246308e-05 -2.4697395929e-05 -1.1946192899e-05 
1.7874225477e-06 1.3029448382e-05 1.9521216018e-05 2.1969690351e-05 2.1854142688e-05 1.9302302462e-05 1.5225435163e-05 1.0972315067e-05 6.9917628025e-06 
4.1160883484e-06 3.8229945858e-06 4.3031636778e-06 8.7335115495e-07 -2.2858691864e-06 -4.6662294153e-06 -6.1119576458e-06 -8.7913731477e-06 -1.1545517737e-05 
-1.3658215721e-05 -1.5137690752e-05 -1.6123494788e-05 -1.8094100596e-05 1.1614303048e-06 -2.2876952244e-06 -4.8621354836e-06 -7.6441529018e-06 -8.9682444013e-06 
-9.1106985565e-06 -8.8162805696e-06 -9.2790287454e-06 -9.8868786154e-06 -1.0901478163e-05 -1.4155669305e-05 -1.6577756469e-05 -1.4813015696e-05 -9.5487939689e-06 
-4.5889905778e-06 -2.0927795958e-06 -9.5172083547e-07 6.2517909782e-07 2.1773603294e-06 7.1807187396e-07 -1.1578659951e-06 -5.2827331274e-06 -7.7991044236e-06 
-4.7449884732e-06 -2.3053744371e-06 -1.0410468576e-06 -4.7553487548e-07 2.4163978196e-06 6.5887043093e-06 1.2141145817e-05 1.5910774891e-05 1.4623293282e-05 
1.0708427908e-05 -6.740873232e-06 -9.2191467047e-06 1.7310600015e-05 1.9118309865e-05 7.3181481639e-06 6.5626318246e-06 7.6008345786e-06 2.9128907499e-06 
-1.721420972e-06 -7.1391154961e-06 -1.2166565284e-05 -1.2309704289e-05 -1.4630931219e-05 -1.2129040442e-05 -1.0677806131e-05 -1.0878082321e-05 -1.1985162018e-05 
-1.438945128e-05 -1.9368251742e-05 -2.6184447051e-05 -3.2635569369e-05 -3.4490742109e-05 -3.2226143958e-05 -2.9623221053e-05 -2.8083790312e-05 -2.6251480449e-05 
-2.2475707738e-05 -1.5453570086e-05 -8.0575800894e-06 -3.3896010336e-06 -3.8050818603e-06 -3.6132687455e-06 -1.2747415212e-06 1.6784271111e-06 4.111565886e-06 
3.6453350276e-06 2.584584081e-06 -2.2216141588e-05 -2.5016553991e-05 -2.7833075364e-05 -2.9655997423e-05 -2.881671935e-05 -2.4625558581e-05 -1.7080936232e-05 
-9.5341165434e-06 -3.7488962334e-06 -5.1957318448e-08 2.7851353934e-06 5.3697735893e-06 8.6439458755e-06 2.4841472623e-05 2.7137730285e-05 2.6427580451e-05 
2.4067236154e-05 1.9944798623e-05 1.2515012713e-05 7.0544647315e-06 3.657779871e-06 1.9499229893e-06 1.1103290944e-06 -1.8005330276e-06 -4.880463166e-06 
-6.0422712522e-06 -7.7008298831e-06 -1.166891343e-05 -1.8712589736e-05 -2.8233554985e-05 -3.7897931179e-05 -4.3226311391e-05 -4.8618021538e-05 -4.8828478612e-05 
-4.6776585805e-05 -4.3492698751e-05 -3.9209051465e-05 -2.8824504625e-05 -1.6862604753e-05 -2.8003069019e-06 9.6727544587e-06 1.7731170374e-05 2.1216306777e-05 
2.1869464035e-05 2.0016139388e-05 1.6885398509e-05 1.3614273485e-05 1.047580281e-05 7.1081835813e-06 5.5948457884e-06 4.5317469812e-06 1.5659026076e-06 
-2.4492624107e-06 -5.3783355725e-06 -6.6247353061e-06 -8.6180716607e-06 -1.1008657566e-05 -1.2203006008e-05 -1.4462883883e-05 -1.4885878954e-05 -1.5108062144e-05 
-1.6594844055e-05 -1.8172206182e-05 1.8104741685e-05 1.0494951312e-05 -1.088099998e-05 -1.3583474356e-05 -1.6630265236e-05 -1.7552645659e-05 -1.8650816855e-05 
-2.0482024411e-05 -2.3837690605e-05 -2.8178566936e-05 -3.0529405194e-05 -3.1327192119e-05 -3.0107416023e-05 -2.8243212e-05 -2.5654717319e-05 -2.3178448828e-05 
-1.9334234821e-05 -1.4849975742e-05 -7.4424528975e-06 -1.0072368241e-05 1.3868958604e-06 6.23045878e-07 -1.5825545461e-06 -2.3472252906e-06 -1.7297393242e-06 
-1.7534675862e-06 -2.4601959012e-06 -5.502733984e-06 -8.2709057097e-06 -1.0091634977e-05 -1.3119323739e-05 -1.1824062312e-05 -1.4864260265e-05 -1.1323782928e-05 
-5.0882172218e-06 -3.6591168282e-06 -3.1681472592e-06 -8.595940244e-07 -8.5269846295e-08 -9.2531701057e-07 -3.4549348129e-06 -6.3119759943e-06 -8.5010979092e-06 
-1.0243707038e-05 -1.1495649233e-05 -1.0348691831e-05 -8.1429243437e-06 -7.2363231993e-06 -5.5938307923e-06 -3.7621052797e-06 9.5941777545e-06 1.1615720723e-05 
1.1001687199e-05 8.8141896413e-06 2.4826870231e-06 -5.1449842431e-06 -2.0081948605e-05 -2.1617175662e-05 -2.2431297111e-05 -2.2385860575e-05 -1.9544182578e-05 
-1.4789806301e-05 -1.0270707207e-05 -6.5403705776e-06 -2.6764184895e-06 -7.6167884799e-07 1.1415653489e-06 3.0445776247e-06 2.0716301151e-05 2.2518208425e-05 
2.1806165023e-05 1.906331272e-05 1.550612069e-05 1.1138993614e-05 6.8570275289e-06 3.7449631236e-06 9.8114730918e-07 -8.6415735723e-07 -2.2050178359e-06 
-9.9647540992e-06 -1.2615540982e-05 -1.6480697013e-05 -2.2236536097e-05 -2.9106804504e-05 -3.5408273106e-05 -4.2499090341e-05 -4.8680176405e-05 -4.5476659579e-05 
-3.9812493924e-05 -3.4442997276e-05 -2.8811811717e-05 -2.237354056e-05 -7.5119833127e-06 4.8007491387e-06 1.2601656636e-05 -8.069222531e-06 -7.7105923992e-06 
-1.4581473806e-05 -1.4512647795e-05 -4.584042108e-05 -4.0213264583e-05 1.7913096599e-05 1.9268039978e-05 1.8065966287e-05 1.6068361219e-05 1.5436256945e-05 
1.4243038095e-05 1.1867689864e-05 8.5649271568e-06 5.4761494539e-06 1.5093937691e-06 -2.7199682791e-06 -6.0638703872e-06 -7.8750636021e-06 -9.3178387033e-06 
-1.1008364709e-05 -1.2011030776e-05 -1.3142118405e-05 -1.4042336261e-05 -1.3568014765e-05 -1.2355793842e-05 6.2982130657e-06 1.148487263e-05 1.5517480279e-05 
1.8319549781e-05 1.8490647562e-05 1.886503378e-05 1.8063166863e-05 1.3876039702e-05 1.4699827261e-05 1.5141969925e-05 1.5755538698e-05 1.740935113e-05 
1.5213568076e-05 1.6444850189e-05 1.4490720787e-05 1.2872470506e-05 1.0574796761e-05 7.2102202466e-06 4.3752711463e-06 -1.3506716812e-07 -8.4270286607e-06 
1.1692758562e-05 6.4887813096e-06 1.4574965235e-06 -3.2078733057e-06 -6.438762739e-06 -8.7021389845e-06 -9.96298877e-06 -1.1238274965e-05 -1.2322541806e-05 
-1.3265940652e-05 -1.3043462786e-05 -1.129292923e-05 -1.0407255104e-05 -8.9644927357e-06 -7.1576141636e-06 -4.1957837311e-06 1.3855176562e-08 -1.7881540089e-06 
-1.6475252778e-05 -1.57081613e-05 -1.4425688278e-05 -1.3838383893e-05 -1.3410030078e-05 -1.1977678696e-05 -9.699315342e-06 -1.0306403965e-05 -2.1514308628e-06 
-4.099591024e-06 -6.8495724008e-06 -9.2965919976e-06 -1.0586266399e-05 -1.2134640201e-05 -8.1929820226e-06 -3.7285292365e-06 -3.2483419545e-06 -3.2475390981e-06 
-1.2599425645e-05 -1.2888204765e-05 -1.0575311535e-05 -8.3803988673e-06 -4.4919274842e-06 1.13386659e-06 7.2295383688e-06 1.2401851563e-05 1.3505326024e-05 
1.3590749404e-05 -7.0649903137e-06 -3.6007104427e-06 -2.5063081921e-06 -2.2508093878e-07 1.0931761608e-05 5.6143712754e-06 5.1588340284e-06 4.2745255087e-06 
4.020713277e-06 4.0326181079e-06 4.4064881877e-06 1.7316146113e-05 -2.2141312002e-06 -1.0019278307e-05 -1.0875148291e-05 -1.3360341654e-05 -1.7013344404e-05 
-2.0520699763e-05 -2.4990353268e-05 -2.9747319786e-05 -3.35441473e-05 -3.7438610889e-05 -3.7820049329e-05 -3.2653035305e-05 -3.8412817958e-05 -4.2554427637e-05 
-4.4548611186e-05 -4.066175461e-05 -3.487376307e-05 -2.9649492717e-05 -2.5303990697e-05 -1.9039674953e-05 -1.1942345736e-05 -3.8925886656e-06 -3.7794025047e-06 
-5.9191420405e-06 -8.2257411123e-06 -7.5293660302e-06 -1.3546537957e-05 -6.171055702e-06 -1.7505495634e-05 -2.0356770619e-05 -2.0186213078e-05 -2.2753469239e-05 
-2.3512766347e-05 -2.4104896511e-05 -2.5385210392e-05 -2.7397556551e-05 -2.7994390621e-05 -2.982366459e-05 -2.8618373108e-05 -2.4904262318e-05 -2.1043089873e-05 
-1.7741025658e-05 -1.4062062291e-05 -1.1625159459e-05 -3.8323837543e-06 1.5795899344e-07 4.3684908633e-06 7.1110080171e-06 -1.3064902305e-05 -1.5693993191e-05 
-2.0372173822e-05 -2.3645832698e-05 -2.5684101274e-05 -2.9517414077e-05 -3.197164915e-05 -3.407564509e-05 -3.3493834053e-05 -3.0233341022e-05 -2.0232566385e-05 
-3.7924652133e-05 -3.6386350985e-05 -3.1842795579e-05 -2.4733866667e-05 6.4842784013e-06 -1.3579404367e-05 -2.7918262276e-05 -8.5664250946e-06 -6.1430409914e-06 
-7.5267548709e-06 -9.5794612207e-06 -1.1388042367e-05 -2.7721083825e-05 -2.9799053664e-05 -3.0755389162e-05 7.5562288657e-06 1.4430265765e-06 -3.7924912704e-06 
-7.2447628554e-06 -9.9132748801e-06 -1.1574486052e-05 -2.8995471439e-05 -2.8239863241e-05 7.8561288319e-06 -3.1918003515e-05 -3.1467865483e-05 -3.2256502891e-05 
9.7899655884e-06 -3.1051979022e-05 9.5128325484e-06 -3.0674709706e-05 1.018673629e-05 -2.7743324608e-05 1.1179335161e-05 1.2663569578e-05 1.1332734175e-05 
1.0648657735e-05 1.0024914445e-05 -2.430805398e-05 9.0091270977e-06 -1.1056656149e-05 -8.6948821263e-06 -1.2516952665e-05 -6.9205357249e-06 -1.0844104509e-05 
-7.9413175627e-06 -8.5860528998e-06 -4.3463342081e-06 1.5339001038e-06 1.5948440705e-05 1.6108766431e-05 1.3683324141e-05 1.131510453e-05 1.3955263967e-05 
1.5504407202e-05 -2.0951060833e-06 -5.6161488828e-06 -7.2286475188e-06 -3.7694085222e-06 -4.2367737478e-06 -3.294419912e-06 1.6034986174e-06 4.4284092837e-06 
5.2861364566e-06 1.2410962427e-06 6.5534618443e-06 9.0281000666e-06 -3.7295743823e-05 -3.5515982745e-05 
POINT_DATA 1116
FIELD FieldData 31
Circ_Strain_Pt 1 1116 double
0.984859908 0.9854855974 0.98817120629 0.98950405915 0.98833828695 0.99013306333 0.99528813402 0.99585063898 0.99866970398 
0.99804395052 0.99858409518 0.99901409136 0.99860677422 0.99928951983 0.99664830537 0.99663679788 0.99246576805 0.99227747779 
0.9923731836 0.99092009321 0.99329327715 0.99266825948 0.99495609826 0.99511116358 0.99570141901 0.99891904527 0.99554892974 
0.99922467625 0.99485503449 0.99931085134 0.99520097165 0.99872417891 0.99520167334 0.99734454115 0.99441433066 0.99505047597 
0.99420651711 0.99422384365 0.99464267011 0.99543243135 0.9960874775 0.9971145451 0.99786562521 0.99870465517 0.99791218381 
0.99816879142 0.99783966001 0.99753983957 0.99748017535 0.99708808764 0.99623500409 0.99462229473 0.99440193908 0.99260413387 
0.99405278175 0.99437118055 0.99491311124 0.99694359081 0.99708316545 0.99854071039 0.99898381535 0.99928937034 0.99947678442 
0.99941547336 0.99857901509 0.99873671873 0.99719049316 0.99753816888 0.99703698525 0.99732233291 0.99802551037 0.99810789524 
0.99874087823 0.9989537813 0.9991972547 0.99927429433 0.99932958825 0.99892373403 0.99841982097 0.99869653396 0.9979203092 
0.9986374942 0.99847304074 0.99886171323 0.99921619914 0.99893151104 0.99886772856 0.99868031876 0.99707452297 0.99817052232 
0.99648621482 0.99725913973 0.99653790512 0.99684425595 0.99714165106 0.99705359419 0.9982426022 0.9981100104 0.99903870601 
0.99887825568 0.99966265003 0.99948412618 0.99889207405 0.99929891871 0.99854201246 0.99925282353 0.99889581926 0.99919125348 
0.99776917607 0.99714884005 0.993837215 0.99447274116 0.99750681077 0.99731514762 0.99801450876 0.99840775067 0.99741048682 
0.9967653003 0.99788236228 0.99598931394 0.99833072682 0.99719020126 0.99868592888 0.9989592434 0.9977635035 0.99850004923 
0.99682227674 0.99755288147 0.99581118837 0.99701716932 0.99557214732 0.99696327004 0.99760237238 0.9979814113 0.99915501876 
0.99878846341 0.99940134293 0.99925449141 0.9987254987 0.99888012276 0.99673607362 0.99733713705 0.99523374291 0.99461544312 
0.99398737354 0.99099682067 0.99471279194 0.99106746221 0.99573583022 0.99234197896 0.99733451355 0.9965435997 0.99803331732 
0.9973783538 0.99811359644 0.99609005332 0.99748789074 0.99697283816 0.99608561793 0.99745423233 0.9933704023 0.9963684236 
0.99574897582 0.99690888095 0.99818971337 0.99897937331 0.9989211284 0.99846989158 0.99687763308 0.99739125899 0.99471219752 
0.99682250313 0.99269972502 0.99683416986 0.99515679813 0.99680383623 0.99684207364 0.99717219466 0.99714305459 0.99842061683 
0.99602529609 0.99721132387 0.99406796085 0.99464771182 0.99144046136 0.99102879073 0.9881302795 0.98814287993 0.98812259644 
0.98781361157 0.99324698194 0.99338293792 0.99743907581 0.9968085219 0.99891581019 0.99914260946 0.99738248419 0.9986086791 
0.99530386735 0.99452122102 0.99455151425 0.99390869431 0.99494065734 0.99603778382 0.99599145743 0.99750916137 0.99655770213 
0.99799021252 0.99669078299 0.99854478404 0.99669666522 0.99836426763 0.99702633297 0.99814052213 0.99818074507 0.99860550401 
0.9988825792 0.99855837462 0.99925254444 0.99788651663 0.99883304793 0.99760439979 0.99835757646 0.99764356083 0.99837733719 
0.99555480682 0.99807604995 0.99541869648 0.9912493661 0.99167381484 0.99338101416 0.99830061887 0.99885826071 0.99704719425 
0.99434932255 0.99294968452 0.99440531857 0.99668466603 0.99902129536 0.9986023556 0.9984563525 0.99838536767 0.99749120296 
0.99580822853 0.99469213281 0.99529530655 0.99753859162 0.99917985136 0.99929234946 0.99873677121 0.99809951598 0.99637578419 
0.99212782667 0.99086182784 0.99193617815 0.99564177706 0.99810017948 0.99942991836 0.99890915231 0.99808392612 0.99763690065 
0.9975880168 0.998077676 0.99896065455 0.99905751524 0.99912996846 0.99911356017 0.99937364839 0.99906019053 0.99857561545 
0.99810703965 0.99761456691 0.99677106819 0.99655667727 0.99731984922 0.99833175692 0.99925875789 0.99943627613 0.99825117816 
0.99739820525 0.99707723848 0.99601807248 0.99623937448 0.99186557151 0.9981186833 0.99739582339 0.9961454018 0.99659253778 
0.99850431734 0.99867604419 0.99826016949 0.99802426743 0.99821734167 0.99864080974 0.99880549165 0.99871696391 0.9982255918 
0.99802941495 0.99663580573 0.99469049023 0.9912466627 0.99142761898 0.99520338546 0.99652165446 0.99549145531 0.99683927869 
0.99843102454 0.99886114775 0.99862671254 0.99885354167 0.9995206329 0.99886982443 0.99835256841 0.99778838083 0.99651779041 
0.9960796674 0.99671767827 0.99725412028 0.99647523304 0.99454239853 0.99070857487 0.98994324503 0.99380097135 0.9984938919 
0.99923356719 0.99616734196 0.99421815068 0.99411852337 0.99718308221 0.99836377309 0.99867449205 0.99904896411 0.99911432136 
0.99907428296 0.9991359923 0.99885908799 0.99615898921 0.99482512101 0.99478229813 0.99239654169 0.99409749074 0.99499162718 
0.99312836988 0.99077531283 0.99626129534 0.99829393992 0.99903913323 0.99644684045 0.99430105223 0.99486164005 0.99729225447 
0.99822724114 0.9978469704 0.99821240398 0.99766570889 0.99685815046 0.99784502553 0.99728869086 0.9975032117 0.99868731611 
0.99918926203 0.99894121005 0.99863578505 0.99432629541 0.99712238308 0.99229943618 0.99177810796 0.99544233469 0.99778666986 
0.99940542899 0.9997146238 0.99941932516 0.99899576163 0.99852610323 0.99804432576 0.99809852886 0.9986120631 0.9993188269 
0.99953181112 0.99948766214 0.99937977096 0.99903937294 0.99839818267 0.99731779585 0.99767461378 0.9959112168 0.99663699572 
0.99515487695 0.99792422794 0.99912925014 0.99840399161 0.99723927998 0.99652093126 0.99694276738 0.99676909853 0.99713511311 
0.99665443193 0.99063912296 0.99812959999 0.9975608496 0.99713190218 0.99581523606 0.99429038983 0.99690276711 0.99493445349 
0.99667630063 0.99729640335 0.99783015446 0.99828142434 0.99868817392 0.9990874795 0.99871638839 0.99860915807 0.99801403272 
0.99695809988 0.99580849661 0.99461808896 0.99106174492 0.99074187812 0.99299632219 0.99469117254 0.99574121294 0.99644592397 
0.99801353904 0.99899847994 0.99941937268 0.99975938651 0.99964917511 0.99773843262 0.99794060347 0.9977526963 0.99675112066 
0.99497574574 0.9957692276 0.99676337331 0.99553795072 0.99279628618 0.9889244993 0.98930623789 0.99410244271 0.99759669722 
0.99941940858 0.99874171483 0.99620857872 0.995536785 0.99635008406 0.99752746118 0.99863885731 0.9991812615 0.99942440482 
0.99954165062 0.9995888759 0.99957410742 0.99948352004 0.99315895817 0.987780506 0.98878540041 0.99308338465 0.99858361895 
0.99846173657 0.99366795469 0.99408451282 0.99473852162 0.99327965787 0.99292481567 0.99459744723 0.99788536654 0.99884813615 
0.9977252627 0.99701794 0.99733390002 0.99672836443 0.99555945748 0.99533959877 0.99370467762 0.9928199286 0.99274823698 
0.99442926262 0.99730246015 0.99865023191 0.99902545357 0.99725155651 0.99815218016 0.99780331567 0.99727013119 0.99724748703 
0.99695919355 0.99615480535 0.99577460988 0.99572962088 0.99811978982 0.99950870284 0.99883705519 0.99844192866 0.99819966413 
0.99813788137 0.9983767744 0.99754973736 0.99731031877 0.99564600351 0.99615532947 0.99533511492 0.99435507095 0.99478084914 
0.99542257507 0.99696360757 0.99806768024 0.99867736655 0.9993398898 0.9993698417 0.99917735597 0.99902874531 0.99905842735 
0.99901425394 0.99899059141 0.99881241607 0.9989140856 0.99926841345 0.99923676116 0.99892023306 0.99803507989 0.99643664966 
0.99680547156 0.99629395033 0.99466886097 0.99475141375 0.99212817401 0.99448296587 0.99295907572 0.99926143497 0.99898617547 
0.99861664775 0.9990821079 0.99965790685 0.99920213012 0.99884351315 0.99677081571 0.99467336674 0.99308204051 0.99176441011 
0.99225902078 0.99220056387 0.99129959602 0.99757425188 0.99603832548 0.99703789175 0.99803599844 0.99914295991 0.99957812418 
0.99964208207 0.99943126367 0.9974964511 0.99617795931 0.99736533649 0.99862714656 0.99711279257 0.99608873401 0.99591839525 
0.99497997306 0.99353035659 0.9909991922 0.98801809369 0.99113635722 0.99542154872 0.99907084161 0.99880196142 0.99774192598 
0.99712400258 0.99688142813 0.99785740546 0.99853529357 0.99891792365 0.99912118071 0.99931103179 0.99946620897 0.99968274236 
0.99949783112 0.99611150139 0.98931787208 0.98617323675 0.98858132544 0.99246982198 0.99439752175 0.9986794191 0.99596734482 
0.99338140332 0.99541294048 0.99126626279 0.98965421331 0.99080280434 0.99321223138 0.99586245891 0.99814442491 0.99907847114 
0.99818700458 0.9971358066 0.99591887565 0.99362182088 0.98997423047 0.9923469967 0.98987831431 0.9921210837 0.99449358769 
0.9965116218 0.99790385504 0.99879581943 0.99897850178 0.99726838548 0.99633433616 0.99564187817 0.99568581747 0.99530473232 
0.99565849968 0.99623549737 0.99753373155 0.99870445279 0.99917907509 0.99837284561 0.99802977491 0.99811012303 0.99805278505 
0.99814936506 0.99877094559 0.9973000724 0.99721180587 0.99413436253 0.994162048 0.99435006148 0.99369518362 0.99298708826 
0.99364760956 0.99447355966 0.99740059427 0.99880081388 0.9990015044 0.99913647234 0.99930852523 0.99928555262 0.99912324716 
0.99924372283 0.99916569187 0.99913143094 0.99907092465 0.99928279446 0.99939515816 0.99903430469 0.9976300075 0.9969582687 
0.9976089992 0.99685090834 0.99577045086 0.99502518638 0.99466238028 0.99397824841 0.99331052448 0.99370680167 0.99350921069 
0.99733369886 0.99544629785 0.99795332906 0.9981259306 0.99807947449 0.99770985873 0.99802044228 0.99897469196 0.99971311013 
0.99953137974 0.9985503728 0.9976086964 0.99793309291 0.99838288171 0.99847156034 0.99690475 0.99672302504 0.99711450551 
0.99257698169 0.98774823086 0.9882747131 0.99078928641 0.99483557139 0.99832130911 0.99824785252 0.99654916793 0.99655018179 
0.99841433489 0.99837940308 0.99840618828 0.99785244643 0.99820629459 0.99910070394 0.99951220628 0.99976440999 0.99969433365 
0.99603484516 0.99033677398 0.98428063591 0.98266494359 0.98381682997 0.99383148622 0.99729782757 0.9980320547 0.99563964381 
0.99633284777 0.99760839856 0.9984198161 0.99811067312 0.9983691862 0.99866648392 0.99903754133 0.99937182681 0.99907918525 
0.99719835609 0.99399616134 0.99223283275 0.99226091364 0.99394989662 0.99508082456 0.99558260413 0.99597628311 0.99556275726 
0.99610618672 0.99603255572 0.99229166198 0.99258768398 0.99577712706 0.99926706551 0.99899495689 0.99875436512 0.99852459297 
0.99842863184 0.99818304609 0.99489257986 0.99456177184 0.99239089532 0.99378916668 0.9894852985 0.98957795707 0.99104388659 
0.99240362175 0.99481718673 0.99657495735 0.99735736425 0.99784546467 0.998370557 0.99856267754 0.99886698873 0.99527110574 
0.99638448006 0.99484549113 0.99411347549 0.993598493 0.99447763512 0.99669495998 0.99867724294 0.99920902391 0.997428415 
0.99765705922 0.99702403782 0.99691933958 0.9987459154 0.99913691098 0.99819449 0.99852508634 0.99817217066 0.99822139432 
0.99823658293 0.99494626931 0.99285098016 0.99294174059 0.99404363301 0.99301190129 0.99294532901 0.99665693414 0.99881613344 
0.99864074421 0.99875302822 0.99909462867 0.99906667192 0.99950340741 0.9995438329 0.99933561925 0.9991216607 0.99894281574 
0.99898340996 0.99879994923 0.99749657016 0.99777906985 0.99731104062 0.99715276108 0.99516870627 0.99532133624 0.99462109816 
0.99600272398 0.99436892436 0.99637487501 0.99680666613 0.9973213459 0.99780536138 0.99818733215 0.9993916217 0.99981065948 
0.99931258625 0.99820977079 0.99782188385 0.99805553775 0.99868308055 0.99939977307 0.99621373026 0.9979999383 0.99212892566 
0.98900869474 0.98742240253 0.993177983 0.99730413579 0.99848501598 0.99908335859 0.99935311347 0.99665337517 0.99483219638 
0.99774224667 0.9986087406 0.99841677008 0.99733846297 0.99738435586 0.99811108737 0.99879663376 0.99902356707 0.99932524241 
0.99952764292 0.99235316864 0.98625851505 0.98746498036 0.9894869325 0.99112618149 0.99418944812 0.9968205406 0.99746254146 
0.99824008854 0.99889718849 0.99842016661 0.99828745759 0.99798033586 0.99824025126 0.99818643512 0.99875502761 0.9991237282 
0.99766983425 0.99591175358 0.99448927437 0.99366444395 0.99378990959 0.9946586782 0.99575948905 0.99688923171 0.99681424996 
0.99660418853 0.99706955461 0.99609309203 0.99877603097 0.99940079295 0.99343825482 0.99486321123 0.99412718669 0.9924332979 
0.99523792181 0.99853404113 0.99798267256 0.99762299315 0.99773020782 0.9975426826 0.9992385083 0.99951721346 0.99937600791 
0.99915279731 0.99903945094 0.99930562196 0.99808285545 0.99730436011 0.99635255112 0.99367793076 0.99403800928 0.99617124203 
0.99856610179 0.99944000131 0.99944506243 0.9984916996 0.99733447007 0.99697729936 0.99701828565 0.9960171118 0.99405684452 
0.99620828562 0.99046262594 0.98963199286 0.99063890545 0.99510676298 0.99656909002 0.99755340958 0.99764909613 0.99740586771 
0.9976827485 0.99813156679 0.99807031619 0.99862978941 0.9973416503 0.99481888388 0.99256528385 0.99393224212 0.99581671571 
0.99523295602 0.99745014446 0.99757244329 0.99817447249 0.99684535131 0.99874135588 0.99687532098 0.99738351342 0.99744560389 
0.99702335326 0.99772202093 0.99926997061 0.99937789548 0.99779494317 0.99657568775 0.99738907022 0.99858966157 0.99868313574 
0.99534992224 0.99558612012 0.99425569109 0.99086093258 0.99037370434 0.99127312788 0.99446360374 0.99772309431 0.99857746838 
0.99723453998 0.99570120976 0.99576229395 0.99891405808 0.99705442511 0.99815094859 0.99743158091 0.99796794731 0.99913317413 
0.99922292424 0.99913361243 0.99727218153 0.9986606745 0.99461392296 0.99238316309 0.99323809008 0.9936889055 0.99420454822 
0.99797223696 0.99513677932 0.99546719705 0.99161404096 0.99339574402 0.99827872564 0.99832951034 0.99848485563 0.99798323472 
0.99785236382 0.99772176259 0.99835119334 0.99910253831 0.99940653206 0.99931251882 0.99899871194 0.99838246757 0.99692236732 
0.99567895563 0.99524612693 0.99508293317 0.99529989683 0.99605731411 0.99631086687 0.99695601639 0.99731990102 0.99719576318 
0.99610609334 0.99814277174 0.99831898715 0.99949100743 0.99949730492 0.99938391863 0.99827074786 0.99280313864 0.99391600236 
0.9929489607 0.99478540569 0.99608154948 0.99658036835 0.99731040692 0.99780182673 0.99646042486 0.99930825054 0.9990524412 
0.99871041369 0.9981893105 0.99752956772 0.99658470645 0.99560173583 0.99484342977 0.9961137329 0.99520312036 0.99455920045 
0.99458471495 0.99485454969 0.99535381734 0.99758136496 0.99717839735 0.99587998904 0.99634724482 0.99798614023 0.99884689888 
0.99845795283 0.99760283308 0.99768631231 0.99762135765 0.99760523592 0.99382159445 0.99439895184 0.99645453756 0.99599595376 
0.99464941299 0.99536970111 0.9965679331 0.99711103838 0.99734599508 0.9977832669 0.99823631808 0.99882105248 0.99625205652 
0.99691482695 0.998118908 0.99952727343 0.9980003799 0.99919225564 0.99341892452 0.99306628212 0.9933754913 0.99629323333 
0.99763354304 0.99571596611 0.99950844289 0.99753853245 0.99904525077 0.9986799667 0.99790089433 0.99704138376 0.99701529931 
0.99742385855 0.99857620954 0.99893334896 0.99824363003 0.99810954395 0.99812736857 0.99817899341 0.99866499251 0.99918600719 
0.99809455256 0.99703864583 0.99440127417 0.99451807607 0.99447849117 0.99470185327 0.99308327896 0.99238593691 0.99307772955 
0.99683022696 0.99885802037 0.99863562145 0.99806467131 0.99745104845 0.99909831631 0.99889190815 0.99895687638 0.99820247152 
0.99801902479 0.99826723999 0.99801346112 0.99731388368 0.99524765665 0.99770543204 0.99823772377 0.99905435195 0.99922451602 
0.99885232454 0.99872778025 0.9984848051 0.99690968345 0.99567283332 0.99809163361 0.99764062221 0.99697160567 0.99590967734 
0.99730337894 0.99869054754 0.99844196769 0.99705563417 0.99568764998 0.99495416935 0.99728459831 0.99765961211 0.99805587312 
0.99832714889 0.99735568449 0.99311377935 0.99234904128 0.99288674533 0.99394883686 0.99693159925 0.99815779597 0.99946669576 

Circumferential 3 1116 double
-0.21939288528 -0.073250276029 -0.96722531644 -0.27998789031 0.11452269865 -0.93838993113 -0.27590568855 0.11633190941 -0.94663862939 
-0.22388011498 -0.02776347361 -0.97204403288 -0.33372239385 0.27998796844 -0.89929633004 -0.31400873032 0.23269624386 -0.9173490125 
-0.36559194201 0.34804504458 -0.86093133284 -0.34189822837 0.32376124133 -0.87913254006 -0.38411128606 0.41499701901 -0.82293433155 
-0.36114346167 0.39936848854 -0.84031345918 -0.38965867113 0.48087520205 -0.78529489992 -0.37491998308 0.46871691294 -0.79914729677 
-0.40594431313 0.53040627245 -0.74266986174 -0.38032686225 0.52777778057 -0.75803570555 -0.42395500465 0.59152918389 -0.68142077444 
-0.39756086734 0.60150334877 -0.68639536775 -0.44356302291 0.66615738076 -0.59945204344 -0.42638712798 0.69859647495 -0.56632776635 
-0.46272473676 0.78085594164 -0.38701662543 -0.45464499202 0.81223638399 -0.34968320477 -0.46468619278 0.85045998632 -0.23335404909 
-0.4645558723 0.85494750105 -0.2248435176 -0.45242963647 0.88171864392 -0.13349709875 -0.46141389105 0.86992539574 -0.17296295813 
-0.43708698318 0.89194138113 -0.11442473542 -0.42610976964 0.88718824734 -0.17542045528 -0.40678666376 0.90828531483 -0.088863310771 
-0.39715695603 0.90662946124 -0.12958467573 -0.37051697523 0.92674504698 -0.061398002924 -0.3645185746 0.92795012716 -0.077348903501 
-0.3953988969 0.91548026622 -0.070315021115 -0.33986375372 0.93885128508 -0.022886769387 -0.39776773088 0.91182443098 -0.03712560366 
-0.32159639775 0.94252240927 0.054834696593 -0.34874754572 0.92553699285 0.092177170431 -0.31718084442 0.93008467628 0.16053751041 
-0.30585703465 0.90866917443 0.24398591562 -0.30432235443 0.89986435302 0.28747174514 -0.26977775165 0.85782076556 0.4208030544 
-0.27953813961 0.84486329715 0.44213117052 -0.21313034818 0.8101633969 0.53644192081 -0.23343570651 0.79967994422 0.54680159444 
-0.14931875409 0.76372345049 0.627763624 -0.17785294483 0.76076496453 0.6240941306 -0.10832309015 0.71735174956 0.68450537648 
-0.1170212451 0.71613736485 0.6845338938 -0.063130056941 0.65660953308 0.74667587976 -0.054778188713 0.65078253347 0.75171534877 
-0.0078223402767 0.56123771727 0.8219284095 0.0053595769446 0.56074991832 0.82475486491 0.060190094934 0.43026149658 0.88960823014 
0.060963371259 0.42603004261 0.89244521262 0.13665963945 0.27418744726 0.95143296892 0.11664901583 0.2516099472 0.9565254061 
0.19357231213 0.072583849799 0.96644435295 0.17987526436 0.040395823029 0.97672947009 0.23777825949 -0.08317635843 0.96453156885 
0.23506327467 -0.11748050387 0.96008088881 0.26822439393 -0.18929384254 0.94429200257 0.29330954473 -0.21648790049 0.93075334359 
0.31266716847 -0.22499962685 0.92187797591 0.32130952034 -0.25062595009 0.91245674436 0.35848259403 -0.27430932257 0.89012104792 
0.35192794645 -0.29177536945 0.88813255375 0.40499206287 -0.34052588053 0.84796860814 0.38643018554 -0.34566848571 0.85472039104 
0.44401433096 -0.45222045833 0.76690489401 0.41744662787 -0.4454153717 0.78690980236 0.47098064757 -0.55454375117 0.679316733 
0.43896498978 -0.54756977217 0.70710109035 0.48662992309 -0.64798739725 0.58587662997 0.44708274199 -0.64577645634 0.61695574298 
0.47265050135 -0.702567729 0.52857568184 0.44438095165 -0.70128033927 0.55455600669 0.45834583899 -0.75388434022 0.46703742192 
0.43615049504 -0.74783871556 0.49835013675 0.44363424447 -0.80111747382 0.40019755365 0.41630154458 -0.79479636482 0.43947170469 
0.40643465225 -0.85015617028 0.32637193305 0.39675335631 -0.83877839313 0.36677480927 0.37227819522 -0.89328905921 0.24285336797 
0.37470374907 -0.87968562258 0.28844327191 0.34987601189 -0.92480553353 0.14293156995 0.34744627872 -0.91655226771 0.19534744577 
0.34408777671 -0.93392375612 0.091552305469 0.3513403034 -0.92727569265 0.11456108669 0.32821881367 -0.94213871187 0.028593122418 
0.35403657154 -0.9316477548 0.018286473072 0.29633146665 -0.95322272423 -0.058074915573 0.33493459389 -0.9341057759 -0.11861858458 
0.24101704192 -0.93328423446 -0.23663810544 0.27298806083 -0.90874055824 -0.29667249586 0.17752375459 -0.88461130493 -0.4095586239 
0.1871959744 -0.85994391118 -0.45898300743 0.11409327042 -0.81206284527 -0.5680168248 0.10497720215 -0.78970502528 -0.60006935513 
0.079487040318 -0.72299063425 -0.67961599174 0.060340789134 -0.70710750809 -0.69973080887 0.055343918978 -0.65962387623 -0.74759302517 
0.057260513148 -0.63297131502 -0.76842986246 0.037109744641 -0.61077404265 -0.7909348492 0.073793796911 -0.56183965669 -0.82334993066 
0.050618124521 -0.56934684342 -0.81950139753 0.07235597172 -0.52095641237 -0.84953886518 0.052082737882 -0.52332328512 -0.84945438176 
0.055869080815 -0.4794747742 -0.87485448985 0.033388167448 -0.46960621606 -0.88172802009 -0.0015315853735 -0.42502300699 -0.90500467111 
-0.049000650129 -0.41333681513 -0.90536684753 -0.067666199832 -0.34523413993 -0.9337060209 -0.1386263241 -0.29982274718 -0.93186845851 
-0.14193653271 -0.21253483275 -0.95754278652 0.1157127793 0.18656407387 0.97508301636 0.067494384932 0.31445556662 0.94073737659 
0.062492106477 0.34580611726 0.93323700586 0.10403601926 0.22662861378 0.96658975533 0.016956248577 0.44155877193 0.89112028217 
0.018313088904 0.46201183298 0.88156097869 -0.034940885211 0.56245608127 0.82242830297 -0.030139485775 0.57342275487 0.81465306831 
-0.070763875515 0.64125824826 0.7593392119 -0.069162305679 0.65322042228 0.74927099933 -0.10183535071 0.70823178642 0.69818774421 
-0.10314668408 0.71946113216 0.68653999892 -0.12039895788 0.75142854642 0.64550672432 -0.12314999188 0.76213584366 0.63257201871 
-0.14146498647 0.79830217021 0.57981805984 -0.13804703216 0.80569299779 0.5740547489 -0.17182944233 0.85883818126 0.4657959549 
-0.15140983644 0.85618951454 0.48492056527 -0.19584897688 0.91164158537 0.35386796255 -0.16791782192 0.90619915684 0.38621974792 
-0.20121898785 0.94171666414 0.24809516111 -0.18096222999 0.93706917289 0.28575985593 -0.20726749818 0.9648227347 0.15921716473 
-0.19205692411 0.95918683957 0.20442606649 -0.21517190955 0.96886645928 0.11655157189 -0.19372921264 0.96778816407 0.15425254364 
-0.22656582735 0.97062018895 0.068467681949 -0.19846495607 0.97399687717 0.09474705022 -0.24293036525 0.96911194018 0.012665710064 
-0.2074299016 0.97648470887 0.022581060297 -0.24763007545 0.95096755065 -0.11819088446 -0.22453989999 0.96167462329 -0.097973197911 
-0.24620008042 0.92408109981 -0.28848764252 -0.25802019707 0.93034138156 -0.25386875289 -0.29345659894 0.82218502768 -0.45654730186 
-0.30112754504 0.82787035235 -0.43656401637 -0.32397644871 0.71725462609 -0.60979886737 -0.33082538622 0.71486702061 -0.61000714155 
-0.30068948938 0.61383105902 -0.72153085793 -0.32377003915 0.6062230416 -0.71863955378 -0.28967369026 0.50415658291 -0.80690373165 
-0.30562217989 0.50173780872 -0.80285341424 -0.28709237004 0.39018559697 -0.87415888782 -0.2815004413 0.39275708908 -0.8742682675 
-0.23411521458 0.31726593782 -0.91574146241 -0.22820890275 0.29240319967 -0.9251404534 -0.17952991401 0.21829421518 -0.95355224107 
-0.17393069207 0.21655908896 -0.95888742086 -0.12602976644 0.070243798364 -0.98671522541 -0.14476051352 0.1118976602 -0.98101199647 
-0.13561078868 0.0038537251794 -0.98989780914 -0.14135764402 0.018168655618 -0.9884695055 -0.14655079204 -0.039044654629 -0.98827650324 
-0.13418879721 -0.051868481308 -0.98916808216 -0.13744813413 -0.066371909261 -0.98823749691 -0.14706245381 -0.065522321407 -0.98678451918 
-0.17031226201 -0.13863707758 -0.97363539807 -0.15610333846 -0.14323581237 -0.97558785476 -0.16834718106 -0.25190417816 -0.94553407097 
-0.15203950967 -0.26242884519 -0.94656411403 -0.11736130057 -0.41239938618 -0.9018578749 -0.13069576311 -0.40956512652 -0.90164974338 
-0.052871046158 -0.55598727922 -0.8193629517 -0.072542885217 -0.52636380797 -0.84139216275 -0.0025296565262 -0.64490676088 -0.76376182305 
-0.013874426514 -0.60689594172 -0.79437353034 0.028473475019 -0.66520375215 -0.74607882057 0.026172409449 -0.61592961099 -0.78719506775 
0.067975085492 -0.58661980608 -0.80378247596 0.063165284981 -0.55908757276 -0.8249647297 0.10960372026 -0.5463538245 -0.82972405038 
0.097216021266 -0.55115738442 -0.82760891741 0.15282709124 -0.54011351303 -0.82759970591 0.12920854239 -0.5848182171 -0.80037306063 
0.17519028652 -0.68307754047 -0.6919353562 0.14216876672 -0.71717689508 -0.66436961114 0.19360973541 -0.81548857879 -0.51865765596 
0.16529920706 -0.84412773483 -0.48985074353 0.20590061984 -0.93150031862 -0.28692897518 0.20370823485 -0.93427929838 -0.27471066053 
0.20791252212 -0.96198912521 -0.15299552831 0.23222890669 -0.9590677292 -0.14010639859 0.23097522254 -0.96979455021 -0.060696862076 
0.2528497583 -0.96543241416 -0.056320251479 0.27886160857 -0.95993690701 -0.0040170507561 0.26590136817 -0.96385379583 -0.0093394298694 
0.31933926174 -0.93186346408 0.13823816424 0.29333544265 -0.94845116445 0.094190604217 0.35625937114 -0.87302516829 0.30019416237 
0.3406555849 -0.89648065619 0.26031317294 0.38823891828 -0.78727495035 0.47665026374 0.37706620523 -0.82001196439 0.42655747764 
0.38222501195 -0.67782756205 0.6155835582 0.39079160714 -0.73158305454 0.55020174959 0.36941514788 -0.60774263821 0.70173910496 
0.38859656092 -0.63472475204 0.66679538787 0.3505300997 -0.57284542842 0.74071446827 0.37291812622 -0.58036870628 0.72319599544 
0.32804340273 -0.50966240058 0.79223445099 0.36788305608 -0.51895373488 0.76866981903 0.31388794241 -0.43403458655 0.84151974115 
0.36211140717 -0.45329990781 0.81361116871 0.32101264671 -0.33265075563 0.8830227407 0.34561208408 -0.3728230435 0.85812881023 
0.31667488048 -0.26726109929 0.90940928316 0.33721420122 -0.29916872287 0.89232892319 0.30393184977 -0.22826545252 0.92471114545 
0.32142186489 -0.24672679686 0.91352742617 0.27026520911 -0.15293007672 0.94720133632 0.29391227646 -0.16385812006 0.9379166891 
0.23190761132 -0.071106623402 0.96920124232 0.26634371634 -0.089016213874 0.9583383211 0.18543698502 0.013821436432 0.98007049106 
0.18845749329 0.058412672695 0.97434775962 0.14715690117 0.099767806063 0.98151131375 0.12766109809 0.17069392442 0.97506099208 
-0.28327465511 0.19241458722 -0.93680648155 -0.2582686326 0.085901799247 -0.95990778602 -0.30931464209 0.29434521402 -0.90267607229 
-0.33687775237 0.400381323 -0.85028060211 -0.35961502911 0.48782305296 -0.79353335471 -0.37579130801 0.55788510873 -0.73825321723 
-0.40194730843 0.65186076592 -0.6293217518 -0.43632382069 0.76112797123 -0.47528455539 -0.44756820359 0.81771400116 -0.35217825196 
-0.44174781377 0.84845846302 -0.28866148146 -0.42223889531 0.86857320697 -0.25671068647 -0.39950772631 0.89555779377 -0.18857927427 
-0.37894449584 0.91590254976 -0.11615451122 -0.35664826143 0.93262816206 -0.04484297575 -0.34864943554 0.93270675346 0.040184654289 
-0.33377644296 0.93152629958 0.13576384505 -0.3246891908 0.90350366516 0.25687136017 -0.30509712083 0.86897040676 0.38484872991 
-0.25789443115 0.83357812658 0.48197170972 -0.19670554276 0.80845720797 0.55085848009 -0.13496995717 0.79149945798 0.59434237359 
-0.053468662359 0.74841654491 0.65709238812 -0.0034657567349 0.66269952743 0.74333262927 0.037273985787 0.55934111678 0.8258290252 
0.071274161093 0.40937213742 0.90225150208 0.11457216266 0.2067890232 0.96284491276 0.15438965661 -0.017312490952 0.98066979083 
0.20111728797 -0.1730084362 0.96059864075 0.25327177307 -0.26169060209 0.93083082145 0.3049093373 -0.28642787479 0.90770672552 
0.33879395356 -0.3133983999 0.88624961947 0.37332383427 -0.37250279353 0.84870258568 0.39762154261 -0.45634771864 0.79184938795 
0.41684379825 -0.55827097279 0.71491625001 0.41736993986 -0.63938163834 0.64234180009 0.41497001785 -0.71400112527 0.56268181781 
0.40811407285 -0.75627619246 0.51090620949 0.39919470201 -0.79218186129 0.45926218219 0.38551022023 -0.83227097828 0.39716582 
0.3537060606 -0.87784893772 0.32039047349 0.35531291863 -0.9004955341 0.24622759618 0.36546564591 -0.91529676171 0.15978280382 
0.36715577169 -0.92524229377 0.052748478705 0.36122652304 -0.92255130563 -0.11310281788 0.26647384309 -0.88960571332 -0.3536982332 
0.17216973621 -0.82323734332 -0.52598321773 0.086154753142 -0.74088932253 -0.66255447008 0.049772629634 -0.65988167166 -0.74509133957 
0.031806900599 -0.58707474376 -0.80597136712 0.030234647111 -0.52110341567 -0.85186199646 0.0089797959194 -0.45660120188 -0.88691156277 
-0.0087328022837 -0.38876950292 -0.91970173319 -0.054741690774 -0.32247387945 -0.94300783458 -0.1006085272 -0.25176486318 -0.95772117513 
-0.16552198926 -0.11986157897 -0.9757731954 -0.22539536026 0.0058337320966 -0.97388286854 0.03705127289 0.44974482153 0.89020810711 
0.059417032113 0.3697885288 0.92559111119 0.00266494345 0.53687377229 0.84201154903 -0.059176930668 0.6441058559 0.75738820697 
-0.10622541978 0.72871256244 0.67548163156 -0.13370977454 0.77805276382 0.6116583255 -0.15957405398 0.82594073632 0.53882430885 
-0.16047969574 0.86244508774 0.47671884194 -0.15870776636 0.89338300999 0.41763329006 -0.16360632303 0.9189970416 0.35291292198 
-0.16165608165 0.94036790983 0.29670269174 -0.14248583126 0.95712700193 0.24445668204 -0.13012089076 0.9728501533 0.17835399535 
-0.12666583682 0.98480580289 0.084645963343 -0.15663412157 0.98058268933 -0.049917884706 -0.21201531712 0.9532454352 -0.19820039249 
-0.2826840335 0.86623600791 -0.38862230287 -0.35583276543 0.71852842107 -0.58555177489 -0.35876991761 0.59620216681 -0.71346090543 
-0.3369087393 0.49249489009 -0.79817476056 -0.29840160903 0.36455237493 -0.8799229006 -0.25604586705 0.26377770057 -0.92690526713 
-0.20899094971 0.18619841471 -0.95878168344 -0.16911029718 0.13166856092 -0.97614520366 -0.17101695956 0.049614493466 -0.9827472145 
-0.17160009102 -0.010493265662 -0.98444576256 -0.18058713334 -0.078150514263 -0.98037628131 -0.18628365966 -0.14826244794 -0.96996616883 
-0.17649730812 -0.26445184388 -0.94580205547 -0.15478235986 -0.38664159251 -0.90652311169 -0.10707081566 -0.50274040102 -0.85422117896 
-0.05277483164 -0.57225045916 -0.8161603187 0.0023502677516 -0.58067696059 -0.81244868459 0.065000787025 -0.53237217181 -0.84203819987 
0.12868914096 -0.53160374834 -0.83532212094 0.17433840388 -0.58013227008 -0.79325706333 0.16536939433 -0.71164672001 -0.6727756817 
0.16944026081 -0.84732540056 -0.4799678657 0.19842763843 -0.94030923215 -0.26383459578 0.23072052951 -0.96657254866 -0.10169191013 
0.25017523714 -0.96766298938 -0.026102845934 0.26636857179 -0.96297726882 0.035530990986 0.30118894164 -0.92961018968 0.1744249201 
0.33623724219 -0.88023707549 0.32078209337 0.36362358192 -0.81452919019 0.44537126376 0.38654200631 -0.73784443202 0.54664794092 
0.40197380022 -0.66151879916 0.63062297145 0.3984074163 -0.59840529723 0.69368991302 0.3926896556 -0.54366587593 0.74058282408 
0.38449566739 -0.48257399418 0.7861281537 0.37312681383 -0.41779327673 0.82641723129 0.3686875083 -0.35948466834 0.85610153899 
0.37065640119 -0.31272033647 0.8737410971 0.36218610275 -0.23672541081 0.8976081463 0.34836846782 -0.14409177422 0.92562214779 
0.22418505003 0.045745936788 0.96497690268 0.1268491276 0.19854589039 0.96768388507 0.081594904207 0.29094868518 0.95155549489 
-0.2848996644 0.27372836029 -0.91672810023 -0.27095902061 0.16805127134 -0.94273680854 -0.30910818754 0.3830350311 -0.86421357943 
-0.33184636884 0.48726463055 -0.8050032984 -0.3461372045 0.5669810684 -0.74566551668 -0.36032561365 0.64706432044 -0.66641025074 
-0.37116471133 0.7238175736 -0.57715643266 -0.3807321512 0.7939728949 -0.46810638116 -0.36688916391 0.83557934347 -0.40378522956 
-0.36133348933 0.87258529682 -0.32386850751 -0.35883554677 0.90425612747 -0.22098325029 -0.3601992099 0.92450225214 -0.10644582709 
-0.35785379099 0.93140470365 0.0067848963401 -0.35666475158 0.92679369931 0.10772511707 -0.34199189322 0.91612834197 0.20435204765 
-0.32653468399 0.8956842415 0.29419778198 -0.3019187077 0.8747159664 0.37535784898 -0.26008459335 0.85209170388 0.44961447226 
-0.20916534564 0.82926865767 0.51282181868 -0.15414578081 0.811369212 0.55920428637 -0.11550170478 0.79540253344 0.58881756317 
0.040626911214 0.48824636556 0.86993243601 0.0074337889358 0.60154973832 0.79313450383 0.067195320563 0.30205076131 0.93605478609 
0.10183115078 0.10150197716 0.98189865414 0.14703359455 -0.095264620336 0.97648751361 0.1865346561 -0.2137251767 0.95563878052 
0.22308704447 -0.29451974764 0.92914069589 0.27027011398 -0.31931379163 0.90675557973 0.30883360457 -0.35157788869 0.88254520298 
0.34692487179 -0.38998020912 0.85182448218 0.37215784002 -0.45611873185 0.80659548075 0.38349017585 -0.53294365535 0.75202871295 
0.39412730882 -0.62794286823 0.66630376003 0.39568932636 -0.6982936637 0.59346758236 0.3842111851 -0.75223411995 0.53506344917 
0.37712129326 -0.78650193457 0.48721767012 0.3672775398 -0.82403772379 0.42941775636 0.36776117328 -0.84857405839 0.37987983238 
0.37095719054 -0.87392452612 0.30918715888 0.37881492446 -0.89473564967 0.22269119311 0.36654640765 -0.92164706851 0.10900824221 
0.38604086035 -0.91530336556 0.026556977892 0.18830233509 -0.79203855632 -0.56931089438 0.26085889202 -0.85602232634 -0.43331365245 
0.097444212017 -0.7053764784 -0.69902508148 0.0509577768 -0.61231008821 -0.78426346237 0.02357612977 -0.53734236355 -0.8413083139 
0.0083887344575 -0.48390266595 -0.8740303256 -0.032176832595 -0.40778949819 -0.90866188711 -0.091040420149 -0.30741119988 -0.94606326105 
-0.11980026721 -0.20279550541 -0.9697902545 -0.14628062739 -0.10210931302 -0.98118538961 -0.17374589742 -0.018558284744 -0.98433326659 
-0.1977689265 0.026593327256 -0.97865031613 -0.25155728259 0.069212359064 -0.96492674828 -0.038677836223 0.71360313043 0.69808281309 
-0.10479464897 0.72922517346 0.67007781867 0.3436899637 -0.90071621604 -0.23378785896 0.38023910968 -0.91616873715 -0.085488497671 
-0.0043958564635 0.56512152465 0.82083650965 0.035722591312 0.4742055987 0.87833355398 -0.066468375616 0.66324192875 0.73884631126 
-0.11385883084 0.73929035886 0.66336791424 -0.13402120289 0.78413379684 0.60176466075 -0.15103467877 0.82654801794 0.54111331306 
-0.15170839874 0.85962545234 0.48413877597 -0.14811569835 0.89172886521 0.42694838661 -0.13023582789 0.90945853478 0.39384740087 
-0.12775909152 0.92924318811 0.34404947632 -0.092741975865 0.94642768115 0.30367406326 -0.076463416268 0.96427810832 0.24086685215 
-0.084360854184 0.98440015705 0.13000946609 -0.12383895776 0.983332883 -0.015012677522 -0.20386109244 0.95832407973 -0.17531476413 
-0.27835440914 0.86978483361 -0.36118754303 -0.36709275101 0.67316981777 -0.6320241466 -0.36436319031 0.55923721958 -0.74334981171 
-0.33521618096 0.47748697279 -0.80761840479 -0.30295264834 0.38705410354 -0.86697435773 -0.26755071935 0.25595536247 -0.92288874534 
-0.22499326969 0.16623479824 -0.95890719959 -0.18417776675 0.11564946097 -0.97567103847 -0.17145825477 0.087055989199 -0.98116720235 
-0.17115603787 0.039391454278 -0.98337496665 -0.18078026042 -0.034900434172 -0.98243579855 -0.19657687142 -0.13161451354 -0.97117926281 
-0.1874567351 -0.25638432865 -0.94406863251 -0.16419000005 -0.37333472468 -0.91005554848 -0.12604683114 -0.47718148216 -0.86867854999 
-0.063449645503 -0.53325518234 -0.84203012286 -0.0066795510599 -0.52173424373 -0.85194103686 0.064030841171 -0.48805632405 -0.86835383324 
0.11510391057 -0.5259525475 -0.83985850518 0.13851842091 -0.62593702589 -0.76447640714 0.14649174654 -0.77788345926 -0.58803707558 
0.16140766523 -0.90344299046 -0.37947614893 0.20202767188 -0.95379665831 -0.20057688768 0.22763968351 -0.96610871922 -0.10963842884 
0.25069435831 -0.96625481158 -0.039790230485 0.27626755437 -0.95890973237 0.0481302784 0.30070550529 -0.93758160939 0.16058124745 
0.33223331053 -0.8929414618 0.28721874487 0.36952799619 -0.82495821947 0.42396510256 0.39194520962 -0.75805213308 0.5140343944 
0.40938788685 -0.68869194416 0.59659275061 0.41722845515 -0.61493538287 0.6672920527 0.41200655188 -0.56274069185 0.71513342673 
0.40349861769 -0.52059922174 0.75242017941 0.40289795508 -0.4793863438 0.77864727526 0.40349770577 -0.43575637647 0.80355168631 
0.40794777582 -0.38078933665 0.82866538045 0.37609264323 -0.28888594822 0.87555087648 0.30301872268 -0.13645786496 0.93792393605 
0.17622580223 0.079991665891 0.97129838647 0.080682146564 0.24401628948 0.96296384038 0.048080883874 0.34619752849 0.93547942848 
0.042526882494 0.41274369528 0.90846736112 0.33732290642 -0.88096004859 -0.29742544817 0.35823196138 -0.9138819099 -0.16777961685 
0.32346930631 -0.84626209422 -0.41672160594 0.23222697988 -0.77392170613 -0.56730608835 0.13700586095 -0.67187673609 -0.72173332488 
0.069367218364 -0.56055208544 -0.82354137624 0.037429775991 -0.5038812745 -0.86237028252 0.0099014335312 -0.46904204658 -0.88270767467 
-0.029945121653 -0.40982322233 -0.90902402897 -0.083969982063 -0.31709840463 -0.94387181494 -0.14647033978 -0.16744717461 -0.97037410943 
-0.18319429316 -0.024093580507 -0.9804047441 -0.18879581141 0.10031930366 -0.9762546854 -0.18424765844 0.067063302008 -0.97986640128 
-0.20243860803 0.053388626739 -0.97684334052 -0.23528541029 0.099416161487 -0.96578922431 -0.2620307856 0.21506726418 -0.93347527738 
-0.28479956719 0.36421389104 -0.8833323968 -0.30552065796 0.48231447959 -0.81750288163 -0.31983135916 0.57466068272 -0.75062709422 
-0.3190475332 0.6485658694 -0.68760899732 -0.32556750451 0.72497317169 -0.60414042065 -0.31360825725 0.78067587828 -0.53719777224 
-0.31394473751 0.8371550741 -0.44279442353 -0.3262386565 0.88160611189 -0.33097103987 -0.34542447636 0.91186066261 -0.20399851965 
-0.3589678971 0.92439476886 -0.068528790384 -0.36589751185 0.92605832748 0.055122415191 -0.35724629876 0.91813168046 0.15010333137 
-0.34939454964 0.90189208524 0.25333816165 -0.32811586279 0.8951329044 0.29928120372 -0.3016699322 0.8929276457 0.33309816804 
-0.25359205306 0.88564852519 0.38583130696 -0.21636246648 0.86665707038 0.44507724377 -0.17798522042 0.83646894059 0.5114478011 
-0.15374490211 0.81235937386 0.56111441484 -0.13695574017 0.78229470505 0.60188621577 -0.10274039845 0.70065274486 0.70392570694 
-0.13320713445 0.71118898157 0.68556374435 -0.059578558808 0.62765584901 0.7708278321 -0.0095860239929 0.542918082 0.83090472861 
0.024378355742 0.44838774522 0.88702014983 0.05184304352 0.27416768726 0.95060387107 0.092123308715 0.077066439769 0.98632469441 
0.13437544262 -0.080886015081 0.98363391533 0.16979359071 -0.20078976084 0.96066669649 0.20903695939 -0.28840348887 0.93401149458 
0.25036714334 -0.33195463615 0.90755688344 0.28535343619 -0.3794488984 0.87931953924 0.30897523261 -0.42012695139 0.85252654534 
0.33701070936 -0.45985710739 0.82025140694 0.35688182018 -0.50766928629 0.78338073787 0.36486200117 -0.57966744892 0.72633754074 
0.3720422528 -0.64457829764 0.66437462401 0.37608129278 -0.70864948462 0.59649508636 0.36708043538 -0.76011517891 0.53285616097 
0.36471569278 -0.80064101286 0.47376831875 0.36942393202 -0.82716117021 0.42337334619 0.38327482573 -0.84491951027 0.37052309901 
0.39524692617 -0.86454986766 0.30115501876 0.40495166492 -0.88781894339 0.20509060853 0.39377803653 -0.9139803111 0.076734700544 
0.38809410212 -0.91421372529 0.02916351215 0.36455225596 -0.92246998141 -0.081041619145 0.33958610671 -0.90047697246 -0.23246697254 
0.31629371442 -0.91501862248 -0.23098986635 0.3152753552 -0.88324188762 -0.31802828747 -0.072215915025 0.68052121306 0.72282728212 
-0.0063856445122 0.57112872584 0.81548232015 -0.12659595205 0.76208323487 0.63409853787 -0.14660357861 0.80602351202 0.56839795683 
-0.16445976794 0.84841953699 0.5015084452 -0.16253091484 0.87708761177 0.4499040977 -0.14659807214 0.89865117829 0.41324666337 
-0.11885615616 0.9073410217 0.40215679524 -0.094232957368 0.91753544192 0.38518098775 -0.079585411219 0.93797682277 0.33212632319 
-0.077488565447 0.95739122644 0.27479924286 -0.12367792112 0.97246933529 0.1430761806 -0.17676859965 0.97974772213 -0.010221009909 
-0.25110932107 0.93564125798 -0.18823204548 -0.30711096621 0.87125267178 -0.3565621139 -0.33038790732 0.7925374328 -0.49457364603 
-0.33172888389 0.42384866062 -0.837539467 -0.35659064429 0.51173744171 -0.77854002225 -0.31144406678 0.31243528976 -0.89434341188 
-0.27944821663 0.1992699801 -0.93533272402 -0.24422577302 0.12570058082 -0.96111981407 -0.22024411912 0.099519158262 -0.97021937556 
-0.20051059002 0.060309361814 -0.97728032866 -0.18231116102 0.018281188811 -0.98283809067 -0.17131679435 -0.028384080731 -0.98444235831 
-0.17447492481 -0.14558254195 -0.97194531261 -0.16764438306 -0.28927723432 -0.93805931626 -0.14865082586 -0.40325875813 -0.9018151095 
-0.11294456204 -0.48606890351 -0.86581550997 -0.060036976834 -0.4778311858 -0.87471008544 -0.00073921686674 -0.45887747834 -0.88733961548 
0.057698376772 -0.46935753361 -0.87999095208 0.09621948412 -0.52554829323 -0.84155806835 0.11137237557 -0.66102577161 -0.73439725009 
0.12126488277 -0.81669455996 -0.5436495211 0.14668219749 -0.93062973098 -0.31722136023 0.19079822584 -0.96271013674 -0.17725589151 
0.22640838999 -0.96884628705 -0.082011933485 0.26260864846 -0.96352672031 -0.020129389714 0.28402422613 -0.9547492673 0.070545137378 
0.30894025654 -0.92562543677 0.19300756764 0.33797884133 -0.87904642708 0.3305474708 0.36556883847 -0.81309934421 0.44492995095 
0.38688498268 -0.73901767125 0.5475118735 0.40365981856 -0.66196126818 0.63112762293 0.40760636095 -0.59541322314 0.68978938157 
0.40958514127 -0.54594238143 0.73036103589 0.40128282777 -0.51822971559 0.75510262519 0.39096130308 -0.5058784513 0.76865261276 
0.38631825471 -0.47563980382 0.78987877996 0.3815787865 -0.43433441503 0.81490588153 0.35068947803 -0.31795053504 0.86879835709 
0.26670958198 -0.13312342333 0.94609796917 0.14211300955 0.10579130772 0.96603348881 0.054718089572 0.29999426624 0.95095314389 
0.046518658441 0.37048203696 0.92688564277 0.042483082607 0.41956876956 0.90622983861 0.039088830788 0.46546843631 0.88277469282 
-0.34802407861 0.62041279535 -0.68905552857 -0.3282280907 0.66050275431 -0.66784814374 0.28344035889 -0.85640769008 -0.4219566451 
0.2291471598 -0.77014627651 -0.5786269059 0.14896123497 -0.6463436155 -0.74390203147 0.080237701705 -0.55833675729 -0.82013196711 
0.038329743726 -0.49877643714 -0.86560481673 0.015709669864 -0.47634590507 -0.87864758444 -0.014268881291 -0.42981861997 -0.90137415928 
-0.043555353844 -0.36458799335 -0.92962441817 -0.087742069774 -0.21981614279 -0.9670822201 -0.13699786563 -0.050519807099 -0.9831408804 
-0.1989677485 0.14960529168 -0.96745996838 -0.15615797575 0.05803821344 -0.9849806631 -0.14073907595 0.084387034202 -0.98592035997 
-0.20923054634 0.15161363817 -0.96527679192 -0.24186734286 0.25874152369 -0.92696938271 -0.26753784126 0.35394486129 -0.8915880466 
-0.28020108728 0.44213417524 -0.84703401489 -0.27993593027 0.53538139884 -0.79263418921 -0.26773602251 0.61724303215 -0.7366737967 
-0.26187455286 0.68429553147 -0.6801791569 -0.26076645061 0.75841133281 -0.5942628401 -0.27790804465 0.83544654591 -0.46225602166 
-0.30164643893 0.89124367374 -0.32805225634 -0.34156019875 0.91674841147 -0.17236380059 -0.37041267772 0.92511601972 -0.019595418967 
-0.38152281613 0.90751947058 0.13102632367 -0.3746894595 0.89081162292 0.24890336918 -0.34641961623 0.88272206934 0.31189722647 
-0.31567615658 0.88500531631 0.34053228382 -0.27415086014 0.89534163186 0.35083564336 -0.23336085112 0.90013461216 0.36602325584 
-0.20895058466 0.88071585801 0.42006299575 -0.19603767632 0.85454081726 0.47620515164 -0.16862831505 0.84552365651 0.50355185419 
-0.1528858855 0.79398266367 0.58696419842 -0.14520711372 0.74971462351 0.63951229405 -0.12726107961 0.65065387301 0.74414457949 
-0.11817569446 0.66114820954 0.73819129446 -0.085414964451 0.59898352842 0.78784819244 -0.056640759257 0.57246006627 0.81225923508 
-0.029100436544 0.52997680992 0.8430030612 -0.0066194838074 0.44505846058 0.88422966448 0.030413739912 0.2937196984 0.94465952778 
0.061864556007 0.1119206835 0.98349874958 0.08708518742 -0.062722644347 0.99302887137 0.144402043 -0.2092751104 0.96236908603 
0.18955563566 -0.30450850981 0.93270340249 0.22267315107 -0.37235625399 0.89917452179 0.25663986113 -0.43466935348 0.86230566639 
0.28014516185 -0.47475403198 0.83346564166 0.30629493794 -0.5110776284 0.80185512697 0.33418710563 -0.54690056342 0.76749389309 
0.34209306021 -0.58694802382 0.73239182662 0.34965145165 -0.63411590727 0.68882038585 0.35232717785 -0.69263013255 0.62768562126 
0.35971701406 -0.74347610553 0.56163487708 0.36934339714 -0.78847856784 0.48978649112 0.38107174456 -0.81532409074 0.43527222649 
0.39791719617 -0.83896113217 0.36787104562 0.39779146452 -0.87083173801 0.28368148714 0.39520086207 -0.89091348176 0.19865763781 
0.39601131836 -0.89305009316 0.20463911346 0.37676950807 -0.9189537949 0.089198816872 0.35481257062 -0.93031601447 0.005363475856 
0.33950672545 -0.93619996578 -0.071917488829 0.29094955486 -0.88980386665 -0.32955908101 0.29137839483 -0.91516814528 -0.25460570504 
0.29585849781 -0.87062997909 -0.37766897911 -0.16686449334 0.17662827411 -0.96833980139 -0.20824999542 0.21609470047 -0.95356041632 
-0.33109599476 0.53418483033 -0.77352754468 -0.32013662583 0.65335351129 -0.67785674704 -0.31823781305 0.45895813824 -0.82521654535 
-0.29298669856 0.38804412271 -0.8698568144 -0.27386703297 0.30265534264 -0.91051914203 -0.26531822596 0.21761485703 -0.93696547448 
-0.24427455312 0.1470359276 -0.95722750529 -0.21976997583 0.093286364071 -0.97091762587 -0.20178275663 0.064085410416 -0.97716583438 
-0.17447365463 0.028482163528 -0.98391571667 -0.16328524309 -0.018382539246 -0.98596562966 -0.14312692003 -0.11721874178 -0.98121055289 
-0.12365143112 -0.260306567 -0.9538739336 -0.086529406459 -0.37753805895 -0.92037688946 -0.058745119676 -0.4378444922 -0.89670815694 
-0.035052746588 -0.4482675105 -0.89261114142 0.0025603172295 -0.44817145616 -0.89270839256 0.047244743718 -0.44109593225 -0.89569236632 
0.07093280114 -0.53236413692 -0.83442092878 0.085577416698 -0.65636408322 -0.74713405714 0.10120116692 -0.81524559772 -0.53899622626 
0.12804793371 -0.92330163321 -0.34594999249 0.17523913301 -0.95806249258 -0.207189264 0.21842183457 -0.96670153343 -0.11940902427 
0.26547830495 -0.96291083679 -0.031106411487 0.28859792459 -0.94393915072 0.12392018417 0.31715307576 -0.90607210857 0.26062201377 
0.33808872459 -0.85203999469 0.39860560391 0.36229526861 -0.79681831154 0.47742540294 0.38418479827 -0.73613771132 0.55461433597 
0.3907435941 -0.66638080647 0.63296553234 0.3892258648 -0.60269555117 0.69500988777 0.38706744056 -0.54716403794 0.74150461539 
0.38385016359 -0.52143818299 0.76191153335 0.37026088099 -0.50767881183 0.7776740856 0.35792957036 -0.49037428716 0.79444662585 
0.34636262504 -0.47055272625 0.81115201364 0.3328771952 -0.39775179344 0.84867182518 0.31671683547 -0.28525339543 0.90136687915 
0.20129182066 -0.0087266154838 0.95306691698 0.10465422508 0.22354057118 0.96371771921 0.031217192276 0.37900755979 0.92383751809 
0.046554227665 0.409348617 0.91088720435 0.056669984543 0.44599273806 0.89077881254 0.019962126139 0.54581253864 0.83473712417 
-0.026451317507 0.65609544469 0.7464774498 -0.068684205053 0.7484330175 0.65868610167 -0.10736558719 0.80056300621 0.58464907546 
-0.1426938329 0.85222890715 0.50276728095 -0.15862388974 0.87775957739 0.44798436361 -0.16969810136 0.90059678943 0.39968277192 
-0.14594732501 0.91061967488 0.38533587893 -0.12450272221 0.91920551281 0.37308890953 -0.11508887567 0.93007291574 0.34714761256 
-0.12561979703 0.94141143765 0.30866333498 -0.16456561507 0.96078378562 0.20816760872 -0.20742845303 0.97177136959 0.068273626311 
-0.26922864496 0.94462865293 -0.12701997396 -0.30875175183 0.8863607395 -0.33235054898 -0.3192478291 0.79543912568 -0.48951303884 
-0.32090890486 0.77994220023 -0.53251059077 -0.29990887736 0.71320434649 -0.62440216571 -0.29947043243 0.60307938089 -0.73505374548 
-0.28513445307 0.66380453912 -0.68288725283 -0.32011221722 0.5647030691 -0.75731715004 0.236780193 -0.78317565909 -0.56099894615 
0.14915483194 -0.66481401197 -0.72197676463 0.073309647956 -0.56717718583 -0.81435922919 0.01472769671 -0.48859631912 -0.87217529756 
-0.0045871916142 -0.44703301999 -0.89345990405 -0.017836017515 -0.4052430214 -0.91329841701 -0.024372489441 -0.35218593903 -0.93462044353 
-0.037631064483 -0.26706245429 -0.96081923178 -0.055823161277 -0.16309930282 -0.98137720973 -0.088585287338 -0.026303372035 -0.9907053387 
-0.13493208435 0.12850044683 -0.97711419927 -0.17347528323 0.22839728003 -0.95697318442 -0.17583471982 0.21395376535 -0.95852145813 
-0.13135804294 0.13504145544 -0.9786489874 -0.11715867011 0.074016443526 -0.98996300624 -0.13610354997 0.072637082276 -0.98747038527 
-0.16525491171 0.13015277862 -0.97154030416 -0.22043599586 0.26967300355 -0.93169631384 -0.26442833116 0.36651035814 -0.88827262164 
-0.25622424423 0.41440355629 -0.8712682065 -0.23941945964 0.48435203683 -0.83596683016 -0.22252195068 0.56255219253 -0.79239332811 
-0.21184126558 0.62523658542 -0.74763655974 -0.2098960281 0.68617926693 -0.6943173524 -0.28860998903 0.88069265145 -0.34372286463 
-0.24495094566 0.82753412711 -0.49889273186 -0.34154408504 0.92121952085 -0.16773832541 -0.36111750381 0.92154743974 -0.011848508687 
-0.37138060885 0.91503287202 0.11109228385 -0.36196161392 0.90324488677 0.22202770315 -0.33863530965 0.88048252341 0.32815591955 
-0.32264261593 0.87262118105 0.36611819196 -0.281517577 0.88406794837 0.36925840948 -0.17435716306 0.85534851332 0.48060021744 
-0.18699780943 0.89350175499 0.40663000995 -0.23370916433 0.77658232245 -0.58119596796 -0.23388851512 0.73654360996 -0.63137183566 
-0.21375589854 0.90134292252 0.37507225114 -0.2441226059 0.89870925178 0.3622910939 -0.10727706893 0.74657926897 0.65424833889 
-0.16532897688 0.83811968568 0.51510425077 -0.098879355646 0.7157805442 0.68625562051 -0.091632544746 0.62856563617 0.76921155851 
-0.069747057844 0.65909178341 0.74715557305 -0.077538173187 0.54061810559 0.83024940217 -0.069221348127 0.54268723329 0.83528524172 
-0.01570445641 0.39625820838 0.91348393573 0.017325560509 0.30935068584 0.94512717011 0.075949779097 0.15419349834 0.97334589769 
0.10203393631 -0.14282161189 0.97991080394 0.13074871875 -0.27073249177 0.94890702608 0.16713135147 -0.34607624642 0.92225559491 
0.19427434364 -0.39375471509 0.89656374114 0.22367416713 -0.44567960197 0.86489864916 0.25309243946 -0.50302186911 0.82491441378 
0.2769572651 -0.54846648791 0.78771236513 0.305607526 -0.56754448866 0.76417304954 0.31742690907 -0.59602270394 0.73723857211 
0.32698307075 -0.6220107487 0.71027608253 0.33437197652 -0.66567369677 0.66661336233 0.34612955385 -0.71825294607 0.60013551196 
0.36239683044 -0.76771460074 0.52587335505 0.38989079607 -0.8034661805 0.44897563872 0.40716284649 -0.84602619485 0.33622993491 
0.40831992976 -0.87075298198 0.26320674106 0.3807511103 -0.90405725445 0.17345279996 0.35760555575 -0.92631059501 0.094340192946 
0.31734135987 -0.93795112467 -0.057714020387 0.26099337013 -0.95026025927 -0.14592618885 0.22364593503 -0.8681042359 -0.42885031013 
0.19981281011 -0.93367784973 -0.25630820469 0.25478825905 -0.84699065629 -0.45377445556 -0.31074952777 0.50686928671 -0.79658636647 
-0.29764048741 0.42887587764 -0.84958626218 -0.27191763762 0.34122699372 -0.89608328265 -0.24700572369 0.24470879423 -0.93602098018 
-0.23041786075 0.14641699661 -0.9603123133 -0.21125789954 0.088086541764 -0.97330169936 -0.19100883343 0.066438368998 -0.97903736495 
-0.16604983444 0.051158164933 -0.98464446518 -0.14074434606 0.031559993914 -0.98876204866 -0.10792050825 -0.068101270399 -0.99096900987 
-0.075979960081 -0.19224098172 -0.97372095584 -0.043361887298 -0.29926300503 -0.95217294176 -0.017283611306 -0.36323688416 -0.93079203399 
0.0033013751119 -0.42034774356 -0.90682250558 -0.0094691751325 -0.40878918445 -0.91251974262 0.026714500238 -0.46914607258 -0.88222257145 
0.031387805797 -0.62463040349 -0.75903982861 0.042544275604 -0.78750090864 -0.60998176375 0.07463512094 -0.88322516282 -0.42986712387 
0.11387899261 -0.94993257095 -0.28226310914 0.16204210877 -0.96439939531 -0.19510423827 0.21756935911 -0.96553132655 -0.12283244781 
0.27581036863 -0.95894405506 -0.058795093572 0.31041694392 -0.94504633068 0.06475947514 0.34381298061 -0.88733716931 0.29650518128 
0.36995810509 -0.83553500701 0.40388507014 0.37978213558 -0.79124107218 0.47577518002 0.38117496241 -0.74445532471 0.54360311743 
0.37614879518 -0.68546150061 0.62177280093 0.37391307627 -0.60705877481 0.69734876309 0.37005311222 -0.54861258734 0.74962466096 
0.36063357694 -0.53388796199 0.76459637033 0.33852011243 -0.54495086325 0.76674463481 0.33478332727 -0.51523133384 0.78838339957 
0.32289998095 -0.47395729548 0.8189317128 0.29305557426 -0.41403721492 0.85774143525 0.24505232449 -0.24107188423 0.93358228452 
0.1776640452 0.0050660809344 0.96711940556 0.089576872469 0.24683986531 0.96225204726 0.037921933444 0.3547756881 0.93275694693 
0.024227401144 0.41325433909 0.90891333043 0.012909774576 0.48237200127 0.87261664451 -0.014514188875 0.59262117303 0.80133609854 
-0.026902892927 0.67089856398 0.73811145705 -0.030556430216 0.72407188233 0.68823422563 -0.068897801889 0.78312026016 0.61356784408 
-0.09689112272 0.85011495152 0.5158424267 -0.13093150976 0.88632198861 0.44029574503 -0.16582014033 0.90596664142 0.38894024333 
-0.1813632847 0.91295426371 0.36327206756 -0.17791788662 0.92268739976 0.34097879867 -0.19211044917 0.92808321452 0.31472019063 
-0.20597359871 0.93742716412 0.27953955278 -0.24132770506 0.94525012274 0.19174906711 -0.27872044157 0.9545553839 0.083993893693 
-0.29777223715 0.94025321051 -0.074922192835 -0.31980160999 0.91969528421 -0.21493121236 -0.32202914086 0.87103381726 -0.33857459018 
-0.30218232693 0.81144942326 -0.48428114506 -0.29722473497 0.79128325232 -0.53147824062 -0.29177088059 0.73588587967 -0.60121032929 
-0.28205160316 0.62351291254 -0.72474249846 -0.25837092095 0.64095301493 -0.71446238222 -0.27403913742 0.51601893164 -0.80589209531 
-0.0053946224388 -0.39235767383 -0.91964441462 0.0014937855938 -0.36228265196 -0.93173994291 -0.0015412367503 0.36895543338 0.92116218604 
0.051172784828 0.26991634037 0.95908431751 0.18164118777 -0.29458420107 0.93547694467 0.18405522535 -0.2113217163 0.95570167175 
0.18785940158 -0.3505427459 0.91553980997 0.20655203748 -0.40449083658 0.88950782416 0.22183369249 -0.47855067465 0.84647141757 
0.23945837167 -0.54446029123 0.80185746032 0.25978732863 -0.58438922724 0.76780869066 0.28283188413 -0.61413990855 0.73653350173 
0.29901900296 -0.59089858724 0.74911015573 0.31312393177 -0.59921249885 0.73629286139 0.32703379484 -0.62625893815 0.70739605262 
0.34583909069 -0.67136451277 0.65215207951 0.36710225141 -0.72454938593 0.58001375282 0.38591800692 -0.77706471906 0.49503462302 
0.40052550947 -0.81467340754 0.41414999318 0.40018962511 -0.8688579226 0.27836327244 0.39798376161 -0.86238996601 0.29898768065 
0.19172749967 -0.7704278261 -0.58964188501 0.10436904705 -0.64543902454 -0.74455875261 0.029485346597 -0.5094218187 -0.85771005463 
-0.0023775080779 -0.42587523268 -0.90416375167 -0.0067618484971 -0.37035318437 -0.92873085778 -0.0052191473848 -0.32639215139 -0.94466741916 
-0.016748262834 -0.25069572013 -0.96608155771 -0.019701806295 -0.19075631098 -0.98078368021 -0.037817574217 -0.11634934488 -0.98937662195 
-0.055247268724 -0.049081493253 -0.99416957257 -0.094588705787 0.054147007067 -0.98718971644 -0.13633155581 0.17328112807 -0.97514646027 
-0.13405813309 0.11553176109 -0.98280204111 -0.11804832091 0.16953097931 -0.97660800708 -0.096701478309 0.12866552945 -0.98538544089 
-0.089483829465 0.066044842511 -0.992924436 -0.12704000536 0.14413769803 -0.97967264332 -0.16321124782 0.23725590956 -0.95312858677 
-0.19825491447 0.29441667058 -0.93356259609 -0.1813260108 0.37767807337 -0.90170139069 -0.19046005315 0.47649984542 -0.85476721655 
-0.20857341897 0.56584419633 -0.79182826205 -0.20686362114 0.62434188785 -0.74883872308 -0.21179802845 0.65841508362 -0.71794724065 
-0.2486700434 0.76155463392 -0.59650494646 -0.27202739394 0.74216964079 -0.60283633824 -0.27126585068 0.80980879651 -0.51003703838 
-0.31850259515 0.86994741072 -0.37166393073 -0.34313583111 0.90515466765 -0.1833766693 -0.35945571783 0.93130985717 -0.018594844849 
-0.36291116188 0.9179237286 0.10869793677 -0.10330563908 0.80164935159 0.58469866843 -0.12853680015 0.85093450383 0.50515998494 
-0.062143857231 0.72431681602 0.68381582556 -0.038637807195 0.54238955388 0.83633628855 -0.052984741373 0.63819381076 0.76656366636 
-0.06304080069 0.50630479274 0.85482341312 -0.26079120922 0.43045784199 -0.85912419898 -0.24124236858 0.31984560748 -0.91119020565 
-0.22032485297 0.2123570307 -0.94881266614 -0.20097272391 0.14005554364 -0.96856354781 -0.17883259012 0.093966407621 -0.97911325153 
-0.16438092035 0.084220547368 -0.98257599946 -0.14833979393 0.096054302167 -0.98393393662 -0.079111751418 -0.082303697074 -0.98924261917 
-0.042650713752 -0.19788015875 -0.97666837279 -0.014188192652 -0.27222627653 -0.96100363674 0.0002439674755 -0.28836198101 -0.95636212151 
0.0063555140959 -0.44623404649 -0.89208998146 -0.0050392340087 -0.40673352791 -0.91098766308 0.016327138329 -0.50526053377 -0.85682144895 
0.020239978004 -0.61873329571 -0.77868819269 0.043603254966 -0.74536268959 -0.64980640354 0.073358662034 -0.85740448206 -0.49073306899 
0.11107294121 -0.92541348114 -0.34974233605 0.16360328043 -0.95644995032 -0.22285836797 0.22302828792 -0.96625492897 -0.10666554343 
0.28319902305 -0.95672841585 -0.010587312549 0.31471119219 -0.93891031745 0.084385891043 0.35178503906 -0.92217184355 0.1274030637 
0.37516445779 -0.76907789138 0.51426626837 0.39201196133 -0.8077486236 0.43876066929 0.36279392581 -0.71399765748 0.59490741347 
0.35726407211 -0.63757453713 0.67920800583 0.35344153478 -0.58927888339 0.72516690372 0.34853918249 -0.55087089989 0.7581247062 
0.3367821257 -0.56045546868 0.75642150995 0.32489526442 -0.57856430464 0.74804672445 0.29928526037 -0.45333173326 0.83917489525 
0.31508320442 -0.49387946857 0.80945179668 0.27052642964 -0.3766748566 0.88103867385 0.2363577663 -0.26877533829 0.93054102268 
0.19329447131 -0.058816765878 0.96863684994 0.14340622157 0.1186394583 0.97570174386 0.082791589663 0.27384901425 0.95287804419 
0.013176637296 0.41135799088 0.90520841202 0.39312994832 -0.85065816495 0.33359834562 0.39662572982 -0.8691110335 0.28668699725 
0.1644472349 -0.056638669972 0.97615361595 0.10983791394 0.15963939191 0.96721132892 0.32161560358 -0.55784114347 0.76475807661 
0.31134889064 -0.59314119283 0.74177866314 -0.054506606125 0.69453679145 0.71339611029 -0.05428629487 0.74087174853 0.66699136308 
-0.056267753546 0.78789475668 0.60725348766 -0.071888527066 0.8503022493 0.51997852761 -0.11847500524 0.87837675667 0.45631071451 
-0.17202545406 0.90572675967 0.38641468466 -0.21036333444 0.91767967928 0.33315860047 -0.23231364092 0.9249847231 0.30005442991 
-0.24919562675 0.93312162958 0.25263236543 -0.26792382189 0.94233907515 0.19573157491 -0.29156029949 0.94684169033 0.092480311338 
-0.3085288234 0.94936284491 -0.020510202554 -0.3106429581 0.92786263101 -0.15546584527 -0.30758379525 0.90365352899 -0.28106936467 
-0.30646318926 0.87171992034 -0.37044030656 -0.3059481617 0.86645696237 -0.38070429071 -0.30510982009 0.84081716945 -0.43877063736 
-0.28623479181 0.77413506229 -0.56360450576 -0.24932292557 0.60815983151 -0.74673367556 -0.33469413031 0.889489474 0.30750806004 
-0.34962747357 0.90611422638 0.22922949613 -0.32488810689 0.87994720597 0.34534671133 -0.30500438418 0.8886912428 0.34114312586 
-0.27563272061 0.89702005655 0.34197279894 -0.21036597891 0.90454713584 0.36931743476 -0.23628683862 0.91129628502 0.33429418667 
-0.1806410711 0.89201961343 0.40975008124 0.028017058827 -0.66852089314 -0.73133555961 0.0091534038792 -0.54737013461 -0.8286235995 
0.058063507276 -0.78831906493 -0.602913325 0.086424911839 -0.86525708427 -0.47592511694 0.12117003714 -0.91233327186 -0.37922404049 
0.16618003763 -0.93605305919 -0.28543948357 0.23054717927 -0.95781874187 -0.14120878877 0.32741197702 -0.94119581161 0.043699305971 
0.36943473175 -0.91437016548 0.13943607205 -0.25955618985 0.91665894373 0.30160368836 -0.27818604399 0.92619086585 0.24705366221 
-0.29710190773 0.93528319559 0.18694481994 -0.31033766807 0.94092285758 0.098584829007 -0.32254785506 0.94567297524 0.0045720892585 
-0.32280107875 0.93244106708 -0.10965552484 -0.32170700321 0.91688735835 -0.23184579761 -0.30569400068 0.86941592221 -0.37481141348 
-0.3035554972 0.83944783147 -0.43007940644 -0.30753622894 0.85319163196 -0.4088604279 -0.319590967 0.87975860508 -0.3267599151 
-0.33576358582 0.90739812215 -0.20003407857 -0.3514950173 0.92988348586 -0.042687995952 -0.35325454944 0.92416703051 0.095437613566 
-0.22959190103 0.48776253178 -0.83638850573 -0.20359128992 0.38065882039 -0.89809452536 -0.17646951252 0.28028884103 -0.94134992025 
-0.15374920716 0.18922481724 -0.96637826795 -0.129377171 0.11100780532 -0.98498064156 -0.13699698578 0.10857324985 -0.9843611381 
-0.12912214827 0.12041136468 -0.98416918078 -0.15300540226 0.3240478646 -0.93244793579 -0.14233054255 0.36929071313 -0.91383794545 
-0.14468701724 0.44559913749 -0.88323560292 -0.20272732982 0.53308154284 -0.81471853065 -0.12600041236 0.17269418119 -0.97564370558 
-0.079591792808 0.12131996345 -0.98929814095 -0.07688643001 0.13231231742 -0.98703007929 -0.10073117274 0.17666892306 -0.97516539054 
-0.32988082433 0.89815367289 -0.28476395021 -0.33456466847 0.91709257057 -0.17968463594 -0.33305498145 0.93501433247 -0.055417526872 
-0.3325622933 0.93680989347 0.057832697371 -0.33082291201 0.92564368779 0.15875429924 -0.32425391156 0.91166268948 0.24642942102 
-0.31601474792 0.89804199534 0.3005888906 -0.29393868824 0.91293727114 0.28062633242 -0.082705920757 0.00055459289976 -0.99411937092 
-0.04874871134 -0.091940634665 -0.99044158098 -0.012912528402 -0.19900430405 -0.97755179396 0.0014300158262 -0.25968169349 -0.96492233176 
-0.0043571359032 -0.37373972952 -0.92751778186 -0.00089138413016 -0.35901350269 -0.93311411192 0.14383447175 -0.79862017408 -0.57018235383 
0.062368204448 -0.64624885208 -0.75300606267 0.004346988147 -0.53379646871 -0.84278182314 -0.008154681128 -0.43594030481 -0.89696374077 
-0.014692708412 -0.37719434897 -0.92574744163 -0.0051502610054 -0.43834992957 -0.89835012496 -0.00036144015547 -0.29000610535 -0.95588190732 
0.39793864309 -0.81468542171 0.41489062346 0.39347451436 -0.78144316977 0.48300647047 0.37928590649 -0.74942838214 0.53986989639 
0.36414525572 -0.70831081288 0.60092448478 0.35083523617 -0.67013448872 0.65170535466 0.33815729008 -0.62313809846 0.7024346934 
0.32532145254 -0.57617604045 0.74840584456 0.31908645297 -0.57392229605 0.75407685155 0.31166277989 -0.5968756029 0.73893171033 
0.29812699097 -0.61798729697 0.72736970972 0.29315952195 -0.57564686762 0.76180037545 0.28572318153 -0.60983240534 0.73915522451 
0.29975757197 -0.54714070878 0.78091644979 0.29828782271 -0.50782229494 0.8060895926 0.29194976724 -0.46011373855 0.83831228794 
0.2684111164 -0.39979681938 0.87365527456 0.24147912938 -0.3090729373 0.9155472128 0.22760428605 -0.13418978925 0.95991425865 
0.17095671258 0.052053307237 0.97484850097 0.11883304073 0.18662201449 0.96921851338 0.052496426241 0.33329373816 0.93385766853 
0.17569096201 0.021607852249 0.97622476621 0.18829925437 -0.060558823765 0.97369240563 0.20387556076 -0.2021523187 0.94862154382 
0.21856818267 -0.32525869846 0.91964528693 0.23454589624 -0.39304690403 0.88658208628 0.24870013848 -0.44977725642 0.856299478 
0.25751508596 -0.50566890494 0.82112609711 0.26512447063 -0.56309606897 0.78005886286 0.29296157612 -0.59405836463 0.74904752133 
0.29051079488 -0.60530369127 0.7409203532 0.30255116916 -0.60271254099 0.73726469455 0.3196465649 -0.63999963382 0.69780491935 
0.343235601 -0.68534566242 0.63881258844 0.35576848739 -0.75013910158 0.55541581579 0.38101691962 -0.78604780105 0.48268819751 
0.39399593716 -0.81328706205 0.42437539844 0.14329620415 -0.89245917379 -0.42186516922 0.33688346608 -0.62388774597 0.70282620796 
0.32478053022 -0.5994602368 0.73121711483 0.31432301971 -0.5858740998 0.74668582323 0.30659953932 -0.58787296628 0.74831828767 
0.30247894516 -0.6015542217 0.73892461005 0.26138499367 -0.42531913094 0.86604441237 0.27302926563 -0.48351052241 0.82937121069 
0.24601499544 -0.37072455252 0.89268633552 0.23305969799 -0.32813034312 0.91390021747 -0.10511390147 0.11412973699 -0.98759454597 
-0.089975721448 0.11240137737 -0.9894013454 -0.19623647964 0.40290856708 -0.8891512674 -0.14704421608 0.2906608367 -0.94431281989 
-0.22444652663 0.47642845145 -0.84735095304 -0.30864578944 0.92685818318 0.20074293578 -0.32122776736 0.9385970964 0.11174229872 
-0.32693290263 0.93996159959 0.012454402792 -0.33172514681 0.93645090186 -0.095113551934 -0.31906414503 0.91054740921 -0.22947514022 
0.27810613115 -0.6037603702 0.74678672679 0.28538905838 -0.58906598776 0.75508546588 0.2814825318 -0.54357215264 0.78882419728 
-0.0060633635092 -0.38320870235 -0.92326754067 -0.0052268048213 -0.40735842325 -0.91236896875 0.011625134169 -0.58029039424 -0.80587092345 
0.041803003234 -0.67355816093 -0.72985898849 0.081095655413 -0.76918474676 -0.61919253981 0.10003510506 -0.8192229394 -0.54513179967 
-0.087190974486 0.15578121634 -0.98235795696 -0.051681594131 0.68185722699 0.72633823218 0.0059332967305 -0.32256204835 -0.94602136936 

Curv_Gaussian 1 1116 double
5.2769808382 5.4241749965 -0.0091084704208 -0.0037723472497 5.7656035194 -0.0071247132685 5.8562153915 -0.0047904368218 5.9182666067 
-0.0052638210802 5.9525663606 -0.0052514440885 6.0436294811 -0.0038916840461 5.9440733318 -0.0038690728456 5.6290735653 -0.0055375728808 
5.268088276 -0.0046866692679 5.0165432465 -0.0029165296395 4.8594797995 0.00038666170914 4.7813958004 -0.0051302760624 4.811679228 
-0.0070105331915 4.9124938074 -0.0047775705365 4.9622550193 -0.0077351690272 5.0097518471 -0.009519699003 5.052079927 -0.0096584998455 
4.9300883048 -0.0080965390092 4.625506393 -0.0038266325536 4.4820531878 -0.0022997726653 4.404835202 -0.0022888545812 4.4932722443 
-0.0081183606746 4.6552659272 -0.011677318924 4.9945140017 -0.015396374957 5.4227294966 -0.022656526078 5.9133989339 -0.02665235524 
6.4991717388 -0.013427542687 6.7493424125 -0.0084641866207 6.6360974598 -0.0023397561792 6.1171099353 -0.0018179035871 5.8088561359 
-0.0024135488429 5.7191513807 -0.0040841329164 5.6235935427 -0.0042535334803 5.8364821652 -0.0032094758274 6.3296064371 -0.0016311198774 
5.7997864739 -0.0011470041347 5.5018236758 -0.0010605674065 5.4939542058 -0.0028787937014 5.7680572193 -0.0046108481519 5.8057075747 
-0.0059534261476 5.3221591462 -0.0042753340684 5.3185005912 -0.0057821569786 5.3432280279 -0.0075643869408 5.3181555399 -0.010129590282 
5.1069505146 -0.014960552935 4.9196977878 -0.019648939979 4.7201262255 -0.019631238565 4.3616773059 -0.013270308412 4.2683984639 
-0.0071186402032 4.3248720493 -0.0052254392209 4.4831361851 -0.006025933714 4.9600117533 -0.0062087594986 5.9701877979 -0.0046459393147 
6.6288405656 -0.0012017694141 6.5865701156 -0.00028781716539 4.5738632977 5.2929217011 -0.0040270812727 -0.008209810325 5.6012298063 
-0.0050033480967 5.1282201196 -0.003198349344 5.335300212 -0.00189263943 5.6849961276 -0.00091906888472 5.7105565642 -0.00030912787955 
5.6341244914 -5.4089190517e-05 5.1787115161 -0.00037607476293 4.7588042582 -0.00020842671596 4.4432583753 -0.0046308419508 4.2961600184 
-0.0071234562288 4.6098166108 -0.0065318403166 4.7485323581 -0.0070609637455 4.6380539857 -0.0093769051881 4.6287137755 -0.015706275999 
4.6725202671 -0.026741141749 4.5447387338 -0.019019673678 4.6184643496 -0.011322120997 5.28432358 -0.0059836017318 5.9508362235 
-0.0048283557086 6.617797985 -0.0078385804197 6.5478051855 -0.0075327801865 6.8028796182 -0.0057150920332 7.6878087484 -0.0060256647264 
7.7860994222 -0.003606497779 7.4547270081 -0.00059269410643 6.5848532266 -0.0017679883257 6.039046261 -0.0044180055959 5.9383444672 
-0.0076922869618 6.3685303236 -0.011154505359 6.5230182356 -0.0093096120657 6.383243222 -0.0077676152262 5.8903944878 0.00042876023261 
5.7923350129 0.0032755262142 5.9478086432 -0.0016835865327 6.3063637441 -0.013370342799 6.8016263459 -0.021117231421 7.4458718864 
-0.022581464495 8.3216362555 -0.0071794799017 9.0527091614 -0.0022914057151 9.2707168917 -0.0015607598834 8.9171685471 -0.0010575506186 
8.4757339411 0.00044209747073 7.8878133026 -0.0031381377632 7.1797849232 -0.0057319770088 6.5137866491 -0.0025406141506 5.7918659582 
0.00029005444158 5.0199539357 0.00013913517561 5.4125654262 -0.00016146953361 5.7553283507 -0.00028725661681 5.7660009616 -0.0017553800441 
5.4544835286 -0.0038879048303 4.906708779 -0.0047593890952 4.2437194776 -0.0076121043286 3.8189201877 -0.011978696995 5.0977058923 
-0.012164860822 5.2894260309 -0.012382682248 0.0009211173112 0.0049292234962 -0.004981497059 -0.0010514610527 -0.00152396027 -0.00083463405729 
-0.0020799995562 -0.0047942779025 -0.0124917845 -0.010342146638 -0.0040397246208 -0.0061644165944 -0.0058600466611 -0.0033792215459 -0.0020802276237 
-0.0030176577776 -0.0042342919661 -0.0050317825472 -0.0075015351578 -0.0081451536955 -0.0075765365288 -0.0075257947796 -0.011167562328 -0.010932026595 
-0.0091842923114 -0.0077017843631 -0.0094368824687 -0.0061088951073 -0.0025260385217 -0.0022119792505 -0.0024587148397 -0.0024532435369 -0.0025059874847 
-0.0007343977833 -0.0019294654236 -0.0020816771744 -0.0021610967584 -0.0020717626719 -0.0011951196682 -0.0021722886702 -0.0024888901101 -0.0010691945308 
0.0003417255907 -8.8924794501e-05 0.0010981611552 0.0047913583087 0.0014532496909 0.00015565491069 -0.00021091929675 -0.00066768832826 -0.001261232497 
-0.007743627807 -0.0088171045477 -0.0061277944151 2.1022328718e-05 -0.0046469360932 -0.0036059904487 -0.0018502477952 -0.0065166595965 -0.0040804382292 
-0.002816867401 -0.0023888001041 -0.0023672458548 -0.003159244742 -0.0037877609891 -0.0036149107999 -0.0035741817641 -0.0049291717359 -0.0073733279195 
-0.010358042439 -0.0088662001546 -0.0090957861565 -0.011793663856 -0.0018133506364 2.2884119777e-05 0.0019730169427 0.00096128725657 -0.00014152535018 
-0.0016414705154 -0.0020065412619 0.00031568094319 0.0024540072355 0.0011594807922 -0.001530919931 -0.0031047671184 -0.0031434146849 -0.0013515032472 
-0.0010651975748 -0.0010360833669 -0.0014740046843 9.058210476e-06 0.0013396142145 -0.0092795780939 -0.010874872023 -0.0085705459065 -0.0015855182733 
-0.0025281595576 -0.003852369201 -0.0059540133994 -0.0059544974297 -0.0017695623435 -0.00052257677155 -0.00076440199224 -0.00026879496732 -0.00097669994694 
-0.0010469401381 -0.0021856368214 -0.0041805806242 -0.0031236678554 -0.0017694636308 -0.0008977893132 0.009123338702 0.0041639778345 -0.0019685283226 
0.0032010312501 -0.0033094411329 0.0028755029564 0.0028691875807 0.0012970870792 -0.0016628947806 -0.0059275661704 -0.0093870891099 -0.0066535094236 
-0.0047852530082 -0.0030857954945 -0.003522204118 -0.0073163058292 -0.0063352770303 0.00098496801243 -0.0020032011517 -0.0057529895246 -0.0038181081291 
-0.0018445449669 -0.0006795703017 0.0025298134131 -0.0091043726771 -0.0038907494734 -0.0078756737687 -0.0056927387582 -0.001516212576 -6.2812851898e-05 
0.00016436155219 -0.0014125028063 -0.0030556825218 -0.0024637275351 -0.0030415655135 -0.0011778846352 0.00019639407834 0.00010480494279 -0.00024502096908 
-0.00030478639837 0.00018587533286 -0.00094418709601 -0.00048181834608 0.0017662706185 0.0043987868475 0.0048492127504 -0.0024732185711 -0.0034003151053 
-0.0042751956696 0.0014944750034 0.0042284483093 0.001408295876 0.0014714113981 0.0043859319145 -0.0079752723027 -0.010636161602 -0.0064168880965 
0.0018269066752 -0.0033819288754 0.0019055619845 0.0051451342777 0.0074350072565 0.0053025127445 -0.0019399854888 -0.00023345688965 -0.0035563153945 
-0.0038195415596 -0.005988001899 -0.0071091969127 -0.0032104317426 -0.0023034216394 -0.0037516275755 -0.0031642263371 -0.0029002640792 -0.0028396288423 
0.0018302528987 0.0084683951181 0.019935601902 0.021262073799 0.012397550108 0.00058962451686 -0.00023488555145 0.00063805172011 0.0010056992223 
0.00027082245194 -0.00085829471533 -0.0013607154484 -0.00031221943428 0.0023160063616 0.0012031588699 0.0011538085776 0.0012321722471 -0.00040797811735 
0.00049778167104 -0.00024729414704 -0.00090125712795 -0.00045572791994 -0.0011945426489 0.00056139978211 0.0009444675834 -0.0013390438452 -0.00024446434106 
0.00021889665619 -0.002915539959 -0.0045070739976 -0.0048805335311 -0.0056736489034 -0.004923182222 -0.0038398247544 -0.0011545401778 -0.00070908707405 
-0.00036616985092 -0.00094680078421 -0.00072245269708 0.00010059464123 0.0037303566613 0.012152523883 0.0079800778855 -0.00055877695146 0.0010005668104 
0.00059762403578 0.0090729097165 0.0066993481551 0.011886628935 0.01215245937 0.011215893117 0.0077733207065 -0.00040991140609 0.0027572074066 
0.0035174747484 0.0043819650546 0.0022136927976 -0.0049065730891 -0.0027422380197 -0.0021918357842 -9.1821192285e-05 0.0056453859242 0.0066389010221 
0.0032706853718 0.0029753147633 0.00012207264969 -0.0024570242284 -0.0088959478363 -0.0026536894248 -0.0012412817508 -0.0012269640699 -0.00050101980604 
-5.303554049e-05 -0.00023172433766 -0.0032101436691 -0.008207341287 -0.0039409355581 -0.0003131726421 7.4452323502e-05 0.0010087448432 0.0021746079862 
0.0028052972268 0.0033572278833 0.004070554915 0.0060981295427 0.0090412590045 0.0042797529505 0.0026202262546 0.0023012708842 0.0028170271821 
0.00090550314177 -0.00029170891909 -0.00033054021966 -0.0003497707099 -0.0012576816923 -0.0024315692203 -0.00098082353588 0.00058163218044 0.0013175327877 
0.0016139906918 0.0019136843761 0.00048063481998 -0.00022579424614 -0.00023924608986 0.0014435088019 0.0021303567273 0.00091303535776 0.0038313994978 
0.0070510529652 0.0077930262262 0.010320466305 0.0053267054992 0.014612558994 0.0010005861873 0.00021095519264 0.0016085847069 -0.0012394816848 
-0.0037648775209 -0.0022026557829 -0.0002963450377 -0.00043060726254 -0.00090249069748 0.001621237434 0.0047180791288 0.013515729774 0.020977674432 
0.01846405162 0.017174003996 0.018105179572 0.0048088714983 0.0035768743356 0.0091125910641 0.0045783015304 0.00031123817811 0.00035564884878 
0.0013539784407 0.0012848123299 -0.0012413045037 0.007030151145 0.0060683524064 0.00078280611815 -0.00027739015824 -0.00092878283716 -0.0010606427503 
-0.00061829011385 -0.00069000665577 0.00079908239725 0.002573544947 0.0017749985409 -0.0011202337217 -0.0017396257686 -0.0025487800934 -0.0038949221054 
-0.0052064614879 -0.0047842497642 -0.0024348435964 -0.0017619841071 -0.002463037973 -0.0017641791701 -0.0013610937569 -0.00056497970044 3.0888478394e-05 
0.0012815546332 0.001791490828 0.0070138845949 0.011295239498 0.0073764974395 0.0021381919979 -0.0012028658748 -0.00078626293357 -0.0011385583162 
0.0083554615777 0.0072201093979 0.024757073571 0.023400872205 0.017937345936 0.010486749808 -5.5942695767e-05 -0.00031027811017 0.0011632638013 
0.004675205126 0.0062240378677 0.0068407687946 0.0026906974817 0.0011701975772 0.0012321096075 -0.005282490387 -0.0029488714064 -0.00042564188395 
-0.00054501069967 -0.0019401938689 -0.0029685589381 -0.0021547868698 -0.00052609150686 -0.00042740176393 0.00088075364469 0.0013620859353 0.0022072499196 
0.0018279759512 0.0010324499571 -0.00024940561993 -0.00052515875841 0.00011283594686 7.5008943929e-05 0.0006731911623 0.0012648604998 0.0015880656771 
0.0052231535045 0.0062189194277 0.0077366163018 0.0035388886904 0.0080420234045 0.010105222553 0.0099370585731 0.0081919616692 0.0033131426192 
-0.0043974027169 -0.011297070176 -0.0028710513162 -0.00074292605077 -0.00041020797846 0.0012143103457 -0.00069651588912 -0.00093135470393 0.00020251316787 
0.001078881837 0.00059858919364 0.0016248374682 0.0018550279471 0.0014302501901 0.00022120503595 0.0016128164251 0.0010414745267 0.0021175194449 
0.0070669754669 0.0084526984572 0.0074500415593 0.006041013728 0.0039279762695 0.0066825086533 0.0089799246003 0.0010321206772 -0.00097825315623 
0.0068216080239 0.0089140376264 0.0048618265331 0.0027238154491 0.0019261474287 0.0033107081638 0.0023784330345 0.00044683424414 0.001323879646 
4.0864334532e-05 0.0012522802174 0.0015364487656 0.0031407773441 0.00031594370447 -0.00084989295034 -0.0013707061208 -0.00041907304531 0.0019907218123 
0.0041659289784 0.0060631967513 3.3619341567e-05 -0.0018016914912 -0.00067213590213 -0.001219977352 -0.00070315754177 2.7956077397e-05 0.00032130608184 
-0.00063688640094 -0.00075138908687 -0.0010425354182 -7.1139651231e-05 0.00088034256803 0.0011284268951 8.1460893389e-05 -0.00031062001271 -0.00026627925601 
1.6676972634e-05 0.007317985905 0.018302377365 0.01068208608 0.0056133803803 0.0012583555199 -0.0016896540431 -0.0033716493278 -0.0023917011337 
-0.0023563479235 -0.0019761441118 -0.0015075099932 -0.0019889204097 -0.0006397918233 0.00031863866234 -0.00059404353024 -0.0017364565264 0.001314248772 
0.003413886692 0.0094037983009 0.019956855635 0.020571078251 0.021833939056 0.015025705142 0.0072467846061 0.00079432218004 0.0052797851775 
-0.00073943902505 0.0086013026367 0.0045862601942 0.00099754833458 -0.00023314309916 0.0013663976377 0.00089825548484 0.00086727474497 0.0025281536544 
0.004348670168 0.0062566214549 0.010663957393 -0.0023491575254 0.0015826435687 0.0025172675099 0.0056573260024 0.0015764540391 -0.0020131834265 
-0.0033978951112 -0.0034701636212 -0.0018513701533 -0.0018619896648 -0.002783992656 -0.003235803481 -0.0017290697936 8.118438543e-05 0.01091144596 
0.0068069897547 0.014006409924 0.0095188652688 0.0054128969241 0.0063252008747 0.0019730485976 -0.00014812195198 -0.00017379792377 0.0020532683432 
0.00085105830302 0.0020343657351 0.0012485175904 0.00019128749713 -8.3094010297e-05 0.0040132260523 0.0042652694724 0.0012023549881 0.00010734115994 
-0.00030069465881 0.0080005914396 0.010868997676 0.013230396276 0.0059675250184 0.014284187056 0.01141479837 0.001418457176 -0.00054487249602 
-0.00052656140211 -2.2133081415e-05 -6.4564872574e-05 -0.0013735842361 -0.00056616225743 0.00054502636377 -0.00043345914236 -0.00018022767665 0.00048079181882 
0.00094969338408 0.0012706999034 0.003288847116 0.0058226131742 0.0047712834574 0.0032139956526 0.0055171377926 0.007783647797 0.0091831122851 
0.0082166218337 0.0034664028003 0.0060515424422 0.0026072846813 0.0014972511338 0.0021051673801 0.0025108614978 0.001360867938 0.00077538217295 
-0.00039753900972 -0.0019835638041 -0.0074923084557 -0.0034491262263 -0.00076734419578 -0.0002554498225 0.0019253459323 -0.0019584998904 -0.00039303916162 
0.0030478413423 0.0044863976397 0.00076310478218 -0.0013205591453 -0.00074349316581 -0.00023979104201 0.00012587938833 0.00097429289924 0.0068342561337 
0.0024921494535 0.0020499499017 0.0029190970281 0.0054923850902 0.0022992288394 0.00095096316036 9.4092494019e-05 -0.00069465429861 -0.0010041251786 
-0.00074676911807 -0.0026052029933 -0.00032270654908 -0.00065647140946 -0.0046827124245 0.0032597839477 0.0021494015858 0.0013163655235 -0.0018502724592 
-0.00058358430282 0.00051803695312 0.0060835576809 0.008653787787 0.006590994053 0.0054033999549 0.0023621262494 -0.0011540191048 -0.00075096770712 
0.00066397479456 0.001283458586 0.007218861813 0.0098392509962 0.0087149348449 0.0054462489516 -0.00053144463533 -0.0023852211072 0.0016765410173 
0.001367643827 0.0053074137538 0.0017168820287 -0.0012778476257 0.00073457322285 0.010525792567 0.012390492806 0.0029104269298 0.0062579581759 
0.0027044373025 0.0046695019512 0.0031418037511 0.00068711340906 -0.00055226516116 -0.00023359996786 -0.00014584368723 0.00011749804346 0.00092411884605 
0.0017841542263 0.0028463490162 0.0044076561638 0.0041100337716 0.0051752396913 0.004289385174 0.0080984455127 0.0086017194054 0.0066559029865 
0.0045597347437 0.00062149602966 0.00041094254284 0.00028423453127 -0.00081749994987 -0.0016689722865 -0.0019340645925 0.0096682601903 0.0018923839952 
-0.0013587439818 0.0025623014047 0.0063078233537 -0.00011634100562 -0.0028721086192 -0.003587462513 -0.0027448404371 -0.0038513280175 -0.00210000585 
0.000951819134 0.00092771859468 0.0016537269492 0.0026389114744 0.0040929137044 0.0046879025183 0.013591172884 0.012780492402 0.010541350027 
0.0082509206564 0.003292945651 0.0062306233046 0.0014917337667 0.0014092301063 0.00074017298719 0.0042817157442 0.0043357011478 0.0061208766184 
0.005903450186 0.0043301625409 0.0013667587434 -0.00026357965064 -0.0028814282373 0.01196487307 0.0098755040678 0.0016232416719 0.0021933716495 
0.003343866575 0.0014121870365 0.0061858744998 0.011097523063 0.0066773841859 0.00060856701945 0.00079293599915 0.00033867131458 -0.0010288805739 
0.0010941757829 0.0032742086928 0.0061188596755 0.001514195651 0.0013763048548 0.001783455322 0.00081245336589 0.00026106949691 -0.00024067275256 
-0.00048451331222 -0.00062478159555 0.00020930561207 -0.00028307970919 -0.0016638167584 -0.0031289488019 -0.0028181052825 -0.0057597602148 -0.0061478241014 
0.00547476397 0.0027387229195 0.0012108663846 0.010770238165 0.012596141752 0.00061796191971 -0.00017085650396 0.0018179357884 0.0027609123127 
0.0016116999702 -0.00030300235372 0.00035492308493 0.0019039814559 0.0022891791535 -3.0529346808e-05 -0.00057710305007 -0.0015116692915 -0.0017162424453 
-0.0024892432199 -0.0012366968491 -0.00052393640453 -9.8589055719e-05 -0.0022368064371 7.8404102984e-05 0.0040776085429 0.0070422734526 0.0020299664958 
0.0041168534998 -5.9712696178e-05 -0.00031525031038 0.0012973120505 0.0016875784992 0.0024579528153 0.0012503262197 0.0022660282027 0.0065784892348 
-0.00079724064008 0.00036850738797 0.0023600097082 0.0045155355834 0.0058767524032 0.0021956628872 0.0028479577646 0.0025403143838 0.00097945582172 
-0.00055585187431 -0.0021150098499 -0.003813601045 -0.0069228437191 -0.0089593361097 0.0030064876273 0.0012558463624 0.005030001019 0.0068715327419 
0.0075596117157 0.0068587736837 0.0056061095526 0.0026047709476 0.0030642914679 0.0068758760919 0.0049113902375 0.00025468060274 -0.0016043333396 
-0.0041178159449 -0.0047694028328 -0.0027870292675 -0.0015516302364 0.0030121691161 -0.0075393150126 0.00088159739148 -0.0031696867519 -0.0021040941064 
0.00053630536051 0.00074809976216 0.0029390795519 0.0031727380159 0.0021284520537 0.00069435120303 0.00022363443014 0.0025223501254 0.0099011069323 
0.0069318304712 0.00059474227171 -0.00022588273436 -0.00074341513173 -0.00047518498559 0.010458132275 0.0085360999726 0.0015725914571 0.0016276664243 
0.00011576616873 0.008697552312 -0.00017850916943 0.00071556661057 -5.7251892586e-05 0.00032433288913 0.0010428524524 0.0017786722715 0.0012960058321 
0.00025229748221 -0.00030347068108 -0.00073864727502 -0.0004681231164 0.0018656817544 0.0018650977226 0.0021902155486 0.0010170181552 2.3259896849e-05 
0.0007330547921 0.0013753467076 0.0021360726402 0.0020629949654 0.0081710588662 0.010330271601 0.0098836219401 0.0098236273416 0.005643380613 
0.0031103392413 0.0040457934676 0.0052046968833 0.0042885876253 0.0040886988603 -0.00040688328196 -0.00039963543677 -0.00066915513054 -0.0017690609217 
-0.00032169421825 0.002725685316 0.0020502512414 0.0019915534253 0.0063356322401 0.0024115813067 0.001827901435 0.00051804918613 -0.00024463949623 
-0.00054208599183 0.0011694432864 0.0027051318167 0.0012676904238 0.0014879086332 -0.0022113915378 -0.0010402598942 0.0034909962815 0.00094437171382 
0.0053036529657 0.0020488285899 0.0015637378478 -0.0011107647587 -0.0035793245927 -8.917196006e-06 0.0039074855118 0.0039900111008 0.00400638495 
0.00054659491029 0.0040544239744 0.0021772015261 0.0043481759987 0.0056449010803 0.003181588277 -0.002456432583 0.00071601870102 0.0011092496284 

Curv_Mean 1 1116 double
-0.16835226517 0.061635300899 -0.025903601986 -0.064625900881 0.23108208708 -0.017644923455 0.089202635473 0.0042797494583 -0.011006177848 
0.015941191373 -0.070724987662 0.024435388706 0.10169543608 0.021778118014 0.074772307061 -0.017063634365 -0.18286575104 -0.071039786653 
-0.13611826921 -0.053846286712 -0.046131364173 0.03628440742 0.06203339667 0.10522200494 -0.072479106664 0.078839008001 0.016987682663 
0.052028056756 0.21987659778 -0.0034197977927 -0.1476085471 0.03282301739 -0.30672829705 0.041440941124 0.0097727745172 0.00052752572657 
0.071586260731 -0.023386523132 -0.14960636492 -0.024356675883 -0.098895852865 -0.015676621525 0.049256074364 0.00077810326735 -0.011113329484 
0.034968267443 -0.052415871361 0.029941403109 -0.047771711633 0.032418991887 -0.098070784369 0.027785641061 -0.18396613911 0.010356835568 
-0.11507870751 -0.0076221139663 0.031115577473 -0.00852363759 0.26102362923 -0.0011510968067 -0.060993939446 0.0098841652156 -0.23203522061 
0.009356209178 -0.23402366024 -0.005501442856 -0.092214331968 -0.027339681356 -0.0092312454141 -0.035266824672 0.019357825271 -0.019655590796 
0.061599194025 -0.017748114613 0.055574839249 -0.015695554705 -0.010838265462 -0.014678159445 -0.014673652167 -0.00051071491827 -0.01104028419 
0.013451979899 -0.010072390878 -0.014143710306 0.023023448229 0.0048914014486 -0.03149011642 0.0077916626257 -0.20498705964 0.012123179186 
-0.14689722989 0.0097916358827 -0.13264008474 0.029258037633 -0.15426154048 0.045989493176 -0.18333275369 0.051478515109 -0.16008274326 
0.065174161477 -0.10728479019 0.070538085805 0.031953425159 0.054070736958 0.12542325434 0.022874797724 0.14228471459 -0.014602540888 
-0.24485316737 -0.052860387256 -0.45581224053 -0.074967440053 -0.061281868514 -0.1483645304 -0.015842548498 0.012557494456 -0.11443377428 
0.0034142613856 0.10188119127 -0.034558400137 0.18668857105 -0.032290781571 0.22349657483 -0.017057423988 0.024671413398 -0.030104079824 
-0.1351818975 -0.043370298827 -0.15022470059 -0.042195543034 -0.15608437263 -0.042590824564 -0.13495221757 0.001267732154 -0.11043688791 
0.025167965308 -0.076667552103 0.053051387315 -0.052082664122 0.06999765999 -0.040580543571 0.075266342397 -0.13527672124 0.070165502985 
-0.28577863212 0.057679238036 -0.055132041124 -0.00066891347707 0.074432620227 -0.033200931125 -0.13267242384 -0.0063596338658 -0.12387236579 
-0.0076833857458 0.033328250679 -0.019080319237 0.044181410399 0.020322828536 -0.04207199839 0.040813757707 -0.28798954708 -0.01806526261 
0.1376901557 -0.013467116511 0.30027747846 0.078409736379 -0.28076296473 0.080315441614 -0.052918636763 0.018323254672 0.042640709384 
-0.015265079696 -0.1201384594 -0.0032379093289 -0.30183973603 0.0019476082171 -0.32988732423 0.03064056052 -0.15919773818 0.062318873251 
0.10544991472 0.07283106392 0.19101119085 0.062981877342 0.12528636233 0.03712488259 0.2206502157 -0.0025927636453 0.1322387071 
-0.03944596551 -0.24175890215 -0.065141648504 0.030731987311 -0.031648152162 0.13318763781 0.0010656378065 -0.019286157962 -0.00056253327932 
-0.020928251782 -0.057781827472 -0.019318760022 -0.051938848742 -0.025379476306 -0.019296282562 -0.23164840825 -0.038860223854 -0.24239102425 
-0.050023314011 -0.078344683649 -0.020232946545 -0.069686669617 -0.026052216601 -0.037842089965 -0.037695942921 0.079269168277 -0.026514413682 
0.038645478764 -0.0066169263642 -0.11764297506 0.02356317704 -0.087043202409 0.027921635681 -0.028972183125 0.027259670478 0.0060258865051 
0.020084482442 -0.0074143047973 0.014073842235 -0.063558828626 -0.073907444347 -0.029846834673 -0.034411236173 -0.019028583161 -0.020676150143 
-0.043628938999 -0.064101495808 0.025531570459 0.067739719253 0.057973117313 0.049232061175 0.035342201106 0.0096158094115 -0.022710011321 
-0.03239337377 -0.026115203473 -0.0209464698 0.040388217524 0.066262052997 0.073801841131 0.033686817101 0.040562116158 0.022669620164 
-0.031900450795 -0.066019348375 -0.032683330257 0.002116156742 0.055528368615 0.039087955262 0.020195341829 -0.011046126134 -0.023087214144 
-0.045845585537 -0.033296219885 -0.00072432210942 0.017073944614 -0.0068042143814 -0.030349031874 -0.028281898582 -0.013383067059 -0.02008981717 
-0.046643816393 -0.049950250132 -0.052664459094 -0.078095926727 -0.058585911089 -0.035465605618 -0.029232426041 -0.029085605114 -0.02938862624 
-0.007888326558 -0.0051451105613 -0.040649576675 -0.054563456828 -0.013351114268 -0.012409654975 -0.020593110885 -0.012723356528 -0.027034952115 
0.0030983675171 -0.0015984911068 -0.012645031367 -0.007339451992 -0.0015383704969 0.007104294305 0.013098034881 0.0061533831087 0.0072840907544 
0.024527030915 -0.0023972483178 -0.022381352126 -0.024835323046 -0.058065942101 -0.02763478475 -0.054685260058 -0.056662509171 -0.033265138572 
-0.015454955819 -0.015825765238 -0.052765225502 -0.052049665328 -0.034132872321 -0.031297572681 -0.022127329025 -0.021887224095 -0.033877020759 
-0.014438039106 0.024275989542 0.044158564094 -0.0057913554809 -0.063704507054 -0.051330098808 -0.058819803998 -0.042762919734 -0.011969962397 
0.036863596078 0.017139109065 -0.016397269128 -0.03859735921 -0.03672019141 -0.040217762743 -0.036256822244 -0.027011845759 -0.012553768473 
-0.026548419696 -0.021547348355 -0.0059331679808 0.0047965104396 -0.032997677983 -0.093323163945 -0.1173249874 -0.073234975485 -0.023903068418 
-0.07279643745 -0.061086824879 -0.064204838344 -0.058727390588 -0.044002375429 -0.043118211439 -0.021265673807 0.050697544518 0.010210530232 
-0.019255119725 -0.010873301337 -0.0056967269499 0.013469165816 -0.017228760172 -0.047294610815 -0.025283731438 0.0066787038863 0.0041267155846 
-0.0061866351659 -0.017011981217 -0.059586949024 -0.0016451256527 -0.017110303617 -0.037685144332 -0.060175876094 -0.055982556639 -0.042496563125 
-0.022933841993 0.0008657604255 0.014487882256 -0.003524223332 -0.0058271661406 -0.031525167028 -0.051765000262 -0.038456219626 -0.011316545825 
-0.018937114332 -0.029300623811 -0.032906193561 -0.036869369473 -0.050403215336 -0.070297298448 -0.072675619873 -0.039263235104 -0.029050442384 
-0.03945180135 -0.06684198934 -0.073526778894 -0.042254066358 -0.050179231162 -0.085673432171 0.0077724937184 0.010436619403 0.0040849779557 
0.0023447392446 -0.059819008492 -0.048770669222 -0.0715840018 -0.09511480128 -0.077462117257 -0.047662972359 -0.018897879036 -0.024839293242 
0.018207496774 0.025549084029 0.0331454365 0.0520711568 0.053444727134 0.016084380345 0.035695291456 0.01047874444 -0.013178743535 
-0.052755342425 -0.09110065462 -0.13530477824 -0.14634742142 -0.10107739694 -0.020773240721 -0.036386233617 -0.053128493585 -0.046124795863 
-0.018223871331 0.018224768453 0.014548145167 -0.013904390503 -0.067909097156 -0.063420910701 -0.051160075137 -0.044737091057 -0.031030424014 
0.011494448507 0.04325411573 0.0017207370174 -0.038886938807 -0.05775354498 -0.086400605918 -0.089235947575 -0.035044557746 -0.032771422761 
-0.030852210203 -0.0050203851407 -0.028210828008 -0.033078753248 -0.0038461903629 0.0013261230773 0.001304300973 -0.020033601964 -0.012896662239 
-0.0084327552011 -0.016309413367 -0.034102786803 -0.061015589315 -0.069798533567 -0.11780822722 -0.10116711106 -0.038721241643 -0.047439231097 
-0.028138630748 -0.10076061918 -0.085207951377 -0.11904561141 -0.11303901117 -0.10471019569 -0.085212701906 -0.037038593287 -0.059479197957 
-0.073563050041 -0.072215627666 -0.055773019483 -0.01581804949 0.029920672882 0.040598758119 0.0077162058194 -0.074189515992 -0.095600287975 
-0.074676783107 -0.061839166145 -0.038839117301 -0.027214474872 -0.0058227527239 -0.028546595536 -0.029304649701 -0.03467869834 -0.043725127882 
-0.048280087109 -0.046341357301 -0.022872847031 0.013350819252 0.0072737055509 -0.0074839621294 -0.028595069793 -0.046774889347 -0.052162849512 
-0.053653069863 -0.058718785988 -0.063830414454 -0.08333240554 -0.096360489324 -0.077300602898 -0.077744686883 -0.086180284314 -0.076458571385 
-0.057213126218 -0.032894579832 -0.014788035138 -0.014254436398 -0.0048295082409 0.0059101029909 -0.014750918034 -0.037954767494 -0.041287777588 
-0.050993842279 -0.065015161248 -0.040018502047 -0.014762939782 0.011969553061 -0.032453207052 -0.055562967634 -0.042216113709 -0.065071879931 
-0.083326743702 -0.089010510245 -0.10093847759 -0.07828881736 -0.11763399936 -0.051988562011 -0.043707257356 -0.047574522021 -0.017722454933 
0.011966856213 0.036026879687 0.067139383047 0.040923020486 0.01164483229 -0.030066463269 -0.073259562247 -0.11385505619 -0.14825374749 
-0.13717623045 -0.13080745289 -0.13321389076 -0.075339533975 -0.07096398206 -0.097513473826 -0.061520258009 -0.026078461232 -0.030297992251 
-0.043597388055 -0.040386788152 0.0018194510615 -0.078356948136 -0.076192058976 -0.034679371526 -0.032065189963 -0.0024843139405 0.01761271873 
-0.0059618542431 -0.035413741474 -0.077589510598 -0.10153003225 -0.07618271385 -0.0099770866088 0.0060906471355 -0.0026519086449 -0.015476792178 
-0.011916498113 -0.018318878448 -0.025715714916 -0.023315288083 -0.0079427783839 -0.0093362449417 -0.0044821905879 -0.0027379516684 -0.016122511335 
-0.042370669517 -0.056295347575 -0.095422464681 -0.12109768207 -0.096934692926 -0.056186321075 -0.010883966346 0.0039731166759 0.01175638111 
-0.090793205742 -0.093208251775 -0.15712574567 -0.15223835928 -0.13436914896 -0.081953022634 -0.022407318166 -0.014143385405 -0.033728280568 
-0.071420698531 -0.086293765725 -0.095775812843 -0.060789362585 0.029203242711 0.055696283935 -0.042040064721 -0.055987404433 -0.066663188652 
-0.057626889265 -0.029053527844 -0.011207092587 -0.01722746175 -0.03307588165 -0.040713835871 -0.052621108755 -0.061115873686 -0.067546389078 
-0.066281824036 -0.048316417426 -0.0077367994485 0.018183792527 0.030122125174 -0.011972881532 -0.034342677108 -0.040406019919 -0.043336116641 
-0.076415101639 -0.090695996151 -0.097873334441 -0.066285200026 -0.087744918533 -0.10040071988 -0.1056835376 -0.098305160299 -0.075073956925 
-0.033424156611 0.010775793168 -0.025206440966 -0.019434594231 -0.022325233084 -0.043143202631 -0.012253266874 -0.011791528016 -0.028333112002 
-0.036489039538 -0.035737681585 -0.050517219368 -0.056669765587 -0.049022593736 -0.026968916619 -0.037780341907 -0.032744419534 -0.045593624486 
-0.080052817272 -0.093122769724 -0.088425744387 -0.079346175646 -0.070368811198 -0.082996723555 -0.096493150847 0.058397300979 0.0045700772961 
-0.085027310438 -0.099973903791 -0.070146353128 -0.053357303767 -0.048605111851 -0.06197119198 -0.044048667805 -0.021472821179 -0.04246127173 
-0.024808374977 -0.039923129885 -0.053945621327 -0.062565595037 -0.036460538598 -0.030942572842 0.0015613356587 -0.012702774619 -0.048479409183 
-0.073390563157 -0.10345288712 -0.075381878451 -0.05186778199 -0.022050321414 -0.0068191313194 -0.019711048802 -0.044880583827 -0.050574207637 
-0.034474150239 -0.027203393037 -0.020346471854 -0.035491180949 -0.040142918022 -0.032529532561 -0.017893737542 -0.010910591988 -0.0016895601255 
-0.010892370014 -0.061070673454 -0.1373729265 -0.12362125743 -0.068119920617 0.029568941238 0.02409711006 0.0059362339925 -0.046821222862 
-0.029462639937 -0.012063357684 -0.01759735181 -0.010365480432 -0.030668491258 -0.043162205926 -0.043349457805 -0.026935123775 -0.058878279525 
-0.076046991274 -0.099026675803 -0.14197747149 -0.14356607673 -0.14858989948 -0.12340789112 -0.086378428521 -0.051539474344 -0.079892087655 
-0.044155546512 -0.095913998032 -0.07832323589 -0.067017494225 -0.05054890176 -0.04527534183 -0.048139986826 -0.049886344058 -0.056743225449 
-0.067846291298 -0.082447178156 -0.12185415454 -0.069736029932 0.026841698101 -0.067771768079 0.083229899407 0.038952887307 -0.019348056241 
-0.033783202624 -0.042394435431 -0.068363923085 -0.070035679267 -0.048114668761 -0.025994288218 -0.025254436726 -0.032109621372 -0.10546087635 
-0.08103100991 -0.11909040651 -0.10043001426 -0.081980885617 -0.079481480319 -0.031765245465 -0.0015645949011 -0.0042308022249 -0.046831233386 
-0.027663243732 -0.043645468068 -0.041402321843 -0.0082105056494 -0.033855494065 -0.074486816428 -0.07395957306 -0.039239864575 -0.026614791764 
-0.015826727379 -0.090492134786 -0.10627090415 -0.11396085422 -0.079594185502 -0.10895988496 -0.1103763534 -0.04104376713 -0.01096077903 
-0.020001180006 -0.028790638693 -0.029668269277 -0.031236862965 -0.021700278238 -0.022503205615 -0.023768435453 -0.027083431378 -0.038010689676 
-0.041425605655 -0.039364353292 -0.060927313863 -0.077950499932 -0.072403776988 -0.05937865176 -0.072080845608 -0.092461068217 -0.095185931954 
-0.093712734385 -0.06829497119 -0.07843133223 -0.054799032868 -0.046068195054 -0.049689401827 -0.051693446352 -0.046314895674 -0.039535735326 
-0.027617690778 -0.022248648963 -0.0026488251372 -0.022289413868 -0.025105369315 -0.015176858031 -0.003005886662 -0.013694058754 -0.029278327698 
-0.068179059834 -0.099702790412 -0.067020436131 -0.040321608505 -0.020864296493 -0.018452512867 -0.025205170506 -0.050226507609 -0.088197211139 
-0.056041844784 -0.048742116196 -0.053985058749 -0.073766738643 -0.050426608509 -0.032975673399 0.00045432500068 0.0043908723952 -0.0056648964836 
0.0064308375738 -0.015619596682 -0.078813505238 -0.093266147917 -0.10290408071 0.05751674821 0.018051541604 -0.062302974711 -0.033260246974 
-0.031468774357 -0.0319762881 -0.080862005051 -0.10169322267 -0.093028871502 -0.087425310154 -0.060762447086 -0.034910762615 -0.043602477918 
-0.053659076322 -0.068010220112 -0.096943751707 -0.10329111489 -0.09631779783 -0.080658343963 -0.047356485075 -0.036693958825 -0.056948767793 
-0.054240275235 -0.076949989324 -0.05921176532 -0.022440647195 -0.038945624874 -0.10325243472 -0.11276681905 -0.062430641175 -0.083952821726 
-0.059870833699 -0.065900098301 -0.05982062738 -0.042208020746 -0.01012682624 0.033515701922 0.013630035245 -0.0095520647715 -0.040272883475 
-0.047868794291 -0.056915047558 -0.071437392914 -0.063892500548 -0.073261196624 -0.069331822952 -0.092352513293 -0.093972084874 -0.08344880567 
-0.0756114768 -0.041301306393 -0.028224122026 -0.030924196235 -0.028528912129 -0.043593916494 -0.060033642421 -0.11452803419 -0.059807399445 
-0.051866025955 0.056269869989 0.069331822409 0.001327339203 -0.041344874299 -0.021685064299 -0.024800533423 -0.02784984552 -0.047114712655 
-0.051690653907 -0.047418719332 -0.052162756778 -0.054975777802 -0.072553908373 -0.071599786606 -0.12217238332 -0.11571908841 -0.10347399655 
-0.092390060726 -0.063376729998 -0.093376924556 -0.042192035675 -0.04413350171 -0.031404481015 -0.069016702916 -0.070526300198 -0.078784656113 
-0.076946002298 -0.066246409206 -0.050633376844 -0.04070759952 -0.0291669656 -0.11231657753 -0.096886282416 -0.047136054596 -0.05978430107 
-0.056829106484 -0.035230608914 -0.081755599239 -0.11498972634 -0.095822074651 -0.059260724852 -0.051605066595 -0.037465317281 -0.021946758346 
-0.045779723795 -0.06137693202 -0.085625390567 -0.041376773915 -0.041909892177 -0.048317029403 -0.044989826457 -0.03440473466 -0.019646016074 
-0.0012013877129 0.0098404108903 -0.02064680123 -0.016350103591 -0.036215548231 -0.052332014049 -0.058337869865 -0.063542428481 -0.081489873196 
-0.083181662689 -0.056991642598 -0.054510308764 -0.10780581876 -0.11345148713 -0.028277570007 -0.02635388769 -0.044301516252 -0.057707956903 
-0.047518586683 -0.029560828585 -0.034755201048 -0.04934091244 -0.055849269888 -0.038896696137 -0.037163265265 -0.031028990615 -0.034142111239 
-0.029282730045 -0.041275551334 -0.053254302149 -0.056080154417 -0.043839665298 -0.054653485843 -0.069799256944 -0.085929549259 -0.044268505394 
-0.063471151157 -0.01887668467 -0.02370154501 -0.043311665391 -0.052783359951 -0.057394368747 -0.066354916383 -0.073710578054 -0.089164736977 
-0.060271947804 -0.059083614401 -0.062753198243 -0.073485809637 -0.083031616006 -0.051556598879 -0.054690222629 -0.054921277002 -0.038737379662 
-0.025755169068 -0.025215568903 -0.023104341426 -0.011249543998 -0.0048119819041 -0.07190783664 -0.06240915651 -0.085662005591 -0.095090586061 
-0.093335354593 -0.08422531054 -0.074356995591 -0.054985702459 -0.053894857364 -0.080588337822 -0.057531989614 -0.027374683516 -0.050746759315 
-0.053606915827 -0.0028329922991 -0.022317932587 -0.030566392826 -0.061850699469 0.017378404684 0.032794033278 0.017192357377 -0.032821543223 
-0.060570811172 -0.056470953448 -0.063555400501 -0.061420796438 -0.054771734296 -0.042199902368 -0.033392063094 -0.060487126215 -0.10257775847 
-0.087479028264 -0.048751632528 -0.024421905529 -0.026568421085 -0.029199115615 -0.10269710322 -0.091213027957 -0.049299252215 -0.038936978107 
-0.017000192665 -0.091396940603 -0.020325905361 -0.036717901514 -0.021265644009 -0.030633287908 -0.042601274906 -0.052683239017 -0.031239364862 
0.0057396354707 0.014490695396 -0.0015713553263 -0.023192391643 -0.047751545072 -0.027126943901 -0.049587949581 -0.033073231885 -0.017643293701 
-0.034764593984 -0.053593493436 -0.073428549767 -0.079732380408 -0.10269285655 -0.1024042786 -0.10549983424 -0.1000594296 -0.073220796264 
-0.063707979469 -0.069813050597 -0.075975636527 -0.067229573541 -0.065315772505 -0.0076160491023 0.0074158419095 -0.015313856706 -0.0063547840451 
-0.024960428167 -0.052753647584 -0.044861030909 -0.047172687602 -0.081453660391 -0.057391156239 -0.037049387915 -0.00087206551309 0.011737551441 
0.00046095734698 -0.038705161804 -0.052603509689 -0.042519416277 -0.047174508242 -0.035077114673 -0.020201665493 -0.061970120437 -0.047310134255 
-0.074884744353 -0.054952397549 -0.048532073688 -0.027802680936 -0.011080415831 -0.04560898701 -0.048293443258 -0.06463883164 -0.064499708892 
-0.039664882069 -0.063668537985 -0.060754508411 -0.075874472311 -0.082021069877 -0.06800044261 -0.012524871114 -0.027929948254 -0.040952650116 

Displacement_Root 3 1116 double
0 0 0 0 0 0 0 0 0 
0 0 0 0 0 0 0 0 0 
0 0 0 0 0 0 0 0 0 
0 0 0 0 0 0 0 0 0 
0 0 0 0 0 0 0 0 0 
0 0 0 0 0 0 0 0 0 
0 0 0 0 0 0 0 0 0 
0 0 0 0 0 0 0 0 0 
0 0 0 0 0 0 0 0 0 
0 0 0 0 0 0 0 0 0 
0 0 0 0 0 0 0 0 0 
0 0 0 0 0 0 0 0 0 
0 0 0 0 0 0 0 0 0 
0 0 0 0 0 0 0 0 0 
0 0 0 0 0 0 0 0 0 
0 0 0 0 0 0 0 0 0 
0 0 0 0 0 0 0 0 0 
0 0 0 0 0 0 0 0 0 
0 0 0 0 0 0 0 0 0 
0 0 0 0 0 0 0 0 0 
0 0 0 0 0 0 0 0 0 
0 0 0 0 0 0 0 0 0 
0 0 0 0 0 0 0 0 0 
0 0 0 0 0 0 0 0 0 
0 0 0 0 0 0 0 0 0 
0 0 0 0 0 0 0 0 0 
0 0 0 0 0 0 0 0 0 
0 0 0 0 0 0 0 0 0 
0 0 0 0 0 0 0 0 0 
0 0 0 0 0 0 0 0 0 
0 0 0 0 0 0 0 0 0 
0 0 0 0 0 0 0 0 0 
0 0 0 0 0 0 0 0 0 
0 0 0 0 0 0 0 0 0 
0 0 0 0 0 0 0 0 0 
0 0 0 0 0 0 0 0 0 
0 0 0 0 0 0 0 0 0 
0 0 0 0 0 0 0 0 0 
0 0 0 0 0 0 0 0 0 
0 0 0 0 0 0 0 0 0 
0 0 0 0 0 0 0 0 0 
0 0 0 0 0 0 0 0 0 
0 0 0 0 0 0 0 0 0 
0 0 0 0 0 0 0 0 0 
0 0 0 0 0 0 0 0 0 
0 0 0 0 0 0 0 0 0 
0 0 0 0 0 0 0 0 0 
0 0 0 0 0 0 0 0 0 
0 0 0 0 0 0 0 0 0 
0 0 0 0 0 0 0 0 0 
0 0 0 0 0 0 0 0 0 
0 0 0 0 0 0 0 0 0 
0 0 0 0 0 0 0 0 0 
0 0 0 0 0 0 0 0 0 
0 0 0 0 0 0 0 0 0 
0 0 0 0 0 0 0 0 0 
0 0 0 0 0 0 0 0 0 
0 0 0 0 0 0 0 0 0 
0 0 0 0 0 0 0 0 0 
0 0 0 0 0 0 0 0 0 
0 0 0 0 0 0 0 0 0 
0 0 0 0 0 0 0 0 0 
0 0 0 0 0 0 0 0 0 
0 0 0 0 0 0 0 0 0 
0 0 0 0 0 0 0 0 0 
0 0 0 0 0 0 0 0 0 
0 0 0 0 0 0 0 0 0 
0 0 0 0 0 0 0 0 0 
0 0 0 0 0 0 0 0 0 
0 0 0 0 0 0 0 0 0 
0 0 0 0 0 0 0 0 0 
0 0 0 0 0 0 0 0 0 
0 0 0 0 0 0 0 0 0 
0 0 0 0 0 0 0 0 0 
0 0 0 0 0 0 0 0 0 
0 0 0 0 0 0 0 0 0 
0 0 0 0 0 0 0 0 0 
0 0 0 0 0 0 0 0 0 
0 0 0 0 0 0 0 0 0 
0 0 0 0 0 0 0 0 0 
0 0 0 0 0 0 0 0 0 
0 0 0 0 0 0 0 0 0 
0 0 0 0 0 0 0 0 0 
0 0 0 0 0 0 0 0 0 
0 0 0 0 0 0 0 0 0 
0 0 0 0 0 0 0 0 0 
0 0 0 0 0 0 0 0 0 
0 0 0 0 0 0 0 0 0 
0 0 0 0 0 0 0 0 0 
0 0 0 0 0 0 0 0 0 
0 0 0 0 0 0 0 0 0 
0 0 0 0 0 0 0 0 0 
0 0 0 0 0 0 0 0 0 
0 0 0 0 0 0 0 0 0 
0 0 0 0 0 0 0 0 0 
0 0 0 0 0 0 0 0 0 
0 0 0 0 0 0 0 0 0 
0 0 0 0 0 0 0 0 0 
0 0 0 0 0 0 0 0 0 
0 0 0 0 0 0 0 0 0 
0 0 0 0 0 0 0 0 0 
0 0 0 0 0 0 0 0 0 
0 0 0 0 0 0 0 0 0 
0 0 0 0 0 0 0 0 0 
0 0 0 0 0 0 0 0 0 
0 0 0 0 0 0 0 0 0 
0 0 0 0 0 0 0 0 0 
0 0 0 0 0 0 0 0 0 
0 0 0 0 0 0 0 0 0 
0 0 0 0 0 0 0 0 0 
0 0 0 0 0 0 0 0 0 
0 0 0 0 0 0 0 0 0 
0 0 0 0 0 0 0 0 0 
0 0 0 0 0 0 0 0 0 
0 0 0 0 0 0 0 0 0 
0 0 0 0 0 0 0 0 0 
0 0 0 0 0 0 0 0 0 
0 0 0 0 0 0 0 0 0 
0 0 0 0 0 0 0 0 0 
0 0 0 0 0 0 0 0 0 
0 0 0 0 0 0 0 0 0 
0 0 0 0 0 0 0 0 0 
0 0 0 0 0 0 0 0 0 
0 0 0 0 0 0 0 0 0 
0 0 0 0 0 0 0 0 0 
0 0 0 0 0 0 0 0 0 
0 0 0 0 0 0 0 0 0 
0 0 0 0 0 0 0 0 0 
0 0 0 0 0 0 0 0 0 
0 0 0 0 0 0 0 0 0 
0 0 0 0 0 0 0 0 0 
0 0 0 0 0 0 0 0 0 
0 0 0 0 0 0 0 0 0 
0 0 0 0 0 0 0 0 0 
0 0 0 0 0 0 0 0 0 
0 0 0 0 0 0 0 0 0 
0 0 0 0 0 0 0 0 0 
0 0 0 0 0 0 0 0 0 
0 0 0 0 0 0 0 0 0 
0 0 0 0 0 0 0 0 0 
0 0 0 0 0 0 0 0 0 
0 0 0 0 0 0 0 0 0 
0 0 0 0 0 0 0 0 0 
0 0 0 0 0 0 0 0 0 
0 0 0 0 0 0 0 0 0 
0 0 0 0 0 0 0 0 0 
0 0 0 0 0 0 0 0 0 
0 0 0 0 0 0 0 0 0 
0 0 0 0 0 0 0 0 0 
0 0 0 0 0 0 0 0 0 
0 0 0 0 0 0 0 0 0 
0 0 0 0 0 0 0 0 0 
0 0 0 0 0 0 0 0 0 
0 0 0 0 0 0 0 0 0 
0 0 0 0 0 0 0 0 0 
0 0 0 0 0 0 0 0 0 
0 0 0 0 0 0 0 0 0 
0 0 0 0 0 0 0 0 0 
0 0 0 0 0 0 0 0 0 
0 0 0 0 0 0 0 0 0 
0 0 0 0 0 0 0 0 0 
0 0 0 0 0 0 0 0 0 
0 0 0 0 0 0 0 0 0 
0 0 0 0 0 0 0 0 0 
0 0 0 0 0 0 0 0 0 
0 0 0 0 0 0 0 0 0 
0 0 0 0 0 0 0 0 0 
0 0 0 0 0 0 0 0 0 
0 0 0 0 0 0 0 0 0 
0 0 0 0 0 0 0 0 0 
0 0 0 0 0 0 0 0 0 
0 0 0 0 0 0 0 0 0 
0 0 0 0 0 0 0 0 0 
0 0 0 0 0 0 0 0 0 
0 0 0 0 0 0 0 0 0 
0 0 0 0 0 0 0 0 0 
0 0 0 0 0 0 0 0 0 
0 0 0 0 0 0 0 0 0 
0 0 0 0 0 0 0 0 0 
0 0 0 0 0 0 0 0 0 
0 0 0 0 0 0 0 0 0 
0 0 0 0 0 0 0 0 0 
0 0 0 0 0 0 0 0 0 
0 0 0 0 0 0 0 0 0 
0 0 0 0 0 0 0 0 0 
0 0 0 0 0 0 0 0 0 
0 0 0 0 0 0 0 0 0 
0 0 0 0 0 0 0 0 0 
0 0 0 0 0 0 0 0 0 
0 0 0 0 0 0 0 0 0 
0 0 0 0 0 0 0 0 0 
0 0 0 0 0 0 0 0 0 
0 0 0 0 0 0 0 0 0 
0 0 0 0 0 0 0 0 0 
0 0 0 0 0 0 0 0 0 
0 0 0 0 0 0 0 0 0 
0 0 0 0 0 0 0 0 0 
0 0 0 0 0 0 0 0 0 
0 0 0 0 0 0 0 0 0 
0 0 0 0 0 0 0 0 0 
0 0 0 0 0 0 0 0 0 
0 0 0 0 0 0 0 0 0 
0 0 0 0 0 0 0 0 0 
0 0 0 0 0 0 0 0 0 
0 0 0 0 0 0 0 0 0 
0 0 0 0 0 0 0 0 0 
0 0 0 0 0 0 0 0 0 
0 0 0 0 0 0 0 0 0 
0 0 0 0 0 0 0 0 0 
0 0 0 0 0 0 0 0 0 
0 0 0 0 0 0 0 0 0 
0 0 0 0 0 0 0 0 0 
0 0 0 0 0 0 0 0 0 
0 0 0 0 0 0 0 0 0 
0 0 0 0 0 0 0 0 0 
0 0 0 0 0 0 0 0 0 
0 0 0 0 0 0 0 0 0 
0 0 0 0 0 0 0 0 0 
0 0 0 0 0 0 0 0 0 
0 0 0 0 0 0 0 0 0 
0 0 0 0 0 0 0 0 0 
0 0 0 0 0 0 0 0 0 
0 0 0 0 0 0 0 0 0 
0 0 0 0 0 0 0 0 0 
0 0 0 0 0 0 0 0 0 
0 0 0 0 0 0 0 0 0 
0 0 0 0 0 0 0 0 0 
0 0 0 0 0 0 0 0 0 
0 0 0 0 0 0 0 0 0 
0 0 0 0 0 0 0 0 0 
0 0 0 0 0 0 0 0 0 
0 0 0 0 0 0 0 0 0 
0 0 0 0 0 0 0 0 0 
0 0 0 0 0 0 0 0 0 
0 0 0 0 0 0 0 0 0 
0 0 0 0 0 0 0 0 0 
0 0 0 0 0 0 0 0 0 
0 0 0 0 0 0 0 0 0 
0 0 0 0 0 0 0 0 0 
0 0 0 0 0 0 0 0 0 
0 0 0 0 0 0 0 0 0 
0 0 0 0 0 0 0 0 0 
0 0 0 0 0 0 0 0 0 
0 0 0 0 0 0 0 0 0 
0 0 0 0 0 0 0 0 0 
0 0 0 0 0 0 0 0 0 
0 0 0 0 0 0 0 0 0 
0 0 0 0 0 0 0 0 0 
0 0 0 0 0 0 0 0 0 
0 0 0 0 0 0 0 0 0 
0 0 0 0 0 0 0 0 0 
0 0 0 0 0 0 0 0 0 
0 0 0 0 0 0 0 0 0 
0 0 0 0 0 0 0 0 0 
0 0 0 0 0 0 0 0 0 
0 0 0 0 0 0 0 0 0 
0 0 0 0 0 0 0 0 0 
0 0 0 0 0 0 0 0 0 
0 0 0 0 0 0 0 0 0 
0 0 0 0 0 0 0 0 0 
0 0 0 0 0 0 0 0 0 
0 0 0 0 0 0 0 0 0 
0 0 0 0 0 0 0 0 0 
0 0 0 0 0 0 0 0 0 
0 0 0 0 0 0 0 0 0 
0 0 0 0 0 0 0 0 0 
0 0 0 0 0 0 0 0 0 
0 0 0 0 0 0 0 0 0 
0 0 0 0 0 0 0 0 0 
0 0 0 0 0 0 0 0 0 
0 0 0 0 0 0 0 0 0 
0 0 0 0 0 0 0 0 0 
0 0 0 0 0 0 0 0 0 
0 0 0 0 0 0 0 0 0 
0 0 0 0 0 0 0 0 0 
0 0 0 0 0 0 0 0 0 
0 0 0 0 0 0 0 0 0 
0 0 0 0 0 0 0 0 0 
0 0 0 0 0 0 0 0 0 
0 0 0 0 0 0 0 0 0 
0 0 0 0 0 0 0 0 0 
0 0 0 0 0 0 0 0 0 
0 0 0 0 0 0 0 0 0 
0 0 0 0 0 0 0 0 0 
0 0 0 0 0 0 0 0 0 
0 0 0 0 0 0 0 0 0 
0 0 0 0 0 0 0 0 0 
0 0 0 0 0 0 0 0 0 
0 0 0 0 0 0 0 0 0 
0 0 0 0 0 0 0 0 0 
0 0 0 0 0 0 0 0 0 
0 0 0 0 0 0 0 0 0 
0 0 0 0 0 0 0 0 0 
0 0 0 0 0 0 0 0 0 
0 0 0 0 0 0 0 0 0 
0 0 0 0 0 0 0 0 0 
0 0 0 0 0 0 0 0 0 
0 0 0 0 0 0 0 0 0 
0 0 0 0 0 0 0 0 0 
0 0 0 0 0 0 0 0 0 
0 0 0 0 0 0 0 0 0 
0 0 0 0 0 0 0 0 0 
0 0 0 0 0 0 0 0 0 
0 0 0 0 0 0 0 0 0 
0 0 0 0 0 0 0 0 0 
0 0 0 0 0 0 0 0 0 
0 0 0 0 0 0 0 0 0 
0 0 0 0 0 0 0 0 0 
0 0 0 0 0 0 0 0 0 
0 0 0 0 0 0 0 0 0 
0 0 0 0 0 0 0 0 0 
0 0 0 0 0 0 0 0 0 
0 0 0 0 0 0 0 0 0 
0 0 0 0 0 0 0 0 0 
0 0 0 0 0 0 0 0 0 
0 0 0 0 0 0 0 0 0 
0 0 0 0 0 0 0 0 0 
0 0 0 0 0 0 0 0 0 
0 0 0 0 0 0 0 0 0 
0 0 0 0 0 0 0 0 0 
0 0 0 0 0 0 0 0 0 
0 0 0 0 0 0 0 0 0 
0 0 0 0 0 0 0 0 0 
0 0 0 0 0 0 0 0 0 
0 0 0 0 0 0 0 0 0 
0 0 0 0 0 0 0 0 0 
0 0 0 0 0 0 0 0 0 
0 0 0 0 0 0 0 0 0 
0 0 0 0 0 0 0 0 0 
0 0 0 0 0 0 0 0 0 
0 0 0 0 0 0 0 0 0 
0 0 0 0 0 0 0 0 0 
0 0 0 0 0 0 0 0 0 
0 0 0 0 0 0 0 0 0 
0 0 0 0 0 0 0 0 0 
0 0 0 0 0 0 0 0 0 
0 0 0 0 0 0 0 0 0 
0 0 0 0 0 0 0 0 0 
0 0 0 0 0 0 0 0 0 
0 0 0 0 0 0 0 0 0 
0 0 0 0 0 0 0 0 0 
0 0 0 0 0 0 0 0 0 
0 0 0 0 0 0 0 0 0 
0 0 0 0 0 0 0 0 0 
0 0 0 0 0 0 0 0 0 
0 0 0 0 0 0 0 0 0 
0 0 0 0 0 0 0 0 0 
0 0 0 0 0 0 0 0 0 
0 0 0 0 0 0 0 0 0 
0 0 0 0 0 0 0 0 0 
0 0 0 0 0 0 0 0 0 
0 0 0 0 0 0 0 0 0 
0 0 0 0 0 0 0 0 0 
0 0 0 0 0 0 0 0 0 
0 0 0 0 0 0 0 0 0 
0 0 0 0 0 0 0 0 0 
0 0 0 0 0 0 0 0 0 
0 0 0 0 0 0 0 0 0 
0 0 0 0 0 0 0 0 0 
0 0 0 0 0 0 0 0 0 
0 0 0 0 0 0 0 0 0 
0 0 0 0 0 0 0 0 0 
0 0 0 0 0 0 0 0 0 
0 0 0 0 0 0 0 0 0 
0 0 0 0 0 0 0 0 0 
0 0 0 0 0 0 0 0 0 
0 0 0 0 0 0 0 0 0 
0 0 0 0 0 0 0 0 0 
0 0 0 0 0 0 0 0 0 
0 0 0 0 0 0 0 0 0 
0 0 0 0 0 0 0 0 0 
0 0 0 0 0 0 0 0 0 

Displacement_Total 3 1116 double
0 0 0 0 0 0 0 0 0 
0 0 0 0 0 0 0 0 0 
0 0 0 0 0 0 0 0 0 
0 0 0 0 0 0 0 0 0 
0 0 0 0 0 0 0 0 0 
0 0 0 0 0 0 0 0 0 
0 0 0 0 0 0 0 0 0 
0 0 0 0 0 0 0 0 0 
0 0 0 0 0 0 0 0 0 
0 0 0 0 0 0 0 0 0 
0 0 0 0 0 0 0 0 0 
0 0 0 0 0 0 0 0 0 
0 0 0 0 0 0 0 0 0 
0 0 0 0 0 0 0 0 0 
0 0 0 0 0 0 0 0 0 
0 0 0 0 0 0 0 0 0 
0 0 0 0 0 0 0 0 0 
0 0 0 0 0 0 0 0 0 
0 0 0 0 0 0 0 0 0 
0 0 0 0 0 0 0 0 0 
0 0 0 0 0 0 0 0 0 
0 0 0 0 0 0 0 0 0 
0 0 0 0 0 0 0 0 0 
0 0 0 0 0 0 0 0 0 
0 0 0 0 0 0 0 0 0 
0 0 0 0 0 0 0 0 0 
0 0 0 0 0 0 0 0 0 
0 0 0 0 0 0 0 0 0 
0 0 0 0 0 0 0 0 0 
0 0 0 0 0 0 0 0 0 
0 0 0 0 0 0 0 0 0 
0 0 0 0 0 0 0 0 0 
0 0 0 0 0 0 0 0 0 
0 0 0 0 0 0 0 0 0 
0 0 0 0 0 0 0 0 0 
0 0 0 0 0 0 0 0 0 
0 0 0 0 0 0 0 0 0 
0 0 0 0 0 0 0 0 0 
0 0 0 0 0 0 0 0 0 
0 0 0 0 0 0 0 0 0 
0 0 0 0 0 0 0 0 0 
0 0 0 0 0 0 0 0 0 
0 0 0 0 0 0 0 0 0 
0 0 0 0 0 0 0 0 0 
0 0 0 0 0 0 0 0 0 
0 0 0 0 0 0 0 0 0 
0 0 0 0 0 0 0 0 0 
0 0 0 0 0 0 0 0 0 
0 0 0 0 0 0 0 0 0 
0 0 0 0 0 0 0 0 0 
0 0 0 0 0 0 0 0 0 
0 0 0 0 0 0 0 0 0 
0 0 0 0 0 0 0 0 0 
0 0 0 0 0 0 0 0 0 
0 0 0 0 0 0 0 0 0 
0 0 0 0 0 0 0 0 0 
0 0 0 0 0 0 0 0 0 
0 0 0 0 0 0 0 0 0 
0 0 0 0 0 0 0 0 0 
0 0 0 0 0 0 0 0 0 
0 0 0 0 0 0 0 0 0 
0 0 0 0 0 0 0 0 0 
0 0 0 0 0 0 0 0 0 
0 0 0 0 0 0 0 0 0 
0 0 0 0 0 0 0 0 0 
0 0 0 0 0 0 0 0 0 
0 0 0 0 0 0 0 0 0 
0 0 0 0 0 0 0 0 0 
0 0 0 0 0 0 0 0 0 
0 0 0 0 0 0 0 0 0 
0 0 0 0 0 0 0 0 0 
0 0 0 0 0 0 0 0 0 
0 0 0 0 0 0 0 0 0 
0 0 0 0 0 0 0 0 0 
0 0 0 0 0 0 0 0 0 
0 0 0 0 0 0 0 0 0 
0 0 0 0 0 0 0 0 0 
0 0 0 0 0 0 0 0 0 
0 0 0 0 0 0 0 0 0 
0 0 0 0 0 0 0 0 0 
0 0 0 0 0 0 0 0 0 
0 0 0 0 0 0 0 0 0 
0 0 0 0 0 0 0 0 0 
0 0 0 0 0 0 0 0 0 
0 0 0 0 0 0 0 0 0 
0 0 0 0 0 0 0 0 0 
0 0 0 0 0 0 0 0 0 
0 0 0 0 0 0 0 0 0 
0 0 0 0 0 0 0 0 0 
0 0 0 0 0 0 0 0 0 
0 0 0 0 0 0 0 0 0 
0 0 0 0 0 0 0 0 0 
0 0 0 0 0 0 0 0 0 
0 0 0 0 0 0 0 0 0 
0 0 0 0 0 0 0 0 0 
0 0 0 0 0 0 0 0 0 
0 0 0 0 0 0 0 0 0 
0 0 0 0 0 0 0 0 0 
0 0 0 0 0 0 0 0 0 
0 0 0 0 0 0 0 0 0 
0 0 0 0 0 0 0 0 0 
0 0 0 0 0 0 0 0 0 
0 0 0 0 0 0 0 0 0 
0 0 0 0 0 0 0 0 0 
0 0 0 0 0 0 0 0 0 
0 0 0 0 0 0 0 0 0 
0 0 0 0 0 0 0 0 0 
0 0 0 0 0 0 0 0 0 
0 0 0 0 0 0 0 0 0 
0 0 0 0 0 0 0 0 0 
0 0 0 0 0 0 0 0 0 
0 0 0 0 0 0 0 0 0 
0 0 0 0 0 0 0 0 0 
0 0 0 0 0 0 0 0 0 
0 0 0 0 0 0 0 0 0 
0 0 0 0 0 0 0 0 0 
0 0 0 0 0 0 0 0 0 
0 0 0 0 0 0 0 0 0 
0 0 0 0 0 0 0 0 0 
0 0 0 0 0 0 0 0 0 
0 0 0 0 0 0 0 0 0 
0 0 0 0 0 0 0 0 0 
0 0 0 0 0 0 0 0 0 
0 0 0 0 0 0 0 0 0 
0 0 0 0 0 0 0 0 0 
0 0 0 0 0 0 0 0 0 
0 0 0 0 0 0 0 0 0 
0 0 0 0 0 0 0 0 0 
0 0 0 0 0 0 0 0 0 
0 0 0 0 0 0 0 0 0 
0 0 0 0 0 0 0 0 0 
0 0 0 0 0 0 0 0 0 
0 0 0 0 0 0 0 0 0 
0 0 0 0 0 0 0 0 0 
0 0 0 0 0 0 0 0 0 
0 0 0 0 0 0 0 0 0 
0 0 0 0 0 0 0 0 0 
0 0 0 0 0 0 0 0 0 
0 0 0 0 0 0 0 0 0 
0 0 0 0 0 0 0 0 0 
0 0 0 0 0 0 0 0 0 
0 0 0 0 0 0 0 0 0 
0 0 0 0 0 0 0 0 0 
0 0 0 0 0 0 0 0 0 
0 0 0 0 0 0 0 0 0 
0 0 0 0 0 0 0 0 0 
0 0 0 0 0 0 0 0 0 
0 0 0 0 0 0 0 0 0 
0 0 0 0 0 0 0 0 0 
0 0 0 0 0 0 0 0 0 
0 0 0 0 0 0 0 0 0 
0 0 0 0 0 0 0 0 0 
0 0 0 0 0 0 0 0 0 
0 0 0 0 0 0 0 0 0 
0 0 0 0 0 0 0 0 0 
0 0 0 0 0 0 0 0 0 
0 0 0 0 0 0 0 0 0 
0 0 0 0 0 0 0 0 0 
0 0 0 0 0 0 0 0 0 
0 0 0 0 0 0 0 0 0 
0 0 0 0 0 0 0 0 0 
0 0 0 0 0 0 0 0 0 
0 0 0 0 0 0 0 0 0 
0 0 0 0 0 0 0 0 0 
0 0 0 0 0 0 0 0 0 
0 0 0 0 0 0 0 0 0 
0 0 0 0 0 0 0 0 0 
0 0 0 0 0 0 0 0 0 
0 0 0 0 0 0 0 0 0 
0 0 0 0 0 0 0 0 0 
0 0 0 0 0 0 0 0 0 
0 0 0 0 0 0 0 0 0 
0 0 0 0 0 0 0 0 0 
0 0 0 0 0 0 0 0 0 
0 0 0 0 0 0 0 0 0 
0 0 0 0 0 0 0 0 0 
0 0 0 0 0 0 0 0 0 
0 0 0 0 0 0 0 0 0 
0 0 0 0 0 0 0 0 0 
0 0 0 0 0 0 0 0 0 
0 0 0 0 0 0 0 0 0 
0 0 0 0 0 0 0 0 0 
0 0 0 0 0 0 0 0 0 
0 0 0 0 0 0 0 0 0 
0 0 0 0 0 0 0 0 0 
0 0 0 0 0 0 0 0 0 
0 0 0 0 0 0 0 0 0 
0 0 0 0 0 0 0 0 0 
0 0 0 0 0 0 0 0 0 
0 0 0 0 0 0 0 0 0 
0 0 0 0 0 0 0 0 0 
0 0 0 0 0 0 0 0 0 
0 0 0 0 0 0 0 0 0 
0 0 0 0 0 0 0 0 0 
0 0 0 0 0 0 0 0 0 
0 0 0 0 0 0 0 0 0 
0 0 0 0 0 0 0 0 0 
0 0 0 0 0 0 0 0 0 
0 0 0 0 0 0 0 0 0 
0 0 0 0 0 0 0 0 0 
0 0 0 0 0 0 0 0 0 
0 0 0 0 0 0 0 0 0 
0 0 0 0 0 0 0 0 0 
0 0 0 0 0 0 0 0 0 
0 0 0 0 0 0 0 0 0 
0 0 0 0 0 0 0 0 0 
0 0 0 0 0 0 0 0 0 
0 0 0 0 0 0 0 0 0 
0 0 0 0 0 0 0 0 0 
0 0 0 0 0 0 0 0 0 
0 0 0 0 0 0 0 0 0 
0 0 0 0 0 0 0 0 0 
0 0 0 0 0 0 0 0 0 
0 0 0 0 0 0 0 0 0 
0 0 0 0 0 0 0 0 0 
0 0 0 0 0 0 0 0 0 
0 0 0 0 0 0 0 0 0 
0 0 0 0 0 0 0 0 0 
0 0 0 0 0 0 0 0 0 
0 0 0 0 0 0 0 0 0 
0 0 0 0 0 0 0 0 0 
0 0 0 0 0 0 0 0 0 
0 0 0 0 0 0 0 0 0 
0 0 0 0 0 0 0 0 0 
0 0 0 0 0 0 0 0 0 
0 0 0 0 0 0 0 0 0 
0 0 0 0 0 0 0 0 0 
0 0 0 0 0 0 0 0 0 
0 0 0 0 0 0 0 0 0 
0 0 0 0 0 0 0 0 0 
0 0 0 0 0 0 0 0 0 
0 0 0 0 0 0 0 0 0 
0 0 0 0 0 0 0 0 0 
0 0 0 0 0 0 0 0 0 
0 0 0 0 0 0 0 0 0 
0 0 0 0 0 0 0 0 0 
0 0 0 0 0 0 0 0 0 
0 0 0 0 0 0 0 0 0 
0 0 0 0 0 0 0 0 0 
0 0 0 0 0 0 0 0 0 
0 0 0 0 0 0 0 0 0 
0 0 0 0 0 0 0 0 0 
0 0 0 0 0 0 0 0 0 
0 0 0 0 0 0 0 0 0 
0 0 0 0 0 0 0 0 0 
0 0 0 0 0 0 0 0 0 
0 0 0 0 0 0 0 0 0 
0 0 0 0 0 0 0 0 0 
0 0 0 0 0 0 0 0 0 
0 0 0 0 0 0 0 0 0 
0 0 0 0 0 0 0 0 0 
0 0 0 0 0 0 0 0 0 
0 0 0 0 0 0 0 0 0 
0 0 0 0 0 0 0 0 0 
0 0 0 0 0 0 0 0 0 
0 0 0 0 0 0 0 0 0 
0 0 0 0 0 0 0 0 0 
0 0 0 0 0 0 0 0 0 
0 0 0 0 0 0 0 0 0 
0 0 0 0 0 0 0 0 0 
0 0 0 0 0 0 0 0 0 
0 0 0 0 0 0 0 0 0 
0 0 0 0 0 0 0 0 0 
0 0 0 0 0 0 0 0 0 
0 0 0 0 0 0 0 0 0 
0 0 0 0 0 0 0 0 0 
0 0 0 0 0 0 0 0 0 
0 0 0 0 0 0 0 0 0 
0 0 0 0 0 0 0 0 0 
0 0 0 0 0 0 0 0 0 
0 0 0 0 0 0 0 0 0 
0 0 0 0 0 0 0 0 0 
0 0 0 0 0 0 0 0 0 
0 0 0 0 0 0 0 0 0 
0 0 0 0 0 0 0 0 0 
0 0 0 0 0 0 0 0 0 
0 0 0 0 0 0 0 0 0 
0 0 0 0 0 0 0 0 0 
0 0 0 0 0 0 0 0 0 
0 0 0 0 0 0 0 0 0 
0 0 0 0 0 0 0 0 0 
0 0 0 0 0 0 0 0 0 
0 0 0 0 0 0 0 0 0 
0 0 0 0 0 0 0 0 0 
0 0 0 0 0 0 0 0 0 
0 0 0 0 0 0 0 0 0 
0 0 0 0 0 0 0 0 0 
0 0 0 0 0 0 0 0 0 
0 0 0 0 0 0 0 0 0 
0 0 0 0 0 0 0 0 0 
0 0 0 0 0 0 0 0 0 
0 0 0 0 0 0 0 0 0 
0 0 0 0 0 0 0 0 0 
0 0 0 0 0 0 0 0 0 
0 0 0 0 0 0 0 0 0 
0 0 0 0 0 0 0 0 0 
0 0 0 0 0 0 0 0 0 
0 0 0 0 0 0 0 0 0 
0 0 0 0 0 0 0 0 0 
0 0 0 0 0 0 0 0 0 
0 0 0 0 0 0 0 0 0 
0 0 0 0 0 0 0 0 0 
0 0 0 0 0 0 0 0 0 
0 0 0 0 0 0 0 0 0 
0 0 0 0 0 0 0 0 0 
0 0 0 0 0 0 0 0 0 
0 0 0 0 0 0 0 0 0 
0 0 0 0 0 0 0 0 0 
0 0 0 0 0 0 0 0 0 
0 0 0 0 0 0 0 0 0 
0 0 0 0 0 0 0 0 0 
0 0 0 0 0 0 0 0 0 
0 0 0 0 0 0 0 0 0 
0 0 0 0 0 0 0 0 0 
0 0 0 0 0 0 0 0 0 
0 0 0 0 0 0 0 0 0 
0 0 0 0 0 0 0 0 0 
0 0 0 0 0 0 0 0 0 
0 0 0 0 0 0 0 0 0 
0 0 0 0 0 0 0 0 0 
0 0 0 0 0 0 0 0 0 
0 0 0 0 0 0 0 0 0 
0 0 0 0 0 0 0 0 0 
0 0 0 0 0 0 0 0 0 
0 0 0 0 0 0 0 0 0 
0 0 0 0 0 0 0 0 0 
0 0 0 0 0 0 0 0 0 
0 0 0 0 0 0 0 0 0 
0 0 0 0 0 0 0 0 0 
0 0 0 0 0 0 0 0 0 
0 0 0 0 0 0 0 0 0 
0 0 0 0 0 0 0 0 0 
0 0 0 0 0 0 0 0 0 
0 0 0 0 0 0 0 0 0 
0 0 0 0 0 0 0 0 0 
0 0 0 0 0 0 0 0 0 
0 0 0 0 0 0 0 0 0 
0 0 0 0 0 0 0 0 0 
0 0 0 0 0 0 0 0 0 
0 0 0 0 0 0 0 0 0 
0 0 0 0 0 0 0 0 0 
0 0 0 0 0 0 0 0 0 
0 0 0 0 0 0 0 0 0 
0 0 0 0 0 0 0 0 0 
0 0 0 0 0 0 0 0 0 
0 0 0 0 0 0 0 0 0 
0 0 0 0 0 0 0 0 0 
0 0 0 0 0 0 0 0 0 
0 0 0 0 0 0 0 0 0 
0 0 0 0 0 0 0 0 0 
0 0 0 0 0 0 0 0 0 
0 0 0 0 0 0 0 0 0 
0 0 0 0 0 0 0 0 0 
0 0 0 0 0 0 0 0 0 
0 0 0 0 0 0 0 0 0 
0 0 0 0 0 0 0 0 0 
0 0 0 0 0 0 0 0 0 
0 0 0 0 0 0 0 0 0 
0 0 0 0 0 0 0 0 0 
0 0 0 0 0 0 0 0 0 
0 0 0 0 0 0 0 0 0 
0 0 0 0 0 0 0 0 0 
0 0 0 0 0 0 0 0 0 
0 0 0 0 0 0 0 0 0 
0 0 0 0 0 0 0 0 0 
0 0 0 0 0 0 0 0 0 
0 0 0 0 0 0 0 0 0 
0 0 0 0 0 0 0 0 0 
0 0 0 0 0 0 0 0 0 
0 0 0 0 0 0 0 0 0 
0 0 0 0 0 0 0 0 0 
0 0 0 0 0 0 0 0 0 

Displacement_Wall 3 1116 double
0 0 0 0 0 0 0 0 0 
0 0 0 0 0 0 0 0 0 
0 0 0 0 0 0 0 0 0 
0 0 0 0 0 0 0 0 0 
0 0 0 0 0 0 0 0 0 
0 0 0 0 0 0 0 0 0 
0 0 0 0 0 0 0 0 0 
0 0 0 0 0 0 0 0 0 
0 0 0 0 0 0 0 0 0 
0 0 0 0 0 0 0 0 0 
0 0 0 0 0 0 0 0 0 
0 0 0 0 0 0 0 0 0 
0 0 0 0 0 0 0 0 0 
0 0 0 0 0 0 0 0 0 
0 0 0 0 0 0 0 0 0 
0 0 0 0 0 0 0 0 0 
0 0 0 0 0 0 0 0 0 
0 0 0 0 0 0 0 0 0 
0 0 0 0 0 0 0 0 0 
0 0 0 0 0 0 0 0 0 
0 0 0 0 0 0 0 0 0 
0 0 0 0 0 0 0 0 0 
0 0 0 0 0 0 0 0 0 
0 0 0 0 0 0 0 0 0 
0 0 0 0 0 0 0 0 0 
0 0 0 0 0 0 0 0 0 
0 0 0 0 0 0 0 0 0 
0 0 0 0 0 0 0 0 0 
0 0 0 0 0 0 0 0 0 
0 0 0 0 0 0 0 0 0 
0 0 0 0 0 0 0 0 0 
0 0 0 0 0 0 0 0 0 
0 0 0 0 0 0 0 0 0 
0 0 0 0 0 0 0 0 0 
0 0 0 0 0 0 0 0 0 
0 0 0 0 0 0 0 0 0 
0 0 0 0 0 0 0 0 0 
0 0 0 0 0 0 0 0 0 
0 0 0 0 0 0 0 0 0 
0 0 0 0 0 0 0 0 0 
0 0 0 0 0 0 0 0 0 
0 0 0 0 0 0 0 0 0 
0 0 0 0 0 0 0 0 0 
0 0 0 0 0 0 0 0 0 
0 0 0 0 0 0 0 0 0 
0 0 0 0 0 0 0 0 0 
0 0 0 0 0 0 0 0 0 
0 0 0 0 0 0 0 0 0 
0 0 0 0 0 0 0 0 0 
0 0 0 0 0 0 0 0 0 
0 0 0 0 0 0 0 0 0 
0 0 0 0 0 0 0 0 0 
0 0 0 0 0 0 0 0 0 
0 0 0 0 0 0 0 0 0 
0 0 0 0 0 0 0 0 0 
0 0 0 0 0 0 0 0 0 
0 0 0 0 0 0 0 0 0 
0 0 0 0 0 0 0 0 0 
0 0 0 0 0 0 0 0 0 
0 0 0 0 0 0 0 0 0 
0 0 0 0 0 0 0 0 0 
0 0 0 0 0 0 0 0 0 
0 0 0 0 0 0 0 0 0 
0 0 0 0 0 0 0 0 0 
0 0 0 0 0 0 0 0 0 
0 0 0 0 0 0 0 0 0 
0 0 0 0 0 0 0 0 0 
0 0 0 0 0 0 0 0 0 
0 0 0 0 0 0 0 0 0 
0 0 0 0 0 0 0 0 0 
0 0 0 0 0 0 0 0 0 
0 0 0 0 0 0 0 0 0 
0 0 0 0 0 0 0 0 0 
0 0 0 0 0 0 0 0 0 
0 0 0 0 0 0 0 0 0 
0 0 0 0 0 0 0 0 0 
0 0 0 0 0 0 0 0 0 
0 0 0 0 0 0 0 0 0 
0 0 0 0 0 0 0 0 0 
0 0 0 0 0 0 0 0 0 
0 0 0 0 0 0 0 0 0 
0 0 0 0 0 0 0 0 0 
0 0 0 0 0 0 0 0 0 
0 0 0 0 0 0 0 0 0 
0 0 0 0 0 0 0 0 0 
0 0 0 0 0 0 0 0 0 
0 0 0 0 0 0 0 0 0 
0 0 0 0 0 0 0 0 0 
0 0 0 0 0 0 0 0 0 
0 0 0 0 0 0 0 0 0 
0 0 0 0 0 0 0 0 0 
0 0 0 0 0 0 0 0 0 
0 0 0 0 0 0 0 0 0 
0 0 0 0 0 0 0 0 0 
0 0 0 0 0 0 0 0 0 
0 0 0 0 0 0 0 0 0 
0 0 0 0 0 0 0 0 0 
0 0 0 0 0 0 0 0 0 
0 0 0 0 0 0 0 0 0 
0 0 0 0 0 0 0 0 0 
0 0 0 0 0 0 0 0 0 
0 0 0 0 0 0 0 0 0 
0 0 0 0 0 0 0 0 0 
0 0 0 0 0 0 0 0 0 
0 0 0 0 0 0 0 0 0 
0 0 0 0 0 0 0 0 0 
0 0 0 0 0 0 0 0 0 
0 0 0 0 0 0 0 0 0 
0 0 0 0 0 0 0 0 0 
0 0 0 0 0 0 0 0 0 
0 0 0 0 0 0 0 0 0 
0 0 0 0 0 0 0 0 0 
0 0 0 0 0 0 0 0 0 
0 0 0 0 0 0 0 0 0 
0 0 0 0 0 0 0 0 0 
0 0 0 0 0 0 0 0 0 
0 0 0 0 0 0 0 0 0 
0 0 0 0 0 0 0 0 0 
0 0 0 0 0 0 0 0 0 
0 0 0 0 0 0 0 0 0 
0 0 0 0 0 0 0 0 0 
0 0 0 0 0 0 0 0 0 
0 0 0 0 0 0 0 0 0 
0 0 0 0 0 0 0 0 0 
0 0 0 0 0 0 0 0 0 
0 0 0 0 0 0 0 0 0 
0 0 0 0 0 0 0 0 0 
0 0 0 0 0 0 0 0 0 
0 0 0 0 0 0 0 0 0 
0 0 0 0 0 0 0 0 0 
0 0 0 0 0 0 0 0 0 
0 0 0 0 0 0 0 0 0 
0 0 0 0 0 0 0 0 0 
0 0 0 0 0 0 0 0 0 
0 0 0 0 0 0 0 0 0 
0 0 0 0 0 0 0 0 0 
0 0 0 0 0 0 0 0 0 
0 0 0 0 0 0 0 0 0 
0 0 0 0 0 0 0 0 0 
0 0 0 0 0 0 0 0 0 
0 0 0 0 0 0 0 0 0 
0 0 0 0 0 0 0 0 0 
0 0 0 0 0 0 0 0 0 
0 0 0 0 0 0 0 0 0 
0 0 0 0 0 0 0 0 0 
0 0 0 0 0 0 0 0 0 
0 0 0 0 0 0 0 0 0 
0 0 0 0 0 0 0 0 0 
0 0 0 0 0 0 0 0 0 
0 0 0 0 0 0 0 0 0 
0 0 0 0 0 0 0 0 0 
0 0 0 0 0 0 0 0 0 
0 0 0 0 0 0 0 0 0 
0 0 0 0 0 0 0 0 0 
0 0 0 0 0 0 0 0 0 
0 0 0 0 0 0 0 0 0 
0 0 0 0 0 0 0 0 0 
0 0 0 0 0 0 0 0 0 
0 0 0 0 0 0 0 0 0 
0 0 0 0 0 0 0 0 0 
0 0 0 0 0 0 0 0 0 
0 0 0 0 0 0 0 0 0 
0 0 0 0 0 0 0 0 0 
0 0 0 0 0 0 0 0 0 
0 0 0 0 0 0 0 0 0 
0 0 0 0 0 0 0 0 0 
0 0 0 0 0 0 0 0 0 
0 0 0 0 0 0 0 0 0 
0 0 0 0 0 0 0 0 0 
0 0 0 0 0 0 0 0 0 
0 0 0 0 0 0 0 0 0 
0 0 0 0 0 0 0 0 0 
0 0 0 0 0 0 0 0 0 
0 0 0 0 0 0 0 0 0 
0 0 0 0 0 0 0 0 0 
0 0 0 0 0 0 0 0 0 
0 0 0 0 0 0 0 0 0 
0 0 0 0 0 0 0 0 0 
0 0 0 0 0 0 0 0 0 
0 0 0 0 0 0 0 0 0 
0 0 0 0 0 0 0 0 0 
0 0 0 0 0 0 0 0 0 
0 0 0 0 0 0 0 0 0 
0 0 0 0 0 0 0 0 0 
0 0 0 0 0 0 0 0 0 
0 0 0 0 0 0 0 0 0 
0 0 0 0 0 0 0 0 0 
0 0 0 0 0 0 0 0 0 
0 0 0 0 0 0 0 0 0 
0 0 0 0 0 0 0 0 0 
0 0 0 0 0 0 0 0 0 
0 0 0 0 0 0 0 0 0 
0 0 0 0 0 0 0 0 0 
0 0 0 0 0 0 0 0 0 
0 0 0 0 0 0 0 0 0 
0 0 0 0 0 0 0 0 0 
0 0 0 0 0 0 0 0 0 
0 0 0 0 0 0 0 0 0 
0 0 0 0 0 0 0 0 0 
0 0 0 0 0 0 0 0 0 
0 0 0 0 0 0 0 0 0 
0 0 0 0 0 0 0 0 0 
0 0 0 0 0 0 0 0 0 
0 0 0 0 0 0 0 0 0 
0 0 0 0 0 0 0 0 0 
0 0 0 0 0 0 0 0 0 
0 0 0 0 0 0 0 0 0 
0 0 0 0 0 0 0 0 0 
0 0 0 0 0 0 0 0 0 
0 0 0 0 0 0 0 0 0 
0 0 0 0 0 0 0 0 0 
0 0 0 0 0 0 0 0 0 
0 0 0 0 0 0 0 0 0 
0 0 0 0 0 0 0 0 0 
0 0 0 0 0 0 0 0 0 
0 0 0 0 0 0 0 0 0 
0 0 0 0 0 0 0 0 0 
0 0 0 0 0 0 0 0 0 
0 0 0 0 0 0 0 0 0 
0 0 0 0 0 0 0 0 0 
0 0 0 0 0 0 0 0 0 
0 0 0 0 0 0 0 0 0 
0 0 0 0 0 0 0 0 0 
0 0 0 0 0 0 0 0 0 
0 0 0 0 0 0 0 0 0 
0 0 0 0 0 0 0 0 0 
0 0 0 0 0 0 0 0 0 
0 0 0 0 0 0 0 0 0 
0 0 0 0 0 0 0 0 0 
0 0 0 0 0 0 0 0 0 
0 0 0 0 0 0 0 0 0 
0 0 0 0 0 0 0 0 0 
0 0 0 0 0 0 0 0 0 
0 0 0 0 0 0 0 0 0 
0 0 0 0 0 0 0 0 0 
0 0 0 0 0 0 0 0 0 
0 0 0 0 0 0 0 0 0 
0 0 0 0 0 0 0 0 0 
0 0 0 0 0 0 0 0 0 
0 0 0 0 0 0 0 0 0 
0 0 0 0 0 0 0 0 0 
0 0 0 0 0 0 0 0 0 
0 0 0 0 0 0 0 0 0 
0 0 0 0 0 0 0 0 0 
0 0 0 0 0 0 0 0 0 
0 0 0 0 0 0 0 0 0 
0 0 0 0 0 0 0 0 0 
0 0 0 0 0 0 0 0 0 
0 0 0 0 0 0 0 0 0 
0 0 0 0 0 0 0 0 0 
0 0 0 0 0 0 0 0 0 
0 0 0 0 0 0 0 0 0 
0 0 0 0 0 0 0 0 0 
0 0 0 0 0 0 0 0 0 
0 0 0 0 0 0 0 0 0 
0 0 0 0 0 0 0 0 0 
0 0 0 0 0 0 0 0 0 
0 0 0 0 0 0 0 0 0 
0 0 0 0 0 0 0 0 0 
0 0 0 0 0 0 0 0 0 
0 0 0 0 0 0 0 0 0 
0 0 0 0 0 0 0 0 0 
0 0 0 0 0 0 0 0 0 
0 0 0 0 0 0 0 0 0 
0 0 0 0 0 0 0 0 0 
0 0 0 0 0 0 0 0 0 
0 0 0 0 0 0 0 0 0 
0 0 0 0 0 0 0 0 0 
0 0 0 0 0 0 0 0 0 
0 0 0 0 0 0 0 0 0 
0 0 0 0 0 0 0 0 0 
0 0 0 0 0 0 0 0 0 
0 0 0 0 0 0 0 0 0 
0 0 0 0 0 0 0 0 0 
0 0 0 0 0 0 0 0 0 
0 0 0 0 0 0 0 0 0 
0 0 0 0 0 0 0 0 0 
0 0 0 0 0 0 0 0 0 
0 0 0 0 0 0 0 0 0 
0 0 0 0 0 0 0 0 0 
0 0 0 0 0 0 0 0 0 
0 0 0 0 0 0 0 0 0 
0 0 0 0 0 0 0 0 0 
0 0 0 0 0 0 0 0 0 
0 0 0 0 0 0 0 0 0 
0 0 0 0 0 0 0 0 0 
0 0 0 0 0 0 0 0 0 
0 0 0 0 0 0 0 0 0 
0 0 0 0 0 0 0 0 0 
0 0 0 0 0 0 0 0 0 
0 0 0 0 0 0 0 0 0 
0 0 0 0 0 0 0 0 0 
0 0 0 0 0 0 0 0 0 
0 0 0 0 0 0 0 0 0 
0 0 0 0 0 0 0 0 0 
0 0 0 0 0 0 0 0 0 
0 0 0 0 0 0 0 0 0 
0 0 0 0 0 0 0 0 0 
0 0 0 0 0 0 0 0 0 
0 0 0 0 0 0 0 0 0 
0 0 0 0 0 0 0 0 0 
0 0 0 0 0 0 0 0 0 
0 0 0 0 0 0 0 0 0 
0 0 0 0 0 0 0 0 0 
0 0 0 0 0 0 0 0 0 
0 0 0 0 0 0 0 0 0 
0 0 0 0 0 0 0 0 0 
0 0 0 0 0 0 0 0 0 
0 0 0 0 0 0 0 0 0 
0 0 0 0 0 0 0 0 0 
0 0 0 0 0 0 0 0 0 
0 0 0 0 0 0 0 0 0 
0 0 0 0 0 0 0 0 0 
0 0 0 0 0 0 0 0 0 
0 0 0 0 0 0 0 0 0 
0 0 0 0 0 0 0 0 0 
0 0 0 0 0 0 0 0 0 
0 0 0 0 0 0 0 0 0 
0 0 0 0 0 0 0 0 0 
0 0 0 0 0 0 0 0 0 
0 0 0 0 0 0 0 0 0 
0 0 0 0 0 0 0 0 0 
0 0 0 0 0 0 0 0 0 
0 0 0 0 0 0 0 0 0 
0 0 0 0 0 0 0 0 0 
0 0 0 0 0 0 0 0 0 
0 0 0 0 0 0 0 0 0 
0 0 0 0 0 0 0 0 0 
0 0 0 0 0 0 0 0 0 
0 0 0 0 0 0 0 0 0 
0 0 0 0 0 0 0 0 0 
0 0 0 0 0 0 0 0 0 
0 0 0 0 0 0 0 0 0 
0 0 0 0 0 0 0 0 0 
0 0 0 0 0 0 0 0 0 
0 0 0 0 0 0 0 0 0 
0 0 0 0 0 0 0 0 0 
0 0 0 0 0 0 0 0 0 
0 0 0 0 0 0 0 0 0 
0 0 0 0 0 0 0 0 0 
0 0 0 0 0 0 0 0 0 
0 0 0 0 0 0 0 0 0 
0 0 0 0 0 0 0 0 0 
0 0 0 0 0 0 0 0 0 
0 0 0 0 0 0 0 0 0 
0 0 0 0 0 0 0 0 0 
0 0 0 0 0 0 0 0 0 
0 0 0 0 0 0 0 0 0 
0 0 0 0 0 0 0 0 0 
0 0 0 0 0 0 0 0 0 
0 0 0 0 0 0 0 0 0 
0 0 0 0 0 0 0 0 0 
0 0 0 0 0 0 0 0 0 
0 0 0 0 0 0 0 0 0 
0 0 0 0 0 0 0 0 0 
0 0 0 0 0 0 0 0 0 
0 0 0 0 0 0 0 0 0 
0 0 0 0 0 0 0 0 0 
0 0 0 0 0 0 0 0 0 
0 0 0 0 0 0 0 0 0 
0 0 0 0 0 0 0 0 0 
0 0 0 0 0 0 0 0 0 
0 0 0 0 0 0 0 0 0 
0 0 0 0 0 0 0 0 0 
0 0 0 0 0 0 0 0 0 
0 0 0 0 0 0 0 0 0 
0 0 0 0 0 0 0 0 0 
0 0 0 0 0 0 0 0 0 
0 0 0 0 0 0 0 0 0 
0 0 0 0 0 0 0 0 0 
0 0 0 0 0 0 0 0 0 
0 0 0 0 0 0 0 0 0 

I1_Pt 1 1116 double
2 2 2 2 2 2 2 2 2 
2 2 2 2 2 2 2 2 2 
2 2 2 2 2 2 2 2 2 
2 2 2 2 2 2 2 2 2 
2 2 2 2 2 2 2 2 2 
2 2 2 2 2 2 2 2 2 
2 2 2 2 2 2 2 2 2 
2 2 2 2 2 2 2 2 2 
2 2 2 2 2 2 2 2 2 
2 2 2 2 2 2 2 2 2 
2 2 2 2 2 2 2 2 2 
2 2 2 2 2 2 2 2 2 
2 2 2 2 2 2 2 2 2 
2 2 2 2 2 2 2 2 2 
2 2 2 2 2 2 2 2 2 
2 2 2 2 2 2 2 2 2 
2 2 2 2 2 2 2 2 2 
2 2 2 2 2 2 2 2 2 
2 2 2 2 2 2 2 2 2 
2 2 2 2 2 2 2 2 2 
2 2 2 2 2 2 2 2 2 
2 2 2 2 2 2 2 2 2 
2 2 2 2 2 2 2 2 2 
2 2 2 2 2 2 2 2 2 
2 2 2 2 2 2 2 2 2 
2 2 2 2 2 2 2 2 2 
2 2 2 2 2 2 2 2 2 
2 2 2 2 2 2 2 2 2 
2 2 2 2 2 2 2 2 2 
2 2 2 2 2 2 2 2 2 
2 2 2 2 2 2 2 2 2 
2 2 2 2 2 2 2 2 2 
2 2 2 2 2 2 2 2 2 
2 2 2 2 2 2 2 2 2 
2 2 2 2 2 2 2 2 2 
2 2 2 2 2 2 2 2 2 
2 2 2 2 2 2 2 2 2 
2 2 2 2 2 2 2 2 2 
2 2 2 2 2 2 2 2 2 
2 2 2 2 2 2 2 2 2 
2 2 2 2 2 2 2 2 2 
2 2 2 2 2 2 2 2 2 
2 2 2 2 2 2 2 2 2 
2 2 2 2 2 2 2 2 2 
2 2 2 2 2 2 2 2 2 
2 2 2 2 2 2 2 2 2 
2 2 2 2 2 2 2 2 2 
2 2 2 2 2 2 2 2 2 
2 2 2 2 2 2 2 2 2 
2 2 2 2 2 2 2 2 2 
2 2 2 2 2 2 2 2 2 
2 2 2 2 2 2 2 2 2 
2 2 2 2 2 2 2 2 2 
2 2 2 2 2 2 2 2 2 
2 2 2 2 2 2 2 2 2 
2 2 2 2 2 2 2 2 2 
2 2 2 2 2 2 2 2 2 
2 2 2 2 2 2 2 2 2 
2 2 2 2 2 2 2 2 2 
2 2 2 2 2 2 2 2 2 
2 2 2 2 2 2 2 2 2 
2 2 2 2 2 2 2 2 2 
2 2 2 2 2 2 2 2 2 
2 2 2 2 2 2 2 2 2 
2 2 2 2 2 2 2 2 2 
2 2 2 2 2 2 2 2 2 
2 2 2 2 2 2 2 2 2 
2 2 2 2 2 2 2 2 2 
2 2 2 2 2 2 2 2 2 
2 2 2 2 2 2 2 2 2 
2 2 2 2 2 2 2 2 2 
2 2 2 2 2 2 2 2 2 
2 2 2 2 2 2 2 2 2 
2 2 2 2 2 2 2 2 2 
2 2 2 2 2 2 2 2 2 
2 2 2 2 2 2 2 2 2 
2 2 2 2 2 2 2 2 2 
2 2 2 2 2 2 2 2 2 
2 2 2 2 2 2 2 2 2 
2 2 2 2 2 2 2 2 2 
2 2 2 2 2 2 2 2 2 
2 2 2 2 2 2 2 2 2 
2 2 2 2 2 2 2 2 2 
2 2 2 2 2 2 2 2 2 
2 2 2 2 2 2 2 2 2 
2 2 2 2 2 2 2 2 2 
2 2 2 2 2 2 2 2 2 
2 2 2 2 2 2 2 2 2 
2 2 2 2 2 2 2 2 2 
2 2 2 2 2 2 2 2 2 
2 2 2 2 2 2 2 2 2 
2 2 2 2 2 2 2 2 2 
2 2 2 2 2 2 2 2 2 
2 2 2 2 2 2 2 2 2 
2 2 2 2 2 2 2 2 2 
2 2 2 2 2 2 2 2 2 
2 2 2 2 2 2 2 2 2 
2 2 2 2 2 2 2 2 2 
2 2 2 2 2 2 2 2 2 
2 2 2 2 2 2 2 2 2 
2 2 2 2 2 2 2 2 2 
2 2 2 2 2 2 2 2 2 
2 2 2 2 2 2 2 2 2 
2 2 2 2 2 2 2 2 2 
2 2 2 2 2 2 2 2 2 
2 2 2 2 2 2 2 2 2 
2 2 2 2 2 2 2 2 2 
2 2 2 2 2 2 2 2 2 
2 2 2 2 2 2 2 2 2 
2 2 2 2 2 2 2 2 2 
2 2 2 2 2 2 2 2 2 
2 2 2 2 2 2 2 2 2 
2 2 2 2 2 2 2 2 2 
2 2 2 2 2 2 2 2 2 
2 2 2 2 2 2 2 2 2 
2 2 2 2 2 2 2 2 2 
2 2 2 2 2 2 2 2 2 
2 2 2 2 2 2 2 2 2 
2 2 2 2 2 2 2 2 2 
2 2 2 2 2 2 2 2 2 
2 2 2 2 2 2 2 2 2 
2 2 2 2 2 2 2 2 2 
2 2 2 2 2 2 2 2 2 
2 2 2 2 2 2 2 2 2 

IAS 1 1116 double
0 0 0 0 0 0 0 0 0 
0 0 0 0 0 0 0 0 0 
0 0 0 0 0 0 0 0 0 
0 0 0 0 0 0 0 0 0 
0 0 0 0 0 0 0 0 0 
0 0 0 0 0 0 0 0 0 
0 0 0 0 0 0 0 0 0 
0 0 0 0 0 0 0 0 0 
0 0 0 0 0 0 0 0 0 
0 0 0 0 0 0 0 0 0 
0 0 0 0 0.10905443507 0.11049866669 0.76372023372 0.74818487272 0.61009708918 
0.63742142367 0 0.042398175081 0 0 0 0 0 0 
0 0 0 0 0 0 0 0 0 
0 0 0 0 0 0 0 0 0 
0 0 0 0 0 0 0 0 0 
0 0 0 0 0 0 0 0 0 
0 0 0 0 0 0 0 0 0 
0 0 0 0 0 0 0 0 0 
0 0 0 0 0 0 0 0 0 
0 0 0 0 0 0 0 0 0.01415413061 
0.68206820775 0.68876632751 0.64710919364 0.65820396249 0 0.032142973242 0 0 0 
0 0 0 0 0 0 0 0 0 
0 0 0 0 0 0 0 0 0 
0 0 0 0 0 0 0 0 0 
0 0 0 0 0 0 0 0 0 
0 0 0 0 0 0 0 0 0 
0 0 0 0 0 0 0 0 0 
0 0 0 0 0 0 0 0 0 
0 0 0 0 0 0 0 0 0 
0 0 0 0 0 0 0 0 0 
0 0 0 0 0.12719029353 0.7418156001 0.6718618367 0.10079692666 0 
0 0 0 0 0 0 0 0 0 
0 0 0 0 0 0 0 0 0 
0 0 0 0 0 0 0 0 0 
0 0 0 0 0 0 0 0 0 
0 0.064000865661 0.71055377851 0.67355844208 0.076540596574 0 0 0 0 
0 0 0 0 0 0 0 0 0 
0 0 0 0 0 0 0 0 0 
0 0 0 0 0 0 0 0 0 
0 0 0 0 0 0 0 0 0 
0 0 0 0 0 0 0 0 0 
0 0 0 0 0 0 0 0 0 
0 0 0 0 0 0 0 0 0 
0.14285265981 0.72583347682 0.70542623779 0.15505519853 0 0 0 0 0 
0 0 0 0 0 0 0 0 0 
0 0 0 0 0 0 0 0 0 
0 0 0 0 0 0 0 0 0 
0 0 0 0 0 0 0 0 0 
0 0.12621457116 0.72462538099 0.67920884799 0.094015957868 0 0 0 0 
0 0 0 0 0 0 0 0 0 
0 0 0 0 0 0 0 0 0 
0 0 0 0 0 0.1230137066 0.68487776552 0.77135024666 0.22118401182 
0 0 0 0 0 0 0 0 0 
0 0 0 0 0 0 0 0 0 
0 0 0 0 0 0 0 0 0 
0 0 0 0 0 0 0 0 0 
0 0 0 0 0 0 0 0 0 
0 0 0 0 0 0 0 0 0 
0 0 0 0 0 0 0 0 0 
0 0 0 0 0 0 0 0 0 
0 0 0 0 0 0 0 0 0 
0 0 0 0 0 0 0 0 0.21833446113 
0.78713288581 0.63721683514 0.078787205886 0 0 0 0 0 0 
0 0 0 0 0 0 0 0 0 
0 0 0 0 0 0 0 0 0 
0 0 0 0 0.046815772464 0.58315853364 0.86173987608 0.30217284205 0 
0 0 0 0 0 0 0 0 0 
0 0 0 0 0 0 0 0 0 
0 0 0 0 0 0 0 0 0 
0 0 0 0 0 0 0 0 0 
0 0 0 0 0 0 0 0 0 
0 0 0 0 0 0 0 0 0 
0 0 0 0 0 0 0 0 0 
0 0 0 0 0 0 0 0 0 
0 0 0 0 0 0 0 0.33499210527 0.86995214018 
0.57944121166 0.039854021195 0 0 0 0 0 0 0 
0 0 0 0 0 0 0 0 0 
0 0 0 0 0 0 0 0 0 
0 0 0 0 0 0 0 0 0 
0 0 0 0 0 0 0 0 0 
0 0 0 0 0.45601220169 0.96481518911 0.38725934149 0 0 
0 0 0 0 0 0 0 0 0 
0 0 0 0 0 0 0 0 0 
0 0 0 0 0 0 0 0 0 
0 0 0 0 0 0 0 0 0 
0 0 0 0 0 0 0 0 0 
0 0 0 0 0 0 0 0 0 
0 0 0 0 0 0 0 0 0 
0 0 0 0 0 0 0 0 0 
0 0 0 0 0 0 0.50106207993 0.035665823404 0.99700579231 
0.47313752657 0 0 0 0 0 0 0 0 
0 0 0 0 0 0 0 0 0 
0 0 0 0 0 0 0 0 0 
0 0 0 0 0 0 0 0 0 
0 0 0 0 0 0 0 0 0 
0 0 0 0 0 0 0 0 0 
0 0 0 0 0 0 0 0 0 
0 0 0 0 0 0 0 0.32761327369 0.93394115064 
0.4590596707 0 0 0 0 0 0 0 0 
0 0 0 0 0 0 0 0 0 
0 0 0 0 0 0 0 0 0 
0 0 0 0 0 0 0 0 0 
0 0 0 0 0 0 0 0 0 
0.69423934829 0.26643371385 0.85153942614 0.36360253477 0 0 0 0 0 
0 0 0 0 0 0 0 0 0 
0 0 0 0 0 0 0 0 0 
0 0 0 0 0 0 0 0 0 
0 0 0 0 0 0 0 0 0 
0 0 0 0 0 0 0 0 0 
0 0 0 0 0 0 0 0.25823259342 0.70421797892 
0 0 0 0 0 0 0 0 0 
0 0 0 0 0 0 0 0 0 
0 0 0 0 0 0 0 0 0 
0 0 0 0 0 0 0 0 0 
0 0 0 0 0 0 0 0 0 
0 0 0 0 0 0 0.22694966334 0.8778201409 0.50958052069 
0.027383021715 0.87188800829 0 0 0 0 0 0 0 
0 0 0 0 0 0 0 0 0 
0 0 0 0 0 0 0 0 0 
0 0 0 0 0 0 0 0 0 
0 0 0 0 0 0 0 0 0 
0 0 0 0 0 0 0 0 0 
0 0 0 0 0 0 0 0 0 
0.1166659757 0.44457689207 0.5805123915 0.19045240424 0 0 0 0 0 

J_Pt 1 1116 double
1 1 1 1 1 1 1 1 1 
1 1 1 1 1 1 1 1 1 
1 1 1 1 1 1 1 1 1 
1 1 1 1 1 1 1 1 1 
1 1 1 1 1 1 1 1 1 
1 1 1 1 1 1 1 1 1 
1 1 1 1 1 1 1 1 1 
1 1 1 1 1 1 1 1 1 
1 1 1 1 1 1 1 1 1 
1 1 1 1 1 1 1 1 1 
1 1 1 1 1 1 1 1 1 
1 1 1 1 1 1 1 1 1 
1 1 1 1 1 1 1 1 1 
1 1 1 1 1 1 1 1 1 
1 1 1 1 1 1 1 1 1 
1 1 1 1 1 1 1 1 1 
1 1 1 1 1 1 1 1 1 
1 1 1 1 1 1 1 1 1 
1 1 1 1 1 1 1 1 1 
1 1 1 1 1 1 1 1 1 
1 1 1 1 1 1 1 1 1 
1 1 1 1 1 1 1 1 1 
1 1 1 1 1 1 1 1 1 
1 1 1 1 1 1 1 1 1 
1 1 1 1 1 1 1 1 1 
1 1 1 1 1 1 1 1 1 
1 1 1 1 1 1 1 1 1 
1 1 1 1 1 1 1 1 1 
1 1 1 1 1 1 1 1 1 
1 1 1 1 1 1 1 1 1 
1 1 1 1 1 1 1 1 1 
1 1 1 1 1 1 1 1 1 
1 1 1 1 1 1 1 1 1 
1 1 1 1 1 1 1 1 1 
1 1 1 1 1 1 1 1 1 
1 1 1 1 1 1 1 1 1 
1 1 1 1 1 1 1 1 1 
1 1 1 1 1 1 1 1 1 
1 1 1 1 1 1 1 1 1 
1 1 1 1 1 1 1 1 1 
1 1 1 1 1 1 1 1 1 
1 1 1 1 1 1 1 1 1 
1 1 1 1 1 1 1 1 1 
1 1 1 1 1 1 1 1 1 
1 1 1 1 1 1 1 1 1 
1 1 1 1 1 1 1 1 1 
1 1 1 1 1 1 1 1 1 
1 1 1 1 1 1 1 1 1 
1 1 1 1 1 1 1 1 1 
1 1 1 1 1 1 1 1 1 
1 1 1 1 1 1 1 1 1 
1 1 1 1 1 1 1 1 1 
1 1 1 1 1 1 1 1 1 
1 1 1 1 1 1 1 1 1 
1 1 1 1 1 1 1 1 1 
1 1 1 1 1 1 1 1 1 
1 1 1 1 1 1 1 1 1 
1 1 1 1 1 1 1 1 1 
1 1 1 1 1 1 1 1 1 
1 1 1 1 1 1 1 1 1 
1 1 1 1 1 1 1 1 1 
1 1 1 1 1 1 1 1 1 
1 1 1 1 1 1 1 1 1 
1 1 1 1 1 1 1 1 1 
1 1 1 1 1 1 1 1 1 
1 1 1 1 1 1 1 1 1 
1 1 1 1 1 1 1 1 1 
1 1 1 1 1 1 1 1 1 
1 1 1 1 1 1 1 1 1 
1 1 1 1 1 1 1 1 1 
1 1 1 1 1 1 1 1 1 
1 1 1 1 1 1 1 1 1 
1 1 1 1 1 1 1 1 1 
1 1 1 1 1 1 1 1 1 
1 1 1 1 1 1 1 1 1 
1 1 1 1 1 1 1 1 1 
1 1 1 1 1 1 1 1 1 
1 1 1 1 1 1 1 1 1 
1 1 1 1 1 1 1 1 1 
1 1 1 1 1 1 1 1 1 
1 1 1 1 1 1 1 1 1 
1 1 1 1 1 1 1 1 1 
1 1 1 1 1 1 1 1 1 
1 1 1 1 1 1 1 1 1 
1 1 1 1 1 1 1 1 1 
1 1 1 1 1 1 1 1 1 
1 1 1 1 1 1 1 1 1 
1 1 1 1 1 1 1 1 1 
1 1 1 1 1 1 1 1 1 
1 1 1 1 1 1 1 1 1 
1 1 1 1 1 1 1 1 1 
1 1 1 1 1 1 1 1 1 
1 1 1 1 1 1 1 1 1 
1 1 1 1 1 1 1 1 1 
1 1 1 1 1 1 1 1 1 
1 1 1 1 1 1 1 1 1 
1 1 1 1 1 1 1 1 1 
1 1 1 1 1 1 1 1 1 
1 1 1 1 1 1 1 1 1 
1 1 1 1 1 1 1 1 1 
1 1 1 1 1 1 1 1 1 
1 1 1 1 1 1 1 1 1 
1 1 1 1 1 1 1 1 1 
1 1 1 1 1 1 1 1 1 
1 1 1 1 1 1 1 1 1 
1 1 1 1 1 1 1 1 1 
1 1 1 1 1 1 1 1 1 
1 1 1 1 1 1 1 1 1 
1 1 1 1 1 1 1 1 1 
1 1 1 1 1 1 1 1 1 
1 1 1 1 1 1 1 1 1 
1 1 1 1 1 1 1 1 1 
1 1 1 1 1 1 1 1 1 
1 1 1 1 1 1 1 1 1 
1 1 1 1 1 1 1 1 1 
1 1 1 1 1 1 1 1 1 
1 1 1 1 1 1 1 1 1 
1 1 1 1 1 1 1 1 1 
1 1 1 1 1 1 1 1 1 
1 1 1 1 1 1 1 1 1 
1 1 1 1 1 1 1 1 1 
1 1 1 1 1 1 1 1 1 
1 1 1 1 1 1 1 1 1 
1 1 1 1 1 1 1 1 1 

Label 4 1116 double
1 1 1 1 1 1 1 1 1 
1 1 1 1 1 1 1 1 1 
1 1 1 1 1 1 1 1 1 
1 1 1 1 1 1 1 1 1 
1 1 1 1 1 1 1 1 1 
1 1 1 1 1 1 1 1 1 
1 1 1 1 1 1 1 1 1 
1 1 1 1 1 1 1 1 1 
1 1 1 1 1 1 1 1 1 
1 1 1 1 1 1 1 1 1 
1 1 1 1 1 1 1 1 1 
1 1 1 1 1 1 1 1 1 
1 1 1 1 1 1 1 1 1 
1 1 1 1 1 1 1 1 1 
1 1 1 1 1 1 1 1 1 
1 1 1 1 1 1 1 1 1 
1 1 1 1 1 1 1 1 1 
1 1 1 1 1 1 1 1 1 
1 1 1 1 1 1 1 1 1 
1 1 1 1 1 1 1 1 1 
1 1 1 1 1 1 1 1 1 
1 1 1 1 1 1 1 1 1 
1 1 1 1 1 1 1 1 1 
1 1 1 1 1 1 1 1 1 
1 1 1 1 1 1 1 1 1 
1 1 1 1 1 1 1 1 1 
1 1 1 1 1 1 1 1 1 
1 1 1 1 1 1 1 1 1 
1 1 1 1 1 1 1 1 1 
1 1 1 1 1 1 1 1 1 
1 1 1 1 1 1 1 1 1 
1 1 1 1 1 1 1 1 1 
1 1 1 1 1 1 1 1 1 
1 1 1 1 1 1 1 1 1 
1 1 1 1 1 1 1 1 1 
1 1 1 1 1 1 1 1 1 
1 1 1 1 1 1 1 1 1 
1 1 1 1 1 1 1 1 1 
1 1 1 1 1 1 1 1 1 
1 1 1 1 1 1 1 1 1 
1 1 1 1 1 1 1 1 1 
1 1 1 1 1 1 1 1 1 
1 1 1 1 1 1 1 1 1 
1 1 1 1 1 1 1 1 1 
1 1 1 1 1 1 1 1 1 
1 1 1 1 1 1 1 1 1 
1 1 1 1 1 1 1 1 1 
1 1 1 1 1 1 1 1 1 
1 1 1 1 1 1 1 1 1 
1 1 1 1 1 1 1 1 1 
1 1 1 1 1 1 1 1 1 
1 1 1 1 1 1 1 1 1 
1 1 1 1 1 1 1 1 1 
1 1 1 1 1 1 1 1 1 
1 1 1 1 1 1 1 1 1 
1 1 1 1 1 1 1 1 1 
1 1 1 1 1 1 1 1 1 
1 1 1 1 1 1 1 1 1 
1 1 1 1 1 1 1 1 1 
1 1 1 1 1 1 1 1 1 
1 1 1 1 1 1 1 1 1 
1 1 1 1 1 1 1 1 1 
1 1 1 1 1 1 1 1 1 
1 1 1 1 1 1 1 1 1 
1 1 1 1 1 1 1 1 1 
1 1 1 1 1 1 1 1 1 
1 1 1 1 1 1 1 1 1 
1 1 1 1 1 1 1 1 1 
1 1 1 1 1 1 1 1 1 
1 1 1 1 1 1 1 1 1 
1 1 1 1 1 1 1 1 1 
1 1 1 1 1 1 1 1 1 
1 1 1 1 1 1 1 1 1 
1 1 1 1 1 1 1 1 1 
1 1 1 1 1 1 1 1 1 
1 1 1 1 1 1 1 1 1 
1 1 1 1 1 1 1 1 1 
1 1 1 1 1 1 1 1 1 
1 1 1 1 1 1 1 1 1 
1 1 1 1 1 1 1 1 1 
1 1 1 1 1 1 1 1 1 
1 1 1 1 1 1 1 1 1 
1 1 1 1 1 1 1 1 1 
1 1 1 1 1 1 1 1 1 
1 1 1 1 1 1 1 1 1 
1 1 1 1 1 1 1 1 1 
1 1 1 1 1 1 1 1 1 
1 1 1 1 1 1 1 1 1 
1 1 1 1 1 1 1 1 1 
1 1 1 1 1 1 1 1 1 
1 1 1 1 1 1 1 1 1 
1 1 1 1 1 1 1 1 1 
1 1 1 1 1 1 1 1 1 
1 1 1 1 1 1 1 1 1 
1 1 1 1 1 1 1 1 1 
1 1 1 1 1 1 1 1 1 
1 1 1 1 1 1 1 1 1 
1 1 1 1 1 1 1 1 1 
1 1 1 1 1 1 1 1 1 
1 1 1 1 1 1 1 1 1 
1 1 1 1 1 1 1 1 1 
1 1 1 1 1 1 1 1 1 
1 1 1 1 1 1 1 1 1 
1 1 1 1 1 1 1 1 1 
1 1 1 1 1 1 1 1 1 
1 1 1 1 1 1 1 1 1 
1 1 1 1 1 1 1 1 1 
1 1 1 1 1 1 1 1 1 
1 1 1 1 1 1 1 1 1 
1 1 1 1 1 1 1 1 1 
1 1 1 1 1 1 1 1 1 
1 1 1 1 1 1 1 1 1 
1 1 1 1 1 1 1 1 1 
1 1 1 1 1 1 1 1 1 
1 1 1 1 1 1 1 1 1 
1 1 1 1 1 1 1 1 1 
1 1 1 1 1 1 1 1 1 
1 1 1 1 1 1 1 1 1 
1 1 1 1 1 1 1 1 1 
1 1 1 1 1 1 1 1 1 
1 1 1 1 1 1 1 1 1 
1 1 1 1 1 1 1 1 1 
1 1 1 1 1 1 1 1 1 
1 1 1 1 1 1 1 1 1 
1 1 1 1 1 1 1 1 1 
1 1 1 1 1 1 1 1 1 
1 1 1 1 1 1 1 1 1 
1 1 1 1 1 1 1 1 1 
1 1 1 1 1 1 1 1 1 
1 1 1 1 1 1 1 1 1 
1 1 1 1 1 1 1 1 1 
1 1 1 1 1 1 1 1 1 
1 1 1 1 1 1 1 1 1 
1 1 1 1 1 1 1 1 1 
1 1 1 1 1 1 1 1 1 
1 1 1 1 1 1 1 1 1 
1 1 1 1 1 1 1 1 1 
1 1 1 1 1 1 1 1 1 
1 1 1 1 1 1 1 1 1 
1 1 1 1 1 1 1 1 1 
1 1 1 1 1 1 1 1 1 
1 1 1 1 1 1 1 1 1 
1 1 1 1 1 1 1 1 1 
1 1 1 1 1 1 1 1 1 
1 1 1 1 1 1 1 1 1 
1 1 1 1 1 1 1 1 1 
1 1 1 1 1 1 1 1 1 
1 1 1 1 1 1 1 1 1 
1 1 1 1 1 1 1 1 1 
1 1 1 1 1 1 1 1 1 
1 1 1 1 1 1 1 1 1 
1 1 1 1 1 1 1 1 1 
1 1 1 1 1 1 1 1 1 
1 1 1 1 1 1 1 1 1 
1 1 1 1 1 1 1 1 1 
1 1 1 1 1 1 1 1 1 
1 1 1 1 1 1 1 1 1 
1 1 1 1 1 1 1 1 1 
1 1 1 1 1 1 1 1 1 
1 1 1 1 1 1 1 1 1 
1 1 1 1 1 1 1 1 1 
1 1 1 1 1 1 1 1 1 
1 1 1 1 1 1 1 1 1 
1 1 1 1 1 1 1 1 1 
1 1 1 1 1 1 1 1 1 
1 1 1 1 1 1 1 1 1 
1 1 1 1 1 1 1 1 1 
1 1 1 1 1 1 1 1 1 
1 1 1 1 1 1 1 1 1 
1 1 1 1 1 1 1 1 1 
1 1 1 1 1 1 1 1 1 
1 1 1 1 1 1 1 1 1 
1 1 1 1 1 1 1 1 1 
1 1 1 1 1 1 1 1 1 
1 1 1 1 1 1 1 1 1 
1 1 1 1 1 1 1 1 1 
1 1 1 1 1 1 1 1 1 
1 1 1 1 1 1 1 1 1 
1 1 1 1 1 1 1 1 1 
1 1 1 1 1 1 1 1 1 
1 1 1 1 1 1 1 1 1 
1 1 1 1 1 1 1 1 1 
1 1 1 1 1 1 1 1 1 
1 1 1 1 1 1 1 1 1 
1 1 1 1 1 1 1 1 1 
1 1 1 1 1 1 1 1 1 
1 1 1 1 1 1 1 1 1 
1 1 1 1 1 1 1 1 1 
1 1 1 1 1 1 1 1 1 
1 1 1 1 1 1 1 1 1 
1 1 1 1 1 1 1 1 1 
1 1 1 1 1 1 1 1 1 
1 1 1 1 1 1 1 1 1 
1 1 1 1 1 1 1 1 1 
1 1 1 1 1 1 1 1 1 
1 1 1 1 1 1 1 1 1 
1 1 1 1 1 1 1 1 1 
1 1 1 1 1 1 1 1 1 
1 1 1 1 1 1 1 1 1 
1 1 1 1 1 1 1 1 1 
1 1 1 1 1 1 1 1 1 
1 1 1 1 1 1 1 1 1 
1 1 1 1 1 1 1 1 1 
1 1 1 1 1 1 1 1 1 
1 1 1 1 1 1 1 1 1 
1 1 1 1 1 1 1 1 1 
1 1 1 1 1 1 1 1 1 
1 1 1 1 1 1 1 1 1 
1 1 1 1 1 1 1 1 1 
1 1 1 1 1 1 1 1 1 
1 1 1 1 1 1 1 1 1 
1 1 1 1 1 1 1 1 1 
1 1 1 1 1 1 1 1 1 
1 1 1 1 1 1 1 1 1 
1 1 1 1 1 1 1 1 1 
1 1 1 1 1 1 1 1 1 
1 1 1 1 1 1 1 1 1 
1 1 1 1 1 1 1 1 1 
1 1 1 1 1 1 1 1 1 
1 1 1 1 1 1 1 1 1 
1 1 1 1 1 1 1 1 1 
1 1 1 1 1 1 1 1 1 
1 1 1 1 1 1 1 1 1 
1 1 1 1 1 1 1 1 1 
1 1 1 1 1 1 1 1 1 
1 1 1 1 1 1 1 1 1 
1 1 1 1 1 1 1 1 1 
1 1 1 1 1 1 1 1 1 
1 1 1 1 1 1 1 1 1 
1 1 1 1 1 1 1 1 1 
1 1 1 1 1 1 1 1 1 
1 1 1 1 1 1 1 1 1 
1 1 1 1 1 1 1 1 1 
1 1 1 1 1 1 1 1 1 
1 1 1 1 1 1 1 1 1 
1 1 1 1 1 1 1 1 1 
1 1 1 1 1 1 1 1 1 
1 1 1 1 1 1 1 1 1 
1 1 1 1 1 1 1 1 1 
1 1 1 1 1 1 1 1 1 
1 1 1 1 1 1 1 1 1 
1 1 1 1 1 1 1 1 1 
1 1 1 1 1 1 1 1 1 
1 1 1 1 1 1 1 1 1 
1 1 1 1 1 1 1 1 1 
1 1 1 1 1 1 1 1 1 
1 1 1 1 1 1 1 1 1 
1 1 1 1 1 1 1 1 1 
1 1 1 1 1 1 1 1 1 
1 1 1 1 1 1 1 1 1 
1 1 1 1 1 1 1 1 1 
1 1 1 1 1 1 1 1 1 
1 1 1 1 1 1 1 1 1 
1 1 1 1 1 1 1 1 1 
1 1 1 1 1 1 1 1 1 
1 1 1 1 1 1 1 1 1 
1 1 1 1 1 1 1 1 1 
1 1 1 1 1 1 1 1 1 
1 1 1 1 1 1 1 1 1 
1 1 1 1 1 1 1 1 1 
1 1 1 1 1 1 1 1 1 
1 1 1 1 1 1 1 1 1 
1 1 1 1 1 1 1 1 1 
1 1 1 1 1 1 1 1 1 
1 1 1 1 1 1 1 1 1 
1 1 1 1 1 1 1 1 1 
1 1 1 1 1 1 1 1 1 
1 1 1 1 1 1 1 1 1 
1 1 1 1 1 1 1 1 1 
1 1 1 1 1 1 1 1 1 
1 1 1 1 1 1 1 1 1 
1 1 1 1 1 1 1 1 1 
1 1 1 1 1 1 1 1 1 
1 1 1 1 1 1 1 1 1 
1 1 1 1 1 1 1 1 1 
1 1 1 1 1 1 1 1 1 
1 1 1 1 1 1 1 1 1 
1 1 1 1 1 1 1 1 1 
1 1 1 1 1 1 1 1 1 
1 1 1 1 1 1 1 1 1 
1 1 1 1 1 1 1 1 1 
1 1 1 1 1 1 1 1 1 
1 1 1 1 1 1 1 1 1 
1 1 1 1 1 1 1 1 1 
1 1 1 1 1 1 1 1 1 
1 1 1 1 1 1 1 1 1 
1 1 1 1 1 1 1 1 1 
1 1 1 1 1 1 1 1 1 
1 1 1 1 1 1 1 1 1 
1 1 1 1 1 1 1 1 1 
1 1 1 1 1 1 1 1 1 
1 1 1 1 1 1 1 1 1 
1 1 1 1 1 1 1 1 1 
1 1 1 1 1 1 1 1 1 
1 1 1 1 1 1 1 1 1 
1 1 1 1 1 1 1 1 1 
1 1 1 1 1 1 1 1 1 
1 1 1 1 1 1 1 1 1 
1 1 1 1 1 1 1 1 1 
1 1 1 1 1 1 1 1 1 
1 1 1 1 1 1 1 1 1 
1 1 1 1 1 1 1 1 1 
1 1 1 1 1 1 1 1 1 
1 1 1 1 1 1 1 1 1 
1 1 1 1 1 1 1 1 1 
1 1 1 1 1 1 1 1 1 
1 1 1 1 1 1 1 1 1 
1 1 1 1 1 1 1 1 1 
1 1 1 1 1 1 1 1 1 
1 1 1 1 1 1 1 1 1 
1 1 1 1 1 1 1 1 1 
1 1 1 1 1 1 1 1 1 
1 1 1 1 1 1 1 1 1 
1 1 1 1 1 1 1 1 1 
1 1 1 1 1 1 1 1 1 
1 1 1 1 1 1 1 1 1 
1 1 1 1 1 1 1 1 1 
1 1 1 1 1 1 1 1 1 
1 1 1 1 1 1 1 1 1 
1 1 1 1 1 1 1 1 1 
1 1 1 1 1 1 1 1 1 
1 1 1 1 1 1 1 1 1 
1 1 1 1 1 1 1 1 1 
1 1 1 1 1 1 1 1 1 
1 1 1 1 1 1 1 1 1 
1 1 1 1 1 1 1 1 1 
1 1 1 1 1 1 1 1 1 
1 1 1 1 1 1 1 1 1 
1 1 1 1 1 1 1 1 1 
1 1 1 1 1 1 1 1 1 
1 1 1 1 1 1 1 1 1 
1 1 1 1 1 1 1 1 1 
1 1 1 1 1 1 1 1 1 
1 1 1 1 1 1 1 1 1 
1 1 1 1 1 1 1 1 1 
1 1 1 1 1 1 1 1 1 
1 1 1 1 1 1 1 1 1 
1 1 1 1 1 1 1 1 1 
1 1 1 1 1 1 1 1 1 
1 1 1 1 1 1 1 1 1 
1 1 1 1 1 1 1 1 1 
1 1 1 1 1 1 1 1 1 
1 1 1 1 1 1 1 1 1 
1 1 1 1 1 1 1 1 1 
1 1 1 1 1 1 1 1 1 
1 1 1 1 1 1 1 1 1 
1 1 1 1 1 1 1 1 1 
1 1 1 1 1 1 1 1 1 
1 1 1 1 1 1 1 1 1 
1 1 1 1 1 1 1 1 1 
1 1 1 1 1 1 1 1 1 
1 1 1 1 1 1 1 1 1 
1 1 1 1 1 1 1 1 1 
1 1 1 1 1 1 1 1 1 
1 1 1 1 1 1 1 1 1 
1 1 1 1 1 1 1 1 1 
1 1 1 1 1 1 1 1 1 
1 1 1 1 1 1 1 1 1 
1 1 1 1 1 1 1 1 1 
1 1 1 1 1 1 1 1 1 
1 1 1 1 1 1 1 1 1 
1 1 1 1 1 1 1 1 1 
1 1 1 1 1 1 1 1 1 
1 1 1 1 1 1 1 1 1 
1 1 1 1 1 1 1 1 1 
1 1 1 1 1 1 1 1 1 
1 1 1 1 1 1 1 1 1 
1 1 1 1 1 1 1 1 1 
1 1 1 1 1 1 1 1 1 
1 1 1 1 1 1 1 1 1 
1 1 1 1 1 1 1 1 1 
1 1 1 1 1 1 1 1 1 
1 1 1 1 1 1 1 1 1 
1 1 1 1 1 1 1 1 1 
1 1 1 1 1 1 1 1 1 
1 1 1 1 1 1 1 1 1 
1 1 1 1 1 1 1 1 1 
1 1 1 1 1 1 1 1 1 
1 1 1 1 1 1 1 1 1 
1 1 1 1 1 1 1 1 1 
1 1 1 1 1 1 1 1 1 
1 1 1 1 1 1 1 1 1 
1 1 1 1 1 1 1 1 1 
1 1 1 1 1 1 1 1 1 
1 1 1 1 1 1 1 1 1 
1 1 1 1 1 1 1 1 1 
1 1 1 1 1 1 1 1 1 
1 1 1 1 1 1 1 1 1 
1 1 1 1 1 1 1 1 1 
1 1 1 1 1 1 1 1 1 
1 1 1 1 1 1 1 1 1 
1 1 1 1 1 1 1 1 1 
1 1 1 1 1 1 1 1 1 
1 1 1 1 1 1 1 1 1 
1 1 1 1 1 1 1 1 1 
1 1 1 1 1 1 1 1 1 
1 1 1 1 1 1 1 1 1 
1 1 1 1 1 1 1 1 1 
1 1 1 1 1 1 1 1 1 
1 1 1 1 1 1 1 1 1 
1 1 1 1 1 1 1 1 1 
1 1 1 1 1 1 1 1 1 
1 1 1 1 1 1 1 1 1 
1 1 1 1 1 1 1 1 1 
1 1 1 1 1 1 1 1 1 
1 1 1 1 1 1 1 1 1 
1 1 1 1 1 1 1 1 1 
1 1 1 1 1 1 1 1 1 
1 1 1 1 1 1 1 1 1 
1 1 1 1 1 1 1 1 1 
1 1 1 1 1 1 1 1 1 
1 1 1 1 1 1 1 1 1 
1 1 1 1 1 1 1 1 1 
1 1 1 1 1 1 1 1 1 
1 1 1 1 1 1 1 1 1 
1 1 1 1 1 1 1 1 1 
1 1 1 1 1 1 1 1 1 
1 1 1 1 1 1 1 1 1 
1 1 1 1 1 1 1 1 1 
1 1 1 1 1 1 1 1 1 
1 1 1 1 1 1 1 1 1 
1 1 1 1 1 1 1 1 1 
1 1 1 1 1 1 1 1 1 
1 1 1 1 1 1 1 1 1 
1 1 1 1 1 1 1 1 1 
1 1 1 1 1 1 1 1 1 
1 1 1 1 1 1 1 1 1 
1 1 1 1 1 1 1 1 1 
1 1 1 1 1 1 1 1 1 
1 1 1 1 1 1 1 1 1 
1 1 1 1 1 1 1 1 1 
1 1 1 1 1 1 1 1 1 
1 1 1 1 1 1 1 1 1 
1 1 1 1 1 1 1 1 1 
1 1 1 1 1 1 1 1 1 
1 1 1 1 1 1 1 1 1 
1 1 1 1 1 1 1 1 1 
1 1 1 1 1 1 1 1 1 
1 1 1 1 1 1 1 1 1 
1 1 1 1 1 1 1 1 1 
1 1 1 1 1 1 1 1 1 
1 1 1 1 1 1 1 1 1 
1 1 1 1 1 1 1 1 1 
1 1 1 1 1 1 1 1 1 
1 1 1 1 1 1 1 1 1 
1 1 1 1 1 1 1 1 1 
1 1 1 1 1 1 1 1 1 
1 1 1 1 1 1 1 1 1 
1 1 1 1 1 1 1 1 1 
1 1 1 1 1 1 1 1 1 
1 1 1 1 1 1 1 1 1 
1 1 1 1 1 1 1 1 1 
1 1 1 1 1 1 1 1 1 
1 1 1 1 1 1 1 1 1 
1 1 1 1 1 1 1 1 1 
1 1 1 1 1 1 1 1 1 
1 1 1 1 1 1 1 1 1 
1 1 1 1 1 1 1 1 1 
1 1 1 1 1 1 1 1 1 
1 1 1 1 1 1 1 1 1 
1 1 1 1 1 1 1 1 1 
1 1 1 1 1 1 1 1 1 
1 1 1 1 1 1 1 1 1 
1 1 1 1 1 1 1 1 1 
1 1 1 1 1 1 1 1 1 
1 1 1 1 1 1 1 1 1 
1 1 1 1 1 1 1 1 1 
1 1 1 1 1 1 1 1 1 
1 1 1 1 1 1 1 1 1 
1 1 1 1 1 1 1 1 1 
1 1 1 1 1 1 1 1 1 
1 1 1 1 1 1 1 1 1 
1 1 1 1 1 1 1 1 1 
1 1 1 1 1 1 1 1 1 
1 1 1 1 1 1 1 1 1 
1 1 1 1 1 1 1 1 1 
1 1 1 1 1 1 1 1 1 
1 1 1 1 1 1 1 1 1 
1 1 1 1 1 1 1 1 1 
1 1 1 1 1 1 1 1 1 
1 1 1 1 1 1 1 1 1 
1 1 1 1 1 1 1 1 1 
1 1 1 1 1 1 1 1 1 
1 1 1 1 1 1 1 1 1 
1 1 1 1 1 1 1 1 1 
1 1 1 1 1 1 1 1 1 
1 1 1 1 1 1 1 1 1 
1 1 1 1 1 1 1 1 1 
1 1 1 1 1 1 1 1 1 
1 1 1 1 1 1 1 1 1 
1 1 1 1 1 1 1 1 1 
1 1 1 1 1 1 1 1 1 
1 1 1 1 1 1 1 1 1 
1 1 1 1 1 1 1 1 1 
1 1 1 1 1 1 1 1 1 
1 1 1 1 1 1 1 1 1 

Long_Strain_Pt 1 1116 double
0.99854279736 0.99879854749 0.99590288806 0.99695399876 0.99863200574 0.99596102604 0.9994995447 0.99740518521 0.99932009497 
0.99774757349 0.9981233204 0.99784361461 0.99828447314 0.99808199659 0.99871548296 0.99860512769 0.99940645072 0.99907386761 
0.99865377148 0.99611981349 0.99867395276 0.99234761918 0.99918272944 0.98848445321 0.99727711195 0.98728030569 0.99667219758 
0.9899195004 0.99629649357 0.99385305411 0.98643834598 0.99586762477 0.98186079516 0.99719355763 0.98933688586 0.99754608917 
0.99479370844 0.99749175853 0.99800674193 0.99694795445 0.99923464869 0.9955229 0.99969652603 0.99382052106 0.99982036856 
0.99242250008 0.99984921594 0.99266684742 0.99964914713 0.99268673722 0.99959372635 0.99394993575 0.99962840465 0.99535794242 
0.99899600759 0.99743460555 0.99696048723 0.99687589355 0.99340555778 0.99708014909 0.99484795614 0.99773092549 0.99657399103 
0.99827736471 0.99839802632 0.99863991996 0.99915354319 0.9989774835 0.99933945684 0.99923294689 0.99900035876 0.99953379371 
0.99911403341 0.99924519088 0.99937271941 0.99892710877 0.99981283963 0.99877127828 0.99980399226 0.9979738824 0.9995032025 
0.99701722333 0.9987721997 0.99655870245 0.99759800138 0.99729769286 0.99493859341 0.99782847355 0.99044011123 0.99744952232 
0.98647111888 0.99605106227 0.98182148607 0.99445001024 0.97625123281 0.99265206764 0.96858127839 0.99419041718 0.96394093699 
0.99467397372 0.96101154243 0.99617899187 0.97506726398 0.99625365591 0.98662233658 0.99735523268 0.99399175501 0.99779550626 
0.99411466403 0.99779876044 0.99462213615 0.99789983417 0.99994331228 0.99971768927 0.99611987059 0.99716970454 0.99932787688 
0.99600676508 0.99872801395 0.99776089222 0.99826627561 0.99868776473 0.99790651124 0.99933043994 0.99854737952 0.99914347398 
0.99912781239 0.99853491176 0.99948368108 0.99769237976 0.99974660708 0.99649285699 0.99973634813 0.993488667 0.99974498771 
0.99226792142 0.99980532045 0.99011760828 0.9998705008 0.98896152193 0.99994258629 0.98907738069 0.99954783179 0.98972629567 
0.99890775935 0.9910274058 0.99831069362 0.99442081246 0.99799822176 0.99738565722 0.99848370483 0.99839502694 0.99899480121 
0.99831294785 0.9995235027 0.99734686338 0.99969194541 0.99684043679 0.99963817105 0.99662138543 0.99922099535 0.99569051906 
0.99708077868 0.99397321937 0.99554060748 0.99279415792 0.99576511348 0.99467435966 0.99740738093 0.99690913795 0.99878403929 
0.99779864854 0.99966491623 0.99718579983 0.99821525331 0.99606835568 0.99743555879 0.99519648177 0.99772079441 0.99407222398 
0.99850295768 0.99454722792 0.99897456234 0.99413951009 0.99917679683 0.99291654268 0.99770576115 0.99441760357 0.9971915269 
0.99648315684 0.99816415785 0.99803940403 0.99884740774 0.99885190898 0.99934981457 0.99886393982 0.99967205272 0.99935944109 
0.99984950462 0.99951156538 0.99989805958 0.99888964354 0.99979967915 0.99826499936 0.99894302502 0.99858474513 0.99873723976 
0.99925573498 0.99911329273 0.99858301745 0.99957899639 0.99814026981 0.99982524414 0.997658013 0.99951187931 0.99758291687 
0.99934616302 0.99681027956 0.99928871528 0.99290759903 0.99952678334 0.99110291015 0.99978561888 0.99101305536 0.99985784874 
0.99383492974 0.99990926585 0.99658587196 0.99560270289 0.99633055924 0.99624663522 0.99851661369 0.9994550433 0.99974230123 
0.99813999746 0.99597122324 0.99305552224 0.99326299424 0.99591380668 0.99562461741 0.99604009411 0.99750427039 0.9977419842 
0.99759451315 0.9964589544 0.99508330091 0.9930549561 0.99261320902 0.99364817917 0.99723088379 0.99621739835 0.99695699495 
0.99778893927 0.99856757318 0.9981198666 0.99673934911 0.99607752589 0.9968483737 0.99806204488 0.99862351629 0.99867629489 
0.99865214557 0.99871461542 0.99890047874 0.9985946653 0.99896713105 0.99916246533 0.99897551412 0.99879212701 0.99899456575 
0.99929106644 0.99886218077 0.99963932644 0.99940667527 0.99915571698 0.99900762402 0.99885223535 0.99826177621 0.99755650353 
0.99602898273 0.99545867275 0.99639302662 0.99804141506 0.99608678854 0.99833943003 0.99777530781 0.99813445658 0.99826792389 
0.99844398651 0.99891543373 0.99929688696 0.99836269605 0.99715207756 0.99721600242 0.99660219693 0.99422605229 0.99283013378 
0.99035650163 0.99100098869 0.9916751608 0.99411307732 0.99548244001 0.99762656179 0.9984326484 0.99897928535 0.99812523693 
0.99795101681 0.99811959947 0.99673463149 0.99622524689 0.99703991372 0.99788783755 0.99912890296 0.99922262559 0.99863814247 
0.99841803605 0.99765383423 0.99655869996 0.99559234717 0.99472900474 0.99381371018 0.99358912966 0.9954406135 0.99787016794 
0.9979268864 0.99850147451 0.99898234244 0.99936145113 0.99951750567 0.99962924163 0.99974292927 0.99979936536 0.99970580623 
0.99913988236 0.99805064854 0.99678835721 0.99664383136 0.99619971507 0.99539790266 0.99672443307 0.99681530247 0.99704850048 
0.99174220989 0.99069878933 0.99554795063 0.99845542402 0.99933057153 0.99721220705 0.99441402703 0.9915322802 0.99427027222 
0.99694224743 0.99942527448 0.99872623714 0.99656838553 0.99595184008 0.99647373912 0.9966052309 0.99687586181 0.99742796121 
0.99832483841 0.99865344151 0.99863492881 0.99767074497 0.99836250243 0.9982369279 0.99891944457 0.9996484283 0.99953622239 
0.99901661246 0.99871435897 0.99850300061 0.99875680229 0.99876063505 0.99917629422 0.99894168536 0.9987688505 0.99885780606 
0.99928393148 0.99947180593 0.99853982698 0.99824187029 0.99825962202 0.99800572196 0.99875788792 0.9980942186 0.99807108043 
0.99754859347 0.99785281018 0.99835242916 0.99869594178 0.998380704 0.99736064692 0.99497477226 0.99331170835 0.99415735732 
0.99641183198 0.99133459726 0.99872996938 0.99823373712 0.99649651775 0.99656518921 0.99908827967 0.99942068461 0.9977729211 
0.99704597559 0.99584524545 0.99506701062 0.99618224637 0.99594309446 0.99567211338 0.99360256519 0.99446181632 0.99512989903 
0.99590251228 0.99623902703 0.99504750177 0.99541524544 0.99605342123 0.99822974769 0.99910190148 0.99959689777 0.99961308218 
0.9991446578 0.99857874408 0.99790014915 0.99703050765 0.99629764098 0.99797316451 0.99905953576 0.99964985021 0.99969984232 
0.9994034574 0.9987297475 0.99879832265 0.99860365659 0.99880925778 0.99801162814 0.99702925425 0.99794998018 0.99817217108 
0.99811104591 0.99793196322 0.99811519865 0.998413988 0.99862851911 0.99872070258 0.99902951853 0.99952453371 0.99954868962 
0.99949223678 0.99863195165 0.99783324065 0.99719798791 0.99753927306 0.99813350974 0.99826290259 0.99775188371 0.99844044612 
0.9990514431 0.99174482143 0.9930783544 0.99106075776 0.98760896231 0.98705542941 0.99209109114 0.99651101219 0.99778923587 
0.99777448045 0.99816626545 0.99866127416 0.997798139 0.9972945302 0.99539361673 0.99435924768 0.99350546468 0.99385648763 
0.99606558962 0.99816022067 0.99888507585 0.99844455772 0.99634092473 0.99771998897 0.99858190554 0.9993072602 0.99936167394 
0.99861022165 0.99719620903 0.99602704028 0.99479401914 0.9973082491 0.9991905906 0.99883825119 0.99887466652 0.99875984532 
0.99871410921 0.99841585751 0.99802977135 0.9958826276 0.99769724589 0.99771571999 0.99779965562 0.99834531047 0.99922381243 
0.99956127085 0.99970896179 0.99985569407 0.9996210433 0.99920073224 0.99887412038 0.99930572494 0.99981228816 0.99973849995 
0.99930821916 0.99869795603 0.99875635943 0.99899919001 0.99944289248 0.9993004804 0.99920239142 0.9990587051 0.99756082593 
0.99498674653 0.99496786521 0.99427944945 0.99739044599 0.99223259928 0.9985847629 0.99936365319 0.99749690103 0.99707963079 
0.99632799256 0.99542021914 0.99555399155 0.99715927979 0.9981460274 0.99776383758 0.99674112623 0.99400750368 0.99147340945 
0.99082902981 0.99067984351 0.99113953648 0.9958279288 0.99574303935 0.9961309041 0.9980026686 0.99901513505 0.9985551811 
0.99857094148 0.99873721003 0.99803204635 0.9984427698 0.99900525986 0.99943563416 0.99881602044 0.99897693928 0.9992578309 
0.99953338594 0.99947704166 0.99857352321 0.99799018323 0.99833697211 0.99906506979 0.99936330276 0.99920611458 0.99848541663 
0.9982293479 0.99866675441 0.99917746577 0.99912634341 0.99943574637 0.99955630197 0.99970983146 0.99963541641 0.99930005113 
0.99829686928 0.9975530923 0.99737371616 0.99868265037 0.99900207177 0.99908734413 0.99870812597 0.9991919198 0.9990925393 
0.99382153736 0.99348587049 0.99033852206 0.99207261812 0.99469183796 0.9960610715 0.99879776286 0.99883817532 0.99853666236 
0.99821413148 0.99677286183 0.99620243928 0.99743439401 0.99743448764 0.99713725669 0.99814464809 0.99792390934 0.99769959424 
0.99782158405 0.99824757372 0.99820047556 0.9987994264 0.99833788321 0.9975526398 0.99699364035 0.99720385805 0.99648043939 
0.99695578705 0.99754491696 0.99829667254 0.99886781734 0.99936353122 0.99959507185 0.99948604332 0.99923951701 0.99908171151 
0.99631836329 0.99553620319 0.99547853544 0.99706226815 0.99597708364 0.99704838297 0.99749726491 0.99751784234 0.9976591842 
0.99682993841 0.99729620257 0.99874659721 0.99933799569 0.99944470331 0.99913841445 0.99905212874 0.99905419265 0.9992201946 
0.99935586448 0.99928957014 0.99858860842 0.99850099985 0.99852523826 0.9989047744 0.99833595214 0.99772697283 0.99752481798 
0.99613950986 0.99642308456 0.99736929391 0.99752699793 0.99743260702 0.99661948169 0.99630340714 0.99839326085 0.99670873209 
0.99782495164 0.99384009704 0.99846545529 0.99800460495 0.99819949085 0.99811717289 0.99862900106 0.99904678748 0.99872885738 
0.99893516951 0.9994287214 0.99910792103 0.99908321443 0.99914395736 0.9983076694 0.99845386746 0.99866373334 0.9989496764 
0.99928783609 0.99925625771 0.99885749633 0.99894267076 0.99931002039 0.99938741256 0.99945733566 0.99902451138 0.99884436934 
0.99910598565 0.99940199135 0.99958042339 0.9989939896 0.99893280973 0.99904659423 0.99935978049 0.99943322253 0.99928255992 
0.99836457016 0.99703577648 0.99539422171 0.9960952732 0.99673977932 0.99792612708 0.99726696491 0.99675685802 0.99754182716 
0.99858647377 0.99914605425 0.99883571094 0.998214146 0.99634900383 0.99482873237 0.99550489405 0.99583602945 0.99575732589 
0.99419878471 0.99202494613 0.98997929815 0.98887025334 0.98948679125 0.99071024459 0.99261057276 0.99665325381 0.99619831092 
0.99867461907 0.99575942946 0.99875013999 0.99814912313 0.99765870501 0.99687183792 0.99639020092 0.99654721384 0.99745118192 
0.99813723433 0.99836991597 0.99767506973 0.99624242197 0.9975087878 0.99517724904 0.99690052257 0.99740329349 0.9986327098 
0.99848743413 0.99752299024 0.99724810242 0.99706266184 0.99723917075 0.99772691387 0.99890190491 0.99956759684 0.99440610211 
0.99625276952 0.99337445608 0.99447595754 0.99552072993 0.99663588538 0.99866334737 0.99924585848 0.99867507001 0.99837969635 
0.99748291495 0.99819718509 0.99810828562 0.99731546852 0.99649455378 0.99761379707 0.99504623863 0.99858346684 0.99931760487 
0.99933119639 0.99456118343 0.99546327612 0.99711801428 0.99516747493 0.9931563781 0.99223534421 0.99599389516 0.99882152622 
0.99902542273 0.99891277831 0.99850727928 0.99831700477 0.99853138705 0.99922036473 0.99938370771 0.99921034621 0.99883754645 
0.9983167883 0.99749399095 0.9970717029 0.99673879409 0.99722162134 0.99767406317 0.99730963785 0.9964189456 0.99597281043 
0.99677637374 0.99754221745 0.99651361801 0.99748186505 0.99830225269 0.99912038838 0.99856357377 0.99838677021 0.99804843781 
0.99811498675 0.99834854518 0.99815644812 0.9985670342 0.99890003159 0.99920807653 0.99890725031 0.99814234567 0.99932650913 
0.9993808603 0.99977097164 0.99968962684 0.99962751617 0.99956253914 0.99966665785 0.99986882223 0.99944133178 0.99654677733 
0.99800516808 0.99879473397 0.99926169643 0.99911289353 0.99868865077 0.99863279315 0.99900720402 0.99940740758 0.99942069428 
0.9993319925 0.99872652145 0.99700824984 0.99476172718 0.99263340598 0.99368962303 0.99522484282 0.9974895729 0.99838285023 
0.9988837532 0.99910274535 0.99723452375 0.99451560187 0.99461315811 0.99604674636 0.99623613458 0.99482549229 0.99510785917 
0.99429646949 0.99234499398 0.99081884877 0.99048808505 0.99128252271 0.9929593653 0.99697580008 0.99851047013 0.99927961174 
0.99969534071 0.99880420748 0.99797256484 0.99874159229 0.99848721224 0.99174732881 0.99312851027 0.99465463529 0.99577716158 
0.99475931718 0.99714771706 0.99772410739 0.99788239944 0.99811279089 0.99848939081 0.99933068979 0.99955846477 0.99940463826 
0.99918579696 0.99865550406 0.99761094425 0.99752899051 0.99679535143 0.99888031369 0.99669432823 0.99560768389 0.99473950997 
0.9959099436 0.99860219081 0.99933235658 0.99966247513 0.99926831812 0.99826855508 0.99711784834 0.99618648211 0.99461544657 
0.99515754348 0.99599617507 0.99706089266 0.99664303819 0.99857290891 0.9980871886 0.99723547786 0.99732302653 0.99810136218 
0.99937455954 0.99872026353 0.99759855007 0.997160531 0.9978769342 0.99717981379 0.99605351949 0.99649794687 0.99674503365 
0.99694260425 0.99789803785 0.99636737909 0.99929203465 0.99828750517 0.99882345602 0.99887285275 0.99840545227 0.99808627202 
0.9976436165 0.99740774673 0.99726513307 0.99707300558 0.99741303549 0.99653978341 0.99684022962 0.9977266678 0.99695347868 
0.99871932397 0.99868280282 0.9985747548 0.99808115637 0.99809086795 0.99853727805 0.99914264013 0.99942183062 0.99929868 
0.99838166905 0.99791075161 0.99728122943 0.99828079235 0.99775145652 0.99863046414 0.99872417314 0.99885094203 0.99900737773 
0.9992684822 0.99945903908 0.99942928677 0.9995602804 0.99904367082 0.9984760453 0.9966728902 0.99523779047 0.99384073394 
0.99792672423 0.99803447137 0.99870682725 0.99590408227 0.99627043204 0.99955580358 0.99942819887 0.99803186102 0.99758452806 
0.99795702025 0.99781977694 0.99741459753 0.99676401884 0.99693892373 0.99768815873 0.99770271931 0.99761834908 0.99728706255 
0.99808868994 0.99793158862 0.99811881285 0.99792799456 0.99886677517 0.99866361504 0.99873417193 0.99781844199 0.99866919488 
0.99870277873 0.9989765923 0.99783687321 0.99587722043 0.99568417199 0.9971573625 0.99585116489 0.99804410925 0.99774818522 
0.99822012787 0.99884453739 0.99918693877 0.99880050842 0.99786374034 0.99690632751 0.99826948722 0.99831119306 0.99868220456 
0.99888322191 0.99889065067 0.99881717255 0.99852771203 0.9983172087 0.99825775233 0.99858156146 0.99774324025 0.9975259725 
0.99774409898 0.99819086872 0.9984189644 0.99874202249 0.99811200566 0.99743935344 0.99709197034 0.99689728875 0.99478837704 
0.99303659507 0.99844385602 0.99876644979 0.99914718309 0.99800182972 0.9946332385 0.99748195083 0.99725235743 0.997729614 
0.99908351041 0.99910213897 0.99882213636 0.9984974547 0.99796681316 0.99779808985 0.99756616691 0.99701488304 0.9954851175 
0.99617943821 0.99697352056 0.99822888764 0.99847451727 0.99825460965 0.99683658153 0.9969550352 0.99739487219 0.99791739194 
0.99860673361 0.99692856829 0.99872272041 0.99933685189 0.99960023418 0.99936729126 0.99937266143 0.99954859676 0.99956894484 
0.99957036725 0.99955292714 0.99942291279 0.99913855376 0.99925150616 0.99870703759 0.99958825151 0.99973599009 0.99985825453 
0.99918103359 0.99851686238 0.99784612899 0.99734023582 0.99731760027 0.99695225915 0.99722399161 0.9972413344 0.99762088708 
0.99701315437 0.99705538993 0.99753400824 0.99774097305 0.99765930486 0.99948958709 0.99940143651 0.99940965457 0.99906006565 
0.99910190972 0.99945026145 0.99934446384 0.99916457515 0.99796404429 0.99900989997 0.99913733833 0.99946856521 0.9995496586 
0.99942537037 0.99906226734 0.99906671292 0.99875712116 0.99839900913 0.99572406491 0.99755387422 0.99835846814 0.99916196675 
0.99817568527 0.99824806843 0.99921110327 0.99881506885 0.99857343928 0.99830893806 0.9978893606 0.99844197055 0.99880843371 
0.99792512222 0.99742840026 0.99765737514 0.99797939644 0.99843529677 0.99883076528 0.99812689307 0.99943322308 0.99797572387 

Longtudinal 3 1116 double
0.94597279298 0.22719994595 -0.23110201395 0.92549763259 0.29447106128 -0.22802035827 0.92044214334 0.30583886772 -0.21708935418 
0.9549942365 0.18854368628 -0.22706139425 0.90489490096 0.36269251913 -0.22257010292 0.8920301695 0.40128879642 -0.19859921337 
0.89668309032 0.38022959656 -0.22620026369 0.86894154339 0.46334086539 -0.16201194117 0.89584466902 0.38272686544 -0.22555066074 
0.85838301991 0.49508330958 -0.13197528391 0.90217073028 0.37061044165 -0.22074255063 0.85281548198 0.51231231973 -0.099236889701 
0.88334891912 0.43256043687 -0.16996969501 0.85556153884 0.51231477648 -0.072103639367 0.87615861337 0.45798170178 -0.14940998444 
0.86424532462 0.49844744668 -0.065686576304 0.88279366539 0.44013822529 -0.1641557916 0.87601151051 0.47656241784 -0.073188701348 
0.88210835754 0.438708056 -0.17145183188 0.88447091252 0.45874684757 -0.084618886283 0.88441029619 0.4372543007 -0.16233461402 
0.87392112823 0.47173256713 0.007773769807 0.88911956342 0.43464742081 -0.14297388433 0.86702379229 0.47703751927 0.078730838006 
0.89262432955 0.41555342182 -0.17315731003 0.88177095567 0.44578346311 0.10589525503 0.90777934916 0.39204453502 -0.12769840372 
0.8973084999 0.41307203386 0.12663302726 0.9277120772 0.36766941647 -0.045631373069 0.91493786601 0.37220706729 0.15382842773 
0.90185789371 0.37421216523 -0.18056973459 0.92862839962 0.34033917243 0.14354019667 0.89187417065 0.37279892712 -0.24837095324 
0.94001550787 0.3183034465 0.10790584602 0.9181168154 0.35322512534 -0.16292300564 0.94105996776 0.32726968228 0.010271801699 
0.92396417453 0.35435505695 -0.13818940457 0.93449559686 0.34529199089 -0.071668045867 0.90714851116 0.37849075495 -0.18092093387 
0.91665310704 0.37603962695 -0.12818128762 0.91429992034 0.3591174355 -0.18410775357 0.92090521641 0.3619879922 -0.13889352811 
0.93019630774 0.32385104911 -0.17275893802 0.9372942441 0.3187564751 -0.12169937249 0.93302374758 0.31170580423 -0.1793368216 
0.96037722384 0.24839339647 -0.09299063156 0.9361684382 0.29904484193 -0.18458873592 0.96803421912 0.21169246965 -0.11475355009 
0.94007762941 0.28514112061 -0.1866453728 0.9757860431 0.17415699397 -0.12314113968 0.93557768356 0.28991698983 -0.20031364121 
0.98205459896 0.12602663809 -0.13180561125 0.9254838536 0.30727191361 -0.2214955529 0.98546508344 0.088573795943 -0.14236416074 
0.92860738013 0.30626217213 -0.20930310417 0.97361370054 0.12990945138 -0.17989743342 0.93878522747 0.26018992626 -0.21467960893 
0.95505941689 0.19763475946 -0.20452580278 0.95660203232 0.16532055805 -0.2390811187 0.93118904216 0.27733069544 -0.22967822088 
0.93252409963 0.24880657675 -0.25356840585 0.92270655695 0.29635331497 -0.24355798662 0.90550146152 0.3312015874 -0.25910366418 
0.91484367315 0.30618506724 -0.26201360016 0.87769973085 0.4044431252 -0.25696995915 0.90735746345 0.30742308877 -0.28562710111 
0.8770166464 0.38988102682 -0.2801132485 0.90187218934 0.29921777866 -0.31076666018 0.87561197011 0.37679485259 -0.30173670248 
0.89659828865 0.29345408483 -0.33096703071 0.87355850286 0.36491875757 -0.32203323022 0.89174058103 0.28082997046 -0.3539749752 
0.87520017385 0.32310499454 -0.35768614491 0.89087046709 0.28329273224 -0.3545090878 0.87573383506 0.29725785998 -0.38038068047 
0.88871605364 0.27925505927 -0.36167417959 0.87488118483 0.29138773317 -0.38686204735 0.88315521938 0.24213092292 -0.40086524813 
0.87660336437 0.26720341617 -0.39956268708 0.86950021748 0.2219244302 -0.43970864838 0.87568070865 0.2534515908 -0.41092949111 
0.84896708685 0.20426486162 -0.48597974735 0.86908317562 0.26426713496 -0.4181176206 0.81883927742 0.19802240945 -0.53469671034 
0.85247745469 0.27108147977 -0.44625132302 0.75873377112 0.21457511331 -0.61046449964 0.85164326573 0.28078188329 -0.44085771083 
0.70253524248 0.25466908079 -0.6629059169 0.87298974819 0.29493217578 -0.3883715531 0.66435443423 0.32386274384 -0.67321181513 
0.87210967514 0.3182521377 -0.37120953114 0.62960788674 0.40705816266 -0.65725275846 0.87930756614 0.3306624587 -0.34153482977 
0.61156566022 0.47108275817 -0.63163924478 0.89525369013 0.33008196579 -0.29665486916 0.60991788089 0.5257750641 -0.58920609641 
0.92436319759 0.30471579855 -0.22315649614 0.63449702871 0.56845070331 -0.52001532165 0.94347071376 0.27770827335 -0.17766173856 
0.65766327805 0.60075650792 -0.44772800688 0.9569296949 0.24977380595 -0.14798177209 0.68286176588 0.62993984172 -0.36870100847 
0.92985027728 0.32297750773 -0.16455509025 0.74876561147 0.58585130672 -0.29812767644 0.90162517403 0.3896288261 -0.1826123145 
0.80973078186 0.53040639504 -0.24191203061 0.87148239105 0.44531258699 -0.20315334113 0.86544183454 0.44742790315 -0.21146115148 
0.91636478014 0.31981429852 -0.2046548628 0.91400034702 0.34785664909 -0.19874593241 0.95304246803 0.2174137619 -0.21028744979 
0.9430290418 0.25812598221 -0.20358451229 0.89209596517 0.41236790992 -0.18451349752 0.88919414642 0.41054954409 -0.20150325299 
0.89660704128 0.38757041679 -0.19705306185 0.86810062195 0.45176153832 -0.20014725138 0.8771981789 0.42040535596 -0.22884982487 
0.93460208235 0.30621336419 -0.18076614147 0.85319445197 0.44507373753 -0.27049759507 0.93023074731 0.31505850186 -0.18800509879 
0.87658872014 0.40439619447 -0.2529127526 0.93279930622 0.31021230268 -0.18306667656 0.9109210993 0.34830880975 -0.21955430075 
0.93748941843 0.30104601725 -0.17442732413 0.93725129873 0.29843541019 -0.16545642135 0.94088140901 0.29291464463 -0.16929392564 
0.95676436898 0.26082440873 -0.12780117559 0.94387550559 0.28214389604 -0.16615174072 0.95094654209 0.26877768174 -0.15124300616 
0.95906298986 0.24606020311 -0.12307924572 0.94625155776 0.27039634875 -0.17606551134 0.97004842481 0.22006863991 -0.097388372997 
0.94485692624 0.25339581175 -0.20494621086 0.97216863988 0.21544880222 -0.090258932759 0.94208635686 0.24034940537 -0.23320656895 
0.96795041923 0.21525088814 -0.11193727572 0.9355521811 0.23811874257 -0.25977010557 0.95555743965 0.21764995122 -0.18589408114 
0.92974137887 0.23635811377 -0.28205844836 0.94498773137 0.21505732062 -0.24504978335 0.92496098453 0.23526702392 -0.29825700028 
0.93803762051 0.20446492772 -0.27840167265 0.9303249108 0.20412870187 -0.30205032867 0.93577005593 0.18608122842 -0.29884397588 
0.9410195369 0.15720097593 -0.29932488409 0.93262902678 0.17159634473 -0.31729243252 0.92466125133 0.11937365259 -0.35639271438 
0.91843643261 0.12551321172 -0.36984650635 0.9186020917 0.10042174955 -0.37756432448 0.91421479076 0.095009451608 -0.3900281258 
0.94526315054 0.13355414775 -0.28932792883 0.93359554331 0.099380100634 -0.34144815005 0.95628893855 0.11788580252 -0.26439594729 
0.94662177048 0.0826554981 -0.30776615845 0.95656795449 0.068674676193 -0.28297572305 0.95537567971 0.057362677711 -0.28419938428 
0.97038018833 0.07715561224 -0.2230556247 0.96996102377 0.099437432105 -0.20960148433 0.98157027459 0.089537455813 -0.16581624604 
0.97799287383 0.15138457637 -0.14325878064 0.98708972615 0.10430536033 -0.1194010814 0.97990133832 0.15304977765 -0.12747730904 
0.9883867732 0.047515285746 -0.13325781896 0.98126748791 0.084581641565 -0.13752914795 0.98181368317 0.058139073388 -0.14965241792 
0.98232297522 0.09785695861 -0.13806583536 0.96172111405 0.22322892099 -0.14926464751 0.97454293902 0.13527718886 -0.15428250655 
0.9705388068 0.12768762767 -0.18371794299 0.97672044459 0.11717740092 -0.17119614537 0.97470650265 0.087491829267 -0.2015265302 
0.9732657007 0.11522697904 -0.19301204436 0.96974027358 0.14673807477 -0.19426580251 0.96206526565 0.16045551175 -0.2134076601 
0.97233715225 0.1590205953 -0.1699505511 0.97235663508 0.13948109176 -0.16942496322 0.98150291607 0.12931975154 -0.11011079115 
0.97921789417 0.13967060394 -0.12340217144 0.99842611743 0.049917962256 -0.0062143913453 0.98862854182 0.12935256467 -0.068824795276 
0.99576431001 0.011877755872 0.0712909406 0.99279378948 0.10595689442 0.0017615127745 0.99203925199 0.034812182487 0.10830701495 
0.99240781666 0.10367934907 0.047337025922 0.98783941085 0.10771401776 0.11212042075 0.98788882892 0.1201689447 0.071166001611 
0.98336745463 0.1530312909 0.089411171973 0.98138282687 0.17883716599 0.0033609253727 0.97586442128 0.19764441357 0.024701633164 
0.97165603867 0.22598563952 -0.066873783305 0.96365110744 0.24116328954 -0.10527617082 0.96619214465 0.23794202416 -0.098139307344 
0.97058908791 0.22513215596 -0.07890423749 0.9583982445 0.24963576175 -0.1355912497 0.96697245748 0.23391373656 -0.086589214171 
0.9508045086 0.25854370247 -0.16997429798 0.94963567314 0.27647922378 -0.14741243205 0.94686391154 0.26300477996 -0.18504988274 
0.94166683011 0.30016790189 -0.15121340456 0.94382042378 0.27308014938 -0.18588009923 0.93198473976 0.32043403459 -0.16770593487 
0.93176814659 0.28529276246 -0.22092145226 0.92145478619 0.3361998454 -0.19452135311 0.9173211716 0.26676309645 -0.29405104392 
0.92215248602 0.32028697064 -0.21609022258 0.9164552537 0.28568779274 -0.27752301694 0.91778904691 0.34198593864 -0.19076280948 
0.91836302455 0.3177351664 -0.23429277781 0.90890124908 0.39730766848 -0.12351289477 0.9170514284 0.34705973178 -0.19528053512 
0.90039865242 0.42190300006 -0.10352539409 0.91577261655 0.34567882952 -0.20403237728 0.88973574023 0.44362023204 -0.10319439944 
0.91144442416 0.35182943786 -0.21084356103 0.87365311817 0.46371358638 -0.14308185293 0.90081164833 0.38538630594 -0.19677201937 
0.8771026366 0.44610860592 -0.17263452553 0.8786398928 0.43195660795 -0.18732610909 0.89487479221 0.40085997978 -0.19460885224 
0.87031607758 0.4548775351 -0.18316687202 0.8840638003 0.42695417278 -0.18644278744 0.83269744655 0.51411423147 -0.17915756296 
0.87126111644 0.45867974647 -0.17462399439 0.80010227205 0.56528452073 -0.17303915426 0.87662004158 0.44944581744 -0.17167594379 
0.79414128303 0.57524136562 -0.18447259991 0.88365752651 0.43364660898 -0.17533677833 0.82079534828 0.5323707652 -0.19772156207 
0.90799879968 0.35701591328 -0.19358284377 0.94336812714 0.23069735205 -0.22867890151 0.87422318648 0.46144073707 -0.14810391379 
0.85611528634 0.50430424622 -0.099252787692 0.84883630291 0.52437785163 -0.062630188515 0.8556743087 0.51501826723 -0.046250153995 
0.86609753406 0.49717750623 -0.041907189958 0.87639625201 0.47730953077 -0.033959342042 0.86883717973 0.48880380532 0.041439884416 
0.84305696045 0.49626119931 0.17493514748 0.81598914466 0.48797343445 0.30832360747 0.83482341827 0.44125027173 0.32678111814 
0.86514076982 0.39813160556 0.29679213849 0.90143461851 0.35659791487 0.23779448407 0.92497554964 0.34232912568 0.15843118414 
0.93936857754 0.32086285541 0.11743475818 0.94001554525 0.33056615345 0.053520421601 0.94399379078 0.31828451969 0.019601554173 
0.95821408583 0.26432498215 0.05217340011 0.97124827937 0.19255361774 0.062130676312 0.98658749071 0.097274600588 0.096562666887 
0.99363130201 -0.010668381914 0.094768657512 0.99791813751 -0.00051163336659 0.0076206878799 0.99652850875 0.017274150443 -0.054565312494 
0.99357254114 0.04250571006 -0.098724869607 0.99109924059 0.036242770832 -0.12550627056 0.98635887677 0.038832020846 -0.15488458117 
0.97690138318 0.053917059639 -0.19681046541 0.96383775887 0.0891086047 -0.23720247791 0.9482250364 0.16843770681 -0.26569121084 
0.93451284242 0.21987374843 -0.279483001 0.92067847465 0.2585660955 -0.29057832919 0.91297422596 0.26785170553 -0.30495378954 
0.90677363904 0.27334047999 -0.31634370008 0.9030493337 0.23487507604 -0.35623128599 0.89090549432 0.20399400249 -0.40175329062 
0.88945817562 0.20541108116 -0.40617058852 0.88446898003 0.20322200931 -0.41828227696 0.87766992627 0.20116341115 -0.43313420418 
0.86044696789 0.1725405452 -0.47820029341 0.81329733924 0.17115204096 -0.55335886233 0.76658519706 0.20111802589 -0.60744971232 
0.7144902848 0.24761994396 -0.65268129016 0.65175163883 0.33922842875 -0.67664876198 0.63186349577 0.43993263458 -0.63464421273 
0.62461435784 0.50830477928 -0.58961589935 0.60284934251 0.56809112852 -0.55807069491 0.62756293117 0.60023796968 -0.49225862991 
0.66431521659 0.61211336773 -0.4228035523 0.70296459509 0.61574539203 -0.35284665498 0.7262646865 0.61124367662 -0.31038765206 
0.77077949824 0.57901342345 -0.25610390766 0.85950612185 0.4578462758 -0.21039090941 0.9234594152 0.32552634911 -0.18979974571 
0.9547517751 0.22258283335 -0.19260555184 0.96087857945 0.16594621615 -0.22109339283 0.89673292927 0.37859936454 -0.22705336466 
0.86227933149 0.44513224589 -0.22899162474 0.91027272728 0.3465697357 -0.22286378835 0.91070453758 0.34483045689 -0.21941158018 
0.93134903187 0.31094197112 -0.18930068844 0.93911751404 0.2969630912 -0.17036034639 0.95011421921 0.27660409558 -0.14089792415 
0.96301869037 0.2416947365 -0.10863805205 0.97083118904 0.21643726487 -0.097665826086 0.96186418821 0.22484948249 -0.14811970058 
0.94553181457 0.22942513937 -0.21836579275 0.90922614234 0.21851842472 -0.34253270065 0.87887822919 0.19426179551 -0.43203276662 
0.85310276375 0.14934225538 -0.49671126928 0.82279481021 0.10340711807 -0.5552968354 0.82288039062 0.065715660123 -0.56197761655 
0.84176723104 0.043781162625 -0.53210532532 0.86164724284 0.021690583139 -0.49892422387 0.89934778652 0.03485669641 -0.42736503745 
0.92060205751 0.0052652462405 -0.38694518058 0.94828941601 0.017552312063 -0.31568692539 0.96433501206 0.023270574974 -0.26038189379 
0.97526294807 0.055181695398 -0.20371215102 0.98140351646 0.098177683932 -0.1567226357 0.98372434934 0.0024613740644 -0.1679540737 
0.98491392481 -0.014776986231 -0.1712227283 0.98221449053 -0.058964370062 -0.17616463369 0.9811262571 -0.01103004067 -0.18793242832 
0.97979092306 0.027613986327 -0.19301197831 0.98201338204 0.035868188037 -0.18116673431 0.99002160491 0.020940703402 -0.13557090089 
0.99504526363 0.025142638326 -0.080827361371 0.9987895096 0.028488438834 -0.017783062959 0.99516838182 0.0094792768968 0.070001867018 
0.98598268082 -0.0084500811665 0.15720721559 0.97757670751 0.0072486745897 0.2085300178 0.98281600923 0.096131422725 0.12366870033 
0.98111166693 0.15974124144 0.050492893672 0.97167298924 0.21544710228 -0.045867748963 0.96589674098 0.23673139249 -0.081673094665 
0.96051256276 0.25097220604 -0.11347029496 0.95785851563 0.26034636589 -0.12024133867 0.94735453111 0.27163771577 -0.16522100832 
0.9369824766 0.28362613974 -0.20291578033 0.92939809338 0.29697110068 -0.21698121162 0.92184015975 0.30832038236 -0.23327091472 
0.91370161574 0.32241737067 -0.24624224079 0.91052262155 0.34603994487 -0.22535874583 0.91070588213 0.3415566769 -0.23212544465 
0.9060540544 0.35770892785 -0.22464658315 0.89343124902 0.39823871704 -0.20444747159 0.87086705116 0.44811570188 -0.19004940072 
0.82888320218 0.53078937515 -0.16397514025 0.76513727965 0.61783827491 -0.15308299548 0.69205553848 0.70459894876 -0.15191127074 
0.71740700209 0.66761279975 -0.19409836528 0.76773316185 0.59881743783 -0.21755617019 0.81902910476 0.52495554003 -0.2301502306 
0.89492186474 0.41635266846 -0.15052262355 0.92761651839 0.26316015185 -0.20201938942 0.87712829597 0.4631764643 -0.10140998041 
0.87277503858 0.48162506469 -0.067572043304 0.8756572967 0.48055618349 -0.039962497826 0.88092654399 0.47255107847 -0.016795908303 
0.87041038018 0.47908438405 0.05220994601 0.8230509831 0.51494648624 0.21832841035 0.81453761349 0.49750918565 0.29449297322 
0.81403589963 0.46490206438 0.34664211836 0.82119914927 0.41880597741 0.38602499621 0.8466348526 0.37524995379 0.37248136818 
0.87644575634 0.3335592338 0.34457998986 0.90258331632 0.32283886941 0.25111085929 0.93845150506 0.33209703061 0.087213592329 
0.94319900809 0.32626588734 0.055691313496 0.95057552472 0.29929577267 0.060565096301 0.96388085728 0.22449441182 0.12410779495 
0.97397099478 0.14510725894 0.15839304291 0.98190652307 0.074451584092 0.15861287477 0.98965820869 0.051935060874 0.1219137934 
0.99392329291 -0.10451031586 0.014053880024 0.99349165411 -0.089430969968 0.059280808703 0.99538018686 -0.051392700773 -0.044517905048 
0.99430821783 -0.0085185875228 -0.1004745537 0.98862066909 0.0065162811683 -0.14692455022 0.9816348203 0.020836917965 -0.1865416743 
0.97413854091 0.034209819977 -0.22286436513 0.96123129691 0.074183923348 -0.26058379593 0.94880532956 0.11331754662 -0.28656553136 
0.93512420001 0.18976607009 -0.29336426343 0.92729056024 0.20796806976 -0.31024765161 0.92264508969 0.22212682704 -0.31388868234 
0.91517334512 0.21937985605 -0.33676245522 0.90359071918 0.19596753316 -0.37711038096 0.89239783584 0.15428972225 -0.4237840098 
0.88855934215 0.16013187056 -0.42958043965 0.88308255886 0.16572368145 -0.43842128897 0.87611047728 0.1805751862 -0.44592033588 
0.83674248932 0.17688035081 -0.51360992503 0.79847439351 0.20146814891 -0.5627926858 0.78073624127 0.24351641007 -0.57449251359 
0.76569078457 0.30551317502 -0.56211728764 0.58894285838 0.5548712561 -0.58391026867 0.58874710868 0.50231367878 -0.62934834462 
0.6040578809 0.60062941378 -0.52238215703 0.6849034242 0.58578916498 -0.42134389163 0.74033804787 0.57500520351 -0.34704180927 
0.74952920914 0.58147365897 -0.31501280556 0.77207921428 0.56568167943 -0.28537036303 0.80568753409 0.53613447304 -0.25138433914 
0.82229545246 0.52726745984 -0.21239356831 0.88199263375 0.4229912536 -0.18096849584 0.93568802901 0.2967448017 -0.17185771351 
0.95314238524 0.23388478374 -0.18636310682 0.95913479691 0.13427555317 -0.24091941257 0.99495351204 -0.034162135659 0.090226700653 
0.9934501383 0.093516653464 0.053544560884 0.68850990772 0.41834409257 -0.58623821882 0.77192642856 0.36732698095 -0.51598115174 
0.87041188159 0.40731666443 -0.27570698081 0.87771211022 0.40508600305 -0.25521062451 0.87639966955 0.3953838371 -0.27451158852 
0.89459721594 0.36511603957 -0.25242005849 0.91596691184 0.33015019783 -0.22067543249 0.93508989393 0.29718796587 -0.19219148729 
0.94607264686 0.26860244647 -0.17874241819 0.95220225614 0.24104369717 -0.17310637442 0.9260422735 0.24196503328 -0.25452342186 
0.91313588116 0.24276777857 -0.31346247776 0.87028672002 0.21917410355 -0.41684092342 0.83163571176 0.19326420835 -0.5123085355 
0.79059481326 0.13888636412 -0.58164289313 0.7564334173 0.085891863871 -0.64749302182 0.76461285016 0.044248704495 -0.6421470113 
0.80618236965 0.030006535174 -0.58544149082 0.8917314243 0.078086691127 -0.44075489102 0.91191505108 0.052716943326 -0.4064911436 
0.92951029484 0.039317717842 -0.36386664127 0.9473674436 0.032210258968 -0.31740759542 0.96139434391 0.033752133238 -0.27070850839 
0.97219485036 0.060698392423 -0.21946267937 0.97780760434 0.11327144097 -0.17188786916 0.97925178189 0.12199346029 -0.16045237151 
0.98072387255 0.088039015244 -0.16459292002 0.98305516532 0.012244227665 -0.18084856857 0.97998980066 -0.051848806316 -0.19147254605 
0.98190084582 -0.036071039455 -0.18540498432 0.98514012818 -0.023995101317 -0.16819567629 0.98981112242 -0.0040850129495 -0.14081025894 
0.99539768167 0.0068559902776 -0.079454884754 0.99842543742 0.013632450185 -0.017194204283 0.99251093368 -0.020285438731 0.082941813161 
0.98631213985 -0.037096283083 0.15652552138 0.98484028773 0.0076032906784 0.17125970695 0.98584450744 0.0675073752 0.14067781862 
0.98391333722 0.12653383407 0.097560126063 0.97736824086 0.19939659323 0.0058610995466 0.9727306186 0.22901225128 0.015172129081 
0.96755259044 0.24847724773 0.025992132047 0.960581411 0.27560046492 -0.026604542702 0.95210810817 0.28907805435 -0.074076256404 
0.94168339073 0.30294859057 -0.14136768693 0.92836480537 0.31373800632 -0.19427293644 0.91915501407 0.32308638286 -0.22276139959 
0.91131007158 0.33061435048 -0.24478129032 0.90254738412 0.36090490045 -0.23337782539 0.9015561163 0.36534969523 -0.23150094304 
0.90245820897 0.36179836389 -0.23368549253 0.88265012608 0.42138558779 -0.20009232809 0.85516107389 0.48569605258 -0.1687689944 
0.80800525392 0.567724005 -0.14004909014 0.79367994878 0.59021468573 -0.14545884694 0.75494608508 0.63314570825 -0.15803826729 
0.76218002414 0.6172363948 -0.17811756341 0.81442359836 0.54056971664 -0.20086812961 0.84498994498 0.48522995114 -0.22117917516 
0.86747075899 0.43559858144 -0.23702706437 0.72859385824 0.45249253507 -0.49860113907 0.81922177139 0.39135657742 -0.40848934405 
0.66284238518 0.51371405486 -0.53258330406 0.66497366061 0.55574261562 -0.48733893886 0.69947223791 0.57113316493 -0.41163363534 
0.79617245589 0.5291398522 -0.29104221552 0.79864829027 0.5330765305 -0.27706950514 0.82579794706 0.49815355575 -0.25665126837 
0.8459940647 0.47420389373 -0.2394344985 0.83683642375 0.4901907303 -0.2405139971 0.82296522696 0.52484389611 -0.21211358377 
0.83804119282 0.5174907573 -0.16977487579 0.88619462419 0.43786145638 -0.12397939768 0.93990047075 0.28586434144 -0.15491992115 
0.95577750487 0.22210422978 -0.18551414635 0.94676930334 0.2461494373 -0.20405188504 0.92588655399 0.32463957405 -0.17601005336 
0.90487602151 0.40649664405 -0.12217686127 0.89157226845 0.4448789752 -0.067447368745 0.88716349 0.45986133931 -0.025349123347 
0.87746591571 0.47147293683 0.040342372051 0.86728411481 0.48234754224 0.11116489294 0.84695322382 0.48354341754 0.21127479463 
0.82465883744 0.46932141893 0.30694092513 0.81972123096 0.43998423456 0.36446088882 0.82750536471 0.39944729248 0.39170384555 
0.84691487798 0.36142832621 0.38649953686 0.87603887614 0.32711560502 0.35179641733 0.90479028293 0.31764069433 0.26390370401 
0.93450181312 0.32148823394 0.14594568537 0.943479592 0.31177895513 0.10397892088 0.95226153355 0.29689623071 0.065357303554 
0.96657615641 0.23191091936 0.099361338334 0.97519306304 0.18557417143 0.10904211886 0.98214141285 0.14125777812 0.10594598806 
0.98791333645 0.13096483177 0.080068892639 0.98705743347 0.15197914466 0.027321501497 0.98928739778 0.13977087509 0.0063673977981 
0.96524553805 0.23894224181 -0.057684568587 0.99730944064 0.064377145926 0.026206672407 0.99702631019 -0.031310767851 0.028707008136 
0.99718107314 -0.052166234178 0.00412789398 0.99765658811 -0.0052272986147 -0.048183717861 0.99449691111 0.024176765479 -0.093878426905 
0.99034363703 0.022452303805 -0.13387168628 0.98453428756 0.023528820891 -0.16926799805 0.97707603778 0.027302002693 -0.21039148298 
0.96618838666 0.040538137643 -0.25196254717 0.95686567096 0.071498906583 -0.27817829578 0.95066581194 0.13587157026 -0.27631660187 
0.9405576292 0.19433228714 -0.27585475524 0.93293622534 0.23335613683 -0.27404819224 0.93042809842 0.22932626381 -0.28523455407 
0.9245478019 0.21745441556 -0.31034907809 0.91632248862 0.19163440587 -0.35076312104 0.90421424251 0.1662684339 -0.39046173888 
0.89062812778 0.15385675432 -0.42691758176 0.87541952988 0.15728542742 -0.45682730403 0.86283882467 0.18549924944 -0.46949220303 
0.8411770654 0.2145448762 -0.49400454725 0.80516570169 0.24497835423 -0.53791288808 0.79738363582 0.30003755219 -0.52246117016 
0.83696147509 0.33676688611 -0.42272999642 0.86903477431 0.37230260245 -0.3209681775 0.86986352355 0.39311559486 -0.28993318963 
0.89122794683 0.37027404867 -0.25938634929 0.83408660488 0.41043821325 -0.34753674827 0.8558279349 0.41555943483 -0.30662117522 
0.86034894579 0.41992473617 -0.28827496702 0.83875704888 0.42356637863 -0.3419912269 0.84855301174 0.39952500105 -0.34456707469 
0.85888916396 0.37259302074 -0.34755306038 0.85959500368 0.34665609747 -0.36758113995 0.87983644103 0.30834780048 -0.35862709558 
0.87545031258 0.28614692593 -0.38670412919 0.86480242114 0.26626071478 -0.42332101415 0.83887772519 0.24076535709 -0.48441563449 
0.82736875719 0.21675626785 -0.51669244059 0.82016986161 0.18017390437 -0.53727794703 0.81764817635 0.14787795968 -0.54710301343 
0.8583828455 0.14504716383 -0.48011076672 0.89751548529 0.15831669788 -0.40142823169 0.92560059388 0.19088097577 -0.32214042497 
0.93539202192 0.11387387773 -0.31783737188 0.92629268692 0.11498570263 -0.35056249866 0.94748650211 0.080628006195 -0.30005554453 
0.95812106744 0.069761337333 -0.2736372736 0.9683612372 0.076844952538 -0.23604162709 0.97452473541 0.059982604619 -0.2150267161 
0.97800683167 0.062742746032 -0.19684916508 0.98122492179 0.062870671616 -0.18119780256 0.97838032112 0.11037590337 -0.17373918123 
0.98099437708 0.042512166548 -0.179022365 0.98375753891 0.0071865967175 -0.17846597971 0.98530028767 0.012148551595 -0.16799387826 
0.99075253555 0.0091620158565 -0.13369003914 0.99596526639 -0.030387979602 -0.053342888511 0.9977318897 -0.042429757667 0.021161461968 
0.99419260133 -0.040453680577 0.086992056341 0.99053394394 -0.027709500197 0.12958213756 0.98748070023 -0.0063979035576 0.15623526737 
0.98871191913 0.056812816284 0.11748492748 0.98808248399 0.1349613342 0.047155222842 0.98053121011 0.19042198192 0.013811889768 
0.97358871076 0.22551679842 0.017931642176 0.96411230834 0.2621779787 0.027776527219 0.95655270034 0.28785816434 0.036888667467 
0.94923414033 0.30964542386 -0.013681005423 0.9401411165 0.32822825398 -0.086596038593 0.92784172091 0.35228841228 -0.11885077172 
0.91524237615 0.37722975875 -0.13861713151 0.90588589619 0.38511710597 -0.17495590081 0.90074147942 0.38548772671 -0.19917277277 
0.89833087892 0.38088193003 -0.21874339475 0.90121363912 0.37071136505 -0.22441532029 0.90275757107 0.37134422467 -0.21522498483 
0.89041412241 0.41178324329 -0.1882916831 0.87437224066 0.45008787807 -0.17138604367 0.84808436929 0.50507322243 -0.15835512829 
0.82717224581 0.53853670223 -0.15728146428 0.82087049465 0.54048426608 -0.18226156499 0.82536027525 0.52160148534 -0.20993818628 
0.86351463102 0.4507175951 -0.22205483195 0.88007929127 0.41342938085 -0.23234724514 0.87126324767 0.41650027841 -0.25869645868 
0.93291198217 0.16620438648 -0.31436846359 0.94121442506 0.26470536331 -0.18843505775 0.84474297567 0.43117915073 -0.30508349473 
0.84538197519 0.44909739804 -0.27791071247 0.851738929 0.4677588338 -0.23119106899 0.83609802621 0.48808931594 -0.24885533518 
0.8352339008 0.49108392161 -0.24640247712 0.85440343956 0.462294024 -0.23607560456 0.87628438628 0.42765739685 -0.21905517053 
0.89556263587 0.39562529543 -0.19797091679 0.88787055738 0.41907344045 -0.16910944665 0.88555680695 0.43211806218 -0.13963304454 
0.8650910572 0.49007664616 -0.10301068531 0.94318922571 0.30431583071 -0.13177654768 0.9378440733 0.32861834096 -0.1047980282 
0.94240577903 0.29425976421 -0.15838966969 0.93033678228 0.33317693941 -0.14254794744 0.91902773238 0.37149515714 -0.12445270972 
0.9094271469 0.40112747365 -0.085031565927 0.89318923925 0.44267751933 -0.0098316391198 0.87452060953 0.47512261003 0.082919881933 
0.86705152826 0.47623689618 0.1455069458 0.86680313102 0.45517289787 0.20181315101 0.84140797791 0.43982435847 0.30350064964 
0.82799974509 0.41671180381 0.37384784673 0.83822366262 0.38478474824 0.38517630471 0.86109665373 0.35416760231 0.36275374233 
0.88818731104 0.33306951969 0.31279872314 0.91283308823 0.31712456104 0.25000740028 0.93294280857 0.3029065029 0.18629864605 
0.94768394507 0.28361369363 0.14179204697 0.9615955288 0.254715687 0.10136110789 0.97174143002 0.21866038493 0.081421241941 
0.97757306664 0.19343950884 0.079942604893 0.97984065269 0.18051882405 0.078697293096 0.98498301215 0.16026946283 0.059787912547 
0.97453223912 0.21383339017 -0.034532547057 0.94230927932 0.30175201202 -0.13506292943 0.92050992035 0.35274119626 -0.15227915859 
0.88919429553 0.4011596645 -0.21401081987 0.97295710001 0.21706702351 -0.054782277847 0.99202527093 0.10945813679 -0.012640887862 
0.99810627586 0.037592023725 0.0086505099675 0.99809445874 0.036369208201 -0.011569396923 0.99672073171 0.047214214247 -0.048838469658 
0.99370279441 -0.015663863253 -0.070475785874 0.98846762017 -0.10849559468 -0.093174754722 0.98705109584 -0.010054603931 -0.14683194451 
0.98061945419 0.01549770303 -0.1943747195 0.97331399403 0.040119937355 -0.22329906297 0.96609078109 0.092850775376 -0.24007579642 
0.95950295731 0.11727068031 -0.25524222768 0.9503115003 0.17473779476 -0.2486249341 0.94054352005 0.24091520454 -0.23778791522 
0.93804145581 0.25164374256 -0.23620530331 0.93615950567 0.24114521595 -0.25425859875 0.93464237163 0.23046722144 -0.27048965172 
0.92434107995 0.2114697932 -0.31515558602 0.90762385683 0.19641318125 -0.36983292069 0.88569202388 0.18871835605 -0.42330751519 
0.8675419991 0.21645147759 -0.44530070842 0.84751663607 0.2297923311 -0.47544730534 0.82808922086 0.25679391326 -0.49479091562 
0.86190135247 0.28371592118 -0.41672990434 0.88846355411 0.33321342401 -0.3085618629 0.90999561558 0.34188604935 -0.23121961151 
0.91957667565 0.34885318599 -0.17845448832 0.90161220533 0.37024449664 -0.21815779891 0.9331847805 0.33446048934 -0.11635484318 
0.8879593043 0.39835422676 -0.22823863655 0.89975709643 0.42544507649 -0.073816063645 0.85362944495 0.51530122383 -0.068933164065 
0.9420127681 0.22908921333 -0.24007237216 0.94158465665 0.29486255312 -0.15239732655 0.94510795048 0.21123666415 -0.24795201259 
0.94990004194 0.21339217957 -0.22622452047 0.95493746172 0.18844167055 -0.22028534221 0.95921823846 0.14434798191 -0.23581735545 
0.9639752452 0.13572849963 -0.22535444455 0.96974122424 0.12878386965 -0.20702066215 0.97276693862 0.12844598092 -0.19238873609 
0.97594716956 0.13203933752 -0.16827037086 0.98081220786 0.10389185281 -0.16458572966 0.98017485919 0.1195163507 -0.15739559629 
0.98406905315 0.08613477843 -0.14924517272 0.98646120358 0.093816696412 -0.12929632227 0.99378094355 0.050371846019 -0.08993388833 
0.99787961478 0.0012133301222 -0.038919164932 0.9976035717 -0.031674833151 0.018895787406 0.99491531704 -0.052949015545 0.078228680686 
0.99398042793 -0.030461427581 0.10104484378 0.99302433188 -0.0018919926517 0.11585509293 0.99251219372 0.061184312512 0.068937855007 
0.99069607561 0.12361034351 0.041859265434 0.98278188946 0.16418611596 0.077414344524 0.9733418575 0.2089905988 0.083509196843 
0.95986911714 0.26149021103 0.098351100658 0.94638840739 0.30324926664 0.10684510851 0.93565424842 0.34157234316 0.064828356754 
0.93062006078 0.36512908861 -0.0076958815526 0.92282121569 0.37620805194 -0.067885092702 0.91264759456 0.39257825934 -0.1100483131 
0.90106627739 0.41613496952 -0.11931636395 0.89924584971 0.41064233392 -0.1454421961 0.90302062449 0.38675712621 -0.18539084254 
0.9067887008 0.36799107626 -0.20481275237 0.91338060845 0.35115558297 -0.20534406521 0.91765061502 0.34068703308 -0.20339841395 
0.91768072358 0.34679103663 -0.19075212162 0.90375408336 0.38195559714 -0.18169432612 0.88179260875 0.4343108732 -0.17468324407 
0.86158201963 0.46524549575 -0.18828609532 0.84498479667 0.49362127124 -0.20307331453 0.86526687538 0.45175697694 -0.21272631243 
0.84732135464 0.46412820972 -0.25203075821 0.82745720998 0.47915620343 -0.2902487712 0.85017795198 0.42984870224 -0.2978779609 
0.86567502223 0.3902523147 -0.3128691441 0.85279210312 0.38596428269 -0.35051503408 0.82731104112 0.39813019868 -0.39531267957 
0.80342997414 0.39633431366 -0.44401625262 0.78476586051 0.38589828935 -0.48275797688 0.77445187723 0.37168774316 -0.51005247159 
0.80810732227 0.33215225439 -0.48028432329 0.85439254112 0.29060309613 -0.4299360761 0.86961640725 0.26313920447 -0.41603020349 
0.89307225096 0.2435771201 -0.37134249343 0.90592114142 0.22818669707 -0.35076674771 0.91603678069 0.22372473431 -0.32152038784 
0.93035749922 0.22288182623 -0.28306519453 0.9383019131 0.24063573472 -0.23695725229 0.94301134978 0.28807995426 -0.15695578167 
0.93588052261 0.341507383 -0.063051669643 0.93012109143 0.34855090444 -0.031870265841 0.93592393736 0.32054613162 -0.11576536738 
0.92655983554 0.37336304638 -0.018634777376 0.94287439652 0.26372154909 -0.19949262704 0.88616639458 0.41550459967 -0.20379844808 
0.87457896577 0.43356665409 -0.21637650822 0.86694594298 0.4423860776 -0.22892584433 0.86972120689 0.43489505753 -0.22956647749 
0.9023432913 0.37468160897 -0.19576609954 0.92997852783 0.3212465718 -0.16298030217 0.94887528859 0.27906937932 -0.13184069421 
0.95528734787 0.27104353011 -0.11312518514 0.95348507915 0.28255241753 -0.098260785968 0.93894492767 0.33005586653 -0.088804738185 
0.90725354337 0.40212155546 -0.061388855732 0.8578527159 0.51209255501 -0.032370278622 0.88910131921 0.44782514556 -0.058411398445 
0.89652485655 0.43250769239 -0.054478184592 0.92989690617 0.35724787982 -0.083462582858 0.9352677594 0.33729424358 -0.10395789297 
0.93366849068 0.33802129198 -0.1104902804 0.9294756564 0.34507105769 -0.11675060433 0.92536979888 0.35606017181 -0.1268650793 
0.91571231156 0.38195989672 -0.085290799847 0.89598296287 0.42931695624 -0.00015002584351 0.876967451 0.47070445027 0.089547616511 
0.87203398913 0.4651468408 0.14389591183 0.87457226051 0.44967544289 0.18004065326 0.88148633382 0.39415602769 0.25272730394 
0.87812360092 0.40797444427 0.24815613578 0.89250424708 0.37652224487 0.2343567108 0.89721422204 0.35893651811 0.24002735209 
0.90212409821 0.34613185355 0.24015594015 0.92872141056 0.33979142544 0.14006875662 0.94048148297 0.31278957737 0.12583847462 
0.9461698933 0.29015762235 0.14209782261 0.95779769825 0.25038931856 0.13092144 0.98206923399 0.18280866226 0.034471901849 
0.98064881995 0.1853889537 0.044753271791 0.8843563696 0.41817227611 0.20467618206 0.89309732464 0.42004346775 0.15816761062 
0.97531256698 0.19542738413 0.088139392008 0.96679497324 0.2391164052 0.057826229537 0.926789223 0.31308245196 -0.20260797831 
0.96453639888 0.24410153767 -0.082055976424 0.90153589565 0.35684740811 -0.23907194471 0.88164961489 0.411033226 -0.22997292581 
0.88875231732 0.38098858671 -0.25310877727 0.88189096542 0.4277372346 -0.19740807362 0.94522527982 0.29705747933 -0.11871521139 
0.98455714638 0.16293880906 -0.056457209091 0.98743484725 0.14009074962 -0.066655329866 0.98237669145 0.1547254652 -0.096652683336 
0.98746271824 0.0089264943698 -0.10547775698 0.98855285645 -0.013566521397 -0.13709584992 0.98432909865 0.010769317559 -0.17418466083 
0.97912329675 0.029553005695 -0.1982641725 0.97318878274 0.066386729174 -0.21554106808 0.966894234 0.11739765431 -0.22428620519 
0.95780779589 0.1870374466 -0.20540126233 0.94598833691 0.27072543443 -0.17714716477 0.94372811091 0.27292467776 -0.18581574446 
0.94171688091 0.26265471791 -0.20587778421 0.94185396283 0.22931840979 -0.24430262184 0.93341717615 0.2152573964 -0.28418025024 
0.91996854343 0.21395244429 -0.32494054622 0.90100065474 0.23381855039 -0.36449600291 0.8906024518 0.28832419234 -0.3494911262 
0.87398014669 0.29249023069 -0.3862119405 0.90694713255 0.32810945214 -0.25232997029 0.92671619941 0.34192136883 -0.15186786904 
0.94283253281 0.32070458484 -0.073381061866 0.96165457515 0.26621664686 -0.0021213739206 0.9536794844 0.28556411695 -0.083106753532 
0.97791530695 0.2024387058 0.024159494713 0.91028218558 0.37109501808 -0.18188573338 0.94385593508 0.25941694337 -0.20141982827 
0.94522333263 0.25454445319 -0.2028328598 0.94901682246 0.24874630966 -0.19303719167 0.95355991773 0.23120269049 -0.19057925543 
0.95625854926 0.21145601549 -0.19784691393 0.96262916151 0.18310025141 -0.19208386091 0.96512921996 0.18773523443 -0.17601979481 
0.96858098845 0.19347846652 -0.15294302874 0.97667638876 0.16766795338 -0.13372996354 0.9786893851 0.16506952871 -0.11855446807 
0.98161858852 0.15678986062 -0.10653158949 0.98501572801 0.14588386457 -0.090014688506 0.99099671829 0.1137305735 -0.061873841551 
0.99893335323 -0.0010292721154 0.0045156816543 0.99957908128 -0.017940194071 -0.0023397559494 0.99928628419 -0.0097678659034 0.035141808544 
0.99920894126 0.0053871741348 0.036223183354 0.99858041484 0.016484874306 0.047125216183 0.99666150348 0.059954640285 0.041349624479 
0.99203088729 0.10414888041 0.054245227731 0.98356513325 0.1474044079 0.093689064311 0.97105624703 0.20432153513 0.11050778014 
0.9565439817 0.26827669613 0.11173842585 0.94337336604 0.31577010702 0.096792305141 0.92717298239 0.36824674921 0.039234010964 
0.92085149944 0.38632624268 -0.041343156736 0.91639558412 0.39172739448 -0.077646140153 0.91412077536 0.39185359392 -0.10244179652 
0.91306866399 0.38848141397 -0.12348722799 0.91284697523 0.36939122835 -0.16204705169 0.91678666254 0.34366084294 -0.20104070443 
0.92385629244 0.31698730092 -0.21424193149 0.92808947196 0.32546385499 -0.17902035353 0.92332812303 0.34641839316 -0.16548737135 
0.92706261035 0.3319134034 -0.17361350031 0.9374887176 0.30023175607 -0.17351129806 0.93844976383 0.29950946415 -0.17048882544 
0.9033676463 0.38384616821 -0.17949810736 0.83743740331 0.49133530618 -0.20867972811 0.8125417088 0.52843735595 -0.23595542117 
0.77885298904 0.56197281553 -0.27682938087 0.7816005958 0.53985816358 -0.30531951383 0.84206808007 0.43988919495 -0.3046037504 
0.85580054198 0.39619546728 -0.33031302688 0.84509643681 0.38594405454 -0.36920542553 0.81972049121 0.3915698069 -0.41378725262 
0.84002794488 0.34650316836 -0.40776000715 0.86036668433 0.31967380605 -0.39254905058 0.85890059154 0.32505195631 -0.38701827605 
0.86517191063 0.32342999301 -0.37108072511 0.89302009368 0.29697060123 -0.33431596823 0.91385783918 0.2851716346 -0.26577058365 
0.93770283878 0.26923712839 -0.20946152862 0.94217349302 0.27893900785 -0.12202155711 0.94922299613 0.2817703433 -0.066056505241 
0.94354844616 0.30347178045 -0.049692567806 0.9402873835 0.32828956089 -0.006931659813 0.93712803372 0.34655941891 0.011067253842 
0.92912979037 0.36461739686 0.036513544344 0.93106935908 0.36362597209 0.018840108344 0.93341806774 0.35783547016 -0.01378763705 
0.92719895647 0.37218188733 -0.039683691288 0.92946185779 0.36791681871 -0.0061435479982 0.93395899207 0.33795859486 -0.094089575354 
0.99762101591 0.030979057096 -0.018084980573 0.9940025377 0.10158297011 -0.037592784562 0.92130299839 0.33387582063 -0.14741008442 
0.92416505916 0.34378798297 -0.15068014635 0.97521895775 0.14524794585 -0.14666241727 0.96182757248 0.21760401985 -0.14337442805 
0.97963275836 0.12145352712 -0.15239828758 0.9750667014 0.13589337172 -0.16170336086 0.97348039704 0.12684240694 -0.18284874725 
0.97045810112 0.13619213561 -0.19535819782 0.9650602162 0.16978066662 -0.19598223364 0.95793845257 0.2162033947 -0.18732325705 
0.9513672151 0.24333925285 -0.18796506842 0.94711075947 0.2528997502 -0.19686562346 0.94340741102 0.2566979903 -0.2093439665 
0.93732351695 0.25433497698 -0.23692399032 0.9294213859 0.26586386508 -0.25472559446 0.92098922179 0.30097554582 -0.24612587441 
0.91369333341 0.33121138308 -0.23308009983 0.91090334179 0.34459693157 -0.22288772934 0.91595868041 0.36013565798 -0.17627558496 
0.92113722702 0.3527630563 -0.16228251398 0.9285086791 0.33220393014 -0.15667718808 0.93679126957 0.30593621349 -0.15116421755 
0.96113267986 0.24657596332 -0.11788546178 0.96972339488 0.22310028856 -0.096151221991 0.97062401658 0.225629153 -0.083125124716 
0.96595000851 0.24549491708 -0.079481676398 0.96121459517 0.26630613036 -0.070974446939 0.94962499605 0.30307591983 -0.069803630408 
0.93829475286 0.33863744615 -0.069572185948 0.95214289747 0.2929026583 -0.074694191127 0.91294762754 0.38504017587 -0.056535305313 
0.9675560785 0.22776637684 -0.10389156647 0.84747436382 0.52938832056 -0.012564522353 0.8736738119 0.47789740123 -0.020271411541 
0.92429028136 0.3754732667 -0.056799329837 0.92565512251 0.3681082063 -0.063589878426 0.91961352892 0.38439733538 -0.057858995531 
0.92190375634 0.37890734361 -0.076552797361 0.89996842156 0.4295678597 0.0047527408166 0.8890968459 0.45362534164 0.055627507092 
0.88818245546 0.44773596436 0.089799891831 0.88520494937 0.44513296018 0.12910000623 0.89410459672 0.42778615938 0.12555359236 
0.91624250776 0.38493940873 0.10716658005 0.92190688255 0.38278360535 0.054727887821 0.91760613816 0.37514890742 0.088435078976 
0.92265953765 0.37299852103 0.083333682504 0.92402028841 0.37131363819 0.088702157212 0.92740911968 0.36086627707 0.089212365466 
0.92871025643 0.35200212617 0.10612168607 0.91563368758 0.30748792921 -0.25654134666 0.94948331654 0.25266913018 -0.17659105594 
0.89380508309 0.34475076054 -0.28330040422 0.84578990303 0.46385596506 -0.25867714418 0.86936008034 0.407211366 -0.27760198026 
0.87431523318 0.44167577257 -0.19977771413 0.93928375068 0.31603827444 -0.1216202479 0.9445204355 0.29191019637 -0.14772157809 
0.94801688674 0.27569139947 -0.15826828459 0.94950966643 0.26987090805 -0.15767000833 0.94811539652 0.27870396334 -0.14673337183 
0.95037661544 0.27688517451 -0.13466932859 0.95474548993 0.26766156488 -0.11636633218 0.98719105049 0.11701839326 -0.083597232355 
0.99079851572 0.10535134259 -0.067700625754 0.98441241355 0.16303033592 -0.060982776658 0.98717109228 0.1506110586 -0.043855739663 
0.99924366014 0.0069220722441 0.0047529516374 0.99887400188 0.035638433233 -0.020032127637 0.99940334168 -0.0048242544906 0.01958909549 
0.99963235804 0.017933128564 0.01090336852 0.99699786028 0.056917308803 -0.00059476089014 0.99548572428 0.078241059398 0.019855002722 
0.99207283417 0.09717227417 0.063022260082 0.98261319407 0.14637086134 0.10088945003 0.97019086642 0.21201757627 0.10664169224 
0.95354581434 0.28090010151 0.098548312604 0.94258951251 0.31879866338 0.073948053816 0.93455484652 0.35063514225 -0.011221041752 
0.92323494345 0.35463666922 -0.13859362505 0.91778895539 0.36954371302 -0.13901451549 0.92680799969 0.34208095518 -0.15066601154 
0.92821805759 0.3232931799 -0.18233080369 0.92974368854 0.30592318509 -0.20325855733 0.93229291257 0.28558441498 -0.2208218001 
0.93494443969 0.29189661301 -0.19952460677 0.93588020126 0.30999587652 -0.16667437563 0.92289280922 0.36052774832 -0.13456888958 
0.92334913913 0.35668307119 -0.1417130697 0.9328250772 0.32774810407 -0.14286961375 0.94036723025 0.30084590893 -0.15475966614 
0.90661809042 0.38366830349 -0.16549922239 0.84728922288 0.47585950816 -0.19653547649 0.74912451361 0.6018971168 -0.24902874913 
0.78391685323 0.56041843462 -0.26105104551 0.91902588977 0.36965283864 -0.12686278557 0.91741890065 0.36793503695 -0.14979844948 
0.93911076504 0.3071972778 -0.14229410048 0.89571390063 0.40810697641 -0.17058600992 0.92645105032 0.34991898905 -0.13450823771 
0.93599765365 0.32282964638 -0.13584986624 0.86510892229 0.38859031588 -0.31426497609 0.86754563683 0.36436900555 -0.33554269572 
0.89707423624 0.30705533008 -0.30727046093 0.93630379234 0.23723332624 -0.2575833636 0.9409142201 0.24703179146 -0.22723250991 
0.93445120253 0.27199703158 -0.22301304328 0.92088279444 0.30065372507 -0.24108558677 0.92263684323 0.3071694548 -0.23095928315 
0.93763594622 0.29895300833 -0.16681489985 0.94999968656 0.29287642659 -0.10430613821 0.9500687666 0.30216787615 -0.021703837374 
0.94791704621 0.31120369416 0.058319395558 0.94152577457 0.32839905771 0.070740276252 0.93510299214 0.34446637224 0.07971837247 
0.9322848106 0.35238895358 0.066938050599 0.93395168655 0.35065058288 0.056528191371 0.94048554375 0.33825956282 -0.011526397181 
0.93502981745 0.35314807957 0.010965243187 0.91810675444 0.39461473755 0.017298390628 0.94195098397 0.31859707442 0.099738411891 
0.93590749876 0.34555272189 0.049060428597 0.94560473743 0.29988258445 0.12384914912 0.95156254057 0.28878673499 0.097946663223 
0.95279079771 0.29222371255 0.0045285942831 0.95622319524 0.26651399337 -0.10629889554 0.94548409167 0.29402124914 -0.13419545518 
0.95310399122 0.2545047398 -0.12082731001 0.99539150673 0.073542462379 -0.037223488235 0.99680699984 0.054137560627 -0.026991683626 
0.99285243276 0.10559908885 -0.03917106067 0.99343801535 0.10307792295 0.0038071020825 0.99125757395 0.11382790489 0.049044092752 
0.98231506809 0.14921004632 0.096799133772 0.96885460822 0.21477810223 0.099980206879 0.94292839894 0.3229123128 -0.025273822035 
0.92664232525 0.35219594061 -0.12605526457 0.9378884843 0.3139784128 -0.14446574195 0.94071258174 0.31609999759 -0.11740131979 
0.94448090557 0.31736618144 -0.080160014393 0.94536597739 0.31993720892 -0.023558648412 0.94600504523 0.32262427776 0.02805755473 
0.93986101559 0.3354612813 0.056871492683 0.93375016325 0.34843792793 0.081580866645 0.94638969044 0.3200471257 -0.035498229838 
0.93240582188 0.3577820318 0.027759838024 0.93761849414 0.34599490096 0.010312932051 0.94055025692 0.33925304518 -0.010114707605 
0.93847159969 0.34429435052 -0.022221527176 0.93568614682 0.35103807778 -0.015875398099 0.93399164867 0.35549063372 0.015369406602 
0.92237608678 0.38289925579 -0.03153684194 0.91871174085 0.38996210158 -0.04216873313 0.91916164318 0.38610281274 -0.05735857593 
0.91879689216 0.38427083993 -0.073405155289 0.91806956726 0.38345706814 -0.077119540245 0.92606530497 0.36348105032 -0.088539744473 
0.92048312254 0.38197727913 -0.073762202239 0.8922961022 0.45095649207 0.010612333312 0.8893925256 0.45299114027 0.046241839488 
0.88593285752 0.45572927679 0.084861815474 0.89899332875 0.42544978402 0.060440317437 0.86932496664 0.49189590634 -0.02329160653 
0.87415310695 0.48232411962 -0.01035052889 0.89025393352 0.45500489606 -0.0083250248228 0.90350095838 0.42545656258 -0.012804906392 
0.93981832635 0.34052817509 -0.016140023965 0.93897710343 0.34003722854 -0.036282398508 0.93884120535 0.33377747486 -0.077315357345 
0.93861391936 0.33475008554 -0.07469534652 0.93855400395 0.34050453084 -0.044332784587 0.94129689198 0.33081846891 0.00041365555076 
0.94637656849 0.31166332981 0.051604427198 0.94597217493 0.3187311595 -0.047342342357 0.97019547097 0.22828124707 -0.079872803244 
0.96700788324 0.23797871577 -0.067879509325 0.96434608538 0.24732789926 -0.059068961761 0.96333012978 0.2537177515 -0.064779867084 
0.99614670604 0.075950465557 -0.035354078293 0.98455114425 0.15106995452 -0.057725790665 0.97265001949 0.2140834123 -0.062070348526 
0.97083201949 0.21303759789 -0.099041935153 0.97015892369 0.2063753181 -0.12613125842 0.97511794647 0.19392047016 -0.10458766391 
0.97945626899 0.18065196154 -0.089300352918 0.9948955858 0.086866492211 -0.048550646366 0.96506051626 0.24955825294 -0.074927109994 
0.91734188147 0.35246573996 -0.18362829095 0.91909303862 0.3423078842 -0.19498030024 0.9241452981 0.33285029177 -0.18726031221 
0.92930452763 0.31827020822 -0.1866689673 0.9337909503 0.3023244872 -0.19099582135 0.93828425382 0.28023386317 -0.20080667757 
0.94321337738 0.25367966568 -0.21356606763 0.94249161534 0.27102805407 -0.1919878933 0.94230445187 0.2923346539 -0.16086523401 
0.94752007822 0.28116592314 -0.14919288196 0.94235013411 0.30659957205 -0.1321117534 0.95427800822 0.24803788653 -0.16428680023 
0.93351862851 0.33653854633 -0.12211772368 0.93108615036 0.34069592086 -0.12934421431 0.93045101156 0.33956271128 -0.13759532777 
0.93549504639 0.32468748092 -0.1372251474 0.9351767049 0.32027953882 -0.14257482693 0.89656352353 0.40646956845 -0.16150085886 
0.87216986359 0.45277821965 -0.18026979593 0.84829439323 0.48686332868 -0.20218223827 0.85188355931 0.47261467984 -0.21632816583 
0.88109221396 0.43687749536 -0.172411122 0.90747581638 0.38602994442 -0.15592953482 0.93924742 0.30708272849 -0.14288791337 
0.95799375409 0.24826182827 -0.14056536552 0.95578139281 0.25677853308 -0.13625545628 0.95312425749 0.26824478223 -0.13423849125 
0.95433228977 0.2531644181 -0.14667713238 0.9577302298 0.23374659562 -0.15751519453 0.95184201827 0.25342238056 -0.17157104763 
0.95437208777 0.23717796301 -0.18068418642 0.94895287359 0.25441203484 -0.18314588041 0.94654634137 0.2278527725 -0.22610318353 
0.93822274686 0.26586686328 -0.21398557519 0.93406820659 0.29790165228 -0.19528321336 0.92422923971 0.32688477261 -0.19553726889 
0.91901673549 0.34528781561 -0.18949515664 0.98834770551 0.14885569232 0.020527976922 0.93923996102 0.27436774893 -0.20495104173 
0.94302314974 0.26339555894 -0.20303510565 0.94570307839 0.26109180401 -0.19332830082 0.94765086437 0.26044565265 -0.183370505 
0.94807882718 0.26623063643 -0.17069694999 0.9378414383 0.32314449739 -0.12355647899 0.93990829677 0.31749982832 -0.12434354305 
0.94232957453 0.30728904562 -0.13001740797 0.94673122378 0.29133694247 -0.13570773005 0.908959936 0.41209178276 -0.049552065983 
0.90073447483 0.43242776029 -0.033000558716 0.91135062373 0.41091292226 -0.016599151328 0.90308630871 0.42933160463 -0.0086760943205 
0.91778559468 0.39613297193 -0.021401786067 0.94193570886 0.327797273 -0.069935031137 0.93953145598 0.33195209029 -0.08276950612 
0.94147286821 0.33134163053 -0.050929744168 0.9429712893 0.33240008585 -0.016960087066 0.9462552168 0.3213323389 -0.032668601508 
0.95611188008 0.24345405711 -0.15888262739 0.94862361936 0.2826720197 -0.13908352366 0.94420733979 0.30133475153 -0.12991086646 
0.99159870244 0.11162603749 -0.05261096958 0.99326859856 0.10073120978 -0.050339043993 0.98384030876 0.14313837688 -0.08284124108 
0.98820998535 0.13102185303 -0.058596527647 0.99128185133 0.12442950197 -0.02027816888 0.9918949236 0.1213952424 0.0054919400817 
0.8898862943 0.4556521273 -0.0058881839608 0.89003862387 0.36107304532 -0.27536268865 0.97958463418 0.1822830156 -0.05504455649 

Motion 1 1116 double
0 0 0 0 0 0 0 0 0 
0 0 0 0 0 0 0 0 0 
0 0 0 0 0 0 0 0 0 
0 0 0 0 0 0 0 0 0 
0 0 0 0 0 0 0 0 0 
0 0 0 0 0 0 0 0 0 
0 0 0 0 0 0 0 0 0 
0 0 0 0 0 0 0 0 0 
0 0 0 0 0 0 0 0 0 
0 0 0 0 0 0 0 0 0 
0 0 0 0 0 0 0 0 0 
0 0 0 0 0 0 0 0 0 
0 0 0 0 0 0 0 0 0 
0 0 0 0 0 0 0 0 0 
0 0 0 0 0 0 0 0 0 
0 0 0 0 0 0 0 0 0 
0 0 0 0 0 0 0 0 0 
0 0 0 0 0 0 0 0 0 
0 0 0 0 0 0 0 0 0 
0 0 0 0 0 0 0 0 0 
0 0 0 0 0 0 0 0 0 
0 0 0 0 0 0 0 0 0 
0 0 0 0 0 0 0 0 0 
0 0 0 0 0 0 0 0 0 
0 0 0 0 0 0 0 0 0 
0 0 0 0 0 0 0 0 0 
0 0 0 0 0 0 0 0 0 
0 0 0 0 0 0 0 0 0 
0 0 0 0 0 0 0 0 0 
0 0 0 0 0 0 0 0 0 
0 0 0 0 0 0 0 0 0 
0 0 0 0 0 0 0 0 0 
0 0 0 0 0 0 0 0 0 
0 0 0 0 0 0 0 0 0 
0 0 0 0 0 0 0 0 0 
0 0 0 0 0 0 0 0 0 
0 0 0 0 0 0 0 0 0 
0 0 0 0 0 0 0 0 0 
0 0 0 0 0 0 0 0 0 
0 0 0 0 0 0 0 0 0 
0 0 0 0 0 0 0 0 0 
0 0 0 0 0 0 0 0 0 
0 0 0 0 0 0 0 0 0 
0 0 0 0 0 0 0 0 0 
0 0 0 0 0 0 0 0 0 
0 0 0 0 0 0 0 0 0 
0 0 0 0 0 0 0 0 0 
0 0 0 0 0 0 0 0 0 
0 0 0 0 0 0 0 0 0 
0 0 0 0 0 0 0 0 0 
0 0 0 0 0 0 0 0 0 
0 0 0 0 0 0 0 0 0 
0 0 0 0 0 0 0 0 0 
0 0 0 0 0 0 0 0 0 
0 0 0 0 0 0 0 0 0 
0 0 0 0 0 0 0 0 0 
0 0 0 0 0 0 0 0 0 
0 0 0 0 0 0 0 0 0 
0 0 0 0 0 0 0 0 0 
0 0 0 0 0 0 0 0 0 
0 0 0 0 0 0 0 0 0 
0 0 0 0 0 0 0 0 0 
0 0 0 0 0 0 0 0 0 
0 0 0 0 0 0 0 0 0 
0 0 0 0 0 0 0 0 0 
0 0 0 0 0 0 0 0 0 
0 0 0 0 0 0 0 0 0 
0 0 0 0 0 0 0 0 0 
0 0 0 0 0 0 0 0 0 
0 0 0 0 0 0 0 0 0 
0 0 0 0 0 0 0 0 0 
0 0 0 0 0 0 0 0 0 
0 0 0 0 0 0 0 0 0 
0 0 0 0 0 0 0 0 0 
0 0 0 0 0 0 0 0 0 
0 0 0 0 0 0 0 0 0 
0 0 0 0 0 0 0 0 0 
0 0 0 0 0 0 0 0 0 
0 0 0 0 0 0 0 0 0 
0 0 0 0 0 0 0 0 0 
0 0 0 0 0 0 0 0 0 
0 0 0 0 0 0 0 0 0 
0 0 0 0 0 0 0 0 0 
0 0 0 0 0 0 0 0 0 
0 0 0 0 0 0 0 0 0 
0 0 0 0 0 0 0 0 0 
0 0 0 0 0 0 0 0 0 
0 0 0 0 0 0 0 0 0 
0 0 0 0 0 0 0 0 0 
0 0 0 0 0 0 0 0 0 
0 0 0 0 0 0 0 0 0 
0 0 0 0 0 0 0 0 0 
0 0 0 0 0 0 0 0 0 
0 0 0 0 0 0 0 0 0 
0 0 0 0 0 0 0 0 0 
0 0 0 0 0 0 0 0 0 
0 0 0 0 0 0 0 0 0 
0 0 0 0 0 0 0 0 0 
0 0 0 0 0 0 0 0 0 
0 0 0 0 0 0 0 0 0 
0 0 0 0 0 0 0 0 0 
0 0 0 0 0 0 0 0 0 
0 0 0 0 0 0 0 0 0 
0 0 0 0 0 0 0 0 0 
0 0 0 0 0 0 0 0 0 
0 0 0 0 0 0 0 0 0 
0 0 0 0 0 0 0 0 0 
0 0 0 0 0 0 0 0 0 
0 0 0 0 0 0 0 0 0 
0 0 0 0 0 0 0 0 0 
0 0 0 0 0 0 0 0 0 
0 0 0 0 0 0 0 0 0 
0 0 0 0 0 0 0 0 0 
0 0 0 0 0 0 0 0 0 
0 0 0 0 0 0 0 0 0 
0 0 0 0 0 0 0 0 0 
0 0 0 0 0 0 0 0 0 
0 0 0 0 0 0 0 0 0 
0 0 0 0 0 0 0 0 0 
0 0 0 0 0 0 0 0 0 
0 0 0 0 0 0 0 0 0 
0 0 0 0 0 0 0 0 0 
0 0 0 0 0 0 0 0 0 
0 0 0 0 0 0 0 0 0 

Normal 3 1116 float
-0.236738 0.965547 -0.0195108 -0.225269 0.941055 0.182692 -0.237366 0.945011 0.185936 
-0.226348 0.97152 0.0243656 -0.226018 0.902222 0.364897 -0.283131 0.897578 0.324402 
-0.230717 0.861712 0.446681 -0.31984 0.838879 0.433219 -0.218116 0.825316 0.518008 
-0.319552 0.792914 0.514018 -0.188705 0.792915 0.579176 -0.311764 0.747629 0.584526 
-0.208311 0.736834 0.640222 -0.299898 0.704702 0.641012 -0.201905 0.67159 0.708593 
-0.266182 0.639767 0.714723 -0.164808 0.596817 0.785177 -0.203917 0.53528 0.813755 
-0.0410419 0.418163 0.892757 -0.083638 0.351998 0.926021 0.0372721 0.282518 0.955209 
-0.0423275 0.231872 0.969348 0.0768768 0.187682 0.979188 -0.0390133 0.174531 0.982341 
0.0990012 0.174084 0.979594 -0.074597 0.159634 0.982228 0.0886876 0.137419 0.985437 
-0.0963512 0.100535 0.98741 0.0617117 0.0907008 0.993738 -0.125743 0.0333797 0.991281 
0.113951 0.126091 0.983919 -0.0967504 -0.0113009 0.994079 0.161146 0.110262 0.976261 
-0.0426417 -0.0723868 0.993161 0.196827 -0.0224781 0.973538 0.0502707 -0.152353 0.981248 
0.242852 -0.171608 0.943647 0.149544 -0.251747 0.947326 0.300371 -0.338951 0.883569 
0.255879 -0.376789 0.882308 0.331834 -0.455578 0.819989 0.306215 -0.472843 0.822048 
0.352674 -0.551955 0.755396 0.322156 -0.553332 0.766655 0.349701 -0.616592 0.701701 
0.300186 -0.630643 0.710263 0.346634 -0.686692 0.633212 0.303837 -0.704389 0.632715 
0.343337 -0.769958 0.529069 0.29529 -0.788035 0.533749 0.341504 -0.845451 0.38567 
0.258333 -0.868776 0.397281 0.340253 -0.914968 0.214808 0.215821 -0.945581 0.22222 
0.308611 -0.938869 0.00874143 0.178892 -0.976663 0.00637733 0.248553 -0.953558 -0.143314 
0.186779 -0.963358 -0.165155 0.157725 -0.958272 -0.236881 0.202739 -0.93721 -0.282233 
0.162009 -0.943857 -0.285773 0.218998 -0.917436 -0.32958 0.185858 -0.911833 -0.357285 
0.217471 -0.897413 -0.381123 0.223126 -0.862592 -0.452971 0.192187 -0.875996 -0.441408 
0.168564 -0.798775 -0.568686 0.125103 -0.829916 -0.536094 0.0988598 -0.732557 -0.666443 
0.048561 -0.771793 -0.627821 0.0151774 -0.664265 -0.747299 -0.036807 -0.702576 -0.708884 
-0.0608404 -0.624263 -0.775896 -0.0803253 -0.647926 -0.755244 -0.12911 -0.57675 -0.804339 
-0.12122 -0.597551 -0.791031 -0.187687 -0.519839 -0.832587 -0.178341 -0.545454 -0.817727 
-0.24403 -0.445808 -0.858024 -0.24245 -0.481568 -0.83911 -0.297466 -0.363369 -0.880357 
-0.312159 -0.412832 -0.85327 -0.346022 -0.269659 -0.89759 -0.406799 -0.335074 -0.848484 
-0.382974 -0.228952 -0.894274 -0.489332 -0.288933 -0.8197 -0.405523 -0.168381 -0.896133 
-0.564367 -0.230556 -0.789506 -0.411556 -0.0725945 -0.908381 -0.626229 -0.126685 -0.768736 
-0.434492 0.11262 -0.885232 -0.6732 0.0334937 -0.729652 -0.448377 0.295784 -0.832502 
-0.706797 0.197997 -0.664334 -0.446802 0.468329 -0.758544 -0.721144 0.34773 -0.585831 
-0.401736 0.600037 -0.68416 -0.723063 0.445518 -0.516492 -0.356113 0.685696 -0.631117 
-0.706047 0.514477 -0.475641 -0.310174 0.745349 -0.590125 -0.690878 0.565359 -0.448573 
-0.345074 0.759469 -0.549748 -0.634144 0.630762 -0.439723 -0.391712 0.770476 -0.499013 
-0.583702 0.693211 -0.417706 -0.457999 0.776272 -0.43094 -0.510175 0.777912 -0.364775 
-0.400721 0.835882 -0.363079 -0.420174 0.857044 -0.287041 -0.319749 0.903034 -0.243162 
-0.325689 0.921061 -0.156819 0.43815 -0.890494 0.118401 0.465399 -0.842762 0.248082 
0.436703 -0.848115 0.285649 0.492706 -0.85488 0.147615 0.484967 -0.781922 0.378144 
0.38586 -0.815995 0.419669 0.489992 -0.70693 0.504237 0.373491 -0.749005 0.54104 
0.430198 -0.664283 0.601871 0.356949 -0.684568 0.629767 0.356384 -0.629146 0.690205 
0.339876 -0.62301 0.703973 0.307209 -0.589229 0.743433 0.306374 -0.576653 0.75458 
0.268868 -0.532369 0.798476 0.270485 -0.526494 0.80433 0.270779 -0.412549 0.860258 
0.219497 -0.448587 0.860866 0.272546 -0.29598 0.912586 0.18514 -0.355813 0.914928 
0.27389 -0.188963 0.937127 0.214321 -0.245769 0.940208 0.278258 -0.0978642 0.954969 
0.24081 -0.155826 0.957076 0.290895 -0.0503048 0.954487 0.320185 -0.0864904 0.939514 
0.297036 0.00204497 0.953844 0.372727 -0.0146327 0.925827 0.293922 0.0612183 0.952971 
0.388875 0.0606127 0.916786 0.283735 0.18839 0.929981 0.387826 0.181639 0.894863 
0.269831 0.351293 0.895369 0.377535 0.339176 0.859503 0.230045 0.526427 0.800134 
0.315191 0.521694 0.771748 0.17772 0.680454 0.704851 0.240986 0.690296 0.67681 
0.0934577 0.773226 0.617577 0.169152 0.785715 0.585619 0.0502328 0.850191 0.51334 
0.117581 0.857421 0.491056 0.0352146 0.916289 0.397443 0.0795432 0.91749 0.386006 
-0.0116709 0.942109 0.328277 0.00456957 0.951075 0.297776 -0.0481467 0.966698 0.230548 
-0.0619583 0.969435 0.230228 -0.0638101 0.992249 0.0788773 -0.0827545 0.986549 0.124647 
-0.076136 0.996314 0.0143823 -0.0643807 0.995504 0.0267795 -0.10929 0.992635 -0.0231536 
-0.0352084 0.997248 -0.0486501 -0.183432 0.981874 -0.0404738 -0.0555625 0.995453 -0.0587015 
-0.148943 0.979975 -0.114958 -0.0965378 0.984978 -0.129312 -0.150671 0.954417 -0.227814 
-0.13209 0.954356 -0.243417 -0.210594 0.897746 -0.38319 -0.164571 0.905268 -0.387436 
-0.182188 0.812177 -0.538387 -0.142859 0.840457 -0.512695 -0.114288 0.757878 -0.63769 
-0.111405 0.790469 -0.601094 -0.00352965 0.746233 -0.665325 -0.0591111 0.785164 -0.616157 
0.0205989 0.806714 -0.586432 -0.0170449 0.826227 -0.560217 0.000286999 0.833775 -0.550574 
-0.00516442 0.831211 -0.554104 -0.0552556 0.831457 -0.552835 -0.0182293 0.805459 -0.590326 
-0.0943807 0.686451 -0.70188 -0.0732906 0.659496 -0.727116 -0.12774 0.502792 -0.836724 
-0.129859 0.473213 -0.85915 -0.15214 0.259066 -0.949497 -0.14429 0.248099 -0.951032 
-0.123118 0.129182 -0.979952 -0.150596 0.106538 -0.979112 -0.118075 0.0330422 -0.991176 
-0.153737 0.0172672 -0.987138 -0.144185 -0.0377553 -0.988464 -0.157196 -0.0338231 -0.986679 
-0.10497 -0.180357 -0.972708 -0.147921 -0.142633 -0.975857 -0.058185 -0.342673 -0.926563 
-0.119871 -0.317011 -0.934037 -0.00376333 -0.518675 -0.853627 -0.0880543 -0.490361 -0.864661 
0.0760423 -0.641222 -0.75331 -0.0252362 -0.606411 -0.78846 0.157023 -0.70278 -0.690765 
0.0685428 -0.701781 -0.70799 0.239056 -0.709818 -0.661987 0.127318 -0.740036 -0.659478 
0.288407 -0.744137 -0.598177 0.16283 -0.777943 -0.603164 0.326981 -0.782863 -0.525391 
0.201462 -0.81405 -0.543248 0.344715 -0.827622 -0.436648 0.275021 -0.833131 -0.473007 
0.349355 -0.858277 -0.373844 0.360261 -0.833628 -0.416328 0.344394 -0.878593 -0.330061 
0.453385 -0.805377 -0.377325 0.384562 -0.884042 -0.252428 0.523617 -0.789737 -0.303747 
0.426839 -0.887683 -0.167273 0.556617 -0.792369 -0.230354 0.433585 -0.895656 -0.0694449 
0.591009 -0.794838 -0.0665904 0.437182 -0.896183 0.0256278 0.559409 -0.821097 0.0712021 
-0.310366 0.903082 0.278939 -0.249104 0.951095 0.152148 -0.347894 0.846756 0.395696 
-0.38721 0.764312 0.512833 -0.374501 0.703418 0.602019 -0.343581 0.655943 0.670447 
-0.280597 0.565267 0.764726 -0.210383 0.427095 0.876121 -0.204183 0.289354 0.929729 
-0.252577 0.191543 0.944113 -0.321032 0.121025 0.93846 -0.291026 0.0707179 0.952653 
-0.247983 0.0198865 0.966315 -0.206115 -0.0314961 0.975793 -0.13193 -0.0919265 0.983351 
-0.0597283 -0.164899 0.982159 0.0525416 -0.253564 0.958464 0.136852 -0.3586 0.920486 
0.159308 -0.453823 0.871584 0.1399 -0.526903 0.832146 0.0809554 -0.585323 0.802186 
-0.0198575 -0.660105 0.747529 0.058952 -0.739966 0.661324 0.0912171 -0.823138 0.554157 
0.100037 -0.902064 0.401838 0.0822941 -0.967559 0.197768 0.0755787 -0.988952 -0.0296443 
0.0724947 -0.974547 -0.190701 0.0920798 -0.948308 -0.293504 0.125723 -0.931552 -0.335906 
0.147199 -0.912668 -0.378698 0.12264 -0.886663 -0.443295 0.0851186 -0.841213 -0.527448 
0.0112504 -0.783361 -0.618403 -0.0625831 -0.725667 -0.681771 -0.139744 -0.660705 -0.735902 
-0.174974 -0.613798 -0.769189 -0.229863 -0.571425 -0.785965 -0.287393 -0.51723 -0.805248 
-0.37718 -0.447673 -0.809416 -0.460908 -0.399017 -0.790424 -0.530473 -0.347482 -0.772174 
-0.592234 -0.278427 -0.752762 -0.656311 -0.167733 -0.732974 -0.733317 0.0477666 -0.672031 
-0.77256 0.214371 -0.587203 -0.789611 0.35418 -0.497835 -0.772697 0.446522 -0.445417 
-0.74994 0.519178 -0.406284 -0.720513 0.579135 -0.379177 -0.685111 0.6423 -0.337093 
-0.603101 0.732834 -0.303513 -0.502189 0.821893 -0.252385 -0.371291 0.901547 -0.198187 
-0.25122 0.961101 -0.0756893 -0.224177 0.972384 0.0578536 0.477813 -0.789682 0.379315 
0.525866 -0.797462 0.285924 0.452005 -0.751344 0.477695 0.424321 -0.669102 0.602163 
0.375928 -0.599372 0.705697 0.332281 -0.545737 0.766714 0.27718 -0.486024 0.827399 
0.249037 -0.431476 0.864678 0.241616 -0.374808 0.892924 0.241849 -0.309273 0.917159 
0.272887 -0.246583 0.926152 0.374219 -0.176752 0.90657 0.461929 -0.0999439 0.873999 
0.534281 -0.00350067 0.841936 0.560759 0.130426 0.809188 0.551354 0.2851 0.779332 
0.483587 0.481645 0.718607 0.353989 0.685991 0.62504 0.242007 0.799209 0.544762 
0.16316 0.867003 0.465771 0.0911243 0.928847 0.353804 0.0446463 0.961968 0.261171 
-0.00752019 0.980419 0.191279 -0.0551266 0.987837 0.142615 -0.0395638 0.995696 0.0570814 
-0.00963021 0.998668 -0.00912413 0.0221254 0.996165 -0.0834749 -0.00701133 0.987448 -0.149585 
-0.0508299 0.961788 -0.25989 -0.0756096 0.919611 -0.379576 -0.0780914 0.860985 -0.497134 
-0.0664771 0.81838 -0.569207 -0.0346072 0.811781 -0.579913 0.031792 0.845757 -0.53066 
0.0767319 0.846147 -0.525776 0.0979506 0.812023 -0.572132 0.067179 0.688362 -0.711771 
0.0164736 0.487689 -0.856993 -0.0460625 0.259335 -0.960751 -0.0773397 0.0853868 -0.991639 
-0.0713075 0.00811663 -0.996414 -0.0892426 -0.0613977 -0.993593 -0.0861667 -0.209758 -0.966036 
-0.070729 -0.363883 -0.923771 -0.0401776 -0.491792 -0.866341 0.00030111 -0.593164 -0.800654 
0.046798 -0.673062 -0.7359 0.096374 -0.724811 -0.68068 0.137387 -0.761596 -0.63197 
0.190822 -0.79147 -0.579331 0.266305 -0.803443 -0.526981 0.348063 -0.799457 -0.486218 
0.422207 -0.779272 -0.458531 0.502248 -0.757563 -0.404513 0.582181 -0.739978 -0.33464 
0.626877 -0.760794 -0.109734 0.611781 -0.779274 0.0796527 0.575185 -0.792542 0.193149 
-0.378625 0.84584 0.369898 -0.29746 0.911356 0.246008 -0.383815 0.7801 0.482271 
-0.372013 0.716247 0.586703 -0.353143 0.657425 0.6637 -0.308556 0.590795 0.740677 
-0.292198 0.498549 0.81125 -0.304612 0.369938 0.873798 -0.38423 0.259101 0.880851 
-0.423188 0.155969 0.890553 -0.419525 0.054263 0.90389 -0.361653 -0.0353162 0.92894 
-0.267938 -0.110657 0.954193 -0.159211 -0.175086 0.9687 -0.0214017 -0.225061 0.972246 
0.0306811 -0.300954 0.950652 0.050112 -0.378549 0.922689 -0.00765314 -0.465024 0.880496 
-0.0674191 -0.535451 0.839953 -0.0827308 -0.574384 0.812624 -0.0770163 -0.598069 0.794437 
-0.0250102 -0.869829 0.489294 -0.07613 -0.790672 0.600322 0.00105801 -0.938179 0.30199 
0.0157967 -0.98758 0.100428 -0.00836604 -0.98787 -0.0951279 -0.0204322 -0.973843 -0.214113 
-0.0255404 -0.954481 -0.296496 0.00662085 -0.940867 -0.335118 0.037645 -0.922309 -0.382 
0.0618337 -0.896479 -0.436673 0.0498036 -0.858005 -0.508647 0.00159881 -0.813936 -0.57793 
-0.0900585 -0.748618 -0.651708 -0.164919 -0.689965 -0.701881 -0.226142 -0.638261 -0.735376 
-0.258075 -0.594576 -0.760317 -0.296951 -0.541732 -0.785366 -0.338791 -0.502748 -0.7949 
-0.41276 -0.454667 -0.786901 -0.485161 -0.399776 -0.774713 -0.543887 -0.308895 -0.777802 
-0.53851 -0.249434 -0.799078 -0.767638 0.238884 -0.584418 -0.746702 0.10181 -0.651081 
-0.767717 0.392434 -0.502717 -0.732185 0.509605 -0.443012 -0.694713 0.595782 -0.399018 
-0.667524 0.647723 -0.3644 -0.632652 0.709986 -0.295521 -0.585733 0.784523 -0.198548 
-0.485686 0.86164 -0.119162 -0.358399 0.926427 -0.0423253 -0.244053 0.968289 0.0244782 
-0.194162 0.977758 0.0663133 -0.220284 0.96676 0.127073 -0.0979416 -0.697983 0.708178 
-0.0279271 -0.675393 0.73134 -0.661574 -0.060631 -0.739763 -0.532494 -0.144045 -0.828986 
0.485804 -0.715509 0.495038 0.481893 -0.777969 0.40028 0.485576 -0.624099 0.603694 
0.463913 -0.549285 0.692183 0.440728 -0.495301 0.744154 0.413267 -0.443991 0.793793 
0.367845 -0.404846 0.834046 0.34449 -0.358058 0.866361 0.365637 -0.32592 0.867932 
0.436918 -0.259603 0.859989 0.494199 -0.223661 0.837121 0.554526 -0.16005 0.813084 
0.58983 -0.057512 0.802875 0.598475 0.0878173 0.785143 0.558611 0.262447 0.780828 
0.454053 0.454691 0.741479 0.221894 0.722968 0.641545 0.189193 0.82576 0.528998 
0.14764 0.874495 0.45558 0.1005 0.9181 0.374522 0.0386874 0.960881 0.254618 
-0.0148959 0.983806 0.173474 -0.0532176 0.990112 0.127269 -0.0697431 0.992342 0.100206 
-0.0753267 0.994652 0.0528926 -0.0760276 0.996275 -0.0215308 -0.0252237 0.990756 -0.129097 
-0.0355843 0.962359 -0.254209 -0.0486559 0.924809 -0.370563 -0.0632149 0.87789 -0.472999 
-0.0401959 0.845516 -0.531253 0.00695761 0.852541 -0.521291 0.0567031 0.872036 -0.484111 
0.0928781 0.847629 -0.5181 0.0843195 0.776338 -0.620848 0.0559828 0.599602 -0.779734 
0.0145739 0.385751 -0.914596 -0.0206876 0.199894 -0.974368 -0.0121992 0.109819 -0.992411 
0.00608497 0.042555 -0.998176 0.0157661 -0.0456662 -0.997851 0.00450304 -0.167763 -0.982883 
0.00262063 -0.304369 -0.94743 0.0204173 -0.44951 -0.891278 0.0437195 -0.543328 -0.833887 
0.067286 -0.629401 -0.772757 0.105719 -0.69634 -0.708034 0.13811 -0.73723 -0.65973 
0.161216 -0.769007 -0.618536 0.21548 -0.776586 -0.589958 0.27451 -0.778872 -0.561114 
0.352249 -0.770084 -0.528309 0.441901 -0.772884 -0.444787 0.533906 -0.788504 -0.287393 
0.582125 -0.799417 -0.0394066 0.557558 -0.810416 0.159448 0.500881 -0.817771 0.277467 
0.484409 -0.803627 0.34269 -0.609803 0.0236563 -0.778311 -0.489103 -0.0318953 -0.864833 
-0.689536 0.0856937 -0.712839 -0.736247 0.229259 -0.615902 -0.744474 0.405556 -0.51403 
-0.675891 0.579086 -0.451281 -0.635123 0.652179 -0.407882 -0.597485 0.703734 -0.380705 
-0.576017 0.749087 -0.319019 -0.577024 0.787144 -0.213141 -0.555837 0.824106 -0.0584853 
-0.499019 0.860353 0.0731438 -0.381015 0.906187 0.168181 -0.260987 0.955248 0.112276 
-0.206086 0.972672 0.0956882 -0.222509 0.96133 0.153497 -0.280015 0.904981 0.285894 
-0.330132 0.826567 0.447732 -0.343505 0.743912 0.567423 -0.336262 0.671264 0.657546 
-0.352954 0.592888 0.721132 -0.377456 0.48619 0.786045 -0.434371 0.384734 0.810733 
-0.468975 0.269062 0.839803 -0.462439 0.155505 0.869505 -0.43586 0.0357327 0.896001 
-0.383086 -0.0813565 0.914327 -0.317401 -0.180869 0.927635 -0.224766 -0.242937 0.936072 
-0.0931943 -0.302805 0.948205 -0.0187881 -0.323553 0.944166 0.0305642 -0.339879 0.939642 
0.00587915 -0.396951 0.916691 -0.0204402 -0.458768 0.886157 -0.0431888 -0.524906 0.846495 
-0.019468 -0.56981 0.820147 0.0435567 -0.602026 0.792757 0.0588358 -0.701608 0.707365 
0.142648 -0.66899 0.722831 -0.0220686 -0.773011 0.626996 -0.0615357 -0.829751 0.542363 
-0.0569316 -0.885202 0.448836 -0.0166737 -0.951748 0.274986 0.00984025 -0.991247 0.0764778 
-0.00162274 -0.993103 -0.0813872 -0.0156162 -0.97606 -0.20134 -0.0297146 -0.956676 -0.288746 
-0.0425668 -0.941034 -0.332396 -0.03281 -0.920291 -0.387003 -0.00529068 -0.897216 -0.440311 
0.0151648 -0.867924 -0.493598 0.0211099 -0.834094 -0.550116 -0.00994528 -0.782832 -0.619555 
-0.0667954 -0.732759 -0.672983 -0.14254 -0.680404 -0.718316 -0.206796 -0.625502 -0.749436 
-0.258451 -0.576196 -0.774464 -0.292342 -0.535943 -0.791963 -0.330114 -0.500734 -0.7992 
-0.37394 -0.452862 -0.806617 -0.428787 -0.384741 -0.814549 -0.468919 -0.272979 -0.838246 
-0.427665 -0.207791 -0.872292 -0.37745 -0.0700311 -0.915929 -0.428052 0.068882 -0.888622 
-0.339807 0.117075 -0.927797 -0.516554 0.117741 -0.833249 0.511335 -0.595767 0.611893 
0.513144 -0.69699 0.492313 0.512244 -0.497038 0.699621 0.514028 -0.428299 0.739374 
0.51555 -0.359403 0.776314 0.522886 -0.310393 0.791878 0.512024 -0.288364 0.808741 
0.503965 -0.293833 0.811825 0.499076 -0.291347 0.814966 0.520143 -0.245542 0.816827 
0.510695 -0.198378 0.834444 0.475927 -0.0669954 0.865128 0.428967 0.0858313 0.891511 
0.334583 0.267572 0.885504 0.218825 0.429904 0.861236 0.0913393 0.548914 0.818425 
0.000493241 0.889013 0.446481 0.0246047 0.838125 0.537815 -0.0356328 0.936754 0.338423 
-0.0467916 0.970564 0.220602 -0.0580433 0.987557 0.14375 -0.0673724 0.990711 0.116891 
-0.0834068 0.992783 0.0782936 -0.0917951 0.99491 0.0354661 -0.0994227 0.994565 -0.0114234 
-0.0902254 0.984996 -0.131725 -0.090963 0.951741 -0.277554 -0.0865065 0.913949 -0.394731 
-0.0660101 0.872518 -0.481588 0.00953835 0.876858 -0.477655 0.0545118 0.886999 -0.458462 
0.0711078 0.882074 -0.465359 0.0911479 0.847075 -0.518619 0.0750703 0.742375 -0.656641 
0.0472441 0.551529 -0.818768 0.0111108 0.321644 -0.940432 0.00924944 0.182156 -0.980902 
0.024179 0.0895559 -0.994406 0.0492255 0.0344486 -0.996836 0.079477 -0.0493974 -0.993769 
0.0820617 -0.176274 -0.975569 0.0734275 -0.325196 -0.939881 0.0826667 -0.447668 -0.886575 
0.115605 -0.549925 -0.824782 0.143509 -0.635298 -0.758153 0.15808 -0.698126 -0.695735 
0.167317 -0.742058 -0.648525 0.177787 -0.764641 -0.619258 0.178064 -0.777536 -0.602525 
0.213919 -0.786057 -0.57857 0.257322 -0.795202 -0.545582 0.345823 -0.815866 -0.438331 
0.462221 -0.841168 -0.249016 0.516412 -0.835177 0.0153753 0.533756 -0.813276 0.226123 
0.520173 -0.800987 0.29421 0.493697 -0.797224 0.346277 0.508611 -0.769227 0.383185 
0.00880965 0.7378 0.659377 -0.0797681 0.684806 0.714737 -0.543935 0.214846 -0.802278 
-0.558043 0.379609 -0.717717 -0.559714 0.561348 -0.5996 -0.571178 0.645326 -0.494467 
-0.552866 0.710604 -0.434008 -0.531153 0.740301 -0.410897 -0.502946 0.781308 -0.36461 
-0.479121 0.823457 -0.30032 -0.475885 0.859421 -0.152723 -0.477391 0.870863 0.0216587 
-0.469844 0.851565 0.22858 -0.267874 0.956901 0.098876 -0.312705 0.939986 0.124378 
-0.277234 0.937384 0.207362 -0.291241 0.890015 0.324016 -0.307678 0.844254 0.427187 
-0.322063 0.78753 0.516704 -0.342659 0.715321 0.60257 -0.376739 0.636458 0.669077 
-0.405956 0.560986 0.720096 -0.465542 0.440426 0.764929 -0.476701 0.297184 0.820669 
-0.474028 0.157293 0.86255 -0.417592 0.0138156 0.901435 -0.349075 -0.120142 0.926328 
-0.234779 -0.234726 0.934847 -0.129185 -0.317566 0.936794 -0.0552609 -0.352149 0.931616 
-0.0130296 -0.363132 0.931296 -0.000106868 -0.364849 0.93105 0.00716632 -0.374898 0.926899 
0.000374553 -0.429646 0.900753 -0.000314272 -0.486176 0.871844 0.0228664 -0.507204 0.85959 
0.101476 -0.57758 0.808232 0.22001 -0.605214 0.757589 0.277374 -0.694467 0.654845 
0.38066 -0.655868 0.648908 0.153679 -0.772021 0.603385 0.0544677 -0.809197 0.575794 
-0.00279065 -0.843201 0.530143 0.0119571 -0.884276 0.445146 0.0336316 -0.945116 0.292915 
0.00404854 -0.985306 0.112209 -0.0316533 -0.996498 -0.0602997 -0.0400387 -0.973721 -0.20566 
-0.047767 -0.95167 -0.301248 -0.0390654 -0.925117 -0.373794 -0.0289729 -0.895094 -0.442874 
-0.00313773 -0.868252 -0.494095 0.0210046 -0.838219 -0.542878 0.0349522 -0.806598 -0.589962 
0.0248195 -0.77355 -0.631177 -0.0105103 -0.737927 -0.673593 -0.0791534 -0.690372 -0.716453 
-0.148512 -0.639996 -0.751509 -0.220367 -0.586568 -0.777502 -0.272617 -0.548724 -0.789314 
-0.315958 -0.502063 -0.803967 -0.364631 -0.433849 -0.822014 -0.407003 -0.366208 -0.831314 
-0.365818 -0.358028 -0.856829 -0.31527 -0.218906 -0.918383 -0.262652 -0.105164 -0.953335 
-0.22906 -0.00863091 -0.971277 -0.339873 0.224304 -0.904402 -0.238747 0.186231 -0.94528 
-0.414044 0.236999 -0.870861 -0.394192 0.886169 0.229311 -0.426309 0.857073 0.287527 
-0.101197 0.794292 0.590838 -0.175754 0.661485 0.719896 -0.0944866 0.850821 0.509858 
-0.113186 0.88929 0.434902 -0.12674 0.926596 0.345946 -0.126484 0.955109 0.25749 
-0.126126 0.973484 0.18208 -0.126858 0.983614 0.12333 -0.143167 0.98477 0.0944196 
-0.142258 0.987533 0.0538064 -0.13343 0.990537 0.00359715 -0.142508 0.983512 -0.0968512 
-0.147078 0.955436 -0.242048 -0.131758 0.919711 -0.365124 -0.0794576 0.897498 -0.432988 
-0.0347527 0.893113 -0.446658 -0.00424359 0.893445 -0.447264 0.0277819 0.897308 -0.439732 
0.0496571 0.837437 -0.53008 0.0546998 0.751803 -0.654311 0.0315471 0.543559 -0.817226 
0.0201677 0.351354 -0.930526 0.0392425 0.217297 -0.971487 0.0679238 0.13712 -0.987239 
0.0915919 0.0573157 -0.993501 0.117003 -0.0938207 -0.983725 0.127142 -0.232607 -0.959021 
0.120189 -0.381115 -0.916267 0.126199 -0.466158 -0.872497 0.144213 -0.54577 -0.824084 
0.165847 -0.625335 -0.76083 0.181229 -0.689658 -0.699501 0.172087 -0.746823 -0.641156 
0.163147 -0.773735 -0.611892 0.163814 -0.78842 -0.592663 0.176907 -0.799816 -0.573402 
0.183152 -0.814121 -0.550685 0.220641 -0.841815 -0.481655 0.280731 -0.879238 -0.377261 
0.392941 -0.885674 -0.091536 0.487777 -0.854544 0.144969 0.525114 -0.792172 0.307419 
0.55023 -0.771067 0.317376 0.576082 -0.742234 0.335515 0.547966 -0.703047 0.447627 
0.523156 -0.625797 0.568773 0.53146 -0.530993 0.65843 0.563467 -0.434653 0.698109 
0.591174 -0.333962 0.733736 0.565793 -0.289932 0.769321 0.542358 -0.253087 0.800645 
0.526561 -0.258108 0.809703 0.496654 -0.267337 0.823174 0.438421 -0.266063 0.856739 
0.365816 -0.246574 0.89155 0.313912 -0.150369 0.931839 0.232971 -0.0216069 0.961435 
0.142834 0.168789 0.960645 0.0316604 0.356613 0.924155 -0.07841 0.492337 0.85061 
-0.179179 0.501079 0.841244 -0.209698 0.589846 0.772309 -0.216208 0.707724 0.667988 
-0.232201 0.64314 0.72155 -0.178279 0.748032 0.631935 -0.423931 0.43333 -0.784946 
-0.474403 0.590205 -0.641797 -0.497129 0.685646 -0.522334 -0.501197 0.750846 -0.429013 
-0.45518 0.795169 -0.395152 -0.406282 0.836645 -0.362476 -0.360805 0.873818 -0.318977 
-0.339884 0.906773 -0.23775 -0.332426 0.927835 -0.134943 -0.353727 0.929222 0.00693971 
-0.409631 0.888223 0.1735 -0.44848 0.846508 0.283581 -0.45498 0.843287 0.272029 
-0.380308 0.902534 0.1754 -0.331243 0.93678 0.108974 -0.317379 0.940804 0.112484 
-0.296086 0.932647 0.174986 -0.300506 0.888641 0.327946 -0.329577 0.830027 0.440481 
-0.34639 0.803273 0.482455 -0.373292 0.749587 0.538291 -0.401774 0.686998 0.600062 
-0.420483 0.632586 0.646783 -0.429994 0.572818 0.695822 -0.407505 0.208083 0.87581 
-0.431107 0.36756 0.820051 -0.355894 0.0368128 0.929704 -0.283956 -0.100683 0.94219 
-0.221573 -0.206668 0.945558 -0.11005 -0.278436 0.950888 -0.0405937 -0.361805 0.930027 
-0.0237199 -0.394344 0.918501 -0.0233141 -0.391554 0.919798 0.0443143 -0.480807 0.871671 
0.0208281 -0.410534 0.911164 -0.413856 0.461193 0.781617 -0.398788 0.518992 0.753335 
-0.0124596 -0.38698 0.921668 0.0166023 -0.369229 0.927921 0.330714 -0.593221 0.731886 
0.12429 -0.500046 0.853042 0.388568 -0.605278 0.689066 0.444179 -0.665051 0.596705 
0.454976 -0.645438 0.611886 0.370459 -0.755037 0.526373 0.261519 -0.796595 0.539546 
0.0945458 -0.908488 0.396209 0.121885 -0.937892 0.30451 0.126838 -0.969318 0.144662 
-0.036273 -0.983395 -0.141738 -0.0510125 -0.95769 -0.267848 -0.0416194 -0.937304 -0.34425 
-0.0433582 -0.91679 -0.393361 -0.0414044 -0.891143 -0.448836 -0.0277199 -0.856059 -0.513526 
0.0157812 -0.816753 -0.574709 0.0655739 -0.78783 -0.610879 0.069937 -0.760796 -0.644755 
0.0382381 -0.742296 -0.667447 -0.0216412 -0.712483 -0.700584 -0.092915 -0.663305 -0.739524 
-0.16229 -0.60844 -0.775089 -0.204889 -0.55121 -0.808299 -0.221971 -0.449062 -0.862492 
-0.29906 -0.400752 -0.861371 -0.221948 -0.272431 -0.930456 -0.160938 -0.160967 -0.96969 
-0.132039 0.0150039 -0.982817 -0.110695 0.118832 -0.982395 -0.253698 0.371711 -0.885605 
-0.0935891 0.241545 -0.954524 -0.351576 0.354588 -0.859563 -0.178225 0.791038 0.571814 
-0.180007 0.848392 0.49095 -0.18785 0.89409 0.397551 -0.189771 0.934844 0.294122 
-0.203517 0.957454 0.19409 -0.20594 0.968664 0.131874 -0.214844 0.969728 0.107104 
-0.21532 0.971771 0.0869511 -0.187639 0.979592 0.05814 -0.145387 0.987242 -0.0519185 
-0.154519 0.967089 -0.178835 -0.156093 0.943365 -0.289401 -0.126422 0.924153 -0.358137 
0.00763689 0.907181 -0.420424 -0.0381115 0.911872 -0.408143 0.0176394 0.882608 -0.468827 
0.00767739 0.759356 -0.624709 0.00505235 0.610685 -0.788188 0.0214876 0.432686 -0.885222 
0.0419177 0.289046 -0.954538 0.068284 0.208818 -0.973408 0.0846249 0.144209 -0.984686 
0.0952577 0.0881459 -0.991376 0.104415 -0.0336313 -0.991013 0.0694426 -0.291447 -0.95026 
0.102073 -0.395554 -0.90982 0.111347 -0.471513 -0.872305 0.123775 -0.541475 -0.828099 
0.132533 -0.624369 -0.76828 0.140318 -0.705791 -0.689286 0.136362 -0.765993 -0.627977 
0.128402 -0.783503 -0.607696 0.162312 -0.768836 -0.618028 0.184675 -0.784546 -0.591094 
0.209562 -0.80808 -0.550126 0.206007 -0.848651 -0.480048 0.270288 -0.907412 -0.305446 
0.388321 -0.897987 -0.0678781 0.539085 -0.822226 0.160066 0.620927 -0.736853 0.254703 
0.632949 -0.708932 0.306345 0.603167 -0.69764 0.378075 0.545798 -0.665215 0.50313 
0.523627 -0.619251 0.58215 0.51795 -0.577414 0.630463 0.508603 -0.500618 0.69553 
0.44812 -0.422078 0.782899 0.421889 -0.350056 0.831634 0.420616 -0.289795 0.855367 
0.428582 -0.258087 0.863065 0.377127 -0.256081 0.889603 0.310733 -0.247013 0.914209 
0.247454 -0.226625 0.941805 0.149582 -0.161468 0.966909 0.0675795 -0.0690089 0.992429 
-0.0185611 0.0701235 0.984805 -0.101727 0.190949 0.972173 -0.157912 0.302673 0.927882 
-0.199315 0.44273 0.865259 -0.191832 0.49567 0.845263 -0.221059 0.559398 0.791564 
-0.256848 0.678482 0.68361 -0.293184 0.651692 0.690556 -0.231052 0.777953 0.575615 
-0.0727293 0.91704 -0.390941 -0.144917 0.920777 -0.358623 0.274404 -0.88246 0.354648 
0.324371 -0.908904 0.23768 0.0534826 -0.944734 -0.309203 0.124053 -0.957314 -0.236611 
0.0109228 -0.931005 -0.359308 -0.00172556 -0.90895 -0.413786 -0.011233 -0.86898 -0.489007 
-0.00227606 -0.825721 -0.560691 0.022226 -0.790914 -0.610005 0.0435554 -0.758763 -0.649551 
0.0792963 -0.766807 -0.636636 0.0681866 -0.759176 -0.646696 0.0381848 -0.739121 -0.671954 
-0.00558632 -0.696922 -0.713985 -0.053556 -0.639442 -0.764589 -0.0935475 -0.567413 -0.816623 
-0.0976805 -0.487636 -0.863982 -0.147808 -0.361403 -0.915229 -0.0654839 -0.352129 -0.928982 
-0.376856 0.494458 -0.768856 -0.398345 0.655846 -0.625149 -0.393899 0.779999 -0.476783 
-0.342711 0.848402 -0.39849 -0.28432 0.890468 -0.352787 -0.255731 0.913601 -0.31418 
-0.278522 0.928817 -0.236391 -0.294188 0.93851 -0.176664 -0.317041 0.939456 -0.0984939 
-0.335162 0.937782 -0.0276855 -0.329253 0.932384 0.0825903 -0.397989 0.889335 0.213379 
-0.280855 0.944326 0.148876 -0.472328 0.85509 0.205695 -0.435546 0.883236 0.157418 
-0.373638 0.921328 0.0947313 -0.361463 0.912916 0.180387 -0.340188 0.892176 0.279371 
-0.301657 0.887494 0.344199 -0.356666 0.827995 0.416154 -0.406999 0.753145 0.510272 
-0.431339 0.673204 0.593721 -0.42466 0.631984 0.643653 -0.397898 0.612316 0.678657 
-0.348216 0.503855 0.78825 -0.289272 0.533005 0.787281 -0.311261 0.425739 0.841482 
-0.273528 0.290426 0.9143 -0.207551 0.114677 0.956195 -0.151273 -0.0389581 0.984595 
-0.118602 -0.161643 0.971254 0.330607 -0.525833 0.779732 0.22794 -0.46931 0.848763 
0.425648 -0.600684 0.67476 0.508695 -0.708815 0.483722 0.480366 -0.656298 0.580064 
0.455054 -0.745838 0.475354 -0.25273 0.828032 0.490985 -0.270469 0.879015 0.379901 
-0.28521 0.915598 0.271065 -0.292634 0.934307 0.195476 -0.301175 0.941213 0.14445 
-0.296365 0.944995 0.130194 -0.257058 0.955741 0.132192 -0.186449 0.974803 -0.066397 
-0.17697 0.962862 -0.187837 -0.197992 0.941469 -0.264506 -0.218039 0.932614 -0.28157 
-0.0483747 0.890706 -0.44523 -0.0733484 0.908547 -0.405214 -0.0347208 0.855899 -0.50468 
-0.0465394 0.777441 -0.618702 -0.0423678 0.648424 -0.746468 -0.028265 0.490322 -0.860247 
0.0143667 0.354224 -0.930964 0.0547638 0.235206 -0.966863 0.0760754 0.125973 -0.987467 
0.0568848 0.0268871 -0.996389 0.0530616 -0.0730184 -0.989237 0.00933192 -0.133989 -0.985581 
0.0512371 -0.536649 -0.839915 0.0373767 -0.4626 -0.884947 0.0639678 -0.617742 -0.780552 
0.0770653 -0.704602 -0.701944 0.0911203 -0.7498 -0.653811 0.103116 -0.781267 -0.615272 
0.120219 -0.770996 -0.624552 0.126941 -0.756943 -0.640724 0.222868 -0.821915 -0.523519 
0.218206 -0.792269 -0.568413 0.239639 -0.859634 -0.441191 0.274442 -0.899725 -0.329725 
0.370445 -0.907301 -0.129813 0.48134 -0.864952 0.0329731 0.580205 -0.788225 0.17507 
0.572717 -0.742422 0.329322 0.0071177 -0.360604 -0.926276 -0.0443267 -0.330506 -0.939959 
0.22727 -0.958847 -0.0946429 0.377131 -0.904592 0.106194 0.178055 -0.757592 -0.627512 
0.132865 -0.745323 -0.652068 0.470496 -0.612035 0.631877 0.454014 -0.576329 0.677392 
0.417355 -0.532334 0.730986 0.359417 -0.464355 0.80857 0.318869 -0.40202 0.854224 
0.282252 -0.330614 0.899905 0.26426 -0.275602 0.922458 0.256961 -0.239319 0.934869 
0.189901 -0.208833 0.956069 0.121647 -0.168885 0.976056 0.0310924 -0.087819 0.989569 
-0.0563436 0.00298138 0.996473 -0.111877 0.126089 0.976419 -0.156856 0.242757 0.952225 
-0.182095 0.328287 0.922169 -0.165958 0.345038 0.917646 -0.15144 0.411733 0.894497 
-0.231772 0.514719 0.824639 -0.350634 0.661273 0.655283 -0.00275342 -0.327588 0.943674 
0.00467216 -0.242843 0.966797 -0.00076124 -0.365487 0.930109 0.0152824 -0.353303 0.935187 
0.0620126 -0.340378 0.936541 0.134189 -0.348464 0.926923 0.173512 -0.298209 0.936983 
0.156508 -0.386876 0.903866 -0.102484 0.725306 -0.667245 -0.116227 0.82158 -0.544245 
-0.0828444 0.598188 -0.790047 -0.0386806 0.474511 -0.869363 -0.0140564 0.380187 -0.91999 
0.00457337 0.290671 -0.949783 0.0070037 0.145301 -0.984582 -0.042505 -0.062157 -0.993132 
-0.0896596 -0.185292 -0.974232 0.196603 -0.255653 0.945576 0.175845 -0.203719 0.961138 
0.141783 -0.150276 0.97721 0.084394 -0.075913 0.988591 0.0251535 0.0037507 0.998825 
-0.0337692 0.104258 0.986515 -0.0965927 0.211778 0.971301 -0.126655 0.352563 0.921512 
-0.173175 0.394193 0.891485 -0.190479 0.364979 0.904459 -0.163061 0.287583 0.933519 
-0.113326 0.170985 0.966038 -0.0530676 0.0254724 0.99285 -0.0174913 -0.108893 0.987096 
-0.329444 0.769196 0.538617 -0.359674 0.823794 0.430285 -0.384582 0.860626 0.327942 
-0.390084 0.886222 0.235036 -0.392128 0.906317 0.152622 -0.399554 0.902521 0.154258 
-0.428998 0.887734 0.164859 -0.40287 0.841035 0.358242 -0.411402 0.817383 0.393558 
-0.421578 0.779806 0.462439 -0.405806 0.712027 0.564911 -0.467247 0.85691 0.212006 
-0.45672 0.877206 0.144416 -0.411697 0.897191 0.152299 -0.393597 0.892501 0.201896 
-0.0776469 0.274797 0.956466 -0.0295817 0.180317 0.975605 0.0199968 0.0658347 0.991626 
0.04518 -0.0455042 0.993201 0.0480532 -0.151515 0.98253 0.0446048 -0.24527 0.966258 
0.0312449 -0.306513 0.948957 0.0936776 -0.264857 0.958615 -0.288654 0.954295 0.0246261 
-0.283818 0.951412 -0.0743906 -0.275884 0.939773 -0.187782 -0.256734 0.932107 -0.251369 
-0.120956 0.91999 -0.370177 -0.192981 0.914951 -0.35211 -0.224683 0.531708 -0.805049 
-0.264855 0.714609 -0.636444 -0.241806 0.816402 -0.518944 -0.240506 0.87091 -0.421277 
-0.224666 0.903374 -0.364512 -0.156141 0.887334 -0.431993 -0.253115 0.924585 -0.280569 
-0.017325 -0.458943 -0.884818 0.00938102 -0.52203 -0.85217 0.0263557 -0.574425 -0.816065 
0.0453609 -0.630964 -0.771322 0.0654688 -0.676687 -0.731171 0.076004 -0.72585 -0.680648 
0.08343 -0.770862 -0.629802 0.0983198 -0.771243 -0.62856 0.105717 -0.751077 -0.651273 
0.0909217 -0.739884 -0.666115 0.130928 -0.764717 -0.628441 0.0621318 -0.757755 -0.64932 
0.170607 -0.77449 -0.608307 0.196831 -0.793468 -0.572875 0.22298 -0.81956 -0.527507 
0.226886 -0.854916 -0.461103 0.248592 -0.891828 -0.367131 0.335066 -0.914392 -0.207752 
0.431902 -0.890332 -0.0282579 0.470032 -0.868825 0.109801 0.466092 -0.832972 0.270453 
0.368763 -0.918954 -0.0466846 0.317691 -0.933441 -0.120063 0.240126 -0.927843 -0.249797 
0.160641 -0.916343 -0.362665 0.126728 -0.891039 -0.429169 0.106541 -0.865261 -0.485924 
0.0817577 -0.834583 -0.539926 0.0495845 -0.799274 -0.594352 0.0697386 -0.768056 -0.63643 
0.0652946 -0.759931 -0.646521 0.0609043 -0.759849 -0.646032 0.032313 -0.728762 -0.683087 
0.0204398 -0.674389 -0.735145 -0.0019424 -0.594672 -0.802633 -0.0177686 -0.528145 -0.846802 
-0.0318649 -0.473554 -0.878184 -0.092619 0.411723 -0.903337 0.050284 -0.733449 -0.675369 
0.065492 -0.757067 -0.649571 0.0866813 -0.765579 -0.63706 0.0938005 -0.763641 -0.638412 
0.0911258 -0.753304 -0.650675 0.188098 -0.857176 -0.477993 0.164459 -0.825455 -0.535629 
0.206584 -0.879651 -0.422296 0.216618 -0.898527 -0.377917 -0.446361 0.881923 0.149024 
-0.455837 0.878368 0.140907 -0.394323 0.796818 0.448139 -0.412937 0.849231 0.325725 
-0.37436 0.759878 0.526726 0.0974501 -0.178954 0.975913 0.0918362 -0.0864704 0.990306 
0.0532141 0.005342 0.993815 0.0105101 0.104505 0.992449 -0.0544311 0.224082 0.964382 
0.0478224 -0.767555 -0.638584 0.0913314 -0.766689 -0.633148 0.129038 -0.79222 -0.592462 
-0.17475 0.909236 -0.37614 -0.169026 0.899494 -0.400614 -0.179866 0.79073 -0.571753 
-0.163129 0.715466 -0.669728 -0.127723 0.607752 -0.771325 -0.0906784 0.538166 -0.824582 
-0.447868 0.874136 0.178529 0.457395 -0.629891 0.624827 -0.221865 0.921759 -0.315712 

Radius 1 1116 double
0.15 0.15 1.3837835335 1.2050487856 0.15 1.4716922249 0.15 1.4920706558 0.15 
1.516783637 0.15 1.5390522029 0.15 1.5965543033 0.15 1.5884270607 0.15 1.4912132428 
0.15 1.3898288955 0.15 1.3326461442 0.15 1.2898016053 0.15 1.3698200353 0.15 
1.4011537608 0.15 1.4497232058 0.15 1.4771134761 0.15 1.4803170086 0.15 1.3909136458 
0.15 1.3213239912 0.15 1.2723519444 0.15 1.2455979952 0.15 1.2198712447 0.15 
1.2577871264 0.15 1.2571357216 0.15 1.2708769781 0.15 1.3917645769 0.15 1.5461111587 
0.15 1.7509879135 0.15 1.8097876165 0.15 1.6899546803 0.15 1.5444426666 0.15 
1.4379375214 0.15 1.3894997568 0.15 1.3607214426 0.15 1.3198558027 0.15 1.2729693451 
0.15 1.2516963147 0.15 1.2429255021 0.15 1.2463077714 0.15 1.2568230454 0.15 
1.2477925752 0.15 1.1240957667 0.14999968179 1.1306899735 0.14999934307 1.1660866887 0.14999906194 1.2202262168 
0.14999924036 1.1771800526 0.14999974081 1.1458465728 0.15 1.1099568063 0.15 1.0339176984 0.15 
1.0188822222 0.15 1.0246920434 0.15 1.1173310866 0.15 1.2601280922 0.15 1.4862431447 
0.15 1.5269719483 0.15 1.4548178925 0.15 0.15 1.3110791708 1.1694345764 0.15 
1.4284102894 0.15 1.4545459421 0.15 1.5314804842 0.15 1.6237815694 0.15 1.6574046128 
0.15 1.6383804807 0.15 1.430761641 0.15 1.2626946964 0.15 1.1561910387 0.15 
1.0744385869 0.15 1.2075961252 0.15 1.2996968653 0.15 1.3433224417 0.15 1.3723757604 
0.15 1.4003459559 0.15 1.3082670987 0.15 1.2304864537 0.15 1.3081254611 0.15 
1.3910910607 0.15 1.4955397221 0.15 1.4548280864 0.15 1.499261799 0.15 1.6633534618 
0.15 1.5870852905 0.15 1.5108017992 0.15 1.3828164523 0.15 1.4365724137 0.15 
1.571917708 0.15 1.7675853898 0.15 1.8498716027 0.15000001557 1.7995083942 0.14999990124 1.6728394445 
0.14999996128 1.7269979743 0.15 1.8624713527 0.15 2.0646505916 0.15 2.1536209679 0.15 
2.1740000492 0.15 2.0474630387 0.15 1.9671678418 0.15 1.8584803317 0.15 1.7341000193 
0.15 1.6287705747 0.15 1.5448544805 0.15 1.4703554452 0.15 1.4564928598 0.15 
1.3782902522 0.15 1.2270431634 0.15 1.2898530725 0.15 1.3609217814 0.15 1.3653179121 
0.15 1.2729056381 0.15 1.134749743 0.15 0.99838572397 0.15 0.86033473226 0.15 
1.0741444424 0.15 1.2198049203 1.7766845 1.7110235683 1.8079727563 1.7304691228 1.7013922041 1.7285638516 
1.6502627387 1.5249342545 1.3810758208 1.3160700405 1.3148170252 1.3711686483 1.4054996411 1.4412536609 1.4863595923 
1.5273131771 1.53653957 1.5400587352 1.5304894514 1.5201050558 1.4991479505 1.5968195686 1.5473378575 1.4962386911 
1.5104739878 1.604895218 1.7919227521 1.8823552423 1.785845393 1.6259120989 1.5357741452 1.5163142908 1.4798450916 
1.4333932427 1.3643876073 1.3982090856 1.4032180223 1.3834638156 1.3555961269 1.3446607322 1.2676728451 1.2901282622 
1.3476242526 1.3674822746 1.2682280852 1.2638122471 1.2634548592 1.237906645 1.2167792347 1.1906859323 1.2174108817 
1.3346799356 1.6348269215 1.7972708549 1.7214998123 1.5418441013 1.7035336596 1.6502619093 1.7243675606 1.8190025536 
1.90156205 1.9403788666 1.935088479 1.6795913412 1.4352435955 1.3173322638 1.2360893693 1.3105726342 1.3798692684 
1.4320581958 1.4594746787 1.4814039828 1.4506708515 1.4350838047 1.3965584579 1.4625213933 1.5570865438 1.5258633438 
1.6162889293 1.8032210161 1.689536794 1.554934819 1.4386454293 1.5199022917 1.6901804937 1.825811414 1.9034125672 
1.8086044562 1.633695201 1.6972022587 1.9078224438 2.1688136782 2.2420336073 2.2180155119 2.1135365906 2.0113648658 
1.9175667308 1.7978199941 1.6806252726 1.5852731043 1.5265539662 1.5136097715 1.4705816606 1.3838165526 1.4671132517 
1.5048272456 1.4756196828 1.3719988342 1.1888200356 1.0367996671 0.8931758427 1.1702852723 1.4122150352 1.568851332 
2.0312237151 1.9557597425 1.9103646659 1.8215306201 1.7603021825 1.6251095762 1.4852089917 1.3996163998 1.4705853364 
1.5443626512 1.5516093607 1.5193300831 1.4180590373 1.4245847713 1.4720420824 1.4958485151 1.5213463667 1.5372786944 
1.5622511821 1.6296516547 1.7427327351 1.6124664473 1.6889262576 1.5871488072 1.6242407808 1.7863041568 1.8248034428 
1.809348627 1.6382563778 1.5224666553 1.4604473024 1.4113582536 1.4071375049 1.3603836955 1.380850659 1.4257737755 
1.4222830211 1.4042733244 1.3385913613 1.3002014339 1.3231752921 1.4497797528 1.4330953491 1.113390337 1.1490945268 
1.0959792318 1.1600149477 1.2102538557 1.2392049746 1.3120290926 1.3706488024 1.553779729 1.7215872407 1.7421589301 
1.7399306482 1.8728950647 1.8206697684 1.9248994045 1.2745674399 1.3778898871 1.9527079235 1.876897671 2.0298010343 
2.1039428017 2.1292824294 2.1005991547 1.7926462143 1.5086035699 1.2854616199 1.2122529817 1.3295783778 1.4057188572 
1.4558931045 1.4884750419 1.5016214899 1.5508357482 1.6444739413 1.4514523842 1.5285734701 1.6095458973 1.6037182438 
1.674455032 1.8312640045 1.720586273 1.5858035006 1.5108002323 1.5800393397 1.7041116662 1.809703847 1.8548640623 
1.7153427482 1.5911440706 1.7690090835 1.9159365657 2.1103074181 2.1288651022 2.0963145892 2.0056232556 1.9171229482 
1.8320168277 1.752365395 1.620169535 1.5205631154 1.5388211442 1.5403038678 1.5380832431 1.5841097216 1.5836867901 
1.5970380724 1.5294963985 1.4419007688 1.3350853084 1.2845210841 1.205089031 1.3715306084 1.5597432458 1.6946771562 
1.7929568185 1.1931757996 1.330104313 1.0572637161 1.0200699732 1.0239224106 1.1095903524 1.1679136305 1.2154140977 
1.3158225418 1.4579482988 1.4997585969 1.5909740382 1.6806731572 1.7822584724 1.8726336957 2.1110331013 2.121590005 
1.9526480395 1.833971527 1.7449565987 1.6627950581 1.5433655223 1.6337549056 1.6808035002 1.7214743373 1.6795270455 
1.5798850866 1.4388811555 1.417659387 1.440309861 1.463328543 1.5021786301 1.5431042879 1.6265974256 1.7036704425 
1.8296776084 1.9928650213 2.1086728887 2.1158511218 1.9328135081 1.810557375 1.7359279583 1.6728609943 1.6850321302 
1.7708278238 1.7696754144 1.7456702632 1.5923810541 1.4623737528 1.361703463 1.3388227022 1.3427768592 1.3241367225 
1.3571819861 1.4097495612 1.4100310256 1.3833149183 1.3186972258 1.3159146726 1.3512269847 1.4454588195 1.4734240132 
1.4534192731 1.4433506627 1.2831938528 1.4300940627 1.1925364615 2.1002288504 1.9866415283 2.194890392 2.1658848833 
2.1090290935 1.8762993406 1.6144786821 1.3726721314 1.1813356807 1.347610667 1.5203472502 1.6302685002 1.7209245683 
1.735498093 1.7931537992 1.8969044509 1.5632516606 1.6006345165 1.6065178157 1.6618982744 1.7664802217 1.8909140121 
1.7632549408 1.609985788 1.5253284326 1.5819384802 1.6817180625 1.753365231 1.7825822736 1.6469731399 1.6118455086 
1.7776974469 1.9261961985 1.9822561325 1.9800731355 1.9610999109 1.9110017999 1.833087706 1.7423928452 1.6695779142 
1.5634277588 1.4590753651 1.5045059649 1.5223470623 1.5417349855 1.6057118158 1.6297118713 1.6057155198 1.4771627832 
1.4048039043 1.4029981368 1.4648624143 1.5347487827 1.6792221072 1.7682135923 1.7391028982 1.7713207545 1.8563024429 
1.7602346414 1.8116601585 1.0972968363 1.0672356991 1.0694042484 1.1787533411 1.26634537 1.3551379902 1.44883436 
1.5438419883 1.5579167027 1.5367624813 1.51247593 1.9185066714 1.6959992809 2.1844077978 2.0818413067 1.9653863777 
1.8594260728 1.7510948375 1.6714360067 1.6791339281 1.9041984667 1.9072337834 1.8646183427 1.777018283 1.6431037137 
1.5121772351 1.4437683512 1.4128069251 1.4259132904 1.4778491205 1.6298907316 1.7203155465 1.7777127871 1.8761500684 
2.0024591497 2.1374718674 2.1358255971 2.1213888319 2.1136043764 1.9863638675 1.8796495875 1.8331252683 1.7554664656 
1.7261257264 1.7583923757 1.7634657163 1.7436222047 1.6268766819 1.4741940741 1.3317603545 1.2882680749 1.3078376109 
1.3844438254 1.3880189358 1.3871660668 1.4233010998 1.437309676 1.3918944283 1.3822438214 1.3768288907 1.42340329 
1.4890540649 1.5506650617 1.5796131396 1.5636154404 1.4082769142 1.5753766411 1.2191544914 1.6867925154 1.5803747131 
1.7910054452 1.8050409976 1.74053819 1.6782741679 1.6560057402 1.6589695446 1.7527153284 1.8903293901 1.7418090473 
1.5656473075 1.4383511128 1.480658365 1.5712427165 1.6263898861 1.6909831292 1.6132608649 1.6481739171 1.7513239117 
1.7847260531 1.7995797614 1.8307098969 1.8409107058 1.8343794769 1.7562933705 1.6581368957 1.5817608841 1.5002131535 
1.4118912365 1.4418636867 1.4669690021 1.4779510465 1.5321571412 1.5508640487 1.5071280949 1.3747220401 1.2806882133 
1.3460870264 1.4932531363 1.6936647678 1.7765765585 1.7386202652 1.5994167817 1.6754657555 1.7950498365 1.9436060452 
2.0345965802 2.0687139174 2.0637790383 2.0581351112 1.8792691022 1.695336793 1.4848509649 1.3121173525 1.4826497038 
1.635902477 1.791817328 1.9140164602 1.8996094888 1.8709095679 1.8510248394 1.8264983498 1.7821913666 1.7795871218 
1.7899117051 1.775862408 1.2006102959 1.1982295983 1.3209559736 1.4761441698 1.509811613 1.5491877454 1.6036563651 
1.5973690243 1.5310171818 1.4117198341 1.3961440965 1.468555057 1.4472934788 1.5507692329 1.7309608222 1.9583042482 
2.0334123937 2.0063687146 1.9592489905 1.9060510258 1.8286928577 1.7801147858 1.8706082139 1.9752413466 1.8769306825 
1.9812646899 1.7384332348 1.6320051672 1.5393588567 1.4443864687 1.4093695963 1.4292593306 1.4866178528 1.8462094356 
1.7815273136 1.9958353334 1.9880259807 1.6320466488 1.5268259263 2.1684901472 2.012986108 2.1193206357 2.0291685328 
2.0076651853 2.0692091786 2.0659635562 1.9593357055 1.8361273579 1.7982181407 1.8050635059 1.7743076799 1.7326378054 
1.6480566053 1.5319349315 1.3779747132 1.3122126073 1.2938109121 1.4116722133 1.4725893866 1.4577558781 1.4882965149 
1.4974270262 1.4896296049 1.5225342934 1.5025421072 1.5542885213 1.5369836778 1.5842288961 1.6197102675 1.5434755619 
1.5763349041 1.3766208178 1.7368211314 1.6831389886 1.6525740027 1.6457102681 1.739898432 1.8676668523 1.6959986627 
1.5399806345 1.4382481945 1.4287458461 1.5032301586 1.5766188614 1.6065633174 1.6718153656 1.6436597707 1.7547606212 
1.7167905256 1.6922488966 1.7164268908 1.7288527953 1.7245298016 1.6518907909 1.5429958442 1.4971594722 1.4556394285 
1.3918535887 1.382241922 1.3839241959 1.409815437 1.4461907354 1.4704778888 1.416923134 1.293964132 1.2448166918 
1.28617134 1.4774188317 1.7088554316 1.6929484238 1.633777681 1.4819922711 1.5525842269 1.7052740981 1.8678434574 
1.9949564876 2.0824587258 2.1053055108 2.0705647581 1.9141205794 1.7868726313 1.6380041908 1.474740498 1.5458898195 
1.6684390273 1.722835223 1.8076741265 1.8531106905 1.8585828732 1.8359607836 1.7966403392 1.7699238951 1.7751150011 
1.8006306947 1.8361161848 1.7313595375 1.6238488629 1.5840240988 1.9432994733 1.8935766344 1.7966412739 1.8517594431 
1.7197965738 1.6193750676 1.5018672342 1.3519889684 1.3045626057 1.3121756075 1.423478711 1.5052963343 1.5297508131 
1.5356952089 1.5390558288 1.5469043977 1.5575383375 1.5692768782 1.572412459 1.398262339 1.4649359422 1.6169689602 
1.6266994846 1.5880279809 1.5568913842 1.5439811236 1.4947604776 1.4412030802 1.3846498281 1.4477356569 1.4345034281 
1.5092637451 1.3625876086 1.49366325 1.7555344611 1.8841922359 1.8790442462 1.8853977623 1.8246464151 1.8247647044 
1.9110592187 2.0125100644 2.0314076123 1.891193707 1.9028749571 1.9240846686 1.9216457681 1.7957581232 1.6494235599 
1.5427159276 2.1803296315 1.9909659192 2.1326653492 1.8423308434 1.8616155038 1.9960947293 1.6562869709 1.5916414612 
1.5736607268 1.670953728 1.7848072625 1.6216165244 1.4878288912 1.4785099633 1.4839476331 1.5070351284 1.5135000455 
1.6781663725 1.6431197049 1.6876670768 1.6363743513 1.5997576842 1.6429813236 1.6641685799 1.6527047928 1.5770748727 
1.4665836846 1.4560223725 1.429616952 1.375500109 1.4145107519 1.3603348377 1.3919598923 1.4042427627 1.4029092285 
1.353835727 1.3007978293 1.2775736917 1.2456006555 1.4761604644 1.6910617691 1.6710275088 1.645388717 1.5750740518 
1.7185217391 1.452927091 1.4955976115 1.8790349885 1.9010863584 1.2395398918 1.261493881 1.9675715302 2.0951699189 
2.1002789833 2.0325332427 1.8816550838 1.7565679184 1.6467175578 1.5328936748 1.5680410466 1.5870549886 1.6432821306 
1.6986718274 1.7499008269 1.7947897706 1.8043567339 1.7844927097 1.7570558857 1.7727808381 1.9526918406 1.4241200035 
1.4197550304 1.4261358997 1.436943654 1.4823297503 1.6086163078 1.5272208843 1.7726053854 1.573793253 1.6370618931 
1.5604172041 1.6012367422 1.6276327984 1.6218121828 1.5681492008 1.4254656995 1.5161494509 1.4671973189 1.4824239389 
1.5078650557 1.5921212264 1.6723678033 1.7269512844 1.7767402144 1.7483615665 1.8079057768 1.8317668604 1.794304412 
1.6895848282 1.5782666862 1.4910926418 1.777928066 1.7116131041 1.6127797384 1.6066110233 1.6719889399 1.5377477713 
1.3856227756 1.8066403383 1.8496594058 1.9130644593 1.9832260241 1.4469007354 1.540648468 1.6839839408 1.7639656458 
1.7677840462 1.7223769967 1.6631554308 1.573162263 1.4644196459 1.4104282384 1.4196965282 1.4439155252 1.4727323491 
1.4516569155 1.4388222511 1.448956273 1.6110222491 1.5644088088 1.5123352075 1.5208039895 1.6545818764 1.6336696943 
1.5746078734 1.6650419447 1.4842402923 1.4952639436 1.455095824 1.4221020225 1.4110522168 1.4109549299 1.3831872475 
1.3398478949 1.3271269805 1.3117210085 1.2793482135 1.2144292695 1.2488356954 1.1922699751 1.245622226 1.3032694635 
1.5094356366 1.7263085703 1.7985881785 1.8158783178 1.8684120715 1.9208169354 1.8696262131 1.8356829006 1.7677670784 
1.7289657794 1.6229042459 1.5331376577 1.4115567946 1.292150952 1.3881047499 1.303736044 1.4589297281 1.5254508066 
1.4976961914 1.4794235542 1.516282255 1.5399704862 1.5877264678 1.4798134866 1.4597379348 1.407018904 1.3566551838 
1.322681755 1.3836704011 1.3131827412 1.5296674098 1.6545938205 1.5254144658 1.6223988315 1.8218945514 1.677739307 
1.880935086 1.4504583889 1.4847610077 1.5491235004 1.613967994 1.6876346148 1.2422125007 1.2114359919 1.2405491435 
1.6040050021 1.6302919646 1.6135757177 1.5454906028 1.5445546799 1.5918398087 1.636770328 2.0300186769 1.5193556902 

STJ 1 1116 double
0 0 0 0 0 0 0 0 0 
0 0 0 0 0 0 0 0 0 
0 0 0 0 0 0 0 0 0 
0 0 0 0 0 0 0 0 0 
0 0 0 0 0 0 0 0 0 
0 0 0 0 0 0 0 0 0 
0 0 0 0 0 0 0 0 0 
0 0 0 0 0 0 0 0 0 
0 0 0 0 0 0 0 0 0 
0 0 0 0 0 0 0 0 0 
0 0 0 0 0 0 0 0 0 
0 0 0 0 0 0 0 0 0 
0 0 0 0 1 1 0 0 1 
0 1 0 1 0 1 0 1 0 
1 0 1 0 1 0 1 0 1 
0 1 0 1 0 1 0 1 0 
1 0 1 0 1 0 1 0 1 
0 1 0 1 0 1 0 1 0 
1 0 1 0 1 0 1 0 1 
0 1 0 1 0 0.99999998425 0 1.0000000999 0 
1.0000000372 0 1 0 1 0 1 0 1 
0 1 0 1 0 1 0 1 0 
1 0 1 0 1 0 1 0 1 
0 1 0 1 0 1 0 1 0 
1 0 1 0 1 0 1 0 1 
0 1 0 0 0 0 0 0 0 
0 0 0 0 0 0 0 0 0 
0 0 0 0 0 0 0 0 0 
0 0 0 0 0 0 0 0 0 
0 0 0 0 0 0 0 0 0 
0 0 0 0 0 0 0 0 0 
0 0 0 0 0 0 0 0 0 
0 0 0 0 0 0 0 0 0 
0 0 0 0 0 0 0 0 0 
0 0 0 0 0 0 0 0 0 
0 0 0 0 0 0 0 0 0 
0 0 0 0 0 0 0 0 0 
0 0 0 0 0 0 0 0 0 
0 0 0 0 0 0 0 0 0 
0 0 0 0 0 0 0 0 0 
0 0 0 0 0 0 0 0 0 
0 0 0 0 0 0 0 0 0 
0 0 0 0 0 0 0 0 0 
0 0 0 0 0 0 0 0 0 
0 0 0 0 0 0 0 0 0 
0 0 0 0 0 0 0 0 0 
0 0 0 0 0 0 0 0 0 
0 0 0 0 0 0 0 0 0 
0 0 0 0 0 0 0 0 0 
0 0 0 0 0 0 0 0 0 
0 0 0 0 0 0 0 0 0 
0 0 0 0 0 0 0 0 0 
0 0 0 0 0 0 0 0 0 
0 0 0 0 0 0 0 0 0 
0 0 0 0 0 0 0 0 0 
0 0 0 0 0 0 0 0 0 
0 0 0 0 0 0 0 0 0 
0 0 0 0 0 0 0 0 0 
0 0 0 0 0 0 0 0 0 
0 0 0 0 0 0 0 0 0 
0 0 0 0 0 0 0 0 0 
0 0 0 0 0 0 0 0 0 
0 0 0 0 0 0 0 0 0 
0 0 0 0 0 0 0 0 0 
0 0 0 0 0 0 0 0 0 
0 0 0 0 0 0 0 0 0 
0 0 0 0 0 0 0 0 0 
0 0 0 0 0 0 0 0 0 
0 0 0 0 0 0 0 0 0 
0 0 0 0 0 0 0 0 0 
0 0 0 0 0 0 0 0 0 
0 0 0 0 0 0 0 0 0 
0 0 0 0 0 0 0 0 0 
0 0 0 0 0 0 0 0 0 
0 0 0 0 0 0 0 0 0 
0 0 0 0 0 0 0 0 0 
0 0 0 0 0 0 0 0 0 
0 0 0 0 0 0 0 0 0 
0 0 0 0 0 0 0 0 0 
0 0 0 0 0 0 0 0 0 
0 0 0 0 0 0 0 0 0 
0 0 0 0 0 0 0 0 0 
0 0 0 0 0 0 0 0 0 
0 0 0 0 0 0 0 0 0 
0 0 0 0 0 0 0 0 0 
0 0 0 0 0 0 0 0 0 
0 0 0 0 0 0 0 0 0 
0 0 0 0 0 0 0 0 0 
0 0 0 0 0 0 0 0 0 
0 0 0 0 0 0 0 0 0 
0 0 0 0 0 0 0 0 0 
0 0 0 0 0 0 0 0 0 
0 0 0 0 0 0 0 0 0 
0 0 0 0 0 0 0 0 0 
0 0 0 0 0 0 0 0 0 
0 0 0 0 0 0 0 0 0 
0 0 0 0 0 0 0 0 0 
0 0 0 0 0 0 0 0 0 
0 0 0 0 0 0 0 0 0 
0 0 0 0 0 0 0 0 0 
0 0 0 0 0 0 0 0 0 
0 0 0 0 0 0 0 0 0 
0 0 0 0 0 0 0 0 0 
0 0 0 0 0 0 0 0 0 
0 0 0 0 0 0 0 0 0 
0 0 0 0 0 0 0 0 0 
0 0 0 0 0 0 0 0 0 
0 0 0 0 0 0 0 0 0 
0 0 0 0 0 0 0 0 0 
0 0 0 0 0 0 0 0 0 
0 0 0 0 0 0 0 0 0 
0 0 0 0 0 0 0 0 0 
0 0 0 0 0 0 0 0 0 
0 0 0 0 0 0 0 0 0 
0 0 0 0 0 0 0 0 0 
0 0 0 0 0 0 0 0 0 
0 0 0 0 0 0 0 0 0 
0 0 0 0 0 0 0 0 0 
0 0 0 0 0 0 0 0 0 
0 0 0 0 0 0 0 0 0 
0 0 0 0 0 0 0 0 0 
0 0 0 0 0 0 0 0 0 
0 0 0 0 0 0 0 0 0 
0 0 0 0 0 0 0 0 0 

Thickness 1 1116 double
3.0670925725 3.0670925725 2.767567067 2.4100975711 3.0670925725 2.9433842124 3.0670925725 2.98414115 3.0670925725 
3.033567274 3.0670925725 3.0781044059 3.0670925725 3.1931086065 3.0670925725 3.1768537203 3.0670925725 2.9824256829 
3.0670925725 2.7796577579 3.0670925725 2.6652920329 3.0670925725 2.5796032105 3.0670925725 2.7396400706 3.0670925725 
2.8023070154 3.0670925725 2.8994454155 3.0670925725 2.9542265673 3.0670925725 2.9606338972 3.0670925725 2.7818266259 
3.0670925725 2.6426472334 3.0670925725 2.5447037124 3.0670925725 2.4911963603 3.0670925725 2.4397432863 3.0670925725 
2.5155741932 3.0670925725 2.5142713078 3.0670925725 2.5417538591 3.0670925725 2.7835287128 3.0670925725 3.0922217471 
3.0670925725 3.5019760417 3.0670925725 3.6195749864 3.0670925725 3.3799093422 3.0670925725 3.0888853333 3.0670925725 
2.8758747951 3.0670925725 2.7789987066 3.0670925725 2.7214426189 3.0670925725 2.6397113543 3.0670925725 2.5459378964 
3.0670925725 2.503392318 3.0670925725 2.4858509151 3.0670925725 2.4926154663 3.0670925725 2.5136460208 3.0670925725 
2.4955851504 3.0670925725 2.2481915333 3.0670931903 2.2613798825 3.0670939246 2.3321736073 3.0670945033 2.4404533883 
3.067093824 2.3543608619 3.0670929879 2.2916937323 3.0670925725 2.2199136125 3.0670925725 2.0678353969 3.0670925725 
2.0377643431 3.0670925725 2.0493840583 3.0670925725 2.234662216 3.0670925725 2.5202563889 3.0670925725 2.9724869928 
3.0670925725 3.0539435752 3.0670925725 2.9096352017 3.0670925725 3.0670925725 2.6221583415 2.3388691527 3.0670925725 
2.8568205788 3.0670925725 2.9090919006 3.0670925725 3.0629609683 3.0670925725 3.2475631387 3.0670925725 3.3148092255 
3.0670925725 3.2767608632 3.0670925725 2.8615226765 3.0670925725 2.5253885106 3.0670925725 2.3123822896 3.0670925725 
2.1488779362 3.0670925725 2.4151931947 3.0670925725 2.5993942859 3.0670925725 2.6866443013 3.0670925725 2.7447509614 
3.0670925725 2.8006918782 3.0670925725 2.6165336859 3.0670925725 2.4609720818 3.0670925725 2.6162506913 3.0670925725 
2.7821821215 3.0670925725 2.9910794443 3.0670925725 2.9096559845 3.0670925725 2.9985235284 3.0670925725 3.3267063518 
3.0670925725 3.1741703872 3.0670925725 3.0216043313 3.0670925725 2.7656329363 3.0670925725 2.8731443452 3.0670925725 
3.143835036 3.0670925725 3.535171561 3.0670925725 3.6997439541 3.06709256 3.5990174472 3.0670926513 3.3456789032 
3.067092598 3.4539959629 3.0670925725 3.7249427054 3.0670925725 4.1293011832 3.0670925725 4.3072420683 3.0670925725 
4.3480000985 3.0670925725 4.0949260774 3.0670925725 3.9343356836 3.0670925725 3.7169606635 3.0670925725 3.4682000386 
3.0670925725 3.257540522 3.0670925725 3.0897087157 3.0670925725 2.9407108903 3.0670925725 2.9129859611 3.0670925725 
2.7565811861 3.0670925725 2.454085542 3.0670925725 2.5797052848 3.0670925725 2.7218426895 3.0670925725 2.7306356815 
3.0670925725 2.5458122358 3.0670925725 2.2694997262 3.0670925725 1.9967716759 3.0670925725 1.7206697272 3.0670925725 
2.1482892236 3.0670925725 2.4396098406 3.553368212 3.4220468964 3.6159448643 3.4609382456 3.4027842227 3.457127472 
3.3005259389 3.0498692577 2.7621511386 2.6321399267 2.6296349375 2.7423375995 2.8109991504 2.8825070378 2.9727188001 
3.0546258888 3.0730789863 3.0801181567 3.0609791227 3.0402096862 2.9982955715 3.1936388592 3.0946754755 2.9924773017 
3.0209479756 3.2097908243 3.5838456091 3.7647104256 3.571691249 3.2518248064 3.0715487999 3.0326283534 2.9596901833 
2.8667864854 2.7287752145 2.7964181638 2.806435264 2.7669266312 2.711191276 2.689321213 2.5353456903 2.5802565244 
2.6952485052 2.7349645492 2.5364564451 2.5276242619 2.5269090702 2.4758133711 2.4335586024 2.3813715527 2.4348212974 
2.6693593377 3.2696536744 3.5945411412 3.4429991594 3.0836880497 3.4070675189 3.3005237846 3.4487358835 3.6380053384 
3.8031245842 3.8807581836 3.8701768668 3.3591822903 2.870486768 2.6346643867 2.4721787386 2.6211452684 2.7597385368 
2.8641163916 2.9189494006 2.9628085592 2.9013423441 2.8701679571 2.7931169159 2.9250427866 3.1141730438 3.0517262093 
3.2325775659 3.6064420322 3.3790735879 3.1098696381 2.8772902269 3.0398048356 3.3803610664 3.6516222856 3.8068245821 
3.6172084892 3.267390213 3.3944050391 3.8156451581 4.3376271007 4.4840675297 4.4360312499 4.2270733204 4.0227301645 
3.8351334616 3.5956399882 3.3612499689 3.1705456427 3.053108538 3.0272202858 2.9411639294 2.7676335206 2.9342270357 
3.0096537461 2.9512386943 2.7439977607 2.3776401677 2.0735992705 1.7863516868 2.3405705445 2.8244298197 3.137702664 
4.0624473054 3.9115193067 3.8207293318 3.6430609739 3.5206037303 3.2502194109 2.9704188267 2.7992329795 2.9411705037 
3.0887254334 3.1032194299 3.0386601219 2.8361175985 2.8491692009 2.9440839723 2.9916971046 3.0426933348 3.0745573411 
3.1245014085 3.2593026076 3.4854654701 3.224932989 3.3778533484 3.174297709 3.2484815616 3.5726083135 3.6496069358 
3.6186974004 3.2765130975 3.044933318 2.920894178 2.8227165073 2.8142750098 2.7207673911 2.7617011361 2.85154686 
2.8445654252 2.8085464502 2.6771831164 2.600403188 2.6463505565 2.8995586612 2.8661903376 2.2267801814 2.2981883572 
2.1919586064 2.3200294145 2.4205070442 2.4784099549 2.6240579022 2.7412966882 3.1075592505 3.4431749197 3.4843184279 
3.4798617609 3.7457902121 3.6413396108 3.8497990515 2.5491348798 2.7557801237 3.9054163059 3.7537955092 4.0596018337 
4.207885161 4.2585646762 4.2011982298 3.5852918491 3.017206493 2.5709232398 2.4245059634 2.6591567557 2.8114375874 
2.9117855589 2.9769493056 3.0032427656 3.1016719343 3.2889477158 2.9029046928 3.0571464076 3.2190910811 3.2074369627 
3.3489102905 3.6625272382 3.4411716819 3.1716060397 3.0215995039 3.1600776795 3.4082230123 3.6194076137 3.7097280071 
3.4306856926 3.1822880108 3.5380175947 3.8318725234 4.2206142455 4.2577300239 4.1926285821 4.0112462549 3.8342459131 
3.66403371 3.5047309259 3.2403385474 3.04112567 3.0776422772 3.0806076494 3.0761665326 3.1682196199 3.1673737198 
3.1940761449 3.0589927969 2.8838013561 2.6701698552 2.5690415049 2.410177963 2.7430606566 3.1194859271 3.3893533244 
3.5859131661 2.3863521045 2.6602087406 2.1145274906 2.0401394246 2.0478440134 2.2191800546 2.3358271895 2.4308289742 
2.6316458245 2.9158972815 2.9995174796 3.1819479515 3.3613454079 3.5645170285 3.745267835 4.2220664379 4.2431800101 
3.9052960791 3.667943054 3.4899131973 3.3255902372 3.0867318562 3.2675099706 3.3616065021 3.4429485153 3.3590535941 
3.1597699116 2.8777623109 2.835318774 2.8806198138 2.9266573955 3.0043580058 3.086208602 3.2531944655 3.4073404837 
3.659355532 3.985729724 4.2173450778 4.2317019782 3.8656272669 3.6211157499 3.4718569166 3.3457226683 3.3700643457 
3.5416552951 3.5393504713 3.4913407282 3.1847614885 2.92474666 2.7234060982 2.6776449656 2.6855537184 2.6482735929 
2.7143637859 2.8194990878 2.8200620513 2.7666297722 2.637394485 2.6318287667 2.7024532466 2.8909177959 2.9468480264 
2.9068378812 2.8867009911 2.5663868581 2.8601880774 2.3850729057 4.2004567009 3.9732828716 4.3897797839 4.3317692944 
4.2180582554 3.7525989647 3.2289574367 2.7453447482 2.3626721007 2.6952212859 3.0406935629 3.2605365718 3.4418491367 
3.4709965931 3.5863083488 3.7938097841 3.1265028061 3.2012693968 3.2130351843 3.3237958081 3.5329597607 3.7818279468 
3.5265092681 3.2199706215 3.0506565814 3.1638769605 3.3634363745 3.5067304777 3.5651639193 3.2939452799 3.2236902779 
3.555395157 3.8523930188 3.9645128532 3.960147271 3.9222004004 3.8220034231 3.6661758431 3.4847859977 3.3391553935 
3.1268552846 2.9181507302 3.0090117048 3.0446935149 3.0834699709 3.2114231257 3.2594232277 3.2114313444 2.9543260233 
2.8096082514 2.8059966153 2.9297250093 3.0694982752 3.3584445158 3.5364273543 3.4782065689 3.5426416601 3.7126050389 
3.520470233 3.6233204759 2.1945933195 2.1344709191 2.1388080178 2.3575071623 2.5326914032 2.7102762235 2.89766872 
3.0876839766 3.1158334055 3.0735249627 3.02495186 3.8370128248 3.3919982869 4.3688155752 4.1636824784 3.9307724396 
3.7188517361 3.502189478 3.3428720135 3.3582673599 3.8083959528 3.8144674526 3.7292371324 3.5540368751 3.2862081103 
3.0243552806 2.8875373347 2.825613616 2.8518260895 2.9556982213 3.2597814632 3.4406309452 3.5554256195 3.7523007866 
4.0049175626 4.274943493 4.2716513482 4.2427775025 4.2272090733 3.9727270909 3.759298979 3.6662501787 3.5109327411 
3.4522512937 3.5167846509 3.5269306084 3.4872442871 3.2537534084 2.9483880997 2.6635212717 2.5765370093 2.615676044 
2.7688877545 2.7760370461 2.7743316987 2.8466020105 2.874619105 2.7837897953 2.7644882115 2.7536583871 2.8468069307 
2.9781075537 3.1013304146 3.1592268226 3.1272308809 2.8165537057 3.1507538509 2.4383081652 3.3735850308 3.1607493965 
3.5820107696 3.6100812528 3.4810762642 3.3565481371 3.3120111728 3.3179385887 3.5054304109 3.7806590544 3.4836178207 
3.1312941667 2.876701341 2.9613166049 3.1424860314 3.2527803701 3.3819655282 3.2265212675 3.2963475291 3.5026476934 
3.5694526497 3.5991605228 3.6614202105 3.6818215767 3.6687590391 3.5125865443 3.3162727914 3.1635214415 3.000426307 
2.823782473 2.8837273734 2.9339380043 2.9559026294 3.0643147018 3.1017283155 3.0142564892 2.7494442375 2.5613766607 
2.692174449 2.9865065453 3.3873295356 3.553153117 3.4772403333 3.1988330865 3.3509308247 3.5900986928 3.8872111979 
4.0691923777 4.1374272442 4.1275580766 4.1162702766 3.7585383357 3.3906738181 2.9697019298 2.6242346758 2.965298888 
3.2718043625 3.5836346157 3.8280329204 3.7992189775 3.7418192121 3.7020495702 3.6529959176 3.5643823831 3.5591733412 
3.5798231347 3.5517240893 2.4012195917 2.3964581966 2.6419110636 2.9522873397 3.0196225413 3.0983749764 3.2073120811 
3.1947373399 3.0620337393 2.8234403018 2.7922879287 2.9371095049 2.894587646 3.1015379439 3.4619209803 3.9166083249 
4.0668247874 4.0127371748 3.9184971359 3.8121012689 3.6573853396 3.5602294407 3.7412157703 3.95048243 3.7538623649 
3.9625300821 3.4768674696 3.264010607 3.0787174132 2.8887723979 2.8187393343 2.8585193816 2.9732362346 3.6924186948 
3.5630550319 3.9916704561 3.9760519956 3.2640935752 3.0536521117 4.3369794234 4.0259723985 4.2386410914 4.0583367969 
4.0153303706 4.1384186914 4.13192798 3.9186713094 3.6722545787 3.5964366854 3.6101272569 3.5486153598 3.4652754176 
3.2961124928 3.063868863 2.7559487574 2.6244254265 2.5876218385 2.8233446784 2.9451791767 2.9155119629 2.976593447 
2.9948542753 2.9792593412 3.0450685391 3.0050838584 3.1085773072 3.0739673557 3.1684582122 3.2394208919 3.0869520255 
3.152669823 2.7532413933 3.4736418113 3.3662778879 3.3051483198 3.2914212123 3.4797965994 3.7353337962 3.3919976796 
3.079960934 2.8764956556 2.8574906923 3.0064604634 3.1532384054 3.2131262172 3.3436312302 3.2873205058 3.5095212453 
3.4335811779 3.384497736 3.4328537478 3.4577057064 3.449060152 3.3037820238 3.0859917138 2.994319753 2.9112786876 
2.7837067438 2.7644829846 2.7678476608 2.8196308601 2.8923817203 2.9409557776 2.8338462526 2.587928264 2.4896331528 
2.5723418789 2.9548370861 3.4177105323 3.3858968123 3.2675560021 2.9639845513 3.1051686428 3.4105486649 3.7356869149 
3.9899129753 4.1649174515 4.2106105676 4.1411290648 3.8282406959 3.5737446281 3.2760079825 2.949480996 3.091779639 
3.3368780546 3.445670446 3.615348253 3.706221381 3.7171657464 3.6719211247 3.5932801024 3.5398483729 3.5502298743 
3.6012612803 3.6722322963 3.4627183682 3.2476977707 3.1680475157 3.8865997339 3.7871532159 3.5932827089 3.7035195161 
3.4395928392 3.238749343 3.0037337678 2.703977972 2.6091259305 2.6243521715 2.8469569533 3.0105925606 3.0595026262 
3.0713903324 3.078110896 3.0938087636 3.1150759423 3.1385531528 3.1448246667 2.796524717 2.9298717451 3.2339373516 
3.253398524 3.1760557758 3.1137835324 3.0879627829 2.9895211332 2.8824061604 2.7692996257 2.8954707985 2.8690059689 
3.0185277471 2.7251752183 2.9873267799 3.5110695468 3.7683847695 3.7580884924 3.770795426 3.6492928301 3.6495298224 
3.8221192745 4.0250207366 4.0628155396 3.7823883502 3.8057509141 3.8481684123 3.8432912912 3.5915167358 3.2988480552 
3.0854320368 4.3606591271 3.9819318349 4.2653306983 3.6846616867 3.7232310075 3.992188554 3.3125735854 3.1832829224 
3.1473215765 3.341907258 3.5696146133 3.243233218 2.9756572162 2.9570201449 2.9678952662 3.0140702568 3.027000091 
3.3563331563 3.2862396762 3.3753347621 3.272749692 3.1995157539 3.2859620427 3.3283367129 3.3054095856 3.1541498867 
2.933168225 2.9120452458 2.8592336664 2.750999218 2.8290211285 2.7206690256 2.7839204448 2.8084857957 2.8058176606 
2.7076711584 2.6015963716 2.5551472192 2.4912004448 2.9523206459 3.3821231072 3.3420545688 3.2907771251 3.1501482744 
3.4370441703 2.9058538972 2.991195223 3.7580707084 3.8021724002 2.4790796326 2.5229879304 3.9351430604 4.1903398378 
4.2005579665 4.0650664554 3.7633101675 3.5131358367 3.2934351157 3.0657873496 3.1360820932 3.1741099771 3.2865642612 
3.3973436549 3.4998013299 3.5895787787 3.6087125064 3.5689852945 3.5141124047 3.5455611838 3.9053843181 2.8482399772 
2.8395095391 2.8522721615 2.8738875925 2.9646601914 3.21723272 3.0544417685 3.5452103143 3.1475867643 3.2741244904 
3.1208344082 3.2024734843 3.2552657314 3.2436249935 3.1362992077 2.8509317371 3.0322989018 2.9343947353 2.96484846 
3.0157309447 3.1842423619 3.344734737 3.4539021073 3.5534803226 3.4967230017 3.6158121633 3.6635334676 3.5886083957 
3.3791700048 3.1565340424 2.9821849977 3.5558561477 3.4232264379 3.2255596183 3.2132220466 3.3439782132 3.0754963968 
2.7712464581 3.6132807396 3.6993185181 3.8261279264 3.9664519312 2.8938005255 3.0812965452 3.3679680493 3.5279322023 
3.5355681283 3.4447537817 3.3263101178 3.1463238765 2.9288394802 2.8208571672 2.8393936396 2.8878313387 2.945464687 
2.9033138309 2.8776447513 2.8979134005 3.2220438649 3.1288174722 3.024670985 3.0416085639 3.3091638749 3.2673393887 
3.1492157468 3.3300847347 2.9684815845 2.9905276698 2.9101914759 2.8442036457 2.8221041269 2.8219097441 2.7663741718 
2.6796949452 2.654253868 2.6234423991 2.5586963401 2.4288586467 2.4976712798 2.3845399033 2.4912439475 2.6065379511 
3.0188714491 3.4526179636 3.5971764283 3.6317568433 3.7368248346 3.8416340688 3.7392526183 3.6713659626 3.5355349067 
3.4579320143 3.2458083319 3.0662752223 2.8231136752 2.5843023629 2.7762084999 2.6074711769 2.9178589841 3.0509022863 
2.99539291 2.9588471083 3.0325639432 3.079940118 3.1754529355 2.9596277891 2.9194765596 2.8140379992 2.7133102532 
2.6453632974 2.7673398692 2.6263650983 3.0593348202 3.3091883666 3.0508289514 3.2447970366 3.6437890644 3.3554778247 
3.7618703055 2.9009169425 2.9695219688 3.0982474143 3.2279368731 3.3752696183 2.4844259153 2.422872582 2.4810985244 
3.2080094347 3.2605839013 3.2271515678 3.0909812057 3.0891093597 3.1836796175 3.2735402325 4.0600373538 3.0387119016 

Total_Motion 1 1116 double
0 0 0 0 0 0 0 0 0 
0 0 0 0 0 0 0 0 0 
0 0 0 0 0 0 0 0 0 
0 0 0 0 0 0 0 0 0 
0 0 0 0 0 0 0 0 0 
0 0 0 0 0 0 0 0 0 
0 0 0 0 0 0 0 0 0 
0 0 0 0 0 0 0 0 0 
0 0 0 0 0 0 0 0 0 
0 0 0 0 0 0 0 0 0 
0 0 0 0 0 0 0 0 0 
0 0 0 0 0 0 0 0 0 
0 0 0 0 0 0 0 0 0 
0 0 0 0 0 0 0 0 0 
0 0 0 0 0 0 0 0 0 
0 0 0 0 0 0 0 0 0 
0 0 0 0 0 0 0 0 0 
0 0 0 0 0 0 0 0 0 
0 0 0 0 0 0 0 0 0 
0 0 0 0 0 0 0 0 0 
0 0 0 0 0 0 0 0 0 
0 0 0 0 0 0 0 0 0 
0 0 0 0 0 0 0 0 0 
0 0 0 0 0 0 0 0 0 
0 0 0 0 0 0 0 0 0 
0 0 0 0 0 0 0 0 0 
0 0 0 0 0 0 0 0 0 
0 0 0 0 0 0 0 0 0 
0 0 0 0 0 0 0 0 0 
0 0 0 0 0 0 0 0 0 
0 0 0 0 0 0 0 0 0 
0 0 0 0 0 0 0 0 0 
0 0 0 0 0 0 0 0 0 
0 0 0 0 0 0 0 0 0 
0 0 0 0 0 0 0 0 0 
0 0 0 0 0 0 0 0 0 
0 0 0 0 0 0 0 0 0 
0 0 0 0 0 0 0 0 0 
0 0 0 0 0 0 0 0 0 
0 0 0 0 0 0 0 0 0 
0 0 0 0 0 0 0 0 0 
0 0 0 0 0 0 0 0 0 
0 0 0 0 0 0 0 0 0 
0 0 0 0 0 0 0 0 0 
0 0 0 0 0 0 0 0 0 
0 0 0 0 0 0 0 0 0 
0 0 0 0 0 0 0 0 0 
0 0 0 0 0 0 0 0 0 
0 0 0 0 0 0 0 0 0 
0 0 0 0 0 0 0 0 0 
0 0 0 0 0 0 0 0 0 
0 0 0 0 0 0 0 0 0 
0 0 0 0 0 0 0 0 0 
0 0 0 0 0 0 0 0 0 
0 0 0 0 0 0 0 0 0 
0 0 0 0 0 0 0 0 0 
0 0 0 0 0 0 0 0 0 
0 0 0 0 0 0 0 0 0 
0 0 0 0 0 0 0 0 0 
0 0 0 0 0 0 0 0 0 
0 0 0 0 0 0 0 0 0 
0 0 0 0 0 0 0 0 0 
0 0 0 0 0 0 0 0 0 
0 0 0 0 0 0 0 0 0 
0 0 0 0 0 0 0 0 0 
0 0 0 0 0 0 0 0 0 
0 0 0 0 0 0 0 0 0 
0 0 0 0 0 0 0 0 0 
0 0 0 0 0 0 0 0 0 
0 0 0 0 0 0 0 0 0 
0 0 0 0 0 0 0 0 0 
0 0 0 0 0 0 0 0 0 
0 0 0 0 0 0 0 0 0 
0 0 0 0 0 0 0 0 0 
0 0 0 0 0 0 0 0 0 
0 0 0 0 0 0 0 0 0 
0 0 0 0 0 0 0 0 0 
0 0 0 0 0 0 0 0 0 
0 0 0 0 0 0 0 0 0 
0 0 0 0 0 0 0 0 0 
0 0 0 0 0 0 0 0 0 
0 0 0 0 0 0 0 0 0 
0 0 0 0 0 0 0 0 0 
0 0 0 0 0 0 0 0 0 
0 0 0 0 0 0 0 0 0 
0 0 0 0 0 0 0 0 0 
0 0 0 0 0 0 0 0 0 
0 0 0 0 0 0 0 0 0 
0 0 0 0 0 0 0 0 0 
0 0 0 0 0 0 0 0 0 
0 0 0 0 0 0 0 0 0 
0 0 0 0 0 0 0 0 0 
0 0 0 0 0 0 0 0 0 
0 0 0 0 0 0 0 0 0 
0 0 0 0 0 0 0 0 0 
0 0 0 0 0 0 0 0 0 
0 0 0 0 0 0 0 0 0 
0 0 0 0 0 0 0 0 0 
0 0 0 0 0 0 0 0 0 
0 0 0 0 0 0 0 0 0 
0 0 0 0 0 0 0 0 0 
0 0 0 0 0 0 0 0 0 
0 0 0 0 0 0 0 0 0 
0 0 0 0 0 0 0 0 0 
0 0 0 0 0 0 0 0 0 
0 0 0 0 0 0 0 0 0 
0 0 0 0 0 0 0 0 0 
0 0 0 0 0 0 0 0 0 
0 0 0 0 0 0 0 0 0 
0 0 0 0 0 0 0 0 0 
0 0 0 0 0 0 0 0 0 
0 0 0 0 0 0 0 0 0 
0 0 0 0 0 0 0 0 0 
0 0 0 0 0 0 0 0 0 
0 0 0 0 0 0 0 0 0 
0 0 0 0 0 0 0 0 0 
0 0 0 0 0 0 0 0 0 
0 0 0 0 0 0 0 0 0 
0 0 0 0 0 0 0 0 0 
0 0 0 0 0 0 0 0 0 
0 0 0 0 0 0 0 0 0 
0 0 0 0 0 0 0 0 0 
0 0 0 0 0 0 0 0 0 
0 0 0 0 0 0 0 0 0 

VAJ 1 1116 double
1 1 0 0 1 0 1 0 1 
0 1 0 1 0 1 0 1 0 
1 0 1 0 1 0 1 0 1 
0 1 0 1 0 1 0 1 0 
1 0 1 0 1 0 1 0 1 
0 1 0 1 0 1 0 1 0 
1 0 1 0 1 0 1 0 1 
0 1 0 1 0 1 0 1 0 
1 0 1 0 1 0 1 0 1 
0 1 0 1.0000004533 0 1.0000009635 0 1.0000013758 0 
1.0000010013 0 1.0000003375 0 1 0 1 0 1 
0 1 0 1 0 1 0 1 0 
1 0 1 0 0 0 0 0 0 
0 0 0 0 0 0 0 0 0 
0 0 0 0 0 0 0 0 0 
0 0 0 0 0 0 0 0 0 
0 0 0 0 0 0 0 0 0 
0 0 0 0 0 0 0 0 0 
0 0 0 0 0 0 0 0 0 
0 0 0 0 0 0 0 0 0 
0 0 0 0 0 0 0 0 0 
0 0 0 0 0 0 0 0 0 
0 0 0 0 0 0 0 0 0 
0 0 0 0 0 0 0 0 0 
0 0 0 0 0 0 0 0 0 
0 0 0 0 0 0 0 0 0 
0 0 0 0 0 0 0 0 0 
0 0 0 0 0 0 0 0 0 
0 0 0 0 0 0 0 0 0 
0 0 0 0 0 0 0 0 0 
0 0 0 0 0 0 0 0 0 
0 0 0 0 0 0 0 0 0 
0 0 0 0 0 0 0 0 0 
0 0 0 0 0 0 0 0 0 
0 0 0 0 0 0 0 0 0 
0 0 0 0 0 0 0 0 0 
0 0 0 0 0 0 0 0 0 
0 0 0 0 0 0 0 0 0 
0 0 0 0 0 0 0 0 0 
0 0 0 0 0 0 0 0 0 
0 0 0 0 0 0 0 0 0 
0 0 0 0 0 0 0 0 0 
0 0 0 0 0 0 0 0 0 
0 0 0 0 0 0 0 0 0 
0 0 0 0 0 0 0 0 0 
0 0 0 0 0 0 0 0 0 
0 0 0 0 0 0 0 0 0 
0 0 0 0 0 0 0 0 0 
0 0 0 0 0 0 0 0 0 
0 0 0 0 0 0 0 0 0 
0 0 0 0 0 0 0 0 0 
0 0 0 0 0 0 0 0 0 
0 0 0 0 0 0 0 0 0 
0 0 0 0 0 0 0 0 0 
0 0 0 0 0 0 0 0 0 
0 0 0 0 0 0 0 0 0 
0 0 0 0 0 0 0 0 0 
0 0 0 0 0 0 0 0 0 
0 0 0 0 0 0 0 0 0 
0 0 0 0 0 0 0 0 0 
0 0 0 0 0 0 0 0 0 
0 0 0 0 0 0 0 0 0 
0 0 0 0 0 0 0 0 0 
0 0 0 0 0 0 0 0 0 
0 0 0 0 0 0 0 0 0 
0 0 0 0 0 0 0 0 0 
0 0 0 0 0 0 0 0 0 
0 0 0 0 0 0 0 0 0 
0 0 0 0 0 0 0 0 0 
0 0 0 0 0 0 0 0 0 
0 0 0 0 0 0 0 0 0 
0 0 0 0 0 0 0 0 0 
0 0 0 0 0 0 0 0 0 
0 0 0 0 0 0 0 0 0 
0 0 0 0 0 0 0 0 0 
0 0 0 0 0 0 0 0 0 
0 0 0 0 0 0 0 0 0 
0 0 0 0 0 0 0 0 0 
0 0 0 0 0 0 0 0 0 
0 0 0 0 0 0 0 0 0 
0 0 0 0 0 0 0 0 0 
0 0 0 0 0 0 0 0 0 
0 0 0 0 0 0 0 0 0 
0 0 0 0 0 0 0 0 0 
0 0 0 0 0 0 0 0 0 
0 0 0 0 0 0 0 0 0 
0 0 0 0 0 0 0 0 0 
0 0 0 0 0 0 0 0 0 
0 0 0 0 0 0 0 0 0 
0 0 0 0 0 0 0 0 0 
0 0 0 0 0 0 0 0 0 
0 0 0 0 0 0 0 0 0 
0 0 0 0 0 0 0 0 0 
0 0 0 0 0 0 0 0 0 
0 0 0 0 0 0 0 0 0 
0 0 0 0 0 0 0 0 0 
0 0 0 0 0 0 0 0 0 
0 0 0 0 0 0 0 0 0 
0 0 0 0 0 0 0 0 0 
0 0 0 0 0 0 0 0 0 
0 0 0 0 0 0 0 0 0 
0 0 0 0 0 0 0 0 0 
0 0 0 0 0 0 0 0 0 
0 0 0 0 0 0 0 0 0 
0 0 0 0 0 0 0 0 0 
0 0 0 0 0 0 0 0 0 
0 0 0 0 0 0 0 0 0 
0 0 0 0 0 0 0 0 0 
0 0 0 0 0 0 0 0 0 
0 0 0 0 0 0 0 0 0 
0 0 0 0 0 0 0 0 0 
0 0 0 0 0 0 0 0 0 
0 0 0 0 0 0 0 0 0 
0 0 0 0 0 0 0 0 0 
0 0 0 0 0 0 0 0 0 
0 0 0 0 0 0 0 0 0 
0 0 0 0 0 0 0 0 0 
0 0 0 0 0 0 0 0 0 
0 0 0 0 0 0 0 0 0 
0 0 0 0 0 0 0 0 0 
0 0 0 0 0 0 0 0 0 
0 0 0 0 0 0 0 0 0 
0 0 0 0 0 0 0 0 0 
0 0 0 0 0 0 0 0 0 

vtkValidPointMask 1 1116 char
1 1 1 1 1 1 1 1 1 
1 1 1 1 1 1 1 1 1 
1 1 1 1 1 1 1 1 1 
1 1 1 1 1 1 1 1 1 
1 1 1 1 1 1 1 1 1 
1 1 1 1 1 1 1 1 1 
1 1 1 1 1 1 1 1 1 
1 1 1 1 1 1 1 1 1 
1 1 1 1 1 1 1 1 1 
1 1 1 1 1 1 1 1 1 
1 1 1 1 1 1 1 1 1 
1 1 1 1 1 1 1 1 1 
1 1 1 1 1 1 1 1 1 
1 1 1 1 1 1 1 1 1 
1 1 1 1 1 1 1 1 1 
1 1 1 1 1 1 1 1 1 
1 1 1 1 1 1 1 1 1 
1 1 1 1 1 1 1 1 1 
1 1 1 1 1 1 1 1 1 
1 1 1 1 1 1 1 1 1 
1 1 1 1 1 1 1 1 1 
1 1 1 1 1 1 1 1 1 
1 1 1 1 1 1 1 1 1 
1 1 1 1 1 1 1 1 1 
1 1 1 1 1 1 1 1 1 
1 1 1 1 1 1 1 1 1 
1 1 1 1 1 1 1 1 1 
1 1 1 1 1 1 1 1 1 
1 1 1 1 1 1 1 1 1 
1 1 1 1 1 1 1 1 1 
1 1 1 1 1 1 1 1 1 
1 1 1 1 1 1 1 1 1 
1 1 1 1 1 1 1 1 1 
1 1 1 1 1 1 1 1 1 
1 1 1 1 1 1 1 1 1 
1 1 1 1 1 1 1 1 1 
1 1 1 1 1 1 1 1 1 
1 1 1 1 1 1 1 1 1 
1 1 1 1 1 1 1 1 1 
1 1 1 1 1 1 1 1 1 
1 1 1 1 1 1 1 1 1 
1 1 1 1 1 1 1 1 1 
1 1 1 1 1 1 1 1 1 
1 1 1 1 1 1 1 1 1 
1 1 1 1 1 1 1 1 1 
1 1 1 1 1 1 1 1 1 
1 1 1 1 1 1 1 1 1 
1 1 1 1 1 1 1 1 1 
1 1 1 1 1 1 1 1 1 
1 1 1 1 1 1 1 1 1 
1 1 1 1 1 1 1 1 1 
1 1 1 1 1 1 1 1 1 
1 1 1 1 1 1 1 1 1 
1 1 1 1 1 1 1 1 1 
1 1 1 1 1 1 1 1 1 
1 1 1 1 1 1 1 1 1 
1 1 1 1 1 1 1 1 1 
1 1 1 1 1 1 1 1 1 
1 1 1 1 1 1 1 1 1 
1 1 1 1 1 1 1 1 1 
1 1 1 1 1 1 1 1 1 
1 1 1 1 1 1 1 1 1 
1 1 1 1 1 1 1 1 1 
1 1 1 1 1 1 1 1 1 
1 1 1 1 1 1 1 1 1 
1 1 1 1 1 1 1 1 1 
1 1 1 1 1 1 1 1 1 
1 1 1 1 1 1 1 1 1 
1 1 1 1 1 1 1 1 1 
1 1 1 1 1 1 1 1 1 
1 1 1 1 1 1 1 1 1 
1 1 1 1 1 1 1 1 1 
1 1 1 1 1 1 1 1 1 
1 1 1 1 1 1 1 1 1 
1 1 1 1 1 1 1 1 1 
1 1 1 1 1 1 1 1 1 
1 1 1 1 1 1 1 1 1 
1 1 1 1 1 1 1 1 1 
1 1 1 1 1 1 1 1 1 
1 1 1 1 1 1 1 1 1 
1 1 1 1 1 1 1 1 1 
1 1 1 1 1 1 1 1 1 
1 1 1 1 1 1 1 1 1 
1 1 1 1 1 1 1 1 1 
1 1 1 1 1 1 1 1 1 
1 1 1 1 1 1 1 1 1 
1 1 1 1 1 1 1 1 1 
1 1 1 1 1 1 1 1 1 
1 1 1 1 1 1 1 1 1 
1 1 1 1 1 1 1 1 1 
1 1 1 1 1 1 1 1 1 
1 1 1 1 1 1 1 1 1 
1 1 1 1 1 1 1 1 1 
1 1 1 1 1 1 1 1 1 
1 1 1 1 1 1 1 1 1 
1 1 1 1 1 1 1 1 1 
1 1 1 1 1 1 1 1 1 
1 1 1 1 1 1 1 1 1 
1 1 1 1 1 1 1 1 1 
1 1 1 1 1 1 1 1 1 
1 1 1 1 1 1 1 1 1 
1 1 1 1 1 1 1 1 1 
1 1 1 1 1 1 1 1 1 
1 1 1 1 1 1 1 1 1 
1 1 1 1 1 1 1 1 1 
1 1 1 1 1 1 1 1 1 
1 1 1 1 1 1 1 1 1 
1 1 1 1 1 1 1 1 1 
1 1 1 1 1 1 1 1 1 
1 1 1 1 1 1 1 1 1 
1 1 1 1 1 1 1 1 1 
1 1 1 1 1 1 1 1 1 
1 1 1 1 1 1 1 1 1 
1 1 1 1 1 1 1 1 1 
1 1 1 1 1 1 1 1 1 
1 1 1 1 1 1 1 1 1 
1 1 1 1 1 1 1 1 1 
1 1 1 1 1 1 1 1 1 
1 1 1 1 1 1 1 1 1 
1 1 1 1 1 1 1 1 1 
1 1 1 1 1 1 1 1 1 
1 1 1 1 1 1 1 1 1 
1 1 1 1 1 1 1 1 1 
1 1 1 1 1 1 1 1 1 

Stress_X_Pt 1 1116 double
6.8291486969e-05 5.0277687478e-05 4.15284685e-05 5.3032847973e-05 2.6001662263e-05 2.2093550115e-05 1.046553507e-05 7.0967879537e-06 -1.1547729173e-06 
-3.8199609662e-06 -8.6998622919e-06 -1.0856746826e-05 -1.6438670173e-05 -1.6377466864e-05 -2.5653570447e-05 -2.4862167265e-05 -2.9213102607e-05 -3.1554442103e-05 
-2.4647724786e-05 -2.9008265756e-05 -1.9861715373e-05 -2.3596827305e-05 -1.8010835447e-05 -2.1094821932e-05 -1.685731695e-05 -2.1073821244e-05 -2.0310127184e-05 
-2.5588572043e-05 -2.5239752176e-05 -3.093467194e-05 -2.039874289e-05 -2.8559025395e-05 -9.668925486e-06 -1.9621371848e-05 3.2450543586e-08 -8.8556167839e-06 
7.4648285135e-06 8.724811309e-07 9.5550408332e-06 6.1840575185e-06 5.7401143749e-06 5.5372577208e-06 2.5940926207e-07 1.2462399859e-06 -5.7583665694e-06 
-3.8732968228e-06 -1.384298821e-05 -1.1058477298e-05 -1.9985751351e-05 -1.7132761513e-05 -2.2816845558e-05 -1.9576835257e-05 -2.3275674721e-05 -1.8312822931e-05 
-1.749555031e-05 -1.0851806792e-05 -8.7038392849e-06 -1.6647688881e-06 -2.2397239263e-07 5.9447887679e-06 9.5536172466e-06 1.2849803284e-05 1.7062784536e-05 
1.7287784885e-05 2.1087326786e-05 1.9354742562e-05 2.4018211661e-05 1.9363984848e-05 2.1974115953e-05 1.406654448e-05 1.4034523247e-05 5.2568049966e-06 
7.4520735325e-06 -1.6028875507e-06 2.9348545354e-06 -7.8271883979e-06 -4.7313545224e-06 -1.8182295804e-05 -1.7110735826e-05 -3.2949586512e-05 -3.7582587538e-05 
-5.2767667512e-05 -6.1047194322e-05 -7.1624377597e-05 -7.2997019743e-05 -7.7163773312e-05 -7.2304206697e-05 -7.1811566158e-05 -7.2493261541e-05 -6.6495382271e-05 
-7.5269628724e-05 -6.2673594584e-05 -6.9797104516e-05 -5.5946667089e-05 -5.4788148191e-05 -4.6328078497e-05 -3.7353253902e-05 -3.6265114886e-05 -2.6805561902e-05 
-3.0510824672e-05 -2.5026579351e-05 -3.0843174954e-05 -2.5353079764e-05 -3.2501069654e-05 -1.9159029307e-05 -2.7941756116e-05 -3.6247320168e-07 -1.0018352327e-05 
2.5220962016e-05 1.511866401e-05 5.39888606e-05 4.0403015646e-05 -5.6394217609e-05 -3.7133811929e-05 -3.818264986e-05 -5.4782878578e-05 -1.6442062133e-05 
-2.1212129695e-05 -2.1599128104e-06 -1.0345936403e-05 1.1515271808e-05 2.4760007022e-06 2.4145033422e-05 1.6490219139e-05 3.4657535252e-05 2.7577826586e-05 
4.022235953e-05 3.3642699691e-05 4.0177837946e-05 3.3304301724e-05 3.5712642784e-05 2.8024573567e-05 2.7004489311e-05 1.8952902906e-05 1.749806006e-05 
9.0442949272e-06 7.7682808524e-06 1.046080456e-06 -2.1520414748e-06 -6.1740796014e-06 -1.1948881593e-05 -1.3479252289e-05 -2.4033289264e-05 -2.2609397547e-05 
-3.7901641917e-05 -3.3305976103e-05 -5.3255749663e-05 -4.5689456783e-05 -6.0718817622e-05 -5.4739252846e-05 -5.1331484428e-05 -5.1636309763e-05 -4.0196633563e-05 
-4.4324176088e-05 -3.2601823477e-05 -3.8230511564e-05 -2.1026456125e-05 -2.7736839002e-05 -8.0663621702e-06 -1.3677315565e-05 -4.4705282676e-07 -4.2358290244e-06 
-5.0368637687e-06 -7.0331393687e-06 -1.3339403722e-05 -1.5195970491e-05 -1.6027363017e-05 -1.9633202101e-05 -1.5106316823e-05 -1.8067330529e-05 -8.0317378206e-06 
-1.1033392241e-05 -3.2227129623e-06 -5.7517915479e-06 -3.5719560856e-06 -4.854157055e-06 -1.1184049981e-05 -1.0888218412e-05 -2.4020331693e-05 -2.2369801854e-05 
-3.3937040826e-05 -3.1212774957e-05 -4.0309343603e-05 -3.7281049572e-05 -4.2703397412e-05 -4.1386876546e-05 -4.1715342377e-05 -4.1414751649e-05 -4.0421029553e-05 
-3.9914568333e-05 -3.9638498492e-05 -3.740939519e-05 -3.5452592783e-05 -3.0921860798e-05 -3.080586157e-05 -2.4983596632e-05 -2.6659275136e-05 -2.2603872821e-05 
-2.3301771762e-05 -2.1205368739e-05 -1.7666332042e-05 -1.7726966462e-05 -9.754977782e-06 -1.0779614286e-05 -1.3138798067e-06 -1.6582455373e-06 9.6439433719e-06 
7.0606794225e-06 1.9562460693e-05 1.3696717701e-05 2.6029119908e-05 1.7601900709e-05 2.410590605e-05 1.2697764646e-05 7.6328781233e-06 -4.9768391364e-06 
-1.7985537625e-05 -3.1699387705e-05 -4.5127995691e-05 -6.0663342083e-05 -7.7340724602e-05 -8.8717760264e-05 -9.5547875389e-05 -9.3866838142e-05 -8.241028263e-05 
-7.3308940046e-05 -6.6286200308e-05 -6.0933525674e-05 1.4026213194e-05 2.5397891477e-05 1.135832008e-06 -8.476121593e-06 -1.4017307876e-05 -1.6738342083e-05 
-2.3036631319e-05 -3.1618797493e-05 -3.2534795082e-05 -2.8165053664e-05 -2.6042165246e-05 -2.746680002e-05 -3.3424214053e-05 -3.9892036511e-05 -4.0942600208e-05 
-3.5106910673e-05 -2.4230073905e-05 -1.2913017123e-05 -4.2050491871e-06 -3.010978844e-07 -1.9525370085e-06 -5.5983067028e-06 -7.9992158817e-06 -1.2187575976e-05 
-1.328362805e-05 -9.4989050012e-06 -1.5393508193e-06 6.5641489755e-06 1.2426630974e-05 1.5061142676e-05 1.4478067897e-05 1.2290051131e-05 7.7427523593e-06 
-1.243338744e-06 -1.114693535e-05 -1.8817113641e-05 -2.747940016e-05 -4.0349406845e-05 -5.631863587e-05 -7.2164046287e-05 -8.1719821537e-05 -7.8790279076e-05 
-6.8320730861e-05 -5.3759067669e-05 -4.3979905058e-05 -3.6312639622e-05 -3.3015883218e-05 -3.2014639601e-05 -3.2971359815e-05 -3.5735505662e-05 -3.8698000026e-05 
-3.8103064071e-05 -2.4877839792e-05 -3.4731051528e-06 1.6331521579e-05 2.75885875e-05 -2.6835852623e-05 -3.6636357436e-05 -2.122328965e-05 -1.0887035899e-05 
3.3726070683e-06 1.5133433408e-05 2.189189172e-05 2.1568635702e-05 1.4098644058e-05 3.5215020517e-06 -5.0675944863e-06 -9.4050564599e-06 -1.2812463638e-05 
-1.6138185856e-05 -1.9833679744e-05 -2.5084560093e-05 -3.227072375e-05 -4.1313296606e-05 -4.6613658014e-05 -4.7148771046e-05 -4.5018254241e-05 -3.7769017126e-05 
-2.3496354061e-05 -1.1320009776e-05 -1.2294863495e-05 -2.1061674033e-05 -2.7134018183e-05 -2.5365528472e-05 -1.8454486963e-05 -1.2616133063e-05 -9.8566840734e-06 
-1.2931369838e-05 -2.1681009684e-05 -2.9064895443e-05 -3.5030998788e-05 -3.9825223212e-05 -3.9829539674e-05 -3.7007614083e-05 -3.20915874e-05 -2.3861798127e-05 
-1.7469814111e-05 -1.7249544044e-05 -1.893764238e-05 -1.8681846541e-05 -1.3292476524e-05 -5.1293132515e-06 -6.388202678e-07 2.1084765933e-06 2.4408645061e-06 
-6.7179012149e-06 -2.5632508482e-05 -5.1364764204e-05 -7.4507759564e-05 -8.5305062385e-05 -7.4445346399e-05 -5.4836663367e-05 -4.9495986786e-05 -4.7372841436e-05 
-4.4903366074e-06 5.9601929365e-06 -1.2532446249e-05 -1.6291887732e-05 -1.7817223579e-05 -2.1087042114e-05 -2.6443374281e-05 -2.8268498681e-05 -2.6731523576e-05 
-2.6690140658e-05 -2.9167926641e-05 -3.5852674046e-05 -4.4646358219e-05 -4.8494189286e-05 -4.4865437303e-05 -3.6038927192e-05 -2.6391690653e-05 -1.8737317419e-05 
-1.3621556832e-05 -1.2573477079e-05 -1.3830955822e-05 -6.7174342462e-06 -7.1504799735e-06 -5.8856162184e-06 -2.6261118649e-06 2.1313550178e-06 6.9966800993e-06 
1.0566389619e-05 1.0078423657e-05 5.9762414253e-06 3.4420446582e-07 -6.7703085733e-06 -1.6306618932e-05 -2.6096950933e-05 -3.5350210055e-05 -4.5425178541e-05 
-5.6712141486e-05 -6.8899827966e-05 -7.8851895523e-05 -8.1699814473e-05 -7.5512416515e-05 -6.4544587985e-05 -5.248969137e-05 -2.4371056952e-05 -3.0372754281e-05 
-2.4362606837e-05 -2.8545011446e-05 -3.3586729387e-05 -3.7309640902e-05 -3.9663636016e-05 -4.0797675865e-05 -3.5297231989e-05 -2.1317129153e-05 -3.1041865043e-06 
1.1733788796e-05 1.4132005958e-05 -9.3233959433e-06 -1.4745410226e-05 -3.6865535549e-05 -4.0181445911e-05 -2.4593449325e-05 -2.6796721158e-05 -1.8200385057e-05 
-7.4601309734e-06 2.8679811379e-06 8.9368500511e-06 9.255182249e-06 1.9771356534e-06 -1.0126508343e-05 -1.6892098529e-05 -1.7322456188e-05 -1.7954752138e-05 
-1.8541385543e-05 -1.7818290644e-05 -1.823153525e-05 -2.1171224716e-05 -2.68891632e-05 -3.7491171042e-05 -4.3453098442e-05 -4.5685766054e-05 -4.2413814299e-05 
-3.0309995509e-05 -1.8205098968e-05 -1.9377283024e-05 -2.7988667171e-05 -3.3672042719e-05 -3.3086296753e-05 -2.7071055229e-05 -2.1275055587e-05 -1.7874110881e-05 
-1.9297380049e-05 -2.5517768336e-05 -3.1212057365e-05 -3.5913316424e-05 -3.7796490687e-05 -3.5118413507e-05 -3.1255392514e-05 -2.6410863029e-05 -1.9858060568e-05 
-1.5485518588e-05 -1.614606731e-05 -1.92017269e-05 -2.0426712581e-05 -1.6867562863e-05 -1.2528615912e-05 -1.1161598195e-05 -9.5658072894e-06 -1.0945334083e-05 
-2.1517775963e-05 -3.9984688101e-05 -5.9172178226e-05 -6.7381394729e-05 -5.9614137172e-05 -4.5040154873e-05 -3.730636854e-05 -3.7865070226e-05 -3.707281212e-05 
-3.129768811e-05 -2.4060596388e-05 -2.7996578865e-05 -1.77231625e-05 -1.4125835605e-05 -1.8308571953e-05 -2.7771946407e-05 -3.6894717596e-05 -4.2226235564e-05 
-4.3239082515e-05 -4.3073521738e-05 -4.250433085e-05 -3.7850036733e-05 -2.014486397e-05 3.8535783062e-06 6.3921216338e-06 -1.5631910628e-06 -9.5384017982e-06 
-1.6159690176e-05 -1.9224155039e-05 -1.9316878479e-05 -1.990946339e-05 -2.1283512524e-05 -2.1783171178e-05 -2.1859708795e-05 -2.3180680273e-05 -2.6987951514e-05 
-3.4233392853e-05 -4.475258811e-05 -5.2383174079e-05 -5.1974399867e-05 -4.5714455155e-05 -3.7775116652e-05 -3.1508851862e-05 -2.6563837764e-05 -2.3302285626e-05 
-2.2785873171e-05 -2.1816209028e-05 -1.4255966789e-05 -1.9451192202e-05 -9.3878956022e-06 -4.1127062786e-06 -5.9413673625e-07 2.3991788112e-08 8.5950563289e-07 
3.1041163879e-06 5.4966484413e-06 5.6386206211e-06 1.7640092551e-06 -5.2597336548e-06 -1.3519039669e-05 -2.2248580308e-05 -3.1042139653e-05 -3.9332275719e-05 
-4.9661595767e-05 -6.0760276028e-05 -6.9371280006e-05 -7.6527609053e-05 -8.1301777755e-05 -8.0537700342e-05 -7.3445200542e-05 -6.2956860347e-05 -5.2458137361e-05 
-4.1261639126e-05 -2.8702111194e-05 -1.5516431858e-05 -1.6705148482e-05 -1.5151438068e-05 -2.2394577627e-05 -2.4792406293e-05 -1.6818298491e-05 -1.1043693021e-05 
-7.9044925343e-06 -7.5995610587e-06 -1.16698547e-05 -2.0988054075e-05 -2.652256444e-05 -2.4740955723e-05 -2.2425190309e-05 -2.0519034024e-05 -1.6579404473e-05 
-1.3579271126e-05 -1.3370369061e-05 -1.4651969877e-05 -3.8561602196e-05 -3.1686116017e-05 -4.3163408009e-05 -4.3023126636e-05 -3.4484123262e-05 -2.5363849545e-05 
-2.697142736e-05 -3.3828430787e-05 -3.8664824388e-05 -3.8896491787e-05 -3.467200122e-05 -3.0000995594e-05 -2.7072345347e-05 -2.7983102427e-05 -3.181154807e-05 
-3.4298374885e-05 -3.4993162444e-05 -3.2303139506e-05 -2.7991110073e-05 -2.534096393e-05 -2.173905068e-05 -1.7552468307e-05 -1.5472071482e-05 -1.6909114038e-05 
-2.0483269054e-05 -2.25379722e-05 -2.1658733658e-05 -2.1534556709e-05 -2.2727243504e-05 -2.2604453989e-05 -2.467930608e-05 -3.4229139146e-05 -5.0029848353e-05 
-6.107482568e-05 -5.848271303e-05 -4.4382490159e-05 -2.8835573175e-05 -2.4538707294e-05 -2.8169503821e-05 -2.8534542253e-05 -2.5309760531e-05 -2.4130083602e-05 
-2.3800500003e-05 -1.607791819e-05 -9.7709315696e-06 -8.4917047616e-06 -1.4562564047e-05 -2.6071199954e-05 -3.7972636164e-05 -4.5014053285e-05 -4.6153390031e-05 
-4.5146395678e-05 -4.5144890464e-05 -4.7350355089e-05 -4.4597097713e-05 -2.2072949264e-06 -1.4619079707e-06 -8.1923591893e-06 -1.3464651374e-05 -1.9255365032e-05 
-2.1751872282e-05 -2.1131590984e-05 -1.9886578229e-05 -1.8546912088e-05 -1.7702162586e-05 -1.7669249701e-05 -1.8687137981e-05 -2.3292425794e-05 -3.1268501516e-05 
-4.0944989451e-05 -5.0927229495e-05 -5.5570023505e-05 -5.2944264098e-05 -4.7320369777e-05 -3.9272455979e-05 -3.3543367863e-05 -2.9166720803e-05 -2.9460053156e-05 
-2.8543673579e-05 -2.534899204e-05 -1.5557670395e-05 -2.1023592126e-05 -1.0092381331e-05 -4.55526623e-06 -2.6352358873e-07 2.5779866633e-06 1.8050232029e-06 
2.0444775259e-06 3.7618626152e-06 3.2726701207e-06 -3.6517038637e-07 -7.1548039955e-06 -1.660419116e-05 -2.7316803425e-05 -3.7266045638e-05 -4.3812602598e-05 
-4.8357249398e-05 -5.7673525589e-05 -6.918181316e-05 -7.5766252849e-05 -7.84985059e-05 -7.807413931e-05 -7.3754934419e-05 -6.7406548624e-05 -6.1585324147e-05 
-5.3281131841e-05 -4.1831078306e-05 -2.9148151953e-05 -1.7863055518e-05 -8.027670674e-06 -9.2208078968e-06 -7.2545308285e-06 -1.4381539643e-05 -3.5587112961e-05 
-2.1123678835e-05 -1.624683e-05 -2.8407083846e-05 -3.4159384541e-05 -3.9058288166e-05 -4.1270272959e-05 -3.6795688629e-05 -3.1618953017e-05 -3.4111489185e-05 
-3.935231689e-05 -4.291055393e-05 -4.3271474169e-05 -4.055413865e-05 -3.7969489313e-05 -3.8053003664e-05 -3.6622685911e-05 -3.7362715375e-05 -3.5915742046e-05 
-3.1625640077e-05 -2.5283172818e-05 -2.2009939585e-05 -2.0904813937e-05 -1.8099516183e-05 -1.6338831301e-05 -1.6143074845e-05 -1.8023029952e-05 -2.208308706e-05 
-2.5818153517e-05 -2.8337022286e-05 -3.1986979593e-05 -3.5724938243e-05 -3.7122484173e-05 -3.876843266e-05 -4.5100477109e-05 -5.5928194342e-05 -6.1351083787e-05 
-5.4341811847e-05 -3.8975371353e-05 -2.2744121225e-05 -1.6645292362e-05 -1.9787392603e-05 -2.0808631234e-05 -1.9063549189e-05 -2.0641649826e-05 -2.3690293801e-05 
-2.4212842618e-05 -2.3356660222e-05 -2.3055315069e-05 -2.4201455744e-05 -2.5255621495e-05 -2.686470998e-05 -3.0230756693e-05 -3.2105588161e-05 -2.934378881e-05 
-2.5288610232e-05 -2.1590560209e-05 -1.6676067389e-05 -1.247580667e-05 -1.0210259688e-05 -1.0075563068e-05 -1.1335209592e-05 -1.394656465e-05 -1.7538599423e-05 
-1.68519407e-05 -1.9805833896e-05 -5.8369198541e-06 -1.1367419802e-05 -2.3138979714e-05 -3.6083296891e-05 -4.5201640205e-05 -4.8423091357e-05 -4.7619386351e-05 
-4.7050646572e-05 -4.9407703045e-05 -5.2302646509e-05 -4.9333288189e-05 -3.1959658827e-05 -4.4775920287e-05 -1.5902645259e-05 -8.9579971245e-06 -1.0906155808e-05 
-1.4352621065e-05 -1.8555212819e-05 -2.191708154e-05 -2.3300411613e-05 -2.2936843834e-05 -2.1113293315e-05 -1.8624296899e-05 -1.749203966e-05 -1.5291565205e-05 
-1.5075177089e-05 -1.9793478259e-05 -2.950416183e-05 -3.7775737534e-05 -4.4338020234e-05 -5.4778710364e-05 -5.6463110923e-05 -5.5047044043e-05 -3.5369794205e-05 
-4.1529484406e-05 -1.6481134253e-05 -1.7373089122e-05 -4.8163261454e-05 -5.3584626585e-05 -3.0667984902e-05 -3.4464599594e-05 -2.5708328849e-05 -1.6575170093e-05 
-2.2351613097e-05 -1.0291090462e-05 -4.1973977432e-06 9.4247275229e-07 1.6254767772e-06 3.4467594048e-06 3.1757363246e-06 -1.0658210456e-06 -7.4151917246e-06 
-1.5864451711e-05 -2.6664421966e-05 -3.8955327909e-05 -4.8817582865e-05 -5.1961539612e-05 -5.2969599892e-05 -6.0513607423e-05 -7.1315540481e-05 -7.6367161455e-05 
-7.5814872616e-05 -7.1232820119e-05 -6.0484924325e-05 -5.6148952353e-05 -4.2980512262e-05 -3.0395095109e-05 -1.9542615973e-05 -1.110269875e-05 -5.0797264066e-06 
-7.2393820574e-06 -4.5334790002e-06 -2.5062862733e-05 -3.0203337246e-05 -3.5103956634e-05 -3.8903415771e-05 -3.7576319301e-05 -3.5983531234e-05 -3.9783632928e-05 
-4.3684658522e-05 -4.5521648644e-05 -4.5849702474e-05 -4.4456024625e-05 -4.3884529077e-05 -4.5482659516e-05 -3.9994194594e-05 -4.2764158934e-05 -3.4729415347e-05 
-2.6779110613e-05 -1.9754394543e-05 -1.7819224468e-05 -1.7102286165e-05 -1.5350050717e-05 -1.5524234414e-05 -1.6640947251e-05 -1.8975252715e-05 -2.5531719439e-05 
-3.2155234294e-05 -3.7824186165e-05 -4.4037717998e-05 -4.8965122915e-05 -5.0626946177e-05 -5.1018761042e-05 -5.3306216614e-05 -6.0710890102e-05 -6.1716608798e-05 
-5.251651055e-05 -3.6113512579e-05 -1.9650142804e-05 -1.1452589433e-05 -1.1912830132e-05 -1.2916741753e-05 -1.2709098428e-05 -1.6851833834e-05 -2.2390346658e-05 
-2.5449378427e-05 -2.7437139124e-05 -3.0619070913e-05 -3.4712065826e-05 -3.7205155422e-05 -3.7858244468e-05 -3.7507083107e-05 -3.5976170693e-05 -3.1864331049e-05 
-2.6963884011e-05 -2.2558560431e-05 -1.7970470935e-05 -1.3799178987e-05 -1.0095787729e-05 -9.7659515177e-06 -1.1127765219e-05 -1.2228273818e-05 -1.5133594161e-05 
-1.9544223051e-05 -1.7907553683e-05 -2.1572604055e-05 -4.5389475417e-05 -4.8776128097e-05 -2.1995280264e-07 2.5257631293e-06 -6.8644375091e-06 -1.0582410113e-06 
-1.4263295952e-05 -2.3643877967e-05 -3.4880330986e-05 -4.7476952204e-05 -5.6232512179e-05 -5.7890105381e-05 -5.7147800362e-05 -6.267790377e-05 -7.0766605859e-05 
-7.430979349e-05 -7.1895881774e-05 -6.5169117988e-05 -5.5509568483e-05 -4.4022058319e-05 -4.4505526603e-05 -8.9234403049e-06 -2.0186252868e-05 -3.3310195249e-05 
-4.4406016968e-05 -4.979755704e-05 -5.0374557759e-05 -4.9302156185e-05 -4.9822842811e-05 -5.0908525736e-05 -5.0128644943e-05 -4.7842032473e-05 -4.4900780267e-05 
-4.6778016258e-05 -3.4740382944e-05 -2.2082068881e-05 -1.7290618871e-05 -1.8536609332e-05 -2.1139618184e-05 -2.338106151e-05 -2.4676511202e-05 -2.3128617158e-05 
-2.0530068923e-05 -1.8661700324e-05 -1.7814509192e-05 -1.6975873677e-05 -1.6703387701e-05 -1.5477305851e-05 -1.3380620203e-05 -1.4468202835e-05 -1.8937139885e-05 
-2.9605707823e-05 -3.3674852602e-05 -3.9564521285e-05 -2.9149859529e-05 -1.2861145115e-05 -2.1439994725e-05 -4.9369809858e-06 -2.6488636649e-05 -3.1414604109e-05 
-3.5641367504e-05 -3.6510367863e-05 -3.775272944e-05 -4.3207979616e-05 -4.6732428927e-05 -4.5954216148e-05 -4.621313019e-05 -4.7653702495e-05 -4.9363051403e-05 
-3.9644536628e-05 -4.5334558308e-05 -3.1478171422e-05 -2.2674051252e-05 -1.6771557512e-05 -1.4492818536e-05 -1.3281598513e-05 -1.2710468127e-05 -1.4494331936e-05 
-1.7379186374e-05 -1.9477635457e-05 -2.3688259716e-05 -4.9128250794e-05 -4.2219071474e-05 -5.5774374232e-05 -6.0310811023e-05 -6.1299320805e-05 -5.9993804825e-05 
-5.9348767536e-05 -6.1716673372e-05 -4.8387374591e-05 -6.0359653617e-05 -3.1722755921e-05 -1.6355438447e-05 -8.8037618298e-06 -5.8758153827e-06 -4.5471599535e-06 
-6.4161055491e-06 -3.6255823488e-05 -3.2833958812e-05 3.2109076074e-06 3.5928470936e-06 -6.6423814133e-05 -6.6398599301e-05 -2.6121068004e-05 -2.9681598789e-05 
-3.3784232528e-05 -3.8845094423e-05 -4.2981930164e-05 -4.4604475079e-05 -4.3529749746e-05 -4.0069508032e-05 -3.4467077057e-05 -2.8621022466e-05 -2.3418580895e-05 
-1.87521523e-05 -1.5130201291e-05 -1.0861886494e-05 -9.4074215061e-06 -1.0896953199e-05 -1.2539226645e-05 -1.4696703374e-05 -1.9577654257e-05 -5.1960092605e-05 
-4.2471975576e-05 -5.6384087657e-05 -5.5641789913e-05 -5.369117207e-05 -5.0305251534e-05 -4.9610895076e-05 -4.649020957e-05 -2.0200000563e-05 -2.7873263207e-05 
-1.5596604044e-05 -1.1832718769e-05 -9.3960844652e-06 -9.9589206002e-06 -1.3082716578e-05 -2.0690007841e-05 -3.1583091641e-05 -4.4611429075e-05 -3.7058738599e-05 
-2.9823238947e-05 -2.3715977932e-05 -1.8783525775e-05 -1.5186249357e-05 -1.16999272e-05 -1.2696360136e-05 -1.4682105984e-05 -1.3088030983e-05 -1.3332406297e-05 
-1.5910120965e-05 -2.0285829123e-05 -3.0045231142e-05 -2.2949789854e-05 -2.8129461498e-05 -3.2240970995e-05 -3.3519449971e-05 -3.6770377847e-05 -4.3377744987e-05 
-4.615132184e-05 -2.6051983241e-05 -2.5849990379e-05 -2.3015023544e-05 -2.0896688056e-05 -3.8140713059e-05 -2.8287551686e-05 -2.4433908038e-05 -2.5421255941e-05 
-1.200724455e-05 -1.4464699461e-05 -1.7745922378e-05 -2.197350932e-05 -3.0132518532e-05 -4.0419958168e-05 -4.9768726967e-05 -4.7852114221e-05 -4.6408326549e-05 
-4.7546656788e-05 -4.9445120567e-05 -5.0464421292e-05 -4.8860584684e-05 -5.0968476899e-05 -8.7892044576e-06 -1.8773102056e-05 -3.1288649552e-05 -4.3806579924e-05 
-4.9759083595e-05 -3.6788113903e-05 -5.0665490562e-05 -4.6869870857e-05 -5.2618071095e-05 -5.9649571085e-05 -6.5207700573e-05 -6.8310706411e-05 -6.786900849e-05 
-6.4998359449e-05 -6.3285222495e-05 -6.3420215156e-05 -6.3743826104e-05 -6.845394455e-05 -6.4341047619e-05 -6.512341497e-05 -5.5364226682e-05 -4.2430431677e-05 
-2.7706681522e-05 -1.3109983138e-05 -5.5579654656e-06 -4.921009733e-07 1.0044873093e-06 -1.0841212656e-06 2.5066223088e-06 -1.1358796712e-06 -6.1097283037e-06 
-1.1687072856e-05 -2.009988998e-05 -3.0365015846e-05 -4.1766932554e-05 -5.3399925491e-05 -6.2213544879e-05 -6.2230960793e-05 -6.5033379542e-05 -6.9764915679e-05 
-7.1057073364e-05 -6.7217322794e-05 -6.000826852e-05 -5.3872697511e-05 -6.9815113193e-06 -7.1159498475e-05 -6.9571726272e-05 -6.6130463892e-05 -6.4516169004e-05 
-6.466627868e-05 -3.6484541397e-05 -4.8392023018e-05 -2.459261259e-05 -1.5693219818e-05 -3.9872532701e-05 -3.347716347e-05 -2.5400206596e-05 -2.8829632356e-05 
-2.2655832557e-05 -3.8942624997e-05 -3.0148243695e-05 -2.3358525596e-05 -1.858409405e-05 -1.4936277921e-05 -6.2032205278e-05 -6.5755775722e-05 -5.9186703766e-05 
-4.9021506129e-05 -4.4782551413e-05 -2.5077460426e-05 -1.8971602458e-05 -1.2979294411e-05 -9.4204388006e-06 -2.9634165912e-05 -2.6023006285e-05 -5.0768639085e-05 

Stress_Y_Pt 1 1116 double
4.6494384151e-05 3.5440225474e-05 4.4236148824e-06 8.9433042376e-06 1.8542596536e-05 -2.7850635433e-06 7.8908044543e-06 -7.7783791994e-06 6.0465345086e-07 
-1.205275953e-05 -7.3606859132e-06 -1.8359102683e-05 -1.5556719063e-05 -2.5901529398e-05 -2.4898818992e-05 -3.8288318592e-05 -4.070786963e-05 -5.6247310567e-05 
-5.3113462855e-05 -6.7999478233e-05 -5.1262051784e-05 -6.7264286372e-05 -4.0004810216e-05 -5.810732091e-05 -2.8747677788e-05 -4.7527751121e-05 -2.1444741833e-05 
-3.9087806272e-05 -1.345568262e-05 -3.1919679486e-05 -5.36520281e-06 -2.7670344423e-05 -3.0397969795e-06 -2.8795660057e-05 -6.6513350703e-06 -3.2448963907e-05 
-1.148186675e-05 -3.5397051761e-05 -1.6791091639e-05 -3.8348926182e-05 -2.401850179e-05 -4.2644091991e-05 -3.1452379517e-05 -4.7095735226e-05 -3.6950154026e-05 
-4.7107366299e-05 -4.115484262e-05 -4.3812055992e-05 -4.4358204832e-05 -3.9939479393e-05 -4.7685689424e-05 -3.8714016682e-05 -4.8648114898e-05 -3.9377600388e-05 
-3.640083014e-05 -3.2011165786e-05 -1.5825923128e-05 -1.9107806793e-05 1.3961298464e-06 -9.310936548e-06 1.4169714177e-05 -3.3756089124e-06 2.0652479179e-05 
-1.1418337635e-06 2.4139001653e-05 -1.6628564481e-07 3.2397263567e-05 2.8519389161e-06 3.8095846321e-05 4.6574969019e-06 3.3794818592e-05 2.4873393158e-06 
3.0386350772e-05 -4.8137189879e-07 3.0187678021e-05 -4.5099236559e-06 2.6394566703e-05 -1.2059186247e-05 1.6609420527e-05 -2.2817164336e-05 -1.8138616724e-06 
-3.7776068893e-05 -2.4965179364e-05 -5.5491322655e-05 -5.0016869864e-05 -7.2644756983e-05 -7.7717581007e-05 -8.914438331e-05 -0.00010411087715 -0.0001041490741 
-0.00012039642752 -0.00011452407307 -0.00011893044211 -0.00011610526235 -9.8816759419e-05 -0.00010617828411 -6.9546504164e-05 -8.6552706307e-05 -4.5921971832e-05 
-6.5449824433e-05 -2.9849838029e-05 -4.7906028158e-05 -1.7481899249e-05 -3.3397652942e-05 -8.4375969891e-06 -2.2692439416e-05 2.9551597436e-07 -1.4283128507e-05 
1.2293908867e-05 -6.6062399355e-06 3.3321843148e-05 3.225583896e-06 -3.5318886148e-05 -3.0222624446e-05 -2.7912635232e-05 -2.7796525501e-05 -2.1809702957e-05 
-2.6394035558e-05 -1.545325722e-05 -2.6666379199e-05 -6.9732552674e-06 -2.3508343133e-05 -1.7731540822e-06 -2.0057430234e-05 2.0456547816e-06 -1.7613693117e-05 
5.9387407418e-06 -1.6064831243e-05 7.0985472576e-06 -1.7900750549e-05 3.492889121e-06 -2.5029825245e-05 -4.5382380875e-06 -3.699464903e-05 -1.5018221802e-05 
-5.0286986834e-05 -2.7168903216e-05 -6.032813917e-05 -3.960239701e-05 -6.7599467002e-05 -5.2854047681e-05 -7.546130837e-05 -6.6891163442e-05 -8.360218817e-05 
-8.2792481408e-05 -8.990079732e-05 -9.3059410574e-05 -8.8750071882e-05 -8.2922000729e-05 -7.4495024819e-05 -5.1407449064e-05 -4.9688545914e-05 -2.0945410142e-05 
-2.8147036574e-05 -1.2186287677e-06 -1.5253505126e-05 1.7385713818e-05 -4.1296514155e-06 3.1881555515e-05 5.1501515372e-06 3.6406709114e-05 8.9960394689e-06 
3.1093479265e-05 6.1581504269e-06 2.2863864615e-05 7.8763832789e-07 1.8987743715e-05 -3.1572772059e-06 2.2918602554e-05 -3.0139576666e-06 3.6894949517e-05 
3.1507724998e-06 4.8886184231e-05 9.9712447081e-06 4.6518942327e-05 1.0613419363e-05 2.1009123174e-05 -9.6645580072e-07 5.6471437517e-06 -1.2440531819e-05 
-1.57254226e-06 -2.2096540533e-05 -2.8241825476e-05 -4.0898444922e-05 -5.5397669712e-05 -6.1162922975e-05 -7.263450243e-05 -7.4820658483e-05 -7.440952686e-05 
-7.9196210208e-05 -6.572480379e-05 -7.6991210335e-05 -5.9143685576e-05 -7.3805814282e-05 -5.7499668401e-05 -7.2599415034e-05 -5.2884022807e-05 -7.1312116233e-05 
-4.4826976591e-05 -6.7596322879e-05 -3.3987513234e-05 -5.998564211e-05 -2.1510015813e-05 -4.8571442903e-05 -9.9530914213e-06 -3.6252055793e-05 9.9179783319e-07 
-2.6839950237e-05 6.5352701313e-06 -2.1960226377e-05 7.0928435889e-06 -1.8888372324e-05 6.803822771e-06 -1.6239642605e-05 2.0695512148e-06 -1.5316726319e-05 
-5.1116804798e-06 -1.5284429594e-05 -1.0013571682e-05 -1.2823185671e-05 -2.1657795514e-05 -1.5132282215e-05 -3.2466139601e-05 -1.9094111849e-05 -2.9237938179e-05 
-1.5147856118e-05 -2.9770725632e-05 -1.8594162327e-05 -2.4238665446e-05 -2.3883748781e-05 -2.5234979148e-05 -2.7761295314e-05 -3.3245006307e-05 -4.153053942e-05 
-5.6848386521e-05 -7.5405363532e-05 -8.652816723e-05 -8.8309665443e-05 -8.3847628048e-05 -7.6491356594e-05 -7.0189120379e-05 -6.7010029852e-05 -6.7230970672e-05 
-6.877107171e-05 -6.838032732e-05 -6.6783774855e-05 -6.5603253461e-05 -6.5674354119e-05 -6.5152955358e-05 -5.650785024e-05 -4.6089776333e-05 -3.7721332774e-05 
-3.2531851048e-05 -2.9786154755e-05 -2.5206711143e-05 -2.0323792796e-05 -1.8527053726e-05 -1.9857819552e-05 -2.2632872515e-05 -2.5231082418e-05 -2.8176987598e-05 
-3.245714197e-05 -3.6638954498e-05 -4.0959892431e-05 -4.771303702e-05 -5.7678986195e-05 -6.9221979174e-05 -8.041707224e-05 -9.0617633759e-05 -9.7236079455e-05 
-9.9574226624e-05 -0.00010015221924 -0.00010924965136 -0.00011450485727 -0.00011424208969 -0.00010434589785 -8.6659869339e-05 -6.6993927248e-05 -4.916634316e-05 
-3.62390806e-05 -2.7329288969e-05 -2.3182121822e-05 -2.3024139409e-05 -2.3765131118e-05 -3.0000357583e-05 -2.445752807e-05 -3.6591124626e-05 -3.8537878936e-05 
-3.7229448935e-05 -3.6317877857e-05 -3.7858947508e-05 -4.5204139496e-05 -6.0171035329e-05 -7.9654588262e-05 -9.6350797321e-05 -0.00010352738173 -0.00010452763127 
-0.00010410279538 -0.00010139676306 -9.38080575e-05 -8.0176239862e-05 -6.3904423769e-05 -4.8090490964e-05 -3.6001737499e-05 -2.9021651699e-05 -2.4319714612e-05 
-1.9254758399e-05 -1.5065476418e-05 -1.5275201349e-05 -1.8029552621e-05 -2.1697546345e-05 -2.560128587e-05 -2.7914734346e-05 -2.8210213259e-05 -2.7438504731e-05 
-2.9142438052e-05 -3.7895643345e-05 -4.9204712923e-05 -6.0267630033e-05 -7.1536342148e-05 -7.981154522e-05 -8.7022630396e-05 -9.374081128e-05 -9.8145757875e-05 
-0.00010067585026 -0.00010356230268 -0.00010557113819 -0.00010266716163 -9.1827952929e-05 -7.6539356996e-05 -6.415570715e-05 -5.4061934861e-05 -4.4444242121e-05 
-3.7091793274e-05 -3.0121742384e-05 -2.2871165584e-05 -1.3451193468e-05 -8.5290674861e-06 -1.1455927051e-05 -9.6853459013e-06 -1.1373952191e-05 -1.9900248844e-05 
-2.9692154385e-05 -2.6148517918e-05 -3.3620545764e-05 -3.9523779378e-05 -4.8993032578e-05 -6.3842103373e-05 -8.0443904153e-05 -9.0902078227e-05 -9.4138160421e-05 
-9.3476161055e-05 -9.1502621217e-05 -9.1647414592e-05 -9.3955515695e-05 -9.4258135505e-05 -9.0183028078e-05 -8.4016353867e-05 -7.9681183706e-05 -7.7205777416e-05 
-7.4783669334e-05 -7.0266829425e-05 -6.2106282712e-05 -3.6535522213e-05 -4.1510297706e-05 -3.2158600789e-05 -2.6753100428e-05 -2.0685896288e-05 -1.7005939299e-05 
-1.6666026568e-05 -1.9686563064e-05 -2.4464605303e-05 -2.9235044167e-05 -3.4399039123e-05 -4.2318079977e-05 -5.2300485549e-05 -6.0909075728e-05 -6.741224388e-05 
-7.4155650509e-05 -8.2606926298e-05 -9.1662552222e-05 -9.831035095e-05 -9.9497668998e-05 -9.5894200058e-05 -9.0028228442e-05 -0.00010814233428 -0.00010166448919 
-0.0001077344532 -9.9602513728e-05 -8.5224995928e-05 -6.7226284045e-05 -4.951437586e-05 -3.5588835999e-05 -2.5387930236e-05 -2.1056383957e-05 -2.0017057068e-05 
-1.9005071863e-05 -2.1566296255e-05 -4.6517953706e-05 -5.2522652368e-05 -9.1411586254e-05 -8.4857309048e-05 -3.3250132674e-05 -2.7513911846e-05 -3.511435898e-05 
-3.5089937228e-05 -3.5909954022e-05 -4.0369071939e-05 -5.1755249842e-05 -7.1408520853e-05 -9.6490090073e-05 -0.00011480899229 -0.00011804642963 -0.00011354744311 
-0.0001073263229 -9.8073687695e-05 -8.5770318037e-05 -7.2409020504e-05 -5.7194697729e-05 -4.5144748583e-05 -3.5730216041e-05 -2.8736809327e-05 -2.3459410841e-05 
-1.7428115143e-05 -1.2422488453e-05 -1.2541211618e-05 -1.5061262502e-05 -1.8556908344e-05 -2.2887517844e-05 -2.5520054351e-05 -2.7865341963e-05 -3.0919295114e-05 
-3.7645570501e-05 -4.7704712415e-05 -5.7366402871e-05 -6.773117093e-05 -7.6602156696e-05 -8.3330221969e-05 -9.1627072834e-05 -0.00010119266881 -0.00011024515697 
-0.00011761368842 -0.00012345430696 -0.00012810167937 -0.00012732556934 -0.00011640331468 -9.9308876088e-05 -8.1659785792e-05 -6.3968508584e-05 -4.857897693e-05 
-3.7914099266e-05 -2.9747207464e-05 -2.0871368179e-05 -1.0911608342e-05 -8.1527375642e-06 -1.6936743123e-05 -1.9400976271e-05 -1.5583668755e-05 -1.7590254629e-05 
-2.1551458303e-05 -8.4017065092e-05 -8.3502734924e-05 -8.7824642833e-05 -9.0409015684e-05 -8.8295260866e-05 -8.1796950326e-05 -7.2587684372e-05 -6.0667939579e-05 
-4.6766201194e-05 -3.4549525935e-05 -2.4824331376e-05 -2.0147237137e-05 -1.8146656475e-05 -1.8549944798e-05 -2.2253390853e-05 -2.8450717309e-05 -3.28735523e-05 
-3.7319874536e-05 -4.3249417104e-05 -5.2259201766e-05 -6.5963288762e-05 -8.013124534e-05 -8.8662767666e-05 -9.2305226644e-05 -9.4046872618e-05 -9.64353585e-05 
-0.00010103093155 -0.00010587071301 -0.00010562989155 -9.9459186458e-05 -9.2695119747e-05 -8.9064007625e-05 -8.6498090241e-05 -8.186224477e-05 -7.5077670772e-05 
-6.7598290116e-05 -5.9115920521e-05 -4.3934289351e-05 -4.9738113375e-05 -3.8247510929e-05 -3.3117887142e-05 -2.9608750538e-05 -2.7129055525e-05 -2.3680156573e-05 
-1.8870255644e-05 -1.5828104551e-05 -1.6753112959e-05 -2.1265980195e-05 -2.7760297144e-05 -3.4923365092e-05 -4.2621786633e-05 -5.1804030591e-05 -6.3022535869e-05 
-7.4973400842e-05 -8.3670078311e-05 -8.8283404693e-05 -9.2202568339e-05 -9.6983198091e-05 -0.00010041348287 -9.8886941487e-05 -9.2627444246e-05 -8.6959584223e-05 
-8.4798914031e-05 -8.6122172434e-05 -8.4462641098e-05 -8.8462209533e-05 -8.2516336988e-05 -3.2509052289e-05 -3.0115078516e-05 -3.4923576095e-05 -3.9807023313e-05 
-4.8643760238e-05 -6.2775092374e-05 -8.2754002506e-05 -0.00010773937174 -0.00012530183085 -0.00012414497178 -0.00011339004413 -0.00010255139387 -9.1364187028e-05 
-8.0548039477e-05 -6.9666770287e-05 -5.9994716139e-05 -3.502711661e-05 -4.2107391891e-05 -2.9278965485e-05 -2.4588628094e-05 -1.8989008822e-05 -1.4510801293e-05 
-1.4232891999e-05 -1.5497088043e-05 -1.8533033199e-05 -2.2691823688e-05 -2.5129420919e-05 -2.761343103e-05 -3.1738397411e-05 -3.9826981265e-05 -4.9500230489e-05 
-5.7385072068e-05 -6.6808950578e-05 -7.6202342825e-05 -8.4087454525e-05 -9.2928117738e-05 -0.00010228805877 -0.00011192663987 -0.00012136424084 -0.00012962087931 
-0.00013606079665 -0.00013671367196 -0.00012713946307 -0.00011167006596 -9.451706137e-05 -7.5590627603e-05 -5.7886925788e-05 -4.3646801714e-05 -3.3043043459e-05 
-2.1884409534e-05 -1.0326306096e-05 -7.8416106817e-06 -1.5774440953e-05 -1.984006667e-05 -1.6455782998e-05 -1.5498261519e-05 -1.8985712813e-05 -2.5018288852e-05 
-4.8833677283e-05 -5.4717588682e-05 -8.1653812231e-05 -7.8412283983e-05 -7.1633314292e-05 -6.2872536546e-05 -5.5924964727e-05 -4.9346359447e-05 -4.0590158278e-05 
-3.2306889352e-05 -2.5030013148e-05 -2.005244869e-05 -1.648812372e-05 -2.3534671527e-05 -1.9101976704e-05 -2.9006984732e-05 -3.3207273646e-05 -3.8361175029e-05 
-4.4453257942e-05 -5.277114542e-05 -6.4351025685e-05 -7.5166179158e-05 -7.9274299787e-05 -8.4525283455e-05 -8.8291277279e-05 -9.3459306299e-05 -9.9481965663e-05 
-0.00010447253408 -0.00010514008682 -0.00010130995179 -9.7620448287e-05 -9.7315829771e-05 -9.1128013082e-05 -8.3801662186e-05 -7.7787056701e-05 -7.3378349043e-05 
-6.6048057306e-05 -5.6612588196e-05 -4.06236868e-05 -4.673712192e-05 -3.5408233543e-05 -3.1169413433e-05 -2.7937382886e-05 -2.5414870379e-05 -2.4460648092e-05 
-2.2234635253e-05 -1.7731630578e-05 -1.544451743e-05 -1.7773651962e-05 -2.3104097181e-05 -3.044435698e-05 -3.9124623981e-05 -4.8971226533e-05 -5.8135366089e-05 
-6.6686990976e-05 -7.7951284766e-05 -8.8160191808e-05 -9.3246240795e-05 -9.6173789643e-05 -9.8509080999e-05 -9.875026808e-05 -9.6078372735e-05 -9.2083047396e-05 
-8.9472261607e-05 -8.9738132374e-05 -9.1368869107e-05 -9.1683890787e-05 -8.7803251517e-05 -8.8389842858e-05 -8.4154720753e-05 -1.5516276108e-05 -1.2542525155e-05 
-4.5907137974e-05 -5.1410827837e-05 -4.1985454118e-05 -3.6505770368e-05 -3.1553990539e-05 -2.7144103569e-05 -2.1503909011e-05 -1.6998078763e-05 -1.5971175117e-05 
-1.5793307284e-05 -1.7937524262e-05 -2.1853143153e-05 -2.4072601718e-05 -2.5790040127e-05 -3.0096618866e-05 -3.8495072658e-05 -4.6407261834e-05 -5.3830789511e-05 
-6.3911626967e-05 -7.4602219684e-05 -8.3554556113e-05 -9.1510279162e-05 -9.9171811598e-05 -0.00010843743803 -0.00011820176405 -0.00012564068311 -0.00013123302051 
-0.00013317134653 -0.00012676130427 -0.00011514304424 -0.00010132498028 -8.4723742475e-05 -6.7655426392e-05 -5.0934166211e-05 -3.6820276819e-05 -2.4106905357e-05 
-1.2695398709e-05 -1.0958903658e-05 -1.6448121869e-05 -1.883916957e-05 -1.7101040385e-05 -1.587750171e-05 -1.8207224002e-05 -2.4015922918e-05 -2.9253170851e-05 
-3.3189594433e-05 -3.9269547415e-05 -4.9040029808e-05 -6.2731233811e-05 -7.9481636021e-05 -9.8569305919e-05 -0.00011837371676 -0.00013076040705 -0.00012720995983 
-0.00011451774299 -0.00010167250366 -9.0004486992e-05 -8.0238418377e-05 -7.1417636718e-05 -6.5063582042e-05 -6.2262004576e-05 -5.9866185438e-05 -4.9451742598e-05 
-5.5155302107e-05 -4.5130020832e-05 -7.9783932961e-05 -6.9862780947e-05 -5.7168224885e-05 -4.7637379794e-05 -4.2259931433e-05 -3.6633839045e-05 -3.0560684081e-05 
-2.5515085781e-05 -2.1666338853e-05 -1.9414278086e-05 -1.532838769e-05 -1.3533983747e-05 -1.2333417317e-05 -1.8122741267e-05 -2.1592039502e-05 -2.562811278e-05 
-2.9794177863e-05 -3.4851335386e-05 -3.9376763501e-05 -4.3646458835e-05 -5.0966362323e-05 -6.0683331867e-05 -6.8342358645e-05 -6.9093486673e-05 -7.8330931501e-05 
-7.3153352787e-05 -8.5909226982e-05 -9.4075227025e-05 -9.9837872161e-05 -0.00010015439038 -0.00010188860506 -0.00010187701446 -0.00010576221575 -8.0908368545e-05 
-9.122371921e-05 -6.9047047873e-05 -6.3543945544e-05 -0.00010283885968 -0.00011365731734 -6.27278514e-05 -7.4049987234e-05 -5.096989571e-05 -3.7992937905e-05 
-4.3087578888e-05 -3.3078666547e-05 -2.8655550977e-05 -2.5711860417e-05 -2.4362482691e-05 -1.927997273e-05 -1.5007532738e-05 -1.4303419675e-05 -1.8518706383e-05 
-2.4751134788e-05 -3.29010727e-05 -4.2399030463e-05 -5.2314339882e-05 -6.0890925852e-05 -6.7346307333e-05 -7.5850619396e-05 -8.6012940301e-05 -9.2536538432e-05 
-9.6583706181e-05 -9.9317505374e-05 -9.9516121554e-05 -9.5050931122e-05 -9.697396672e-05 -9.843526459e-05 -9.6344898338e-05 -8.9770350314e-05 -8.2307122284e-05 
-8.2483829829e-05 -8.2713373558e-05 -4.378765243e-05 -3.9509875933e-05 -3.5078098335e-05 -3.0800406421e-05 -2.4685347853e-05 -1.9658678866e-05 -1.7970140561e-05 
-1.6433227302e-05 -1.7197352918e-05 -2.1011026092e-05 -2.2781392545e-05 -2.3705906187e-05 -2.6381966109e-05 -4.3187941628e-05 -3.7080444599e-05 -5.1180427363e-05 
-6.2473241996e-05 -7.3457953476e-05 -8.1412059444e-05 -8.8045078883e-05 -9.4689550679e-05 -0.00010323446986 -0.00011228506992 -0.00011780639397 -0.00011877244688 
-0.00012231227083 -0.00011947938401 -0.00011210284356 -0.00010158086479 -8.8259967015e-05 -7.4234993008e-05 -5.9653181779e-05 -4.4385414367e-05 -2.7494154892e-05 
-1.7721283712e-05 -1.6229034827e-05 -1.9700722987e-05 -2.0433884856e-05 -1.8573347006e-05 -1.6587703385e-05 -1.8291412971e-05 -2.4801649488e-05 -3.1486456919e-05 
-3.8016420149e-05 -4.6938824198e-05 -5.9776523813e-05 -7.5930789535e-05 -9.3338005172e-05 -0.00011008171168 -0.00012478019926 -0.00013312163719 -0.00012912028978 
-0.00011753597937 -0.00010539749019 -9.3938122518e-05 -8.3894266936e-05 -7.6337171777e-05 -7.2815946623e-05 -7.0842123023e-05 -6.6250157033e-05 -5.8561819969e-05 
-5.0148080845e-05 -5.2560341828e-05 -4.7332549002e-05 -3.2612949781e-05 -3.0034262636e-05 -2.4498844141e-05 -1.8830394538e-05 -1.4359221495e-05 -1.4250472987e-05 
-1.8631646526e-05 -2.5182555873e-05 -3.3671197798e-05 -4.3679438932e-05 -5.2770971706e-05 -6.1698357604e-05 -6.808834587e-05 -7.499700223e-05 -8.3779206761e-05 
-9.1398404038e-05 -9.6674617453e-05 -9.9929289718e-05 -0.00010141761959 -0.0001016093338 -0.00010352604113 -7.2666738561e-05 -5.8889365391e-05 -4.6856607696e-05 
-4.0446219828e-05 -3.5746769754e-05 -3.0328813227e-05 -2.5495703539e-05 -2.28067629e-05 -2.193297496e-05 -1.9641409153e-05 -1.6158148355e-05 -1.5137654145e-05 
-1.5775003521e-05 -1.8494109099e-05 -2.1792053303e-05 -2.4347486942e-05 -2.8915361327e-05 -3.4456199046e-05 -4.0160201024e-05 -4.7793499107e-05 -5.6323166064e-05 
-6.1729369008e-05 -6.1178246142e-05 -5.7360945902e-05 -6.0022118305e-05 -5.5857132793e-05 -6.3208068241e-05 -6.642162225e-05 -7.296176409e-05 -8.2094196841e-05 
-9.1521467766e-05 -6.5798742071e-05 -8.3855290723e-05 -5.349602543e-05 -2.8507653769e-05 -3.676994811e-05 -2.564088436e-05 -4.3373805056e-05 -3.9710418605e-05 
-3.5218328776e-05 -2.8471458791e-05 -2.2455071303e-05 -2.0295766717e-05 -1.7955853764e-05 -1.8581529275e-05 -2.0517808025e-05 -2.2351632197e-05 -2.5077734335e-05 
-4.3273905248e-05 -3.8126862819e-05 -5.094979042e-05 -6.2128528953e-05 -7.2487375292e-05 -7.8828878031e-05 -8.4093386249e-05 -9.0240055215e-05 -9.8809472547e-05 
-0.00010798022777 -0.00011294129217 -0.00011094402544 -0.0001112475602 -0.00011274115423 -0.00010599400412 -9.7496160379e-05 -8.7199312475e-05 -7.7061455158e-05 
-6.7567060796e-05 -5.974664964e-05 -2.1686786113e-05 -3.0673666515e-05 -1.898481014e-05 -2.0651230898e-05 -2.2118289507e-05 -1.9970585527e-05 -1.7127769524e-05 
-1.9541325173e-05 -0.0001104556577 -0.00010704039414 -1.4930527414e-05 -1.5389923192e-05 -4.3008976718e-05 -5.5456551308e-05 -4.4078000428e-05 -5.2794197472e-05 
-6.5491470195e-05 -8.1734488049e-05 -9.908343236e-05 -0.00011455464664 -0.00012635969688 -0.00013229803881 -0.00012922182577 -0.00012030497419 -0.0001100296704 
-9.9790458989e-05 -9.0536992502e-05 -8.2790613305e-05 -7.8592386368e-05 -7.7404902186e-05 -7.0364771091e-05 -6.0949316321e-05 -5.2257852985e-05 -0.00010639793436 
-0.00010325600852 -0.00010644975312 -0.00011231608187 -0.00012119492567 -0.00011731945233 -0.00012667259944 -0.00010290608589 -6.1750177338e-05 -5.1732883549e-05 
-7.1295464295e-05 -7.6415433796e-05 -7.9646464656e-05 -8.5401858087e-05 -9.4018076197e-05 -0.00010388824012 -0.00010394755554 -0.00012992518532 -0.00012704580877 
-0.00012012989828 -0.00011109911611 -0.00010146898785 -9.2062493422e-05 -8.3699962488e-05 -7.4658433732e-05 -6.3065195718e-05 -6.5419473685e-05 -7.0015334131e-05 
-7.7774988313e-05 -8.7136637376e-05 -9.6233823569e-05 -4.7908717534e-05 -4.4875489948e-05 -3.9966487748e-05 -3.1614587442e-05 -2.5120180908e-05 -2.3137949938e-05 
-2.0241911443e-05 -4.2673341341e-05 -5.0938261666e-05 -5.5822959439e-05 -5.5075156524e-05 -2.2398382498e-05 -2.4061527711e-05 -2.788204074e-05 -3.5220431528e-05 
-7.0967388941e-05 -7.7900391261e-05 -8.7104686827e-05 -9.676595073e-05 -0.00010605434545 -0.00011237139552 -0.00011467715012 -0.00012368347416 -1.8119625868e-05 
-1.9968988909e-05 -2.2013086436e-05 -2.3850244361e-05 -3.4863860492e-05 -3.3031039493e-05 -7.2168164479e-05 -6.0098012909e-05 -4.800655588e-05 -4.0081167754e-05 
-3.6045657907e-05 -4.4454843191e-05 -2.5610649876e-05 -0.00010544426368 -0.00010643686073 -0.00010447996829 -9.9741706435e-05 -9.3762202596e-05 -8.6352431026e-05 
-7.8874109022e-05 -7.317707059e-05 -6.8826284405e-05 -6.4588801251e-05 -5.3829120588e-05 -5.9543956922e-05 -4.3656858907e-05 -3.282589978e-05 -2.4315113023e-05 
-1.98387811e-05 -1.821316273e-05 -1.8874899524e-05 -1.6977256337e-05 -1.6961007304e-05 -1.9692136902e-05 -1.4935178418e-05 -1.5867166667e-05 -1.562283046e-05 
-1.5368088953e-05 -1.8948033812e-05 -2.5245074994e-05 -3.3334401905e-05 -4.3122719035e-05 -7.2093595008e-05 -6.8760347858e-05 -7.6906730101e-05 -8.2727909103e-05 
-9.204037633e-05 -9.9267108453e-05 -0.00010215229486 -0.00010294244566 -7.5969863246e-05 -8.9812208898e-05 -8.4314095147e-05 -7.8868350101e-05 -7.5127467426e-05 
-7.2700092763e-05 -2.5390030714e-05 -3.3275511214e-05 -1.9705238628e-05 -1.6520946095e-05 -2.4743961452e-05 -2.5948078473e-05 -5.0077895139e-05 -4.2881854461e-05 
-5.1083961201e-05 -0.00012126056208 -0.00011495665058 -0.00010609142191 -9.6081204902e-05 -8.6097710664e-05 -5.2601360039e-05 -5.156673069e-05 -4.3308035856e-05 
-3.6612960685e-05 -3.9691653001e-05 -5.3406519631e-05 -6.1016356995e-05 -6.9170955612e-05 -7.345060294e-05 -3.1380326163e-05 -4.7102917354e-05 -2.7889534067e-05 

Stress_Z_Pt 1 1116 double
-4.388411071e-06 -3.9356741581e-06 -3.7889345322e-05 -4.1516701913e-05 -3.0501222454e-06 -3.2084491465e-05 -2.6596878797e-06 -2.8226775498e-05 -5.0143408998e-06 
-2.7159460899e-05 -9.0584749159e-06 -2.8589427757e-05 -1.5722545868e-05 -3.175099846e-05 -2.5801226911e-05 -3.8216809571e-05 -3.6216162698e-05 -4.5113383749e-05 
-3.5060583286e-05 -4.0382770294e-05 -2.2693346182e-05 -2.7114384011e-05 -1.1848427675e-05 -1.7607106201e-05 -4.9273352261e-06 -1.2499918e-05 -4.7946160748e-06 
-1.1233990847e-05 -4.2132112412e-06 -1.0475532122e-05 6.2724302552e-06 -6.9270354288e-06 1.7901450519e-05 -3.8020543798e-06 2.4561057216e-05 -2.0098086679e-06 
2.7224280529e-05 -1.0062412912e-06 2.276097257e-05 -3.1352783481e-06 8.5661674802e-06 -1.1515646861e-05 -1.2471053424e-05 -2.6683790679e-05 -3.9993391511e-05 
-4.651282552e-05 -7.3246388638e-05 -7.1322992881e-05 -9.9975353805e-05 -9.5532303021e-05 -0.00010840218602 -0.00010819977433 -9.2806207249e-05 -0.00010152572031 
-6.3454637711e-05 -8.0964700828e-05 -3.7961439375e-05 -6.1330749304e-05 -1.8285288661e-05 -4.7112149105e-05 -1.2138309557e-06 -3.5455374586e-05 1.237681704e-05 
-2.5025236823e-05 2.5659679523e-05 -1.532351871e-05 3.4221126043e-05 -9.7643242043e-06 2.9099927815e-05 -1.0817364e-05 2.1680277314e-05 -1.1360943518e-05 
1.8595182155e-05 -9.5399977909e-06 1.4513352198e-05 -9.4166218787e-06 8.1790883542e-06 -1.1257083884e-05 1.0028952602e-07 -1.2778613609e-05 -9.6244791621e-06 
-1.4263708522e-05 -1.821103433e-05 -1.6319609131e-05 -2.2608097424e-05 -1.6775061567e-05 -2.527685956e-05 -1.8395025108e-05 -3.2268178074e-05 -2.5656874413e-05 
-4.2936186219e-05 -3.461709548e-05 -5.2913257605e-05 -4.1317289288e-05 -5.6448148825e-05 -4.5025043619e-05 -5.1207200158e-05 -4.5201740249e-05 -4.4845766752e-05 
-4.5976101319e-05 -4.0897042709e-05 -4.9252390454e-05 -3.7114023144e-05 -5.2177949328e-05 -3.1455861063e-05 -5.1559944495e-05 -2.3533545573e-05 -4.7029603138e-05 
-1.6005935322e-05 -4.2682973799e-05 -9.0324858775e-06 -4.1655810151e-05 -0.00010395014397 -7.5632702647e-05 -8.299574074e-05 -0.00010177742115 -3.9562845814e-05 
-5.8362339132e-05 -1.8007790004e-05 -4.0482909071e-05 -4.0925992835e-06 -2.6683586157e-05 8.0592308223e-06 -1.5321043065e-05 1.8673610612e-05 -7.5845491665e-06 
2.5624748559e-05 -3.5433581616e-06 2.9597693356e-05 -2.1771693355e-06 3.0039947887e-05 -2.3076709113e-06 2.5460681172e-05 -4.2965552893e-06 1.5383935988e-05 
-8.1132932337e-06 3.5205347331e-06 -1.0926259222e-05 -5.3959921615e-06 -1.2027116156e-05 -1.1422362604e-05 -1.2989900597e-05 -1.8870819986e-05 -1.7164183646e-05 
-3.0881924431e-05 -2.5739840567e-05 -4.809249549e-05 -3.8047639009e-05 -6.3140012571e-05 -4.9849269999e-05 -6.4117255533e-05 -5.4298132454e-05 -5.6720135035e-05 
-5.4620092669e-05 -4.8166859415e-05 -5.4122833717e-05 -3.4611735828e-05 -4.9929793931e-05 -1.9243838324e-05 -4.256221473e-05 -9.4131676178e-06 -3.643769162e-05 
-5.4025097143e-06 -3.4768630144e-05 -4.9218222102e-06 -3.7661672081e-05 -7.7670667906e-06 -4.3270512947e-05 -1.2203292044e-05 -4.6728030384e-05 -1.5130689462e-05 
-4.6470393954e-05 -1.764708486e-05 -4.5442840474e-05 -2.2341282602e-05 -4.6165250751e-05 -3.0513559068e-05 -4.8781503665e-05 -3.8784468416e-05 -5.0480937716e-05 
-4.8957124818e-05 -5.145405521e-05 -5.9534249885e-05 -5.3066595683e-05 -6.46314802e-05 -5.4542200814e-05 -6.580997433e-05 -5.5395417803e-05 -6.71012167e-05 
-5.6585210586e-05 -6.2853559939e-05 -5.2540001889e-05 -4.9070262321e-05 -3.9639426632e-05 -3.7833342503e-05 -2.9108137369e-05 -3.267903594e-05 -2.6720442747e-05 
-2.9356636333e-05 -2.7662728371e-05 -2.2903128411e-05 -2.7401708849e-05 -1.2225878208e-05 -2.2850603841e-05 -2.7143624379e-06 -1.6889862337e-05 6.6236249836e-06 
-1.2891302646e-05 2.1347091661e-05 -7.7212082488e-06 3.3595404602e-05 -2.6809666451e-06 3.4182701711e-05 -3.1757872421e-06 2.3219083687e-05 -1.1258329096e-05 
3.2732828004e-06 -2.8370739301e-05 -2.8069816835e-05 -5.5515590248e-05 -7.6016645835e-05 -9.2663837677e-05 -0.00011297267702 -0.00011807106966 -0.00011354502931 
-0.00011530036318 -0.00010757944619 -0.0001072707546 -7.2527195698e-05 -8.370024625e-05 -6.5058634391e-05 -6.0745214796e-05 -5.8279868426e-05 -5.5693398281e-05 
-5.5095527387e-05 -5.4619653383e-05 -4.5319295168e-05 -3.1042162391e-05 -2.1412429987e-05 -1.6202923007e-05 -1.4244919839e-05 -1.4761450757e-05 -1.8079034135e-05 
-2.280133458e-05 -2.574679138e-05 -2.7635322112e-05 -2.9514720609e-05 -3.3592632462e-05 -4.3210377953e-05 -5.8443697344e-05 -7.5604624726e-05 -9.5898092695e-05 
-0.00011118878683 -0.00011320791054 -0.00010440767255 -9.4717901447e-05 -8.9287535957e-05 -8.568155863e-05 -8.0297237218e-05 -7.3747361057e-05 -6.7944322836e-05 
-6.170305096e-05 -5.2971620789e-05 -4.2525827666e-05 -3.4101293295e-05 -2.8602758903e-05 -2.3265850359e-05 -1.7607782638e-05 -1.4202453258e-05 -1.2838773273e-05 
-1.4121519598e-05 -2.0634450448e-05 -2.8158960959e-05 -3.2396678762e-05 -3.6376634853e-05 -4.2134413889e-05 -5.2060351663e-05 -6.4652303081e-05 -7.627393461e-05 
-8.2344813563e-05 -8.1440888607e-05 -8.1490918092e-05 -8.7401338533e-05 -9.1059268016e-05 -8.2762553575e-05 -9.3227761681e-05 -7.0137954026e-05 -5.5974036513e-05 
-4.3695967179e-05 -3.6500914575e-05 -3.3808125409e-05 -3.4182539821e-05 -3.4492314626e-05 -3.2124331028e-05 -2.743817231e-05 -2.1212192678e-05 -1.5648720364e-05 
-1.2368315311e-05 -1.3714469333e-05 -2.0211152787e-05 -2.9586592063e-05 -3.9124988689e-05 -4.7918418204e-05 -5.7479850511e-05 -6.5848957092e-05 -7.1609087172e-05 
-7.2673030445e-05 -7.1289423431e-05 -7.5582847785e-05 -8.653785153e-05 -9.6170782854e-05 -9.7034537248e-05 -9.0865205493e-05 -8.3903451014e-05 -7.8715713244e-05 
-7.487052244e-05 -6.8825201197e-05 -5.8450023971e-05 -4.8787536798e-05 -4.3818083213e-05 -4.2906615818e-05 -4.311603243e-05 -3.8941499042e-05 -2.8364227092e-05 
-1.9893554054e-05 -1.9905816771e-05 -2.5149094199e-05 -3.136968644e-05 -3.3793027796e-05 -3.3548801639e-05 -3.5645650769e-05 -3.9230257244e-05 -4.2134566684e-05 
-4.5756232794e-05 -5.2079449233e-05 -6.4125457357e-05 -8.1576034063e-05 -0.00010409057541 -0.00012094646809 -0.00011853661999 -0.00010798342009 -0.00010068958727 
-8.2203194324e-05 -8.9006085545e-05 -7.8325258073e-05 -7.4139443313e-05 -6.8546556577e-05 -6.303547616e-05 -5.7048961025e-05 -4.5754756684e-05 -3.134651206e-05 
-2.0272063239e-05 -1.3029033653e-05 -1.0805714055e-05 -1.3054536112e-05 -1.6668668877e-05 -1.9959720248e-05 -2.2953207917e-05 -2.7036795473e-05 -3.2513140923e-05 
-3.9159218431e-05 -4.7876071221e-05 -5.6571555433e-05 -9.8685775811e-05 -8.2898166511e-05 -0.00011078399075 -0.00011467220611 -0.00011207457646 -0.00010939246386 
-0.0001096709002 -0.00011168504352 -0.00011118776456 -0.00010567738536 -9.628826956e-05 -8.5489538833e-05 -7.3012500252e-05 -5.7898921114e-05 -4.3052549245e-05 
-3.143894628e-05 -2.3670041173e-05 -1.8859598867e-05 -1.6375003725e-05 -1.5737661897e-05 -1.6504390715e-05 -1.7567287159e-05 -3.2745639146e-05 -2.7007761673e-05 
-3.9049663428e-05 -4.7771526624e-05 -6.076907539e-05 -7.5838610428e-05 -8.9705106802e-05 -9.8077496659e-05 -0.00010024678704 -0.00010347451098 -0.00010873226347 
-0.00010850761282 -9.9796154245e-05 -6.9204552346e-05 -6.2297125623e-05 -2.1472591925e-05 -1.7146579012e-05 -8.3606881162e-05 -9.4013439593e-05 -6.982335708e-05 
-5.5634443015e-05 -4.4779868404e-05 -3.9119277972e-05 -3.713136357e-05 -3.5749759263e-05 -3.2472084513e-05 -2.5609937438e-05 -1.7481116174e-05 -1.2059961819e-05 
-1.0142516885e-05 -1.2099828609e-05 -1.9227834628e-05 -2.8830091651e-05 -3.9875273433e-05 -5.3236917665e-05 -6.5230516157e-05 -7.5385538366e-05 -8.2422149717e-05 
-8.455034731e-05 -8.6406567789e-05 -9.6888414191e-05 -0.00011350587738 -0.00012489376968 -0.00012413335935 -0.00011441367133 -0.0001033767021 -9.5042960311e-05 
-8.8640106696e-05 -7.9055680544e-05 -6.5203087615e-05 -5.2866873375e-05 -4.5083508667e-05 -4.1315824092e-05 -3.880856184e-05 -3.2887223369e-05 -2.3858451186e-05 
-1.7893911263e-05 -1.8080616883e-05 -2.3311078166e-05 -2.9761160931e-05 -3.3756445191e-05 -3.7566621359e-05 -4.1722239985e-05 -4.4738629185e-05 -4.9138424401e-05 
-5.67407169e-05 -6.6580791099e-05 -7.7575914474e-05 -8.923436144e-05 -0.00010480254059 -0.00011935746261 -0.00012039115245 -0.00011269028437 -0.00010656612903 
-0.00010126545021 -1.8540109522e-05 -1.5856147684e-05 -2.2908424853e-05 -3.0872133266e-05 -4.1802412852e-05 -5.4030761021e-05 -6.8055764132e-05 -8.2972688688e-05 
-9.6030042187e-05 -0.00010602619477 -0.00011368103878 -0.00012001367395 -0.00012108589144 -0.00011290385373 -0.00010393538469 -9.4244274806e-05 -8.8542858066e-05 
-8.6620830189e-05 -8.3663702753e-05 -7.7693508501e-05 -6.9956240623e-05 -6.0177809246e-05 -4.7287489906e-05 -3.3687657833e-05 -2.2620275104e-05 -1.5165481727e-05 
-1.1783602758e-05 -1.3193219047e-05 -1.6385501112e-05 -1.8542796624e-05 -2.2134724531e-05 -2.8311400001e-05 -3.5965405004e-05 -4.3581066166e-05 -5.006712945e-05 
-5.5882013839e-05 -6.0579766796e-05 -6.703744657e-05 -6.4949979787e-05 -7.2383078077e-05 -8.1600452177e-05 -9.2682003014e-05 -0.00010332426245 -0.00011135124259 
-0.00011501403787 -0.00011631009329 -0.0001193353819 -0.00012502504978 -0.00012937137581 -0.00012782417798 -0.00011913883827 -0.00010593699517 -9.1006115326e-05 
-7.514644949e-05 -5.8612673456e-05 -4.2982178456e-05 -3.114491119e-05 -2.432357951e-05 -2.0906145892e-05 -1.849678938e-05 -1.6747667814e-05 -1.6001459699e-05 
-1.4893372509e-05 -1.4194954247e-05 -1.6848682435e-05 -1.6718771349e-05 -1.7562905365e-05 -8.0410234659e-05 -9.2689182566e-05 -6.7273133936e-05 -5.5727782637e-05 
-4.7778514272e-05 -4.224328859e-05 -3.7325982703e-05 -3.32878667e-05 -2.7059963031e-05 -1.792527587e-05 -1.1433861346e-05 -1.0031393685e-05 -1.1917263009e-05 
-1.7645023036e-05 -2.4193263016e-05 -3.0368407806e-05 -7.0630940172e-05 -5.83812689e-05 -8.2143606051e-05 -9.060314369e-05 -9.4836854259e-05 -0.00010030732847 
-0.00011416001507 -0.00013227256204 -0.00014368581105 -0.00014196966367 -0.00013106627557 -0.00011803090638 -0.00010694107004 -9.7091979114e-05 -8.4006924226e-05 
-6.820946146e-05 -5.531133138e-05 -4.7359302698e-05 -4.1981504182e-05 -3.6112353882e-05 -2.7708125799e-05 -1.9809335299e-05 -1.6071670416e-05 -1.6902103198e-05 
-2.2092534437e-05 -2.8183444101e-05 -3.3160461044e-05 -4.0080754843e-05 -4.7154041567e-05 -5.2050777413e-05 -5.8152933889e-05 -6.8621466198e-05 -8.2358239524e-05 
-9.5955687357e-05 -0.00010686962014 -0.0001155635 -0.00012001753203 -0.00012006951692 -0.00011932593952 -0.0001166596503 -0.00011085319056 -0.00010277064393 
-4.6973143981e-05 -3.7678858916e-05 -2.2213976081e-05 -3.3386200357e-05 -4.7385422477e-05 -6.0256676079e-05 -7.3033043009e-05 -8.6354400992e-05 -9.9113553006e-05 
-0.00011072102279 -0.00012179113401 -0.00013182723706 -0.00013558346109 -0.00010274426313 -0.00011204553994 -9.37454206e-05 -8.9553206635e-05 -8.9561845016e-05 
-8.8673610662e-05 -8.417789104e-05 -7.5974783613e-05 -6.4639679294e-05 -4.9656566989e-05 -3.5149703308e-05 -2.4826326353e-05 -1.7551300743e-05 -1.3673531384e-05 
-1.2779618828e-05 -1.3913647763e-05 -1.5915750737e-05 -2.1197257411e-05 -3.0905857784e-05 -3.9369799197e-05 -4.5911282541e-05 -4.9930987492e-05 -5.4060627008e-05 
-5.9473127294e-05 -6.4146772274e-05 -7.0379097451e-05 -6.944605957e-05 -7.1751304858e-05 -7.5504289271e-05 -7.9498245517e-05 -8.6157109763e-05 -9.5875848274e-05 
-0.00010540407675 -0.00011260814063 -0.00011686387552 -0.00012134985809 -0.0001284715072 -0.00013578672952 -0.00013815550483 -0.00013176789071 -0.00011743750474 
-9.93452486e-05 -8.3110448031e-05 -6.8899141297e-05 -5.3848822063e-05 -4.0050146254e-05 -2.9950294902e-05 -2.3956220957e-05 -2.0231537292e-05 -1.7597007779e-05 
-1.6408173451e-05 -1.4848058072e-05 -1.3886439319e-05 -1.5756719222e-05 -2.3478458388e-05 -2.0460527139e-05 -2.3654433789e-05 -0.00012062387214 -0.00013454509099 
-5.1230205827e-05 -4.4240866373e-05 -6.2400351453e-05 -7.4892470366e-05 -8.7606777015e-05 -9.8046244602e-05 -0.00010435018521 -0.00011156642358 -0.00012666896873 
-0.00014513564747 -0.00015604067812 -0.00015367261585 -0.00014242359975 -0.00012884075477 -0.00011399619543 -9.8745074865e-05 -8.4257000708e-05 -6.8900129918e-05 
-5.643390341e-05 -4.8041000809e-05 -4.1756557948e-05 -3.3375499243e-05 -2.3794770186e-05 -1.7749895051e-05 -1.5484407413e-05 -1.6376849999e-05 -2.104262785e-05 
-2.6916911793e-05 -3.3631447423e-05 -4.3510726755e-05 -5.3685984312e-05 -6.1783342971e-05 -6.9706026807e-05 -8.1261910964e-05 -9.6449832199e-05 -0.00011139745584 
-0.00012090625933 -0.00012259921095 -0.0001178997536 -0.00011469899255 -0.00011860349514 -0.00012075033737 -0.00011469779201 -0.00010469465997 -9.4288127002e-05 
-8.3572112999e-05 -7.3147786679e-05 -6.3757887801e-05 -5.5976209296e-05 -4.8567632803e-05 -4.0419856305e-05 -3.2794309391e-05 -2.5689441372e-05 -1.7757340856e-05 
-1.1866932027e-05 -1.0353974176e-05 -1.2001867162e-05 -1.6017104826e-05 -2.0532048438e-05 -2.6311474812e-05 -3.3245948543e-05 -4.0788568185e-05 -5.1581505431e-05 
-4.8445112043e-05 -5.3782030591e-05 -3.5976331674e-05 -5.0493102208e-05 -6.3103176217e-05 -7.3976276326e-05 -8.6738169557e-05 -0.00010100961481 -0.00011410036859 
-0.00012606012751 -0.00013753449821 -0.00014668275253 -0.00015024145614 -0.00013894491349 -0.00015309864466 -0.00012351817713 -0.00011167285084 -0.00010143070904 
-9.3839986221e-05 -9.1090665592e-05 -9.0833372572e-05 -9.0344667115e-05 -8.7345992142e-05 -8.0437059296e-05 -6.9775873271e-05 -5.8389406149e-05 -2.4388050406e-05 
-3.259037203e-05 -1.790586316e-05 -1.4839361256e-05 -1.338823616e-05 -1.3183817282e-05 -1.4764500975e-05 -2.0446678718e-05 -2.7418566333e-05 -5.0927445955e-05 
-4.6311239203e-05 -4.1688657802e-05 -4.9233649406e-05 -4.0914415877e-05 -3.5119330278e-05 -6.2630048888e-05 -5.7622593886e-05 -6.6948947278e-05 -7.7209006122e-05 
-7.3771390817e-05 -7.7917833551e-05 -7.7683258496e-05 -8.0910986071e-05 -8.8812385002e-05 -9.5818858244e-05 -0.00010514532732 -0.00011134128181 -0.00011826782065 
-0.00012664640417 -0.00013568446593 -0.0001409539509 -0.0001359950511 -0.0001195808436 -9.8504495327e-05 -8.2226117229e-05 -7.0888401751e-05 -5.8740872191e-05 
-4.600381817e-05 -3.4760080325e-05 -2.5277367604e-05 -1.9234411411e-05 -1.6927658862e-05 -1.5029851511e-05 -1.5168151776e-05 -1.77453162e-05 -2.9383387755e-05 
-2.4442608719e-05 -3.4361139114e-05 -6.3117031459e-05 -7.6150696259e-05 -9.0684490715e-05 -0.00010385064706 -0.00011208325486 -0.00012053237697 -0.00013625749671 
-0.00015356091535 -0.00016284896628 -0.00016098497508 -0.00015076718773 -0.00013785534975 -0.00012689969662 -8.1404425146e-05 -9.5337063613e-05 -6.8308792834e-05 
-5.7388123423e-05 -4.8667499868e-05 -4.042238379e-05 -3.078940972e-05 -2.1993755581e-05 -1.7165745248e-05 -1.5185740949e-05 -1.5777184899e-05 -2.0799877166e-05 
-2.7994824904e-05 -3.6654715586e-05 -4.8618987421e-05 -6.0274714087e-05 -6.9893885666e-05 -7.9109133367e-05 -9.0874455054e-05 -0.00010782947356 -0.00012104912821 
-0.00012754967611 -0.00012364280519 -0.00011418291251 -0.00010888729594 -0.00011239739433 -0.00011539902516 -0.0001087524779 -9.8129969047e-05 -8.9294942882e-05 
-8.1157355453e-05 -7.3098261055e-05 -6.6023920226e-05 -5.9920047534e-05 -5.2871195294e-05 -4.3333203394e-05 -3.3279698982e-05 -2.468346338e-05 -1.7342867295e-05 
-1.2762165852e-05 -1.1973964092e-05 -1.4053576706e-05 -1.7598387103e-05 -2.0976051928e-05 -2.6357534807e-05 -3.2641097732e-05 -3.7633357351e-05 -4.3299590288e-05 
-5.6199982282e-05 -5.0478598496e-05 -6.1039103457e-05 -0.0001078857058 -0.00011888847257 -8.4200788478e-05 -9.0004799858e-05 -0.00010665612535 -0.00010052464131 
-0.00011420882947 -0.00012280305418 -0.00013197427324 -0.00013816400315 -0.00013358640717 -0.0001152445926 -9.4485614682e-05 -7.8891693192e-05 -6.8098954216e-05 
-5.844646239e-05 -4.8242026423e-05 -3.8051189222e-05 -2.9848213217e-05 -2.0574096652e-05 -2.4732557449e-05 -4.8402173888e-05 -6.0931021835e-05 -7.2096596341e-05 
-8.6087822638e-05 -0.00010164292871 -0.00011741765484 -0.00012917690401 -0.00013934934395 -0.0001493363452 -0.00015624576554 -0.00015960659221 -0.00015997032824 
-0.00016374250699 -0.00014670660676 -0.00012791632253 -0.00011210420416 -0.00010213398673 -9.5911704193e-05 -9.2186966867e-05 -9.0234078016e-05 -8.4064960902e-05 
-7.3799090387e-05 -6.2864289248e-05 -5.3963716709e-05 -4.2322491936e-05 -4.5891129048e-05 -3.6153193378e-05 -2.8863351417e-05 -2.2841336431e-05 -1.702283771e-05 
-1.4153847587e-05 -6.150324316e-05 -5.4879504023e-05 -6.641841901e-05 -8.935330552e-05 -8.1809868789e-05 -8.6729209215e-05 -7.3859144322e-05 -9.0257288321e-05 
-0.00010639826178 -0.00011772802645 -0.00012779144345 -0.0001443640067 -0.00016022030832 -0.00016078398403 -0.0001538264296 -0.00014455732526 -0.00013600831153 
-7.9137558714e-05 -9.1625381174e-05 -6.7448490881e-05 -5.7723658756e-05 -4.8807688472e-05 -3.9272251342e-05 -2.9867531339e-05 -2.1903806555e-05 -1.7418653442e-05 
-1.5709931404e-05 -1.5538624514e-05 -1.7784316697e-05 -4.1418791625e-05 -3.2269952953e-05 -5.2952022088e-05 -6.3989228693e-05 -7.3938106652e-05 -8.3775945313e-05 
-9.4583909231e-05 -0.00010529131578 -0.00012854678789 -0.00012705722656 -0.00012135558063 -0.00011156761684 -0.00010759058205 -0.0001083498446 -0.0001080442089 
-0.00010209124048 -2.5679417831e-05 -2.1228303922e-05 -9.5740455436e-05 -9.6135232525e-05 -0.00012144179891 -0.00011547308895 -7.6138685472e-05 -6.961390136e-05 
-6.355534606e-05 -5.8298910517e-05 -5.1826735216e-05 -4.2928600124e-05 -3.3026335132e-05 -2.4039879008e-05 -1.7054121599e-05 -1.3708094684e-05 -1.4061095953e-05 
-1.697376274e-05 -2.131697147e-05 -2.4248637146e-05 -2.6766660691e-05 -3.0317845813e-05 -3.4168509501e-05 -3.9053323235e-05 -5.8809637267e-05 -1.6038193507e-05 
-1.3698556586e-05 -1.9613128946e-05 -2.3090077775e-05 -2.8152096093e-05 -4.1121752474e-05 -3.2164900858e-05 -4.8272291679e-05 -5.7604817812e-05 -6.6396141847e-05 
-4.8780895668e-05 -3.8885133108e-05 -2.9813561468e-05 -2.2223357973e-05 -1.7204155483e-05 -1.6356563356e-05 -1.7924581243e-05 -2.3425705422e-05 -1.684703966e-05 
-1.4263072217e-05 -1.5203530211e-05 -1.8449161416e-05 -2.3118170702e-05 -2.6839014481e-05 -2.8890490285e-05 -3.507923293e-05 -3.077494739e-05 -2.6997158329e-05 
-2.189004681e-05 -1.6294963871e-05 -1.3591734614e-05 -6.8654318602e-05 -8.7445407189e-05 -0.00010556487723 -0.00011999479648 -0.0001324533805 -0.00014897375149 
-0.00016126019182 -9.5970575785e-05 -8.959427214e-05 -7.8519446106e-05 -6.7764498453e-05 -0.00014891563114 -0.00012955813872 -0.00011401113443 -0.00010365492381 
-2.7194925375e-05 -2.5229514904e-05 -2.0356772438e-05 -1.5580888657e-05 -1.394097535e-05 -1.4959755845e-05 -1.8299157318e-05 -2.1204130462e-05 -0.00015918030598 
-0.00015485252152 -0.00014793346782 -0.00014000768715 -0.00010283714255 -0.00011133466251 -4.2630010284e-05 -5.7699870013e-05 -7.0715749462e-05 -8.6140244093e-05 
-0.0001003728521 -7.67285037e-05 -0.00013236496792 -2.9649893804e-05 -3.6684557017e-05 -4.5542810767e-05 -5.5413969676e-05 -6.5592356805e-05 -7.5230958828e-05 
-8.4561286712e-05 -9.3758910225e-05 -0.00010248023136 -0.00011101079144 -0.00012544107994 -0.00012102511391 -0.00012877292465 -0.00012944041737 -0.00012652941405 
-0.00011843040193 -0.0001082495306 -0.00010447290333 -0.00010284804011 -0.00010173455485 -9.6056037364e-05 -9.8980221082e-05 -9.9703182059e-05 -0.00010192999434 
-0.0001061100229 -0.00011274197641 -0.00012069135482 -0.00012852480722 -0.0001335711604 -9.3150973044e-05 -0.00010535836736 -7.8983533967e-05 -6.7662120273e-05 
-5.8268514113e-05 -4.7983058721e-05 -3.89554516e-05 -3.2576592882e-05 -3.2264775655e-05 -6.5395101653e-05 -7.2091592301e-05 -8.2002132331e-05 -9.2746147857e-05 
-0.00010083737288 -0.00012259295727 -0.00012824818623 -0.00011474805797 -0.0001082850334 -0.00014609515104 -0.00013214375394 -8.3433202235e-05 -0.00010082027147 
-7.2465983976e-05 -1.6115443714e-05 -1.4094843891e-05 -1.5391976376e-05 -1.8998826818e-05 -2.3751386379e-05 -0.00013082167425 -0.00013119095335 -0.00013145070625 
-9.8175621436e-05 -8.8654423962e-05 -6.4595005824e-05 -5.7178759562e-05 -4.6625380492e-05 -3.828934617e-05 -0.00011768633522 -7.1454240242e-05 -0.00012765576503 

Stress_XY_Pt 1 1116 double
-4.3431555241e-05 -3.5421666325e-05 -2.2302300067e-05 -2.6815326692e-05 -2.2892380002e-05 -1.4443508462e-05 -1.5481025457e-05 -9.0397603003e-06 -1.1417847418e-05 
-6.2060562414e-06 -9.1638439699e-06 -4.7268778403e-06 -6.3531670094e-06 -2.4739066689e-06 -2.5030317374e-06 6.8923782237e-09 -4.927885584e-06 -1.6779866456e-06 
-1.1069928405e-05 -3.8977733681e-06 -1.2684724425e-05 -1.7629896547e-06 -9.3763094355e-06 3.0151860528e-06 -5.4619738421e-06 7.0811375963e-06 -4.6562922762e-06 
8.4987311766e-06 -3.0220836607e-06 1.0466485435e-05 1.2407979284e-06 1.4347311094e-05 4.9324941074e-06 1.7583329111e-05 8.5601657247e-06 2.0314335302e-05 
1.309582467e-05 2.2148740982e-05 1.500701228e-05 2.05105855e-05 1.3082151781e-05 1.5360420093e-05 9.0463513516e-06 7.9713877597e-06 4.4916735078e-06 
1.163880512e-06 -5.8453713336e-07 -4.3211650222e-06 -6.099416737e-06 -9.1008974437e-06 -8.8796737145e-06 -1.1409125364e-05 -7.6108531175e-06 -1.0672357348e-05 
-1.6080178966e-06 -5.7044938444e-06 7.3659895179e-06 2.4809623937e-06 1.415881934e-05 9.4763959737e-06 1.6728735318e-05 1.3188844605e-05 1.6675769075e-05 
1.4679944343e-05 1.8025167265e-05 1.6478605403e-05 1.9477641217e-05 1.8184844976e-05 1.7101703179e-05 1.7886872001e-05 1.514204223e-05 1.8272257648e-05 
1.7378563825e-05 2.1920495783e-05 2.2217971491e-05 2.7878762921e-05 2.8746310818e-05 3.5335653138e-05 3.653935164e-05 4.4226571845e-05 4.7029090638e-05 
5.4583423662e-05 5.7905799622e-05 6.2976108893e-05 6.090723582e-05 6.3885649979e-05 5.696003609e-05 5.8372146668e-05 5.2056780987e-05 4.9956241128e-05 
4.2721305363e-05 3.671125387e-05 2.6932470064e-05 1.8876540764e-05 1.0285081544e-05 2.0912049763e-06 -4.422036227e-06 -1.0403963984e-05 -1.6330004655e-05 
-1.8844976239e-05 -2.3545460863e-05 -2.3518625312e-05 -2.5770754291e-05 -2.4037186449e-05 -2.425259845e-05 -2.0471387643e-05 -2.3859864996e-05 -1.7155841761e-05 
-2.8806105547e-05 -1.8770833549e-05 -3.8287091229e-05 -2.401497818e-05 3.1365906352e-06 3.274785854e-06 6.4764536205e-06 2.4439507342e-06 1.9127864448e-06 
8.4298278296e-06 -3.7652931155e-06 6.0831445978e-06 -8.3875875134e-06 3.1331674109e-06 -1.0208716049e-05 1.3358123852e-06 -1.0275082332e-05 8.405763765e-07 
-8.3736772467e-06 1.9072665509e-06 -5.2761099596e-06 3.7024057065e-06 -5.0665130402e-06 2.5872739116e-06 -9.4629760952e-06 -3.3131298665e-06 -1.6521395082e-05 
-1.1242239623e-05 -2.0057149413e-05 -1.5011126152e-05 -1.5923838419e-05 -1.2221936913e-05 -7.7445114357e-06 -5.9184220902e-06 2.1015617904e-06 1.8802151942e-06 
9.0134153652e-06 8.6584760766e-06 1.287738678e-05 1.4986491578e-05 1.3965114704e-05 1.9585498649e-05 1.14430959e-05 1.9056359633e-05 9.1946963039e-06 
1.5453751303e-05 8.2163951447e-06 1.2361716927e-05 1.0936364106e-05 1.2486364312e-05 1.6704069822e-05 1.5529470147e-05 1.9338649508e-05 1.7255730199e-05 
1.6926816897e-05 1.428962355e-05 1.1933311725e-05 8.2375473909e-06 8.763808637e-06 4.4173654601e-06 1.0605598163e-05 6.2349404715e-06 1.6055611013e-05 
1.2526805449e-05 2.1711892259e-05 1.9146770683e-05 2.0207435227e-05 2.0727751689e-05 1.703408816e-05 1.9239046196e-05 1.5604292003e-05 1.6908957377e-05 
9.0584496775e-06 1.2070153957e-05 5.2204848089e-07 6.0941947027e-06 -4.625269753e-06 1.7828738805e-06 -3.9621827455e-06 1.2158479876e-06 8.8357114691e-07 
3.8857414211e-06 8.1729519934e-06 8.293841006e-06 1.0610651771e-05 9.8114626326e-06 5.3956330817e-06 6.1846423307e-06 1.6622419707e-07 1.7951882967e-06 
-1.3254244209e-06 2.2104066488e-07 -9.5376663012e-08 1.581843776e-06 2.343253243e-06 4.4868199609e-06 1.188926035e-06 4.9447858146e-06 -4.8767062708e-06 
2.5519676683e-06 -1.0262266187e-05 1.1448230453e-06 -1.1876143162e-05 1.3834355741e-06 -1.0625451523e-05 2.9003567761e-06 -7.3761680142e-06 6.0082450091e-06 
-1.8375724835e-06 9.8580270276e-06 2.8956794154e-06 1.0889351046e-05 2.28384053e-06 3.6447795395e-06 3.6048063237e-06 -3.4830876672e-06 8.4939458702e-06 
-1.5040807284e-06 6.9851892022e-06 1.0645008501e-06 -4.10051112e-06 -7.2176731578e-06 -1.1694460227e-06 8.4991683025e-08 5.4371935931e-07 1.8668595274e-06 
2.8148137403e-06 3.193741847e-06 7.3381089436e-06 1.4981660456e-05 2.1805728238e-05 2.6506083486e-05 2.9238947263e-05 3.1309237329e-05 3.3293944853e-05 
3.4820616293e-05 3.5691498852e-05 3.347635311e-05 2.6840499231e-05 1.7126853663e-05 6.1813589625e-06 -3.382470419e-06 -8.3022646322e-06 -1.0121118521e-05 
-1.0949799616e-05 -1.1898913272e-05 -1.0636205047e-05 -5.2724598731e-06 1.1768425097e-06 5.8430209933e-06 8.8224865635e-06 1.1548333873e-05 1.4638363609e-05 
1.7953118686e-05 2.2308107418e-05 2.8724116419e-05 3.6944329622e-05 4.5998457608e-05 5.5183246332e-05 6.3513417444e-05 6.815335837e-05 6.6511192927e-05 
5.946764486e-05 4.673888252e-05 3.088821768e-05 1.2216536334e-05 -5.7625495629e-06 -1.8136350718e-05 -2.421363115e-05 -2.6098921353e-05 -2.4205811769e-05 
-1.8108405811e-05 -1.1170956668e-05 -7.9805446376e-06 -7.9771739365e-06 -8.4052003331e-06 1.439383027e-05 9.2483212484e-06 1.6516306914e-05 1.66591376e-05 
1.5648675117e-05 1.4492968376e-05 1.3604010292e-05 1.2479748193e-05 9.2814649406e-06 2.0314500375e-06 -5.8558752585e-06 -8.7788143901e-06 -7.0284766025e-06 
-2.9132302615e-06 2.9108380915e-06 1.0343208146e-05 1.8943935174e-05 2.5505043141e-05 2.6029942092e-05 2.1257308163e-05 1.5953217144e-05 1.2570489162e-05 
1.143862346e-05 1.1342331391e-05 8.1508785001e-06 1.9064729173e-06 -2.0450927423e-06 -4.5293383266e-07 5.658711359e-06 1.2418746564e-05 1.7097337832e-05 
1.899564063e-05 1.875553653e-05 1.7330836499e-05 1.4372727719e-05 1.0767404319e-05 8.3765987711e-06 7.9587682649e-06 8.3079000888e-06 8.1649619688e-06 
6.9444192832e-06 4.9336643428e-06 3.7569774918e-06 4.5588883495e-06 7.208850775e-06 9.9139369922e-06 1.2338547094e-05 1.5227188896e-05 1.7394140059e-05 
1.902869667e-05 2.117171698e-05 2.2044007892e-05 1.8082055021e-05 6.1458432015e-06 -5.800949566e-06 -7.5375414212e-06 -3.0942546658e-06 2.5790310616e-06 
6.550582059e-07 -1.7527989185e-06 1.6763350743e-06 1.8660266221e-06 2.6716881223e-06 3.8672080791e-06 6.3498666805e-06 1.2841002899e-05 2.1769496925e-05 
2.9402994187e-05 3.527640547e-05 3.9752253542e-05 4.2473961912e-05 4.3022747377e-05 4.2688338908e-05 4.1417760258e-05 3.6726609324e-05 2.7874711577e-05 
1.6569841364e-05 6.2002730132e-06 -1.9502180137e-07 -6.252737478e-06 -7.5028557376e-06 -5.2380005968e-06 -7.3781216088e-06 -1.0082676567e-05 -8.6442599923e-06 
-3.9216238648e-06 5.5320028736e-07 3.8263542024e-06 7.6074528579e-06 1.2936454368e-05 1.9219797423e-05 2.5961110168e-05 3.3414804875e-05 4.2021823901e-05 
5.1071865528e-05 5.8808513131e-05 6.4291030867e-05 6.6478725785e-05 6.365660829e-05 5.6193352975e-05 4.6686296628e-05 1.1042729597e-05 2.7473375212e-05 
-7.2278659502e-06 -2.131708311e-05 -2.8349759759e-05 -2.9544368772e-05 -2.6574989988e-05 -2.0173401026e-05 -1.2568218153e-05 -7.3853417462e-06 -5.4782879033e-06 
-5.3121887049e-06 -4.3195508965e-06 -6.2262809024e-06 -2.6406960778e-06 3.6577650008e-05 3.6555483348e-05 1.706064063e-05 1.3248909909e-05 1.9361143131e-05 
1.9952665752e-05 1.8874325178e-05 1.6027642687e-05 1.1721462897e-05 6.2801445893e-06 -3.1483091334e-07 -5.4846798321e-06 -6.3596760356e-06 -4.0660770537e-06 
-8.1144619912e-08 5.9140664206e-06 1.3013141825e-05 1.9537432763e-05 2.3227724523e-05 2.3234747459e-05 1.9148029878e-05 1.3898218185e-05 9.3404091785e-06 
6.4558803956e-06 5.2687707353e-06 2.6762639322e-06 -1.8921554101e-06 -4.6076422109e-06 -3.5005787709e-06 7.7555520761e-07 6.1883911542e-06 1.0900064467e-05 
1.5462996544e-05 1.9448410058e-05 2.0407875127e-05 1.7866344479e-05 1.3840129668e-05 1.0881104799e-05 9.6155044957e-06 8.5330214006e-06 7.3475387126e-06 
6.892203487e-06 6.6389537778e-06 6.2506048835e-06 6.3530493435e-06 7.8658068787e-06 1.0903247357e-05 1.463785452e-05 1.8356301553e-05 2.1249441033e-05 
2.3088530725e-05 2.3792502361e-05 2.2084756893e-05 1.6050651311e-05 6.8339513177e-06 -4.8287472509e-07 -3.1652850225e-06 -1.5581024115e-06 2.6936604911e-06 
8.0368098452e-06 2.7444130865e-05 2.7029014291e-05 2.0680947728e-05 6.8302798581e-06 -8.8629434458e-06 -2.1427151296e-05 -2.8081431083e-05 -2.9138182526e-05 
-2.630819472e-05 -2.0838204819e-05 -1.4110698203e-05 -8.5052929535e-06 -5.3084075262e-06 -4.1838832203e-06 -3.6568916926e-06 -1.6994417065e-06 7.8845302642e-07 
2.1758866069e-06 2.5862061079e-06 3.3998228446e-06 5.0613562621e-06 8.107461781e-06 1.3936498817e-05 2.2104514755e-05 3.0388313007e-05 3.751163058e-05 
4.3480858039e-05 4.7490718316e-05 4.8377776693e-05 4.7187794735e-05 4.3751722842e-05 3.6501567592e-05 2.6290323603e-05 1.5937714807e-05 8.0731027765e-06 
3.3920106723e-06 1.241035438e-06 -2.3376798595e-06 8.6079251105e-07 -4.5108473614e-06 -4.8643958621e-06 -2.8240289751e-06 -9.2684127395e-07 -2.8702073109e-06 
-7.1866375038e-06 -8.3735766339e-06 -5.2330423728e-06 -1.0707124716e-06 2.7634154094e-06 7.6451132145e-06 1.4712732309e-05 2.3211892312e-05 3.1168853639e-05 
3.7610613617e-05 4.3763164285e-05 5.0420908337e-05 5.6449262956e-05 6.0426913478e-05 6.1023972194e-05 5.7397139244e-05 5.008467906e-05 4.1214556404e-05 
3.2392103094e-05 2.4470187782e-05 1.9710239485e-05 1.8692848698e-05 2.1159526417e-05 1.9853365302e-05 1.6709883312e-05 2.1613243916e-05 2.0915363621e-05 
1.7122391e-05 1.1240504591e-05 4.3145295194e-06 -1.4306639287e-06 -3.4602377781e-06 -2.194454666e-06 6.7575626872e-07 4.6144971293e-06 9.7280227465e-06 
1.4386812381e-05 1.8185321551e-05 2.0337208753e-05 1.559700172e-05 1.9459102077e-05 1.0512689983e-05 5.7175653012e-06 2.7261707345e-06 1.6342255797e-06 
-3.3941050859e-07 -3.6756915165e-06 -5.5314759493e-06 -4.8459900199e-06 -1.9459879752e-06 2.3212487861e-06 7.2469092061e-06 1.3236590803e-05 1.88008853e-05 
2.0608005343e-05 1.7971656007e-05 1.3836287508e-05 1.1692554153e-05 1.0989090242e-05 9.4320455446e-06 7.841751426e-06 7.4328296478e-06 7.29859903e-06 
6.7437127882e-06 6.6445545599e-06 7.8232498026e-06 1.0493690979e-05 1.4267413007e-05 1.8261404875e-05 2.1717839445e-05 2.4444556402e-05 2.4621175726e-05 
2.0589809992e-05 1.3166757753e-05 5.0412188131e-06 -2.4300906887e-07 -1.9111109282e-06 -9.005519388e-07 2.1631891371e-06 7.1170402407e-06 1.2488557786e-05 
2.0773948563e-05 2.0235948341e-05 1.6077927739e-05 6.7301284332e-06 -4.6288514852e-06 -1.4686292843e-05 -2.1301014158e-05 -2.3854922347e-05 -2.2955040095e-05 
-1.9774076009e-05 -1.519250668e-05 -1.0301333987e-05 -7.2273874139e-06 -3.98661291e-06 -4.2380337959e-06 -1.9726515745e-06 5.144982822e-07 1.9502830071e-06 
2.5668212231e-06 3.5337079112e-06 5.2226214962e-06 7.8797613696e-06 1.3543506793e-05 2.1988874323e-05 3.0442868592e-05 3.8442658479e-05 4.4743730541e-05 
4.841570717e-05 4.9296563702e-05 4.7756148888e-05 4.2926119932e-05 3.1957338433e-05 2.1432158292e-05 1.3732912294e-05 9.4077599897e-06 6.8033071443e-06 
4.7589224437e-06 4.4212940793e-06 1.9925447816e-06 5.1938400247e-06 -2.0993505245e-07 -1.5594546596e-06 -2.4370237573e-06 -6.5099934687e-07 8.6220719453e-07 
-4.1138652307e-07 -4.3712953328e-06 -6.1679679675e-06 -3.9864089842e-06 -4.6288258204e-07 3.5323225802e-06 9.1713304755e-06 1.7402484218e-05 2.645760469e-05 
3.3974411963e-05 3.865243616e-05 4.1891251385e-05 4.5620122364e-05 4.9285124987e-05 5.1523932598e-05 5.0960388762e-05 4.8043566494e-05 4.5161191035e-05 
3.8000726818e-05 2.9603630992e-05 2.2336647362e-05 1.749399371e-05 1.5118560668e-05 1.3986327758e-05 1.5075123201e-05 -4.2568601089e-06 -5.5687152098e-06 
1.833297938e-05 1.956162123e-05 1.649265505e-05 1.2427992033e-05 7.355737182e-06 2.5127570495e-06 -2.0776643339e-07 -7.4240321979e-07 -1.9796235229e-06 
-4.6968035576e-06 -6.4945836584e-06 -6.1303711618e-06 -4.2619762439e-06 -1.3278348945e-06 2.953133594e-06 1.0684915992e-05 1.6114126765e-05 1.7736815153e-05 
1.6122188299e-05 1.3899076293e-05 1.3036328937e-05 1.2369615888e-05 1.0402717862e-05 8.6082043254e-06 7.9691419614e-06 7.4364592137e-06 6.035790534e-06 
5.7118930954e-06 7.5966491977e-06 1.0544741826e-05 1.4108161849e-05 1.7461401967e-05 2.0493071133e-05 2.3751560548e-05 2.3780251013e-05 1.8852457742e-05 
1.1313452774e-05 3.4673482503e-06 -7.7834712897e-07 -6.5589313181e-07 9.3525224543e-07 3.0769843136e-06 7.3762491866e-06 1.2402847233e-05 1.6122457282e-05 
1.8999366148e-05 2.0810808564e-05 2.0340599349e-05 1.7263734208e-05 1.2651237057e-05 7.2288817137e-06 3.1312507645e-06 2.5092231937e-06 4.5336834802e-06 
7.5569331557e-06 1.0930807207e-05 1.429866461e-05 1.6837896283e-05 1.9240484562e-05 2.0683743514e-05 2.1765856673e-05 2.2742529382e-05 1.8109364646e-05 
2.0995877549e-05 1.6702990858e-05 9.8294601685e-06 2.5064408646e-06 -4.8333980089e-06 -1.136773534e-05 -1.5805940166e-05 -1.7438965415e-05 -1.7072077526e-05 
-1.5024327695e-05 -1.1690832252e-05 -9.0060372031e-06 -7.2189554885e-06 -4.2143042833e-06 -5.6812422145e-06 -3.8100124584e-06 -4.5230075898e-06 -3.8005704255e-06 
-1.3906214633e-06 7.0965808163e-07 1.6230905355e-06 2.0553509898e-06 2.9438866704e-06 4.3596435262e-06 6.5086222776e-06 9.8375987818e-06 3.234539281e-05 
2.5168717457e-05 3.9398009903e-05 4.5139707254e-05 4.7875141415e-05 4.6923494665e-05 4.5304050218e-05 4.0788106162e-05 3.3880855881e-05 1.0680464243e-05 
1.5845162807e-05 1.9337407139e-05 1.5704456246e-05 2.1906761049e-05 2.650048873e-05 7.6851508766e-06 8.4002527956e-06 8.2756134816e-06 6.3928350755e-06 
9.5350851552e-06 3.3721699992e-06 1.6433757537e-06 6.8607724302e-07 1.4318309809e-06 9.6385071515e-07 -1.9632613615e-06 -3.3350163733e-06 -1.9059067711e-06 
1.3080999395e-06 5.2088913662e-06 1.0717196233e-05 1.905647764e-05 2.7185410545e-05 3.2933548937e-05 3.6105291656e-05 3.7428482756e-05 3.9149639633e-05 
4.1017146941e-05 4.1322286052e-05 3.7397861524e-05 3.7593746129e-05 2.8185204883e-05 2.0323131594e-05 1.4881272818e-05 1.1665007378e-05 1.1606131466e-05 
1.1032780094e-05 1.1521663282e-05 1.4501535134e-05 1.0143441955e-05 4.7212484802e-06 -1.8314155881e-07 -2.5722700627e-06 -2.4016697466e-06 -2.9207009504e-06 
-5.2650527209e-06 -6.8486757527e-06 -7.1950264555e-06 -6.6785519266e-06 -5.1237714445e-06 -3.847132831e-06 1.1717198504e-05 7.262477709e-06 1.3487230717e-05 
1.3930767864e-05 1.4700020074e-05 1.4740934375e-05 1.3162268942e-05 1.0817178463e-05 8.7481523678e-06 7.596487194e-06 7.0844176889e-06 6.9520020588e-06 
6.5095873651e-06 8.9513166586e-06 1.2030536482e-05 1.4860085457e-05 1.7349277186e-05 1.9519834495e-05 2.1243308311e-05 2.1594871578e-05 1.7782748728e-05 
1.1017870293e-05 3.4785055192e-06 -4.712830517e-07 3.614229982e-07 2.6375997777e-06 4.5207901849e-06 7.3757512382e-06 1.1199180108e-05 1.464150796e-05 
1.7163039729e-05 1.8371160877e-05 1.8067701603e-05 1.6546995539e-05 1.4494155721e-05 1.2149226905e-05 1.0424832567e-05 1.0466363392e-05 1.2355960394e-05 
1.5321040564e-05 1.8407687321e-05 2.0675047381e-05 2.1951021608e-05 2.3347975002e-05 2.4383449727e-05 2.5840574835e-05 2.6867132419e-05 2.4122210561e-05 
1.601856502e-05 1.7929317437e-05 1.4505202216e-05 1.3099416378e-06 -4.8332890401e-06 2.0641535627e-06 2.4363688738e-06 -1.5384869556e-06 -8.816373338e-07 
-1.5704567602e-07 3.1162510368e-06 7.070891229e-06 1.1652465219e-05 1.8490762386e-05 2.6253951e-05 3.128922026e-05 3.2852598451e-05 3.2704049772e-05 
3.2940679375e-05 3.3637016713e-05 3.3058805911e-05 2.9690607789e-05 2.6399367471e-05 2.3129171041e-05 7.083800142e-06 1.9579482853e-06 -3.7405861519e-06 
-8.8605636392e-06 -1.2194982673e-05 -1.2842936121e-05 -1.3535884818e-05 -1.1941315279e-05 -1.0241677955e-05 -8.7696854507e-06 -7.6017634001e-06 -4.5766807943e-06 
-6.4295959419e-06 -4.340591488e-06 -5.0989548868e-06 -5.048641583e-06 -3.1449578159e-06 -6.4918302201e-07 1.1571909795e-06 1.8432285458e-06 2.9191547526e-06 
4.716206945e-06 7.8611149092e-06 1.3121691836e-05 2.3777786282e-05 2.0581179342e-05 2.7332028822e-05 3.142150581e-05 3.5972799196e-05 4.0413116039e-05 
4.4269126192e-05 1.0758294593e-05 1.2368209173e-05 1.1514747712e-05 7.9364053818e-06 1.1886113725e-05 3.9750216843e-06 8.881538065e-06 2.7130661309e-06 
-2.4915403785e-06 -4.7546540145e-06 -3.7422053651e-06 -3.1196080954e-06 -4.5892347202e-06 -8.410242117e-06 -8.7019907369e-06 -8.1119618471e-06 -8.0456075011e-06 
7.3027911185e-06 3.5015797231e-06 1.0060130194e-05 1.2409033616e-05 1.4846377326e-05 1.5258387748e-05 1.3148539892e-05 1.0607541071e-05 8.5611588929e-06 
7.6135620475e-06 7.42853202e-06 9.5337991297e-06 1.3726172483e-05 1.1919734561e-05 1.5635526324e-05 1.7035147494e-05 1.8704363356e-05 2.0200862764e-05 
2.0154706363e-05 2.1205980829e-05 1.0231293118e-05 1.6581785758e-05 3.60514899e-06 3.6130540337e-07 1.4747617527e-06 3.7846869532e-06 4.9910144071e-06 
6.0765117951e-06 1.2362387224e-05 1.5235553519e-05 9.4907167636e-07 2.3713094777e-06 2.0687010874e-05 2.2703466584e-05 1.4440927089e-05 1.5088537111e-05 
1.4431405816e-05 1.4379319737e-05 1.5279133777e-05 1.5984257971e-05 1.6422530052e-05 1.7781878341e-05 2.0578895601e-05 2.3941563541e-05 2.6761118534e-05 
2.8198965992e-05 2.8433770694e-05 2.8426929475e-05 2.7931103129e-05 2.9759408335e-05 3.0842727028e-05 2.7675976071e-05 1.1069148172e-05 4.1459512431e-05 
4.2873103666e-05 3.9327002014e-05 3.5084221963e-05 2.903656241e-05 2.0313088498e-05 2.2553120743e-05 1.6886284357e-05 1.1545190773e-05 7.7792319644e-06 
1.4392443973e-05 1.4407806248e-05 1.2380572116e-05 1.0448720559e-05 9.3230287348e-06 1.1060215729e-05 1.8137312054e-05 2.4918112558e-05 2.8166069114e-05 
3.1397331441e-05 3.3470067592e-05 3.4000376218e-05 3.3569477637e-05 3.242028788e-05 3.4832984238e-05 3.1264181871e-05 3.4671541925e-05 3.696697604e-05 
3.8958176447e-05 4.0962550884e-05 4.2359070903e-05 8.0221180269e-06 1.4818932783e-06 -3.4174188812e-06 -5.9140982103e-06 -4.6579214654e-06 -3.2375847354e-06 
-3.6693345464e-06 -7.1547759717e-08 8.672865448e-07 2.8329445598e-06 6.0515683344e-06 -4.9252690246e-06 -6.3336534595e-06 -5.4216618537e-06 -2.8292538445e-06 
3.7235420071e-05 3.8296876482e-05 3.9538706915e-05 4.0118658035e-05 3.9854030547e-05 3.8816870983e-05 3.6910022573e-05 3.1444884826e-05 -9.1366097574e-06 
-9.4889342108e-06 -9.8732136848e-06 -1.058891894e-05 -1.3788672995e-06 -7.2115432204e-06 9.840749226e-06 6.3628291116e-06 1.9249316381e-06 -3.9910164062e-06 
-7.2380117899e-06 3.855123218e-06 -1.1565567547e-05 2.0084005428e-05 1.9566323317e-05 2.0428230073e-05 2.0905035399e-05 2.1048325834e-05 2.1798552552e-05 
2.2800129955e-05 2.267643913e-05 2.3383341158e-05 2.4841198865e-05 2.089439613e-05 2.2890005766e-05 1.8248110109e-05 1.4000630472e-05 8.365102758e-06 
3.4093859398e-06 1.6873462414e-07 1.3272999055e-06 3.1449482094e-06 3.6721849028e-06 3.8845795416e-06 1.7812116084e-06 5.4227022872e-07 -1.0654130307e-06 
-8.8506534723e-07 1.3790453437e-06 4.6570860945e-06 8.7271000666e-06 1.2524090153e-05 3.0163241718e-05 2.8117337024e-05 2.9921813621e-05 2.8724918138e-05 
2.6789131152e-05 2.6945720037e-05 2.6345175229e-05 2.549089974e-05 1.1373015013e-05 2.4391706271e-05 2.5312393063e-05 2.6377843824e-05 2.6832893127e-05 
2.6739985212e-05 6.3013261524e-06 1.087164901e-05 2.7506765718e-06 2.4418098595e-07 -4.5360397204e-06 -5.7598472267e-06 1.3594873565e-06 -2.4301325766e-06 
4.2374606437e-06 3.4162927477e-05 3.642068441e-05 3.7699094719e-05 3.7636252273e-05 3.6648199966e-05 1.7433107587e-05 1.7591200352e-05 1.48615527e-05 
-3.14766226e-06 -1.5152557964e-07 6.8235355381e-06 9.7939081343e-06 1.2046677739e-05 1.2440720942e-05 -5.8278091046e-06 1.2007253948e-05 -9.6065456319e-06 

Stress_YZ_Pt 1 1116 double
-1.5609703041e-07 -3.9014655613e-06 -1.1309972052e-06 -4.1263196238e-07 -4.7308401463e-06 1.6205035536e-07 -3.1659136539e-06 3.6390001128e-06 -7.041771255e-07 
7.9477941028e-06 3.5713812281e-06 1.3283564471e-05 8.9480861334e-06 1.9497544486e-05 1.4138742245e-05 2.518107317e-05 2.2161938432e-05 3.0739910017e-05 
3.1022801522e-05 3.4478082398e-05 3.1532269531e-05 3.1113835121e-05 2.2883088604e-05 2.1891914457e-05 1.2793180304e-05 1.3085517139e-05 4.9090155017e-06 
6.4413092673e-06 -3.2895135291e-06 -8.6745046701e-07 -1.0072901659e-05 -7.7698876453e-06 -1.3930566638e-05 -1.2991598169e-05 -1.7617290723e-05 -1.8397716758e-05 
-2.2511574571e-05 -2.4174260943e-05 -2.6947024708e-05 -2.884163996e-05 -2.9281491152e-05 -3.1714232136e-05 -3.0345080631e-05 -3.3827364405e-05 -2.8875780117e-05 
-3.4331254938e-05 -2.0352400952e-05 -2.904788721e-05 -3.7651855109e-06 -1.6391437498e-05 1.484972222e-05 6.2958395119e-07 2.4903369194e-05 1.3352508176e-05 
2.5600797926e-05 1.7881090571e-05 2.6883601095e-05 2.0310275431e-05 2.9986139452e-05 2.3090093464e-05 2.992761074e-05 2.4272032078e-05 2.5239822207e-05 
2.2398852252e-05 2.07587982e-05 1.9453091681e-05 1.6806494841e-05 1.616840018e-05 8.2739328491e-06 1.0778054673e-05 -4.3263980842e-07 5.7377089888e-06 
-2.4986274525e-06 4.3683640172e-06 2.7954530424e-07 5.6247485247e-06 4.2309117134e-06 7.3477445426e-06 8.8200711161e-06 8.63785408e-06 1.3239409782e-05 
8.5812155248e-06 1.6204882741e-05 6.2374809886e-06 1.2913867522e-05 -4.3110230763e-07 2.317963208e-06 -1.1252491049e-05 -1.2027855519e-05 -2.321105103e-05 
-2.8054512768e-05 -3.4692575809e-05 -4.0400134822e-05 -4.3658840696e-05 -4.2930912969e-05 -4.7709063438e-05 -3.6981979065e-05 -4.6986921916e-05 -2.8612654205e-05 
-4.2466846025e-05 -2.0811925424e-05 -3.5838965232e-05 -1.4176984223e-05 -2.820209329e-05 -8.0644801983e-06 -1.9207889522e-05 -3.7007525862e-06 -1.1061618579e-05 
-1.4462169986e-06 -5.4016316682e-06 7.7059652881e-07 -1.5299066405e-06 -1.9908206013e-05 -2.0735136786e-05 -2.3455803785e-05 -2.1829194338e-05 -1.8630821614e-05 
-2.3172407509e-05 -1.385425594e-05 -1.9449566707e-05 -8.0137224359e-06 -1.4083461792e-05 -3.6368687688e-06 -9.2012589903e-06 -1.5517100564e-06 -5.9157192709e-06 
7.2849729804e-08 -4.1690702233e-06 2.0814189838e-06 -3.7916116185e-06 3.3731964777e-06 -4.7948732345e-06 1.271715746e-07 -7.5629799881e-06 -7.3033921808e-06 
-1.0038567837e-05 -1.1098095001e-05 -8.4890079677e-06 -9.8349269138e-06 -3.8397775768e-06 -5.8457105752e-06 1.9597252958e-06 2.6622149107e-07 9.1447739692e-06 
9.0766033054e-06 1.7810476436e-05 2.0309949832e-05 2.6353716294e-05 2.6361735763e-05 3.0424597298e-05 2.1745874619e-05 2.7398808015e-05 9.8583478803e-06 
1.843810702e-05 -2.3015203396e-06 8.1299627368e-06 -8.8116066763e-06 1.0426800827e-06 -9.5273485385e-06 -2.215605889e-06 -1.14030845e-05 -4.587000376e-06 
-1.3419534298e-05 -6.5990294047e-06 -1.0195388086e-05 -6.9510326739e-06 -6.2014369178e-06 -7.6428364082e-06 -3.0102160622e-06 -8.7793646628e-06 -5.8246429546e-07 
-9.4071484753e-06 -2.0638569396e-06 -1.0409063499e-05 -1.0775420378e-06 -1.0566897799e-05 -4.6341363031e-06 -1.371086671e-05 -1.3725123154e-05 -2.0532387907e-05 
-1.7104398466e-05 -2.5544824439e-05 -1.9993668502e-05 -2.8828143968e-05 -2.1443257538e-05 -2.8880318041e-05 -1.744453175e-05 -2.4850218097e-05 -1.068889037e-05 
-1.9606190676e-05 -7.6718717992e-06 -1.6519458882e-05 -6.3646896251e-06 -1.2672590515e-05 -5.5059501847e-07 -4.4700596504e-06 7.1739110581e-06 5.1103939427e-06 
1.2430194602e-05 1.2990486312e-05 1.4040907445e-05 1.753893639e-05 1.3930372461e-05 1.916110773e-05 1.4112485133e-05 1.9427016241e-05 1.433929765e-05 
1.870784422e-05 1.3076011328e-05 1.648251623e-05 1.0753191873e-05 1.353036464e-05 8.1851726463e-06 1.0649791648e-05 6.0970903633e-06 8.6189646709e-06 
5.7794804889e-06 8.1998593942e-06 7.1559541084e-06 8.6630578835e-06 8.7534258455e-06 7.4456526704e-06 8.6823542915e-06 3.5339175497e-06 1.1723798252e-06 
-5.2940976047e-06 -1.2265069245e-05 -1.640227822e-05 1.1133729345e-05 6.5596989742e-06 1.6582318835e-05 2.3420684101e-05 3.0535887163e-05 3.7547364172e-05 
4.27882851e-05 4.437350799e-05 4.2069939809e-05 3.5283384022e-05 2.6199496915e-05 1.8451072265e-05 1.2001714254e-05 4.754289364e-06 -3.5576777577e-06 
-1.2313792126e-05 -2.0905710699e-05 -2.8144826047e-05 -3.3232013266e-05 -3.6835320316e-05 -4.0158186493e-05 -4.2439351091e-05 -3.9876629671e-05 -3.2231772366e-05 
-1.8720693561e-05 -4.5193265805e-06 5.3066656847e-06 1.1518745168e-05 1.5865809701e-05 1.9982810954e-05 2.3261002752e-05 2.4791987016e-05 2.5184243668e-05 
2.5301886808e-05 2.5055329388e-05 2.3605857677e-05 2.1325855641e-05 1.889027385e-05 1.5519832345e-05 9.9380517895e-06 1.7622315909e-06 -7.913606737e-06 
-1.7645655248e-05 -2.6492338475e-05 -4.0422032725e-05 -4.8161301493e-05 -5.4132842706e-05 -5.8034684116e-05 -5.7526785895e-05 -5.2635938118e-05 -4.3990040467e-05 
-3.1921295431e-05 -2.0100792881e-05 -1.0905126942e-05 -4.1434262101e-06 1.4391329159e-06 -3.107439079e-05 -2.9086689665e-05 -2.9558170354e-05 -2.5831512176e-05 
-2.1417879452e-05 -1.7524879695e-05 -1.6157538766e-05 -1.8215506543e-05 -2.1841985699e-05 -2.2863267759e-05 -1.8126940404e-05 -9.4048355948e-06 -1.6124656099e-07 
8.7403140014e-06 1.7739630493e-05 2.5746830943e-05 3.0596203942e-05 3.3016836369e-05 3.3281697142e-05 2.8846678561e-05 2.1686067385e-05 1.4887900647e-05 
8.8173113113e-06 4.9000998388e-06 1.9668406424e-06 -3.3591817612e-06 -1.1049855175e-05 -1.8301105456e-05 -2.2894180802e-05 -2.4728189601e-05 -2.6931150387e-05 
-3.0551653253e-05 -3.5249413486e-05 -4.049533436e-05 -4.2088345253e-05 -3.8663065425e-05 -3.3924648051e-05 -3.0783990951e-05 -2.7881276765e-05 -2.0952843897e-05 
-9.6551262914e-06 2.7550796631e-06 1.4657861584e-05 2.4252352432e-05 3.0256296213e-05 3.2588389786e-05 3.1659468732e-05 2.8705449949e-05 2.4820559247e-05 
2.0927619516e-05 1.7911292616e-05 1.5748442593e-05 1.3849440165e-05 8.9939837267e-06 3.2871537314e-07 -1.1530124141e-05 -2.2057908154e-05 -2.6341067041e-05 
2.5406763143e-05 2.0121904754e-05 3.2912767892e-05 4.0794437155e-05 4.759561034e-05 5.1651042668e-05 5.1436923059e-05 4.7608705245e-05 4.1334052185e-05 
3.3915872336e-05 2.6594616884e-05 1.8804254296e-05 9.5959493365e-06 -1.2952010593e-06 -1.2925353303e-05 -2.3567366952e-05 -3.1655994007e-05 -3.7155713471e-05 
-4.1294709263e-05 -4.4203936341e-05 -4.4810714826e-05 -3.4590985706e-05 -3.9968938836e-05 -2.4850541195e-05 -1.3061937921e-05 -1.4595372022e-06 8.4773832896e-06 
1.5951901332e-05 2.2884542886e-05 2.9932667076e-05 3.6201560306e-05 4.1078666072e-05 4.4498847274e-05 4.6041570386e-05 4.4000482376e-05 3.8859789584e-05 
3.2929349345e-05 2.6887028525e-05 1.9852960349e-05 1.1152992784e-05 1.9957108179e-06 -5.2364776479e-06 -8.4747851474e-06 -4.6043103794e-05 -3.5635305267e-05 
-5.3040896091e-05 -5.6336074522e-05 -5.5944999986e-05 -5.2029769904e-05 -4.3970844672e-05 -3.2599868973e-05 -2.1087712639e-05 -1.076341232e-05 -1.4305052076e-06 
7.361472754e-06 1.5014028577e-05 -4.1837185563e-05 -4.2823728108e-05 -2.1729530317e-05 -8.1927699398e-06 -3.5713692341e-05 -3.5664455936e-05 -3.420895564e-05 
-3.2025476685e-05 -2.9688082122e-05 -2.8913765163e-05 -3.1100997148e-05 -3.4482758565e-05 -3.4107651118e-05 -2.6842518764e-05 -1.5627878724e-05 -4.7559039729e-06 
5.2964013832e-06 1.4767022776e-05 2.2525130134e-05 2.7064390906e-05 3.0703588345e-05 3.3355172491e-05 3.1175989989e-05 2.6123474981e-05 2.0706003852e-05 
1.4610598782e-05 9.243432487e-06 4.3358108144e-06 -3.2663584477e-06 -1.3351647567e-05 -2.2249138965e-05 -2.8289468446e-05 -3.2585046938e-05 -3.6694384107e-05 
-4.1752242396e-05 -4.6657812163e-05 -4.9463038522e-05 -4.7833970712e-05 -4.2290483179e-05 -3.7103053728e-05 -3.4078637327e-05 -3.0303753192e-05 -2.2147299205e-05 
-1.0225512483e-05 3.0016641404e-06 1.6559358755e-05 2.9208270462e-05 3.9138806642e-05 4.4404104301e-05 4.4611788326e-05 4.1703701754e-05 3.7209904804e-05 
3.2651013044e-05 2.8573634609e-05 2.4131333248e-05 1.9179117317e-05 1.122332128e-05 6.8849232093e-07 -1.0954220159e-05 -2.1976152311e-05 -2.8691443731e-05 
-3.2949579236e-05 -1.832379985e-05 -9.2085866186e-06 -2.9599231766e-05 -3.9864492464e-05 -4.7271200856e-05 -5.012186466e-05 -4.9609820962e-05 -4.6423668209e-05 
-3.9652354644e-05 -3.0243132187e-05 -1.9710865217e-05 -8.5369111389e-06 4.4256841193e-06 1.4751993035e-05 2.1218558686e-05 2.5280884529e-05 3.0026521472e-05 
3.6552867641e-05 4.4055700528e-05 5.0639508117e-05 5.4312122302e-05 5.3301476328e-05 4.8500925914e-05 4.2761346776e-05 3.7019099182e-05 3.0356799925e-05 
2.170568041e-05 1.0912926882e-05 -1.4341186443e-06 -1.3734652498e-05 -2.4982172818e-05 -3.4189594771e-05 -4.0392442315e-05 -4.4208297368e-05 -4.5967561164e-05 
-4.591441575e-05 -4.4488168896e-05 -3.9783034481e-05 -4.2265132834e-05 -3.7831127884e-05 -3.6076979995e-05 -3.2216969885e-05 -2.517187886e-05 -1.5193522131e-05 
-3.1293381539e-06 8.3239777382e-06 1.7915228227e-05 2.6758634249e-05 3.6194554923e-05 4.5451274673e-05 5.2667528507e-05 5.7174162976e-05 5.9103978856e-05 
5.7300158005e-05 5.1653045375e-05 4.4087462811e-05 3.6219706089e-05 2.8197434403e-05 1.9251015146e-05 1.0419886053e-05 4.6250176524e-06 2.5983100045e-06 
1.0701251654e-06 -3.6129713976e-06 -1.5250568822e-05 -1.2195622162e-05 -1.8723053472e-05 -3.8716440031e-05 -3.8397331082e-05 -3.9051295971e-05 -3.8943744585e-05 
-3.8896992919e-05 -3.9997493332e-05 -4.1312790017e-05 -3.9802312131e-05 -3.2359138459e-05 -2.0455533104e-05 -8.7766503327e-06 1.298483113e-06 1.0316539488e-05 
1.8129597493e-05 2.3658074042e-05 2.7701362342e-05 3.2668250242e-05 3.3988755604e-05 2.9136333524e-05 2.4553062758e-05 1.8737339587e-05 1.2653882095e-05 
6.1145196923e-06 -2.6760468472e-06 -1.2948393191e-05 -2.1984043087e-05 -2.9022225135e-05 -3.4931881601e-05 -4.0354237171e-05 -4.5931613386e-05 -5.0431004638e-05 
-5.1540251661e-05 -4.8762968618e-05 -4.39864707e-05 -3.9080940041e-05 -3.4701211007e-05 -2.9090961107e-05 -2.0067800278e-05 -8.5386562603e-06 3.9436239661e-06 
1.7601113996e-05 3.1611495615e-05 4.3381995056e-05 5.0533602007e-05 5.2386435527e-05 5.011848225e-05 4.5371089982e-05 4.0641552005e-05 3.6594821722e-05 
3.0965111819e-05 2.2574330615e-05 1.0342717843e-05 -2.0233181601e-06 -1.0868041841e-05 -1.9481513391e-05 -2.8038002711e-05 -3.4490316466e-05 -3.768604347e-05 
3.2976030525e-05 3.1204365314e-05 -2.666749333e-05 -3.6861119952e-05 -4.4024170165e-05 -4.5992617743e-05 -4.46265758e-05 -4.1334374146e-05 -3.5959112211e-05 
-2.8729844416e-05 -2.013664357e-05 -1.0489043746e-05 -9.2709724342e-07 2.6544833418e-05 2.1246551796e-05 3.0036549106e-05 3.3555280424e-05 3.8148373278e-05 
4.428583452e-05 5.0244758313e-05 5.3740681324e-05 5.2519465498e-05 4.6449248475e-05 4.1269075155e-05 3.6385017665e-05 2.9794773127e-05 2.0662573206e-05 
9.7067950264e-06 -2.3436898573e-06 -1.4579525896e-05 -2.6395873647e-05 -3.8176018279e-05 -4.4196094677e-05 -4.6250788728e-05 -4.6755213892e-05 -4.6958894927e-05 
-4.628599072e-05 -4.4870271267e-05 -3.9834832023e-05 -4.3224882575e-05 -3.6732692024e-05 -3.4970667002e-05 -3.4156522209e-05 -3.0843536024e-05 -2.4329081043e-05 
-1.4987608438e-05 -2.7088420325e-06 9.7804010579e-06 2.0824162448e-05 3.0999962746e-05 4.1886585677e-05 5.2834427152e-05 6.1438162447e-05 6.5935095336e-05 
6.6498287197e-05 6.4290409682e-05 5.9532587329e-05 5.2631109611e-05 4.4730769332e-05 3.6102903323e-05 2.6700456147e-05 1.758081703e-05 1.1401610664e-05 
1.0980089314e-05 8.0335429402e-06 1.5178294355e-06 -8.2405092705e-06 -2.3354155928e-05 -1.9221397906e-05 -2.545746429e-05 1.430871032e-05 7.4732056312e-06 
3.504914821e-05 3.420662415e-05 3.5409569136e-05 3.5026555452e-05 3.2841754091e-05 2.8874062536e-05 2.2973916657e-05 1.6312710386e-05 9.1452904485e-06 
1.0526815686e-07 -1.0564734907e-05 -2.0322175715e-05 -2.7933125239e-05 -3.4181896808e-05 -4.0002397873e-05 -4.5750756726e-05 -4.9193484301e-05 -4.9678193136e-05 
-4.7347305554e-05 -4.3629343963e-05 -3.8711009438e-05 -3.3315734527e-05 -2.6863554922e-05 -1.7781274664e-05 -6.7521762386e-06 5.0208625115e-06 1.8329719978e-05 
3.2849542549e-05 4.5609211156e-05 5.4344262026e-05 5.8395841734e-05 5.7981745158e-05 5.4140195061e-05 4.9450319239e-05 4.4977894504e-05 3.7940693801e-05 
2.6548152164e-05 1.14703154e-05 -2.0935437703e-06 -1.0324992559e-05 -1.7708699488e-05 -2.6997248369e-05 -3.493712029e-05 -3.8676923396e-05 -4.0279602217e-05 
-4.1940004849e-05 -4.4130048991e-05 -4.602487752e-05 -4.7220370107e-05 -4.7874024858e-05 -4.6733279305e-05 -4.2808829676e-05 -3.4595049328e-05 -2.2829834052e-05 
-1.1128147662e-05 -9.9569757595e-07 7.6078885627e-06 1.4805392084e-05 2.0615879748e-05 2.5367417038e-05 2.9754940442e-05 3.3401657674e-05 3.6778625145e-05 
3.6095048927e-05 3.6488721283e-05 -3.6301558794e-05 -4.3595440729e-05 -4.5674393732e-05 -4.3437034947e-05 -3.9481419662e-05 -3.5087025026e-05 -2.9603773328e-05 
-2.292270392e-05 -1.5546024997e-05 -8.0366041963e-06 -9.7560019796e-07 1.5245385271e-05 6.012745871e-06 2.1745400318e-05 2.7343581678e-05 3.2044895761e-05 
3.5059330003e-05 3.744354126e-05 3.9515462655e-05 4.3632991947e-05 4.8620232519e-05 5.1895120123e-05 5.0968634241e-05 4.6564955483e-05 3.2685918541e-05 
3.7365371099e-05 2.5789980555e-05 1.6772256004e-05 8.9449716446e-06 -1.700502159e-06 -1.6125740558e-05 -2.6923875339e-05 -3.5341215153e-05 -4.7750937483e-05 
-4.7770008678e-05 4.0538498979e-05 4.1837409299e-05 -4.5935797061e-05 -4.1701902774e-05 -4.6630151701e-05 -4.789603372e-05 -4.5307387154e-05 -4.1202532884e-05 
-4.4359211643e-05 -3.710560668e-05 -3.3727177652e-05 -3.1705023048e-05 -2.6049085136e-05 -1.5075794636e-05 -1.2756134993e-06 1.1104941905e-05 2.2747200092e-05 
3.3662317492e-05 4.5407442485e-05 5.7290047152e-05 6.6471213358e-05 7.0222935392e-05 6.8843673944e-05 6.5701937274e-05 6.1938934778e-05 5.6673851759e-05 
4.9854698773e-05 4.158876709e-05 3.0513201636e-05 1.9261693296e-05 1.5333373767e-05 7.8040173896e-06 -2.9324027189e-06 -1.4573365888e-05 -2.9298306799e-05 
-2.4745717838e-05 -3.4005288853e-05 3.7140756831e-05 3.7643723772e-05 3.6513904888e-05 3.3192357023e-05 2.7423533993e-05 2.0578835802e-05 1.351345793e-05 
4.6323851279e-06 -6.5610839215e-06 -1.6759508071e-05 -2.4487756946e-05 -3.0938267628e-05 -3.5329468119e-05 -4.6460321755e-05 -4.4127057663e-05 -4.6916042265e-05 
-4.5592583774e-05 -4.2337503146e-05 -3.7304696889e-05 -3.1710714666e-05 -2.5095728688e-05 -1.6221008082e-05 -5.4725333793e-06 5.7424905808e-06 2.0939405113e-05 
3.6080564769e-05 4.8256767514e-05 5.7172856032e-05 6.2292478106e-05 6.3562952164e-05 6.1588700191e-05 5.796122332e-05 5.4785206157e-05 4.381807048e-05 
3.0411411444e-05 1.4817798615e-05 1.6416610293e-06 -7.10300354e-06 -1.512488916e-05 -2.4503596251e-05 -3.304705524e-05 -3.8621289605e-05 -4.2035401748e-05 
-4.4402599997e-05 -4.6782728532e-05 -4.92838426e-05 -5.1209506637e-05 -5.1506931413e-05 -4.8757680815e-05 -4.2926124479e-05 -3.3806997635e-05 -2.2606500806e-05 
-1.170086e-05 -1.8031569198e-06 6.6713351998e-06 1.3617666809e-05 1.9538327706e-05 2.3993055038e-05 2.8335685784e-05 3.2671650843e-05 3.5340215618e-05 
3.8197497815e-05 3.7644110307e-05 3.8399669393e-05 -4.1019379751e-05 -3.7410591176e-05 -2.8952065804e-05 -2.1620169491e-05 1.2188518554e-05 1.0674641544e-06 
2.3290909667e-05 3.458452511e-05 4.6846246732e-05 5.9242360294e-05 6.8498926339e-05 7.1754411329e-05 6.8892675699e-05 6.5295578679e-05 6.1970492425e-05 
5.8064857512e-05 5.2366254749e-05 4.4981092287e-05 3.7472801523e-05 2.3564990443e-05 3.0979260373e-05 -4.1658878217e-05 -4.5044464059e-05 -4.3686877689e-05 
-4.0130990783e-05 -3.6469044971e-05 -3.2747783553e-05 -2.6457055355e-05 -2.0778439648e-05 -1.5003179669e-05 -9.6656409596e-06 -4.6710962351e-06 1.2675004655e-05 
-4.1953230721e-07 2.1694951101e-05 2.8420845865e-05 3.4097380194e-05 3.8236639739e-05 4.0900464228e-05 4.2630206735e-05 4.7745510528e-05 5.0527590247e-05 
4.9294410019e-05 4.5367113671e-05 4.1341140786e-05 3.7553177208e-05 3.7759775296e-05 3.5787602428e-05 3.2665720028e-05 2.7413545013e-05 1.953770402e-05 
9.7707164777e-06 -4.7698687013e-05 -4.9648270215e-05 -4.6271147767e-05 -3.7736634113e-05 -4.3436682972e-05 -3.2342903069e-05 3.9656316403e-05 4.0104052459e-05 
3.7948188947e-05 3.2422688491e-05 2.5618549444e-05 1.9050300352e-05 1.0977030286e-05 -1.282632752e-05 -1.9961664293e-05 -2.6505318147e-05 -3.1004457469e-05 
-4.4464663915e-05 -4.2865575779e-05 -4.5052697715e-05 -4.4376705773e-05 -4.1308314394e-05 -3.6505990465e-05 -3.0942280773e-05 -2.3877859803e-05 -1.4557485201e-05 
-3.4848459478e-06 5.164472725e-06 1.378740717e-05 5.1171995437e-05 4.130839352e-05 5.8823578911e-05 6.374385157e-05 6.6233898906e-05 6.6341297497e-05 
6.4613133873e-05 6.4504576585e-05 3.2826581901e-05 4.739414635e-05 1.7803318542e-05 5.4706444388e-06 -3.638216711e-06 -1.1495466879e-05 -1.9980194338e-05 
-2.9132049349e-05 3.1743261843e-05 2.4086444228e-05 -8.9441178943e-06 -1.5185989923e-05 5.9094983953e-05 6.7119517553e-05 -4.5640503231e-05 -4.7049800742e-05 
-4.9006505833e-05 -5.1239450841e-05 -5.1347496083e-05 -4.7856803576e-05 -4.1213872464e-05 -3.1839315398e-05 -2.1125195417e-05 -1.0532582678e-05 -5.5921549347e-07 
8.1117772766e-06 1.5146374835e-05 2.1009974262e-05 2.4155971914e-05 2.6650698146e-05 3.0385213904e-05 3.4226247408e-05 4.0706394429e-05 -1.8893672177e-05 
-8.4199409649e-06 -2.5923762829e-05 -3.0071620586e-05 -3.493037957e-05 -4.5988622333e-05 -3.8818254325e-05 -4.9785808187e-05 -4.3689762606e-05 -4.4198161049e-05 
-4.0638695282e-05 -3.644035678e-05 -3.1021840641e-05 -2.3149068511e-05 -1.2930165667e-05 2.5670167815e-06 1.6001805534e-05 -2.9309525871e-05 -1.8588522153e-05 
-7.6751898064e-06 2.5003818678e-06 1.1116936889e-05 1.7980600433e-05 2.3458611849e-05 2.6824447559e-05 3.2659966564e-05 3.1231625599e-05 2.8030140584e-05 
2.1815701984e-05 1.3262634411e-05 2.8241838699e-06 4.1134491039e-05 4.3669137085e-05 4.3209107389e-05 3.7875346607e-05 3.0785710351e-05 2.4847829991e-05 
1.8870197664e-05 4.6809403102e-05 4.9623039558e-05 4.8108336159e-05 4.4414670811e-05 2.6148119559e-05 3.3066648939e-05 3.9874035792e-05 4.4457880904e-05 
2.7497882911e-05 2.3776867693e-05 1.7295094722e-05 8.7791851229e-06 -1.4630722944e-06 -1.2393084376e-05 -2.2328692012e-05 -2.6016858101e-05 -1.136679839e-05 
-1.5643931874e-05 -2.1154970455e-05 -2.609530884e-05 -4.0628399802e-05 -3.7749448893e-05 -3.7969330151e-05 -4.3832772462e-05 -4.3714550702e-05 -4.1124195377e-05 
-3.8648646296e-05 -4.3372829168e-05 -2.9062675821e-05 3.7612852793e-05 4.5214326747e-05 5.2991218581e-05 5.9134554249e-05 6.3487121224e-05 6.6769214754e-05 
6.8520879722e-05 6.8665072831e-05 6.923312867e-05 7.1390764788e-05 6.8432376793e-05 7.2192611697e-05 6.0248244154e-05 4.829846057e-05 3.3934995372e-05 
1.9894468096e-05 7.3330761552e-06 -3.4885073319e-06 -1.0241935115e-05 -1.714039081e-05 -2.5069586172e-05 -1.1147902114e-05 -5.9585469501e-06 3.2012543159e-06 
1.3088304058e-05 2.3162486286e-05 3.4810445413e-05 4.7348747103e-05 5.9509548919e-05 6.9302015618e-05 7.1639055022e-05 6.6101627453e-05 6.2741147303e-05 
5.9344357578e-05 5.338797655e-05 4.6448263674e-05 4.0783816075e-05 -3.2588403883e-05 6.2698098191e-05 6.5103380621e-05 6.7961495006e-05 6.9842231824e-05 
7.0843634603e-05 3.4568196043e-05 4.7821099542e-05 2.2009800432e-05 1.3937425744e-05 2.8743417109e-05 3.4017672078e-05 4.6497653784e-05 4.7087870189e-05 
4.3994413621e-05 -1.5546657096e-05 -4.5175596028e-06 5.6466721503e-06 1.40857735e-05 2.0678796773e-05 6.8423578341e-05 6.7090339144e-05 5.9716658143e-05 
-4.0308495954e-05 -4.1889133172e-05 -4.4311080273e-05 -4.353899476e-05 -3.9952577936e-05 -3.6655679044e-05 4.1336181312e-05 -4.5772473338e-05 -3.2956017094e-05 

Stress_XZ_Pt 1 1116 double
-8.7609407728e-06 -1.8829274353e-06 9.6275214645e-07 -8.5128556435e-06 1.7643349253e-06 5.0998894565e-06 4.1987424311e-06 7.2647292768e-06 5.3067888075e-06 
8.5049798599e-06 6.4918119733e-06 9.257177112e-06 5.915428801e-06 8.4926754198e-06 3.4760118979e-06 6.9323029948e-06 3.7307820548e-06 6.2425010583e-06 
2.3102633122e-06 3.6968085624e-06 -2.0153789819e-06 1.5285527866e-07 -4.7665319016e-06 -1.5419906845e-06 -6.3483034864e-06 -2.1492091662e-06 -4.7876038707e-06 
-9.8311664942e-07 -1.7488303001e-06 1.3017332776e-06 -3.2206997957e-06 9.1699445193e-07 -7.9734456904e-06 -2.4301954795e-06 -1.2182035334e-05 -6.3291898869e-06 
-1.4744619421e-05 -9.8195766327e-06 -1.4660119177e-05 -1.1817970858e-05 -1.187293401e-05 -1.120539514e-05 -7.7208471794e-06 -8.58264832e-06 -2.4411776565e-06 
-4.6659159665e-06 3.6366302822e-06 1.3090082831e-06 7.8274172211e-06 7.0779427119e-06 8.0932984474e-06 9.3167901696e-06 3.6322998369e-06 7.6396047035e-06 
1.8466685248e-07 5.0185084781e-06 3.6943692479e-06 6.1398249933e-06 1.230329076e-05 1.1413923062e-05 2.0662963834e-05 1.6615859295e-05 2.4645391022e-05 
1.8377996639e-05 2.4448057047e-05 1.6424772639e-05 2.3374255761e-05 1.2298709066e-05 2.0442857931e-05 6.7061720301e-06 1.5212577182e-05 1.015716407e-06 
1.1770306173e-05 -2.5712922707e-06 9.7561242001e-06 -4.8698288992e-06 6.5944814196e-06 -7.3933128988e-06 1.6763316353e-06 -1.0080026129e-05 -2.4580982654e-06 
-1.0461410341e-05 -4.2014216888e-06 -6.5392070496e-06 -3.8802874087e-06 -3.6245455703e-07 -1.7345721659e-06 5.6306349663e-06 1.2691062778e-06 1.0477861501e-05 
3.2362632965e-06 1.2416585434e-05 2.843299967e-06 9.6142845791e-06 2.6830252864e-07 2.8151712144e-06 -5.3613480304e-06 -5.9801124195e-06 -1.3669632153e-05 
-1.5078915794e-05 -2.1369499336e-05 -2.2987441753e-05 -2.5877991902e-05 -2.8768738503e-05 -2.5488338906e-05 -3.0177839562e-05 -2.1588360141e-05 -2.7194334962e-05 
-1.6755308934e-05 -2.2305640414e-05 -1.3887236491e-05 -1.7389535969e-05 1.9429769054e-05 1.7483363081e-05 2.3248328489e-05 2.2288557375e-05 1.6597271497e-05 
2.0843383936e-05 1.6941969079e-05 1.7795217445e-05 1.6507663531e-05 1.4863057459e-05 1.9258073735e-05 1.5140364212e-05 2.5737280339e-05 1.8915487999e-05 
3.1142561056e-05 2.2706943128e-05 3.1352761653e-05 2.296560433e-05 2.6908155633e-05 1.8750445861e-05 2.2846824322e-05 1.3578044246e-05 2.0428470634e-05 
9.8921962888e-06 1.6228222648e-05 6.254832158e-06 1.1234489648e-05 2.5443098366e-06 5.1620378372e-06 -1.5050687239e-06 -3.4399575952e-06 -6.6185031642e-06 
-1.3622476672e-05 -1.2408430393e-05 -2.4798750019e-05 -1.9397494725e-05 -3.3397140214e-05 -2.8464684419e-05 -3.6041748899e-05 -3.6695035305e-05 -3.4164895624e-05 
-3.9318892959e-05 -2.8069716791e-05 -3.6016939703e-05 -2.0101130758e-05 -2.9905079373e-05 -1.3517701973e-05 -2.262316616e-05 -7.4172746736e-06 -1.5818524275e-05 
-4.616697197e-06 -1.1958867731e-05 -5.9892240643e-06 -9.6244068573e-06 -2.9518824363e-06 -4.2658223265e-06 2.8692892897e-06 2.2843919396e-06 4.0420569576e-06 
5.9529339183e-06 6.7251977498e-06 9.4997968176e-06 8.1704511103e-06 1.2757695913e-05 1.2268131286e-05 1.8039165298e-05 1.8320585696e-05 2.3000673082e-05 
1.5471146071e-05 2.1311128876e-05 1.0742564427e-05 1.7273472849e-05 1.0573891814e-05 1.5793944385e-05 1.4621294667e-05 1.7387068283e-05 1.9216307919e-05 
1.9818359306e-05 2.2180490305e-05 2.1357688183e-05 2.097666129e-05 2.0147779651e-05 1.6710597265e-05 1.6738398926e-05 1.279903563e-05 1.3464807807e-05 
9.3795624707e-06 1.0601764416e-05 4.0553257747e-06 6.0760942659e-06 -4.8551120528e-06 -1.7788407405e-06 -1.4818755062e-05 -1.1332707004e-05 -2.3452825189e-05 
-2.0392681108e-05 -2.8614482289e-05 -2.7344295631e-05 -3.039987314e-05 -3.1623109408e-05 -3.0558943763e-05 -3.4076882912e-05 -2.760535881e-05 -3.4563606732e-05 
-2.3995293304e-05 -3.5116147046e-05 -2.3502675504e-05 -3.8656308334e-05 -2.612408116e-05 -3.9456492686e-05 -2.4881089303e-05 -2.6456302976e-05 -9.9721727338e-06 
-4.6056845235e-06 1.0609650531e-05 1.3066316626e-05 5.6060484326e-06 1.1227606791e-06 8.3691203372e-06 1.0758368035e-05 1.1672897699e-05 1.1168589253e-05 
1.0257753502e-05 7.1874778769e-06 2.3381701908e-06 1.8406069557e-08 9.0001819331e-07 2.6387294554e-06 4.1043796273e-06 5.6193083537e-06 6.514255233e-06 
5.6609200669e-06 3.52074494e-06 7.5607118788e-07 -2.2709236305e-06 -4.6125207618e-06 -6.008920785e-06 -6.8868770541e-06 -4.9981770758e-06 8.0863117091e-08 
5.0202392572e-06 8.1802194813e-06 8.4733228505e-06 7.8037548974e-06 8.5346252945e-06 8.9880594487e-06 6.8473381418e-06 1.592150312e-06 -5.8851347831e-06 
-1.3167260818e-05 -1.8248012793e-05 -2.1178612769e-05 -2.3012131351e-05 -2.3864771265e-05 -2.260412839e-05 -1.7681519694e-05 -8.2380577169e-06 2.4636785838e-06 
1.0687859685e-05 1.5351747788e-05 1.739262575e-05 1.2185719811e-05 2.4726892747e-06 -7.7725678835e-06 -1.6337459556e-05 -2.339327375e-05 -2.9489648114e-05 
-3.2840445328e-05 -3.1545943784e-05 -2.6374715617e-05 -1.8797484927e-05 -8.269305809e-06 2.4634612146e-05 2.5332656151e-05 2.0507211502e-05 1.5721755062e-05 
1.2572447076e-05 1.1749659507e-05 1.2148664382e-05 1.1605027112e-05 8.4855871592e-06 3.7666179082e-06 -3.7172732448e-08 -2.6170940615e-06 -4.9349733331e-06 
-6.9276918566e-06 -8.7838159288e-06 -1.104310536e-05 -1.4780199081e-05 -2.3384077849e-05 -3.5794363612e-05 -4.3262927647e-05 -4.3651483793e-05 -4.0124752559e-05 
-3.3175628232e-05 -2.6068590614e-05 -2.0196503556e-05 -1.3123539702e-05 -4.9547953573e-06 2.6747462847e-06 8.9120692337e-06 1.3553358258e-05 1.8640050712e-05 
2.5178061151e-05 2.9465079024e-05 2.9267910122e-05 2.6426960176e-05 2.3482830784e-05 2.1490441213e-05 1.9841816993e-05 1.8150407186e-05 1.6394498743e-05 
1.4273364968e-05 1.2053444607e-05 1.0042580925e-05 7.3149573154e-06 1.9221723377e-06 -6.4989363082e-06 -1.6001905124e-05 -2.4991758892e-05 -3.2291749449e-05 
-3.7635216358e-05 -4.2305685383e-05 -4.7390672989e-05 -5.2570209846e-05 -4.9972935813e-05 -3.0787444985e-05 -6.5682581294e-06 9.2748639986e-06 1.974888778e-05 
4.9225528471e-06 1.2472319497e-06 8.1464705772e-06 9.8120042367e-06 9.7225413356e-06 7.9658451568e-06 3.0909307611e-06 -2.3887629936e-06 -3.4114674747e-06 
-6.4393903898e-07 2.6081298259e-06 5.0515056955e-06 6.7966476536e-06 8.1505651224e-06 8.8732676886e-06 9.2372466725e-06 9.1657113899e-06 7.5601639651e-06 
4.4598475952e-06 6.970507016e-07 -2.4096763127e-06 -7.9147159795e-06 -1.0295479115e-05 -2.5341240075e-06 2.3264773859e-06 4.2183670814e-06 4.2113522056e-06 
3.7341417141e-06 2.1226083362e-06 -2.1633200902e-06 -9.1694316495e-06 -1.7004018218e-05 -2.3170557142e-05 -2.6681020699e-05 -2.8013217616e-05 -2.844178789e-05 
-2.7804876026e-05 -2.4483867492e-05 -1.7687431409e-05 -8.2756985762e-06 6.0366960497e-07 6.3431670583e-06 8.5086342096e-06 4.891135859e-06 1.0540139556e-05 
-3.2792582942e-06 -1.085579845e-05 -1.6780694523e-05 -2.131815063e-05 -2.4923262572e-05 -2.7621547815e-05 -2.7627727832e-05 -2.3045670787e-05 -1.5494171976e-05 
-8.2592430317e-06 -2.807502085e-06 -8.6280938376e-06 -3.8520252588e-06 1.1245506812e-05 7.3462933301e-06 2.2285824343e-05 2.1982920771e-05 1.9626046196e-05 
1.5967973695e-05 1.2486560081e-05 9.6190140084e-06 6.9800031497e-06 4.3624814339e-06 2.342071781e-06 9.4274945894e-07 -7.1149566594e-07 -2.7148342667e-06 
-4.7306568263e-06 -7.0219620056e-06 -9.8533112123e-06 -1.3892102061e-05 -2.0759551262e-05 -3.2012697829e-05 -3.9245103835e-05 -4.1274650357e-05 -3.9486641981e-05 
-3.45010003e-05 -2.7623385904e-05 -1.9734755597e-05 -1.1441868196e-05 -3.5015097943e-06 3.4978895804e-06 9.1454440962e-06 1.4117517367e-05 1.9682295715e-05 
2.6484468435e-05 3.1388664411e-05 3.1852564462e-05 2.9579121474e-05 2.6438475743e-05 2.2723647362e-05 1.7928742182e-05 1.3407881625e-05 1.0767575532e-05 
9.3313059324e-06 7.6861826983e-06 5.7560247342e-06 4.3385666686e-06 1.4221864078e-06 -4.9414875392e-06 -1.332617785e-05 -2.2478001029e-05 -3.1224317354e-05 
-3.8020906686e-05 -4.3406602344e-05 -4.7232295401e-05 -4.7820998589e-05 -4.4491685912e-05 -3.5116109302e-05 -1.9332742283e-05 -3.8132478153e-06 8.0702060359e-06 
1.7167909618e-05 6.6305318569e-06 4.3847440452e-06 5.2026109501e-06 -6.0795315449e-09 -6.8168201324e-06 -1.2455334172e-05 -1.6131584516e-05 -1.8318952698e-05 
-1.9440870346e-05 -2.0454011519e-05 -2.0979623514e-05 -1.8499982616e-05 -1.3911350106e-05 -8.7707627472e-06 -4.1053579594e-06 -4.9388398793e-07 2.3603510044e-06 
4.8088884341e-06 6.4326741267e-06 5.9828945496e-06 3.2147565321e-06 -1.5826752815e-06 -5.3238441637e-06 -4.8073629841e-06 -1.7594787423e-06 1.2335632462e-06 
3.7217979241e-06 5.5721042145e-06 7.496671742e-06 9.7639654086e-06 1.2013630339e-05 1.3513998738e-05 1.2379656937e-05 9.186158195e-06 6.0343968471e-06 
3.4497285242e-06 1.5643172446e-06 -4.3627096034e-06 4.5667104587e-07 -9.1541744496e-06 -1.1265973853e-05 -1.0052325251e-05 -7.0056405548e-06 -4.0533359424e-06 
-2.5714425362e-06 -1.8817316061e-06 -2.0513865735e-06 -3.9795787217e-06 -8.597443184e-06 -1.576608247e-05 -2.3548603622e-05 -2.9218088002e-05 -3.1599903195e-05 
-3.1472729916e-05 -3.064421162e-05 -2.9261230793e-05 -2.5786076094e-05 -1.8978414118e-05 -9.8618337461e-06 -2.1631784648e-06 1.9204944621e-06 2.9202499654e-06 
2.1476799112e-06 1.123068003e-06 2.4600130928e-06 1.3143819615e-06 3.4582574244e-06 2.1469475087e-05 2.1475572339e-05 1.9195965251e-05 1.541568281e-05 
1.1155449783e-05 7.1552190093e-06 3.950225107e-06 2.7148566915e-06 2.689422729e-06 1.3404479375e-06 -1.2059254288e-06 -3.6270772625e-06 -5.8312172087e-06 
-8.1332306081e-06 -1.1194245417e-05 -1.4279899005e-05 -3.3678913951e-05 -2.8514258247e-05 -3.6407981497e-05 -3.6316106161e-05 -3.2789571378e-05 -2.5824477234e-05 
-1.6868166767e-05 -8.5289743765e-06 -1.908404073e-06 3.1502002287e-06 7.3573578447e-06 1.2053580576e-05 1.8155246153e-05 2.5400022878e-05 3.0598761441e-05 
3.1560486605e-05 2.9584201002e-05 2.5952008855e-05 2.075995053e-05 1.4521233425e-05 9.1731325256e-06 6.2650846644e-06 5.1841464597e-06 3.6039773974e-06 
1.2091193682e-06 9.5680434242e-08 -1.3028110004e-06 -5.4307327844e-06 -1.1935547491e-05 -2.0978504381e-05 -3.1360358207e-05 -3.9671938794e-05 -4.4761478421e-05 
-4.6479714911e-05 -4.4688701564e-05 -4.233809068e-05 -3.8167728235e-05 -2.779674287e-05 -1.448751766e-05 -1.6447014843e-06 1.0046118149e-05 1.8030722913e-05 
-2.1661760456e-05 -1.6196574506e-05 2.1145586544e-06 -1.1856964051e-06 -5.5333501905e-06 -9.1992372973e-06 -1.1597349157e-05 -1.2611119473e-05 -1.2659258118e-05 
-1.2763066252e-05 -1.3289161416e-05 -1.3098130694e-05 -1.3439950635e-05 -3.7497536027e-06 -8.182886404e-06 -1.1139146068e-06 5.5992499881e-07 2.2698352922e-06 
3.0061545147e-06 1.7840329178e-06 -1.2977819495e-06 -5.1336975844e-06 -7.2626951805e-06 -5.4094996358e-06 -2.8193875039e-06 -5.97385025e-07 9.8484113664e-07 
2.703832223e-06 5.5842930351e-06 9.6775529528e-06 1.3548281004e-05 1.6509237321e-05 1.5019953935e-05 1.171564827e-05 8.9703427572e-06 8.0862873801e-06 
6.2558981995e-06 4.8492573228e-06 3.3252419485e-07 4.868875692e-06 -4.5037394045e-06 -9.3386842082e-06 -1.1334675037e-05 -1.1340047649e-05 -1.1456577113e-05 
-1.0713041547e-05 -8.9443734623e-06 -7.9709413967e-06 -8.22899176e-06 -9.9921583114e-06 -1.4081511836e-05 -2.0593419322e-05 -2.7746305477e-05 -3.2481112612e-05 
-3.3255544622e-05 -3.1644020964e-05 -2.9893416922e-05 -2.8214390113e-05 -2.5169942091e-05 -1.9222460651e-05 -1.1263484225e-05 -4.742653914e-06 -1.440178958e-06 
-1.6684244493e-06 -1.9411678203e-06 -1.3821078397e-06 5.2574995379e-07 2.5047545762e-06 2.8086862471e-06 2.0014818745e-06 -1.2760506024e-05 -1.4985744883e-05 
-2.1026021386e-05 -1.6975629705e-05 -2.5429937068e-05 -2.8672699955e-05 -3.1175001823e-05 -3.1717881939e-05 -2.8960453619e-05 -2.2586418709e-05 -1.4333158788e-05 
-6.9016042517e-06 -1.5220219156e-06 2.1606041569e-06 5.2308047884e-06 8.855653391e-06 1.4201152408e-05 2.2925069516e-05 2.7829596547e-05 2.8791604109e-05 
2.7153553219e-05 2.3492374112e-05 1.7565276266e-05 1.1116472251e-05 6.3262762069e-06 3.6344845853e-06 2.5081682224e-06 7.3339833051e-07 -2.0865566697e-06 
-3.7070439021e-06 -4.8873156402e-06 -7.9072879089e-06 -1.3540382042e-05 -2.2191743938e-05 -3.2537489005e-05 -4.0769898078e-05 -4.5860717364e-05 -4.7881217142e-05 
-4.6434208343e-05 -4.3992209612e-05 -4.0498743147e-05 -3.2421049582e-05 -2.0582674551e-05 -7.4554205014e-06 5.4223296218e-06 1.4988647308e-05 2.010959588e-05 
2.1727400963e-05 2.0760512143e-05 1.785731888e-05 1.4174355556e-05 1.0513538541e-05 7.1729593856e-06 5.160528076e-06 4.5631877583e-06 2.8185411054e-06 
-5.7396945863e-07 -3.6949241462e-06 -5.6953144849e-06 -7.5365344401e-06 -9.9909050277e-06 -1.2103849258e-05 -1.3865449091e-05 -1.5152487094e-05 -1.7246161406e-05 
-1.5678069985e-05 -1.9494149456e-05 7.1130375545e-07 -1.2849722424e-06 -3.3664492634e-06 -5.1355442849e-06 -5.5389768931e-06 -5.3525465091e-06 -5.5772432006e-06 
-6.7822093115e-06 -8.640499118e-06 -1.0854922039e-05 -1.3486096123e-05 -1.439470384e-05 -1.4096350696e-05 -1.0193452454e-05 -5.7212796492e-06 -3.3772585653e-06 
-1.7680604287e-06 -3.1785140209e-07 9.0575652697e-07 4.7121133662e-07 -1.2050114861e-06 -4.0518774824e-06 -6.9737278636e-06 -8.9407640189e-06 -4.9701292255e-06 
-6.7162773121e-06 -3.1755893417e-06 -1.7667102554e-06 5.0902978425e-08 2.7058032725e-06 9.1282339554e-06 1.3763568404e-05 1.7216528704e-05 1.2200484662e-05 
1.5968274965e-05 -8.6129090278e-06 -1.0326798701e-05 1.8339277631e-05 1.8698385247e-05 9.1245469775e-06 1.0601021586e-05 9.1200645329e-06 5.4526504982e-06 
1.0421348179e-05 -3.6770686052e-07 -6.2216301728e-06 -1.0624096262e-05 -1.2851277461e-05 -1.3887513524e-05 -1.3504646404e-05 -1.3934699837e-05 -1.4766676713e-05 
-1.6376863641e-05 -1.951935451e-05 -2.4392239084e-05 -2.9381997138e-05 -3.2245727198e-05 -3.2037873552e-05 -3.0049998259e-05 -2.7901235171e-05 -2.5792109227e-05 
-2.2809967959e-05 -1.8028372097e-05 -1.1175189411e-05 -5.6736789702e-06 -5.2579648013e-06 -3.7228624308e-06 -8.1768479276e-07 2.5791107134e-06 4.9638876476e-06 
5.5188357919e-06 3.3077965611e-06 -2.1371712592e-05 -2.3637188406e-05 -2.538438639e-05 -2.5822468615e-05 -2.3843080271e-05 -1.9010120923e-05 -1.2918891571e-05 
-7.5235226404e-06 -3.2544106547e-06 -1.7622981563e-07 2.1336988709e-06 4.5499656096e-06 6.6529710239e-06 2.3803428121e-05 1.9902739041e-05 2.4472421046e-05 
2.2841073587e-05 1.9645367047e-05 1.477623141e-05 9.3913746468e-06 5.3285588137e-06 2.5834533233e-06 7.9431050892e-07 -9.3984478156e-07 -4.933165792e-06 
-7.2391777621e-06 -9.080849054e-06 -1.2116495327e-05 -1.7274684069e-05 -2.4572371331e-05 -3.2661640944e-05 -3.9757901504e-05 -4.4079421787e-05 -4.7991774409e-05 
-4.74404751e-05 -4.3889609515e-05 -3.9239310354e-05 -3.2822091271e-05 -2.4218115414e-05 -1.2387108882e-05 1.0403033457e-06 1.1201582652e-05 1.7365557596e-05 
2.0066726847e-05 1.9804902422e-05 1.7758966351e-05 1.5501072539e-05 1.3442342834e-05 1.0923678587e-05 8.2839115976e-06 6.0419173451e-06 3.2707982029e-06 
-5.2348357826e-07 -4.1528591623e-06 -6.485501217e-06 -8.1089273181e-06 -9.9882331597e-06 -1.1557764765e-05 -1.2954759768e-05 -1.4133304376e-05 -1.4401073031e-05 
-1.5439390836e-05 -1.365281878e-05 -1.7831062905e-05 1.3869973827e-05 7.7853146649e-06 -9.2847061524e-06 -1.2293006534e-05 -2.011228662e-05 -1.853785534e-05 
-2.0955281343e-05 -2.2155737042e-05 -2.427562049e-05 -2.7102321383e-05 -2.8985826702e-05 -2.9664838439e-05 -2.9813165838e-05 -2.919816643e-05 -2.6855141186e-05 
-2.3695129585e-05 -2.0324199795e-05 -1.6496824628e-05 -1.2652391433e-05 -8.0282263752e-06 -1.0035958667e-05 3.1957867606e-06 2.1184627172e-06 1.0913647372e-06 
9.9409169252e-07 1.2389748463e-06 1.3440114799e-06 -2.2339912107e-06 -4.9417933496e-06 -7.0152713079e-06 -9.3389604672e-06 -1.0058529369e-05 -1.2282341686e-05 
-7.6824491316e-06 -1.1628916354e-05 -7.0833778523e-06 -3.9310513102e-06 -3.330786285e-06 -2.3566778111e-06 -1.005402936e-06 -2.6578184276e-06 -5.179018558e-06 
-7.7398095755e-06 -9.6569158359e-06 -1.1170354128e-05 -1.154518327e-05 -1.2615730157e-05 -1.0047950127e-05 -8.6877488457e-06 -7.2380652227e-06 -5.1773334917e-06 
-2.4330469608e-06 1.3114801277e-05 1.4890487182e-05 1.3130256548e-05 4.9613387546e-06 1.3321051711e-05 -3.521062979e-06 -1.8470634586e-05 -1.8545580588e-05 
-1.8270307464e-05 -1.7294614281e-05 -1.4930424413e-05 -1.1684376886e-05 -9.204199273e-06 -3.5259495235e-06 -1.4317830335e-06 3.6368846068e-07 2.2128511468e-06 
1.916485553e-05 1.6614208107e-05 1.9521342438e-05 1.795126218e-05 1.5483156176e-05 1.2523095393e-05 8.9452595375e-06 5.5468705114e-06 2.2415786027e-06 
-5.2829582486e-07 -1.7214270921e-06 -4.4067163003e-06 -1.3238495285e-05 -1.0567366644e-05 -1.6657570541e-05 -2.1057071535e-05 -2.6520253414e-05 -3.1951636174e-05 
-3.7222530409e-05 -3.9492753785e-05 -4.4841800445e-05 -4.5405909077e-05 -4.0206167796e-05 -3.4694686747e-05 -2.9552073102e-05 -2.3882254482e-05 -1.521688614e-05 
-4.636542144e-06 -9.168560382e-06 -7.9432620623e-06 -1.7409276325e-05 -1.6480363001e-05 -4.1755232814e-05 -3.7274791794e-05 1.6660201936e-05 1.6884560182e-05 
1.5994031173e-05 1.5600531697e-05 1.5711046217e-05 1.4683411791e-05 1.1834735915e-05 8.0556541207e-06 3.732955264e-06 -7.4023782304e-07 -4.6076186777e-06 
-7.2699589282e-06 -8.964507515e-06 -1.0381866787e-05 -1.1419223483e-05 -1.2178491488e-05 -1.3193234281e-05 -1.3479938616e-05 -1.1977376744e-05 9.353618907e-06 
3.6688683003e-06 1.3134734824e-05 1.4936051912e-05 1.5976568193e-05 1.7494650137e-05 1.4746930901e-05 1.7523272618e-05 1.3732968682e-05 1.440097526e-05 
1.2336145801e-05 1.1030209862e-05 8.7302348675e-06 5.7662475683e-06 2.1916634587e-06 -2.304149379e-06 -6.01165425e-06 9.8321295354e-06 4.2363833188e-06 
-1.024960369e-06 -5.1709725426e-06 -8.0747348647e-06 -1.0038222172e-05 -1.1274572898e-05 -1.2455869364e-05 -1.2550439578e-05 -1.1796953686e-05 -1.0708816035e-05 
-8.7694543254e-06 -6.0564310616e-06 -1.8849973622e-06 -1.3641503392e-05 -1.2471346963e-05 -1.0969872505e-05 -1.0349399304e-05 -1.0139418464e-05 -9.5461841738e-06 
-1.0176696151e-05 -3.4338336832e-06 -5.6781730109e-06 -8.3130951225e-06 -1.0212590496e-05 -8.7592720774e-06 -5.4584901932e-06 -3.5101749063e-06 -3.5067686781e-06 
-1.2668194358e-05 -1.1706143368e-05 -9.5964669526e-06 -6.4511783648e-06 -1.5426237496e-06 4.4383584736e-06 1.0248211197e-05 1.0627108281e-05 -6.2971472895e-06 
-5.0629754469e-06 -3.107483419e-06 -1.1537790066e-06 1.2588373011e-05 7.6035879601e-06 6.5678091232e-06 6.2489871198e-06 7.7340874668e-06 6.9382250558e-06 
6.9354761081e-06 1.3697745999e-05 2.1015455332e-07 -1.139612209e-05 -1.324859636e-05 -1.6609963268e-05 -2.0388012672e-05 -2.3710246751e-05 -2.7484797101e-05 
-3.1195132578e-05 -3.4257513107e-05 -3.570703484e-05 -3.3550064927e-05 -3.4624959881e-05 -3.0761060771e-05 -3.8444743041e-05 -4.0580858695e-05 -3.9880342229e-05 
-3.5941166061e-05 -2.9803636062e-05 -2.4979979116e-05 -2.0520431917e-05 -1.550851357e-05 -9.2277095973e-06 -1.9364944213e-05 -2.1377354187e-05 -2.3897952815e-05 
-2.5476395422e-05 -2.6284450087e-05 -2.7511137432e-05 -2.8751505397e-05 -3.0029349091e-05 -2.9886185985e-05 -3.0693386179e-05 -2.9215018003e-05 -2.6393503504e-05 
-2.2854682538e-05 -1.8712570636e-05 -1.5140495861e-05 -1.2917374685e-05 8.1620752326e-06 -2.4545995984e-05 -2.6813223485e-05 -2.9976774385e-05 -3.1943495742e-05 
-3.2873819388e-05 -3.3716361486e-05 -3.436091265e-05 -3.1437321013e-05 -2.9160713893e-05 -7.5502612162e-06 -6.2706036488e-06 -9.2144385917e-06 -6.1346732764e-06 
-1.0674719912e-05 4.5973210945e-06 -1.2904746995e-06 -5.9924103084e-06 -9.147048786e-06 -1.1212204527e-05 -3.0352460271e-05 -3.323016305e-05 -3.4134023736e-05 
1.0995374093e-05 1.2372914853e-05 1.0950677279e-05 9.8897231737e-06 9.3907384553e-06 9.9005574157e-06 -5.3032529195e-06 1.3591591899e-05 3.1397851501e-06 

Disp_X 1 1116 double
0 0 5.5933571275e-05 7.368200022e-05 0 4.4816635636e-05 0 2.6265686756e-05 0 
9.6528638096e-06 0 -2.034732006e-06 0 -1.328495091e-05 0 -2.0880897864e-05 0 -2.0306943043e-05 
0 -2.5860656024e-05 0 -3.0818566302e-05 0 -3.8087324356e-05 0 -3.7942034396e-05 0 
-3.8748901716e-05 0 -3.7982117647e-05 0 -3.6685378291e-05 0 -3.0026398235e-05 0 -2.041548214e-05 
0 -1.1936012015e-05 0 -1.3096585462e-05 0 -1.7355379896e-05 0 -2.0313314963e-05 0 
-2.6509909731e-05 0 -2.8405249395e-05 0 -3.2158619433e-05 0 -3.6829929741e-05 0 -3.6161691241e-05 
0 -3.9406080759e-05 0 -3.8819329347e-05 0 -3.760042091e-05 0 -3.5741653846e-05 0 
-3.1095933082e-05 0 -1.970384983e-05 0 -1.2150213479e-05 0 -2.1219277642e-06 0 1.5128699715e-06 
0 5.6838389355e-06 0 1.3921423488e-05 0 1.8749617084e-05 0 1.855264054e-05 0 
1.9777486159e-05 0 1.524909203e-05 0 8.7338694357e-06 0 5.8439268287e-06 0 9.44640135e-07 
0 -9.0391313279e-06 0 -1.0470787856e-05 0 -1.2665835811e-06 0 1.1566970898e-05 0 
2.2863645427e-05 0 2.6863584935e-05 0 2.7199215765e-05 0 3.4872475226e-05 0 5.0729562645e-05 
0 6.5241329139e-05 0 7.2299699241e-05 0 0 8.7522749936e-07 1.1273943528e-05 0 
-1.0301506336e-05 0 -2.7804262572e-05 0 -3.9547187043e-05 0 -5.2478004363e-05 0 -5.7821311202e-05 
0 -6.2563296524e-05 0 -5.5458320276e-05 0 -5.3046660469e-05 0 -3.4831391531e-05 0 
-2.4140184905e-05 0 -1.2979275198e-05 0 -4.4824587349e-06 0 4.9371801651e-06 0 1.6701324057e-05 
0 2.0581954232e-05 0 2.4139262678e-05 0 1.7703687263e-05 0 1.661483293e-05 0 
1.8333073967e-05 0 1.3503509763e-05 0 2.2671740226e-05 0 2.4541182938e-05 0 2.1286199626e-05 
0 3.31973024e-05 0 5.2786006563e-05 0 6.0904567363e-05 0 5.7168374042e-05 0 
5.1379927754e-05 0 4.3667172577e-05 0 5.5761945987e-05 2.7585374482e-05 5.9769212385e-05 0 6.5596381319e-05 
0 6.3392355514e-05 0 6.0668317019e-05 0 5.3988649597e-05 0 5.0878395996e-05 0 
4.9006965128e-05 0 4.9844216846e-05 0 5.7286364608e-05 0 5.783672168e-05 0 5.5329961469e-05 
0 4.8854079068e-05 0 3.9972630475e-05 0 2.558819142e-05 0 9.6504209068e-06 0 
-1.17191139e-05 0 -2.7620350011e-05 0 -4.301908848e-05 0 -5.7354234741e-05 0 -5.2691721066e-05 
0 -4.3922980694e-05 0 -2.0644607503e-05 0 -1.997009349e-06 0 1.6255195078e-05 0 
2.5048891985e-05 0 2.1288260541e-05 8.0455793068e-05 9.9908873381e-05 5.4879343224e-05 2.6842491934e-05 3.0291823805e-06 -1.5816718587e-05 
-2.9729557355e-05 -3.7103240174e-05 -4.5299137128e-05 -5.2322848205e-05 -5.727196185e-05 -5.9743149905e-05 -6.1969229137e-05 -5.8909627114e-05 -5.2955998399e-05 
-3.7785150198e-05 -3.0534411053e-05 -2.3023156245e-05 -2.8693120839e-05 -3.3286458347e-05 -3.4916571167e-05 -3.2484171243e-05 -3.4049135138e-05 -3.8526519347e-05 
-4.6117005695e-05 -5.1720831834e-05 -5.9318077547e-05 -6.4784049755e-05 -6.7315115302e-05 -6.5123749664e-05 -5.7238710724e-05 -4.1603016143e-05 -2.7156573196e-05 
-8.9855939223e-06 2.120862348e-07 7.0038731792e-06 1.7078584278e-05 2.9861419534e-05 3.7739904656e-05 3.8361125917e-05 3.2391955756e-05 2.7361902539e-05 
2.4230192139e-05 1.4851190826e-05 -4.9713003136e-06 -8.9614077297e-06 2.7402218166e-06 2.4383800337e-05 4.4615135266e-05 5.7065110013e-05 6.1367674789e-05 
7.1268288593e-05 8.600527508e-05 9.960141324e-05 0.00010865642253 0.00010833765555 -1.2137777048e-05 6.7682312874e-06 -3.5572953493e-05 -5.7651737734e-05 
-7.516417827e-05 -8.5852960183e-05 -9.0714005637e-05 -8.2044236478e-05 -7.0529131335e-05 -5.0555128837e-05 -3.6761568481e-05 -2.226072138e-05 -9.2357959147e-06 
7.0711566877e-06 2.0204182874e-05 2.6490675737e-05 2.6044119295e-05 1.8777829609e-05 1.7603393644e-05 1.8677899789e-05 1.7402104277e-05 2.7926966141e-05 
3.4401469748e-05 4.5035947551e-05 6.1446196923e-05 7.5638767157e-05 8.5452775238e-05 8.7100874225e-05 8.4383878857e-05 8.159349818e-05 8.4284329205e-05 
9.0264780738e-05 9.6702904557e-05 9.6279909485e-05 9.0415269369e-05 8.0932382843e-05 7.465852832e-05 7.1445043432e-05 7.3634568253e-05 8.0934136349e-05 
8.3897837612e-05 8.0118319602e-05 7.164960698e-05 5.8402780269e-05 4.1644692828e-05 1.9640539904e-05 -8.4363964561e-06 -3.4437594877e-05 -5.9021411289e-05 
-7.9135068518e-05 -8.0121433712e-05 -7.1315247624e-05 -5.038494055e-05 -1.8303435354e-05 2.3888929718e-05 4.4204651203e-05 3.7822101149e-05 2.4721122827e-05 
7.6595708379e-05 0.00010081115761 4.3769439799e-05 1.4142736291e-05 -1.058023372e-05 -3.0348915971e-05 -4.3882646423e-05 -5.3184932767e-05 -6.064952322e-05 
-6.6425986006e-05 -7.0301663072e-05 -7.1973423474e-05 -6.7559180025e-05 -5.4669817473e-05 -3.9862014091e-05 -3.5734978155e-05 -3.6272944271e-05 -4.0709513996e-05 
-4.1887218686e-05 -3.9280010242e-05 -3.1918374589e-05 -2.6990750484e-05 -2.1642727006e-05 -3.785959052e-05 -5.2428760682e-05 -6.6466993303e-05 -7.6189106039e-05 
-8.0416182755e-05 -7.9849654867e-05 -7.2624367021e-05 -5.8870631619e-05 -4.1666837205e-05 -1.7880201995e-05 7.8814814231e-08 1.3513518752e-05 2.6604828236e-05 
3.7703655835e-05 4.6243338147e-05 4.9070895329e-05 4.3693973566e-05 3.820674101e-05 3.5511624446e-05 2.9667840863e-05 -4.2688957365e-06 -1.1711159686e-06 
1.0901263522e-05 3.9428832679e-05 6.7670654971e-05 8.6266147264e-05 9.6292344097e-05 0.00010852286505 0.00011634227849 0.00012652031728 0.00013585999841 
0.00013108970597 0.00012526837236 -1.8487920897e-05 -2.3615597456e-05 1.3279988707e-05 2.3854081519e-05 -4.2736632167e-05 -1.3532107005e-05 -6.8097222538e-05 
-8.8546978077e-05 -9.8773409263e-05 -0.00010251835192 -9.3648814072e-05 -8.3310638729e-05 -6.8727546022e-05 -4.8346144467e-05 -3.1328847399e-05 -1.2084788068e-05 
8.0344307207e-06 2.3643784516e-05 2.9306807846e-05 2.4667975595e-05 1.3648154891e-05 1.369830261e-05 1.8161628759e-05 2.3022650566e-05 3.823627776e-05 
5.4032010667e-05 7.5095580542e-05 9.2545997177e-05 0.0001031092761 0.00010712149378 0.00010796760762 0.00010940036736 0.00010952855519 0.00011060800171 
0.00011341861682 0.00011427561549 0.00010824640776 0.00010218931857 9.449483332e-05 8.8873493951e-05 8.4556697402e-05 8.4722742031e-05 8.6088075477e-05 
8.5554165707e-05 8.0991201685e-05 7.1761583968e-05 5.91414464e-05 4.3656145863e-05 2.2119371351e-05 -7.0887604124e-06 -3.7572874135e-05 -6.6708780651e-05 
-9.0821777121e-05 -9.9031167338e-05 -9.5767689345e-05 -7.3936142144e-05 -3.4597178455e-05 1.1926785191e-05 4.8135432735e-05 4.9927559303e-05 3.519477832e-05 
1.2394325495e-05 1.0894164916e-05 1.6706269889e-05 3.2859759358e-06 3.4546494589e-06 2.2621379685e-05 5.6627479353e-05 8.8814966148e-05 0.00011280734907 
0.00012803116988 0.00013823722838 0.00014089691103 0.00014653801918 0.00016135284386 0.00015276613703 0.00013396781287 0.00011587612971 9.1154855909e-05 
5.9335699916e-05 2.6462314054e-05 -1.6494286683e-06 -2.4014801966e-05 -4.0627801354e-05 -5.3001880588e-05 -6.3100414991e-05 -6.9874426117e-05 -7.3158036685e-05 
-7.242650463e-05 -6.4020910941e-05 -5.0076119805e-05 -4.0189865103e-05 -4.2432908231e-05 -4.8575493565e-05 -5.2458584832e-05 -4.8784331739e-05 -4.5171353122e-05 
-3.806944369e-05 -3.2462299714e-05 -1.3830494026e-05 -2.4717184715e-05 -9.9207418316e-06 -1.0479800039e-05 -1.4528921383e-05 -2.6505747883e-05 -4.5943044825e-05 
-6.623056106e-05 -8.0628953583e-05 -8.7593783974e-05 -8.8178443548e-05 -8.2516366092e-05 -7.0838985266e-05 -4.9541042245e-05 -2.0995004888e-05 2.9710404306e-06 
2.4088400096e-05 3.8909329305e-05 4.4714397518e-05 4.9553760618e-05 5.0258546253e-05 4.8096087994e-05 4.2351293814e-05 3.7288195017e-05 3.2650150388e-05 
2.5193874535e-05 1.9154040274e-05 1.2237031115e-05 1.6015887013e-05 9.3899452622e-06 -7.5437041232e-05 -4.6406341426e-05 -9.7307420219e-05 -0.00010776567797 
-0.00011087801249 -0.00010416752775 -9.210834105e-05 -7.5335112342e-05 -5.4050458857e-05 -3.0847069866e-05 -7.1786907938e-06 1.4292511878e-05 2.9684593756e-05 
3.2367457607e-05 2.6002977393e-05 1.6306190446e-05 2.00589202e-05 1.259282908e-05 3.0961629818e-05 5.0835897127e-05 7.3821232945e-05 9.7622454632e-05 
0.00011548466136 0.00012511455861 0.00012934638653 0.00012570059334 0.00012825007434 0.00013221365225 0.00013290686184 0.00012942255125 0.00012294987391 
0.0001135290513 0.00010592106992 9.9440061604e-05 9.4495080702e-05 8.9572575234e-05 8.5788189608e-05 8.178374992e-05 7.7166267147e-05 7.0302114182e-05 
6.1053484387e-05 4.9286900321e-05 3.5606244637e-05 1.5558998712e-05 -1.0835754438e-05 -3.921888856e-05 -7.0147652877e-05 -9.5232047897e-05 -0.00010824311903 
-0.00010496665345 -8.3234466729e-05 -4.8611651437e-05 -7.7109116319e-06 3.3528340282e-05 4.8179499572e-05 3.9001737605e-05 1.5464574972e-05 -1.4060084141e-05 
8.7971038738e-06 7.1589106483e-06 5.9343451539e-06 9.348264939e-06 3.1210875022e-05 6.680576189e-05 0.0001029666455 0.00013170165766 0.00015002409054 
0.000160132171 0.00015954929404 0.0001591573382 0.00016835768474 0.00014075764921 0.0001594517089 0.00012269710714 9.3355803983e-05 6.5748135967e-05 
3.9017486415e-05 1.1673421795e-05 -1.1836766134e-05 -3.0049228371e-05 -4.5317949116e-05 -5.9986032284e-05 -6.6821005021e-05 -6.8155743065e-05 -6.395366654e-05 
-5.3754803957e-05 -4.0309521864e-05 -3.6163906771e-05 -4.4794811402e-05 -6.3603874878e-05 -6.4815816586e-05 -5.6816552387e-05 -5.0597111112e-05 -4.9527421652e-05 
-4.3894247938e-05 -3.8549162127e-05 -1.6074032828e-05 -3.1504911021e-05 -6.3531965679e-06 -3.5144787489e-06 -4.4894595703e-06 -5.6621452131e-06 -1.4873753571e-05 
-3.5882858356e-05 -6.1573598941e-05 -8.1163234427e-05 -9.1486479505e-05 -9.4058588729e-05 -8.9772496722e-05 -7.8259239672e-05 -5.7184359321e-05 -2.7546793717e-05 
2.0808715817e-06 2.8643422411e-05 4.4258591515e-05 4.9523332564e-05 5.0861461204e-05 4.8287198297e-05 4.470447675e-05 4.0296938096e-05 3.605342863e-05 
3.1749186746e-05 2.3932256227e-05 1.9227973098e-05 2.0494891942e-05 1.88770573e-05 2.7457435863e-05 1.0248967556e-05 0.00017337943427 0.00017460771778 
5.4387237469e-06 1.864075216e-06 1.3116261471e-05 2.5123767045e-05 4.3389289203e-05 6.6034357587e-05 9.2033013061e-05 0.00011736826855 0.00013480613416 
0.00014332267165 0.00014369140263 0.0001412838028 0.00014481613471 0.00015110216918 0.00015460806026 0.00014094122162 0.00012633300503 0.00011436120985 
0.00010576938075 9.980899631e-05 9.5004783361e-05 8.8082633738e-05 8.0471982074e-05 7.2356160672e-05 6.4441963332e-05 5.5790067563e-05 4.4168740715e-05 
3.3911659557e-05 2.3527123631e-05 7.1321223913e-06 -1.5894172975e-05 -4.308116695e-05 -7.2628776252e-05 -9.5611219876e-05 -0.00010895121522 -0.00010466131789 
-8.5337713244e-05 -5.872078691e-05 -2.8601945814e-05 1.0907951946e-05 3.3598564187e-05 3.3867156162e-05 1.4316074157e-05 -1.4665100935e-05 -4.6685076086e-05 
-7.5498952356e-05 -9.6637137176e-05 -0.00010713899974 -0.00010999433289 -0.0001050807914 -9.3824863143e-05 -7.6033327787e-05 -5.2484581829e-05 -2.6200761567e-05 
-6.8873129067e-07 1.9152552341e-05 3.2919753721e-05 3.2662952435e-05 2.6801453714e-05 1.650680133e-05 6.1524046941e-06 -1.7236865233e-06 1.4322401967e-06 
-5.3363437473e-06 5.9825570133e-06 1.607523518e-05 3.5079283407e-05 6.8824519985e-05 0.00010763734463 0.00013931673311 0.00016121620138 0.00017177885456 
0.00017070028116 0.0001664962474 0.00016433064593 0.00016567060084 0.00017534587823 0.0001679854322 0.00017332899733 0.0001601853146 0.00014071662736 
0.00011522648128 8.8707427494e-05 6.9496381911e-05 5.3218231187e-05 2.936855708e-05 5.6951507759e-06 -1.2387939023e-05 -2.5259383619e-05 -5.9018144384e-05 
-5.5190397688e-05 -5.7056273363e-05 -5.115919339e-05 -4.4479242206e-05 -2.8697248126e-05 -2.9213175367e-05 -3.9773360186e-05 -5.4104679293e-05 -6.1502709286e-05 
-7.1864953497e-05 -4.5598353609e-05 -3.190861753e-05 -7.5106880104e-05 -6.5719730628e-05 -5.3768722864e-05 -6.000787107e-05 -4.9239584769e-05 -2.4360831958e-05 
-4.4092979806e-05 -6.981981187e-06 1.6731506776e-06 1.5824469983e-06 -2.8175863918e-06 -2.3343511202e-05 -6.0801605287e-05 -8.1842692452e-05 -9.4283575891e-05 
-9.8340991826e-05 -9.5461051387e-05 -8.5356281488e-05 -6.5570304287e-05 -3.8359987229e-05 -8.2650794866e-06 2.0018296709e-05 3.9018948883e-05 4.4442182116e-05 
4.5775184844e-05 4.3011747039e-05 3.5416567698e-05 3.2698764699e-05 2.319206942e-05 1.8667275071e-05 2.3691400202e-05 3.4416858398e-05 3.7599515053e-05 
4.6212735469e-05 2.626643618e-05 1.3372289686e-05 2.725547165e-05 5.0268441555e-05 7.6768956205e-05 0.00010593674233 0.00013204476272 0.00014972870122 
0.000155549802 0.00015345607244 0.00015181202616 0.00015558674932 0.00016242975835 0.00016906544624 0.00012809969485 0.00014421109518 0.00011392791203 
0.00010365690832 9.6422954812e-05 9.0481094958e-05 8.1893696915e-05 7.2293165431e-05 6.1707149143e-05 5.184282054e-05 4.2140774895e-05 2.6735957363e-05 
1.9930985218e-05 1.205456465e-05 -9.3091153985e-07 -1.9487746613e-05 -4.1925803089e-05 -6.8054563599e-05 -8.988679474e-05 -0.00010627386655 -0.00010487729014 
-8.8329688879e-05 -6.7874170782e-05 -4.5446297008e-05 -8.8962442533e-06 1.6467973182e-05 2.4610635592e-05 1.2518195945e-05 -1.3818998923e-05 -4.4912863814e-05 
-7.1219452366e-05 -8.9537330496e-05 -9.9732547824e-05 -0.00010310959624 -9.961410251e-05 -8.8752960437e-05 -7.1064438089e-05 -4.7072702728e-05 -2.1803505661e-05 
2.9326151889e-06 1.9230372345e-05 2.978010707e-05 2.8540567655e-05 2.3373992008e-05 1.4287807062e-05 2.5832009669e-06 -8.3241802713e-06 -1.3971368389e-05 
-3.9868643853e-07 -1.1813021047e-05 8.8697388492e-06 0.00016012524429 0.00017232516257 4.2582323658e-06 -1.8880457446e-06 -8.4975683421e-05 -6.40511862e-05 
-9.7035750514e-05 -0.00010243066208 -0.00010031072452 -9.2892609246e-05 -7.9304678366e-05 -5.8186295064e-05 -2.4139113521e-05 4.4902817535e-06 2.5300993002e-05 
3.3471602364e-05 3.6335492041e-05 3.4508215322e-05 2.9070088203e-05 2.2683640054e-05 2.2181557142e-05 4.2683488573e-05 7.124277181e-05 0.00010747458145 
0.0001406288502 0.00016319968563 0.00017599690182 0.00017469652812 0.00016945722746 0.00016359421716 0.00016014452558 0.00016057555331 0.00016785017215 
0.00016003761266 0.00017290293181 0.00016764797329 0.00015162213822 0.000127213425 9.8005883046e-05 7.3342373071e-05 5.0050981372e-05 2.6470766898e-05 
6.923399269e-06 -7.5406037467e-06 -1.7295711586e-05 -3.4375891119e-05 -2.3123873689e-05 -4.322993118e-05 -4.8662339395e-05 -4.8792557209e-05 -4.2982788727e-05 
-3.5728462535e-05 -7.1516747994e-05 -7.778807776e-05 -6.5490421548e-05 -1.0299792848e-05 -4.1887451516e-05 3.6858968997e-06 2.4695862521e-05 5.0136241043e-05 
7.9975136032e-05 0.00011284482025 0.00014058328816 0.00015854077355 0.00016398211301 0.00015546500799 0.00015888141934 0.00016592968313 0.00017274729908 
0.00012711837189 0.000143746307 0.00011135388922 9.8976066511e-05 8.9881854365e-05 8.2781967649e-05 7.3926996265e-05 6.3320992922e-05 5.1576462283e-05 
4.0513627027e-05 3.4196640627e-05 2.3946819056e-05 7.4602335189e-06 1.3867840607e-05 -3.4065162708e-06 -1.8272352463e-05 -3.6205914512e-05 -5.7549670601e-05 
-7.7264558058e-05 -9.2257985671e-05 -9.3655660748e-05 -0.00010259286501 -7.8380711784e-05 -5.8708203142e-05 -2.5287979952e-05 7.7849324498e-07 1.4699067833e-05 
1.2731047718e-05 1.7852120436e-05 1.8978227672e-05 -3.7939593312e-05 -1.5203791918e-05 -0.00010663433932 -9.7801006632e-05 -6.4640567871e-05 -7.885042578e-05 
-8.8175198471e-05 -9.2010748631e-05 -9.1074711236e-05 -7.9953271779e-05 -6.244006363e-05 -3.9505186578e-05 -1.6420684915e-05 4.0074810386e-06 1.6036286979e-05 
2.191931344e-05 1.9026021619e-05 1.4292568267e-05 9.5415161923e-06 -6.511318702e-07 -1.3921735444e-05 -2.2649574021e-05 -2.1061277948e-06 -2.5848059522e-05 
-1.8831013222e-05 -3.5418092011e-05 -4.1800685722e-05 -4.8808262363e-05 -7.1925882366e-05 -5.4419160733e-05 -8.2135142293e-05 9.1579699074e-05 0.00010541923257 
8.1319070887e-05 7.3980416346e-05 6.46430708e-05 5.4146697948e-05 4.1623570723e-05 2.7078307539e-05 1.8855993403e-05 -3.3231903217e-05 -1.4033894331e-05 
1.4945369458e-06 7.8352286437e-06 9.7617530628e-06 4.7654284572e-06 7.3701136216e-07 -1.806578075e-05 -2.9612383514e-05 -3.5833825677e-05 -3.8293754187e-05 
-3.5051994928e-05 -2.788915117e-05 -2.1929497962e-05 1.6774210962e-05 4.5958389819e-05 7.8880424553e-05 0.00011632764654 0.00014476889919 0.00016070138372 
0.00016731895448 7.4763382145e-05 4.9804843002e-05 2.5673942218e-05 8.8398555818e-06 0.00016638937814 0.00015742695541 0.00013635298819 0.00010468564869 
-2.7344012778e-05 -2.4982307878e-05 -1.9389157387e-05 -1.415562383e-05 -1.1350681234e-05 -1.5676525436e-05 -2.8135129469e-05 -2.9568789614e-05 0.00015758916561 
0.00015940453159 0.00016486163076 0.00017100232071 0.00015846593305 0.00016954490275 5.4186712077e-05 7.6348893344e-05 0.00010885333177 0.00013826845679 
0.00015841607819 0.00012208345288 0.00017435837071 1.9909108232e-05 1.6705473172e-05 1.1620268197e-05 7.6704947105e-07 -1.2286056517e-05 -2.7087644412e-05 
-4.4646967581e-05 -6.2174847699e-05 -7.546220877e-05 -8.0264238932e-05 -9.7856071079e-05 -8.5069703346e-05 -0.00010318912973 -0.00010182187543 -9.8295946373e-05 
-8.746219828e-05 -7.0959569712e-05 -3.9705864765e-05 -1.4032945728e-05 1.6634855911e-06 7.6304313552e-06 -2.4098551876e-05 -4.4218035328e-05 -6.8056026066e-05 
-8.729363617e-05 -9.7727963293e-05 -0.00010440890765 -0.00010339419532 -9.8736694781e-05 -3.6206656659e-05 -5.8731358877e-05 -1.42378276e-05 4.3927734623e-06 
1.2958939806e-05 2.3123315259e-05 2.4514520192e-05 2.473470704e-05 5.7488450693e-05 -5.4623428696e-06 -1.5558189261e-05 -3.0914714443e-05 -4.7495464969e-05 
-6.0455768107e-05 -0.00010243455472 -0.00010325925541 -9.520752792e-05 -8.6398053099e-05 0.00015900522703 0.00014748406829 4.1353745473e-05 7.7606287959e-05 
2.1764044504e-05 -1.3367751308e-05 -3.3845471989e-06 -2.2763615561e-06 -4.833098501e-06 -1.0793525689e-05 -9.1986803454e-05 -9.7773190646e-05 -0.00010105482215 
0.00015292936587 0.00013955897884 9.7783755336e-05 8.3697741502e-05 7.1315153036e-05 6.6588785558e-05 0.00012177557073 -5.863710976e-05 0.00017579481937 

Disp_Y 1 1116 double
0 0 -0.00012248579878 -0.00013018133177 0 -0.00011401800293 0 -0.00010802446923 0 
-0.00010160350212 0 -9.4525443274e-05 0 -8.754600276e-05 0 -7.6308308053e-05 0 -6.8452369305e-05 
0 -7.5941330579e-05 0 -7.8122138802e-05 0 -7.2359922342e-05 0 -5.8910143707e-05 0 
-4.2766107072e-05 0 -2.7740245059e-05 0 -1.2814341972e-05 0 5.0670314522e-06 0 2.3517655791e-05 
0 4.0714479837e-05 0 5.2300620155e-05 0 6.1003371229e-05 0 6.5956170147e-05 0 
6.1779486714e-05 0 4.5804550609e-05 0 2.4087399652e-05 0 1.0791466593e-05 0 1.6661329937e-05 
0 4.1770093958e-05 0 7.2259528679e-05 0 9.8720825918e-05 0 0.00011789962446 0 
0.00013145871344 0 0.00014170231589 0 0.00015282466484 0 0.00015902411542 0 0.0001573102054 
0 0.00015654430899 0 0.0001485713583 0 0.00013347147615 0 0.00011411606829 0 
9.1847607109e-05 0 7.4431634857e-05 0 5.683874042e-05 0 3.5346231016e-05 0 1.5530453311e-05 
0 3.5821572055e-06 0 -5.7577435655e-06 0 -2.2353522581e-05 0 -5.1459683164e-05 0 
-8.5315441538e-05 0 -0.00011106848251 0 -0.0001233969233 0 -0.00012506196799 0 -0.000126398867 
0 -0.0001307399798 0 -0.00013225321891 0 0 7.8097313235e-05 7.0195972512e-05 0 
8.9784167358e-05 0 9.9790311651e-05 0 0.00010877801833 0 0.00010975440091 0 0.00010637658852 
0 9.4301547506e-05 0 7.9348988947e-05 0 6.0533064243e-05 0 4.9882259191e-05 0 
4.1853385483e-05 0 3.223499516e-05 0 1.6240825062e-05 0 -1.5924512127e-06 0 -1.5324874767e-05 
0 -2.4197546736e-05 0 -2.3659984436e-05 0 -2.2140991859e-05 0 -3.6186473153e-05 0 
-6.4458356064e-05 0 -9.1454086942e-05 0 -0.00012438216072 0 -0.00015412927314 0 -0.00017594038218 
0 -0.00018808172899 0 -0.00018751257448 0 -0.00017854409816 0 -0.00017553048383 0 
-0.00017869623844 0 -0.00017909628514 0 -0.00017491845938 -4.8280620831e-05 -0.00015249238641 0 -0.00013564662368 
0 -0.00010124032269 0 -6.3577805122e-05 0 -3.0032988434e-05 0 -1.0332048987e-05 0 
-1.6041738036e-06 0 -1.4036928633e-06 0 8.6066512495e-07 0 9.5684617918e-06 0 1.9841883841e-05 
0 2.5816116249e-05 0 2.8868198569e-05 0 3.4456683352e-05 0 5.1746384997e-05 0 
7.7561329817e-05 0 0.00011210884259 0 0.00014198961435 0 0.00016616733046 0 0.00018206003006 
0 0.000181801297 0 0.00016895175213 0 0.00013722444419 0 9.9556586065e-05 0 
8.1062265963e-05 0 7.2103597631e-05 -0.00019747699844 -0.00021705044492 -0.00017657350691 -0.00016002755729 -0.00014733150601 -0.00013436323206 
-0.0001184468565 -0.00010973356257 -0.00011593144882 -0.00011647717474 -0.00010674680379 -8.9639514044e-05 -6.7891109211e-05 -4.5074946684e-05 -1.9638398953e-05 
9.9540366136e-06 4.1042818339e-05 7.3646413512e-05 9.622136713e-05 0.00011487054871 0.0001270139328 0.0001272628142 7.8970981122e-05 4.1880666686e-05 
2.0694596969e-05 3.2005089452e-05 7.2139642725e-05 0.00011990024359 0.00016203714767 0.00019624602282 0.00022401768365 0.00024872543872 0.00026687167701 
0.00027982055326 0.00028360990109 0.00027724599931 0.00025716458913 0.00022466063092 0.00018432058278 0.00014227224165 0.00010373163241 7.0618654718e-05 
3.9110629587e-05 1.2745324966e-05 -9.8552993677e-07 -1.0625385585e-05 -2.9951077522e-05 -6.6678752773e-05 -0.00011447235011 -0.00015426558093 -0.00018213992007 
-0.0001975641062 -0.00021659792401 -0.00023616632097 -0.00024089303042 -0.00023369265546 0.00014361183275 0.00012437782425 0.00016374302504 0.00018181407358 
0.00018970276869 0.00018530976376 0.00016892996791 0.00014471418399 0.00011635390547 9.1246751253e-05 6.5538341005e-05 3.9162128814e-05 6.7081232373e-06 
-1.8952498067e-05 -3.8189373299e-05 -4.3286858272e-05 -3.8332349504e-05 -4.1275496187e-05 -6.4005616878e-05 -0.00010418216698 -0.00015202132636 -0.0002059697581 
-0.00025898477179 -0.00029936243664 -0.00031723527354 -0.0003116891894 -0.00029523106059 -0.000286982744 -0.00028901320184 -0.00029072278994 -0.00027879228583 
-0.00025068680407 -0.00020583388687 -0.00015141436597 -9.3254064268e-05 -4.555921987e-05 -1.5263483874e-05 -5.6773859569e-07 1.316962539e-06 3.1909610243e-06 
1.5675157556e-05 3.0810879252e-05 3.9477796236e-05 4.2000185204e-05 5.405437696e-05 8.9794528321e-05 0.00014141174324 0.00020136563398 0.00026100836112 
0.00030461579445 0.0003263237013 0.0003174682497 0.00027722035884 0.00020879445947 0.00013667528401 0.00010586429562 0.00010119643412 0.00010787351493 
-0.00023419667559 -0.00027502150624 -0.00020405098621 -0.00018062956224 -0.00016174890334 -0.00014350436686 -0.00013259908883 -0.00013286431204 -0.00012903071183 
-0.00011973728397 -0.00010442214261 -8.3200131485e-05 -6.018239219e-05 -3.1556224712e-05 7.3552009781e-06 5.5498534493e-05 0.00010372487304 0.00014151635696 
0.00016668210446 0.00018284341786 0.00019458557654 5.2003793826e-05 9.6325769846e-05 2.8534486773e-05 4.2580337322e-05 9.1415276984e-05 0.00015304096451 
0.00021134708368 0.00026086717844 0.00030338807846 0.0003404742165 0.00036932522198 0.00038783403579 0.00039167361683 0.00037875107955 0.00034744487493 
0.00029988662573 0.00024103766191 0.00018052283849 0.00012742271065 8.4535211499e-05 5.0100388762e-05 2.5862233088e-05 -8.883413102e-06 -1.2929854165e-06 
-2.8772021324e-05 -7.0974288974e-05 -0.00012799591059 -0.00018075224943 -0.00022175985214 -0.00025076500606 -0.0002898912644 -0.00032712816028 -0.00035051052691 
-0.00033960366272 -0.00030937421252 0.00015241432993 0.00020497488731 2.2873216494e-06 7.7850845628e-06 0.00020809810667 0.00017649418442 0.00023548371973 
0.00025068770628 0.00024919977295 0.00023200898431 0.0002035304642 0.00016307935584 0.00011931559857 8.1250429503e-05 3.613204899e-05 -8.5483570729e-06 
-4.2480722186e-05 -5.8487214119e-05 -5.7759662013e-05 -4.6655091865e-05 -5.0040947826e-05 -8.3777544205e-05 -0.00013577162463 -0.00019867626543 -0.00027160020545 
-0.00034354967647 -0.00039650563849 -0.00041839526966 -0.00040873046964 -0.00038533064071 -0.00037160064676 -0.00037425759365 -0.00037666966091 -0.00036029593321 
-0.00031867198413 -0.00025386409834 -0.00017486634897 -0.00010189122986 -4.6297889639e-05 -1.4435558114e-05 1.1499209052e-07 1.2490851304e-06 5.9979970501e-06 
1.8976028514e-05 3.3978732972e-05 4.3197058403e-05 4.7080018703e-05 7.1191323514e-05 0.00012786028674 0.00020131595375 0.00028706650482 0.00037076245644 
0.00042933886289 0.00045067357132 0.00042488903273 0.00035519938683 0.00024944444885 0.00014478893718 9.4529794296e-05 9.6908828709e-05 0.00011771098798 
0.0001463702647 -2.0384177333e-06 -1.5058907366e-06 -1.8774396722e-06 -3.8536659304e-06 -2.2424592316e-05 -7.0902853622e-05 -0.00013978849165 -0.00020237603167 
-0.00025336924591 -0.00029370898847 -0.00033953704406 -0.00039199742605 -0.00046109623509 -0.00043606659165 -0.0003886440536 -0.00033256586175 -0.00027841186966 
-0.00023669199436 -0.00020574640075 -0.00018104359333 -0.00015782836999 -0.00014064204879 -0.0001315951522 -0.00012492433598 -0.00011804845417 -0.00010818531155 
-9.2885107733e-05 -7.5549651228e-05 -4.6896842832e-05 1.5881925037e-06 6.4922307502e-05 0.00013322070299 0.00018265619292 0.00020993474755 0.00022319944401 
0.00024026651226 0.00024795852369 0.0002031372278 0.00024787860457 0.00015261511726 0.00010437592573 6.4405299781e-05 4.0595903556e-05 5.228147711e-05 
0.00010288503836 0.00017357162142 0.00024513684912 0.00030847737798 0.00036494981032 0.00041488235001 0.00045640097233 0.00048332815641 0.00048427694128 
0.00045866786968 0.00041247851914 0.00035045013647 0.00027718386264 0.00020353314176 0.00013693724759 8.9616893092e-05 5.8715235355e-05 3.1682549889e-05 
1.4176171135e-05 -5.9531538454e-07 -3.1752776977e-06 -3.0187738957e-06 -2.215223958e-06 0.00027107822825 0.00023674225667 0.00029080596869 0.00029115163488 
0.00027391980984 0.0002419200755 0.00019527561381 0.00013794116967 8.2869344624e-05 2.8261127227e-05 -2.4821942134e-05 -5.9738493292e-05 -7.5765499787e-05 
-6.9166591857e-05 -5.6397428125e-05 -5.1218459703e-05 -0.00016137739294 -0.00010760518489 -0.0002337321057 -0.00031743067666 -0.00040104033542 -0.00046304429998 
-0.00048910995247 -0.00047836729209 -0.00044992903713 -0.00043050758541 -0.00043190029101 -0.00043550209375 -0.00041704322211 -0.00036104061292 -0.00027856204542 
-0.00018402209389 -9.9969060102e-05 -3.9462112909e-05 -9.6518260762e-06 -4.3173943709e-07 6.3610464451e-08 8.9853083409e-06 2.195482557e-05 3.2523636037e-05 
4.2604078772e-05 5.1036808145e-05 8.8486718596e-05 0.00016071699793 0.00025139548234 0.00035883847158 0.00045978103299 0.00053004937945 0.00054859073134 
0.00050296168774 0.00040316596278 0.00027008110192 0.00015249395801 8.6315863882e-05 8.2705744717e-05 0.00011226530478 0.00015282412642 0.00019468693063 
-7.2171053034e-05 -5.8292229369e-05 -2.8295787047e-07 5.9456880308e-07 -1.5484860342e-05 -7.2803377407e-05 -0.00015002011787 -0.00022375550179 -0.00028628736618 
-0.00033306947444 -0.000375807198 -0.00042244093493 -0.00048604229232 -0.00043845002074 -0.00050194986397 -0.00037038995652 -0.00031276006484 -0.00026402578806 
-0.00023170803615 -0.0002012343466 -0.0001717453415 -0.00014489596651 -0.00012116584548 -0.0001127684518 -0.00011011340393 -0.00010659824329 -9.9396696896e-05 
-8.7620988779e-05 -6.3249666709e-05 -1.0225268852e-05 6.2510589487e-05 0.00015806191368 0.00022096693283 0.00024334844784 0.00024646287784 0.00026667193742 
0.00028286900488 0.00028417960857 0.00023077680089 0.00027132197283 0.00018443229783 0.00013973363093 0.00010916087194 8.1553873315e-05 5.4477277445e-05 
6.17763435e-05 0.00011152250954 0.0001883636869 0.00026739531313 0.00034187955316 0.00041140732355 0.00047588263988 0.00053130771266 0.00056803791085 
0.00056603248231 0.00052481063176 0.00045866245637 0.00037804571912 0.00028910071705 0.00020486838184 0.00013179454254 8.3284408902e-05 6.0427439166e-05 
3.8767851947e-05 1.6708754629e-05 4.5949404921e-06 -3.5223772556e-06 1.7210689975e-06 1.6032397525e-06 4.7695351668e-07 -0.00054182042368 -0.00055152579444 
-9.1130277724e-05 -7.3664057709e-05 -0.00012716487981 -0.00018228842237 -0.00025775859831 -0.00034484782373 -0.00043492682744 -0.00050424819347 -0.00053607887821 
-0.00052789971232 -0.00049623672385 -0.00047055920004 -0.00046789675253 -0.00047182579874 -0.00045291424613 -0.00037651468301 -0.0002787358826 -0.00017624911561 
-8.9286986622e-05 -2.9576511224e-05 -8.3459808593e-06 -2.8793388083e-06 -1.1621428797e-07 1.1505488146e-05 2.2258876925e-05 2.6634186725e-05 3.5087679862e-05 
5.4055828514e-05 0.00010799056327 0.00019332121883 0.00029289361555 0.00041250663344 0.00052675814368 0.00060698291054 0.00062144070398 0.00055343360873 
0.00042542663869 0.00027835846413 0.00016130894073 8.6567706603e-05 7.1498019679e-05 0.00010131516319 0.00015041197184 0.0002036102378 0.00025403770269 
0.00029203874874 0.00031354857492 0.00031401103479 0.00029595041997 0.00025935730082 0.00020551802299 0.00014195873518 7.8813223809e-05 1.7986074454e-05 
-3.4095741285e-05 -6.7089342338e-05 -8.4444545791e-05 -7.6188756793e-05 -6.4777574153e-05 -5.496630547e-05 -5.5001746659e-05 -6.6563748987e-05 -9.5974479336e-05 
-8.6550135165e-05 -0.00010680907144 4.3596355681e-06 -8.9547720563e-06 -6.5933112637e-05 -0.00014863154502 -0.00023720547324 -0.00031284053694 -0.00036881543929 
-0.00040749018081 -0.00043974656728 -0.00048122872249 -0.00053283479065 -0.00059339863947 -0.00057417229982 -0.00057828309946 -0.00052678358043 -0.00045706363744 
-0.00038415347808 -0.00032257812563 -0.00028099035262 -0.00025807874044 -0.00022633238405 -0.00019050626724 -0.00015793004422 -0.00012839361443 -0.00010321177979 
-0.0001006289167 -0.00010593829938 -0.00010157663201 -9.1985333711e-05 -8.1322243204e-05 -2.3726237487e-05 4.1004590457e-05 0.00010244078294 0.00027465927997 
0.00026086319122 -0.00010142166866 -0.00010460198973 0.00021274000756 0.00014880982053 0.00030965750921 0.00030172761763 0.00029887998244 0.00024324936385 
0.00028340858989 0.00019781467563 0.00015278093633 0.00011020558304 7.45698635e-05 6.5570566221e-05 0.00012365459406 0.0002024784917 0.00028578320052 
0.0003662778181 0.00044505286496 0.00052254617913 0.00059463881189 0.00064137449954 0.00063403951935 0.00057702371851 0.00049106340157 0.00039304516395 
0.00028950988781 0.00019148435968 9.8935728602e-05 5.7079261751e-05 2.8459871828e-05 9.6147432487e-06 2.6760553737e-06 4.1386903149e-07 8.0419276856e-06 
5.0224944061e-06 8.5876163212e-06 -0.00013834697893 -0.000190597857 -0.00026575993979 -0.00035350772669 -0.00044838589383 -0.00052447110647 -0.0005638016155 
-0.0005621506134 -0.00053035054589 -0.00049658608623 -0.00048571964726 -0.00048568827333 -0.00047429068945 -0.00025522123906 -0.00034608168062 -0.00015559315216 
-7.4078932812e-05 -1.8932876628e-05 -5.8108148551e-06 -2.6847710615e-06 1.2982841326e-06 1.2093937585e-05 1.9326373149e-05 1.9747003535e-05 2.2639371309e-05 
6.3866355049e-05 0.00013520929497 0.00022634715424 0.00032906391425 0.00045611691894 0.00057325098896 0.00066205591429 0.00068563385867 0.00057366321562 
0.00042637702427 0.00028036159347 0.00016963605594 9.3983180705e-05 6.8772002123e-05 9.1059009719e-05 0.00014243328769 0.00020803611551 0.00026438190253 
0.00030328679713 0.00032433820888 0.00032434257446 0.00030521812732 0.00026446272386 0.00020680924354 0.00014072132763 7.3150433309e-05 1.4509510038e-05 
-3.7119363697e-05 -6.5431602707e-05 -8.2055346866e-05 -7.546494453e-05 -6.7671200668e-05 -5.917573435e-05 -5.6667311583e-05 -6.2695893575e-05 -7.8432050941e-05 
-0.00011931369954 -0.00010183381528 -0.00013273746299 -0.00041440420318 -0.00044272450032 0.00010941502842 7.7675285866e-05 0.00022015612922 0.00014627253404 
0.00030099184369 0.0003850851499 0.00046917257714 0.00055378302932 0.00063728768146 0.00070311460877 0.00067836110247 0.00060785497772 0.00050941348309 
0.00039537399425 0.00028103604564 0.00018701856607 0.00011385037942 4.1218332626e-05 5.9877460444e-05 -1.1768883468e-07 -4.9720434617e-05 -0.00013771107479 
-0.00024047253828 -0.00032761131297 -0.00040598565829 -0.00043422967428 -0.00045711253188 -0.0004815212742 -0.0005105836899 -0.00054118043045 -0.00059633841738 
-0.00055896741105 -0.00060529593611 -0.00057912431657 -0.00051974953385 -0.00044355110731 -0.00036902516149 -0.00030392501503 -0.00026985784643 -0.00022390020604 
-0.00018192686548 -0.00014552068023 -0.000115052826 -8.5421546828e-05 -9.0379748144e-05 -8.8681292254e-05 -9.2529822723e-05 -9.8074146081e-05 -0.00010500487406 
-9.8805445305e-05 0.00032320054015 0.00030283469823 0.00031734033837 0.00020470365416 0.00027189429966 0.00015075482952 -0.00018650185666 -0.00026101263938 
-0.00034882209729 -0.00044743405306 -0.00052934675477 -0.00057597318664 -0.00058549409732 -0.0005113594234 -0.00049279571977 -0.00048577037524 -0.00047385916696 
-0.00021622190252 -0.00030046142638 -0.00012989195238 -5.7754343288e-05 -1.4044115233e-05 -3.5467378439e-06 -5.0578717037e-07 2.5082331376e-06 1.0001502233e-05 
1.4375549654e-05 1.5302264728e-05 1.43139996e-05 0.00017811788712 0.00010143384861 0.0002716104791 0.00037054502172 0.00048868759768 0.00060103961732 
0.00068475131411 0.0007218530518 0.00041520094965 0.00054977129912 0.0002838751534 0.00017887209833 0.00010410313553 7.2297661973e-05 8.1817321188e-05 
0.00012755196076 5.1432747568e-05 2.5856812499e-05 9.195493476e-05 7.2620736319e-05 0.0006624047528 0.00071925949305 0.00030630643596 0.00032548187301 
0.00032650234061 0.00030585817876 0.00026143572177 0.00019886683731 0.0001311362721 6.1879080022e-05 4.6412387746e-06 -4.0423099563e-05 -6.5032872953e-05 
-7.6671836723e-05 -7.2006681876e-05 -6.6421009251e-05 -6.1782586272e-05 -6.1103681219e-05 -6.4028354245e-05 -7.2623821325e-05 -0.00013528001728 -2.217434303e-05 
-6.8137713242e-05 2.1834401196e-05 5.0545579143e-05 8.1555575889e-05 0.00017991810455 0.00010908846161 0.00024694472086 -4.6897133871e-05 -0.00010668297182 
-1.1119836927e-05 -5.5793452702e-07 2.8093206765e-06 3.4870467971e-06 4.7622183956e-06 8.7341486505e-06 1.834080831e-05 4.3862521125e-05 -8.3015611381e-06 
-4.7504650865e-05 -6.6005915869e-05 -7.5172669312e-05 -7.0526235504e-05 -6.6185304604e-05 -6.9045039709e-05 -7.4558724009e-05 -8.0296835222e-05 -8.5528801719e-05 
-9.3033268058e-05 -9.8005919426e-05 -9.0383196948e-05 -0.00017395039322 -0.00025279461988 -0.00034287179005 -0.00044809325482 -0.00052978057647 -0.00057602720335 
-0.00059765251353 -0.00032713252585 -0.00027285615215 -0.00021367761656 -0.00017078137898 -0.00059204752324 -0.00055896985577 -0.00049353356007 -0.00040521708434 
-7.5448282587e-05 -7.9617006122e-05 -8.6545827799e-05 -8.6331208877e-05 -7.5958509115e-05 -4.8107231123e-05 -1.3176526181e-06 2.0045355996e-05 -0.00051556230756 
-0.00049839145504 -0.00048348406563 -0.00046892854152 -0.00036335294135 -0.00039381362149 5.6117187341e-06 -3.8187707105e-05 -0.00013283369481 -0.00024421126 
-0.00032720415038 -0.00017782075156 -0.00045267114183 9.3038528576e-05 0.0001473450684 0.00022630550666 0.00032097246731 0.00040900995373 0.00051227526274 
0.00061467947671 0.00068977661431 0.00072855246253 0.0007354739937 0.00068570656003 0.00070851604687 0.00062088994309 0.00051973731024 0.00040459274896 
0.00029386085225 0.0001915400062 0.00011178594286 7.7143653471e-05 7.4402691098e-05 0.00010037844186 8.3520470071e-05 0.00010976965859 0.00016752992815 
0.0002366102417 0.00031224821578 0.00039714056766 0.00048484900617 0.00057122088037 0.00069045997225 0.00072499550879 0.0006204849924 0.00051889737369 
0.00039123464376 0.00026459450601 0.00018051385996 0.00012550561223 6.7607347773e-06 0.00044017570326 0.00052761565894 0.00062028848333 0.00068771542283 
0.00071905419463 0.00040287562297 0.00049802067224 0.000313780125 0.00024812153424 -0.00057073077187 -0.00053486088291 -0.00024699530331 -0.00034134148154 
-0.0001949773432 -2.8238368031e-05 -6.096819925e-05 -7.4260860856e-05 -7.8387107351e-05 -7.4385752669e-05 0.00064948166255 0.00064390001353 0.00058510981034 
-0.00031920263427 -0.00026053286274 -8.9846202172e-05 -3.9313261368e-05 -6.8910567279e-06 9.3415400215e-07 -0.00046073953854 0.00030435266672 -0.00044944431284 

Disp_Z 1 1116 double
0 0 -2.2530874048e-05 -1.3732794287e-05 0 -3.2851039578e-05 0 -4.2393308831e-05 0 
-4.8790170695e-05 0 -5.3843723435e-05 0 -5.7507753809e-05 0 -5.8931007516e-05 0 -5.6257784308e-05 
0 -5.8254219766e-05 0 -7.1651804319e-05 0 -8.8942055299e-05 0 -0.00010509174899 0 
-0.00011577129044 0 -0.00012046462507 0 -0.00012470420916 0 -0.00012425483146 0 -0.00012229036656 
0 -0.00011804123642 0 -0.00010787411884 0 -8.9931374532e-05 0 -6.5920212364e-05 0 
-3.4243912523e-05 0 3.178847237e-06 0 2.4534550903e-05 0 2.7627500458e-05 0 1.3507270523e-05 
0 1.033497665e-05 0 2.355864126e-05 0 4.4159540266e-05 0 6.4201543864e-05 0 
8.0910460383e-05 0 9.3022434157e-05 0 0.00011182578601 0 0.00012736467761 0 0.00014162361913 
0 0.00016070270794 0 0.00017484059208 0 0.00018148185336 0 0.00017882259272 0 
0.0001658937108 0 0.00014722035849 0 0.00012460189464 0 0.00010126940469 0 7.4441370089e-05 
0 5.0467417168e-05 0 4.5209682867e-05 0 5.2058370784e-05 0 6.1390324845e-05 0 
6.0630623921e-05 0 5.0962986279e-05 0 3.9111193473e-05 0 3.0383671401e-05 0 2.3265034542e-05 
0 1.1089019608e-05 0 -2.1993707833e-06 0 0 -2.4576491342e-05 -2.2615158741e-05 0 
-4.0740222175e-05 0 -5.5645992688e-05 0 -7.5449286669e-05 0 -9.7910473414e-05 0 -0.00012336669897 
0 -0.00014208861103 0 -0.00015483680181 0 -0.00015808909666 0 -0.00015682216326 0 
-0.00015001054271 0 -0.00013962070807 0 -0.00012543845514 0 -0.00010366451897 0 -7.7087235695e-05 
0 -4.7817778977e-05 0 -2.8714854125e-05 0 -2.5403252948e-05 0 -3.7983882066e-05 0 
-4.4008553232e-05 0 -4.7142275434e-05 0 -4.8013975174e-05 0 -4.2212694098e-05 0 -2.6353745852e-05 
0 -5.7697375269e-06 0 8.8647111625e-06 0 1.608810453e-05 0 1.8706861738e-05 0 
2.4034026865e-05 0 3.6626199289e-05 0 4.9639886129e-05 -5.6505255088e-06 6.459064025e-05 0 7.1230184403e-05 
0 7.25497448e-05 0 6.6743275966e-05 0 5.4234020354e-05 0 3.8123078411e-05 0 
2.6490184609e-05 0 2.2066196834e-05 0 2.6414882086e-05 0 3.6521214497e-05 0 4.5292861614e-05 
0 5.4339234339e-05 0 6.8086825195e-05 0 9.0604880825e-05 0 0.00011625418119 0 
0.00014122172433 0 0.00015980018361 0 0.00016342205345 0 0.00015188203542 0 0.00012449726637 
0 8.9776774985e-05 0 5.3190276958e-05 0 1.5867315597e-05 0 2.9332945815e-06 0 
-1.3495346138e-06 0 -1.7592159566e-05 -6.2388360675e-05 -4.2070158088e-05 -7.6296833868e-05 -8.2912039943e-05 -8.5394764028e-05 -8.66938135e-05 
-8.595273539e-05 -8.0039608292e-05 -8.1297388533e-05 -0.00010017218301 -0.00012623905786 -0.00015085592167 -0.00016993003373 -0.00018258446653 -0.00019224033167 
-0.0002005983406 -0.00020840900834 -0.00020838729688 -0.00019528807024 -0.00016710966884 -0.00012737073121 -7.0061920269e-05 9.4117802973e-07 3.2371561247e-05 
3.0886061722e-05 1.0262680007e-05 7.0327096182e-06 2.8991486033e-05 6.2782943132e-05 9.6956944617e-05 0.00012735428754 0.00015419970441 0.00018482684391 
0.00021395178919 0.00024455712992 0.0002770088031 0.00030276828329 0.00031218028744 0.00030312975287 0.00027849111939 0.00024279636273 0.00020179030253 
0.00015911244554 0.00011245946371 7.1268244938e-05 6.6023836553e-05 7.6646465459e-05 8.9613480668e-05 9.0758083388e-05 8.045334107e-05 6.5387808718e-05 
5.6386164943e-05 4.6997069148e-05 2.5289977202e-05 -1.1525920627e-06 -2.2519070626e-05 -6.2901512138e-05 -3.8955822674e-05 -8.7274172984e-05 -0.00012082186004 
-0.00016327187768 -0.00020615602261 -0.00024126149947 -0.00026521788095 -0.000272564037 -0.00026572315255 -0.00025064899819 -0.00022917753085 -0.00019939521735 
-0.00015967112267 -0.00011380635988 -7.2424663813e-05 -4.9832127843e-05 -5.1732116845e-05 -6.7568013037e-05 -8.3178128989e-05 -9.5131668786e-05 -9.6253614174e-05 
-8.5029911133e-05 -5.5867054471e-05 -1.8099524823e-05 1.3740352188e-05 2.9588942198e-05 3.4321896237e-05 4.561798778e-05 6.6245149355e-05 9.1438909294e-05 
0.00011343540973 0.00012608295947 0.00012659469212 0.00011621771409 9.487344505e-05 6.9057430665e-05 4.8207763029e-05 3.805837332e-05 4.1104121919e-05 
5.3629559261e-05 6.6426946432e-05 8.1614860392e-05 0.00011004920088 0.0001562240941 0.00020898932416 0.00025520278723 0.00028503089561 0.00028825347545 
0.00026441240334 0.00021623523207 0.00014979712432 7.6602445915e-05 4.3755735533e-06 -2.6546371373e-05 -1.32130981e-05 -1.6001777112e-05 -2.3696899007e-05 
-0.0001096029373 -9.2162459623e-05 -0.00011254536366 -0.00011008927686 -0.00010495410243 -9.7418749647e-05 -8.6744970758e-05 -8.4979554231e-05 -0.00010129570001 
-0.0001269330678 -0.00015524106857 -0.0001810225076 -0.00020445410337 -0.00023091658659 -0.00026012156741 -0.00028496951563 -0.00029090893804 -0.0002744908852 
-0.00023608851188 -0.00018939242 -0.00014057419321 3.583884245e-05 1.0593525076e-05 2.9715807614e-05 6.3466836764e-06 1.3339143834e-06 2.5282073693e-05 
6.5778825956e-05 0.00011354996968 0.00015868592891 0.00020241724269 0.00024950437364 0.0002938437683 0.00033722881926 0.00037790939678 0.00040755220107 
0.00041708038771 0.00040185649414 0.00036407433799 0.00031152975862 0.00025467350497 0.00020509102615 0.00016179512022 6.4479310822e-05 6.6744803917e-05 
8.1043232058e-05 0.00010058561747 0.00010734395619 0.00010053481674 8.6124586232e-05 7.8555254731e-05 6.9523928687e-05 4.5634751586e-05 9.3771168395e-06 
-2.9793245631e-05 -6.6136642999e-05 -3.7964178773e-05 -9.9703967862e-05 9.2328678875e-05 0.00012721840176 -0.00010787395877 -7.5356831076e-05 -0.00015649601119 
-0.00021363179258 -0.00027330496232 -0.0003215855395 -0.0003551740665 -0.00036707750405 -0.0003566184605 -0.00033025955781 -0.00029413329321 -0.00024728663266 
-0.0001903972734 -0.00013098792988 -8.2969527284e-05 -5.5516869907e-05 -6.3725674408e-05 -8.9290093456e-05 -0.00011395937327 -0.00013335335825 -0.00013689704065 
-0.0001217551835 -8.1530000898e-05 -2.9877333873e-05 1.3609873349e-05 3.8080492232e-05 4.5858731028e-05 5.958640395e-05 8.8611217507e-05 0.00012288069411 
0.0001518548379 0.00016633645282 0.00016654886713 0.00014697592997 0.0001173426499 8.3039078163e-05 5.6507684349e-05 4.3826359615e-05 4.6211931476e-05 
5.8151650592e-05 7.4255825893e-05 9.8903583421e-05 0.00014534257934 0.00021513650427 0.00028992080479 0.00035541830584 0.00039554163232 0.00039791566087 
0.00036127422936 0.00028959623887 0.00019060072373 8.3200808149e-05 -1.0684573681e-05 -5.1196209824e-05 -2.4905304599e-05 -1.3190950995e-05 -2.040012987e-05 
-4.3700336391e-05 7.6519783761e-05 9.5581686764e-05 6.0137859691e-05 6.2445324147e-05 8.6045329226e-05 0.0001118122309 0.00012211069406 0.00011911223555 
0.00010748078057 9.7961514257e-05 8.8031199994e-05 7.2849921708e-05 3.0468219848e-05 -4.3049203668e-05 -9.2438909633e-05 -0.00012439826969 -0.00013816777209 
-0.00013931433205 -0.00013082921214 -0.0001187756643 -0.00010470432608 -8.7482272647e-05 -7.9862249549e-05 -8.9476372523e-05 -0.00011120009003 -0.00013777024287 
-0.00016806517669 -0.00020193851378 -0.00024696317269 -0.00029936432838 -0.00034148117993 -0.00035854993621 -0.00033428138704 -0.00028648765874 -0.00023993928335 
-0.00019949764828 -0.00016158756625 -5.9284680901e-05 -0.00011731531413 -1.4467960682e-05 1.7926031433e-05 3.3348183933e-05 2.5199253287e-05 3.6589108277e-06 
-3.7559980228e-06 2.0100171241e-05 6.379851402e-05 0.00011884398555 0.00017525740259 0.00023526007135 0.00029711058596 0.00035795787699 0.00041692162631 
0.00046454981202 0.00049121119082 0.00049506698269 0.00047147262376 0.00042232256965 0.00035605215817 0.00029097867082 0.00023856313783 0.0001977388165 
0.00015710951993 0.00011444589472 6.8718523835e-05 7.3545183113e-05 6.542619667e-05 -0.00017953410861 -0.00012127315858 -0.00024699172354 -0.00031771467184 
-0.00037507418892 -0.00041476610932 -0.000430602493 -0.00041835472803 -0.00038244336611 -0.0003336056252 -0.00027454039082 -0.00020658689027 -0.00013932166621 
-8.8474596851e-05 -6.0263781052e-05 -5.7092052884e-05 -0.00013951929577 -0.00011358979827 -0.00016351314844 -0.00016923274961 -0.00015096952848 -0.00010382187611 
-4.3177955376e-05 9.2879145086e-06 4.071753574e-05 5.2733179473e-05 6.6954802605e-05 0.00010013530846 0.00014391260629 0.00017868974828 0.00019425296341 
0.00018983946939 0.000163503777 0.00012699267245 8.5069914348e-05 5.5417822296e-05 4.4571072067e-05 4.9017591664e-05 6.0885598941e-05 8.116812387e-05 
0.00011775439634 0.00018262884987 0.00027171886177 0.00036334327888 0.00044183334103 0.00048733493895 0.00048925413284 0.00044069302385 0.00034592216252 
0.0002182158787 8.6268082669e-05 -1.8152439225e-05 -5.8986559452e-05 -3.4818356653e-05 -1.3304154891e-05 -1.4916186956e-05 -4.1813298594e-05 -8.0784338934e-05 
-8.7704138423e-05 -6.8862565968e-05 5.5214415625e-05 5.9185051214e-05 9.13905169e-05 0.00012245295511 0.0001398994209 0.00014133480727 0.000129828637 
0.00011576268298 0.00010115411715 9.0867819381e-05 8.0344994785e-05 -0.00012574985158 -7.6803633419e-05 -0.00015204072406 -0.00015829184849 -0.00015855692618 
-0.00014998408733 -0.00013478548499 -0.00011440325034 -9.2812653747e-05 -7.2479037044e-05 -7.5125688454e-05 -9.2178946943e-05 -0.00011779939814 -0.00015156742302 
-0.00019155202608 -0.00024702586234 -0.00031601273804 -0.00037634925684 -0.0004173766356 -0.00037581971264 -0.00031918249442 -0.000273128564 -0.00025616475614 
-0.00022225688735 -0.00018144756905 -7.283823652e-05 -0.00013390278036 -2.7537056667e-05 3.6512283259e-06 2.0955643777e-05 2.9933569749e-05 2.2146776246e-05 
7.2315174293e-07 -9.6385438155e-06 1.4041702343e-05 5.8230660215e-05 0.00011691418331 0.00017964221479 0.00025046762312 0.00033029422048 0.00041078773211 
0.00048684168723 0.00054284493672 0.00056508096168 0.00055626983522 0.00051884446293 0.00045558038983 0.0003776710073 0.00030404058634 0.00025792350061 
0.00022939003247 0.00018390141486 0.00013200692774 8.1949401647e-05 4.4622520363e-05 4.5740103815e-05 4.909695781e-05 -1.1467812328e-05 4.8035904911e-05 
-0.00010619092791 -8.7497290224e-05 -0.0001294703834 -0.00015648217232 -0.00017924357962 -0.00019008593517 -0.00017336914607 -0.00012349628378 -5.8329565945e-05 
2.0063503143e-06 4.1540926759e-05 5.5638585764e-05 6.9438887294e-05 0.00010317322449 0.00015899766004 0.00019798841095 0.00021354325872 0.00020474230405 
0.00016964535462 0.00012721828534 7.7911507105e-05 5.0188613386e-05 4.4284497562e-05 5.1008948503e-05 6.3961866545e-05 8.9743421995e-05 0.00014415325131 
0.00022789400828 0.00032903533429 0.00042925734306 0.00051455863286 0.00056504027452 0.00056614453206 0.00050886144163 0.00039234219003 0.00023951745243 
9.5180905191e-05 -8.0833160609e-06 -5.2990340919e-05 -3.7891353713e-05 -1.560173223e-05 -1.0276817193e-05 -3.5161647247e-05 -7.8234246757e-05 -0.00012750769383 
-0.00019615227939 -0.0002703241189 -0.00034531552228 -0.00040544365766 -0.0004472907749 -0.00046396558173 -0.00045112048974 -0.0004108286812 -0.00035295530688 
-0.00028523767833 -0.00021186089725 -0.00014247736544 -9.0963039838e-05 -5.9811613028e-05 -5.16443979e-05 -5.6381792092e-05 -6.9191126386e-05 -0.00010667882452 
-8.9997876785e-05 -0.00011771105346 5.0489892601e-05 8.4089115262e-05 0.00012899270223 0.00016144284746 0.00016735913232 0.00015581125626 0.00013478235633 
0.0001109139921 9.6466879768e-05 9.1609996161e-05 7.8502504039e-05 1.1340021047e-06 4.7778979933e-05 -5.9485693782e-05 -0.00011881232058 -0.0001586022845 
-0.00017363688676 -0.0001765544439 -0.00017026148271 -0.00016877222515 -0.00015634032025 -0.00013473386934 -0.00011009358423 -8.8218264864e-05 -7.8492128523e-05 
-6.3881416281e-05 -0.00010461834609 -0.00014235499839 -0.00018313819601 -0.00022678401729 -0.00031697744271 -0.00038022629451 -0.0004244663869 -0.00031989088166 
-0.00038794899592 -6.2453764258e-05 -7.3189999966e-05 -0.00043829376227 -0.00045152020175 -0.00024488175404 -0.00029423207161 -0.00019766751211 -9.2250236776e-05 
-0.00015563154011 -3.5455283069e-05 2.1898244995e-06 2.2981052098e-05 2.04968037e-05 -6.6619572863e-06 -2.1725905754e-05 5.6515377764e-06 5.2122864872e-05 
0.00011018069927 0.0001769354858 0.00025420973543 0.00034514552681 0.00045438171946 0.00054818863282 0.00060979375849 0.00062630185857 0.00060296698939 
0.00055000052089 0.00047080943477 0.00036202947376 0.00027702731313 0.00021843699506 0.00015174536384 9.2610971478e-05 5.0271704822e-05 3.3905751479e-05 
3.4936070733e-05 4.0175895265e-05 -0.00013621312974 -0.00016385586059 -0.00018855679082 -0.0002038297971 -0.00019034081197 -0.00014216925774 -7.4392235547e-05 
-8.9328786999e-06 3.9640712203e-05 5.9256806708e-05 7.0237278123e-05 9.5853232779e-05 0.00013260488049 0.0002218431473 0.00021448350162 0.00020663063333 
0.00016494763258 0.00011522558634 6.8416513386e-05 4.5369641157e-05 4.3463900511e-05 5.2991053963e-05 6.8955450843e-05 9.9511635199e-05 0.00018049603386 
0.00028804512112 0.00039438644308 0.00049239030341 0.00057586852927 0.00062324630562 0.00062540115323 0.00056634639623 0.00043137511238 0.00023721551406 
9.9093158497e-05 8.1538482846e-06 -3.9909969928e-05 -3.5978926462e-05 -1.9173847249e-05 -7.7206350397e-06 -2.4137780201e-05 -6.6018284997e-05 -0.00013109180145 
-0.00020426603442 -0.00027682568179 -0.00035176676465 -0.00041318274452 -0.00045757915359 -0.00047538353829 -0.00046205398394 -0.00041939868242 -0.00035555363866 
-0.00028353882954 -0.00020771185518 -0.00014168747293 -9.0262736194e-05 -6.0065442085e-05 -4.7772453399e-05 -4.7293262469e-05 -5.5688757129e-05 -7.2597467806e-05 
-0.00011787597032 -9.6210795164e-05 -0.00013015250443 0.0001903482771 0.00016437504382 1.2818339201e-05 5.6201888583e-06 1.4223493281e-06 -2.3183118174e-05 
4.4199354306e-05 9.9927012343e-05 0.00016948525445 0.00024798422237 0.00034977201722 0.0004956330522 0.00060390040744 0.00065959460335 0.00067032175139 
0.00063540862175 0.00056794373086 0.00048250914551 0.00039321617805 0.00026513572084 0.00030999886803 7.3687762779e-05 0.00013234064681 0.00017893260519 
0.00019260747649 0.00018163018103 0.00015485037875 0.00011892728071 9.9243115983e-05 8.6569423729e-05 8.0823789176e-05 6.6455133492e-05 2.4596092771e-06 
4.1155981307e-05 -4.6880537411e-05 -0.00010512757581 -0.00015638949117 -0.00018604219076 -0.00019022847118 -0.00018317974173 -0.00017496543296 -0.00015946030908 
-0.00013447158562 -0.00011271872791 -9.4266637461e-05 -5.9209178289e-05 -7.5279400335e-05 -5.2617695474e-05 -5.5978951423e-05 -7.181190449e-05 -0.000103377708 
-0.00015299898223 -0.00030561161111 -0.0003792475909 -0.000245464209 -5.103906733e-05 -0.00013345757907 -6.3309130383e-06 -0.00016120517103 -0.0001908771228 
-0.0002121454163 -0.00020284413768 -0.00015776017972 -9.2722766567e-05 -2.4404655051e-05 6.7440058046e-05 7.3308874562e-05 8.8865956059e-05 0.00011467885633 
0.00022168448777 0.00022211619944 0.00019992310263 0.00015668476408 0.00010306454351 6.0726495576e-05 4.1856772441e-05 4.1543062252e-05 5.4518000979e-05 
7.7256110671e-05 0.0001050180872 0.00014944300347 0.00045937378309 0.00036558491411 0.00054995366372 0.00062193139456 0.00066375848837 0.00066388165578 
0.0006191333523 0.00053397449665 9.2834969109e-05 0.00020518328529 1.8352935513e-05 -2.7700220016e-05 -3.2407206163e-05 -2.177810893e-05 -7.5690772974e-06 
-7.5522621046e-06 0.00027894051163 0.00022264267318 -2.5127324989e-05 -1.2904620235e-05 0.00033056095708 0.00043968317914 -0.00020401850634 -0.00026850154973 
-0.00034015043639 -0.00040662183892 -0.00045683627832 -0.0004756617127 -0.00046033528633 -0.00041409788537 -0.00034576703911 -0.00026919637457 -0.00019335190882 
-0.00012938922737 -8.2939957792e-05 -5.6686192693e-05 -4.7407953389e-05 -4.2601710447e-05 -4.4351367251e-05 -5.7325465605e-05 -0.00012016612163 -0.00032249340438 
-0.00024652216234 -0.0003701170499 -0.00039932361688 -0.00042642850894 -0.00046705329441 -0.0004470567801 -0.00044882873772 0.00014249305241 0.0001851531415 
9.3276190455e-05 5.752634388e-05 3.9931965148e-05 3.8480844523e-05 5.4750780691e-05 0.00010116385238 0.00017976239906 -0.00039698369801 -0.00032490081503 
-0.00024576779106 -0.0001715378603 -0.00011064956198 -6.9568144681e-05 -4.7499539505e-05 -4.0537081077e-05 -4.6360866691e-05 -4.6162600484e-05 -5.3004998335e-05 
-7.2181755968e-05 -0.00011106904276 -0.00016882251657 -0.00014849123545 -0.00018444875604 -0.00021080984152 -0.00020526211301 -0.00016409196542 -0.00011117647227 
-5.5096104916e-05 -0.00019517079636 -0.00018166934024 -0.0001615514775 -0.00013642913837 -9.3118324003e-05 -0.00013949167624 -0.00018114871636 -0.00020212426898 
-4.5895078074e-05 -5.4422223911e-05 -7.9652418208e-05 -0.00012667475676 -0.00019145954866 -0.00027032708749 -0.00034478565794 -0.00037246162537 7.1608068538e-05 
7.6870281191e-05 8.6545704107e-05 0.00010318082786 0.0002067253663 0.00018413935322 6.0766218667e-05 0.00013157038484 0.0001902741642 0.00020748552924 
0.00020011574088 0.00021337387443 0.00012043124298 0.00035651467624 0.00043232785538 0.0005206685164 0.00060130289057 0.00065517390613 0.00068769120844 
0.000686712272 0.00064923556056 0.00058487540809 0.00051215261919 0.00035789315007 0.00042226832011 0.00026916907518 0.000178308881 9.0815214207e-05 
2.990125904e-05 -1.7520744223e-05 -3.1712977943e-05 -2.307925206e-05 -9.4935821835e-06 2.9364312013e-06 -2.390768168e-05 -2.9421697036e-05 -2.1211228159e-05 
4.3004010308e-07 4.2486764869e-05 9.2411617516e-05 0.00016175481142 0.00023771556152 0.00064273789758 0.00057465222199 0.00068634742638 0.00069132097997 
0.00064801418921 0.00056234188378 0.00047513379832 0.00040966804954 4.2312101868e-05 0.00067358091474 0.000697727839 0.0006937845028 0.00065849372186 
0.00061028875643 9.2949005193e-05 0.00016313852393 4.1658844566e-05 6.2425438045e-06 -0.00012424714805 -0.00016128139396 -0.00017844108515 -0.00020629829669 
-0.0001569846936 -0.000298019615 -0.00021828807076 -0.00014756195014 -9.2449212389e-05 -5.7285607909e-05 0.00032352312701 0.00030282817897 0.00023897632491 
0.00021153375565 0.00021892740915 0.00016928193509 0.0001325087942 8.4992228949e-05 5.7954897784e-05 -0.00019855587743 -0.00020325295918 0.00013980276708 

Disp_FEB 3 1116 double
0 0 0 0 0 0 5.5933571275e-05 -0.00012248579878 -2.2530874048e-05 
7.368200022e-05 -0.00013018133177 -1.3732794287e-05 0 0 0 4.4816635636e-05 -0.00011401800293 -3.2851039578e-05 
0 0 0 2.6265686756e-05 -0.00010802446923 -4.2393308831e-05 0 0 0 
9.6528638096e-06 -0.00010160350212 -4.8790170695e-05 0 0 0 -2.034732006e-06 -9.4525443274e-05 -5.3843723435e-05 
0 0 0 -1.328495091e-05 -8.754600276e-05 -5.7507753809e-05 0 0 0 
-2.0880897864e-05 -7.6308308053e-05 -5.8931007516e-05 0 0 0 -2.0306943043e-05 -6.8452369305e-05 -5.6257784308e-05 
0 0 0 -2.5860656024e-05 -7.5941330579e-05 -5.8254219766e-05 0 0 0 
-3.0818566302e-05 -7.8122138802e-05 -7.1651804319e-05 0 0 0 -3.8087324356e-05 -7.2359922342e-05 -8.8942055299e-05 
0 0 0 -3.7942034396e-05 -5.8910143707e-05 -0.00010509174899 0 0 0 
-3.8748901716e-05 -4.2766107072e-05 -0.00011577129044 0 0 0 -3.7982117647e-05 -2.7740245059e-05 -0.00012046462507 
0 0 0 -3.6685378291e-05 -1.2814341972e-05 -0.00012470420916 0 0 0 
-3.0026398235e-05 5.0670314522e-06 -0.00012425483146 0 0 0 -2.041548214e-05 2.3517655791e-05 -0.00012229036656 
0 0 0 -1.1936012015e-05 4.0714479837e-05 -0.00011804123642 0 0 0 
-1.3096585462e-05 5.2300620155e-05 -0.00010787411884 0 0 0 -1.7355379896e-05 6.1003371229e-05 -8.9931374532e-05 
0 0 0 -2.0313314963e-05 6.5956170147e-05 -6.5920212364e-05 0 0 0 
-2.6509909731e-05 6.1779486714e-05 -3.4243912523e-05 0 0 0 -2.8405249395e-05 4.5804550609e-05 3.178847237e-06 
0 0 0 -3.2158619433e-05 2.4087399652e-05 2.4534550903e-05 0 0 0 
-3.6829929741e-05 1.0791466593e-05 2.7627500458e-05 0 0 0 -3.6161691241e-05 1.6661329937e-05 1.3507270523e-05 
0 0 0 -3.9406080759e-05 4.1770093958e-05 1.033497665e-05 0 0 0 
-3.8819329347e-05 7.2259528679e-05 2.355864126e-05 0 0 0 -3.760042091e-05 9.8720825918e-05 4.4159540266e-05 
0 0 0 -3.5741653846e-05 0.00011789962446 6.4201543864e-05 0 0 0 
-3.1095933082e-05 0.00013145871344 8.0910460383e-05 0 0 0 -1.970384983e-05 0.00014170231589 9.3022434157e-05 
0 0 0 -1.2150213479e-05 0.00015282466484 0.00011182578601 0 0 0 
-2.1219277642e-06 0.00015902411542 0.00012736467761 0 0 0 1.5128699715e-06 0.0001573102054 0.00014162361913 
0 0 0 5.6838389355e-06 0.00015654430899 0.00016070270794 0 0 0 
1.3921423488e-05 0.0001485713583 0.00017484059208 0 0 0 1.8749617084e-05 0.00013347147615 0.00018148185336 
0 0 0 1.855264054e-05 0.00011411606829 0.00017882259272 0 0 0 
1.9777486159e-05 9.1847607109e-05 0.0001658937108 0 0 0 1.524909203e-05 7.4431634857e-05 0.00014722035849 
0 0 0 8.7338694357e-06 5.683874042e-05 0.00012460189464 0 0 0 
5.8439268287e-06 3.5346231016e-05 0.00010126940469 0 0 0 9.44640135e-07 1.5530453311e-05 7.4441370089e-05 
0 0 0 -9.0391313279e-06 3.5821572055e-06 5.0467417168e-05 0 0 0 
-1.0470787856e-05 -5.7577435655e-06 4.5209682867e-05 0 0 0 -1.2665835811e-06 -2.2353522581e-05 5.2058370784e-05 
0 0 0 1.1566970898e-05 -5.1459683164e-05 6.1390324845e-05 0 0 0 
2.2863645427e-05 -8.5315441538e-05 6.0630623921e-05 0 0 0 2.6863584935e-05 -0.00011106848251 5.0962986279e-05 
0 0 0 2.7199215765e-05 -0.0001233969233 3.9111193473e-05 0 0 0 
3.4872475226e-05 -0.00012506196799 3.0383671401e-05 0 0 0 5.0729562645e-05 -0.000126398867 2.3265034542e-05 
0 0 0 6.5241329139e-05 -0.0001307399798 1.1089019608e-05 0 0 0 
7.2299699241e-05 -0.00013225321891 -2.1993707833e-06 0 0 0 0 0 0 
8.7522749936e-07 7.8097313235e-05 -2.4576491342e-05 1.1273943528e-05 7.0195972512e-05 -2.2615158741e-05 0 0 0 
-1.0301506336e-05 8.9784167358e-05 -4.0740222175e-05 0 0 0 -2.7804262572e-05 9.9790311651e-05 -5.5645992688e-05 
0 0 0 -3.9547187043e-05 0.00010877801833 -7.5449286669e-05 0 0 0 
-5.2478004363e-05 0.00010975440091 -9.7910473414e-05 0 0 0 -5.7821311202e-05 0.00010637658852 -0.00012336669897 
0 0 0 -6.2563296524e-05 9.4301547506e-05 -0.00014208861103 0 0 0 
-5.5458320276e-05 7.9348988947e-05 -0.00015483680181 0 0 0 -5.3046660469e-05 6.0533064243e-05 -0.00015808909666 
0 0 0 -3.4831391531e-05 4.9882259191e-05 -0.00015682216326 0 0 0 
-2.4140184905e-05 4.1853385483e-05 -0.00015001054271 0 0 0 -1.2979275198e-05 3.223499516e-05 -0.00013962070807 
0 0 0 -4.4824587349e-06 1.6240825062e-05 -0.00012543845514 0 0 0 
4.9371801651e-06 -1.5924512127e-06 -0.00010366451897 0 0 0 1.6701324057e-05 -1.5324874767e-05 -7.7087235695e-05 
0 0 0 2.0581954232e-05 -2.4197546736e-05 -4.7817778977e-05 0 0 0 
2.4139262678e-05 -2.3659984436e-05 -2.8714854125e-05 0 0 0 1.7703687263e-05 -2.2140991859e-05 -2.5403252948e-05 
0 0 0 1.661483293e-05 -3.6186473153e-05 -3.7983882066e-05 0 0 0 
1.8333073967e-05 -6.4458356064e-05 -4.4008553232e-05 0 0 0 1.3503509763e-05 -9.1454086942e-05 -4.7142275434e-05 
0 0 0 2.2671740226e-05 -0.00012438216072 -4.8013975174e-05 0 0 0 
2.4541182938e-05 -0.00015412927314 -4.2212694098e-05 0 0 0 2.1286199626e-05 -0.00017594038218 -2.6353745852e-05 
0 0 0 3.31973024e-05 -0.00018808172899 -5.7697375269e-06 0 0 0 
5.2786006563e-05 -0.00018751257448 8.8647111625e-06 0 0 0 6.0904567363e-05 -0.00017854409816 1.608810453e-05 
0 0 0 5.7168374042e-05 -0.00017553048383 1.8706861738e-05 0 0 0 
5.1379927754e-05 -0.00017869623844 2.4034026865e-05 0 0 0 4.3667172577e-05 -0.00017909628514 3.6626199289e-05 
0 0 0 5.5761945987e-05 -0.00017491845938 4.9639886129e-05 2.7585374482e-05 -4.8280620831e-05 -5.6505255088e-06 
5.9769212385e-05 -0.00015249238641 6.459064025e-05 0 0 0 6.5596381319e-05 -0.00013564662368 7.1230184403e-05 
0 0 0 6.3392355514e-05 -0.00010124032269 7.25497448e-05 0 0 0 
6.0668317019e-05 -6.3577805122e-05 6.6743275966e-05 0 0 0 5.3988649597e-05 -3.0032988434e-05 5.4234020354e-05 
0 0 0 5.0878395996e-05 -1.0332048987e-05 3.8123078411e-05 0 0 0 
4.9006965128e-05 -1.6041738036e-06 2.6490184609e-05 0 0 0 4.9844216846e-05 -1.4036928633e-06 2.2066196834e-05 
0 0 0 5.7286364608e-05 8.6066512495e-07 2.6414882086e-05 0 0 0 
5.783672168e-05 9.5684617918e-06 3.6521214497e-05 0 0 0 5.5329961469e-05 1.9841883841e-05 4.5292861614e-05 
0 0 0 4.8854079068e-05 2.5816116249e-05 5.4339234339e-05 0 0 0 
3.9972630475e-05 2.8868198569e-05 6.8086825195e-05 0 0 0 2.558819142e-05 3.4456683352e-05 9.0604880825e-05 
0 0 0 9.6504209068e-06 5.1746384997e-05 0.00011625418119 0 0 0 
-1.17191139e-05 7.7561329817e-05 0.00014122172433 0 0 0 -2.7620350011e-05 0.00011210884259 0.00015980018361 
0 0 0 -4.301908848e-05 0.00014198961435 0.00016342205345 0 0 0 
-5.7354234741e-05 0.00016616733046 0.00015188203542 0 0 0 -5.2691721066e-05 0.00018206003006 0.00012449726637 
0 0 0 -4.3922980694e-05 0.000181801297 8.9776774985e-05 0 0 0 
-2.0644607503e-05 0.00016895175213 5.3190276958e-05 0 0 0 -1.997009349e-06 0.00013722444419 1.5867315597e-05 
0 0 0 1.6255195078e-05 9.9556586065e-05 2.9332945815e-06 0 0 0 
2.5048891985e-05 8.1062265963e-05 -1.3495346138e-06 0 0 0 2.1288260541e-05 7.2103597631e-05 -1.7592159566e-05 
8.0455793068e-05 -0.00019747699844 -6.2388360675e-05 9.9908873381e-05 -0.00021705044492 -4.2070158088e-05 5.4879343224e-05 -0.00017657350691 -7.6296833868e-05 
2.6842491934e-05 -0.00016002755729 -8.2912039943e-05 3.0291823805e-06 -0.00014733150601 -8.5394764028e-05 -1.5816718587e-05 -0.00013436323206 -8.66938135e-05 
-2.9729557355e-05 -0.0001184468565 -8.595273539e-05 -3.7103240174e-05 -0.00010973356257 -8.0039608292e-05 -4.5299137128e-05 -0.00011593144882 -8.1297388533e-05 
-5.2322848205e-05 -0.00011647717474 -0.00010017218301 -5.727196185e-05 -0.00010674680379 -0.00012623905786 -5.9743149905e-05 -8.9639514044e-05 -0.00015085592167 
-6.1969229137e-05 -6.7891109211e-05 -0.00016993003373 -5.8909627114e-05 -4.5074946684e-05 -0.00018258446653 -5.2955998399e-05 -1.9638398953e-05 -0.00019224033167 
-3.7785150198e-05 9.9540366136e-06 -0.0002005983406 -3.0534411053e-05 4.1042818339e-05 -0.00020840900834 -2.3023156245e-05 7.3646413512e-05 -0.00020838729688 
-2.8693120839e-05 9.622136713e-05 -0.00019528807024 -3.3286458347e-05 0.00011487054871 -0.00016710966884 -3.4916571167e-05 0.0001270139328 -0.00012737073121 
-3.2484171243e-05 0.0001272628142 -7.0061920269e-05 -3.4049135138e-05 7.8970981122e-05 9.4117802973e-07 -3.8526519347e-05 4.1880666686e-05 3.2371561247e-05 
-4.6117005695e-05 2.0694596969e-05 3.0886061722e-05 -5.1720831834e-05 3.2005089452e-05 1.0262680007e-05 -5.9318077547e-05 7.2139642725e-05 7.0327096182e-06 
-6.4784049755e-05 0.00011990024359 2.8991486033e-05 -6.7315115302e-05 0.00016203714767 6.2782943132e-05 -6.5123749664e-05 0.00019624602282 9.6956944617e-05 
-5.7238710724e-05 0.00022401768365 0.00012735428754 -4.1603016143e-05 0.00024872543872 0.00015419970441 -2.7156573196e-05 0.00026687167701 0.00018482684391 
-8.9855939223e-06 0.00027982055326 0.00021395178919 2.120862348e-07 0.00028360990109 0.00024455712992 7.0038731792e-06 0.00027724599931 0.0002770088031 
1.7078584278e-05 0.00025716458913 0.00030276828329 2.9861419534e-05 0.00022466063092 0.00031218028744 3.7739904656e-05 0.00018432058278 0.00030312975287 
3.8361125917e-05 0.00014227224165 0.00027849111939 3.2391955756e-05 0.00010373163241 0.00024279636273 2.7361902539e-05 7.0618654718e-05 0.00020179030253 
2.4230192139e-05 3.9110629587e-05 0.00015911244554 1.4851190826e-05 1.2745324966e-05 0.00011245946371 -4.9713003136e-06 -9.8552993677e-07 7.1268244938e-05 
-8.9614077297e-06 -1.0625385585e-05 6.6023836553e-05 2.7402218166e-06 -2.9951077522e-05 7.6646465459e-05 2.4383800337e-05 -6.6678752773e-05 8.9613480668e-05 
4.4615135266e-05 -0.00011447235011 9.0758083388e-05 5.7065110013e-05 -0.00015426558093 8.045334107e-05 6.1367674789e-05 -0.00018213992007 6.5387808718e-05 
7.1268288593e-05 -0.0001975641062 5.6386164943e-05 8.600527508e-05 -0.00021659792401 4.6997069148e-05 9.960141324e-05 -0.00023616632097 2.5289977202e-05 
0.00010865642253 -0.00024089303042 -1.1525920627e-06 0.00010833765555 -0.00023369265546 -2.2519070626e-05 -1.2137777048e-05 0.00014361183275 -6.2901512138e-05 
6.7682312874e-06 0.00012437782425 -3.8955822674e-05 -3.5572953493e-05 0.00016374302504 -8.7274172984e-05 -5.7651737734e-05 0.00018181407358 -0.00012082186004 
-7.516417827e-05 0.00018970276869 -0.00016327187768 -8.5852960183e-05 0.00018530976376 -0.00020615602261 -9.0714005637e-05 0.00016892996791 -0.00024126149947 
-8.2044236478e-05 0.00014471418399 -0.00026521788095 -7.0529131335e-05 0.00011635390547 -0.000272564037 -5.0555128837e-05 9.1246751253e-05 -0.00026572315255 
-3.6761568481e-05 6.5538341005e-05 -0.00025064899819 -2.226072138e-05 3.9162128814e-05 -0.00022917753085 -9.2357959147e-06 6.7081232373e-06 -0.00019939521735 
7.0711566877e-06 -1.8952498067e-05 -0.00015967112267 2.0204182874e-05 -3.8189373299e-05 -0.00011380635988 2.6490675737e-05 -4.3286858272e-05 -7.2424663813e-05 
2.6044119295e-05 -3.8332349504e-05 -4.9832127843e-05 1.8777829609e-05 -4.1275496187e-05 -5.1732116845e-05 1.7603393644e-05 -6.4005616878e-05 -6.7568013037e-05 
1.8677899789e-05 -0.00010418216698 -8.3178128989e-05 1.7402104277e-05 -0.00015202132636 -9.5131668786e-05 2.7926966141e-05 -0.0002059697581 -9.6253614174e-05 
3.4401469748e-05 -0.00025898477179 -8.5029911133e-05 4.5035947551e-05 -0.00029936243664 -5.5867054471e-05 6.1446196923e-05 -0.00031723527354 -1.8099524823e-05 
7.5638767157e-05 -0.0003116891894 1.3740352188e-05 8.5452775238e-05 -0.00029523106059 2.9588942198e-05 8.7100874225e-05 -0.000286982744 3.4321896237e-05 
8.4383878857e-05 -0.00028901320184 4.561798778e-05 8.159349818e-05 -0.00029072278994 6.6245149355e-05 8.4284329205e-05 -0.00027879228583 9.1438909294e-05 
9.0264780738e-05 -0.00025068680407 0.00011343540973 9.6702904557e-05 -0.00020583388687 0.00012608295947 9.6279909485e-05 -0.00015141436597 0.00012659469212 
9.0415269369e-05 -9.3254064268e-05 0.00011621771409 8.0932382843e-05 -4.555921987e-05 9.487344505e-05 7.465852832e-05 -1.5263483874e-05 6.9057430665e-05 
7.1445043432e-05 -5.6773859569e-07 4.8207763029e-05 7.3634568253e-05 1.316962539e-06 3.805837332e-05 8.0934136349e-05 3.1909610243e-06 4.1104121919e-05 
8.3897837612e-05 1.5675157556e-05 5.3629559261e-05 8.0118319602e-05 3.0810879252e-05 6.6426946432e-05 7.164960698e-05 3.9477796236e-05 8.1614860392e-05 
5.8402780269e-05 4.2000185204e-05 0.00011004920088 4.1644692828e-05 5.405437696e-05 0.0001562240941 1.9640539904e-05 8.9794528321e-05 0.00020898932416 
-8.4363964561e-06 0.00014141174324 0.00025520278723 -3.4437594877e-05 0.00020136563398 0.00028503089561 -5.9021411289e-05 0.00026100836112 0.00028825347545 
-7.9135068518e-05 0.00030461579445 0.00026441240334 -8.0121433712e-05 0.0003263237013 0.00021623523207 -7.1315247624e-05 0.0003174682497 0.00014979712432 
-5.038494055e-05 0.00027722035884 7.6602445915e-05 -1.8303435354e-05 0.00020879445947 4.3755735533e-06 2.3888929718e-05 0.00013667528401 -2.6546371373e-05 
4.4204651203e-05 0.00010586429562 -1.32130981e-05 3.7822101149e-05 0.00010119643412 -1.6001777112e-05 2.4721122827e-05 0.00010787351493 -2.3696899007e-05 
7.6595708379e-05 -0.00023419667559 -0.0001096029373 0.00010081115761 -0.00027502150624 -9.2162459623e-05 4.3769439799e-05 -0.00020405098621 -0.00011254536366 
1.4142736291e-05 -0.00018062956224 -0.00011008927686 -1.058023372e-05 -0.00016174890334 -0.00010495410243 -3.0348915971e-05 -0.00014350436686 -9.7418749647e-05 
-4.3882646423e-05 -0.00013259908883 -8.6744970758e-05 -5.3184932767e-05 -0.00013286431204 -8.4979554231e-05 -6.064952322e-05 -0.00012903071183 -0.00010129570001 
-6.6425986006e-05 -0.00011973728397 -0.0001269330678 -7.0301663072e-05 -0.00010442214261 -0.00015524106857 -7.1973423474e-05 -8.3200131485e-05 -0.0001810225076 
-6.7559180025e-05 -6.018239219e-05 -0.00020445410337 -5.4669817473e-05 -3.1556224712e-05 -0.00023091658659 -3.9862014091e-05 7.3552009781e-06 -0.00026012156741 
-3.5734978155e-05 5.5498534493e-05 -0.00028496951563 -3.6272944271e-05 0.00010372487304 -0.00029090893804 -4.0709513996e-05 0.00014151635696 -0.0002744908852 
-4.1887218686e-05 0.00016668210446 -0.00023608851188 -3.9280010242e-05 0.00018284341786 -0.00018939242 -3.1918374589e-05 0.00019458557654 -0.00014057419321 
-2.6990750484e-05 5.2003793826e-05 3.583884245e-05 -2.1642727006e-05 9.6325769846e-05 1.0593525076e-05 -3.785959052e-05 2.8534486773e-05 2.9715807614e-05 
-5.2428760682e-05 4.2580337322e-05 6.3466836764e-06 -6.6466993303e-05 9.1415276984e-05 1.3339143834e-06 -7.6189106039e-05 0.00015304096451 2.5282073693e-05 
-8.0416182755e-05 0.00021134708368 6.5778825956e-05 -7.9849654867e-05 0.00026086717844 0.00011354996968 -7.2624367021e-05 0.00030338807846 0.00015868592891 
-5.8870631619e-05 0.0003404742165 0.00020241724269 -4.1666837205e-05 0.00036932522198 0.00024950437364 -1.7880201995e-05 0.00038783403579 0.0002938437683 
7.8814814231e-08 0.00039167361683 0.00033722881926 1.3513518752e-05 0.00037875107955 0.00037790939678 2.6604828236e-05 0.00034744487493 0.00040755220107 
3.7703655835e-05 0.00029988662573 0.00041708038771 4.6243338147e-05 0.00024103766191 0.00040185649414 4.9070895329e-05 0.00018052283849 0.00036407433799 
4.3693973566e-05 0.00012742271065 0.00031152975862 3.820674101e-05 8.4535211499e-05 0.00025467350497 3.5511624446e-05 5.0100388762e-05 0.00020509102615 
2.9667840863e-05 2.5862233088e-05 0.00016179512022 -4.2688957365e-06 -8.883413102e-06 6.4479310822e-05 -1.1711159686e-06 -1.2929854165e-06 6.6744803917e-05 
1.0901263522e-05 -2.8772021324e-05 8.1043232058e-05 3.9428832679e-05 -7.0974288974e-05 0.00010058561747 6.7670654971e-05 -0.00012799591059 0.00010734395619 
8.6266147264e-05 -0.00018075224943 0.00010053481674 9.6292344097e-05 -0.00022175985214 8.6124586232e-05 0.00010852286505 -0.00025076500606 7.8555254731e-05 
0.00011634227849 -0.0002898912644 6.9523928687e-05 0.00012652031728 -0.00032712816028 4.5634751586e-05 0.00013585999841 -0.00035051052691 9.3771168395e-06 
0.00013108970597 -0.00033960366272 -2.9793245631e-05 0.00012526837236 -0.00030937421252 -6.6136642999e-05 -1.8487920897e-05 0.00015241432993 -3.7964178773e-05 
-2.3615597456e-05 0.00020497488731 -9.9703967862e-05 1.3279988707e-05 2.2873216494e-06 9.2328678875e-05 2.3854081519e-05 7.7850845628e-06 0.00012721840176 
-4.2736632167e-05 0.00020809810667 -0.00010787395877 -1.3532107005e-05 0.00017649418442 -7.5356831076e-05 -6.8097222538e-05 0.00023548371973 -0.00015649601119 
-8.8546978077e-05 0.00025068770628 -0.00021363179258 -9.8773409263e-05 0.00024919977295 -0.00027330496232 -0.00010251835192 0.00023200898431 -0.0003215855395 
-9.3648814072e-05 0.0002035304642 -0.0003551740665 -8.3310638729e-05 0.00016307935584 -0.00036707750405 -6.8727546022e-05 0.00011931559857 -0.0003566184605 
-4.8346144467e-05 8.1250429503e-05 -0.00033025955781 -3.1328847399e-05 3.613204899e-05 -0.00029413329321 -1.2084788068e-05 -8.5483570729e-06 -0.00024728663266 
8.0344307207e-06 -4.2480722186e-05 -0.0001903972734 2.3643784516e-05 -5.8487214119e-05 -0.00013098792988 2.9306807846e-05 -5.7759662013e-05 -8.2969527284e-05 
2.4667975595e-05 -4.6655091865e-05 -5.5516869907e-05 1.3648154891e-05 -5.0040947826e-05 -6.3725674408e-05 1.369830261e-05 -8.3777544205e-05 -8.9290093456e-05 
1.8161628759e-05 -0.00013577162463 -0.00011395937327 2.3022650566e-05 -0.00019867626543 -0.00013335335825 3.823627776e-05 -0.00027160020545 -0.00013689704065 
5.4032010667e-05 -0.00034354967647 -0.0001217551835 7.5095580542e-05 -0.00039650563849 -8.1530000898e-05 9.2545997177e-05 -0.00041839526966 -2.9877333873e-05 
0.0001031092761 -0.00040873046964 1.3609873349e-05 0.00010712149378 -0.00038533064071 3.8080492232e-05 0.00010796760762 -0.00037160064676 4.5858731028e-05 
0.00010940036736 -0.00037425759365 5.958640395e-05 0.00010952855519 -0.00037666966091 8.8611217507e-05 0.00011060800171 -0.00036029593321 0.00012288069411 
0.00011341861682 -0.00031867198413 0.0001518548379 0.00011427561549 -0.00025386409834 0.00016633645282 0.00010824640776 -0.00017486634897 0.00016654886713 
0.00010218931857 -0.00010189122986 0.00014697592997 9.449483332e-05 -4.6297889639e-05 0.0001173426499 8.8873493951e-05 -1.4435558114e-05 8.3039078163e-05 
8.4556697402e-05 1.1499209052e-07 5.6507684349e-05 8.4722742031e-05 1.2490851304e-06 4.3826359615e-05 8.6088075477e-05 5.9979970501e-06 4.6211931476e-05 
8.5554165707e-05 1.8976028514e-05 5.8151650592e-05 8.0991201685e-05 3.3978732972e-05 7.4255825893e-05 7.1761583968e-05 4.3197058403e-05 9.8903583421e-05 
5.91414464e-05 4.7080018703e-05 0.00014534257934 4.3656145863e-05 7.1191323514e-05 0.00021513650427 2.2119371351e-05 0.00012786028674 0.00028992080479 
-7.0887604124e-06 0.00020131595375 0.00035541830584 -3.7572874135e-05 0.00028706650482 0.00039554163232 -6.6708780651e-05 0.00037076245644 0.00039791566087 
-9.0821777121e-05 0.00042933886289 0.00036127422936 -9.9031167338e-05 0.00045067357132 0.00028959623887 -9.5767689345e-05 0.00042488903273 0.00019060072373 
-7.3936142144e-05 0.00035519938683 8.3200808149e-05 -3.4597178455e-05 0.00024944444885 -1.0684573681e-05 1.1926785191e-05 0.00014478893718 -5.1196209824e-05 
4.8135432735e-05 9.4529794296e-05 -2.4905304599e-05 4.9927559303e-05 9.6908828709e-05 -1.3190950995e-05 3.519477832e-05 0.00011771098798 -2.040012987e-05 
1.2394325495e-05 0.0001463702647 -4.3700336391e-05 1.0894164916e-05 -2.0384177333e-06 7.6519783761e-05 1.6706269889e-05 -1.5058907366e-06 9.5581686764e-05 
3.2859759358e-06 -1.8774396722e-06 6.0137859691e-05 3.4546494589e-06 -3.8536659304e-06 6.2445324147e-05 2.2621379685e-05 -2.2424592316e-05 8.6045329226e-05 
5.6627479353e-05 -7.0902853622e-05 0.0001118122309 8.8814966148e-05 -0.00013978849165 0.00012211069406 0.00011280734907 -0.00020237603167 0.00011911223555 
0.00012803116988 -0.00025336924591 0.00010748078057 0.00013823722838 -0.00029370898847 9.7961514257e-05 0.00014089691103 -0.00033953704406 8.8031199994e-05 
0.00014653801918 -0.00039199742605 7.2849921708e-05 0.00016135284386 -0.00046109623509 3.0468219848e-05 0.00015276613703 -0.00043606659165 -4.3049203668e-05 
0.00013396781287 -0.0003886440536 -9.2438909633e-05 0.00011587612971 -0.00033256586175 -0.00012439826969 9.1154855909e-05 -0.00027841186966 -0.00013816777209 
5.9335699916e-05 -0.00023669199436 -0.00013931433205 2.6462314054e-05 -0.00020574640075 -0.00013082921214 -1.6494286683e-06 -0.00018104359333 -0.0001187756643 
-2.4014801966e-05 -0.00015782836999 -0.00010470432608 -4.0627801354e-05 -0.00014064204879 -8.7482272647e-05 -5.3001880588e-05 -0.0001315951522 -7.9862249549e-05 
-6.3100414991e-05 -0.00012492433598 -8.9476372523e-05 -6.9874426117e-05 -0.00011804845417 -0.00011120009003 -7.3158036685e-05 -0.00010818531155 -0.00013777024287 
-7.242650463e-05 -9.2885107733e-05 -0.00016806517669 -6.4020910941e-05 -7.5549651228e-05 -0.00020193851378 -5.0076119805e-05 -4.6896842832e-05 -0.00024696317269 
-4.0189865103e-05 1.5881925037e-06 -0.00029936432838 -4.2432908231e-05 6.4922307502e-05 -0.00034148117993 -4.8575493565e-05 0.00013322070299 -0.00035854993621 
-5.2458584832e-05 0.00018265619292 -0.00033428138704 -4.8784331739e-05 0.00020993474755 -0.00028648765874 -4.5171353122e-05 0.00022319944401 -0.00023993928335 
-3.806944369e-05 0.00024026651226 -0.00019949764828 -3.2462299714e-05 0.00024795852369 -0.00016158756625 -1.3830494026e-05 0.0002031372278 -5.9284680901e-05 
-2.4717184715e-05 0.00024787860457 -0.00011731531413 -9.9207418316e-06 0.00015261511726 -1.4467960682e-05 -1.0479800039e-05 0.00010437592573 1.7926031433e-05 
-1.4528921383e-05 6.4405299781e-05 3.3348183933e-05 -2.6505747883e-05 4.0595903556e-05 2.5199253287e-05 -4.5943044825e-05 5.228147711e-05 3.6589108277e-06 
-6.623056106e-05 0.00010288503836 -3.7559980228e-06 -8.0628953583e-05 0.00017357162142 2.0100171241e-05 -8.7593783974e-05 0.00024513684912 6.379851402e-05 
-8.8178443548e-05 0.00030847737798 0.00011884398555 -8.2516366092e-05 0.00036494981032 0.00017525740259 -7.0838985266e-05 0.00041488235001 0.00023526007135 
-4.9541042245e-05 0.00045640097233 0.00029711058596 -2.0995004888e-05 0.00048332815641 0.00035795787699 2.9710404306e-06 0.00048427694128 0.00041692162631 
2.4088400096e-05 0.00045866786968 0.00046454981202 3.8909329305e-05 0.00041247851914 0.00049121119082 4.4714397518e-05 0.00035045013647 0.00049506698269 
4.9553760618e-05 0.00027718386264 0.00047147262376 5.0258546253e-05 0.00020353314176 0.00042232256965 4.8096087994e-05 0.00013693724759 0.00035605215817 
4.2351293814e-05 8.9616893092e-05 0.00029097867082 3.7288195017e-05 5.8715235355e-05 0.00023856313783 3.2650150388e-05 3.1682549889e-05 0.0001977388165 
2.5193874535e-05 1.4176171135e-05 0.00015710951993 1.9154040274e-05 -5.9531538454e-07 0.00011444589472 1.2237031115e-05 -3.1752776977e-06 6.8718523835e-05 
1.6015887013e-05 -3.0187738957e-06 7.3545183113e-05 9.3899452622e-06 -2.215223958e-06 6.542619667e-05 -7.5437041232e-05 0.00027107822825 -0.00017953410861 
-4.6406341426e-05 0.00023674225667 -0.00012127315858 -9.7307420219e-05 0.00029080596869 -0.00024699172354 -0.00010776567797 0.00029115163488 -0.00031771467184 
-0.00011087801249 0.00027391980984 -0.00037507418892 -0.00010416752775 0.0002419200755 -0.00041476610932 -9.210834105e-05 0.00019527561381 -0.000430602493 
-7.5335112342e-05 0.00013794116967 -0.00041835472803 -5.4050458857e-05 8.2869344624e-05 -0.00038244336611 -3.0847069866e-05 2.8261127227e-05 -0.0003336056252 
-7.1786907938e-06 -2.4821942134e-05 -0.00027454039082 1.4292511878e-05 -5.9738493292e-05 -0.00020658689027 2.9684593756e-05 -7.5765499787e-05 -0.00013932166621 
3.2367457607e-05 -6.9166591857e-05 -8.8474596851e-05 2.6002977393e-05 -5.6397428125e-05 -6.0263781052e-05 1.6306190446e-05 -5.1218459703e-05 -5.7092052884e-05 
2.00589202e-05 -0.00016137739294 -0.00013951929577 1.259282908e-05 -0.00010760518489 -0.00011358979827 3.0961629818e-05 -0.0002337321057 -0.00016351314844 
5.0835897127e-05 -0.00031743067666 -0.00016923274961 7.3821232945e-05 -0.00040104033542 -0.00015096952848 9.7622454632e-05 -0.00046304429998 -0.00010382187611 
0.00011548466136 -0.00048910995247 -4.3177955376e-05 0.00012511455861 -0.00047836729209 9.2879145086e-06 0.00012934638653 -0.00044992903713 4.071753574e-05 
0.00012570059334 -0.00043050758541 5.2733179473e-05 0.00012825007434 -0.00043190029101 6.6954802605e-05 0.00013221365225 -0.00043550209375 0.00010013530846 
0.00013290686184 -0.00041704322211 0.00014391260629 0.00012942255125 -0.00036104061292 0.00017868974828 0.00012294987391 -0.00027856204542 0.00019425296341 
0.0001135290513 -0.00018402209389 0.00018983946939 0.00010592106992 -9.9969060102e-05 0.000163503777 9.9440061604e-05 -3.9462112909e-05 0.00012699267245 
9.4495080702e-05 -9.6518260762e-06 8.5069914348e-05 8.9572575234e-05 -4.3173943709e-07 5.5417822296e-05 8.5788189608e-05 6.3610464451e-08 4.4571072067e-05 
8.178374992e-05 8.9853083409e-06 4.9017591664e-05 7.7166267147e-05 2.195482557e-05 6.0885598941e-05 7.0302114182e-05 3.2523636037e-05 8.116812387e-05 
6.1053484387e-05 4.2604078772e-05 0.00011775439634 4.9286900321e-05 5.1036808145e-05 0.00018262884987 3.5606244637e-05 8.8486718596e-05 0.00027171886177 
1.5558998712e-05 0.00016071699793 0.00036334327888 -1.0835754438e-05 0.00025139548234 0.00044183334103 -3.921888856e-05 0.00035883847158 0.00048733493895 
-7.0147652877e-05 0.00045978103299 0.00048925413284 -9.5232047897e-05 0.00053004937945 0.00044069302385 -0.00010824311903 0.00054859073134 0.00034592216252 
-0.00010496665345 0.00050296168774 0.0002182158787 -8.3234466729e-05 0.00040316596278 8.6268082669e-05 -4.8611651437e-05 0.00027008110192 -1.8152439225e-05 
-7.7109116319e-06 0.00015249395801 -5.8986559452e-05 3.3528340282e-05 8.6315863882e-05 -3.4818356653e-05 4.8179499572e-05 8.2705744717e-05 -1.3304154891e-05 
3.9001737605e-05 0.00011226530478 -1.4916186956e-05 1.5464574972e-05 0.00015282412642 -4.1813298594e-05 -1.4060084141e-05 0.00019468693063 -8.0784338934e-05 
8.7971038738e-06 -7.2171053034e-05 -8.7704138423e-05 7.1589106483e-06 -5.8292229369e-05 -6.8862565968e-05 5.9343451539e-06 -2.8295787047e-07 5.5214415625e-05 
9.348264939e-06 5.9456880308e-07 5.9185051214e-05 3.1210875022e-05 -1.5484860342e-05 9.13905169e-05 6.680576189e-05 -7.2803377407e-05 0.00012245295511 
0.0001029666455 -0.00015002011787 0.0001398994209 0.00013170165766 -0.00022375550179 0.00014133480727 0.00015002409054 -0.00028628736618 0.000129828637 
0.000160132171 -0.00033306947444 0.00011576268298 0.00015954929404 -0.000375807198 0.00010115411715 0.0001591573382 -0.00042244093493 9.0867819381e-05 
0.00016835768474 -0.00048604229232 8.0344994785e-05 0.00014075764921 -0.00043845002074 -0.00012574985158 0.0001594517089 -0.00050194986397 -7.6803633419e-05 
0.00012269710714 -0.00037038995652 -0.00015204072406 9.3355803983e-05 -0.00031276006484 -0.00015829184849 6.5748135967e-05 -0.00026402578806 -0.00015855692618 
3.9017486415e-05 -0.00023170803615 -0.00014998408733 1.1673421795e-05 -0.0002012343466 -0.00013478548499 -1.1836766134e-05 -0.0001717453415 -0.00011440325034 
-3.0049228371e-05 -0.00014489596651 -9.2812653747e-05 -4.5317949116e-05 -0.00012116584548 -7.2479037044e-05 -5.9986032284e-05 -0.0001127684518 -7.5125688454e-05 
-6.6821005021e-05 -0.00011011340393 -9.2178946943e-05 -6.8155743065e-05 -0.00010659824329 -0.00011779939814 -6.395366654e-05 -9.9396696896e-05 -0.00015156742302 
-5.3754803957e-05 -8.7620988779e-05 -0.00019155202608 -4.0309521864e-05 -6.3249666709e-05 -0.00024702586234 -3.6163906771e-05 -1.0225268852e-05 -0.00031601273804 
-4.4794811402e-05 6.2510589487e-05 -0.00037634925684 -6.3603874878e-05 0.00015806191368 -0.0004173766356 -6.4815816586e-05 0.00022096693283 -0.00037581971264 
-5.6816552387e-05 0.00024334844784 -0.00031918249442 -5.0597111112e-05 0.00024646287784 -0.000273128564 -4.9527421652e-05 0.00026667193742 -0.00025616475614 
-4.3894247938e-05 0.00028286900488 -0.00022225688735 -3.8549162127e-05 0.00028417960857 -0.00018144756905 -1.6074032828e-05 0.00023077680089 -7.283823652e-05 
-3.1504911021e-05 0.00027132197283 -0.00013390278036 -6.3531965679e-06 0.00018443229783 -2.7537056667e-05 -3.5144787489e-06 0.00013973363093 3.6512283259e-06 
-4.4894595703e-06 0.00010916087194 2.0955643777e-05 -5.6621452131e-06 8.1553873315e-05 2.9933569749e-05 -1.4873753571e-05 5.4477277445e-05 2.2146776246e-05 
-3.5882858356e-05 6.17763435e-05 7.2315174293e-07 -6.1573598941e-05 0.00011152250954 -9.6385438155e-06 -8.1163234427e-05 0.0001883636869 1.4041702343e-05 
-9.1486479505e-05 0.00026739531313 5.8230660215e-05 -9.4058588729e-05 0.00034187955316 0.00011691418331 -8.9772496722e-05 0.00041140732355 0.00017964221479 
-7.8259239672e-05 0.00047588263988 0.00025046762312 -5.7184359321e-05 0.00053130771266 0.00033029422048 -2.7546793717e-05 0.00056803791085 0.00041078773211 
2.0808715817e-06 0.00056603248231 0.00048684168723 2.8643422411e-05 0.00052481063176 0.00054284493672 4.4258591515e-05 0.00045866245637 0.00056508096168 
4.9523332564e-05 0.00037804571912 0.00055626983522 5.0861461204e-05 0.00028910071705 0.00051884446293 4.8287198297e-05 0.00020486838184 0.00045558038983 
4.470447675e-05 0.00013179454254 0.0003776710073 4.0296938096e-05 8.3284408902e-05 0.00030404058634 3.605342863e-05 6.0427439166e-05 0.00025792350061 
3.1749186746e-05 3.8767851947e-05 0.00022939003247 2.3932256227e-05 1.6708754629e-05 0.00018390141486 1.9227973098e-05 4.5949404921e-06 0.00013200692774 
2.0494891942e-05 -3.5223772556e-06 8.1949401647e-05 1.88770573e-05 1.7210689975e-06 4.4622520363e-05 2.7457435863e-05 1.6032397525e-06 4.5740103815e-05 
1.0248967556e-05 4.7695351668e-07 4.909695781e-05 0.00017337943427 -0.00054182042368 -1.1467812328e-05 0.00017460771778 -0.00055152579444 4.8035904911e-05 
5.4387237469e-06 -9.1130277724e-05 -0.00010619092791 1.864075216e-06 -7.3664057709e-05 -8.7497290224e-05 1.3116261471e-05 -0.00012716487981 -0.0001294703834 
2.5123767045e-05 -0.00018228842237 -0.00015648217232 4.3389289203e-05 -0.00025775859831 -0.00017924357962 6.6034357587e-05 -0.00034484782373 -0.00019008593517 
9.2033013061e-05 -0.00043492682744 -0.00017336914607 0.00011736826855 -0.00050424819347 -0.00012349628378 0.00013480613416 -0.00053607887821 -5.8329565945e-05 
0.00014332267165 -0.00052789971232 2.0063503143e-06 0.00014369140263 -0.00049623672385 4.1540926759e-05 0.0001412838028 -0.00047055920004 5.5638585764e-05 
0.00014481613471 -0.00046789675253 6.9438887294e-05 0.00015110216918 -0.00047182579874 0.00010317322449 0.00015460806026 -0.00045291424613 0.00015899766004 
0.00014094122162 -0.00037651468301 0.00019798841095 0.00012633300503 -0.0002787358826 0.00021354325872 0.00011436120985 -0.00017624911561 0.00020474230405 
0.00010576938075 -8.9286986622e-05 0.00016964535462 9.980899631e-05 -2.9576511224e-05 0.00012721828534 9.5004783361e-05 -8.3459808593e-06 7.7911507105e-05 
8.8082633738e-05 -2.8793388083e-06 5.0188613386e-05 8.0471982074e-05 -1.1621428797e-07 4.4284497562e-05 7.2356160672e-05 1.1505488146e-05 5.1008948503e-05 
6.4441963332e-05 2.2258876925e-05 6.3961866545e-05 5.5790067563e-05 2.6634186725e-05 8.9743421995e-05 4.4168740715e-05 3.5087679862e-05 0.00014415325131 
3.3911659557e-05 5.4055828514e-05 0.00022789400828 2.3527123631e-05 0.00010799056327 0.00032903533429 7.1321223913e-06 0.00019332121883 0.00042925734306 
-1.5894172975e-05 0.00029289361555 0.00051455863286 -4.308116695e-05 0.00041250663344 0.00056504027452 -7.2628776252e-05 0.00052675814368 0.00056614453206 
-9.5611219876e-05 0.00060698291054 0.00050886144163 -0.00010895121522 0.00062144070398 0.00039234219003 -0.00010466131789 0.00055343360873 0.00023951745243 
-8.5337713244e-05 0.00042542663869 9.5180905191e-05 -5.872078691e-05 0.00027835846413 -8.0833160609e-06 -2.8601945814e-05 0.00016130894073 -5.2990340919e-05 
1.0907951946e-05 8.6567706603e-05 -3.7891353713e-05 3.3598564187e-05 7.1498019679e-05 -1.560173223e-05 3.3867156162e-05 0.00010131516319 -1.0276817193e-05 
1.4316074157e-05 0.00015041197184 -3.5161647247e-05 -1.4665100935e-05 0.0002036102378 -7.8234246757e-05 -4.6685076086e-05 0.00025403770269 -0.00012750769383 
-7.5498952356e-05 0.00029203874874 -0.00019615227939 -9.6637137176e-05 0.00031354857492 -0.0002703241189 -0.00010713899974 0.00031401103479 -0.00034531552228 
-0.00010999433289 0.00029595041997 -0.00040544365766 -0.0001050807914 0.00025935730082 -0.0004472907749 -9.3824863143e-05 0.00020551802299 -0.00046396558173 
-7.6033327787e-05 0.00014195873518 -0.00045112048974 -5.2484581829e-05 7.8813223809e-05 -0.0004108286812 -2.6200761567e-05 1.7986074454e-05 -0.00035295530688 
-6.8873129067e-07 -3.4095741285e-05 -0.00028523767833 1.9152552341e-05 -6.7089342338e-05 -0.00021186089725 3.2919753721e-05 -8.4444545791e-05 -0.00014247736544 
3.2662952435e-05 -7.6188756793e-05 -9.0963039838e-05 2.6801453714e-05 -6.4777574153e-05 -5.9811613028e-05 1.650680133e-05 -5.496630547e-05 -5.16443979e-05 
6.1524046941e-06 -5.5001746659e-05 -5.6381792092e-05 -1.7236865233e-06 -6.6563748987e-05 -6.9191126386e-05 1.4322401967e-06 -9.5974479336e-05 -0.00010667882452 
-5.3363437473e-06 -8.6550135165e-05 -8.9997876785e-05 5.9825570133e-06 -0.00010680907144 -0.00011771105346 1.607523518e-05 4.3596355681e-06 5.0489892601e-05 
3.5079283407e-05 -8.9547720563e-06 8.4089115262e-05 6.8824519985e-05 -6.5933112637e-05 0.00012899270223 0.00010763734463 -0.00014863154502 0.00016144284746 
0.00013931673311 -0.00023720547324 0.00016735913232 0.00016121620138 -0.00031284053694 0.00015581125626 0.00017177885456 -0.00036881543929 0.00013478235633 
0.00017070028116 -0.00040749018081 0.0001109139921 0.0001664962474 -0.00043974656728 9.6466879768e-05 0.00016433064593 -0.00048122872249 9.1609996161e-05 
0.00016567060084 -0.00053283479065 7.8502504039e-05 0.00017534587823 -0.00059339863947 1.1340021047e-06 0.0001679854322 -0.00057417229982 4.7778979933e-05 
0.00017332899733 -0.00057828309946 -5.9485693782e-05 0.0001601853146 -0.00052678358043 -0.00011881232058 0.00014071662736 -0.00045706363744 -0.0001586022845 
0.00011522648128 -0.00038415347808 -0.00017363688676 8.8707427494e-05 -0.00032257812563 -0.0001765544439 6.9496381911e-05 -0.00028099035262 -0.00017026148271 
5.3218231187e-05 -0.00025807874044 -0.00016877222515 2.936855708e-05 -0.00022633238405 -0.00015634032025 5.6951507759e-06 -0.00019050626724 -0.00013473386934 
-1.2387939023e-05 -0.00015793004422 -0.00011009358423 -2.5259383619e-05 -0.00012839361443 -8.8218264864e-05 -5.9018144384e-05 -0.00010321177979 -7.8492128523e-05 
-5.5190397688e-05 -0.0001006289167 -6.3881416281e-05 -5.7056273363e-05 -0.00010593829938 -0.00010461834609 -5.115919339e-05 -0.00010157663201 -0.00014235499839 
-4.4479242206e-05 -9.1985333711e-05 -0.00018313819601 -2.8697248126e-05 -8.1322243204e-05 -0.00022678401729 -2.9213175367e-05 -2.3726237487e-05 -0.00031697744271 
-3.9773360186e-05 4.1004590457e-05 -0.00038022629451 -5.4104679293e-05 0.00010244078294 -0.0004244663869 -6.1502709286e-05 0.00027465927997 -0.00031989088166 
-7.1864953497e-05 0.00026086319122 -0.00038794899592 -4.5598353609e-05 -0.00010142166866 -6.2453764258e-05 -3.190861753e-05 -0.00010460198973 -7.3189999966e-05 
-7.5106880104e-05 0.00021274000756 -0.00043829376227 -6.5719730628e-05 0.00014880982053 -0.00045152020175 -5.3768722864e-05 0.00030965750921 -0.00024488175404 
-6.000787107e-05 0.00030172761763 -0.00029423207161 -4.9239584769e-05 0.00029887998244 -0.00019766751211 -2.4360831958e-05 0.00024324936385 -9.2250236776e-05 
-4.4092979806e-05 0.00028340858989 -0.00015563154011 -6.981981187e-06 0.00019781467563 -3.5455283069e-05 1.6731506776e-06 0.00015278093633 2.1898244995e-06 
1.5824469983e-06 0.00011020558304 2.2981052098e-05 -2.8175863918e-06 7.45698635e-05 2.04968037e-05 -2.3343511202e-05 6.5570566221e-05 -6.6619572863e-06 
-6.0801605287e-05 0.00012365459406 -2.1725905754e-05 -8.1842692452e-05 0.0002024784917 5.6515377764e-06 -9.4283575891e-05 0.00028578320052 5.2122864872e-05 
-9.8340991826e-05 0.0003662778181 0.00011018069927 -9.5461051387e-05 0.00044505286496 0.0001769354858 -8.5356281488e-05 0.00052254617913 0.00025420973543 
-6.5570304287e-05 0.00059463881189 0.00034514552681 -3.8359987229e-05 0.00064137449954 0.00045438171946 -8.2650794866e-06 0.00063403951935 0.00054818863282 
2.0018296709e-05 0.00057702371851 0.00060979375849 3.9018948883e-05 0.00049106340157 0.00062630185857 4.4442182116e-05 0.00039304516395 0.00060296698939 
4.5775184844e-05 0.00028950988781 0.00055000052089 4.3011747039e-05 0.00019148435968 0.00047080943477 3.5416567698e-05 9.8935728602e-05 0.00036202947376 
3.2698764699e-05 5.7079261751e-05 0.00027702731313 2.319206942e-05 2.8459871828e-05 0.00021843699506 1.8667275071e-05 9.6147432487e-06 0.00015174536384 
2.3691400202e-05 2.6760553737e-06 9.2610971478e-05 3.4416858398e-05 4.1386903149e-07 5.0271704822e-05 3.7599515053e-05 8.0419276856e-06 3.3905751479e-05 
4.6212735469e-05 5.0224944061e-06 3.4936070733e-05 2.626643618e-05 8.5876163212e-06 4.0175895265e-05 1.3372289686e-05 -0.00013834697893 -0.00013621312974 
2.725547165e-05 -0.000190597857 -0.00016385586059 5.0268441555e-05 -0.00026575993979 -0.00018855679082 7.6768956205e-05 -0.00035350772669 -0.0002038297971 
0.00010593674233 -0.00044838589383 -0.00019034081197 0.00013204476272 -0.00052447110647 -0.00014216925774 0.00014972870122 -0.0005638016155 -7.4392235547e-05 
0.000155549802 -0.0005621506134 -8.9328786999e-06 0.00015345607244 -0.00053035054589 3.9640712203e-05 0.00015181202616 -0.00049658608623 5.9256806708e-05 
0.00015558674932 -0.00048571964726 7.0237278123e-05 0.00016242975835 -0.00048568827333 9.5853232779e-05 0.00016906544624 -0.00047429068945 0.00013260488049 
0.00012809969485 -0.00025522123906 0.0002218431473 0.00014421109518 -0.00034608168062 0.00021448350162 0.00011392791203 -0.00015559315216 0.00020663063333 
0.00010365690832 -7.4078932812e-05 0.00016494763258 9.6422954812e-05 -1.8932876628e-05 0.00011522558634 9.0481094958e-05 -5.8108148551e-06 6.8416513386e-05 
8.1893696915e-05 -2.6847710615e-06 4.5369641157e-05 7.2293165431e-05 1.2982841326e-06 4.3463900511e-05 6.1707149143e-05 1.2093937585e-05 5.2991053963e-05 
5.184282054e-05 1.9326373149e-05 6.8955450843e-05 4.2140774895e-05 1.9747003535e-05 9.9511635199e-05 2.6735957363e-05 2.2639371309e-05 0.00018049603386 
1.9930985218e-05 6.3866355049e-05 0.00028804512112 1.205456465e-05 0.00013520929497 0.00039438644308 -9.3091153985e-07 0.00022634715424 0.00049239030341 
-1.9487746613e-05 0.00032906391425 0.00057586852927 -4.1925803089e-05 0.00045611691894 0.00062324630562 -6.8054563599e-05 0.00057325098896 0.00062540115323 
-8.988679474e-05 0.00066205591429 0.00056634639623 -0.00010627386655 0.00068563385867 0.00043137511238 -0.00010487729014 0.00057366321562 0.00023721551406 
-8.8329688879e-05 0.00042637702427 9.9093158497e-05 -6.7874170782e-05 0.00028036159347 8.1538482846e-06 -4.5446297008e-05 0.00016963605594 -3.9909969928e-05 
-8.8962442533e-06 9.3983180705e-05 -3.5978926462e-05 1.6467973182e-05 6.8772002123e-05 -1.9173847249e-05 2.4610635592e-05 9.1059009719e-05 -7.7206350397e-06 
1.2518195945e-05 0.00014243328769 -2.4137780201e-05 -1.3818998923e-05 0.00020803611551 -6.6018284997e-05 -4.4912863814e-05 0.00026438190253 -0.00013109180145 
-7.1219452366e-05 0.00030328679713 -0.00020426603442 -8.9537330496e-05 0.00032433820888 -0.00027682568179 -9.9732547824e-05 0.00032434257446 -0.00035176676465 
-0.00010310959624 0.00030521812732 -0.00041318274452 -9.961410251e-05 0.00026446272386 -0.00045757915359 -8.8752960437e-05 0.00020680924354 -0.00047538353829 
-7.1064438089e-05 0.00014072132763 -0.00046205398394 -4.7072702728e-05 7.3150433309e-05 -0.00041939868242 -2.1803505661e-05 1.4509510038e-05 -0.00035555363866 
2.9326151889e-06 -3.7119363697e-05 -0.00028353882954 1.9230372345e-05 -6.5431602707e-05 -0.00020771185518 2.978010707e-05 -8.2055346866e-05 -0.00014168747293 
2.8540567655e-05 -7.546494453e-05 -9.0262736194e-05 2.3373992008e-05 -6.7671200668e-05 -6.0065442085e-05 1.4287807062e-05 -5.917573435e-05 -4.7772453399e-05 
2.5832009669e-06 -5.6667311583e-05 -4.7293262469e-05 -8.3241802713e-06 -6.2695893575e-05 -5.5688757129e-05 -1.3971368389e-05 -7.8432050941e-05 -7.2597467806e-05 
-3.9868643853e-07 -0.00011931369954 -0.00011787597032 -1.1813021047e-05 -0.00010183381528 -9.6210795164e-05 8.8697388492e-06 -0.00013273746299 -0.00013015250443 
0.00016012524429 -0.00041440420318 0.0001903482771 0.00017232516257 -0.00044272450032 0.00016437504382 4.2582323658e-06 0.00010941502842 1.2818339201e-05 
-1.8880457446e-06 7.7675285866e-05 5.6201888583e-06 -8.4975683421e-05 0.00022015612922 1.4223493281e-06 -6.40511862e-05 0.00014627253404 -2.3183118174e-05 
-9.7035750514e-05 0.00030099184369 4.4199354306e-05 -0.00010243066208 0.0003850851499 9.9927012343e-05 -0.00010031072452 0.00046917257714 0.00016948525445 
-9.2892609246e-05 0.00055378302932 0.00024798422237 -7.9304678366e-05 0.00063728768146 0.00034977201722 -5.8186295064e-05 0.00070311460877 0.0004956330522 
-2.4139113521e-05 0.00067836110247 0.00060390040744 4.4902817535e-06 0.00060785497772 0.00065959460335 2.5300993002e-05 0.00050941348309 0.00067032175139 
3.3471602364e-05 0.00039537399425 0.00063540862175 3.6335492041e-05 0.00028103604564 0.00056794373086 3.4508215322e-05 0.00018701856607 0.00048250914551 
2.9070088203e-05 0.00011385037942 0.00039321617805 2.2683640054e-05 4.1218332626e-05 0.00026513572084 2.2181557142e-05 5.9877460444e-05 0.00030999886803 
4.2683488573e-05 -1.1768883468e-07 7.3687762779e-05 7.124277181e-05 -4.9720434617e-05 0.00013234064681 0.00010747458145 -0.00013771107479 0.00017893260519 
0.0001406288502 -0.00024047253828 0.00019260747649 0.00016319968563 -0.00032761131297 0.00018163018103 0.00017599690182 -0.00040598565829 0.00015485037875 
0.00017469652812 -0.00043422967428 0.00011892728071 0.00016945722746 -0.00045711253188 9.9243115983e-05 0.00016359421716 -0.0004815212742 8.6569423729e-05 
0.00016014452558 -0.0005105836899 8.0823789176e-05 0.00016057555331 -0.00054118043045 6.6455133492e-05 0.00016785017215 -0.00059633841738 2.4596092771e-06 
0.00016003761266 -0.00055896741105 4.1155981307e-05 0.00017290293181 -0.00060529593611 -4.6880537411e-05 0.00016764797329 -0.00057912431657 -0.00010512757581 
0.00015162213822 -0.00051974953385 -0.00015638949117 0.000127213425 -0.00044355110731 -0.00018604219076 9.8005883046e-05 -0.00036902516149 -0.00019022847118 
7.3342373071e-05 -0.00030392501503 -0.00018317974173 5.0050981372e-05 -0.00026985784643 -0.00017496543296 2.6470766898e-05 -0.00022390020604 -0.00015946030908 
6.923399269e-06 -0.00018192686548 -0.00013447158562 -7.5406037467e-06 -0.00014552068023 -0.00011271872791 -1.7295711586e-05 -0.000115052826 -9.4266637461e-05 
-3.4375891119e-05 -8.5421546828e-05 -5.9209178289e-05 -2.3123873689e-05 -9.0379748144e-05 -7.5279400335e-05 -4.322993118e-05 -8.8681292254e-05 -5.2617695474e-05 
-4.8662339395e-05 -9.2529822723e-05 -5.5978951423e-05 -4.8792557209e-05 -9.8074146081e-05 -7.181190449e-05 -4.2982788727e-05 -0.00010500487406 -0.000103377708 
-3.5728462535e-05 -9.8805445305e-05 -0.00015299898223 -7.1516747994e-05 0.00032320054015 -0.00030561161111 -7.778807776e-05 0.00030283469823 -0.0003792475909 
-6.5490421548e-05 0.00031734033837 -0.000245464209 -1.0299792848e-05 0.00020470365416 -5.103906733e-05 -4.1887451516e-05 0.00027189429966 -0.00013345757907 
3.6858968997e-06 0.00015075482952 -6.3309130383e-06 2.4695862521e-05 -0.00018650185666 -0.00016120517103 5.0136241043e-05 -0.00026101263938 -0.0001908771228 
7.9975136032e-05 -0.00034882209729 -0.0002121454163 0.00011284482025 -0.00044743405306 -0.00020284413768 0.00014058328816 -0.00052934675477 -0.00015776017972 
0.00015854077355 -0.00057597318664 -9.2722766567e-05 0.00016398211301 -0.00058549409732 -2.4404655051e-05 0.00015546500799 -0.0005113594234 6.7440058046e-05 
0.00015888141934 -0.00049279571977 7.3308874562e-05 0.00016592968313 -0.00048577037524 8.8865956059e-05 0.00017274729908 -0.00047385916696 0.00011467885633 
0.00012711837189 -0.00021622190252 0.00022168448777 0.000143746307 -0.00030046142638 0.00022211619944 0.00011135388922 -0.00012989195238 0.00019992310263 
9.8976066511e-05 -5.7754343288e-05 0.00015668476408 8.9881854365e-05 -1.4044115233e-05 0.00010306454351 8.2781967649e-05 -3.5467378439e-06 6.0726495576e-05 
7.3926996265e-05 -5.0578717037e-07 4.1856772441e-05 6.3320992922e-05 2.5082331376e-06 4.1543062252e-05 5.1576462283e-05 1.0001502233e-05 5.4518000979e-05 
4.0513627027e-05 1.4375549654e-05 7.7256110671e-05 3.4196640627e-05 1.5302264728e-05 0.0001050180872 2.3946819056e-05 1.43139996e-05 0.00014944300347 
7.4602335189e-06 0.00017811788712 0.00045937378309 1.3867840607e-05 0.00010143384861 0.00036558491411 -3.4065162708e-06 0.0002716104791 0.00054995366372 
-1.8272352463e-05 0.00037054502172 0.00062193139456 -3.6205914512e-05 0.00048868759768 0.00066375848837 -5.7549670601e-05 0.00060103961732 0.00066388165578 
-7.7264558058e-05 0.00068475131411 0.0006191333523 -9.2257985671e-05 0.0007218530518 0.00053397449665 -9.3655660748e-05 0.00041520094965 9.2834969109e-05 
-0.00010259286501 0.00054977129912 0.00020518328529 -7.8380711784e-05 0.0002838751534 1.8352935513e-05 -5.8708203142e-05 0.00017887209833 -2.7700220016e-05 
-2.5287979952e-05 0.00010410313553 -3.2407206163e-05 7.7849324498e-07 7.2297661973e-05 -2.177810893e-05 1.4699067833e-05 8.1817321188e-05 -7.5690772974e-06 
1.2731047718e-05 0.00012755196076 -7.5522621046e-06 1.7852120436e-05 5.1432747568e-05 0.00027894051163 1.8978227672e-05 2.5856812499e-05 0.00022264267318 
-3.7939593312e-05 9.195493476e-05 -2.5127324989e-05 -1.5203791918e-05 7.2620736319e-05 -1.2904620235e-05 -0.00010663433932 0.0006624047528 0.00033056095708 
-9.7801006632e-05 0.00071925949305 0.00043968317914 -6.4640567871e-05 0.00030630643596 -0.00020401850634 -7.885042578e-05 0.00032548187301 -0.00026850154973 
-8.8175198471e-05 0.00032650234061 -0.00034015043639 -9.2010748631e-05 0.00030585817876 -0.00040662183892 -9.1074711236e-05 0.00026143572177 -0.00045683627832 
-7.9953271779e-05 0.00019886683731 -0.0004756617127 -6.244006363e-05 0.0001311362721 -0.00046033528633 -3.9505186578e-05 6.1879080022e-05 -0.00041409788537 
-1.6420684915e-05 4.6412387746e-06 -0.00034576703911 4.0074810386e-06 -4.0423099563e-05 -0.00026919637457 1.6036286979e-05 -6.5032872953e-05 -0.00019335190882 
2.191931344e-05 -7.6671836723e-05 -0.00012938922737 1.9026021619e-05 -7.2006681876e-05 -8.2939957792e-05 1.4292568267e-05 -6.6421009251e-05 -5.6686192693e-05 
9.5415161923e-06 -6.1782586272e-05 -4.7407953389e-05 -6.511318702e-07 -6.1103681219e-05 -4.2601710447e-05 -1.3921735444e-05 -6.4028354245e-05 -4.4351367251e-05 
-2.2649574021e-05 -7.2623821325e-05 -5.7325465605e-05 -2.1061277948e-06 -0.00013528001728 -0.00012016612163 -2.5848059522e-05 -2.217434303e-05 -0.00032249340438 
-1.8831013222e-05 -6.8137713242e-05 -0.00024652216234 -3.5418092011e-05 2.1834401196e-05 -0.0003701170499 -4.1800685722e-05 5.0545579143e-05 -0.00039932361688 
-4.8808262363e-05 8.1555575889e-05 -0.00042642850894 -7.1925882366e-05 0.00017991810455 -0.00046705329441 -5.4419160733e-05 0.00010908846161 -0.0004470567801 
-8.2135142293e-05 0.00024694472086 -0.00044882873772 9.1579699074e-05 -4.6897133871e-05 0.00014249305241 0.00010541923257 -0.00010668297182 0.0001851531415 
8.1319070887e-05 -1.1119836927e-05 9.3276190455e-05 7.3980416346e-05 -5.5793452702e-07 5.752634388e-05 6.46430708e-05 2.8093206765e-06 3.9931965148e-05 
5.4146697948e-05 3.4870467971e-06 3.8480844523e-05 4.1623570723e-05 4.7622183956e-06 5.4750780691e-05 2.7078307539e-05 8.7341486505e-06 0.00010116385238 
1.8855993403e-05 1.834080831e-05 0.00017976239906 -3.3231903217e-05 4.3862521125e-05 -0.00039698369801 -1.4033894331e-05 -8.3015611381e-06 -0.00032490081503 
1.4945369458e-06 -4.7504650865e-05 -0.00024576779106 7.8352286437e-06 -6.6005915869e-05 -0.0001715378603 9.7617530628e-06 -7.5172669312e-05 -0.00011064956198 
4.7654284572e-06 -7.0526235504e-05 -6.9568144681e-05 7.3701136216e-07 -6.6185304604e-05 -4.7499539505e-05 -1.806578075e-05 -6.9045039709e-05 -4.0537081077e-05 
-2.9612383514e-05 -7.4558724009e-05 -4.6360866691e-05 -3.5833825677e-05 -8.0296835222e-05 -4.6162600484e-05 -3.8293754187e-05 -8.5528801719e-05 -5.3004998335e-05 
-3.5051994928e-05 -9.3033268058e-05 -7.2181755968e-05 -2.788915117e-05 -9.8005919426e-05 -0.00011106904276 -2.1929497962e-05 -9.0383196948e-05 -0.00016882251657 
1.6774210962e-05 -0.00017395039322 -0.00014849123545 4.5958389819e-05 -0.00025279461988 -0.00018444875604 7.8880424553e-05 -0.00034287179005 -0.00021080984152 
0.00011632764654 -0.00044809325482 -0.00020526211301 0.00014476889919 -0.00052978057647 -0.00016409196542 0.00016070138372 -0.00057602720335 -0.00011117647227 
0.00016731895448 -0.00059765251353 -5.5096104916e-05 7.4763382145e-05 -0.00032713252585 -0.00019517079636 4.9804843002e-05 -0.00027285615215 -0.00018166934024 
2.5673942218e-05 -0.00021367761656 -0.0001615514775 8.8398555818e-06 -0.00017078137898 -0.00013642913837 0.00016638937814 -0.00059204752324 -9.3118324003e-05 
0.00015742695541 -0.00055896985577 -0.00013949167624 0.00013635298819 -0.00049353356007 -0.00018114871636 0.00010468564869 -0.00040521708434 -0.00020212426898 
-2.7344012778e-05 -7.5448282587e-05 -4.5895078074e-05 -2.4982307878e-05 -7.9617006122e-05 -5.4422223911e-05 -1.9389157387e-05 -8.6545827799e-05 -7.9652418208e-05 
-1.415562383e-05 -8.6331208877e-05 -0.00012667475676 -1.1350681234e-05 -7.5958509115e-05 -0.00019145954866 -1.5676525436e-05 -4.8107231123e-05 -0.00027032708749 
-2.8135129469e-05 -1.3176526181e-06 -0.00034478565794 -2.9568789614e-05 2.0045355996e-05 -0.00037246162537 0.00015758916561 -0.00051556230756 7.1608068538e-05 
0.00015940453159 -0.00049839145504 7.6870281191e-05 0.00016486163076 -0.00048348406563 8.6545704107e-05 0.00017100232071 -0.00046892854152 0.00010318082786 
0.00015846593305 -0.00036335294135 0.0002067253663 0.00016954490275 -0.00039381362149 0.00018413935322 5.4186712077e-05 5.6117187341e-06 6.0766218667e-05 
7.6348893344e-05 -3.8187707105e-05 0.00013157038484 0.00010885333177 -0.00013283369481 0.0001902741642 0.00013826845679 -0.00024421126 0.00020748552924 
0.00015841607819 -0.00032720415038 0.00020011574088 0.00012208345288 -0.00017782075156 0.00021337387443 0.00017435837071 -0.00045267114183 0.00012043124298 
1.9909108232e-05 9.3038528576e-05 0.00035651467624 1.6705473172e-05 0.0001473450684 0.00043232785538 1.1620268197e-05 0.00022630550666 0.0005206685164 
7.6704947105e-07 0.00032097246731 0.00060130289057 -1.2286056517e-05 0.00040900995373 0.00065517390613 -2.7087644412e-05 0.00051227526274 0.00068769120844 
-4.4646967581e-05 0.00061467947671 0.000686712272 -6.2174847699e-05 0.00068977661431 0.00064923556056 -7.546220877e-05 0.00072855246253 0.00058487540809 
-8.0264238932e-05 0.0007354739937 0.00051215261919 -9.7856071079e-05 0.00068570656003 0.00035789315007 -8.5069703346e-05 0.00070851604687 0.00042226832011 
-0.00010318912973 0.00062088994309 0.00026916907518 -0.00010182187543 0.00051973731024 0.000178308881 -9.8295946373e-05 0.00040459274896 9.0815214207e-05 
-8.746219828e-05 0.00029386085225 2.990125904e-05 -7.0959569712e-05 0.0001915400062 -1.7520744223e-05 -3.9705864765e-05 0.00011178594286 -3.1712977943e-05 
-1.4032945728e-05 7.7143653471e-05 -2.307925206e-05 1.6634855911e-06 7.4402691098e-05 -9.4935821835e-06 7.6304313552e-06 0.00010037844186 2.9364312013e-06 
-2.4098551876e-05 8.3520470071e-05 -2.390768168e-05 -4.4218035328e-05 0.00010976965859 -2.9421697036e-05 -6.8056026066e-05 0.00016752992815 -2.1211228159e-05 
-8.729363617e-05 0.0002366102417 4.3004010308e-07 -9.7727963293e-05 0.00031224821578 4.2486764869e-05 -0.00010440890765 0.00039714056766 9.2411617516e-05 
-0.00010339419532 0.00048484900617 0.00016175481142 -9.8736694781e-05 0.00057122088037 0.00023771556152 -3.6206656659e-05 0.00069045997225 0.00064273789758 
-5.8731358877e-05 0.00072499550879 0.00057465222199 -1.42378276e-05 0.0006204849924 0.00068634742638 4.3927734623e-06 0.00051889737369 0.00069132097997 
1.2958939806e-05 0.00039123464376 0.00064801418921 2.3123315259e-05 0.00026459450601 0.00056234188378 2.4514520192e-05 0.00018051385996 0.00047513379832 
2.473470704e-05 0.00012550561223 0.00040966804954 5.7488450693e-05 6.7607347773e-06 4.2312101868e-05 -5.4623428696e-06 0.00044017570326 0.00067358091474 
-1.5558189261e-05 0.00052761565894 0.000697727839 -3.0914714443e-05 0.00062028848333 0.0006937845028 -4.7495464969e-05 0.00068771542283 0.00065849372186 
-6.0455768107e-05 0.00071905419463 0.00061028875643 -0.00010243455472 0.00040287562297 9.2949005193e-05 -0.00010325925541 0.00049802067224 0.00016313852393 
-9.520752792e-05 0.000313780125 4.1658844566e-05 -8.6398053099e-05 0.00024812153424 6.2425438045e-06 0.00015900522703 -0.00057073077187 -0.00012424714805 
0.00014748406829 -0.00053486088291 -0.00016128139396 4.1353745473e-05 -0.00024699530331 -0.00017844108515 7.7606287959e-05 -0.00034134148154 -0.00020629829669 
2.1764044504e-05 -0.0001949773432 -0.0001569846936 -1.3367751308e-05 -2.8238368031e-05 -0.000298019615 -3.3845471989e-06 -6.096819925e-05 -0.00021828807076 
-2.2763615561e-06 -7.4260860856e-05 -0.00014756195014 -4.833098501e-06 -7.8387107351e-05 -9.2449212389e-05 -1.0793525689e-05 -7.4385752669e-05 -5.7285607909e-05 
-9.1986803454e-05 0.00064948166255 0.00032352312701 -9.7773190646e-05 0.00064390001353 0.00030282817897 -0.00010105482215 0.00058510981034 0.00023897632491 
0.00015292936587 -0.00031920263427 0.00021153375565 0.00013955897884 -0.00026053286274 0.00021892740915 9.7783755336e-05 -8.9846202172e-05 0.00016928193509 
8.3697741502e-05 -3.9313261368e-05 0.0001325087942 7.1315153036e-05 -6.8910567279e-06 8.4992228949e-05 6.6588785558e-05 9.3415400215e-07 5.7954897784e-05 
0.00012177557073 -0.00046073953854 -0.00019855587743 -5.863710976e-05 0.00030435266672 -0.00020325295918 0.00017579481937 -0.00044944431284 0.00013980276708 

