# vtk DataFile Version 5.1
vtk output
ASCII
DATASET POLYDATA
POINTS 1116 double
52.981952374 75.224627905 44.021810855 52.762770133 74.803224387 45.426238787 54.126585875 75.145531872 45.319304651 
54.216215249 75.496217783 43.827675833 52.514343937 74.241474147 46.81085609 53.99477933 74.695014409 46.761737461 
52.512567501 73.51821966 48.147282066 53.996705747 74.028912678 48.104230022 52.671361103 72.774195605 49.452631681 
54.142807179 73.289148899 49.389660363 52.986175385 72.009990437 50.727785407 54.449245839 72.524419569 50.633412891 
53.508182778 71.128340809 51.848985592 54.910739397 71.682108914 51.778672212 54.083627732 70.240726585 52.938359959 
55.449327254 70.808122609 52.873502176 54.712482438 69.350104612 53.996881974 56.032585118 69.859072147 53.898189741 
55.359551364 68.111388171 54.591362428 56.627921992 68.643100916 54.463234237 55.833333608 66.746358937 54.979930661 
57.126353821 67.293019123 54.807381318 56.173416613 65.283387911 55.207598694 57.551685824 65.874871899 55.026262947 
56.6374309 63.866423386 55.500919119 58.020691707 64.478670546 55.322351474 57.150717018 62.449004321 55.620221885 
58.551143396 63.103050087 55.544892759 57.718450106 61.043354858 55.633725571 59.183891206 61.760161777 55.725424257 
58.584484292 59.811266214 55.836400085 59.961269776 60.479221349 55.791482413 59.446778566 58.574560434 55.929540707 
60.772018224 59.213963712 55.807792249 60.300536009 57.327315448 55.772656131 61.57312748 57.945945205 55.645767805 
61.033635859 56.07595518 55.400822289 62.301068128 56.66937285 55.270517079 61.632662288 54.820022055 54.79013913 
62.883290089 55.43304687 54.598953034 62.007686075 53.626637547 53.951167576 63.324971926 54.216202335 53.747005441 
62.292182872 52.458303694 53.022727279 63.683857234 53.01635215 52.815391988 62.399306677 51.331754946 52.008554214 
63.909450981 51.829085142 51.68891711 62.421762814 50.258970814 50.946482895 63.816941767 50.631280487 50.539377826 
62.240189569 49.315746899 49.768987927 63.609556416 49.638853897 49.339720118 62.020413574 48.565402224 48.479553307 
63.35729763 48.910393805 48.061688648 61.771071691 47.954186561 47.112293482 63.061155526 48.309107094 46.708764725 
61.283540141 47.817048025 45.679589532 62.634422706 48.177663867 45.301183616 60.793849724 47.874824951 44.256652183 
62.159084029 48.263698398 43.894755885 60.301821519 48.143671229 42.844290855 61.658448769 48.52932662 42.508583803 
59.773116973 48.456820498 41.454531674 61.125583322 48.897127249 41.155462034 59.197815358 48.809774327 40.094657079 
60.578264275 49.299048773 39.817121255 58.583519461 49.212659591 38.766607249 60.040973924 49.748756823 38.496918891 
58.141963396 49.983221528 37.533563398 59.533816877 50.428996396 37.259552066 57.589090183 50.862914529 36.44353117 
59.004059631 51.236438977 36.108754698 56.93433884 51.844563224 35.486271412 58.468097473 52.21030512 35.104351883 
56.506731893 53.001265701 34.598394014 58.010792414 53.315309764 34.181497663 56.120336964 54.207670214 33.764382244 
57.601184764 54.485164704 33.30836356 55.785505384 55.47626055 32.997765673 57.229319688 55.729765395 32.524820399 
55.467232998 56.818326306 32.362597263 56.875162776 57.053651638 31.845804364 55.1720488 58.206683296 31.837853672 
56.52901112 58.42332331 31.261320376 54.915957978 59.662644458 31.486102081 56.181077153 59.855209724 30.818944162 
54.51618653 61.112928841 31.286389922 55.801813554 61.33925417 30.510327698 54.128147418 62.573406367 31.133993538 
55.432423082 62.845933938 30.276930275 53.781157666 64.048076664 31.015333428 55.070665565 64.47402344 30.178635688 
53.489726109 65.509035586 31.310653616 54.630228402 66.051211914 30.554649407 53.244571362 66.889218617 31.854071249 
54.313548635 67.447821176 31.189976609 53.028695308 68.167629068 32.630377683 54.080364163 68.736592425 32.041406016 
52.793839347 69.230167362 33.691032974 53.974627534 69.826107556 33.135925902 52.628981507 70.215593292 34.831712796 
53.897947529 70.824755635 34.303299021 52.50365448 71.157470703 36.017585754 53.850038702 71.77045205 35.528959802 
52.476456651 72.046785514 37.249459953 53.834679999 72.657055641 36.794077815 52.481348467 72.885247774 38.513693664 
53.84073048 73.509258828 38.08502092 52.539952801 73.638591652 39.832091605 53.89741577 74.282048199 39.427356976 
52.632335566 74.366539546 41.162631786 54.012726829 74.913053501 40.838066999 52.769112914 74.942384948 42.543916111 
54.144877878 75.340895073 42.328652645 84.390699466 55.635742141 42.826813071 84.662955148 56.050373095 44.271560537 
83.435777221 55.499145261 44.495189969 83.334886019 55.09038866 43.023845258 84.868621153 56.621290199 45.676183056 
83.532803284 56.097018593 45.910565296 84.909569379 57.359364797 47.030391546 83.600515434 56.809059511 47.274324384 
84.959909948 58.340440904 48.210910729 83.579827776 57.796052054 48.481610382 84.996879342 59.385693332 49.343093132 
83.513799194 58.8563019 49.618263358 84.805285386 60.508216654 50.384027641 83.326642004 60.015268719 50.629737375 
84.595512377 61.655137928 51.390522163 83.102447413 61.198521793 51.613378421 84.318190159 62.892716428 52.269045554 
82.805449712 62.474415391 52.433690498 83.981537438 64.166405941 53.042319158 82.47593572 63.772421682 53.220020011 
83.470495541 65.546235967 53.506233788 82.066990175 65.187728245 53.68463401 83.015481097 66.959090449 53.892074198 
81.683184271 66.62714138 54.083955779 82.713718692 68.462276814 54.064357995 81.350444069 68.110317779 54.359204784 
82.401092161 69.965544665 54.211690973 81.025971745 69.607205066 54.587125061 82.072990247 71.468928589 54.323482808 
80.674763085 71.114191695 54.74911182 81.663064163 72.952886447 54.324716012 80.267164754 72.619037211 54.778256241 
81.210140613 74.426636177 54.267852188 79.824739403 74.121663502 54.736737588 80.660787589 75.749826462 53.707399717 
79.263166397 75.530630041 54.281545548 80.145024548 77.000435112 53.004329388 78.750346472 76.89048154 53.571389164 
79.737077797 78.066288231 51.966134761 78.264031248 77.918475627 52.452826279 79.361106224 78.965978612 50.784722259 
77.868059792 78.842531551 51.207749291 79.007112521 79.751458431 49.504870152 77.503129347 79.676774279 49.91270093 
78.552418624 80.265157166 48.124462709 77.100682094 80.116582678 48.439508674 78.181440485 80.723918322 46.705573806 
76.761786533 80.517652805 46.958960366 77.965745382 81.107041725 45.226721689 76.479109596 80.878929292 45.469338059 
77.734878593 81.08323319 43.711779904 76.236443063 80.964458535 43.928938836 77.522270531 81.02564436 42.186186484 
76.000307904 80.871230925 42.390301634 77.349988167 81.049564131 40.653196551 75.797207944 80.793273152 40.843167851 
77.152244147 80.875711743 39.134151151 75.609197538 80.686058999 39.3027537 77.007456631 80.644529032 37.617583589 
75.448814397 80.439358966 37.774542558 76.932943374 80.36230075 36.102622707 75.352518658 80.047311483 36.270779296 
76.999785394 79.623541677 34.756366962 75.370490582 79.314466735 34.911289187 77.090673427 78.720228779 33.523576434 
75.451898688 78.438592778 33.632473822 77.199927065 77.646156926 32.421421817 75.572775726 77.426990058 32.44993195 
77.289506354 76.630085488 31.263961581 75.690658267 76.496575006 31.214518262 77.361954112 75.760289773 30.002225299 
75.807103061 75.646937651 29.920897873 77.420532227 75.011230469 28.654712677 75.928038021 74.878104084 28.591636578 
77.453910838 74.11694741 27.397948903 76.044646753 73.909732489 27.414988706 77.586937015 73.06217537 26.330841282 
76.210010863 72.785116987 26.416834691 77.874815069 71.758004161 25.558458484 76.459871163 71.476491995 25.739649553 
78.286393704 70.304763007 25.287217039 76.809688948 70.00288725 25.497919405 78.727015997 68.837692378 25.113183631 
77.19656104 68.51864839 25.364281724 79.186193588 67.369161069 25.003145869 77.585061383 67.033574537 25.299955212 
79.554040535 65.871551243 25.049674751 77.95955387 65.543512684 25.349107507 79.922097257 64.415559882 25.329236936 
78.364346535 64.083853321 25.647380529 80.294469376 63.006097901 25.823457681 78.789912554 62.715919724 26.181226942 
80.746662793 61.823859456 26.705582886 79.257856019 61.488528477 27.003201031 81.166299825 60.783062194 27.744839513 
79.730120299 60.362476993 27.964027203 81.556833376 59.86870498 28.924562333 80.189099528 59.404352744 29.086888339 
82.122525142 58.996316478 30.063322502 80.699914275 58.50412387 30.243509047 82.673410577 58.203376381 31.256471407 
81.216017179 57.651254167 31.441225422 83.156243841 57.599696545 32.591669594 81.679660234 56.994314283 32.77245174 
83.536928908 57.070268679 33.984844937 82.093547425 56.395685766 34.150793535 83.842710174 56.595288713 35.420534093 
82.396956315 55.922618603 35.594815221 83.961913674 56.133062732 36.885632355 82.670795653 55.431699345 37.035067579 
84.102300859 55.737977446 38.354829457 82.989182872 55.007318462 38.472348988 84.587597824 55.773487743 39.818911892 
83.266727843 54.926017813 39.981607892 84.661025218 55.735349207 41.311123815 83.365598595 54.951911066 41.505711434 
55.367730718 75.218356885 46.775716134 55.493581175 75.617121501 45.288481681 55.325697081 74.650420654 48.153914273 
55.458592359 73.931127489 49.440061883 55.766551086 73.160836868 50.666198578 56.217044857 72.339332759 51.812675581 
56.768841902 71.447947623 52.875412448 57.369928739 70.453295723 53.839137228 57.96548922 69.228426486 54.385701518 
58.467845236 67.902234275 54.80484511 58.89823789 66.525907001 55.187411642 59.366315698 65.141275089 55.514913364 
59.89644595 63.763814948 55.750554923 60.525943869 62.426108067 55.9588775 61.283642339 61.123501372 55.994839256 
62.084683437 59.827416275 55.997308931 62.891792124 58.577208246 55.669973756 63.634655188 57.287066936 55.260550885 
64.208444239 56.059643643 54.524314387 64.682546564 54.831766035 53.71506809 65.182741662 53.571723755 52.795689401 
65.849959663 52.11124004 51.573985623 65.342756879 50.732369468 50.203658786 65.026314628 49.704099429 48.994881456 
64.744237734 48.970595132 47.691754763 64.431624655 48.436499579 46.325287427 64.018250543 48.371023862 44.921743976 
63.538285997 48.558238567 43.532511296 63.022310768 48.897401745 42.176412597 62.492238352 49.295966963 40.840439044 
61.961566736 49.717957894 39.512507301 61.449820088 50.168077593 38.187243004 60.945879229 50.808839182 36.932241063 
60.443333558 51.552975355 35.727573041 59.941052095 52.496217353 34.67634742 59.484256238 53.58447341 33.728828513 
59.06503436 54.745713861 32.845802196 58.661053189 55.957235799 31.994874655 58.260155366 57.229232694 31.222967726 
57.86593836 58.572140837 30.569264303 57.466321852 59.984992754 30.055287608 57.041938374 61.419315171 29.615388021 
56.658821728 62.980000667 29.201454258 56.428516591 64.973045772 28.826481501 55.619463385 66.760445366 29.539798693 
55.186502655 68.228709474 30.318680562 54.944422865 69.531306042 31.241527904 54.900304328 70.657897734 32.361566209 
54.897132992 71.682646525 33.574750237 54.908552976 72.641018508 34.839805542 55.001519191 73.487847102 36.190971087 
55.095655116 74.283595551 37.581348361 55.281166455 74.900489062 39.042338249 55.487290616 75.389406375 40.56191743 
55.604342213 75.702399885 42.162728104 55.625272234 75.768837353 43.743420213 82.224130926 55.508666279 46.17459132 
82.194997787 54.866355403 44.746509241 82.262611763 56.259733473 47.542587751 82.209137834 57.237145427 48.770173188 
82.075373183 58.336800676 49.877728434 81.864515283 59.514486012 50.885584579 81.617239717 60.735059215 51.835596433 
81.308201177 62.051768309 52.613481457 80.986663142 63.400918541 53.333019256 80.64332652 64.820328564 53.868065338 
80.321294784 66.251931795 54.388474629 80.022105338 67.727438825 54.80226441 79.739814022 69.216319309 55.207468553 
79.397111513 70.747317592 55.445352432 79.023486197 72.302314402 55.608285682 78.579404127 73.875804973 55.591875994 
77.969185079 75.377469572 55.137485801 77.286120673 76.866585935 54.336513261 76.77188689 77.945467613 53.025185813 
76.362994064 78.876018901 51.695409013 75.985168956 79.705224165 50.291590511 75.612490695 80.122958803 48.774493035 
75.278455628 80.482700485 47.248141812 74.985157691 80.735801855 45.709079355 74.719984893 80.870105277 44.149929835 
74.467670663 80.923464475 42.579752522 74.240817553 80.862827923 41.013153718 74.025557531 80.691385106 39.450000589 
73.843053868 80.354809116 37.903368436 73.719510659 79.862674505 36.391879736 73.696755962 79.160531087 34.970323071 
73.79032028 78.269634109 33.650847134 73.944527088 77.310357065 32.39125856 74.111563327 76.445843955 31.087557451 
74.274710173 75.676941701 29.726334174 74.444054865 74.921837375 28.380359421 74.604659104 73.855512175 27.251613341 
74.792860195 72.614238614 26.329879532 75.014416647 71.211456484 25.815736386 75.312613635 69.716820519 25.613570805 
75.652030432 68.216424464 25.54623609 76.001472335 66.710518569 25.525959682 76.381205427 65.216994763 25.626933878 
76.811962141 63.747576322 25.913254796 77.276187368 62.398514258 26.485911529 77.772054465 61.157826556 27.291498334 
78.26971995 60.004452265 28.225133083 78.759112088 58.994619109 29.304850701 79.252813747 58.065987347 30.467105611 
79.7459275 57.175525116 31.670871141 80.203565902 56.437352474 32.983681579 80.642914853 55.763374267 34.337097974 
81.049534027 55.145927753 35.726240947 81.452188729 54.557267369 37.128365738 81.885441327 54.023555718 38.529075636 
82.148759251 53.923971471 40.119176256 82.226578186 54.041141478 41.723741783 82.186340431 54.379263257 43.256316764 
56.610220719 75.171552422 48.236071972 56.740849135 75.576650033 46.81903504 56.712520372 74.502216946 49.495131023 
57.007517237 73.795574699 50.724284577 57.481527583 73.005355914 51.847113961 58.07519985 72.116712804 52.877438831 
58.713548695 71.121353051 53.819447302 59.28719374 69.897258381 54.479464575 59.76862923 68.597874589 55.122275224 
60.138582175 67.215324847 55.670123702 60.593324008 65.800754225 56.001193687 61.124137215 64.407471516 56.22751239 
61.784208912 63.065480214 56.331277964 62.562466374 61.765887701 56.347303447 63.392272467 60.482881422 56.222647143 
64.245389523 59.224460057 55.827128743 64.99077591 57.925152531 55.331765896 65.59397033 56.636946583 54.690919964 
66.052985936 55.340274844 53.986198113 66.584364554 54.128907046 53.253750025 67.401554624 52.973847842 52.503285999 
66.414076607 49.510898477 48.640802019 66.78142806 50.34986001 49.799913514 66.153730048 48.895685034 47.357072335 
65.854758382 48.463335984 45.953444789 65.437928835 48.414381201 44.538491508 64.942302893 48.655161077 43.138981311 
64.415119734 49.012876911 41.776988434 63.878965378 49.48176578 40.457041907 63.35253414 49.964524752 39.143673651 
62.849951923 50.493684394 37.843446056 62.363971465 51.149124442 36.589452688 61.879242106 51.868870965 35.357018972 
61.398435025 52.761634689 34.244452697 60.935743377 53.798218406 33.22937733 60.502174554 54.926880227 32.280028152 
60.089152551 56.141797369 31.413308402 59.674072815 57.411286329 30.613692594 59.244738428 58.719210704 29.891416246 
58.795046997 60.07201321 29.303402615 58.322058109 61.43832145 28.802885475 57.997819727 62.804291082 28.273454324 
58.032912132 64.316343301 27.747117995 56.098476502 69.089881609 29.485593611 56.505728017 67.765243512 28.645632325 
55.866600889 70.409393856 30.430444748 55.864414151 71.538377201 31.575589538 55.918399621 72.579310985 32.824752405 
56.016499575 73.515637706 34.154400117 56.157186964 74.375044568 35.563677767 56.298193651 75.174692351 37.033853351 
56.63257685 75.629880508 38.613211065 56.941819724 75.965073309 40.253945922 57.210197144 76.114887076 42.006491189 
57.124578926 76.005249441 43.760806301 56.902019627 75.935165581 45.37611034 67.469704451 51.158975127 50.94255003 
68.536158922 52.042674285 51.808646667 57.255167594 66.538223786 27.876070424 58.437396461 65.721040125 27.107796714 
80.952288186 55.612933187 47.885966982 80.905923404 54.863816361 46.487618889 80.8564713 56.641790628 49.10750565 
80.68989137 57.760262575 50.220554357 80.421775125 58.995126345 51.181092995 80.149350038 60.249312135 52.10151855 
79.8201388 61.610303243 52.835559568 79.525003858 62.979901643 53.572020613 79.256594854 64.372496032 54.27113507 
78.971998314 65.824635999 54.83252404 78.751008728 67.276851544 55.427497933 78.51452444 68.771826728 55.947382737 
78.255855768 70.308213588 56.378858435 77.895029248 71.92970093 56.614777525 77.43190889 73.510201118 56.604228345 
76.683042285 75.151690223 56.200286614 75.377327215 76.831504703 55.275951937 75.138456421 78.049778363 53.518023029 
74.799169257 78.949665139 52.04684899 74.443980675 79.703706575 50.604328314 74.090228635 80.095989639 49.063088049 
73.768878718 80.395059668 47.505948304 73.478664798 80.57234306 45.935150837 73.195297672 80.734335012 44.366350172 
72.919279754 80.836725016 42.786598855 72.651047786 80.862592941 41.19198089 72.417111713 80.727481053 39.599611158 
72.206450894 80.333493695 38.017722319 72.034020974 79.77891522 36.462565783 72.006060894 79.049984779 34.978477644 
72.104410965 78.136822238 33.609029228 72.31020626 77.214192723 32.270247494 72.533098472 76.495252196 30.853729927 
72.743842695 75.713030288 29.485358811 72.947231604 74.921245196 28.155285488 73.123348409 73.756860909 27.087552856 
73.319031034 72.429525828 26.23507572 73.525966051 70.963984398 25.863302195 73.782163631 69.45207665 25.648138041 
74.077668525 67.924192843 25.541407759 74.40579408 66.391890299 25.563361542 74.782811973 64.870231172 25.724116217 
75.24301844 63.396831237 26.08270379 75.75278438 62.052119474 26.718271512 76.280610066 60.809355021 27.537440137 
76.806358021 59.636757329 28.452964547 77.309986134 58.583579834 29.511800202 77.795822124 57.61559719 30.674919892 
78.266345291 56.683805064 31.891380644 78.730065873 55.846347301 33.179594084 79.231446099 55.036655572 34.482010631 
79.725675382 54.303551074 35.828974758 80.212071088 53.656984016 37.229668731 80.701551308 53.071691338 38.625942497 
80.921883783 53.024314146 40.309097583 80.988035164 53.231008927 41.961121473 80.95227611 53.631327765 43.524641321 
80.907367441 54.203133938 45.034475141 57.965149861 67.663823971 27.29827207 58.948814476 67.051640678 26.631930181 
57.314980531 68.698930557 27.793806531 56.999093825 69.984686683 28.633183154 56.836110084 71.306152033 29.604087035 
56.949811867 72.394437998 30.811344347 57.105591523 73.367223471 32.130413584 57.228658943 74.321313817 33.495084095 
57.394208222 75.196029921 34.931865628 57.578163615 75.992942981 36.43275285 57.931250855 76.46445863 38.078035872 
58.407349459 76.756160331 39.833897295 59.14561001 76.788161952 41.93256863 58.71433595 76.34117631 44.004619172 
58.35468157 76.100409506 45.613335049 58.034675024 75.958805884 47.053877821 57.847622635 75.580216523 48.409559704 
57.869090797 75.034252367 49.584044097 58.191061643 74.380528931 50.735214106 58.704268628 73.662347609 51.818137148 
59.311182964 72.872831141 52.837314239 60.001286801 71.926537996 53.867525948 60.64841023 70.76308874 54.842005405 
61.038634773 69.315824864 55.631316946 61.388552512 67.833079467 56.219901682 61.783084514 66.419453998 56.578523832 
62.307014759 65.002654947 56.749380705 62.960651177 63.669236981 56.811491838 63.804464058 62.431861307 56.683730859 
64.683329782 61.17017099 56.425524542 65.564686379 59.927090716 55.998123551 66.483857751 58.569992741 55.507889775 
67.035151472 57.109240621 54.901355309 67.39666617 55.746438451 54.300355515 67.796054925 54.672217181 53.675555787 
68.597111798 53.729469261 53.180941865 69.637747995 52.913403836 52.500289275 69.681619857 51.218946046 51.071400493 
70.743690783 52.115880996 51.719864076 68.700431618 50.525580204 50.29266789 67.997371722 49.888547429 49.419016463 
67.728970226 49.232581603 48.366871686 67.582480856 48.716618853 47.072595008 67.303132354 48.44343016 45.633207041 
66.897277519 48.427807697 44.161144753 66.364544328 48.725648239 42.74038587 65.806164902 49.097637766 41.363394108 
65.259279774 49.595282708 40.045199064 64.736308135 50.138460407 38.748864935 64.246127863 50.764977764 37.486296479 
63.783353653 51.421674116 36.220241751 63.329245872 52.143123529 34.964817087 62.860063677 53.031532933 33.827662205 
62.393448405 54.014248991 32.732721862 61.94699844 55.082124543 31.702535786 61.523938229 56.313753897 30.80092652 
61.096813117 57.593625747 29.972329511 60.661180852 58.918661488 29.234330924 60.131905461 60.223427569 28.572333868 
59.611688576 61.476580358 28.048132791 59.276557212 62.67210361 27.641533236 59.357009591 63.859440372 27.037251923 
59.767162062 65.160428987 26.514420639 60.245731103 66.529726998 26.045693472 59.393277954 68.274931583 26.458161206 
60.672321222 68.011376506 25.888948242 58.533506722 68.451183607 26.951548477 79.557170042 55.977475798 49.548783748 
79.623418815 54.954486869 48.274675562 79.384540727 57.097585408 50.701959699 79.07840483 58.35235519 51.683620599 
78.77961674 59.638369013 52.618120896 78.427571453 61.025098899 53.358873503 78.117213502 62.448605974 54.051114508 
77.871404754 63.886597528 54.733585773 77.660280271 65.329335857 55.399182877 77.473969425 66.781069985 56.056974277 
77.286694866 68.261866169 56.695910083 77.011384689 69.793959392 57.164082809 76.652149054 71.419396476 57.531511495 
76.107751047 72.963223412 57.445608776 75.296521409 74.445439658 57.153083408 74.230610242 75.673586554 56.629629859 
73.220118038 78.973089209 52.278042653 73.412998717 78.224372426 53.636510126 72.867460791 79.64661223 50.83768575 
72.543236951 80.036625389 49.3109411 72.241408729 80.302829367 47.744304436 71.959070187 80.482524527 46.170912648 
71.668468879 80.633771334 44.592151106 71.368894246 80.715962818 43.000052763 71.074571503 80.689555928 41.398359973 
70.80300631 80.665059544 39.789249545 70.551137715 80.283936086 38.152393136 70.330912116 79.684653791 36.566483695 
70.183415523 78.917734829 34.966802024 70.400373106 77.991224549 33.46856598 70.673859534 77.148588606 32.059993879 
70.962302692 76.469427107 30.602998221 71.220572686 75.710507582 29.21559682 71.45378136 74.909635824 27.88807227 
71.632540799 73.687186313 26.851039672 71.816941275 72.26139307 26.122382031 72.005021854 70.741269194 25.840819623 
72.230656883 69.200837469 25.645498598 72.497763735 67.643791289 25.502128872 72.788958309 66.074152179 25.513770827 
73.164849408 64.525943502 25.779472296 73.645965301 63.010778791 26.164938745 74.213363919 61.649913694 26.8389193 
74.791621605 60.382052311 27.654131161 75.353679785 59.198115403 28.580406016 75.862549527 58.151732701 29.681007481 
76.332223086 57.149297607 30.857427566 76.766799284 56.197299667 32.109566559 77.221728505 55.271355168 33.397183776 
77.771712194 54.392497262 34.696238467 78.329974401 53.597643664 36.042071805 78.881722382 52.859816198 37.419317783 
79.396561571 52.222290529 38.820829966 79.657785619 52.160449788 40.555066036 79.752840264 52.385937775 42.25892405 
79.64585707 52.919473409 43.825583002 79.560741766 53.540001461 45.350079825 79.553702617 54.21541037 46.840943666 
73.359377822 77.294988724 54.955847299 72.732597536 76.298092459 55.998547351 58.272681074 69.384191786 27.123983549 
58.14251023 70.665794806 27.869520035 58.040485915 72.075576725 28.814415535 58.239672441 73.079226423 30.106066934 
58.412640022 74.065502576 31.463314239 58.58527449 74.98926419 32.876603386 58.784956889 75.866267588 34.336530959 
58.9951603 76.694636317 35.835113528 59.28763685 77.230906919 37.47549339 59.758995188 77.621871986 39.128362487 
60.544069521 77.852477289 40.774437845 59.703691716 76.420327496 46.130833864 60.215763834 76.618414629 44.687441792 
59.265050941 76.275162738 47.443514156 59.024503826 75.797084468 48.589733898 58.93496547 75.384009361 49.636253787 
59.270091197 74.918416494 50.587488229 59.830000018 74.359036654 51.605236899 60.529100382 73.690166916 52.665339587 
61.296535827 72.941514391 53.817341145 62.364503922 71.845559608 55.188029454 62.472029319 69.952721755 56.180732542 
62.682565292 68.370281882 56.817104471 63.014323137 66.87854888 57.176385033 63.482668227 65.457344768 57.314836289 
64.056792389 64.228004297 57.292826944 64.97729152 63.144139686 57.143182872 65.861485599 61.939651718 56.736545041 
66.833430839 60.725277333 56.274435448 68.292255269 59.329192015 55.710792019 68.641991043 57.40699984 55.038475969 
68.709886317 55.990660369 54.440922168 68.68079301 55.071938209 53.941233096 69.535008944 54.583028012 53.651979705 
70.622944975 53.828955853 53.16292787 71.741354649 53.116487215 52.329408733 71.802994279 51.401326978 50.726947459 
72.754769833 52.45155086 51.299172435 70.696570448 50.588467195 50.145057619 69.65684049 49.969503121 49.556774126 
68.874844652 49.583903598 49.122992424 68.959102446 49.144918554 48.246491624 69.02409663 48.709123079 46.942912902 
68.886693747 48.47780631 45.345523407 68.357369126 48.453373545 43.748482067 67.759052824 48.800652552 42.286686883 
67.184310792 49.185008559 40.93156567 66.625051879 49.693885616 39.617085233 66.100991069 50.257382723 38.331148286 
65.628250927 50.939138872 37.096013529 65.202492982 51.681757291 35.865844403 64.792777744 52.448392548 34.6191558 
64.321278169 53.339077118 33.457338742 63.852896213 54.300974588 32.321538047 63.409661842 55.350090905 31.230722533 
62.972618368 56.532633759 30.231455966 62.529132223 57.808706194 29.320719684 62.051693912 59.145950191 28.534932005 
61.508634482 60.513716497 27.817166627 60.770070274 61.723189445 27.393267413 60.219640529 62.57347583 27.212093092 
60.588040572 63.357794545 26.643011084 61.115442136 64.558793427 26.024070448 61.699670089 65.986930631 25.656092496 
62.114084805 67.572505808 25.393955269 60.885761613 69.558926147 26.138845627 62.388693995 69.291733292 25.571362571 
59.473150565 69.586334214 26.617136191 60.841380926 77.147235845 43.225999478 61.739447851 77.951088239 42.047949627 
71.928418267 77.479523706 54.684424457 71.409428299 76.645719364 55.462925689 71.911068229 78.169260549 53.606813052 
71.660338758 78.822997584 52.37842957 71.317513235 79.380150929 50.990099806 70.995628393 79.843154951 49.52406363 
70.717585981 80.124656934 47.96868237 70.455018726 80.298708062 46.395851688 70.15892146 80.444243915 44.821577659 
69.827464985 80.493664123 43.236050785 69.489292925 80.537055247 41.638025316 69.22268556 80.477554374 40.023445341 
68.926747937 80.124974108 38.423068974 68.556645891 79.531457726 36.789739162 67.960784946 78.663154751 34.920552541 
68.639879145 77.769584693 33.226571385 69.066061351 77.067333223 31.712481145 69.423402108 76.453352412 30.251198621 
69.717844491 75.663277859 28.896102345 69.964421426 74.858044614 27.603610649 70.149249696 73.499192654 26.742549934 
70.306207596 72.059947161 26.064695103 70.468068889 70.532803271 25.755257275 70.663769608 68.970378997 25.528207512 
70.901768705 67.389429732 25.350743538 71.167340835 65.812204203 25.353156321 71.43589599 64.138570447 25.630387848 
72.050889913 62.544647682 26.139992176 72.674198038 61.185042968 26.88781114 73.311124046 59.908391188 27.728803382 
73.915426822 58.719749266 28.647331215 74.434204977 57.660498016 29.763276994 74.875222698 56.657953905 30.972679964 
75.242245052 55.730470322 32.264456727 75.65216888 54.743269068 33.651968314 76.275431421 53.84835225 35.015033327 
76.892707473 53.028516836 36.378913981 77.461490961 52.246978968 37.753995175 77.977054904 51.501910572 39.112021653 
78.295381853 51.411848464 40.859620881 78.429843108 51.632578474 42.581462632 78.284479152 52.237668782 44.141379093 
78.203002352 52.807844111 45.728167704 78.230326793 53.483189003 47.279834889 78.308543999 54.278073209 48.718173744 
78.245099619 55.340057209 49.995262687 78.069692949 56.454453561 51.182179608 77.754052556 57.682459893 52.241442679 
77.465216617 58.952875234 53.277466521 77.134597859 60.363781392 54.075358548 76.87806045 61.817619574 54.815584023 
76.615304069 63.305213425 55.44416483 76.371209567 64.794899412 56.017323105 76.181754608 66.256604208 56.648964072 
75.956994616 67.738915113 57.238463052 75.669646476 69.247186764 57.676189729 75.312321923 70.813411073 58.082072016 
74.736006766 72.269637844 57.967956686 74.027003991 73.655984668 57.774818347 73.062871379 74.625399443 57.21681354 
71.914093641 75.293499429 56.70463264 70.709482375 75.672944894 56.020220828 70.351783221 76.951352633 54.897877494 
69.557178537 76.092188122 55.375279473 70.971289665 77.52356272 54.451028717 59.501857366 71.038135739 27.248466173 
59.511722104 72.462477409 28.118262338 59.63642114 73.643385216 29.406407015 59.787259162 74.722401385 30.788147537 
60.001021404 75.595727578 32.2785288 60.259250504 76.438581013 33.782273001 60.55177828 77.207835796 35.308937598 
60.735894929 77.778304176 36.919592694 61.091120788 78.238572175 38.425033678 61.760717292 78.566553942 39.846227786 
62.730105896 78.752105859 41.129631467 62.921882321 78.161162637 43.182815202 63.723836735 78.993529684 42.253426905 
62.165877528 77.407535283 44.246774946 61.500405128 77.020300913 45.549823854 60.918593038 76.809916441 46.818334726 
60.427115374 76.430503596 48.016677207 60.013009305 76.014615469 48.994260345 59.69509167 75.665507952 49.678946328 
60.151084216 75.501365537 50.361629773 60.786386129 75.152436194 51.267494248 61.547091543 74.698904217 52.3359871 
62.397976087 74.15585665 53.437314097 63.454977044 73.608213274 54.58378057 64.02727898 68.686270301 57.466821236 
63.931921537 70.271917919 56.954154979 64.267860136 67.178662251 57.784886116 64.640802031 65.797616588 57.735352942 
64.92679337 64.70525007 57.603591219 66.105867848 64.103134273 57.69422298 66.972932534 62.687217924 57.125895504 
67.793229607 61.626995147 56.696286572 69.048805751 60.922048257 56.416197562 70.060515761 55.698796743 54.24752444 
70.420097649 57.192390905 54.962449922 64.155865539 71.815390514 56.219710419 64.777549739 73.307575829 55.568985177 
70.433325016 58.961036977 55.625762838 70.64061234 60.587224619 56.297534052 72.690849828 54.154809772 52.856194973 
71.481808057 55.047081228 53.775885156 73.560272246 53.531491333 51.777921028 73.761467133 51.997563108 50.079041997 
74.435134804 53.113521134 50.796190656 72.733501859 50.835394655 49.539493688 71.515138401 49.902828612 49.056728128 
70.2178546 49.294525223 48.524633338 70.579457114 48.872606351 47.095097429 70.850625671 48.466455522 45.099632447 
69.843236618 48.40516656 43.147660027 69.137064681 48.854833519 41.740992226 68.515562484 49.302540076 40.4226567 
67.953604744 49.804571311 39.163948077 67.436164235 50.395540645 37.923655143 66.989453873 51.097447871 36.722305106 
66.632932631 51.873195544 35.534519613 66.305645083 52.79279106 34.331488901 65.777305636 53.706024587 33.153035861 
65.298639866 54.669541983 31.999690215 64.871390472 55.68054873 30.851473202 64.462287943 56.839630169 29.793859576 
64.000993426 58.064605931 28.807157112 63.541506261 59.419529034 27.877683488 63.111908103 61.161864004 26.86983864 
61.717319702 62.490583102 26.614922611 62.508928496 63.779880157 25.910831151 63.208660935 65.304549357 25.399728884 
63.800902063 67.032530767 25.173623055 63.973525855 68.917393815 25.139734081 62.537648002 71.023209699 25.948294759 
64.144457887 70.588169134 25.563450716 60.955457275 71.175628074 26.571770213 70.664951928 77.942932037 53.647286803 
70.224405476 78.51367403 52.546191937 69.795144513 79.049206273 51.185445216 69.458938221 79.53137302 49.737057347 
69.212466425 79.832862669 48.183964691 68.983295483 80.036418134 46.626077148 68.70023791 80.149195515 45.066965999 
68.316251589 80.221683248 43.536081896 67.899345807 80.280951782 41.918697774 67.688959574 80.233037367 40.315552689 
67.400232384 79.936496841 38.781772616 66.911716005 79.46834996 37.314687995 66.162930598 78.826336784 35.931649917 
67.531700924 76.884729653 31.229042128 66.990059631 77.41903781 32.55464548 67.933552648 76.312599254 29.838579299 
68.241116775 75.503451654 28.574780177 68.484974054 74.599049574 27.320423863 68.673641131 73.292122594 26.587388161 
68.803528877 71.870906464 25.97898972 68.919053202 70.350786155 25.624800287 69.073043599 68.778149892 25.367418836 
69.319327496 67.222864572 25.184526308 69.542748295 65.666253231 25.186100126 69.337896699 63.721525771 25.396470817 
70.404504495 61.954532393 26.154358883 71.172995525 60.5937544 26.979148653 71.855646341 59.372387137 27.823264054 
72.500488291 58.238802546 28.737301586 73.009142615 57.254288599 29.875784045 73.391626288 56.292665245 31.042292313 
73.670887014 55.365598541 32.367139047 73.7310411 54.151887025 33.948037733 74.80886507 53.213418704 35.416869463 
75.495140023 52.428045163 36.794500945 76.058281777 51.689751906 38.174737966 76.556606579 50.942186774 39.53046154 
76.944697368 50.791111388 41.212300884 77.138563996 50.875689015 42.910990651 76.974458526 51.434753465 44.498396548 
76.898975813 51.934087293 46.139343414 76.88321268 52.60840444 47.846622057 76.957385627 53.666977844 49.26424127 
76.976399031 54.744811981 50.499515676 76.809089893 55.771534729 51.658459679 76.46749757 56.935140415 52.802765946 
76.126842253 58.213694195 53.922546638 75.741582597 59.697613715 54.750562593 75.499261729 61.226284053 55.479729122 
75.250077128 62.786059054 56.002456109 75.016417358 64.305115121 56.529132756 74.776887115 65.804266043 57.011000275 
74.549341016 67.254644944 57.54766313 74.241746814 68.741819997 57.851880307 73.897568748 70.162395804 58.20278892 
73.409022811 71.58066099 58.094585352 72.823403529 72.811360891 57.946430212 72.152448187 73.739903413 57.466913638 
71.151580599 74.245715578 57.005963244 69.949955738 74.694245146 56.573420291 68.745563902 75.080629058 55.927675294 
68.430835912 76.617491874 54.534098261 67.536553339 75.538265445 55.209759411 69.564193047 77.39361931 54.000248849 
66.227264306 77.944732773 33.84118136 65.056473294 78.255210489 34.809848213 72.107026745 49.425163288 47.614741135 
72.674049171 48.965205339 46.056142227 70.42478038 49.039201407 41.075347255 71.190520127 48.715179952 42.31734823 
69.798847249 49.451538091 39.887996631 69.245469843 49.943581144 38.697157314 68.743678867 50.563641575 37.541608117 
68.339884468 51.265852186 36.434135238 68.062588295 52.119418557 35.34659645 68.043438429 53.228963822 34.087203825 
67.243484881 54.156342356 32.83307028 66.704975957 55.046722896 31.678677614 66.331220346 55.983426898 30.520883682 
65.985343101 57.115612853 29.397946845 65.506137023 58.299501543 28.365165502 65.089657895 59.555355198 27.485461855 
64.936428067 60.864659526 26.721587792 63.979823216 62.858104215 25.883623441 65.5259333 62.102790832 26.008194841 
61.069612963 72.745835947 27.449424402 61.118172889 74.14154045 28.725486507 61.284947129 75.271076748 30.162691273 
61.484799441 76.134425288 31.756519206 61.777038551 76.860672937 33.267531249 62.462052962 77.689904621 34.912750979 
62.157142811 78.118255337 36.543002652 62.474349565 78.564912023 37.85630723 63.026769245 78.946578077 39.126195754 
63.746083486 79.332433241 40.318672618 64.61938904 79.540537861 41.350022974 64.837479064 79.174206846 43.319817847 
66.066121842 79.894116185 42.209275071 64.009270936 78.360132558 44.19790892 63.303201868 77.778528305 45.280026686 
62.648459177 77.434702073 46.486893856 62.050519535 77.091974641 47.706308589 61.487210883 76.546447674 48.791586759 
60.834341275 76.043741587 49.717061334 61.669289774 75.868694807 50.628148773 62.486057622 75.670048998 51.741404241 
63.355021293 75.310168239 52.885142764 64.35015159 74.953589619 53.98644417 65.519619975 74.669945142 54.970703304 
66.118847197 73.074033621 56.432818389 66.768984289 74.335257419 55.821218675 65.607729505 71.720855784 56.927340084 
65.368620722 70.398316362 57.619085947 65.433507828 68.844358097 57.932706776 65.652675248 67.286638735 58.18741282 
65.943698581 65.795129346 57.996574599 73.730468712 55.286804074 53.214680106 72.554593446 56.681123679 54.474603397 
74.453325751 54.424688269 52.10832274 75.146387355 51.705412514 48.554472884 75.617132925 53.15640205 49.936482075 
73.605856206 50.291139697 48.077364195 68.807516719 77.981241048 52.853037067 68.297983124 78.594567076 51.433633523 
67.925625677 79.112452829 49.949510297 67.743401879 79.429247961 48.373498745 67.596248707 79.636927668 46.842300942 
67.344914007 79.743072656 45.374323608 66.864741927 79.802006899 43.900049165 66.251927227 80.062852254 40.545802404 
65.96587674 79.823701574 39.182343973 65.463567423 79.405620879 37.899345734 64.794893906 78.891553727 36.689219297 
66.074420966 76.666412029 30.685509537 65.601416617 77.120425342 31.920539348 66.501254138 76.103611373 29.448422494 
66.808769607 75.330038233 28.278380799 67.039185545 74.324691371 27.208937199 67.235939094 73.088996744 26.50492736 
67.307332159 71.770457033 25.905799313 67.362307479 70.266864322 25.511017879 67.485368385 68.645204504 25.202742954 
67.753241237 67.044956408 25.051449359 68.230574634 65.812107831 25.091856654 67.411988415 64.75430288 25.135951738 
69.71576774 59.974654512 27.248177851 68.916076304 61.161231906 26.471091807 70.43260351 58.832374201 28.082878572 
71.113889743 57.819653009 28.943768578 71.61122843 56.916931532 29.99036736 71.971184842 56.055513197 31.101799389 
72.083442507 55.205213163 32.235938206 71.95161921 54.307191914 33.342215826 74.193086075 51.746585915 37.233366716 
73.469229191 52.416374661 36.01323798 74.701772478 51.071267344 38.575980153 75.154996628 50.404771158 40.007020054 
75.549196863 50.251285097 41.617086474 75.814690398 50.248796619 43.190617942 75.771752156 50.500710871 44.765667022 
75.576079785 50.871012949 46.504491191 67.859383279 62.40626701 25.852664456 66.410747757 63.439595668 25.441010949 
72.167801465 48.599162329 43.639386473 73.262049517 49.017758249 44.561647618 72.548451267 53.002543866 34.895767017 
71.354636934 53.421606426 34.193618947 75.805029927 54.237699183 50.948382685 75.575253128 55.108274019 52.005881106 
75.086274496 56.187909915 53.101601796 74.508390438 57.519941746 54.268103239 74.160576014 59.173769369 55.130974412 
73.963509359 60.797791518 55.882569099 73.786025717 62.356383376 56.410658905 73.600088734 63.893895883 56.926634343 
73.36441049 65.402138609 57.347753066 73.112928827 66.87354465 57.736886186 72.811930031 68.330338258 57.963284113 
72.483340733 69.730039073 58.144722883 72.115100093 71.070865799 58.016777031 71.732749598 72.249429596 57.869408655 
71.48509735 73.0886211 57.577829164 70.613396269 73.245880933 57.336340851 69.357953976 73.522639725 57.002788449 
68.042775798 73.991563761 56.546129648 66.330847265 75.92151557 54.27354139 68.11645127 63.203064997 57.36907725 
67.678829108 64.460762596 57.833582464 68.446773416 62.323337681 57.009338222 69.431051678 62.147505214 56.944727446 
70.767194722 62.057775517 56.867246197 72.312117863 60.529749201 56.161153608 72.264505928 62.120756537 56.72387107 
72.368619122 58.836507095 55.435206529 65.421708921 75.008633639 28.11073442 65.169858329 75.763601049 29.152911871 
65.68988091 74.047219312 27.160822122 65.915121487 72.980683574 26.48001834 65.823807095 71.790603053 25.874995331 
65.749172192 70.309918125 25.426829448 65.76411876 68.576276834 25.056176859 65.900300788 66.342998141 25.036848124 
64.879690169 64.451398617 25.380099367 72.143102991 63.607205306 57.209234933 71.926687826 65.10811392 57.559593869 
71.674849043 66.577147568 57.880581966 71.383093819 68.029040665 58.004563776 71.073714149 69.447653523 58.108399309 
70.767297269 70.802096281 57.911113415 70.504890582 72.098272886 57.735149086 68.928341923 72.115350443 57.557718526 
67.500569175 72.704679832 57.015615872 66.926566114 71.575008045 57.469797083 66.810746986 70.315376343 57.892711869 
66.889208698 68.903695058 58.150382792 67.104752481 67.417875837 58.272215151 67.367364769 65.959137832 58.109742067 
67.241349514 77.100385556 53.246955166 66.803473138 77.921641689 51.629944417 66.370289119 78.494231848 50.053733759 
66.333268742 78.882540747 48.372567262 66.328761432 79.126454617 46.923604387 66.193100281 79.273744937 45.693093616 
65.668581906 79.236797067 44.506108654 62.448546683 76.645646694 49.797572854 63.462750872 76.593901725 50.963331819 
64.296489958 76.385710342 52.26256267 65.201407723 76.025274399 53.338457216 64.826914914 78.634605041 45.192395645 
64.281535293 78.181068459 46.156811948 63.768036779 77.787258166 47.358933167 63.21364715 77.307502181 48.697670794 
67.968982336 71.380104005 57.741710676 68.093510479 70.327179851 57.946893176 68.293854047 69.019201936 58.184971179 
68.540045134 67.585803678 58.213002438 68.804454097 66.146135215 58.09061376 69.086264065 64.710241931 57.786216322 
69.338592582 63.380257875 57.361772875 70.697213884 63.450957962 57.363787619 65.192315823 79.820497998 40.511306647 
64.762890345 79.59781551 39.602735682 64.236059033 79.205932982 38.487166532 63.688727629 78.787929019 37.402258601 
64.976991927 77.480721276 33.013218826 63.923813063 77.644272522 33.882558342 62.964219388 72.870424468 26.820500876 
62.696820205 74.49238139 28.234922483 63.085888951 75.703663792 29.767875394 63.005780796 76.454226856 31.441398795 
63.186047613 77.042185925 32.769218471 64.668955706 76.374610059 30.231226567 63.251125623 78.42265203 36.528766764 
66.781848772 61.416613447 26.354536789 67.621981059 60.402158519 26.902921503 68.348252173 59.289914787 27.627092773 
69.081195487 58.241769788 28.445532148 69.854774212 57.411781253 29.199954092 70.277469084 56.636731316 30.132721991 
70.572655089 55.881806768 31.160359516 70.730843225 55.118811423 32.142905067 70.674771146 54.373072749 33.015070294 
70.194970847 53.662571718 33.734009145 70.717027519 52.682550635 34.840695629 69.612839795 52.91006623 34.486905474 
71.576676251 52.230453037 35.524510829 72.310013091 51.738569853 36.515767545 72.923245772 51.125949455 37.644525744 
73.353777725 50.543439249 38.902868688 73.572642376 49.817435707 40.458857918 74.252988104 49.581604696 42.023519014 
74.647068313 49.590716151 43.412015536 74.523058588 49.623463304 44.796081886 74.138241554 49.841356249 46.422133971 
73.709378917 49.146466699 43.53857907 73.132274272 49.023622916 42.628113273 72.37420503 49.186320201 41.452558508 
71.570824241 49.357274503 40.428334585 71.008580119 49.768378511 39.391735651 70.506239103 50.201354636 38.280959654 
70.012127995 50.806019406 37.213970351 69.597584153 51.434814985 36.210739911 68.50228652 54.616549264 32.408042572 
69.140848078 53.986027045 33.261308767 68.065008769 55.396620293 31.410696324 67.772310805 56.283361731 30.312014411 
67.722076697 57.466646617 29.111348291 67.0020164 58.665759157 28.026704601 66.438663671 59.807917551 27.264309779 
66.052692852 60.684717746 26.737759976 64.414983428 72.069818573 26.022113421 68.876774446 57.049611411 29.483212993 
69.062839303 56.379889877 30.28461597 69.327328086 55.667680257 31.245675872 69.587423183 54.975585739 32.13813357 
69.800807233 54.435769149 32.800205753 71.697021411 50.629835094 37.945973075 71.208120066 51.196944397 36.905915619 
72.129479432 50.157912189 39.032774883 72.435332535 49.752838144 39.946200316 65.403057459 78.865536803 45.896973674 
65.221652011 78.621659852 46.793894954 65.400450297 77.246246371 51.692966761 64.641992484 77.676574612 49.953649195 
65.9154387 76.859441142 52.804067853 70.495739959 64.889165606 57.729944934 70.2418492 66.345712569 58.016032238 
69.961207159 67.793927193 58.09504732 69.670596217 69.231109895 58.099047715 69.363574479 70.621870909 57.914923696 
69.357959568 52.121149684 35.309433584 70.253358492 52.143997328 35.351532544 70.673454206 51.716842953 35.987264271 
64.174118852 77.126643521 32.423599025 64.369806231 76.801258567 31.470889421 64.100616972 75.383405784 28.969330516 
64.150104825 74.722736281 28.032738274 64.415304824 73.715300565 27.097939996 64.901839247 72.919901236 26.527901702 
64.984077108 78.26058367 48.086062443 74.88160156 53.927653155 51.300577561 63.931287555 78.35531188 35.690245855 

POLYGONS 1060 4236
OFFSETS vtktypeint64
0 4 8 12 16 20 24 28 32 
36 40 44 48 52 56 60 64 68 
72 76 80 84 88 92 96 100 104 
108 112 116 120 124 128 132 136 140 
144 148 152 156 160 164 168 172 176 
180 184 188 192 196 200 204 208 212 
216 220 224 228 232 236 240 244 248 
252 256 260 264 268 272 276 280 284 
288 292 296 300 304 308 312 316 320 
324 328 332 336 340 344 348 352 356 
360 364 368 372 376 380 384 388 392 
396 400 404 408 412 416 420 424 428 
432 436 440 444 448 452 456 460 464 
468 472 476 480 484 488 492 496 500 
504 508 512 516 520 524 528 532 536 
540 544 548 552 556 560 564 568 572 
576 580 584 588 592 596 600 604 608 
612 616 620 624 628 632 636 640 644 
648 652 656 660 664 668 672 676 680 
684 688 692 696 700 704 708 712 716 
720 724 728 732 736 740 744 748 752 
756 760 764 768 772 776 780 784 788 
792 796 800 804 808 812 816 820 824 
828 832 836 840 844 848 852 856 860 
864 868 872 876 880 884 888 892 896 
900 904 908 912 916 920 924 928 932 
936 940 944 948 952 956 960 964 968 
972 976 980 984 988 992 996 1000 1004 
1008 1012 1016 1020 1024 1028 1032 1036 1040 
1044 1048 1052 1056 1060 1064 1068 1072 1076 
1080 1084 1088 1092 1096 1100 1104 1108 1112 
1116 1120 1124 1128 1132 1136 1140 1144 1148 
1152 1156 1160 1164 1168 1172 1176 1180 1184 
1188 1192 1196 1200 1204 1208 1212 1216 1220 
1224 1228 1232 1236 1240 1244 1248 1252 1256 
1260 1264 1268 1272 1276 1280 1284 1288 1292 
1296 1300 1304 1308 1312 1316 1320 1324 1328 
1332 1336 1340 1344 1348 1352 1356 1360 1364 
1368 1372 1376 1380 1384 1388 1392 1396 1400 
1404 1408 1412 1416 1420 1424 1428 1432 1436 
1440 1444 1448 1452 1456 1460 1464 1468 1472 
1476 1480 1484 1488 1492 1496 1500 1504 1508 
1512 1516 1520 1524 1528 1532 1536 1540 1544 
1548 1552 1556 1560 1564 1568 1572 1576 1580 
1584 1588 1592 1596 1600 1604 1608 1612 1616 
1620 1624 1628 1632 1636 1640 1644 1648 1652 
1656 1660 1664 1668 1672 1676 1680 1684 1688 
1692 1696 1700 1704 1708 1712 1716 1720 1724 
1728 1732 1736 1740 1744 1748 1752 1756 1760 
1764 1768 1772 1776 1780 1784 1788 1792 1796 
1800 1804 1808 1812 1816 1820 1824 1828 1832 
1836 1840 1844 1848 1852 1856 1860 1864 1868 
1872 1876 1880 1884 1888 1892 1896 1900 1904 
1908 1912 1916 1920 1924 1928 1932 1936 1940 
1944 1948 1952 1956 1960 1964 1968 1972 1976 
1980 1984 1988 1992 1996 2000 2004 2008 2012 
2016 2020 2024 2028 2032 2036 2040 2044 2048 
2052 2056 2060 2064 2068 2072 2076 2080 2084 
2088 2092 2096 2100 2104 2108 2112 2116 2120 
2124 2128 2132 2136 2140 2144 2148 2152 2156 
2160 2164 2168 2172 2176 2180 2184 2188 2192 
2196 2200 2204 2208 2212 2216 2220 2224 2228 
2232 2236 2240 2244 2248 2252 2256 2260 2264 
2268 2272 2276 2280 2284 2288 2292 2296 2300 
2304 2308 2312 2316 2320 2324 2328 2332 2336 
2340 2344 2348 2352 2356 2360 2364 2368 2372 
2376 2380 2384 2388 2392 2396 2400 2404 2408 
2412 2416 2420 2424 2428 2432 2436 2440 2444 
2448 2452 2456 2460 2464 2468 2472 2476 2480 
2484 2488 2492 2496 2500 2504 2508 2512 2516 
2520 2524 2528 2532 2536 2540 2544 2548 2552 
2556 2560 2564 2568 2572 2576 2580 2584 2588 
2592 2596 2600 2604 2608 2612 2616 2620 2624 
2628 2632 2636 2640 2644 2648 2652 2656 2660 
2664 2668 2672 2676 2680 2684 2688 2692 2696 
2700 2704 2708 2712 2716 2720 2724 2728 2732 
2736 2740 2744 2748 2752 2756 2760 2764 2768 
2772 2776 2780 2784 2788 2792 2796 2800 2804 
2808 2812 2816 2820 2824 2828 2832 2836 2840 
2844 2848 2852 2856 2860 2864 2868 2872 2876 
2880 2884 2888 2892 2896 2900 2904 2908 2912 
2916 2920 2924 2928 2932 2936 2940 2944 2948 
2952 2956 2960 2964 2968 2972 2976 2980 2984 
2988 2992 2996 3000 3004 3008 3012 3016 3020 
3024 3028 3032 3036 3040 3044 3048 3052 3056 
3060 3064 3068 3072 3076 3080 3084 3088 3092 
3096 3100 3104 3108 3112 3116 3120 3124 3128 
3132 3136 3140 3144 3148 3152 3156 3160 3164 
3168 3172 3176 3180 3184 3188 3192 3196 3200 
3204 3208 3212 3216 3220 3224 3228 3232 3236 
3240 3244 3248 3252 3256 3260 3264 3268 3272 
3276 3280 3284 3288 3292 3296 3300 3304 3308 
3312 3316 3320 3324 3328 3332 3336 3340 3344 
3348 3352 3356 3360 3364 3368 3372 3376 3380 
3384 3388 3392 3396 3400 3404 3408 3412 3416 
3420 3424 3428 3432 3436 3440 3444 3448 3452 
3456 3460 3464 3468 3472 3476 3480 3484 3488 
3492 3496 3500 3504 3508 3512 3516 3520 3524 
3528 3532 3536 3540 3544 3548 3552 3556 3560 
3564 3568 3572 3576 3580 3584 3588 3592 3596 
3600 3604 3608 3612 3616 3620 3624 3628 3632 
3636 3640 3644 3648 3652 3656 3660 3664 3668 
3672 3676 3680 3684 3688 3692 3696 3700 3704 
3708 3712 3716 3720 3724 3728 3732 3736 3740 
3744 3748 3752 3756 3760 3764 3768 3772 3776 
3780 3784 3788 3792 3796 3800 3804 3808 3812 
3816 3820 3824 3828 3832 3836 3840 3844 3848 
3852 3856 3860 3864 3868 3872 3876 3880 3884 
3888 3892 3896 3900 3904 3908 3912 3916 3920 
3924 3928 3932 3936 3940 3944 3948 3952 3956 
3960 3964 3968 3972 3976 3980 3984 3988 3992 
3996 4000 4004 4008 4012 4016 4020 4024 4028 
4032 4036 4040 4044 4048 4052 4056 4060 4064 
4068 4072 4076 4080 4084 4088 4092 4096 4100 
4104 4108 4112 4116 4120 4124 4128 4132 4136 
4140 4144 4148 4152 4156 4160 4164 4168 4172 
4176 4180 4184 4188 4192 4196 4200 4204 4208 
4212 4216 4220 4224 4228 4232 4236 
CONNECTIVITY vtktypeint64
0 1 2 3 1 4 5 2 4 
6 7 5 6 8 9 7 8 10 
11 9 10 12 13 11 12 14 15 
13 14 16 17 15 16 18 19 17 
18 20 21 19 20 22 23 21 22 
24 25 23 24 26 27 25 26 28 
29 27 28 30 31 29 30 32 33 
31 32 34 35 33 34 36 37 35 
36 38 39 37 38 40 41 39 40 
42 43 41 42 44 45 43 44 46 
47 45 46 48 49 47 48 50 51 
49 50 52 53 51 52 54 55 53 
54 56 57 55 56 58 59 57 58 
60 61 59 60 62 63 61 62 64 
65 63 64 66 67 65 66 68 69 
67 68 70 71 69 70 72 73 71 
72 74 75 73 74 76 77 75 76 
78 79 77 78 80 81 79 80 82 
83 81 82 84 85 83 84 86 87 
85 86 88 89 87 88 90 91 89 
90 92 93 91 92 94 95 93 94 
96 97 95 96 98 99 97 98 100 
101 99 100 102 103 101 102 104 105 
103 104 106 107 105 106 108 109 107 
108 110 111 109 110 0 3 111 112 
113 114 115 113 116 117 114 116 118 
119 117 118 120 121 119 120 122 123 
121 122 124 125 123 124 126 127 125 
126 128 129 127 128 130 131 129 130 
132 133 131 132 134 135 133 134 136 
137 135 136 138 139 137 138 140 141 
139 140 142 143 141 142 144 145 143 
144 146 147 145 146 148 149 147 148 
150 151 149 150 152 153 151 152 154 
155 153 154 156 157 155 156 158 159 
157 158 160 161 159 160 162 163 161 
162 164 165 163 164 166 167 165 166 
168 169 167 168 170 171 169 170 172 
173 171 172 174 175 173 174 176 177 
175 176 178 179 177 178 180 181 179 
180 182 183 181 182 184 185 183 184 
186 187 185 186 188 189 187 188 190 
191 189 190 192 193 191 192 194 195 
193 194 196 197 195 196 198 199 197 
198 200 201 199 200 202 203 201 202 
204 205 203 204 206 207 205 206 208 
209 207 208 210 211 209 210 212 213 
211 212 214 215 213 214 216 217 215 
216 218 219 217 218 220 221 219 220 
222 223 221 222 224 225 223 224 226 
227 225 226 112 115 227 2 5 228 
229 5 7 230 228 7 9 231 230 
9 11 232 231 11 13 233 232 13 
15 234 233 15 17 235 234 17 19 
236 235 19 21 237 236 21 23 238 
237 23 25 239 238 25 27 240 239 
27 29 241 240 29 31 242 241 31 
33 243 242 33 35 244 243 35 37 
245 244 37 39 246 245 39 41 247 
246 41 43 248 247 43 45 249 248 
45 47 250 249 47 49 251 250 49 
51 252 251 51 53 253 252 53 55 
254 253 55 57 255 254 57 59 256 
255 59 61 257 256 61 63 258 257 
63 65 259 258 65 67 260 259 67 
69 261 260 69 71 262 261 71 73 
263 262 73 75 264 263 75 77 265 
264 77 79 266 265 79 81 267 266 
81 83 268 267 83 85 269 268 85 
87 270 269 87 89 271 270 89 91 
272 271 91 93 273 272 93 95 274 
273 95 97 275 274 97 99 276 275 
99 101 277 276 101 103 278 277 103 
105 279 278 105 107 280 279 107 109 
281 280 109 111 282 281 111 3 283 
282 3 2 229 283 114 117 284 285 
117 119 286 284 119 121 287 286 121 
123 288 287 123 125 289 288 125 127 
290 289 127 129 291 290 129 131 292 
291 131 133 293 292 133 135 294 293 
135 137 295 294 137 139 296 295 139 
141 297 296 141 143 298 297 143 145 
299 298 145 147 300 299 147 149 301 
300 149 151 302 301 151 153 303 302 
153 155 304 303 155 157 305 304 157 
159 306 305 159 161 307 306 161 163 
308 307 163 165 309 308 165 167 310 
309 167 169 311 310 169 171 312 311 
171 173 313 312 173 175 314 313 175 
177 315 314 177 179 316 315 179 181 
317 316 181 183 318 317 183 185 319 
318 185 187 320 319 187 189 321 320 
189 191 322 321 191 193 323 322 193 
195 324 323 195 197 325 324 197 199 
326 325 199 201 327 326 201 203 328 
327 203 205 329 328 205 207 330 329 
207 209 331 330 209 211 332 331 211 
213 333 332 213 215 334 333 215 217 
335 334 217 219 336 335 219 221 337 
336 221 223 338 337 223 225 339 338 
225 227 340 339 227 115 341 340 115 
114 285 341 228 230 342 343 230 231 
344 342 231 232 345 344 232 233 346 
345 233 234 347 346 234 235 348 347 
235 236 349 348 236 237 350 349 237 
238 351 350 238 239 352 351 239 240 
353 352 240 241 354 353 241 242 355 
354 242 243 356 355 243 244 357 356 
244 245 358 357 245 246 359 358 246 
247 360 359 247 248 361 360 248 249 
362 361 250 251 363 364 251 252 365 
363 252 253 366 365 253 254 367 366 
254 255 368 367 255 256 369 368 256 
257 370 369 257 258 371 370 258 259 
372 371 259 260 373 372 260 261 374 
373 261 262 375 374 262 263 376 375 
263 264 377 376 264 265 378 377 265 
266 379 378 266 267 380 379 267 268 
381 380 268 269 382 381 269 270 383 
382 270 271 384 383 272 273 385 386 
273 274 387 385 274 275 388 387 275 
276 389 388 276 277 390 389 277 278 
391 390 278 279 392 391 279 280 393 
392 280 281 394 393 281 282 395 394 
282 283 396 395 283 229 397 396 229 
228 343 397 249 250 364 398 362 249 
398 399 271 272 386 400 384 271 400 
401 284 286 402 403 286 287 404 402 
287 288 405 404 288 289 406 405 289 
290 407 406 290 291 408 407 291 292 
409 408 292 293 410 409 293 294 411 
410 294 295 412 411 295 296 413 412 
296 297 414 413 297 298 415 414 298 
299 416 415 299 300 417 416 300 301 
418 417 301 302 419 418 302 303 420 
419 303 304 421 420 304 305 422 421 
305 306 423 422 306 307 424 423 307 
308 425 424 308 309 426 425 309 310 
427 426 310 311 428 427 311 312 429 
428 312 313 430 429 313 314 431 430 
314 315 432 431 315 316 433 432 316 
317 434 433 317 318 435 434 318 319 
436 435 319 320 437 436 320 321 438 
437 321 322 439 438 322 323 440 439 
323 324 441 440 324 325 442 441 325 
326 443 442 326 327 444 443 327 328 
445 444 328 329 446 445 329 330 447 
446 330 331 448 447 331 332 449 448 
332 333 450 449 333 334 451 450 334 
335 452 451 335 336 453 452 336 337 
454 453 337 338 455 454 338 339 456 
455 339 340 457 456 340 341 458 457 
341 285 459 458 285 284 403 459 401 
400 460 461 400 386 462 460 386 385 
463 462 385 387 464 463 387 388 465 
464 388 389 466 465 389 390 467 466 
390 391 468 467 391 392 469 468 392 
393 470 469 393 394 471 470 394 395 
472 471 395 396 473 472 396 397 474 
473 397 343 475 474 343 342 476 475 
342 344 477 476 344 345 478 477 345 
346 479 478 346 347 480 479 347 348 
481 480 348 349 482 481 349 350 483 
482 350 351 484 483 351 352 485 484 
352 353 486 485 353 354 487 486 354 
355 488 487 355 356 489 488 356 357 
490 489 357 358 491 490 358 359 492 
491 359 360 493 492 360 361 494 493 
361 362 495 494 362 399 496 495 399 
497 498 496 399 398 499 497 398 364 
500 499 364 363 501 500 363 365 502 
501 365 366 503 502 366 367 504 503 
367 368 505 504 368 369 506 505 369 
370 507 506 370 371 508 507 371 372 
509 508 372 373 510 509 373 374 511 
510 374 375 512 511 375 376 513 512 
376 377 514 513 377 378 515 514 378 
379 516 515 379 380 517 516 380 381 
518 517 381 382 519 518 382 383 520 
519 383 384 521 520 384 401 522 521 
401 461 523 522 461 524 525 523 461 
460 526 524 402 404 527 528 404 405 
529 527 405 406 530 529 406 407 531 
530 407 408 532 531 408 409 533 532 
409 410 534 533 410 411 535 534 411 
412 536 535 412 413 537 536 413 414 
538 537 414 415 539 538 415 416 540 
539 416 417 541 540 417 418 542 541 
419 420 543 544 420 421 545 543 421 
422 546 545 422 423 547 546 423 424 
548 547 424 425 549 548 425 426 550 
549 426 427 551 550 427 428 552 551 
428 429 553 552 429 430 554 553 430 
431 555 554 431 432 556 555 432 433 
557 556 433 434 558 557 434 435 559 
558 435 436 560 559 436 437 561 560 
437 438 562 561 438 439 563 562 439 
440 564 563 440 441 565 564 441 442 
566 565 442 443 567 566 443 444 568 
567 444 445 569 568 445 446 570 569 
446 447 571 570 447 448 572 571 448 
449 573 572 449 450 574 573 450 451 
575 574 451 452 576 575 452 453 577 
576 453 454 578 577 454 455 579 578 
455 456 580 579 456 457 581 580 457 
458 582 581 458 459 583 582 459 403 
584 583 403 402 528 584 418 419 544 
585 542 418 585 586 460 462 587 526 
462 463 588 587 463 464 589 588 464 
465 590 589 465 466 591 590 466 467 
592 591 467 468 593 592 468 469 594 
593 469 470 595 594 470 471 596 595 
471 472 597 596 473 474 598 599 474 
475 600 598 475 476 601 600 476 477 
602 601 477 478 603 602 478 479 604 
603 479 480 605 604 480 481 606 605 
481 482 607 606 482 483 608 607 483 
484 609 608 484 485 610 609 485 486 
611 610 486 487 612 611 487 488 613 
612 488 489 614 613 489 490 615 614 
490 491 616 615 491 492 617 616 492 
493 618 617 493 494 619 618 494 495 
620 619 495 496 621 620 496 498 622 
621 498 623 624 622 498 497 625 623 
497 499 626 625 499 500 627 626 500 
501 628 627 501 502 629 628 502 503 
630 629 503 504 631 630 504 505 632 
631 505 506 633 632 506 507 634 633 
507 508 635 634 508 509 636 635 509 
510 637 636 510 511 638 637 511 512 
639 638 512 513 640 639 513 514 641 
640 514 515 642 641 515 516 643 642 
516 517 644 643 517 518 645 644 518 
519 646 645 519 520 647 646 520 521 
648 647 521 522 649 648 522 523 650 
649 523 525 651 650 525 652 653 651 
525 524 654 652 524 526 587 654 472 
473 599 655 597 472 655 656 586 585 
657 658 585 544 659 657 544 543 660 
659 543 545 661 660 545 546 662 661 
546 547 663 662 547 548 664 663 548 
549 665 664 549 550 666 665 550 551 
667 666 551 552 668 667 552 553 669 
668 553 554 670 669 554 555 671 670 
555 556 672 671 556 557 673 672 557 
558 674 673 558 559 675 674 559 560 
676 675 560 561 677 676 561 562 678 
677 562 563 679 678 563 564 680 679 
564 565 681 680 565 566 682 681 566 
567 683 682 567 568 684 683 568 569 
685 684 569 570 686 685 570 571 687 
686 571 572 688 687 572 573 689 688 
573 574 690 689 574 575 691 690 575 
576 692 691 576 577 693 692 577 578 
694 693 578 579 695 694 579 580 696 
695 580 581 697 696 581 582 698 697 
582 583 699 698 583 584 700 699 584 
528 701 700 528 527 702 701 527 529 
703 702 529 530 704 703 530 531 705 
704 531 532 706 705 532 533 707 706 
533 534 708 707 534 535 709 708 535 
536 710 709 536 537 711 710 537 538 
712 711 538 539 713 712 539 540 714 
713 540 541 715 714 541 542 716 715 
542 586 717 716 586 658 718 717 658 
719 720 718 658 657 721 719 587 588 
722 654 588 589 723 722 589 590 724 
723 590 591 725 724 591 592 726 725 
592 593 727 726 593 594 728 727 594 
595 729 728 595 596 730 729 596 597 
731 730 597 656 732 731 656 733 734 
732 656 655 735 733 655 599 736 735 
599 598 737 736 598 600 738 737 600 
601 739 738 601 602 740 739 602 603 
741 740 603 604 742 741 604 605 743 
742 605 606 744 743 606 607 745 744 
608 609 746 747 609 610 748 746 610 
611 749 748 611 612 750 749 612 613 
751 750 613 614 752 751 614 615 753 
752 615 616 754 753 617 618 755 756 
618 619 620 755 607 608 747 757 745 
607 757 758 616 617 756 759 754 616 
759 760 621 622 761 762 622 624 763 
761 624 764 765 763 624 623 766 764 
623 625 767 766 625 626 768 767 626 
627 628 768 628 629 769 768 629 630 
770 769 630 631 771 770 631 632 772 
771 632 633 773 772 633 634 774 773 
634 635 775 774 635 636 776 775 636 
637 777 776 637 638 778 777 638 639 
779 778 639 640 780 779 640 641 781 
780 641 642 782 781 642 643 783 782 
643 644 784 783 644 645 785 784 645 
646 786 785 646 647 648 786 648 649 
787 786 649 650 788 787 650 651 789 
788 651 653 790 789 653 791 792 790 
653 652 793 791 652 654 722 793 657 
659 794 721 659 660 795 794 660 661 
796 795 661 662 797 796 662 663 798 
797 663 664 799 798 664 665 800 799 
665 666 801 800 666 667 802 801 667 
668 803 802 668 669 804 803 669 670 
805 804 670 671 806 805 672 673 807 
808 673 674 809 807 674 675 810 809 
675 676 811 810 676 677 812 811 677 
678 813 812 678 679 814 813 679 680 
815 814 680 681 816 815 681 682 817 
816 682 683 818 817 683 684 819 818 
684 685 820 819 685 686 821 820 686 
687 822 821 687 688 823 822 688 689 
824 823 689 690 825 824 690 691 826 
825 691 692 827 826 692 693 828 827 
693 694 829 828 694 695 830 829 695 
696 831 830 696 697 832 831 697 698 
833 832 698 699 834 833 699 700 835 
834 700 701 836 835 701 702 837 836 
702 703 838 837 703 704 839 838 704 
705 840 839 705 706 841 840 706 707 
842 841 707 708 843 842 708 709 844 
843 709 710 845 844 710 711 846 845 
711 712 847 846 712 713 848 847 713 
714 849 848 714 715 850 849 715 716 
851 850 716 717 852 851 717 718 853 
852 718 720 854 853 720 855 856 854 
720 719 857 855 719 721 794 857 671 
672 808 858 806 671 858 859 768 769 
860 767 769 770 861 860 771 772 862 
863 772 773 864 862 773 774 865 864 
774 775 866 865 775 776 867 866 776 
777 868 867 777 778 869 868 778 779 
870 869 779 780 871 870 780 781 872 
871 781 782 873 872 782 783 874 873 
783 784 875 874 784 785 876 875 785 
786 787 877 876 785 877 878 722 723 
879 793 723 724 880 879 724 725 881 
880 725 726 882 881 726 727 883 882 
727 728 884 883 728 729 885 884 729 
730 886 885 730 731 887 886 731 732 
888 887 732 734 889 888 734 890 891 
889 734 733 892 890 733 735 893 892 
735 736 894 893 736 737 895 894 737 
738 896 895 738 739 897 896 739 740 
741 897 741 742 898 897 742 743 899 
898 743 744 900 899 744 745 901 900 
745 758 902 901 758 903 904 902 758 
757 905 903 757 747 906 905 747 746 
907 906 746 748 908 907 748 749 909 
908 621 762 755 620 762 761 910 911 
761 763 912 910 765 764 913 914 764 
766 915 913 766 767 860 915 794 795 
916 857 795 796 917 916 796 797 918 
917 797 798 919 918 798 799 920 919 
799 800 921 920 800 801 922 921 801 
802 891 922 802 803 923 891 803 804 
924 923 804 805 925 924 805 806 926 
925 808 807 927 928 807 809 929 927 
809 810 930 929 810 811 931 930 811 
812 932 931 812 813 933 932 813 814 
934 933 814 815 935 934 815 816 936 
935 816 817 937 936 817 818 938 937 
819 820 939 940 820 821 941 939 821 
822 942 941 822 823 943 942 823 824 
944 943 824 825 945 944 825 826 946 
945 827 828 947 948 828 829 949 947 
829 830 950 949 830 831 951 950 831 
832 952 951 832 833 953 952 833 834 
954 953 834 835 913 954 835 836 914 
913 818 819 940 955 938 818 955 956 
770 771 863 957 861 770 957 958 826 
827 948 959 946 826 959 960 836 837 
961 914 837 838 962 961 838 839 963 
962 839 840 964 963 840 841 965 964 
841 842 966 965 842 843 967 966 843 
844 968 967 844 845 969 968 845 846 
970 969 846 847 971 970 847 848 972 
971 848 849 973 972 849 850 974 973 
850 851 975 974 851 852 976 975 852 
853 977 976 853 854 978 977 854 856 
904 978 856 979 902 904 751 752 980 
981 752 753 982 980 753 754 983 982 
754 760 984 983 760 985 986 984 760 
759 987 985 759 756 911 987 756 755 
762 911 962 963 910 912 963 964 911 
910 964 965 987 911 965 966 985 987 
966 967 986 985 929 930 988 989 930 
931 990 988 931 932 991 990 932 933 
992 991 933 934 993 992 934 935 994 
993 935 936 995 994 956 878 877 996 
967 968 997 986 968 969 998 997 969 
970 999 998 970 971 1000 999 971 972 
1001 1000 972 973 1002 1001 973 974 1003 
1002 975 976 1003 974 976 977 1004 1003 
977 978 1005 1004 978 904 903 1005 903 
905 1006 1005 905 906 1007 1006 906 907 
1008 1007 907 908 1009 1008 908 909 1010 
1009 909 751 981 1010 749 750 751 909 
857 916 1011 855 916 917 1012 1011 917 
918 1013 1012 918 919 1014 1013 919 920 
1015 1014 920 921 1016 1015 921 922 1017 
1016 922 891 890 1017 897 898 1018 896 
898 899 1019 1018 899 900 1020 1019 900 
901 1021 1020 901 902 979 1021 890 892 
1022 1017 892 893 1023 1022 893 894 1024 
1023 894 895 1025 1024 895 896 1018 1025 
1005 1006 1026 1004 1006 1007 1027 1026 1007 
1008 1028 1027 1008 1009 1029 1028 1009 1010 
1030 1029 1010 981 1031 1030 981 980 1032 
1031 982 983 1032 980 983 984 1033 1032 
984 986 997 1033 891 923 1034 889 923 
924 1035 1034 924 925 1036 1035 925 926 
1037 1036 859 858 1038 1039 793 879 1040 
791 879 880 1041 1040 880 881 1042 1041 
881 882 1043 1042 882 883 1044 1043 883 
884 1039 1044 927 929 989 1045 885 886 
1037 1046 956 955 1047 878 955 940 1048 
1047 940 939 1049 1048 939 941 1050 1049 
941 942 1051 1050 942 943 1052 1051 943 
944 1053 1052 944 945 1054 1053 945 946 
1055 1054 946 960 1056 1055 960 1057 1058 
1056 960 959 1059 1057 959 948 1060 1059 
948 947 1061 1060 947 949 1062 1061 949 
950 1063 1062 950 951 1064 1063 951 952 
1065 1064 952 953 1066 1065 953 954 1067 
1066 954 913 915 1067 886 887 1036 1037 
887 888 1035 1036 888 889 1034 1035 860 
861 1067 915 861 958 1066 1067 787 788 
996 877 1066 958 1068 1065 958 957 1069 
1068 957 863 1070 1069 863 862 1071 1070 
862 864 1072 1071 864 865 1073 1072 865 
866 1074 1073 866 867 1075 1074 869 870 
1076 1077 870 871 1078 1076 871 872 1079 
1078 872 873 1080 1079 873 874 1081 1080 
874 875 1082 1081 875 876 1083 1082 876 
878 1047 1083 788 789 995 996 789 790 
994 995 790 792 993 994 792 1084 992 
993 1047 1048 1082 1083 1048 1049 1081 1082 
1049 1050 1080 1081 1050 1051 1085 1080 1051 
1052 1086 1085 1052 1053 1087 1086 1053 1054 
1088 1087 1054 1055 1089 1088 1055 1056 1077 
1089 1056 1058 869 1077 1065 1068 1069 1064 
1060 1061 1090 1091 1061 1062 1092 1090 1062 
1063 1093 1092 1063 1064 1069 1070 792 791 
1040 1084 856 855 1011 979 1070 1071 1093 
1063 1017 1022 1094 1016 1022 1023 1095 1094 
1019 1020 1096 1097 1020 1021 1098 1096 1021 
979 1011 1098 1071 1072 1092 1093 1072 1073 
1090 1092 1073 1074 1091 1090 997 998 1099 
1033 998 999 1100 1099 999 1000 1101 1100 
1000 1001 1102 1101 1001 1002 1103 1102 1002 
1003 1004 1103 867 868 1104 1075 868 869 
1058 1104 1032 1033 1099 1031 1058 1057 1105 
1104 1074 1075 1106 1091 1075 1104 1105 1106 
1038 1107 1044 1039 1077 1076 1088 1089 1107 
1108 1043 1044 1076 1078 1087 1088 1043 1108 
1045 1042 1078 1079 1086 1087 1045 989 1109 
1042 989 988 1110 1109 988 990 1111 1110 
990 991 1112 1111 991 992 1084 1112 1080 
1085 1086 1079 1042 1109 1110 1041 1011 1012 
1096 1098 1012 1013 1097 1096 1004 1026 1027 
1103 1013 1014 1113 1097 1027 1028 1102 1103 
1016 1094 1095 1015 1028 1029 1101 1102 1100 
1101 1029 1030 1030 1031 1099 1100 858 808 
928 1038 1045 1108 928 927 1108 1107 1038 
928 912 763 765 1114 1114 765 914 961 
962 912 1114 961 995 936 937 938 938 
956 996 995 1113 1014 1015 1095 1023 1024 
1113 1095 1025 1018 1019 1097 1113 1024 1025 
1097 1037 926 1115 1046 926 806 859 1115 
1115 859 1039 884 1046 1115 884 885 1110 
1111 1040 1041 1111 1112 1084 1040 1059 1060 
1091 1106 1059 1106 1105 1057 
CELL_DATA 1059
FIELD FieldData 6
Stress_X 1 1059 double
-0.039209768176 -0.020157955587 -0.010223486461 -0.0015483311145 0.0032729865052 0.0070451195352 0.012244732119 0.017524430528 0.015411319211 
0.011573906057 0.0099549666047 0.0097104078159 0.0088386619464 0.014666648582 0.016005560756 0.0095520662144 0.0037894456182 -0.001109889592 
-0.0046842568554 -0.00405569328 -0.0004888746771 0.0022407183424 0.0060427500866 0.01121460367 0.012931153178 0.014050892554 0.013065001927 
0.0073541305028 0.002769659739 -0.0026040442754 -0.0084796296433 -0.011073406786 -0.012253688648 -0.01222899463 -0.0070411595516 -0.0013866978697 
0.00058539991733 0.002734573558 0.0077166976407 0.015170433559 0.029722448438 0.041084434837 0.042623437941 0.039185199887 0.042231794447 
0.043164081872 0.036935299635 0.026353269815 0.017353991047 0.014853115194 0.016018146649 0.016029693186 0.0095559898764 -0.0057407333516 
-0.021333983168 -0.040824778378 0.02628162317 0.011572581716 0.0033255398739 -0.0041928752325 -0.011812737212 -0.018609257415 -0.024075899273 
-0.02463304624 -0.022598970681 -0.017749419436 -0.011721868068 -0.0069492841139 -0.00094238622114 0.0044246134348 0.010677582584 0.018798273057 
0.027182267979 0.037347126752 0.036236792803 0.026185374707 0.023524096236 0.017844622955 0.0098287733272 0.0018484477187 0.00070830824552 
0.0085137039423 0.011836709455 0.012387719937 0.010746574029 0.0025857156143 0.0031574016903 0.0017463568365 0.012437094934 0.018804587424 
0.02498883009 0.025743545964 0.026894800365 0.023438382894 0.024285169318 0.022311693057 0.019883362576 0.016979912296 0.015019548126 
0.013358565979 0.0090133668855 0.0049260188825 0.00045372941531 -0.0055556911975 -0.0094246594235 -0.013427735306 -0.0082607790828 0.0046622818336 
0.020171720535 0.03415229544 0.055341701955 0.055566314608 0.041373550892 0.034509029239 -0.014175468124 -0.0041876058094 0.0024985270575 
0.0074573629536 0.0098452977836 0.010934418999 0.01886491105 0.022258479148 0.017569713295 0.014915699139 0.014012073167 0.016371557489 
0.020972026512 0.02356560342 0.021414000541 0.015482449904 0.0080285463482 0.0018706031842 -0.0022661860567 -0.0015141596086 0.0011780505301 
0.0029502368998 0.0081601571292 0.010116523132 0.011105803773 0.00707289204 4.908203482e-05 -0.0046860864386 -0.0078531438485 -0.0090827448294 
-0.008427833207 -0.0071544372477 -0.0022105432581 0.0057078972459 0.010357945226 0.013326361775 0.018207797781 0.026593158022 0.035707511008 
0.046491928399 0.050367154181 0.044545538723 0.039065286517 0.033137641847 0.027883017436 0.023986440152 0.022589465603 0.020421603695 
0.021658977494 0.023887261748 0.025848953053 0.021267535165 0.0062701841816 -0.0076989787631 -0.018938006833 -0.020466724411 0.01619707793 
0.012878923677 0.0092249084264 -0.00018525321502 -0.0085999947041 -0.013692195527 -0.015804994851 -0.011475768872 -0.0068634082563 0.00040546766832 
0.004959478043 0.0066437763162 0.009383299388 0.011886220425 0.016495324671 0.020782392472 0.027444589883 0.033106021583 0.030694305897 
0.028958011419 0.025911802426 0.018176181242 0.0077948803082 0.0049090320244 0.0099426181987 0.015642739832 0.018189035356 0.012890381739 
0.0086395302787 0.0043970192783 0.0047196540982 0.0096425823867 0.017504321411 0.018996322528 0.02394698374 0.025539880618 0.024740466848 
0.023183256388 0.019560791552 0.012647993863 0.011042280123 0.012199553661 0.01243153587 0.011792306788 0.0066619082354 0.001896730857 
0.0017269679811 -1.0211697372e-05 0.00019972409063 0.0081860413775 0.020375424996 0.03790314123 0.052691254765 0.063409201801 0.044943682849 
0.031825184822 0.032977700233 0.027176005766 -0.0007741220179 0.0056107006967 0.0094637880102 0.010652964003 0.011730881408 0.016440415755 
0.020632617176 0.018903231248 0.01712054573 0.01756805554 0.019016249105 0.024971259758 0.027483228594 0.027400102466 0.022503942251 
0.016280129552 0.01066105254 0.0060859089717 0.0042091198266 0.0060486635193 0.00635458529 0.0083033265546 0.0075405393727 0.0033565603662 
-0.0011497879168 -0.0052686431445 -0.0068630524911 -0.0057113631628 -0.0021607875824 0.0016124404501 0.0071540363133 0.014410406351 0.019272221252 
0.022521940991 0.028291409835 0.035410150886 0.04343027249 0.048277579248 0.048187885433 0.04249753803 0.036492973566 0.021298406646 
0.017989948392 0.017842400819 0.018055412918 0.021044781432 0.021979341283 0.025017414242 0.024719381705 0.014411990531 0.0039529306814 
-0.0057574412785 -0.0096650486812 -0.0072432952002 0.0050452444702 0.0069885333069 0.027117148042 0.029119221494 0.015569561161 0.01349779591 
0.0061469897628 -0.0015697211493 -0.007519565057 -0.0092038549483 -0.0063834874891 0.0025557209738 0.0079225655645 0.010151605122 0.010105796158 
0.012473418377 0.012160271406 0.014027502388 0.015871824697 0.019884586334 0.024340540171 0.028022790328 0.029274526983 0.028524022549 
0.023685080931 0.013000913896 0.0084073655307 0.014771860093 0.020419465378 0.022154202685 0.018684050068 0.013396881521 0.01085106656 
0.0087240645662 0.012504091486 0.017217552289 0.02035811916 0.024443682283 0.02517349273 0.023419369012 0.020436644554 0.016152808443 
0.010739366524 0.0095848338678 0.011393168941 0.013913840987 0.013498412445 0.0091128954664 0.0070808036253 0.0080634718761 0.0061435280368 
0.0091988863423 0.0172800906 0.029030220583 0.041890159249 0.044613145292 0.038870252669 0.030220139772 0.026114528999 0.026184301823 
0.022336099297 0.016651889309 0.022667223588 0.018533417955 0.014099366963 0.012119545601 0.016017407179 0.020374506712 0.024078359827 
0.02543451637 0.026162099093 0.026297369972 0.024701742455 0.015411415137 0.0037604661193 -0.0056244726293 -0.0018490676302 0.0032711580861 
0.0089794052765 0.011319489218 0.012277605012 0.012264331803 0.014562806115 0.016761502251 0.016097018495 0.01601475291 0.017087662593 
0.019414102659 0.02492762357 0.031291563064 0.031368367374 0.02831261605 0.022842241451 0.018677324057 0.015532017685 0.012831102125 
0.012663978152 0.012716600671 0.011908277869 0.0093391695991 0.006507536862 0.0049971472472 0.003520270111 0.0037216984201 0.0014003677061 
-0.00030285483808 -0.0030585043132 -0.0026972817723 0.00063225667691 0.0054974188097 0.010278001428 0.016503864899 0.022481704131 0.027301894501 
0.033005394042 0.037933740765 0.042730394751 0.047649811953 0.05043111369 0.048458505422 0.042471263558 0.036612071097 0.030437510461 
0.024335432798 0.016496857628 0.015988396481 0.015471296385 0.011651542038 0.0060088005848 0.0017310283147 0.00042061592103 0.0017093475908 
0.0079270880669 0.016773479059 0.015699956566 0.014779140241 0.014464754611 0.014023649506 0.011379179545 0.011535621248 0.012384374626 
0.024631682783 0.027549834922 0.029286857694 0.026156906039 0.017003856599 0.013361986727 0.018931668252 0.02269377932 0.025302235037 
0.022688187659 0.018912959844 0.015748841688 0.014664779417 0.016828300431 0.020045295358 0.021372618154 0.024066507816 0.022305199876 
0.01963772811 0.017688576132 0.013833385892 0.01058713533 0.010390024632 0.012407079339 0.015066071413 0.015248403884 0.012679594569 
0.013529093005 0.013767781667 0.013376425952 0.016581330448 0.024881327525 0.035188969225 0.039513926953 0.034608762711 0.024295728654 
0.018315372989 0.019662432373 0.020942352712 0.018768811598 0.015413527377 0.016003925353 0.019426515326 0.014876127243 0.01239443291 
0.0085108224303 0.008810129948 0.014830351807 0.021422177553 0.027410179377 0.028475359082 0.027392672375 0.027226742357 0.027973236516 
0.028293402866 -0.0013103939127 0.0031058103777 0.0069169434719 0.010114344768 0.014118280262 0.013802937232 0.013171737082 0.013564824127 
0.013056536205 0.013373262249 0.01354677137 0.015115427785 0.018229490146 0.023339115083 0.030225168914 0.034070167691 0.032393518835 
0.029020357877 0.024499773979 0.021878883243 0.018501328304 0.016899745911 0.017268195748 0.015573078766 0.013982096687 0.011081507429 
0.0084035312757 0.0054623135366 0.0012699651998 0.0017204487231 0.0024765369017 0.0021658674814 2.5343395464e-05 -0.00044750040979 0.0021381266415 
0.0067711072043 0.013073586859 0.01928371191 0.02507965453 0.029106896371 0.033163961023 0.039999563247 0.044695157558 0.047091331333 
0.049331847578 0.049407403916 0.047068957239 0.042079798877 0.036204647273 0.0317424573 0.023952951655 0.016850454733 0.010537262075 
0.0093948505819 0.0081317890435 0.004735102877 0.01873967424 0.013499851339 0.018028128892 0.02138267085 0.025120332837 0.027127880603 
0.026689257473 0.020234556869 0.018743570894 0.022449787706 0.025670399889 0.02730811201 0.025868138298 0.023412050679 0.021609324962 
0.020671512932 0.022219073027 0.023069379851 0.022375496104 0.021396864206 0.017321590334 0.016900798306 0.015152237378 0.012364623137 
0.011339810677 0.011895545758 0.013917773962 0.016785580665 0.017297158018 0.017433412373 0.019735725597 0.021151781082 0.021345507354 
0.024071533233 0.030514415354 0.037901863456 0.036780778319 0.029472412542 0.019664920866 0.012604475953 0.015312335454 0.016891177744 
0.014844332822 0.013287126087 0.01520088315 0.015791321173 0.014513247646 0.012822745368 0.011678612791 0.011895313859 0.012144539505 
0.015159862116 0.019729025662 0.020632095635 0.017517419532 0.016516895965 0.01381203346 0.010302376002 0.0092798219994 0.0087859611958 
0.0089814746752 0.011178424582 0.01280810032 0.011615210213 0.0063011478633 0.0077197761275 0.012909855694 0.021001918241 0.027477856725 
0.029797811061 0.029459973797 0.028002498671 0.028622759506 0.032436452806 0.032295379788 0.026531847194 0.01462384779 0.0063116392121 
0.0046952553093 0.0083008063957 0.0088919103146 0.012803692371 0.015242430381 0.014992498793 0.014682980254 0.012953664176 0.012674162164 
0.011706770398 0.012488569133 0.016933344305 0.021762141958 0.026712488383 0.033517632633 0.035034507513 0.033184580505 0.023846615106 
0.020391633734 0.012128362432 0.012418146245 0.028196850792 0.03183965385 0.019576784223 0.01669882983 0.014327867888 0.011519481428 
0.0078229336068 0.0048801153898 0.0011157642584 0.00092799554113 0.0029040009249 0.00053782004397 0.00097131222719 0.0030707314145 0.0069885542616 
0.012660226785 0.019637262449 0.02679431811 0.032432015985 0.033598817885 0.035142838955 0.042270157486 0.046803083271 0.047719307244 
0.04725728929 0.04463358596 0.040828797966 0.038482196629 0.031455021352 0.025156112388 0.017187971622 0.012004461139 0.0069493288174 
0.0063509070314 0.0060510067269 0.016621077433 0.019916579127 0.022278420627 0.025251654908 0.026120580733 0.022580748424 0.022829765454 
0.026284368709 0.027769153938 0.029302343726 0.02805053629 0.026694750413 0.026465667412 0.025899318978 0.024726584554 0.021543579176 
0.01750372909 0.014028901234 0.015232191421 0.012953720987 0.011865771376 0.012339064851 0.013357286341 0.015351236798 0.018480043858 
0.020962612703 0.023207563907 0.026755835861 0.028743900359 0.029725870118 0.031278084964 0.034822955728 0.038934785873 0.036457456648 
0.028436142951 0.01861759834 0.010463875718 0.010796555318 0.013170501217 0.011750350706 0.011121725664 0.014647445641 0.015508960932 
0.016513248906 0.016953805462 0.019191229716 0.020979020745 0.021780639887 0.022198863328 0.02291501686 0.021989295259 0.019135762006 
0.016929011792 0.014327961951 0.011557321064 0.0090267658234 0.0078901648521 0.0092435805127 0.008737844415 0.011632034555 0.013335608877 
0.013223164715 0.014411861077 0.026539742947 0.028317388147 0.001623534481 0.0029441569932 0.003761166241 0.0075768525712 0.011905778199 
0.017650878057 0.024516731501 0.032335381955 0.035856638104 0.035402007401 0.036796368659 0.042158965021 0.04638787359 0.045865993947 
0.044116772711 0.039431683719 0.033434722573 0.032796222717 0.0056521627121 0.011276877485 0.018823636696 0.026205070317 0.030933005735 
0.031196605414 0.030036272481 0.029912086204 0.030616791919 0.03314819932 0.03049945645 0.029778217897 0.026728928089 0.017857337371 
0.0104637146 0.01073610317 0.01139257662 0.013297960162 0.016087103635 0.015858322382 0.015953851864 0.014216432348 0.012828201987 
0.012767888606 0.012762993574 0.013433436863 0.01129912585 0.010930367745 0.011116576381 0.015343015082 0.020325554535 0.022330656648 
0.019112762064 0.012762762606 0.0084498561919 0.0055090319365 0.017656190321 0.020132111385 0.023231133819 0.025052102283 0.023729648441 
0.025695817545 0.028967574239 0.029130030423 0.029310131446 0.02905889228 0.028576767072 0.029666680843 0.027676220983 0.024320330471 
0.019336514175 0.014252604917 0.012323134579 0.012649388984 0.011491428129 0.011524418369 0.013002856635 0.014186911285 0.016575658694 
0.026425357908 0.030036747456 0.033687546849 0.035538613796 0.036246560514 0.03663591668 0.03755139187 0.035460237414 0.027375323698 
0.016451586038 0.0099041210487 0.0077157351188 0.0090652853251 0.0077336891554 0.008763439022 0.013071195222 0.022894510999 0.020166253671 
0.0011207973585 -0.00052924558986 0.039972782135 0.04116126895 0.016008777544 0.017770046368 0.01932040602 0.022613180801 0.024770855904 
0.026049980894 0.02566155605 0.025133116171 0.023496704176 0.020134853199 0.01774652116 0.015191257 0.012566528283 0.01075267233 
0.0076891719364 0.0098904846236 0.010335317813 0.01040721871 0.012372250669 0.013336895034 0.030775876716 0.034686967731 0.035110607743 
0.035001844168 0.032972346991 0.031958002597 0.027213536203 0.024045340717 0.02047085762 0.022692188621 0.026593573391 0.028977712616 
0.02996115014 0.016894936562 0.013179795817 0.011619818397 0.010138427839 0.0098908850923 0.010354411788 0.01368239522 0.025834076107 
0.02843252942 0.025415640324 0.021559879184 0.0185566172 0.015200732276 0.013224975206 0.011176018976 0.0082243420184 0.009770671837 
0.011912582442 0.012630699202 0.012868382037 0.010615396313 0.010524588637 0.012779984623 0.015519926324 0.024144522846 0.023103371263 
0.015874112025 0.01836838387 0.020942687988 0.022874558344 0.023398216814 0.026404162869 0.031029634178 0.030412379652 0.017465658486 
0.016615433618 0.015940561891 0.014292586595 0.013648315333 0.028602022678 0.020437447354 0.015382082202 0.01479863096 0.015815595165 
0.0099852057174 0.010267121717 0.012649732642 0.013363503851 0.016835708171 0.023261601105 0.028968520463 0.033715222031 0.032648812979 
0.031540047377 0.029006341472 0.02768121846 0.030357642099 0.030885057524 0.031755577773 0.0052435286343 0.010278970003 0.0170316156 
0.025148188695 0.030761804432 0.032700449228 0.022427467629 0.031126923859 0.026642309502 0.029267579317 0.032528415322 0.036423210055 
0.039022069424 0.04103653878 0.041011434048 0.040609538555 0.04057238996 0.041031103581 0.042233660817 0.042994800955 0.039335105568 
0.032596118748 0.024373270571 0.014577215537 0.0086209271103 0.0077774161473 0.0036692998838 0.003944858443 0.0062038567849 0.03150722757 
0.030146360397 0.029857378453 0.0020409969147 0.0028439161833 0.024910006672 0.0014855104964 0.0022246839944 0.0042800069787 0.0077301734127 
0.010777661577 0.0161160063 0.021752914414 0.028644982725 0.038837462664 0.039507694542 0.04243067652 0.044643104076 0.044354520738 
0.041140023619 0.036681190133 0.032193880528 0.019320329651 0.012947753072 0.0092657972127 0.0080800130963 0.033830970526 0.037947040051 
0.041158307344 0.043052498251 0.043676871806 0.042845226824 0.041972335428 0.042053110898 0.042215835303 0.039281286299 0.0031831706874 
0.029291940853 0.021830001846 0.014687013812 0.007894480601 0.006868169643 0.014516740106 0.00904840976 0.029163552448 0.023383378983 
0.017014900222 0.015797806904 0.015006540343 0.013907507062 0.019315170124 0.02555726096 0.027165453881 0.022318162024 0.018428025767 
0.01539805904 0.012817152776 0.011243198998 0.035411253572 0.038647647947 0.028239009902 0.041783489287 0.031815756112 0.037549383938 
0.032237961888 0.042350873351 0.030610976741 0.041566602886 0.02547737211 0.04273160547 0.019929429516 0.015737459064 0.012324531563 
0.011440591887 0.0073937727138 0.043309740722 0.015805495903 0.016290647909 0.019508982077 0.011036613025 0.020964298397 0.013150228187 
0.026310201734 0.014844992198 0.017890449613 0.02264036797 0.029891701415 0.027614492923 0.03081939742 0.016800265759 0.015837570652 
0.018230382353 0.015814058483 0.019546665251 0.021091256291 0.019029418007 0.019550625235 0.018431544304 0.032132867724 0.031274374574 
0.032611735165 0.031613733619 0.011350904591 0.0073385569267 0.03540892154 0.040755447 
Stress_Y 1 1059 double
-0.023886715993 -0.013091039844 -0.0057918583043 -0.0011785445968 0.0023876314517 0.0082475095987 0.012243696488 0.019361559302 0.031783159822 
0.035254586488 0.0296730306 0.021158155054 0.015845606104 0.012716436759 0.0067406236194 0.0033344291151 0.0048093325458 0.0093908021227 
0.01224467624 0.015948655084 0.019474286586 0.022396191955 0.023142674938 0.024787230417 0.024654125795 0.02614819631 0.023630429059 
0.011661904864 0.00083019142039 -0.0067673209123 -0.011900365353 -0.01180764474 -0.013357556425 -0.019145989791 -0.018504725769 -0.0131919384 
-0.013302375562 -0.011613689363 -0.0080071073025 0.00014438133803 0.013814354315 0.026790894568 0.041279576719 0.057376228273 0.071151949465 
0.075970210135 0.06944181025 0.052444916219 0.035034224391 0.02479916811 0.016247225925 0.010133131407 0.0052613420412 -0.00037489540409 
-0.0087664844468 -0.024214001372 0.020781261846 0.013771240599 0.01175975427 0.0074193282053 0.0026560600381 0.0019759132992 -0.0012886193581 
-0.002356211422 -0.002092987299 0.0036050989293 0.0096605867147 0.017226140946 0.023348247632 0.030177237466 0.03756236285 0.045857027173 
0.056088272482 0.058127008379 0.043802436441 0.019977526739 0.0072249509394 -0.0033238960896 -0.01434040349 -0.019577544183 -0.018492234871 
-0.012305072509 -0.0088122952729 -0.007799460087 -0.012563070282 -0.023815097287 -0.027537034824 -0.022840393707 0.0023239310831 -0.0035909509752 
0.010778871365 0.026865197346 0.041155330837 0.04537620768 0.041980758309 0.03500443697 0.034851890057 0.033923022449 0.030662421137 
0.025871004909 0.019043054432 0.011840772815 0.0063176783733 0.00061444373569 0.00077003851766 -0.00074299512198 -0.00026907256688 0.003521084087 
0.0067614009604 0.0077907890081 0.019388347864 0.019574794918 0.014712105505 0.019636286423 0.015468724072 0.015402458608 0.014878555201 
0.017364310101 0.021033456549 0.026131916791 0.040348384529 0.0511652641 0.054173182696 0.051802579314 0.045875273645 0.040320709348 
0.034940939397 0.033043455333 0.034837789834 0.039172194898 0.039767190814 0.040394630283 0.039571426809 0.040436908603 0.039358448237 
0.032278470695 0.02543528378 0.018607128412 0.01809627004 0.018174748868 0.014133888297 0.011665334925 0.011780026369 0.013489342295 
0.015499940142 0.017148546875 0.019951982424 0.02153166756 0.021628987044 0.025675812736 0.032085273415 0.039907541126 0.046321868896 
0.053441025317 0.060565643013 0.063985966146 0.066359683871 0.067979671061 0.071159243584 0.072609573603 0.07061688602 0.059904851019 
0.04767549783 0.036365419626 0.026779217646 0.02047300525 0.01617237553 0.016149964184 0.018176889047 0.018527304754 0.01679049246 
0.022125424817 0.025481525809 0.025213917717 0.023846611381 0.02431259118 0.025405293331 0.031709399074 0.040599647909 0.052706576884 
0.060061026365 0.060534521937 0.060749202967 0.062362466007 0.063075698912 0.058633849025 0.048249602318 0.036508060992 0.02587524429 
0.020481420681 0.017852460966 0.015604460612 0.013202339411 0.01236965321 0.013012171723 0.013852687553 0.017224060372 0.019050212577 
0.021175436676 0.01885628514 0.017329040915 0.015675418079 0.025992099196 0.030261835083 0.039343558252 0.046342499554 0.051097143441 
0.054093547165 0.055594787002 0.053916625679 0.054742787033 0.057028371841 0.056652773172 0.053057722747 0.04505468905 0.037284310907 
0.034760762006 0.030583895743 0.026290252805 0.022617887706 0.01735605672 0.013639607467 0.0062923217192 0.0069323261268 0.0044432491995 
0.0011296566809 0.011112657376 0.015823824331 0.016244661063 0.01782008633 0.021377777681 0.026127753779 0.033864568919 0.045400243253 
0.055218484253 0.05938058719 0.059625621885 0.057896833867 0.054633859545 0.05504783988 0.055364228785 0.056350953877 0.053388055414 
0.050738751888 0.047827251256 0.046165179461 0.044765811414 0.041386544704 0.02628736943 0.023296033964 0.020426796749 0.01570886001 
0.011601995677 0.009574576281 0.0099874781445 0.011920335703 0.014910040423 0.017590239644 0.02107938379 0.027336254716 0.032852940261 
0.036114159971 0.040767420083 0.047261755913 0.054790683091 0.060635183007 0.064658850431 0.065027318895 0.063307330012 0.073020063341 
0.074549630284 0.071455724537 0.061724446714 0.050089102238 0.036264240742 0.026383668184 0.019102100283 0.013654824346 0.012808379717 
0.012025608681 0.012581643648 0.014384849928 0.030546076596 0.033539548516 0.067820116878 0.058346580714 0.021228855476 0.024241931736 
0.023854255676 0.023464748636 0.023374281824 0.027144344524 0.037005845457 0.05254548043 0.06624571979 0.072979301214 0.072267435491 
0.071235820651 0.067402295768 0.061693754047 0.052904874086 0.043786216527 0.035568404943 0.027053553611 0.020852401853 0.016734298319 
0.013387444429 0.0092381956056 0.0071954512969 0.0090676341206 0.0099581927061 0.012461994775 0.015335318632 0.017076561227 0.019113274291 
0.020446140319 0.026695983484 0.033090796322 0.040006458759 0.046917859465 0.051075696945 0.054568763822 0.059968929738 0.0653982535 
0.069790929556 0.071876399219 0.074337594211 0.076603911817 0.073313526809 0.063502676785 0.05260976404 0.043188408017 0.032851830125 
0.025392916054 0.02024831064 0.01531668473 0.011009101756 0.0049158046022 0.0082487445325 0.014855645597 0.0090639377013 0.011481130496 
0.013964544982 0.015958866104 0.054331351072 0.057374995202 0.06406994909 0.065629653633 0.063464529812 0.05670864135 0.047624964267 
0.036603234708 0.026845276356 0.018525371328 0.013084057719 0.01345853135 0.012820579112 0.011669258587 0.016205787659 0.018751261756 
0.021824155003 0.024165859446 0.029184088111 0.036242511123 0.047638919204 0.056683197618 0.060135215521 0.061346568167 0.061575759202 
0.06319873035 0.066548958421 0.069621011615 0.066492930055 0.061433341354 0.056589704007 0.055142659694 0.052661489695 0.04905488342 
0.043262649328 0.038096614182 0.032021000981 0.028239510953 0.024472313002 0.022683117539 0.019262984395 0.017342949286 0.012812241912 
0.010120552965 0.0088097425178 0.010454547592 0.013789502904 0.017807589844 0.021720677614 0.02728982456 0.034427385777 0.042370211333 
0.048694457859 0.052478060126 0.055911984295 0.060313344002 0.065441064537 0.066980682313 0.063457161188 0.058542259037 0.05520953238 
0.054690867662 0.055537711829 0.0542053096 0.022060707211 0.022608872503 0.023299954832 0.025876240805 0.032123278826 0.042911160737 
0.057947788388 0.07658354938 0.08090942353 0.075266629457 0.069066040218 0.063609264791 0.055439129472 0.047844748944 0.040575794876 
0.025556949899 0.020506959409 0.017277557403 0.014115325175 0.0097830034792 0.008208623156 0.0095959920436 0.010009398684 0.013460266404 
0.015393054113 0.016999389976 0.019481128082 0.022817501798 0.02984864451 0.03621404618 0.041154928505 0.048093486577 0.051730003208 
0.056711029261 0.062873773277 0.068577103317 0.073976702988 0.078898541629 0.083146549761 0.086062386632 0.083294011652 0.073538601398 
0.063322819769 0.051340103149 0.039593864232 0.029947217554 0.023678001016 0.018081549555 0.010899530724 0.0052442383021 0.0076704220846 
0.014828149229 0.01122139208 0.0096922023222 0.011586149223 0.014917486347 0.019812984392 0.030066726729 0.03505686298 0.053754232824 
0.053455989808 0.051328923553 0.047899153084 0.042566630989 0.038918957114 0.031517889351 0.024186391383 0.018522428349 0.012854842469 
0.01116257906 0.012274811044 0.016752328724 0.020033342764 0.022136827931 0.026169274002 0.030523968861 0.037542648613 0.047063235193 
0.053068481386 0.056447297335 0.058616667986 0.060900833458 0.064245954156 0.069081231952 0.071290262043 0.069111973047 0.06425665319 
0.061670258641 0.059405829757 0.055890075862 0.050848159939 0.046321719885 0.041931528598 0.035990305245 0.03054975532 0.026507688686 
0.024087611586 0.020243324339 0.017089499161 0.016456553712 0.015416427515 0.013345190324 0.0098904166371 0.0090064639226 0.011160620488 
0.014560555108 0.019543247297 0.02510082908 0.031153734773 0.037346802652 0.045056581497 0.05325878039 0.05803989619 0.060183938593 
0.062668465078 0.064539290965 0.065389417112 0.06269197911 0.058119229972 0.056914657354 0.056329857558 0.058711990714 0.058589804918 
0.0569264777 0.05360738188 0.011085300706 0.0089152622968 0.032650314271 0.030301894993 0.025268901139 0.021467750892 0.018071418628 
0.015288415365 0.011292748153 0.0099570322782 0.0099698137492 0.010034967214 0.012407423928 0.014486013912 0.016124499962 0.018576448783 
0.02239253372 0.030007136986 0.034533724189 0.039129894227 0.046295564622 0.052041716874 0.057100374252 0.062292918563 0.067596055567 
0.073951758444 0.079497270286 0.083954825997 0.087460651994 0.085380770266 0.076782882214 0.068040937185 0.057510677725 0.045462980866 
0.0348989591 0.025309609249 0.019659567624 0.011146155186 0.0052734119818 0.0080325044692 0.012520320714 0.012088205665 0.010060209781 
0.010655896738 0.014197628014 0.0186541453 0.021039094776 0.022374657914 0.025963179767 0.031599227339 0.040004141629 0.051186274737 
0.065192319453 0.079691745341 0.084260635078 0.075959146023 0.068030759692 0.059997178614 0.053469952196 0.048807092011 0.041543960571 
0.038101304322 0.036899805069 0.035733249038 0.029585555196 0.052178602666 0.0477386415 0.040455460548 0.03374279663 0.030419338495 
0.026622433215 0.022080369294 0.01798739098 0.014448467642 0.01221157331 0.009576536715 0.0065290774219 0.0079372357577 0.012249369174 
0.014065380208 0.017809728161 0.019520739093 0.022588877007 0.026404323056 0.030136929825 0.036575566977 0.043310031295 0.048525568098 
0.052596643567 0.056730147451 0.06138798967 0.065098270774 0.068025827408 0.067258402705 0.065532632172 0.064661249518 0.055298302323 
0.049614179879 0.050142325461 0.045681200922 0.061668839306 0.067051239312 0.04100196436 0.034228794277 0.02820542641 0.025216180831 
0.020906409249 0.01882718876 0.016832586378 0.015219404362 0.014840560034 0.011428808793 0.0085793351755 0.0092888958752 0.012038674206 
0.01606927067 0.021273821592 0.027335006744 0.035292696208 0.039877861738 0.044349398464 0.052360404283 0.057600531727 0.060625083745 
0.063360966742 0.064805202186 0.06305385381 0.060701910406 0.059830542654 0.062093518674 0.060755614191 0.059503506869 0.054893411696 
0.055735338479 0.055972196162 0.028618471697 0.02662442252 0.023238403723 0.020602645352 0.017447607592 0.012770625763 0.011206964962 
0.010707342066 0.0097799273208 0.012540193275 0.014335953631 0.015204728581 0.01642868109 0.027016120031 0.031624063849 0.03717571497 
0.045320115983 0.051148239523 0.056524995714 0.060199119151 0.064660556614 0.071020580828 0.076512001455 0.078713402152 0.081114724278 
0.080722764134 0.075179360807 0.069113306701 0.060411449522 0.050729557872 0.040666829795 0.029627082869 0.021301448345 0.013471696526 
0.0084342835471 0.011217322201 0.012275470421 0.011455298401 0.01082757581 0.011101800017 0.013881114312 0.018937461078 0.021036071703 
0.025302475318 0.03103354387 0.040122229606 0.051024019718 0.062664419413 0.073947891593 0.083863630891 0.08538223058 0.077781997621 
0.069268889725 0.061341382563 0.054570179433 0.048240821809 0.044858779758 0.043476540595 0.042695090175 0.039918407798 0.034784577787 
0.033234935254 0.031242830679 0.022577472031 0.01896257326 0.015654014423 0.016313126311 0.0072621013969 0.0096189910546 0.012750430033 
0.016961317509 0.022778602317 0.02944274433 0.034827854484 0.040473245084 0.044114861637 0.050188090652 0.056496169418 0.059749308974 
0.063151195645 0.064588218927 0.065113499761 0.065026558936 0.051438208669 0.042838778347 0.033409330994 0.027893364429 0.0255183056 
0.020912744105 0.017961924896 0.014971162193 0.013275272213 0.014038380235 0.0095506096259 0.0085311401635 0.0083438418806 0.012934030034 
0.013946431689 0.016147896647 0.0188185554 0.020868841559 0.02624100633 0.02871225588 0.034946128726 0.040285859257 0.042192198336 
0.040408886969 0.037736270577 0.041121494025 0.042709123343 0.04589631781 0.050527617335 0.05716720596 0.046005696058 0.04559821263 
0.035973995924 0.023684477434 0.020228933543 0.018468286842 0.028819940984 0.025439489633 0.022935343906 0.019471686333 0.01495711226 
0.012794306502 0.012011408806 0.0097492113709 0.011356542818 0.013783971779 0.013525584713 0.01559714321 0.026261875406 0.030410179868 
0.036610234529 0.045184150338 0.050133418292 0.053624466062 0.057576488703 0.06215306744 0.068149119616 0.073024600744 0.07406603545 
0.074327148497 0.07123374939 0.066409915686 0.059174828231 0.05136070773 0.043617993593 0.035984251648 0.01519421488 0.011308602057 
0.012176753022 0.014033005573 0.013327891938 0.011950877495 0.01037922781 0.014586237259 0.019719153643 0.074054829776 0.071906767786 
0.0098624285311 0.0079915001988 0.022249463946 0.030851265416 0.024555858225 0.029505502433 0.036135844886 0.045695517212 0.0556403175 
0.066571317613 0.075096167624 0.082902260125 0.084842391312 0.078851893544 0.071987472475 0.065105862916 0.05825394392 0.053329218179 
0.049300186336 0.049164649099 0.046537112445 0.041886959225 0.036131601781 0.034501921386 0.066862158477 0.067494556308 0.068532370031 
0.072854667902 0.077428869903 0.07086712122 0.060643021017 0.051975436509 0.03728826344 0.046146608889 0.057533286512 0.068734325469 
0.077389396727 0.036739751697 0.044476903975 0.049190942198 0.051986340433 0.055201262236 0.059282351285 0.066542379558 0.067551955581 
0.082688562572 0.083006545901 0.07944855839 0.073985755444 0.0677690804 0.062229957432 0.056461028755 0.052069183439 0.050133045763 
0.043181173503 0.038563556969 0.040668155998 0.042453490198 0.045111052692 0.051890544593 0.057260788977 0.063049197197 0.063375748694 
0.030711837113 0.028668044135 0.026522098109 0.022402003407 0.017166815698 0.013780314475 0.013944473118 0.010484880768 0.027397561818 
0.031603392214 0.037068773061 0.037733383477 0.03631496802 0.012384762056 0.014217033982 0.015460433438 0.018366891891 0.022345196456 
0.043623346835 0.046016968787 0.051168613136 0.056254424155 0.062808327377 0.068202212453 0.070924006402 0.071444652975 0.076012529433 
0.08085861057 0.010660373606 0.010688499548 0.013365700841 0.014439735562 0.021769765764 0.050896350294 0.043636452407 0.03434637934 
0.027885623276 0.025032466277 0.022010099143 0.031064357609 0.015151578002 0.067772932351 0.069849990308 0.06935402751 0.067338831723 
0.062760405242 0.057271692902 0.051560901105 0.0465371795 0.041925419122 0.038622733206 0.036144196987 0.029680904001 0.02339198254 
0.016679419205 0.012709841132 0.011689951643 0.012538105249 0.01396043878 0.010743207298 0.011913416907 0.015216061845 0.014586615376 
0.013186465017 0.012725517154 0.012515375391 0.011732785031 0.065012425184 0.0094582885504 0.010586841963 0.0094251157716 0.0091984570026 
0.0098326914012 0.013210370205 0.017193129286 0.022897858173 0.041355352849 0.045770067722 0.050025306642 0.055434335023 0.0602995269 
0.063632927835 0.065124586225 0.066507942975 0.067196592689 0.062174357474 0.056592594832 0.05140568316 0.066485285759 0.066146418452 
0.062948167324 0.059617135674 0.056764770299 0.051810342818 0.047968715429 0.045277275145 0.043467443436 0.039669506252 0.0087732588872 
0.0177128613 0.013549307361 0.011250568554 0.011319059879 0.051768731326 0.032402869314 0.0092791486531 0.015138893388 0.015766954049 
0.032900378108 0.034671161324 0.032734327018 0.010623775423 0.013553641737 0.01745663397 0.080635368824 0.0776495561 0.072807781398 
0.066842444241 0.06050426513 0.054830789566 0.029314111918 0.034808091819 0.07617893815 0.033893994987 0.022617164999 0.028790073469 
0.022790316492 0.045687764883 0.025091338903 0.048089038581 0.027814595029 0.050749652088 0.031410269439 0.037221670151 0.043249662966 
0.048656921834 0.048991464078 0.053949579597 0.036633189768 0.031301598996 0.029523588717 0.049721568823 0.024658584967 0.055856917053 
0.016537789255 0.062243070453 0.068395704031 0.073610052466 0.02301481925 0.027425961569 0.024776278064 0.03062720038 0.027981642634 
0.031889487058 0.071596831083 0.069082468748 0.01776516065 0.017114056274 0.028840996325 0.022225242108 0.01679700613 0.017758561298 
0.020112289116 0.017553618178 0.042427323759 0.045905712992 0.022901978344 0.029779205099 
Stress_Z 1 1059 double
0.0057710162364 0.0044541819952 0.0021629815456 0.0024148249067 0.0038337896112 0.0063244309276 0.011174231768 0.017691707239 0.022454753518 
0.016034372151 0.0088101653382 0.0043960157782 0.0014004101977 0.0050029573031 0.0013396209106 -0.007236585021 -0.011665325612 -0.01342092175 
-0.013297187164 -0.0077522126958 0.003274763003 0.016642099246 0.034790251404 0.054546549916 0.064971022308 0.063411928713 0.0461457856 
0.029301455244 0.017225274816 0.0077538527548 -0.00099003093783 -0.0068790926598 -0.016002040356 -0.01586314477 -0.0090835317969 -0.0078946389258 
-0.00622802414 -0.003472806653 0.00020674741245 0.0045366636477 0.010328698903 0.013585671782 0.014541187324 0.016053197905 0.022487537935 
0.028890058398 0.034962512553 0.033862791955 0.029542330652 0.027087304741 0.025728954002 0.023665212095 0.020180974156 0.015279903077 
0.011793777347 0.0074298209511 0.060096528381 0.032957613468 0.016878586262 0.0072807362303 0.00050322560128 -0.0069148070179 -0.011309842579 
-0.014005103149 -0.015108820051 -0.014112356119 -0.0099927820265 -0.0032077089418 0.0025216566864 0.0059891175479 0.0086183380336 0.013920865953 
0.02250245586 0.034663029015 0.040968611836 0.036479406059 0.033216487616 0.027920430526 0.018592528999 0.010441918857 0.0077264998108 
0.0071011018008 0.0083684530109 0.011091991328 0.013533239253 0.013071872294 0.014035589993 0.017045171931 0.021993687376 0.025122895837 
0.033486183733 0.036830991507 0.038053758442 0.036380093545 0.037540890276 0.030323436484 0.022065533325 0.018246116117 0.016790458933 
0.015112713911 0.010463022627 0.0045575974509 0.0021089205984 -0.0027407563757 -0.012283678167 -0.016412518919 -0.01386571303 -0.004716292955 
0.0090245632455 0.032326940447 0.066261142492 0.075180277228 0.064361579716 0.066607922316 0.042330816388 0.036626990885 0.0321896635 
0.030204422772 0.030002860352 0.029146941379 0.033042922616 0.033117700368 0.023104628548 0.016306722537 0.013375732116 0.012134884484 
0.010214680806 0.010663468391 0.014316141605 0.017764562741 0.019106244668 0.019972009584 0.020003488287 0.023867260665 0.031827893108 
0.038773104548 0.051194265485 0.063991226256 0.070561870933 0.065689258277 0.055621642619 0.049200586975 0.046130746603 0.043367873877 
0.039301116019 0.037373669446 0.036098219454 0.032454028726 0.026704147458 0.022392323241 0.020102353767 0.018327858299 0.013629488647 
0.010733642615 0.0095209507272 0.0077067608945 0.010712243617 0.016940709203 0.01970920153 0.021478358656 0.024653347209 0.028221420944 
0.034408997744 0.041374456137 0.046450141817 0.046867735684 0.044904109091 0.045535169542 0.051548797637 0.051190860569 0.054148513824 
0.045249477029 0.03675320372 0.028056841344 0.023450460285 0.022147201002 0.022315889597 0.023808749393 0.022276384756 0.021045908332 
0.017597619444 0.012885655276 0.009908337146 0.0086900144815 0.01174145937 0.015631292015 0.021286642179 0.026480626315 0.031096372753 
0.036567207426 0.040788762271 0.043479390442 0.04247899726 0.041499283165 0.044113360345 0.050015732646 0.054831117392 0.052311409265 
0.049266599119 0.045579891652 0.044077061117 0.040949985385 0.036923024803 0.029558621347 0.027361741289 0.026913227513 0.027957471088 
0.028004094958 0.023050429299 0.013409346342 0.011199117638 0.013518571854 0.016960578039 0.020543314517 0.019642697647 0.01917726174 
0.023335477337 0.026991883293 0.02834552899 0.030221169814 0.034542713314 0.046594943851 0.061150912195 0.077502630651 0.078348942101 
0.070557266474 0.065567575395 0.061297953129 0.050537485629 0.046661067754 0.044628657401 0.041358347982 0.03826303035 0.036250408739 
0.032916221768 0.023597223684 0.015509604476 0.010017736815 0.0063205030747 0.0075563392602 0.0082000587136 0.011272218078 0.013590017334 
0.015891104937 0.018773656338 0.021783772856 0.026388393715 0.034455299377 0.058227166533 0.069908745587 0.074388347566 0.071393445134 
0.066307589412 0.063736125827 0.063680283725 0.063432663679 0.060756374151 0.055937942117 0.050127342343 0.044419433922 0.0360401012 
0.026042731479 0.019737362862 0.015313074924 0.012522406876 0.0097287138924 0.0097869960591 0.010602048598 0.012127940543 0.021840214729 
0.024856870994 0.0273479186 0.032521877438 0.042397666723 0.051048953086 0.059609990567 0.060668189079 0.058616358787 0.062386643142 
0.067492984235 0.065805517137 0.0569040142 0.047318864614 0.04011471197 0.018123546615 0.013210124336 0.053999975324 0.045897819102 
0.035778913647 0.028295231983 0.02369267866 0.022887609899 0.022924397141 0.022213134915 0.016695784405 0.012489804998 0.0083927176893 
0.0070213992149 0.0058294688351 0.0098549406976 0.015883434564 0.023933511227 0.029153931886 0.036486536264 0.04338439554 0.048414062709 
0.051949258894 0.050821952522 0.051952470094 0.061289269477 0.071797080338 0.074567236006 0.070112794638 0.062582597136 0.05775026232 
0.053321175277 0.051302395761 0.043561104685 0.035020615906 0.028399258852 0.025491368026 0.025631843135 0.024690821767 0.019762283191 
0.013088620268 0.010720990598 0.012077302672 0.016426702961 0.019594453275 0.020846223459 0.023510698229 0.026721082628 0.029386011884 
0.033054370433 0.037445116788 0.042805042118 0.049943767488 0.058235071599 0.07344673574 0.081305377185 0.072710484266 0.066551849246 
0.063418403268 0.059473965317 0.012026374228 0.014549864456 0.018253147602 0.022885482758 0.029156548902 0.037256870419 0.046685151756 
0.056564044207 0.064175836742 0.067848153412 0.070524536073 0.074379980564 0.075174830854 0.070198096335 0.062844991684 0.057085376233 
0.054931744933 0.052264865488 0.048867978156 0.044076293707 0.040076319128 0.034468706697 0.024825012311 0.016621464863 0.011073696427 
0.007269829046 0.0069033573382 0.0096711730585 0.011406609789 0.0132128736 0.016165021807 0.020234189928 0.025412676856 0.030281594023 
0.035068746656 0.038348086178 0.040880549699 0.043055389076 0.049520231783 0.058716226369 0.065266638994 0.071437232196 0.072042360902 
0.071445547044 0.071524389088 0.073952205479 0.077201642096 0.077007375658 0.072632528841 0.065363913774 0.057678088546 0.048256590962 
0.037588298321 0.026940822601 0.019496282563 0.015058438294 0.013302633539 0.011735622771 0.01080056373 0.011015434749 0.010624891147 
0.010062762536 0.0095785800368 0.011077180505 0.053952079266 0.045055959374 0.035891998559 0.029488507658 0.02657434158 0.024820445105 
0.022985277697 0.021201010793 0.013814100064 0.0084096435457 0.0059931739233 0.0070209396072 0.0090130064636 0.015194907784 0.018801139668 
0.039548750967 0.047195691615 0.053731750697 0.057243585587 0.057622216642 0.062598727643 0.0739685148 0.084302201867 0.088240936399 
0.082716844976 0.074682824314 0.066719010472 0.062688939273 0.056523282081 0.047420226038 0.037136655301 0.031498190016 0.027730762959 
0.025368686765 0.022307746112 0.01585226506 0.010972053744 0.0097229508683 0.011111130007 0.015286787413 0.018745763227 0.021444592625 
0.026955639943 0.030081376433 0.032954953611 0.038123212755 0.045885208994 0.054314192384 0.062145341188 0.068968638778 0.077211663127 
0.079340495169 0.076219670475 0.072322167456 0.069550253451 0.066040359437 0.061142250896 0.030729359016 0.024426311255 0.012814176269 
0.016529224813 0.024838825688 0.033153623343 0.041013371199 0.050670489669 0.058928731829 0.06561166048 0.072512291372 0.078560248017 
0.082139730453 0.069565087557 0.063291236758 0.057258725166 0.05619969964 0.056772381067 0.054325912148 0.049481719732 0.043533593416 
0.034538436681 0.026355236769 0.018484011292 0.012744288892 0.0089854001999 0.0076838089153 0.0089350314811 0.010325272568 0.011396651156 
0.015822758898 0.020862197503 0.0266421251 0.030681613833 0.033910285681 0.037685673684 0.040201809257 0.043152559549 0.044001869857 
0.046232569963 0.048993118107 0.05367153883 0.060744285583 0.06678532809 0.072636522353 0.074207901955 0.074799053371 0.077653244138 
0.082003310323 0.084802463651 0.082707419991 0.075108252466 0.065023057163 0.055052440614 0.045298784971 0.035283178091 0.025559639558 
0.019073478878 0.015335716307 0.013892834075 0.011999784969 0.010370149277 0.010222857818 0.0084864934906 0.0095088602975 0.011919851415 
0.012670777738 0.011647853069 0.074080325663 0.079991996288 0.028355456889 0.035624317825 0.042183622718 0.050457619131 0.05737779662 
0.062196131796 0.064563073218 0.070812426507 0.082687370479 0.093545489013 0.095818065107 0.089939951897 0.08166154474 0.073328122497 
0.066148482263 0.058997392654 0.048294954002 0.03838808462 0.032119888812 0.028590798378 0.025165893137 0.019101385027 0.013074968942 
0.010366547853 0.0096105635166 0.010797731578 0.015008985996 0.017786864191 0.021885814145 0.028567021713 0.033843848854 0.038129165769 
0.044236592948 0.053805988282 0.064668521285 0.073584057391 0.077797271311 0.079036258161 0.076587639749 0.077120490372 0.078830353916 
0.076056987047 0.070400461555 0.064206406474 0.057253088802 0.049598287791 0.042218949646 0.035489484668 0.030581129715 0.025690404698 
0.021682854742 0.018728645518 0.014401142485 0.0082810176536 0.0064427773468 0.0066962912679 0.0086233355105 0.013020506129 0.015211093239 
0.019330365583 0.023915264755 0.029906487092 0.030037946999 0.01807824336 0.027413187549 0.036214902997 0.04340326786 0.050724476576 
0.058846525848 0.067503742874 0.073973499238 0.082270585001 0.089589245617 0.09026902914 0.090233750641 0.078867383301 0.074348069727 
0.068658091128 0.061332732439 0.05759043619 0.057422164828 0.057805962861 0.056673198938 0.053181581199 0.046357531101 0.039159256965 
0.019000982866 0.013566319831 0.01038131956 0.0084994370118 0.0076861316338 0.0082953041419 0.010436885059 0.016229458153 0.028736596927 
0.032228570431 0.025310646743 0.031204562634 0.024716544896 0.020253442228 0.039435401559 0.042265210301 0.045725528151 0.047790840268 
0.047113858163 0.048635296524 0.051827579737 0.056288897991 0.062709823251 0.067434839904 0.071755729616 0.07402433455 0.077555969357 
0.082763269544 0.087323315442 0.08707781136 0.080515474081 0.068863041699 0.055555831641 0.047822523862 0.039536844939 0.030709834769 
0.022950541228 0.017075110227 0.013624128886 0.011699495837 0.010035034269 0.0095685934648 0.0084105608985 0.010646379553 0.013130468316 
0.016421508044 0.019016476348 0.035724047571 0.043892007321 0.052302677184 0.0607865192 0.066840752959 0.069401659071 0.076239094138 
0.088476069272 0.098427012563 0.10149358958 0.095820955932 0.087716415524 0.078879825771 0.05697543174 0.047493420541 0.039128623903 
0.032903209329 0.028441185132 0.02394255437 0.016619332135 0.011831949465 0.010004045442 0.0093159032986 0.010410806164 0.01369123999 
0.017564617097 0.023627163842 0.031687337905 0.038405071944 0.044691149145 0.051165040582 0.061260335147 0.072097972035 0.0811868608 
0.082643158734 0.078627459705 0.071425139904 0.071785829961 0.076826669276 0.076541222632 0.069425657392 0.062718205154 0.055849540979 
0.050048030913 0.044174615294 0.03940872848 0.034795805812 0.029801137745 0.023443577811 0.018332507461 0.013281227089 0.0090428683907 
0.007030072622 0.0072834063321 0.0090697742999 0.010990696028 0.013850197196 0.019111096859 0.022299699485 0.026874884963 0.031042553484 
0.03380234912 0.036294654012 0.065737292171 0.072268329561 0.052714832127 0.057854235172 0.066679485142 0.071272343397 0.075830034912 
0.080969505012 0.08662763238 0.088618919253 0.08079238236 0.066199578345 0.053326141089 0.045864474028 0.03975141421 0.032202377915 
0.025336856022 0.019084554166 0.012717787176 0.014536021277 0.027060063556 0.036711387336 0.04247391969 0.049462288618 0.059103582054 
0.068177446723 0.076368279755 0.083106040955 0.089217700064 0.097707778215 0.096825689077 0.099494434893 0.094508431852 0.085961006582 
0.074826769531 0.067231565714 0.061772767454 0.058963678777 0.058566775173 0.057236723602 0.054996352643 0.049244809896 0.041167531163 
0.035098172724 0.030007297173 0.027309227735 0.021147685125 0.017233578488 0.012661254033 0.0097739677876 0.035722706467 0.037871841341 
0.040314961225 0.051883511245 0.053592134267 0.052725963295 0.043006230146 0.051899969578 0.062026873231 0.069769352674 0.073724903166 
0.081349812448 0.093309596181 0.1010819748 0.10256994516 0.099266283214 0.091470077634 0.084599472582 0.053800884634 0.045998897403 
0.039041116834 0.033670321107 0.028169449419 0.021648159251 0.015802631155 0.011841868982 0.010103821754 0.0090358695015 0.010097716935 
0.019739441574 0.026603681967 0.034479983151 0.041129563004 0.047385811806 0.054641269147 0.063923984766 0.083424128592 0.082660771906 
0.075078256428 0.070334933698 0.069462135434 0.073364280164 0.070908382535 0.062825970352 0.056768447161 0.015625353903 0.012204901315 
0.06394059211 0.057398620993 0.077399790287 0.07226895541 0.052824281156 0.047856234014 0.043178863823 0.039145682007 0.035335648805 
0.029882859439 0.022930411622 0.017315838486 0.01271578297 0.008934205398 0.0081009827554 0.0091050378978 0.011124838144 0.014005951583 
0.014871316962 0.019104253501 0.021701132879 0.023842025548 0.027280543 0.032699674368 0.008359612897 0.010748864152 0.014013654552 
0.017403844744 0.021294027567 0.026923654601 0.030182905495 0.033909004182 0.040656074882 0.037258706987 0.033480878919 0.028682887554 
0.023060860112 0.038664139807 0.033552478999 0.02750585787 0.021584033966 0.016400568187 0.011704975739 0.010667940602 0.012583114207 
0.017223767936 0.012097438797 0.009180710651 0.0089484062046 0.010064627044 0.012880034745 0.015515366569 0.016608797014 0.01858805865 
0.021761961281 0.025761766359 0.023520348594 0.019396610558 0.015814030543 0.012861925177 0.0087133385241 0.0083835702389 0.0096108615398 
0.04016276449 0.049755111337 0.061217233539 0.071156144142 0.077171690762 0.084516599774 0.09829954803 0.10323086381 0.060291349888 
0.05676465854 0.051574658602 0.043854556978 0.03779842332 0.099444165826 0.087208606303 0.075027108192 0.067276336253 0.063221186399 
0.017810357735 0.017612043768 0.015856923535 0.01125868503 0.0090424641967 0.0087778186426 0.0094282962382 0.01196045801 0.013390253298 
0.016135472804 0.099307976663 0.096483029425 0.093765005469 0.088606484234 0.069092303514 0.024083556607 0.033381067216 0.039746508002 
0.04837924242 0.058049432933 0.068364284933 0.045082628727 0.084053173661 0.014565274119 0.018198570237 0.022772261873 0.029351916164 
0.035776391625 0.04226783663 0.049134932458 0.05604287982 0.062830805779 0.068116039038 0.074516311288 0.078913979232 0.082552790642 
0.083778910339 0.080848738551 0.073231674731 0.068792000413 0.069526642561 0.06822642684 0.067045256495 0.062508508563 0.090655311942 
0.093824878335 0.099308498204 0.054869238287 0.063036575913 0.0099611394107 0.063943125308 0.063913553953 0.062583148479 0.066500373185 
0.069908067584 0.074560977519 0.079301670194 0.08419906348 0.063896089792 0.052440669388 0.044209554791 0.037590116262 0.03250740096 
0.02609333396 0.020760273561 0.01712083444 0.009896133095 0.0095291696489 0.01204726845 0.016470186412 0.020197872072 0.025615205988 
0.030934279785 0.036846533418 0.042640037835 0.048310864717 0.054770454764 0.060412418097 0.066539078951 0.07113751024 0.063822463155 
0.081911511719 0.077763102949 0.071915075183 0.067173674703 0.020478496328 0.035993531346 0.067067176104 0.097459822893 0.085980243981 
0.054550047964 0.047128748149 0.041141021997 0.070443049073 0.074911147356 0.079357013106 0.011656051502 0.0090285483748 0.0089809307829 
0.010534773581 0.012861259282 0.016401883215 0.085587613285 0.078950881958 0.010562463664 0.080880962312 0.082730866969 0.083976835012 
0.065071754158 0.062117088586 0.058306008577 0.053546264768 0.049639821053 0.045714117587 0.043393269181 0.038381222636 0.033411219716 
0.027731601149 0.020911123604 0.039089467376 0.038830317557 0.047695629299 0.059090118855 0.016587559134 0.070462226868 0.013796800748 
0.08747612685 0.010629282333 0.0087828775868 0.0088058030233 0.062198847532 0.052765883505 0.059754513204 0.043679300696 0.048626948148 
0.04515401274 0.0097087677568 0.011020116508 0.0782295838 0.075991399586 0.062696695328 0.068143352866 0.084298118949 0.079979717731 
0.074432164431 0.078409641981 0.031961366534 0.023543959484 0.082759700716 0.083493515849 
Stress_XY 1 1059 double
0.024865530431 0.016286563128 0.010617676191 0.0079627428204 0.0060869846493 0.0054066348821 0.0028251230251 0.00091039395193 0.0058024330065 
0.0085260635242 0.008213955909 0.0046947491355 0.0032341300976 0.0034332268406 0.00055779429385 -0.0029331711121 -0.0048512830399 -0.0075796809979 
-0.010020387359 -0.0093465894461 -0.0072685661726 -0.004411327187 -0.0020401643123 0.0014679785818 0.0045666415244 0.0047787087969 0.0028921675403 
-0.0026883427054 -0.0082146292552 -0.010974433273 -0.01099302806 -0.010169179179 -0.011950040236 -0.011565988883 -0.0087717017159 -0.0093211932108 
-0.012063178234 -0.015724470839 -0.020367473364 -0.025248534977 -0.032643198967 -0.037471618503 -0.035015035421 -0.031800098717 -0.028995236382 
-0.020949905738 -0.010650902055 -0.0016361670569 0.0067552239634 0.012949502096 0.016080485657 0.016378460452 0.014475788921 0.015218814835 
0.019164912403 0.025290861726 0.00065236754017 -0.0010955455946 0.0012451282237 0.0051174541004 0.0062349042855 0.0065624839626 0.0056053795852 
0.0036706433166 0.0016091630096 0.0038940103259 0.0076310667209 0.012747941539 0.011619661003 0.0071057523601 0.0012920324225 -0.0050377827138 
-0.0070618879981 -0.0096701271832 -0.0085015930235 -0.006834667176 -0.0059759123251 -0.0056254966184 -0.0092107085511 -0.012493194081 -0.011957088485 
-0.0090600717813 -0.0054230988026 -0.0047736749984 -0.0076631330885 -0.012048186734 -0.015592765063 -0.010538148694 -0.011562949978 -0.008646436967 
-0.0030184960924 0.0022731253412 0.0033571370877 0.0012850863859 -0.0027888286859 -0.0078963870183 -0.0059969476424 -0.0016909854021 0.00033583652112 
0.00020333928114 -0.0010539763607 -0.0028381757438 -0.00010699107952 0.0037903981283 0.0057189152576 0.0055040507577 0.0046476218849 0.0029570367187 
0.00019983146922 -0.00035365016083 0.0028676150832 -0.0015226062387 -0.0043463800102 -0.00044230348431 0.0033122252207 0.0012613446452 0.00014391550212 
-0.00015664449893 -0.00052429264178 -0.002175366506 -0.0018426894676 -0.00099048856646 -0.0037678661756 -0.0077424221672 -0.010875453241 -0.012552806176 
-0.013280480169 -0.015716208145 -0.01813631691 -0.019385650754 -0.020183706656 -0.018001507968 -0.013810692355 -0.0080492384732 -0.0013893495779 
0.0022235247307 0.0052654747851 0.0068580871448 0.0074985660613 0.0065957042389 0.0027614566498 -0.0019028143724 -0.005012051668 -0.0066566588357 
-0.0077156275511 -0.0085678640753 -0.0093766637146 -0.010551391169 -0.013275292702 -0.0172122363 -0.021785352379 -0.027118930593 -0.033594623208 
-0.03893276304 -0.039860051125 -0.036972325295 -0.03196079284 -0.02425811626 -0.013011567295 -0.0014229441294 0.0068833888508 0.011107887141 
0.013638836332 0.014751194045 0.013239179738 0.0084408549592 0.0050758747384 0.0049405735917 0.0046797366813 0.0042561609298 -0.0074994657189 
-0.0090619493276 -0.0089140255004 -0.0079931877553 -0.0074865361676 -0.0075584021397 -0.0081807244569 -0.0079513182864 -0.0046676495112 0.0011632397072 
0.00520760566 0.004847375676 0.0028490631375 -0.0005942453281 -0.0038082648534 -0.0080386670306 -0.013828257099 -0.017495172098 -0.015556330793 
-0.01145129092 -0.0089960722253 -0.007796402555 -0.008250287734 -0.0077168350108 -0.0035304166377 0.00067829655018 0.0016136004124 -0.0011741969502 
-0.0065131871961 -0.010353944264 -0.012917653657 -0.011649702676 -0.0094853686169 -0.0078235082328 -0.0054341922514 -0.0039897495881 -0.0039190854877 
-0.0054796352051 -0.0066297305748 -0.0068043037318 -0.0046097785234 -0.0029303524643 -0.0029328684323 -0.0048697614111 -0.0070083872415 -0.0075360569172 
-0.0085946805775 -0.010255062021 -0.010742556304 -0.011678432114 -0.012442116626 -0.01136760693 -0.00636771461 0.0064352992922 0.01081387978 
0.0053256461397 0.0018814922078 -0.0026541461702 -0.00043100435869 -0.0012573944405 -0.0011782916263 -0.0015325390268 -0.0024702765513 -0.0025485088117 
-0.0046203280799 -0.010519151576 -0.015526857227 -0.018784308806 -0.021334946156 -0.022838296369 -0.02388250269 -0.023869065568 -0.02440954186 
-0.02368105948 -0.02008195594 -0.0141783664 -0.0071900691837 -0.0011392120505 0.0045719812624 0.0042858789675 0.004608031828 0.0064837164246 
0.00579214748 0.0024802251719 -0.00056886975653 -0.0023491063621 -0.0037232881878 -0.0059132711031 -0.0086120888591 -0.011712746695 -0.015790112317 
-0.020919734612 -0.026716519147 -0.032216642052 -0.036413244903 -0.039506226778 -0.039986021817 -0.036885727197 -0.032218936831 -0.014363447204 
-0.0026406992693 0.0083448151127 0.014776737429 0.017335239798 0.017369220033 0.014889486134 0.0099025834352 0.0054193888791 0.0034498414025 
0.0033717281185 0.0031065831427 0.001205215347 0.0043073375709 0.0018200343475 -0.023090977222 -0.026425339282 -0.0086594074965 -0.010094253346 
-0.010793637484 -0.010344401933 -0.0096803512424 -0.008221488446 -0.0063069942407 -0.0034928766545 0.0014563290169 0.0035583544523 0.0027483515441 
0.00095618859632 -0.0015051363735 -0.0056081125513 -0.010863576084 -0.015235004947 -0.016487332061 -0.014606572688 -0.010973311029 -0.0080632558092 
-0.0055224681273 -0.0041055958718 -0.0033032551873 -0.00038442210644 0.0026409358252 0.0032426319085 0.0011769457487 -0.0022015012801 -0.0054828063585 
-0.0078553101048 -0.010217708535 -0.011680763215 -0.010946984403 -0.0089006843045 -0.0066693415865 -0.0057086776942 -0.0057258405723 -0.0055389082991 
-0.005537411198 -0.0060043218546 -0.0059370589443 -0.0059417141601 -0.0064170062542 -0.008055569604 -0.0099765099585 -0.011686944403 -0.012963373214 
-0.013536459766 -0.013636097312 -0.013366273604 -0.01101289317 -0.0055287303403 0.0012814301299 0.0034732529894 0.0028616196942 1.7793876395e-05 
-0.0029146359302 -0.0063418787904 -0.019614644349 -0.018190385774 -0.010564385913 0.00030107668135 0.010550945066 0.01681532152 0.0188467931 
0.017916752025 0.015169126913 0.010826398619 0.0062482450157 0.0036154820118 0.0021424961742 0.0018573636189 0.0007384713972 -0.00068676040974 
-0.0018066552002 -0.0018749814481 -0.0020702870097 -0.0028855761047 -0.0041877543554 -0.0069604334421 -0.011831541546 -0.016647977754 -0.020651208237 
-0.024128085002 -0.027177015319 -0.028706913814 -0.028390495107 -0.027776731178 -0.025323495269 -0.020679242909 -0.013967345469 -0.0072160777636 
-0.0027233012952 -0.00073459587293 0.00039469957119 0.0026724548079 0.0037753754295 0.0034946911037 0.001766970614 0.0015304273693 0.004061544314 
0.0057953908108 0.0043151266873 0.0013364512706 -0.00092165195383 -0.0029629222117 -0.0060598268174 -0.010381759144 -0.014896508306 -0.019026849419 
-0.023175079376 -0.028122898191 -0.032842725515 -0.036358498037 -0.038060650229 -0.03738546744 -0.033916626126 -0.028263702989 -0.022969285026 
-0.017461096868 -0.01250967104 -0.014108677395 -0.010463640094 -0.011947676539 -0.012585381046 -0.011481692083 -0.0085114687681 -0.0046960785985 
-0.00069298339076 0.0015071319649 0.0019671097398 0.00074521556962 -0.00081134942593 -0.0036505525932 -0.0075236624107 -0.010305195116 -0.012599296868 
-0.012150410563 -0.0091660227627 -0.0060968706384 -0.0032555037178 -0.0015965389321 -0.00068951275898 0.0014329213882 0.003237926634 0.003327854909 
0.0024044660386 -0.00023776479065 -0.002925616689 -0.0057663223706 -0.0098622711375 -0.012585150078 -0.012294507585 -0.009685959667 -0.0072001321241 
-0.006361680571 -0.0060541024432 -0.0052909892984 -0.0051481258124 -0.0058360174298 -0.0065066679381 -0.006915485952 -0.0071073151194 -0.0081554641947 
-0.0098807159811 -0.011876654811 -0.013768191449 -0.014937436208 -0.015084075741 -0.013482522219 -0.010001393966 -0.0044395676814 0.00029392522993 
0.0024574685376 0.0026152490173 0.00067926372867 -0.0021337380167 -0.0054818429053 -0.008148050867 -0.013402958401 -0.013305371627 -0.01357478369 
-0.0072686509229 0.0012652213918 0.0095639750361 0.015052212402 0.017202818766 0.016662517563 0.014463010244 0.01115891058 0.0077007375658 
0.0047482969239 0.0021435483359 0.0014901628019 -0.00016987083654 -0.0015403033467 -0.0020335516892 -0.0023963451385 -0.0034450306557 -0.004679613281 
-0.0069167166948 -0.010843480937 -0.015914751217 -0.020738054067 -0.024856649339 -0.028490975499 -0.030509838834 -0.030355479568 -0.028981838375 
-0.024932874367 -0.018481371924 -0.012070097029 -0.0076822522096 -0.0047357920557 -0.0026254074182 -0.0017760812771 -0.0016729312483 0.00041281487211 
0.001363829826 0.0022756506223 0.0018281324301 0.00023757667805 -0.00016982416855 0.0022274316289 0.0048855063505 0.0040635997429 0.0016645011492 
-0.00066232791869 -0.003328705905 -0.0071094119921 -0.012081520632 -0.0174712874 -0.021696012467 -0.024439236149 -0.027189658955 -0.030257377774 
-0.032910451293 -0.034088339657 -0.032927062362 -0.029667844996 -0.025149621069 -0.020051848143 -0.015200556256 -0.011550330557 -0.0094121005386 
-0.0094971219078 -0.0098583847284 0.0026402527001 0.0038707137574 -0.011643217877 -0.01171679236 -0.0096896979958 -0.0069016013294 -0.003765296191 
-0.0011459377129 0.00014028072474 0.00066834012978 0.0023239955772 0.0036806818098 0.0039316196926 0.0030752676539 0.0015409323387 -0.0008560041897 
-0.0044435630552 -0.0088671324775 -0.012036866508 -0.011659922078 -0.0089927399531 -0.0068667777814 -0.0072102472186 -0.0065823718905 -0.0054552266374 
-0.0054048355669 -0.0061679072678 -0.0064511522651 -0.0063423793763 -0.0068715065718 -0.0079129608348 -0.009565923363 -0.011296937242 -0.012813596055 
-0.014027561061 -0.015159598552 -0.012817238458 -0.0081531796604 -0.0027505832259 0.0012118663872 0.0018932576058 0.0013624840649 0.00029973694473 
-0.0018122262554 -0.0051466021687 -0.0077528939582 -0.0099045988172 -0.011897907592 -0.012806362472 -0.011620091274 -0.0086755016819 -0.0052214544266 
-0.0013220651308 1.7735410438e-05 -0.0015022275038 -0.0030884582084 -0.0048377341591 -0.0068767131306 -0.0091836703941 -0.010381196626 -0.012295096181 
-0.011708583683 -0.012353521772 -0.012354298495 -0.010539851151 -0.0074086301029 -0.0023932121694 0.0032007708214 0.0081813624129 0.011515923776 
0.012704764493 0.012121708132 0.010751051828 0.0083286184818 0.005869761575 0.0048853647895 0.0038710925728 0.0026625841856 0.0019873906858 
0.0026806914248 0.0013596952194 -0.00014065041614 -0.0014030936873 -0.0015497396234 -0.0022069688421 -0.0029251773376 -0.0043634721078 -0.0058990772814 
-0.016073793173 -0.020986212417 -0.025988506153 -0.028603250161 -0.029918892309 -0.029831781983 -0.028226992115 -0.02356586419 -0.0093124825507 
-0.0064951311797 -0.011448029429 -0.0084348395467 -0.014057570137 -0.018099078909 -0.0037675069179 -0.0037353655789 -0.0039775646292 -0.0022232301999 
-0.0007213621866 -7.059663767e-05 0.00071698153624 2.0513383788e-05 -0.00012316343782 0.0011791979196 0.0034489315003 0.0027791156899 0.00097823573742 
-0.0013265284942 -0.0039914506488 -0.0083323419094 -0.013909739442 -0.01821105741 -0.021574398503 -0.023001825437 -0.024690194055 -0.026181267574 
-0.027293233201 -0.027038069442 -0.025426335633 -0.024374056607 -0.019205898046 -0.014219817705 -0.010251416825 -0.0086220083758 -0.0064865900204 
-0.0075897299685 -0.0085257263854 -0.0099781248719 -0.0081040179357 -0.0053035984747 -0.0022292430513 0.00050545041449 0.0013737293193 0.0015829054173 
0.0027024652809 0.0042672557756 0.0045971190557 0.0040381662548 0.0031114588492 0.0015769616002 -0.0073870997876 -0.0093224709854 -0.0092338109389 
-0.0087723629549 -0.0084113450721 -0.0079668853432 -0.006913843099 -0.0057117459364 -0.0054165306501 -0.0054675438441 -0.0054152323864 -0.0045947986655 
-0.0059747272171 -0.0078148292378 -0.0095576317981 -0.011096435599 -0.01197607629 -0.013091159984 -0.014235751703 -0.011480946094 -0.0076517206617 
-0.0025765174069 0.0015150007093 0.0020398329943 0.00053512497107 -0.00055458664428 -0.0020399638452 -0.0052967304364 -0.0074915792793 -0.009416397661 
-0.01079545822 -0.011656830087 -0.010941909626 -0.0096636228263 -0.0078165009618 -0.0059796306305 -0.005438068416 -0.0059777125716 -0.0074318540283 
-0.008933194913 -0.010526851751 -0.011571425013 -0.012188901193 -0.013391335495 -0.013596933335 -0.015191251412 -0.014572595246 -0.012131835334 
-0.010844351724 -0.0093791726977 -0.0029978700913 0.00080829614308 -0.00077466684161 -0.00012408917246 0.0016097673215 0.0017971151974 -3.785863737e-05 
-0.0023811219726 -0.0050024990924 -0.0086482297629 -0.014031697996 -0.017152972519 -0.019878299907 -0.020868416876 -0.021395428106 -0.022259306163 
-0.022732323036 -0.021346822381 -0.01908695139 -0.017553381622 -0.0050284359604 -0.0017977575772 0.0022450799588 0.005963570904 0.0085548814386 
0.0093192225322 0.0096434857696 0.0084398593754 0.0069413334131 0.0057080136612 0.0047941487283 0.0038817336317 0.0031073265709 0.0023830442224 
0.0030762832612 0.0026172234211 0.00096242444124 -0.00067359750392 -0.0012357047526 -0.001762136817 -0.0023240929004 -0.0032709129155 -0.0044915145263 
-0.0067363814451 -0.010813185014 -0.012824526057 -0.014773366041 -0.018772704527 -0.022131364793 -0.025893092155 -0.0047600576654 -0.0057510565966 
-0.0053801201284 -0.0045217419975 -0.0026930531021 -0.00081248220522 -0.007108584512 -0.0037743886933 -0.00039336914779 0.0019343952881 0.0024875325616 
0.0019533913583 0.0030668003019 0.0043449648656 0.0043911766261 0.005295119714 0.0048141432926 0.004308427684 -0.0044551277533 -0.0064851203933 
-0.0073888199404 -0.0081499507651 -0.0094816237688 -0.0083470698446 -0.0069287889637 -0.0055457018316 -0.0048814611509 -0.0047090030275 -0.005168906413 
-0.0071345767938 -0.0090149082243 -0.010414078832 -0.011155929416 -0.011984640732 -0.012074328028 -0.011190998368 -0.0072882384993 -0.002637976082 
0.00099085341208 0.0013547787676 -5.7581219153e-05 -0.0014373345766 -0.0024281356018 -0.0038320883177 -0.0061433236115 -0.0057848370634 -0.0065094050951 
0.00088403531117 -0.00093923491659 -0.010747781955 -0.013115451671 -0.0081678107381 -0.0093927122653 -0.0096333473921 -0.0096313795075 -0.0093914782628 
-0.0094152921811 -0.0092143509537 -0.009421444498 -0.010543629527 -0.012120852247 -0.013950991444 -0.015438331291 -0.01584748365 -0.016023743898 
-0.016557937488 -0.01634137705 -0.017468618229 -0.017101710662 -0.013674063608 -0.0091277817264 -0.027701340616 -0.026105731726 -0.023259652779 
-0.019623311237 -0.015587408096 -0.013413045555 -0.0098020350561 -0.0072836694308 -0.0074508986436 -0.0071451202966 -0.0089235464111 -0.010686796159 
-0.011998956092 -0.0061693666503 -0.0081214420497 -0.0092658838257 -0.0082980860025 -0.0065536075272 -0.0053279465064 -0.0046706683934 -0.012455770746 
-0.013106160797 -0.01497925166 -0.017300147563 -0.019102798775 -0.019935684279 -0.019850486889 -0.019112436101 -0.018302554265 -0.01997128129 
-0.019490579143 -0.015983777121 -0.017772303894 -0.020404106006 -0.021598400548 -0.024213979021 -0.025594485924 -0.027462108061 -0.028752822429 
-0.0071419021115 -0.0031631840393 0.00056106410921 0.0033042696305 0.0037018845323 0.002251365222 0.0024670690764 0.0031912408303 -0.00075150962221 
-0.0013318684651 -0.0019524811069 -0.0034316161182 -0.0056521892548 0.0028948250692 0.0039028362371 0.0037595091853 0.0022600940429 0.00045610693633 
-0.021687492728 -0.023196434602 -0.023682512343 -0.024742858484 -0.025111943483 -0.025543482974 -0.024934865534 -0.023950815201 -0.020747181028 
-0.017182545736 0.0055169560947 0.0061921551824 0.0057485909201 0.0058656684123 0.0021114950068 -0.0061796335503 -0.0042358986102 -0.0010745455511 
0.002084475942 0.005262886174 0.0069487621076 -0.0042924210429 0.0076053575613 -0.010764813982 -0.010017833672 -0.010917765088 -0.011894122697 
-0.012201171368 -0.012529763393 -0.013155890629 -0.013225606643 -0.012138964608 -0.013107937761 -0.013812282123 -0.011912483722 -0.0099275782704 
-0.0062558120117 -0.0023505443241 0.00061094586272 0.00078799360199 -0.00080314098159 -0.0017222710885 -0.0017057837686 -0.0026469845325 0.0069556143135 
0.0063915099017 0.0057207723148 -0.00078547454905 -0.00074504996883 -0.013194896281 -0.00052570132539 0.00024475273676 0.00098831998184 0.0015653800219 
0.001000898541 -0.00075209274655 -0.0032222208101 -0.005941240117 -0.017683524638 -0.018750354648 -0.018861858174 -0.018473429605 -0.018688190728 
-0.018366700038 -0.017493952066 -0.014927990735 -0.0092153009027 -0.005883527454 -0.005679843016 -0.0063486108556 -0.014298993163 -0.014872184023 
-0.015235734172 -0.014905889519 -0.014745286666 -0.014928214252 -0.015016465448 -0.014425111935 -0.015538152307 -0.014975503087 -4.6817061957e-05 
-0.0047661471181 -0.0018119143788 -0.00012597434397 0.0010914849117 -0.0069867181592 -0.0079367905855 0.0018420321867 0.0025577212218 0.0042814104818 
-0.00056899752235 -0.0021493881941 -0.0042526288889 0.00027149371454 -0.0014151845826 -0.0038052061573 -0.018958056346 -0.020882789046 -0.022190446034 
-0.022580673918 -0.022011052817 -0.021541120484 -0.0083986977115 -0.012644345872 -0.022217569873 -0.011418170296 -0.0065813413821 -0.0085209058598 
0.0033880556002 -0.017204193398 0.0025350337382 -0.017380744219 8.4452374722e-05 -0.016932034865 -0.0029375520535 -0.0055296667852 -0.0078840879723 
-0.008703706786 -0.0073379171081 -0.016311559826 -0.0040344400331 -0.001765652094 0.00034697301453 -0.022214738652 0.0033641871996 -0.023476773873 
0.0027242652141 -0.024310773239 -0.024085707963 -0.02348843962 -0.0014448306756 -0.0021437499672 0.00028789023054 -0.0057148053311 -0.0065822829492 
-0.007687123958 -0.0052416548133 -0.0079371826723 0.0038136383519 0.0040471702814 0.00037048867671 0.0026694231201 0.0062232804485 0.0042704278603 
0.0059221992269 0.0078725069761 -0.0060954559594 -0.0059382906184 -0.0079444237053 -0.010489007458 
Stress_YZ 1 1059 double
0.0013644945575 0.003149564378 0.0022588446736 0.0011338590411 -0.00081166287418 -0.0041131163016 -0.0073920446448 -0.010652574711 -0.017354872078 
-0.021095374599 -0.017592480406 -0.010525378399 -0.0053612743504 -0.00099336437415 0.0046692537144 0.0075049428269 0.0096287634224 0.012153123505 
0.015702333301 0.017929125577 0.01915848814 0.019767196849 0.017718665302 0.0097180549055 -0.0018923662137 -0.012092937715 -0.013963454403 
-0.013795037754 -0.016253056005 -0.017797607929 -0.016445647925 -0.012800235301 -0.011792272329 -0.0083524622023 -0.0017952580238 0.0014560245909 
0.00027010106714 -0.0017217249842 -0.0040135527961 -0.0066493414342 -0.0084790401161 -0.0092762541026 -0.0041212369688 0.0032835004386 0.012863080949 
0.022382052615 0.027651879936 0.025546582416 0.020717503503 0.015807559714 0.011765738018 0.008155638352 0.0042937663384 0.0021893100347 
0.00049946585204 -0.0015439994168 0.012530891225 0.012324464507 0.010206436738 0.0066417497583 0.0030407584272 0.0011909330497 0.00036784127587 
-0.00062840263126 -0.0014830727596 -0.0015807054006 0.0025493605062 0.0067803403363 0.0062647582963 0.0047200494446 0.0011721644551 -0.0028895207215 
-0.009947697632 -0.017110252753 -0.017804410309 -0.01183840353 -0.0034375407267 0.0030900954735 0.0050161639228 0.0047453586012 0.0079230796546 
0.0075000403449 0.0045208046213 0.004000551533 0.002234860789 0.0016748984344 0.0037914549466 0.00023755677103 0.0079852752388 0.011280201375 
0.012246145867 0.014837287366 0.01396242436 0.010135035031 0.0059991390444 0.0059766857885 0.0037181428634 -0.0011780901114 -0.0058954013512 
-0.00828243047 -0.0088396659121 -0.0089598475024 -0.0094367247075 -0.0091882636771 -0.0074079092592 -0.005590443965 -0.0038419784978 -0.003324468853 
-0.0039303479716 -0.0051134885289 -0.0058017899282 -0.0048195743002 0.003640292678 0.011566228233 -0.0024119184818 -0.0054739881307 -0.0090942187235 
-0.012868887745 -0.016626683995 -0.021120419726 -0.0238970723 -0.024858281016 -0.022264324129 -0.016030585393 -0.010270198807 -0.0067103328183 
-0.003455394879 0.0013387087965 0.0052747260779 0.0095808133483 0.014268064871 0.018158545718 0.020940326154 0.02302329056 0.025244163349 
0.026001870632 0.02243260853 0.015284300782 0.0040863682516 -0.0027945563197 -0.0057992045768 -0.0072100646794 -0.0090354913846 -0.010768844746 
-0.011368185282 -0.010562386364 -0.0098844291642 -0.0095986351371 -0.0094437804073 -0.0090688578784 -0.0087143592536 -0.0077453688718 -0.0053890421987 
-0.001447485527 0.0043389992788 0.011088895611 0.018388900906 0.023575009778 0.027627406642 0.030758131295 0.034378487617 0.036358173937 
0.034003004432 0.030277688056 0.023923542351 0.016001427546 0.0093676699325 0.0047214496881 0.0018287950661 -0.00061104237102 0.017163736746 
0.017021685839 0.01468728669 0.01174327638 0.0085849342868 0.0066110547632 0.0068062935024 0.0087888706475 0.011025584303 0.010635475628 
0.0061439056881 0.00069805845851 -0.0043770154007 -0.008873289451 -0.014601948671 -0.019440064207 -0.022040782496 -0.022403553128 -0.020784072578 
-0.015505200252 -0.010741037317 -0.0061222612858 -0.0031529620755 -0.0020542650018 -0.00026060768869 0.0037325180601 0.0079371072352 0.011983710341 
0.013350308873 0.01277966518 0.014945166185 0.01628497988 0.020412398502 0.024015106261 0.024415392429 0.021891195327 0.019187426195 
0.017282107845 0.015338153578 0.0095608904958 0.0026001411024 -0.0042808954604 -0.010444099084 -0.01425881125 -0.015856936574 -0.015966476873 
-0.014869868755 -0.012890714221 -0.010526746511 -0.0084008416161 -0.0077114729211 -0.0075190574862 -0.0066134808585 -0.0022393818945 0.0025542909279 
0.010129647329 0.013852521777 0.014597988687 -0.012684953399 -0.016976557672 -0.022077409551 -0.026485560462 -0.030385075137 -0.031603887677 
-0.03050310351 -0.027690969408 -0.022615469992 -0.017166364938 -0.012485249899 -0.007557568606 -0.0020542710554 0.0048396592028 0.011882025748 
0.017534183338 0.021812643856 0.02450738661 0.026993919164 0.028912492096 0.025715155527 0.020179580897 0.011710347608 0.0044306484051 
-0.0019217396621 -0.0061565330252 -0.0095579186454 -0.013777583838 -0.017526241019 -0.020745476708 -0.023242611438 -0.025153044611 -0.025436896831 
-0.023035749793 -0.020093372092 -0.01724268496 -0.013763577677 -0.0085628870875 -0.0025395369157 0.003572401125 0.0086741084233 0.0286018271 
0.033549319953 0.036516506225 0.037711955607 0.03629354015 0.032604888082 0.025789115578 0.017492869869 0.011260082014 0.0056982208043 
0.00074775365647 -0.0049854167737 -0.0098716374487 0.028233271092 0.028238242492 0.021093960851 0.010012877174 0.022407008335 0.021405097097 
0.019774308428 0.017673656344 0.016152894124 0.016995251179 0.019888330251 0.021614579484 0.018699096516 0.011765980162 0.0045655155554 
-0.0019985632971 -0.0086444597691 -0.014399166219 -0.018102848902 -0.019489698112 -0.021961530671 -0.022391891107 -0.018871799111 -0.015294540673 
-0.01138726715 -0.0070271124132 -0.0047138757072 -0.0016511490103 0.0045512607321 0.011939400807 0.01677570492 0.019347103313 0.020922150463 
0.023431422189 0.026857262477 0.029525289312 0.031215293333 0.028337558731 0.023990387097 0.021516557783 0.020878423005 0.018326964229 
0.011771861464 0.0036744158715 -0.0045815678313 -0.012808573432 -0.019519902766 -0.024378495291 -0.025953834876 -0.025293502957 -0.023632602766 
-0.020733010024 -0.018183680251 -0.015885986388 -0.013420634903 -0.011053876951 -0.0052053355612 0.00199143379 0.011986073107 0.017012689263 
0.01892866753 0.021355813369 0.0078788287938 0.016498107463 0.024230776355 0.030190939084 0.033636782318 0.034318182617 0.033220425248 
0.030019005761 0.02393951267 0.017030363902 0.009895070456 0.0026768585667 -0.0038651376963 -0.0098423073068 -0.013660975732 -0.0158715453 
-0.020254606381 -0.025380289182 -0.030156752095 -0.033525723964 -0.034771047533 -0.032903447747 -0.029339941218 -0.024987017736 -0.02092837356 
-0.016454959288 -0.01062235795 -0.0031353754457 0.0050794798881 0.012601904571 0.019298853353 0.023341812193 0.026761459187 0.029047172517 
0.029513383284 0.028597829863 0.026922950521 0.025767374784 0.025040755048 0.023731119931 0.020048093051 0.014203936793 0.0072297141887 
-0.00018582811754 -0.0060799727216 -0.01092736423 -0.016362257302 -0.022129865363 -0.02734112367 -0.031045094132 -0.033586479723 -0.034477934241 
-0.032026264817 -0.027613967657 -0.022919962183 -0.018373727798 -0.01341020409 -0.0071667586453 -0.0016872347333 0.0010234904476 0.0014129813062 
0.0024630632252 0.0060578086413 0.0087071927264 0.024086041376 0.02392690815 0.023372620344 0.022734012455 0.022880142555 0.024626372382 
0.025896547362 0.023225780576 0.015669034794 0.0075254486874 0.00076096080011 -0.0054496969096 -0.011034655385 -0.015492483042 -0.017660226673 
-0.022417394444 -0.020130705088 -0.017257874832 -0.013846200891 -0.0096411062405 -0.0061525302008 -0.0015362761915 0.0051535838284 0.011856984347 
0.016740651801 0.020575270057 0.023879699409 0.027348276228 0.031324401498 0.033656068146 0.033210672438 0.029826601967 0.025985797867 
0.023582026362 0.021728320047 0.017631344497 0.010864198208 0.0030257839244 -0.0052751102485 -0.014156687073 -0.022344294935 -0.028499726206 
-0.030943581834 -0.030492797494 -0.028379701078 -0.025618197396 -0.023441931233 -0.020739203319 -0.016680847853 -0.011400527321 -0.0030285553075 
0.003362754127 0.0097293527797 0.015912389383 0.020049678162 0.023223720491 0.024227933958 -0.021619588137 -0.020021347329 0.014684627764 
0.020625537261 0.026812136173 0.0298010353 0.030054245144 0.02923345007 0.026441965252 0.021493844688 0.015949316323 0.0093494290486 
0.0020780984778 -0.014222233556 -0.01613605395 -0.019058102742 -0.021803308278 -0.026227539405 -0.030836759135 -0.034438300878 -0.035199318081 
-0.032483737916 -0.028631547466 -0.025596570224 -0.022040082142 -0.017190281302 -0.010472908616 -0.0028381708544 0.0056046000682 0.012894803658 
0.020046090707 0.025709997863 0.028579188511 0.029702758417 0.029952798039 0.029455251992 0.028280520812 0.026930002496 0.025025902316 
0.023685157299 0.022411329672 0.021662196144 0.018249250948 0.014160580002 0.0069004474208 -0.00047564430861 -0.0074144406244 -0.013303615153 
-0.019546881318 -0.026632320136 -0.033145461231 -0.037364497781 -0.039453402162 -0.039764244109 -0.037762518972 -0.033847995102 -0.02884735167 
-0.023670142516 -0.018080981448 -0.012108161114 -0.0070534502156 -0.0046884361655 -0.0037471277174 -0.0011382653611 0.0039564007893 0.010549325496 
0.012274275534 0.013236420229 -0.008602425456 -0.0039805443957 -0.021856989712 -0.022781059146 -0.022987451404 -0.021779201925 -0.019626118243 
-0.016311751679 -0.01206218265 -0.0078427959234 -0.0026298630983 0.0040713744238 0.010874986649 0.01623239927 0.02070364356 0.024631612003 
0.02840901725 0.032054267824 0.03354531154 0.032423533499 0.029823124409 0.027265859768 0.02378308028 0.02079160884 0.015950204805 
0.0094436341897 0.0021032465156 -0.0054966299795 -0.01474614162 -0.023289917037 -0.030190298334 -0.03388524428 -0.035018198192 -0.033361088485 
-0.030504008755 -0.028153976426 -0.025530984625 -0.019498609006 -0.011647027917 -0.001620930736 0.0045012454502 0.0088003911078 0.014593972825 
0.020576326177 0.024309715256 0.025201506913 0.02567066066 0.026615181938 0.027886467054 0.02840686962 0.028825700283 0.029121940956 
0.02810989134 0.025294929743 0.018193060532 0.0096374740824 0.0024896897376 -0.0034984918311 -0.0086411861703 -0.0129600605 -0.015915000811 
-0.018743729219 -0.020577782765 -0.022716747597 -0.023501848802 0.020113652572 0.026758916676 0.029295183718 0.029002925381 0.026862828061 
0.024408413097 0.020869692788 0.01656493172 0.011418759823 0.0060987607576 0.0003485934285 -0.0043556517921 -0.009195313789 -0.013247317635 
-0.017450714484 -0.019846834242 -0.021694321185 -0.023255046457 -0.02641174756 -0.02991065383 -0.033260580152 -0.0341995731 -0.031925562769 
-0.02380662784 -0.020536761731 -0.015594670549 -0.0092276055366 -0.0022203975823 0.0054835779592 0.013424163684 0.021217551082 0.030036894605 
0.030123315752 -0.026662221178 -0.028090331703 0.028798757121 0.025820801035 0.029427701607 0.02867477946 0.027732154354 0.025767376646 
0.023193856701 0.021676527336 0.021791996434 0.018222935498 0.013607447036 0.0068349451758 -0.0013312302763 -0.0088472235948 -0.01538536977 
-0.022079730406 -0.029731273651 -0.036761078984 -0.041634060442 -0.042659435421 -0.041422016919 -0.039720918983 -0.036622650921 -0.032436225563 
-0.027545876801 -0.021601462737 -0.015390295535 -0.0095819542184 -0.0082450052723 -0.0047462736256 0.00083959673066 0.0078962976113 0.014348465949 
0.017677014694 0.020023796707 -0.023088812828 -0.02401679568 -0.023770883679 -0.022223012522 -0.019071809947 -0.014423970133 -0.010038986802 
-0.0049838284031 0.0016392479884 0.009128456004 0.014809540473 0.01925730519 0.022914590314 0.030341524631 0.031492922455 0.030821667984 
0.028962872922 0.026354400441 0.02279237844 0.0194666069 0.014535276219 0.0084174880758 0.0012235766044 -0.006240658462 -0.015371521004 
-0.024241782725 -0.03148970753 -0.036070238799 -0.0383320041 -0.037809751928 -0.035820703954 -0.03330052644 -0.029559662566 -0.022366460413 
-0.013083620928 -0.002852746984 0.0035360879265 0.0079176900908 0.013434869237 0.020449124277 0.024262605235 0.025747042149 0.026994904503 
0.028421230614 0.03049275279 0.031753569841 0.032638113946 0.03214180097 0.029492903501 0.024973174557 0.017718540505 0.010069071315 
0.0031932929996 -0.0025814597029 -0.0072156488895 -0.011048160493 -0.014509819448 -0.017248505726 -0.020816847682 -0.02230736427 -0.023673301563 
-0.024388898164 -0.024388615042 0.027896601707 0.025229604915 0.019886640832 0.016184203327 -0.0023363146465 -0.0097044426948 -0.016399331391 
-0.02336961031 -0.031423505396 -0.038861177862 -0.043393522501 -0.043656982481 -0.041358094662 -0.039420522749 -0.037298038602 -0.033968973905 
-0.029475769028 -0.023932183161 -0.01336495392 -0.018595056608 0.025947635993 0.029482563958 0.029370082542 0.026808351278 0.024354692549 
0.021692687646 0.018089393154 0.013996573165 0.0097648957744 0.0058123287745 0.0020703584887 -0.0023056529462 -0.0094843506813 -0.014520241879 
-0.017863800749 -0.02116991207 -0.023389916867 -0.024609904736 -0.026193002239 -0.029141580686 -0.03200301528 -0.032897178084 -0.030688827857 
-0.027793189511 -0.025531703606 -0.025278262794 -0.023142525926 -0.021174561232 -0.017253292724 -0.012104379945 0.030186688527 0.030414212495 
0.029089452699 0.02695479244 0.023872273043 0.021396975964 -0.025122251362 -0.025386923924 -0.024356065318 -0.02160448581 -0.017247999087 
-0.012859810144 -0.0082067381591 -0.0014103588182 0.0064308731817 0.011700817384 0.016504131258 0.020462671295 0.029074484482 0.029506115243 
0.029479667544 0.028416300192 0.025665132329 0.022094238549 0.01851862669 0.013746888377 0.007599669043 0.000685236766 -0.0058721336536 
-0.026786951348 -0.033028766513 -0.037359092385 -0.039856303483 -0.04036334157 -0.039568208158 -0.037684034556 -0.024216789752 -0.014512878843 
-0.0055673588067 0.00050413736608 0.0057096360251 0.011782681569 0.017668468878 0.022847741842 0.026335265487 -0.019354816526 -0.013660784811 
0.0043561956845 0.010117662139 -0.032545927912 -0.038544692099 0.028331775218 0.029388315976 0.030742680654 0.0322002545 0.032994177192 
0.031736757606 0.028355043381 0.023471394554 0.016587315127 0.0096581252292 0.0032382041682 -0.0025941212662 -0.0073837325908 -0.011406900361 
-0.014891726896 -0.016429832205 -0.01931739226 -0.021934503689 -0.023134326562 -0.025005489588 0.0071613271721 0.013966242783 0.018883885816 
0.022412555292 0.025483064353 0.029683968052 0.031112834811 0.030992282555 0.029736164957 0.031117267907 0.03236650303 0.030919786543 
0.027411025017 0.02876627259 0.027765551582 0.024977006018 0.022091958672 0.018037149683 0.012761601247 0.0058403369039 -0.014327690937 
0.021816886961 0.015106737614 0.0082456758246 0.001554441289 -0.0044287396595 -0.0092472722754 -0.013000258245 -0.016188357025 -0.017558349296 
-0.019856931642 -0.023246152326 -0.02205455862 -0.020813954994 -0.017993222922 -0.013523710892 -0.0074818357825 -0.00034195522312 -0.0059318109415 
-0.025297064334 -0.026738574728 -0.027254391462 -0.025052193552 -0.020353509113 -0.016328893602 -0.012219889089 -0.006636000704 -0.028919123113 
-0.031541325152 -0.031859748065 -0.029571961612 -0.027253504843 -0.013190971687 -0.017634321004 -0.022398987785 -0.025557333604 -0.027379771695 
-0.018921652809 -0.018357351422 -0.014864846133 -0.010311244987 -0.0042299125344 0.00256005954 0.0095435315743 0.015041731298 0.017329482362 
0.019845731556 0.0051349904388 0.0091148298234 0.013581493869 0.017263319343 0.025905407965 0.023574732244 0.027612483129 0.028738589957 
0.027260135859 0.025379272178 0.023417016491 0.028526406735 0.016758730635 -0.018574927002 -0.023538893089 -0.029132423922 -0.034182544798 
-0.037654075772 -0.040054999292 -0.04176530987 -0.042035434395 -0.041449327022 -0.042038414627 -0.043519910425 -0.039468269795 -0.033555861562 
-0.0249406863 -0.015313654207 -0.0068831345998 -0.00043903486221 0.0045985593461 0.0086049567908 0.014495600015 0.020391792059 0.013599881902 
0.0099058263004 0.0073791528121 0.017051648349 0.013106844388 -0.0093183889985 0.0092727979645 0.0077648311853 0.0027032229118 -0.0038710420486 
-0.0099547645077 -0.016700524837 -0.023969657719 -0.031953975558 -0.043545756489 -0.041549731046 -0.039223887026 -0.037243966013 -0.0346419774 
-0.03053188324 -0.025822613388 -0.022050991654 -0.0030216574669 0.0047969608568 0.012326313183 0.017946608365 -0.02578862384 -0.030494039878 
-0.034684129059 -0.037343267351 -0.039729289711 -0.041751846671 -0.042890649289 -0.043209820986 -0.043912544847 -0.044842883945 0.0054527823813 
-0.024785121903 -0.015967633575 -0.0085862614214 0.0010321629234 0.02016328834 -0.025004891679 -0.0050101499073 -0.016199497506 -0.019838429987 
-0.031087530777 -0.029161676764 -0.026874296367 -0.010053445585 -0.016762066633 -0.024432877079 0.01323158294 0.0060835476033 -0.00070275529288 
-0.0065011433326 -0.011087323539 -0.014773550443 -0.039403215051 -0.043786585331 0.011343740858 -0.042709495872 -0.032151307911 -0.038840033114 
0.025384312496 -0.04373287037 0.026203505695 -0.042427163571 0.027401374653 -0.040239673108 0.028041709214 0.028422733769 0.027495607734 
0.02469616197 0.022577749565 -0.038121446967 0.028799258173 -0.02796096541 -0.029706092551 -0.01611334458 -0.028401196003 -0.012708550319 
-0.019223339856 -0.0082173813134 -0.0023822009098 0.0043539069593 0.02728398703 0.027907742187 0.026902804151 0.028852138668 0.028719589114 
0.029325945303 -0.0015642213402 -0.0092395097017 -0.023421375081 -0.024490982294 -0.031034545973 -0.028884030879 0.019665440544 0.022266095504 
0.023224808276 0.019889241084 0.027025884017 0.023687619716 -0.032764829695 -0.039283953607 
Stress_XZ 1 1059 double
0.0026664261241 -0.00011662283941 -0.0019832195248 -0.00264813588 -0.0027374334168 -0.0035558249801 -0.0015243272064 -4.1262253944e-05 -0.0014643912436 
0.001653014333 0.0034632780589 0.0045754164457 0.0050763841718 0.0024255709723 0.0011799318017 0.0040788319893 0.0065132253803 0.0083194356412 
0.0088442685083 0.007881633006 0.0053639071994 0.0028661605902 -0.00095047487412 -0.0043911882676 -0.0058753797784 -0.0044768881053 -4.1549574235e-06 
9.5445167972e-05 -0.0040593966842 -0.010172574781 -0.014110615477 -0.014943143353 -0.013575301506 -0.012994813733 -0.009161984548 -0.006235523615 
-0.005571919959 -0.0048716920428 -0.0029782215133 -0.00044650604832 0.00013839860912 4.8863916163e-05 -0.0007022707141 -0.0021924602333 -0.0039894077927 
-0.0043919100426 -0.0033391662873 -0.00096463400405 0.0041238372214 0.0099929934368 0.014371635392 0.016555625945 0.015274885111 0.013248518109 
0.010480942205 0.009867977351 -0.012482006103 -0.010286861099 -0.011521258391 -0.010336003266 -0.01024071686 -0.013056902215 -0.017705431208 
-0.019241690636 -0.017495514825 -0.013588312082 -0.013062749989 -0.011509364471 -0.0085836770013 -0.005956762936 -0.0016273226356 0.0041636214592 
0.010468283668 0.017432345077 0.020722953603 0.020984807983 0.019194703549 0.014389885589 0.010245278478 0.0069559244439 0.0030549101066 
0.0034982534125 0.0048171575181 7.4999225035e-05 -0.0021408873145 -0.0016118319472 -0.0058356476948 -0.0033091551159 -0.01073907502 -0.010321201757 
-0.0065218163654 -0.0040715173818 -0.0059864507057 -0.0090566128492 -0.011872919276 -0.012849647552 -0.010447085835 -0.0077906823717 -0.0059125996195 
-0.0038563203998 0.00018430552154 0.0063919648528 0.011479652487 0.016034746543 0.017463384196 0.018391553313 0.018302386627 0.015809383243 
0.01449010428 0.014689785428 0.015910021961 0.011655091308 -0.0021939058788 -0.012961043045 -0.0037145346869 -0.0051011596806 -0.0059614004567 
-0.0064578866586 -0.0060492954217 -0.0049848328345 -0.004897210747 -0.0028978311457 -0.00067275983747 -3.3702312066e-05 -0.00053891929565 -0.0010815181304 
-0.0018142141635 -0.0032124570571 -0.0032401068602 -0.0017288929084 0.00013203750132 0.0027683174703 0.0045835101046 0.0046264789999 0.0036419059616 
0.0022616668139 -0.0023414718453 -0.0053592626937 -0.0062416917644 -0.0055837566033 -0.003372333711 -0.0036818902008 -0.0052848355845 -0.0056008337997 
-0.0041304607876 -0.0003846505424 0.0050283716992 0.0091711208224 0.011479727924 0.012476072647 0.0129411323 0.012735718861 0.011320975609 
0.0067310202867 -0.00093552732142 -0.0068797520362 -0.011359584518 -0.013943321072 -0.013455620967 -0.0081106107682 -0.00087396835443 0.0057769310661 
0.010982602835 0.01598658599 0.02035872452 0.02112849988 0.019386494532 0.016429083422 0.01145318523 0.00101660972 -0.016801260412 
-0.012925744057 -0.0089025404304 -0.0059797307476 -0.0055724056438 -0.0064586079679 -0.0074587618001 -0.0064021414146 -0.0028723527212 0.00019141496159 
0.0017724563368 0.0028429357335 0.0040718107484 0.0050419843756 0.0060854069889 0.0068463394418 0.0094305118546 0.01792813465 0.0255462192 
0.026297437027 0.025177532807 0.021823093295 0.016162937507 0.012817995623 0.010051458143 0.0057908012532 0.001531613525 -0.0021019247361 
-0.0053507778794 -0.00744705135 -0.011794324033 -0.015453750268 -0.016150631011 -0.013965451159 -0.011431253515 -0.010628056712 -0.010879828595 
-0.011479298584 -0.011317486875 -0.010049697943 -0.0082340836525 -0.006906197872 -0.0054779723287 -0.002487959573 0.0023191352375 0.0075590345077 
0.012167408131 0.016405200586 0.019477169961 0.022442981601 0.025219656527 0.028852857649 0.034163165838 0.026655225083 0.003674372565 
-0.007457528729 -0.012919169851 -0.017882129177 -0.0015487334458 -0.0038753161207 -0.0054232347757 -0.005462590605 -0.0051727001555 -0.0039441143163 
0.00021622197528 0.0029064584523 0.0018612272106 -0.00051101017743 -0.0023020287044 -0.0034634384792 -0.004460785538 -0.0052955849096 -0.0054791504517 
-0.005166048184 -0.0047348877415 -0.0033480529673 -0.0012799234828 0.0013888083631 0.0046261181124 0.0021433588117 -0.00096813868731 -0.0029861521907 
-0.0028983266093 -0.0019650941249 -0.0013473674189 0.00039171412936 0.0039281616919 0.008566624485 0.012650869787 0.015024650842 0.016098659486 
0.016220971942 0.015881838277 0.014302136377 0.01077344548 0.005475201644 -0.00063682318432 -0.0053515862674 -0.0081408312544 -0.0086698541418 
-0.0039647873491 0.0014977129176 0.0063499128446 0.010335214436 0.013957357034 0.017276404426 0.019239788875 0.017844699323 0.013750015758 
0.0087287686765 0.0039549670182 0.00052035937551 0.0046068704687 0.0028742593713 -0.010300495662 -0.0088724354282 -0.014227245934 -0.0119612813 
-0.0090926941484 -0.0065921666101 -0.005207975395 -0.0044449046254 -0.0036201707553 -0.0026676335838 -0.0012051621452 -0.00043052632827 0.0010385646019 
0.0022132403683 0.0034753268119 0.0049286386929 0.0074548702687 0.010703238659 0.016579488292 0.023524880409 0.025647843257 0.025131784379 
0.022562809289 0.018278418109 0.014576981775 0.010091293603 0.0052136718296 0.00057764159283 -0.0033797486685 -0.0064193448052 -0.0090709505603 
-0.012614713982 -0.017047345638 -0.018044408411 -0.016889162362 -0.01516070962 -0.013445234857 -0.011874979362 -0.0096035348251 -0.0079752411693 
-0.0069706630893 -0.0059543759562 -0.0047304681502 -0.0035835090093 -0.0020731387194 0.0013603683328 0.0063885678537 0.011585707776 0.016272798181 
0.020065523684 0.023140421137 0.026866225526 0.030064711347 0.030141439289 0.024315297604 0.01282272581 0.00090040644864 -0.0064031551592 
-0.011667664163 -0.014269068837 -0.0066933236085 -0.0077605568804 -0.0051598800346 -0.00032925078995 0.0046106041409 0.007903534919 0.010327935219 
0.011875769123 0.013355577365 0.014955503866 0.015024084598 0.011591227725 0.0078392168507 0.0050672036596 0.0028390709776 0.00022993017046 
-0.0017034944613 -0.0032275721896 -0.0036735767499 -0.0029098754749 -0.00074067316018 0.0031484069768 0.0045874398202 0.0026979946997 0.00036907795584 
-0.0016626627184 -0.003117692424 -0.0042814132757 -0.0055250781588 -0.0063928174786 -0.0078453198075 -0.0081005608663 -0.0068837278523 -0.0047102901153 
-0.0024996502325 -0.00082405295689 6.610112905e-05 0.003322186647 0.0062385480851 0.006343354471 0.0044749896042 0.001077682944 -7.7527751273e-05 
0.00030079457792 0.0010908503318 0.002305979142 0.004850317724 0.0087051000446 0.013341953047 0.017149696127 0.019054835662 0.019237872213 
0.018415812403 0.017617588863 0.01561643742 0.011995620094 0.0064193662256 0.00048070392222 -0.0033910570201 -0.0051452666521 -0.0048584085889 
-0.0036354225595 -0.0022519503254 -0.0039240624756 -0.01296841912 -0.011369713582 -0.0089166471735 -0.0059398449957 -0.0034883480985 -0.0016687347088 
-0.0010457764147 -0.0018963241018 -0.0014653980033 -0.00027693834272 0.0010507897241 0.0025364768226 0.0043561481871 0.0058517982252 0.0085725756362 
0.020020151511 0.02266963385 0.023273553699 0.021825045347 0.018597520888 0.013425592333 0.007907314226 0.0037222700194 4.5640441385e-05 
-0.0027043989394 -0.0054047596641 -0.0085862325504 -0.012577001937 -0.016851942986 -0.018557127565 -0.017841350287 -0.016104275361 -0.014351337217 
-0.011289533228 -0.0073693562299 -0.0048528644256 -0.0039726952091 -0.0034832283854 -0.0020693514962 -0.00047429476399 0.00017602670414 0.0023918231018 
0.0059123751707 0.010116684251 0.015373769216 0.020393596962 0.024102367461 0.027138357982 0.027110250667 0.025060828775 0.023134633899 
0.017752228305 0.0088967867196 0.0018716370687 -0.0049479762092 -0.010237410665 -0.01283883024 0.014991599135 0.010406699032 -0.0041018920019 
-0.0021820280235 0.0011025853455 0.0048025082797 0.006981946528 0.0083204042166 0.008776338771 0.0088775167242 0.0094267632812 0.01020909939 
0.0090001896024 0.0054564527236 0.0027445130982 0.00105459115 0.00026295191492 -0.0010110459989 -0.0012134518474 8.4033410531e-05 0.0025420668535 
0.0048942547292 0.0049465410411 0.0028873579577 0.0010265990859 -0.0004391533148 -0.001800862141 -0.002691868227 -0.0048023997806 -0.0071409135126 
-0.0091532273218 -0.010177683085 -0.0083493962884 -0.0064982534386 -0.0051602236927 -0.0038249371573 -0.0025709120091 -0.0019661542028 0.00077202753164 
0.003517443547 0.0061159748584 0.0058952337131 0.0056863278151 0.0050126942806 0.0045195994899 0.0039781504311 0.0043043461628 0.0054296660237 
0.0078119682148 0.011577860452 0.016201689839 0.019627328962 0.02091676183 0.020352778956 0.01902699098 0.017636533827 0.015773288906 
0.012514648959 0.0073587070219 0.0020742346533 -0.00099804776255 -0.0019076644676 -0.0017011268064 -0.0010642956477 -0.0010532393353 -0.0019168460276 
-0.0022556204349 -0.0026857992634 0.0087185576558 0.0093930847943 0.011129069142 0.014940178022 0.017222402617 0.019132247195 0.020251361653 
0.019832575694 0.016820935532 0.011662091129 0.0061969640665 0.0022343376186 -0.00037754664663 -0.0020714246202 -0.0041566709988 -0.0071444092318 
-0.011493369006 -0.01594456099 -0.01772422716 -0.017466446385 -0.015916211531 -0.012775395997 -0.0087566934526 -0.0051688584499 -0.0027992529795 
-0.0020149131306 -0.0016971145524 6.4571831899e-05 0.0018896593247 0.0024518005084 0.0039708386175 0.0064116111025 0.010060918517 0.015646323562 
0.021791568026 0.025947317481 0.028167301789 0.027762658894 0.025334954262 0.024011822417 0.020386373624 0.013424699195 0.0063653178513 
-0.0012803825084 -0.0075567807071 -0.011273696087 -0.012769881636 -0.012705419213 -0.011111302301 -0.0086278729141 -0.0062068738043 -0.004230748862 
-0.0030963649042 -0.0033589769155 -0.0034420446027 -0.001073651365 0.001013875124 0.0025511677377 0.0035426123068 0.0052220802754 0.0069387326948 
0.0082464320585 0.0091826245189 0.0098481569439 0.010928875767 -0.0020482151303 -2.2228889065e-05 0.0015603030333 0.0033858858515 0.0043382733129 
0.00450094603 0.0044416789897 0.0048309308477 0.0053891730495 0.0063769402914 0.0085628060624 0.01003597118 0.0095549318939 0.0069715892896 
0.0043191630393 0.002792523941 0.0020807832479 0.0011596329277 0.00031012773979 0.0013173288899 0.0024754882324 0.0047428784892 0.0059650484473 
0.003564207349 0.0020052015316 0.0011705497745 0.00071616761852 -0.0010279486887 -0.0036640164908 -0.0071783130988 -0.0097917150706 -0.0094420323148 
-0.0071793813258 0.0049536586739 0.0065048052929 -0.0110101467 -0.011810326949 -0.0049441363662 -0.0043513095006 -0.0048325019889 -0.0021274609026 
0.00056224194122 0.003740402637 0.0066938083619 0.0068211429752 0.0082877008244 0.0071174548939 0.0066611552611 0.0075473897159 0.0089344847947 
0.010969960131 0.01413604524 0.017940601334 0.021112510934 0.021491799504 0.019759675488 0.017971204594 0.016629133373 0.01496539358 
0.012204928324 0.0077995001338 0.0033434480429 0.00040340278065 0.0008053110214 0.00085131579544 -0.00020202953601 -0.0016625885619 -0.0029400119092 
-0.0028677466325 -0.0025476804003 0.01325608138 0.014828976244 0.01639354229 0.01740527153 0.016969135031 0.014496332034 0.010008153506 
0.0056092217565 0.0023064136039 0.00025656400248 -0.0013128827559 -0.0027972590178 -0.0048397383653 -0.014298432507 -0.015719791874 -0.015377462842 
-0.01396986004 -0.011439789087 -0.0070515065454 -0.0039029144682 -0.0020348320249 -0.001117266831 -0.00059322320158 0.0012093271362 0.003340606112 
0.004604882095 0.005909260828 0.0081607429311 0.0117813861 0.016756694764 0.022066634148 0.0256671682 0.02914980799 0.029169183224 
0.027387525886 0.024815032259 0.021900877357 0.015852354467 0.0091581670567 0.0014205436455 -0.0056319124997 -0.01033541467 -0.012433374301 
-0.012805896811 -0.011673263274 -0.0098242983222 -0.0080344593152 -0.0064766374417 -0.004910402 -0.0042311158031 -0.0034103742801 -0.001348664402 
0.0011947732419 0.0030398808885 0.0038911073934 0.0051506981254 0.0066435798071 0.0074330884963 0.0088607463986 0.0092291850597 0.0094689456746 
0.010172700509 0.010999104939 -0.010416350327 -0.0061412532814 0.0059388894588 0.0076103350148 0.010127202608 0.011246224865 0.012560459785 
0.014200684614 0.016445716843 0.018826311454 0.019810196012 0.019817540422 0.018650719896 0.017195584252 0.015386512503 0.013530164026 
0.010830595158 0.0077337147668 0.0031391817611 0.0049936794676 -0.001882550423 -0.0014763408108 -1.534902367e-05 0.00057453673799 0.00026469462318 
0.00032186700264 0.00079797679791 0.0027128397487 0.0045007532462 0.00565823121 0.0075956252404 0.0068324832246 0.0089939720929 0.0074989004061 
0.004303873051 0.0036395359784 0.0034222248942 0.0020665698685 0.001641868148 0.0022553515155 0.0037935127039 0.0053318408318 0.0063768154941 
0.0071590030566 0.0076870247722 0.0069915982895 0.0056465510279 0.0050000702031 0.0039277244359 0.0027636098675 -0.0063773877919 -0.0073576215655 
-0.0068207313307 -0.0054427953437 -0.0017870580778 0.0025950251147 0.012072620913 0.012899086811 0.013334369287 0.013306643814 0.01158405561 
0.0087686711922 0.0061734779738 0.0039469203912 0.0015518895816 0.00048472109484 -0.00066409033025 -0.001907550497 -0.012223246507 -0.013271134347 
-0.012815794908 -0.011080944911 -0.0089455991983 -0.0063800895587 -0.0039411522448 -0.0022342826705 -0.00074213877087 0.0003361965646 0.0013282039436 
0.0063851242885 0.008191222325 0.010543812998 0.0137069989 0.017418358475 0.021017216146 0.025359995663 0.029129974544 0.02676031366 
0.022933196276 0.019496060908 0.016103733331 0.012379547581 0.0040730964392 -0.0029554041103 -0.0075429948047 0.0049157571048 0.0041417288594 
0.0085862679407 0.008287592791 0.027982920408 0.024860447273 -0.010624996386 -0.011394761503 -0.010690998286 -0.0095550836995 -0.0092409038916 
-0.0086750816554 -0.0074825808406 -0.0056862672791 -0.0037569692358 -0.0012151536066 0.0014192649396 0.0034949218389 0.0046734097414 0.0056251781061 
0.0067102815956 0.0073745208792 0.0081928577274 0.0088762640953 0.0087216608226 0.0081461891532 -0.003434977727 -0.0066785430536 -0.0092711495236 
-0.011012551375 -0.011154176667 -0.011560498737 -0.011169711128 -0.0087813930586 -0.0088658314198 -0.0091881910339 -0.0096277846023 -0.010572266765 
-0.009316150099 -0.0097800167277 -0.0085450708866 -0.0075523797423 -0.0062233265489 -0.0043441918679 -0.0027430970222 -0.00026515373611 0.0040208678693 
-0.0072673577815 -0.0041530802846 -0.0010514829773 0.0018334547058 0.0038602401037 0.0053126644343 0.0061692637391 0.006965037901 0.0078170131892 
0.0085179191083 0.0084706740454 0.0075052888133 0.0069544264115 0.0060486360453 0.0048985825852 0.0030143691693 0.00040216723573 0.0014646726195 
0.01017186325 0.0097619621083 0.0089685888961 0.0085079446435 0.0081263203174 0.0072405016981 0.006011760328 0.0061799045652 0.0028951517306 
0.004051508382 0.0055475002155 0.0067791971378 0.0072866263799 0.0075067183934 0.0056426813826 0.0033744873945 0.0032951370813 0.0034223266412 
0.0082323839888 0.0083624394611 0.0069755162112 0.0055764010176 0.003128551878 -0.00029108527815 -0.0039961268194 -0.0071962215006 -0.0079547073692 
-0.0081598395482 0.0039315596223 0.0019523294177 0.0012331013568 -0.00020604621386 -0.0066697900183 -0.0040238280781 -0.0038378241006 -0.0032236410771 
-0.0029905382544 -0.0029793395661 -0.0031811918598 -0.010349573568 0.00080804096069 0.0053049107082 0.0061953365803 0.0078658750281 0.010222237557 
0.012545606121 0.015204168856 0.017913242802 0.020290240645 0.022750223055 0.02332081832 0.020953845233 0.024257009849 0.026220720261 
0.026767941192 0.024091951549 0.020332530141 0.017091592774 0.0144727109 0.010742716491 0.0066007669084 0.0018796260701 0.0017811439466 
0.0031150029972 0.0045480849221 0.0040239021182 0.0076073575765 0.0025460673496 0.010032081045 0.011801019311 0.012041608803 0.013728330843 
0.014626961201 0.01550626941 0.016747709364 0.018305612728 0.018050592393 0.018495604396 0.017352417111 0.014975461178 0.012438561767 
0.010079244152 0.0075865481049 0.0061016459949 0.0013774400577 -0.00056886399398 -0.0029200306162 -0.0044556842186 0.0072128083557 0.0090095633641 
0.011935643852 0.014166522771 0.015558919869 0.017923275009 0.01963843964 0.021060481668 0.020973008126 0.019404698163 0.01180446893 
0.023184608668 0.021812422201 0.018997870386 0.014625175856 -0.0042838952504 0.0087106050923 0.016625154763 0.0055697308853 0.0043776859529 
0.005712017417 0.0067824982107 0.0076592303813 0.016967447475 0.018477337435 0.01945556514 -0.0045196609572 -0.0008338111802 0.0023661719169 
0.0045611467212 0.0062598474324 0.007348284591 0.019329477102 0.018651541322 -0.0044704042375 0.020740043372 0.020317710936 0.021022003144 
-0.006153178867 0.019521346316 -0.0060147768818 0.018960420042 -0.0064267376438 0.017049260437 -0.0069594010711 -0.0077538760379 -0.0068995240144 
-0.0064595430158 -0.0060787051916 0.014770026319 -0.0057718586177 0.0074029308744 0.0060869846493 0.0080765038729 0.0048578116111 0.0070366184227 
0.0051400070079 0.0055490462109 0.0029120903928 -0.00065652304329 -0.0094893174246 -0.0097217969596 -0.0083437031135 -0.0069368341938 -0.0084076514468 
-0.0092853056267 0.00094036263181 0.0026752769481 0.0047870650887 0.0031486505177 0.0039119711146 0.003093016101 -0.0013767189812 -0.0028682311531 
-0.0035679468419 -0.0012926129857 -0.0043510342948 -0.0056917928159 0.023313552141 0.022652892396 
POINT_DATA 1116
FIELD FieldData 31
Circ_Strain_Pt 1 1116 double
0.984859908 0.9854855974 0.98817120629 0.98950405915 0.98833828695 0.99013306333 0.99528813402 0.99585063898 0.99866970398 
0.99804395052 0.99858409518 0.99901409136 0.99860677422 0.99928951983 0.99664830537 0.99663679788 0.99246576805 0.99227747779 
0.9923731836 0.99092009321 0.99329327715 0.99266825948 0.99495609826 0.99511116358 0.99570141901 0.99891904527 0.99554892974 
0.99922467625 0.99485503449 0.99931085134 0.99520097165 0.99872417891 0.99520167334 0.99734454115 0.99441433066 0.99505047597 
0.99420651711 0.99422384365 0.99464267011 0.99543243135 0.9960874775 0.9971145451 0.99786562521 0.99870465517 0.99791218381 
0.99816879142 0.99783966001 0.99753983957 0.99748017535 0.99708808764 0.99623500409 0.99462229473 0.99440193908 0.99260413387 
0.99405278175 0.99437118055 0.99491311124 0.99694359081 0.99708316545 0.99854071039 0.99898381535 0.99928937034 0.99947678442 
0.99941547336 0.99857901509 0.99873671873 0.99719049316 0.99753816888 0.99703698525 0.99732233291 0.99802551037 0.99810789524 
0.99874087823 0.9989537813 0.9991972547 0.99927429433 0.99932958825 0.99892373403 0.99841982097 0.99869653396 0.9979203092 
0.9986374942 0.99847304074 0.99886171323 0.99921619914 0.99893151104 0.99886772856 0.99868031876 0.99707452297 0.99817052232 
0.99648621482 0.99725913973 0.99653790512 0.99684425595 0.99714165106 0.99705359419 0.9982426022 0.9981100104 0.99903870601 
0.99887825568 0.99966265003 0.99948412618 0.99889207405 0.99929891871 0.99854201246 0.99925282353 0.99889581926 0.99919125348 
0.99776917607 0.99714884005 0.993837215 0.99447274116 0.99750681077 0.99731514762 0.99801450876 0.99840775067 0.99741048682 
0.9967653003 0.99788236228 0.99598931394 0.99833072682 0.99719020126 0.99868592888 0.9989592434 0.9977635035 0.99850004923 
0.99682227674 0.99755288147 0.99581118837 0.99701716932 0.99557214732 0.99696327004 0.99760237238 0.9979814113 0.99915501876 
0.99878846341 0.99940134293 0.99925449141 0.9987254987 0.99888012276 0.99673607362 0.99733713705 0.99523374291 0.99461544312 
0.99398737354 0.99099682067 0.99471279194 0.99106746221 0.99573583022 0.99234197896 0.99733451355 0.9965435997 0.99803331732 
0.9973783538 0.99811359644 0.99609005332 0.99748789074 0.99697283816 0.99608561793 0.99745423233 0.9933704023 0.9963684236 
0.99574897582 0.99690888095 0.99818971337 0.99897937331 0.9989211284 0.99846989158 0.99687763308 0.99739125899 0.99471219752 
0.99682250313 0.99269972502 0.99683416986 0.99515679813 0.99680383623 0.99684207364 0.99717219466 0.99714305459 0.99842061683 
0.99602529609 0.99721132387 0.99406796085 0.99464771182 0.99144046136 0.99102879073 0.9881302795 0.98814287993 0.98812259644 
0.98781361157 0.99324698194 0.99338293792 0.99743907581 0.9968085219 0.99891581019 0.99914260946 0.99738248419 0.9986086791 
0.99530386735 0.99452122102 0.99455151425 0.99390869431 0.99494065734 0.99603778382 0.99599145743 0.99750916137 0.99655770213 
0.99799021252 0.99669078299 0.99854478404 0.99669666522 0.99836426763 0.99702633297 0.99814052213 0.99818074507 0.99860550401 
0.9988825792 0.99855837462 0.99925254444 0.99788651663 0.99883304793 0.99760439979 0.99835757646 0.99764356083 0.99837733719 
0.99555480682 0.99807604995 0.99541869648 0.9912493661 0.99167381484 0.99338101416 0.99830061887 0.99885826071 0.99704719425 
0.99434932255 0.99294968452 0.99440531857 0.99668466603 0.99902129536 0.9986023556 0.9984563525 0.99838536767 0.99749120296 
0.99580822853 0.99469213281 0.99529530655 0.99753859162 0.99917985136 0.99929234946 0.99873677121 0.99809951598 0.99637578419 
0.99212782667 0.99086182784 0.99193617815 0.99564177706 0.99810017948 0.99942991836 0.99890915231 0.99808392612 0.99763690065 
0.9975880168 0.998077676 0.99896065455 0.99905751524 0.99912996846 0.99911356017 0.99937364839 0.99906019053 0.99857561545 
0.99810703965 0.99761456691 0.99677106819 0.99655667727 0.99731984922 0.99833175692 0.99925875789 0.99943627613 0.99825117816 
0.99739820525 0.99707723848 0.99601807248 0.99623937448 0.99186557151 0.9981186833 0.99739582339 0.9961454018 0.99659253778 
0.99850431734 0.99867604419 0.99826016949 0.99802426743 0.99821734167 0.99864080974 0.99880549165 0.99871696391 0.9982255918 
0.99802941495 0.99663580573 0.99469049023 0.9912466627 0.99142761898 0.99520338546 0.99652165446 0.99549145531 0.99683927869 
0.99843102454 0.99886114775 0.99862671254 0.99885354167 0.9995206329 0.99886982443 0.99835256841 0.99778838083 0.99651779041 
0.9960796674 0.99671767827 0.99725412028 0.99647523304 0.99454239853 0.99070857487 0.98994324503 0.99380097135 0.9984938919 
0.99923356719 0.99616734196 0.99421815068 0.99411852337 0.99718308221 0.99836377309 0.99867449205 0.99904896411 0.99911432136 
0.99907428296 0.9991359923 0.99885908799 0.99615898921 0.99482512101 0.99478229813 0.99239654169 0.99409749074 0.99499162718 
0.99312836988 0.99077531283 0.99626129534 0.99829393992 0.99903913323 0.99644684045 0.99430105223 0.99486164005 0.99729225447 
0.99822724114 0.9978469704 0.99821240398 0.99766570889 0.99685815046 0.99784502553 0.99728869086 0.9975032117 0.99868731611 
0.99918926203 0.99894121005 0.99863578505 0.99432629541 0.99712238308 0.99229943618 0.99177810796 0.99544233469 0.99778666986 
0.99940542899 0.9997146238 0.99941932516 0.99899576163 0.99852610323 0.99804432576 0.99809852886 0.9986120631 0.9993188269 
0.99953181112 0.99948766214 0.99937977096 0.99903937294 0.99839818267 0.99731779585 0.99767461378 0.9959112168 0.99663699572 
0.99515487695 0.99792422794 0.99912925014 0.99840399161 0.99723927998 0.99652093126 0.99694276738 0.99676909853 0.99713511311 
0.99665443193 0.99063912296 0.99812959999 0.9975608496 0.99713190218 0.99581523606 0.99429038983 0.99690276711 0.99493445349 
0.99667630063 0.99729640335 0.99783015446 0.99828142434 0.99868817392 0.9990874795 0.99871638839 0.99860915807 0.99801403272 
0.99695809988 0.99580849661 0.99461808896 0.99106174492 0.99074187812 0.99299632219 0.99469117254 0.99574121294 0.99644592397 
0.99801353904 0.99899847994 0.99941937268 0.99975938651 0.99964917511 0.99773843262 0.99794060347 0.9977526963 0.99675112066 
0.99497574574 0.9957692276 0.99676337331 0.99553795072 0.99279628618 0.9889244993 0.98930623789 0.99410244271 0.99759669722 
0.99941940858 0.99874171483 0.99620857872 0.995536785 0.99635008406 0.99752746118 0.99863885731 0.9991812615 0.99942440482 
0.99954165062 0.9995888759 0.99957410742 0.99948352004 0.99315895817 0.987780506 0.98878540041 0.99308338465 0.99858361895 
0.99846173657 0.99366795469 0.99408451282 0.99473852162 0.99327965787 0.99292481567 0.99459744723 0.99788536654 0.99884813615 
0.9977252627 0.99701794 0.99733390002 0.99672836443 0.99555945748 0.99533959877 0.99370467762 0.9928199286 0.99274823698 
0.99442926262 0.99730246015 0.99865023191 0.99902545357 0.99725155651 0.99815218016 0.99780331567 0.99727013119 0.99724748703 
0.99695919355 0.99615480535 0.99577460988 0.99572962088 0.99811978982 0.99950870284 0.99883705519 0.99844192866 0.99819966413 
0.99813788137 0.9983767744 0.99754973736 0.99731031877 0.99564600351 0.99615532947 0.99533511492 0.99435507095 0.99478084914 
0.99542257507 0.99696360757 0.99806768024 0.99867736655 0.9993398898 0.9993698417 0.99917735597 0.99902874531 0.99905842735 
0.99901425394 0.99899059141 0.99881241607 0.9989140856 0.99926841345 0.99923676116 0.99892023306 0.99803507989 0.99643664966 
0.99680547156 0.99629395033 0.99466886097 0.99475141375 0.99212817401 0.99448296587 0.99295907572 0.99926143497 0.99898617547 
0.99861664775 0.9990821079 0.99965790685 0.99920213012 0.99884351315 0.99677081571 0.99467336674 0.99308204051 0.99176441011 
0.99225902078 0.99220056387 0.99129959602 0.99757425188 0.99603832548 0.99703789175 0.99803599844 0.99914295991 0.99957812418 
0.99964208207 0.99943126367 0.9974964511 0.99617795931 0.99736533649 0.99862714656 0.99711279257 0.99608873401 0.99591839525 
0.99497997306 0.99353035659 0.9909991922 0.98801809369 0.99113635722 0.99542154872 0.99907084161 0.99880196142 0.99774192598 
0.99712400258 0.99688142813 0.99785740546 0.99853529357 0.99891792365 0.99912118071 0.99931103179 0.99946620897 0.99968274236 
0.99949783112 0.99611150139 0.98931787208 0.98617323675 0.98858132544 0.99246982198 0.99439752175 0.9986794191 0.99596734482 
0.99338140332 0.99541294048 0.99126626279 0.98965421331 0.99080280434 0.99321223138 0.99586245891 0.99814442491 0.99907847114 
0.99818700458 0.9971358066 0.99591887565 0.99362182088 0.98997423047 0.9923469967 0.98987831431 0.9921210837 0.99449358769 
0.9965116218 0.99790385504 0.99879581943 0.99897850178 0.99726838548 0.99633433616 0.99564187817 0.99568581747 0.99530473232 
0.99565849968 0.99623549737 0.99753373155 0.99870445279 0.99917907509 0.99837284561 0.99802977491 0.99811012303 0.99805278505 
0.99814936506 0.99877094559 0.9973000724 0.99721180587 0.99413436253 0.994162048 0.99435006148 0.99369518362 0.99298708826 
0.99364760956 0.99447355966 0.99740059427 0.99880081388 0.9990015044 0.99913647234 0.99930852523 0.99928555262 0.99912324716 
0.99924372283 0.99916569187 0.99913143094 0.99907092465 0.99928279446 0.99939515816 0.99903430469 0.9976300075 0.9969582687 
0.9976089992 0.99685090834 0.99577045086 0.99502518638 0.99466238028 0.99397824841 0.99331052448 0.99370680167 0.99350921069 
0.99733369886 0.99544629785 0.99795332906 0.9981259306 0.99807947449 0.99770985873 0.99802044228 0.99897469196 0.99971311013 
0.99953137974 0.9985503728 0.9976086964 0.99793309291 0.99838288171 0.99847156034 0.99690475 0.99672302504 0.99711450551 
0.99257698169 0.98774823086 0.9882747131 0.99078928641 0.99483557139 0.99832130911 0.99824785252 0.99654916793 0.99655018179 
0.99841433489 0.99837940308 0.99840618828 0.99785244643 0.99820629459 0.99910070394 0.99951220628 0.99976440999 0.99969433365 
0.99603484516 0.99033677398 0.98428063591 0.98266494359 0.98381682997 0.99383148622 0.99729782757 0.9980320547 0.99563964381 
0.99633284777 0.99760839856 0.9984198161 0.99811067312 0.9983691862 0.99866648392 0.99903754133 0.99937182681 0.99907918525 
0.99719835609 0.99399616134 0.99223283275 0.99226091364 0.99394989662 0.99508082456 0.99558260413 0.99597628311 0.99556275726 
0.99610618672 0.99603255572 0.99229166198 0.99258768398 0.99577712706 0.99926706551 0.99899495689 0.99875436512 0.99852459297 
0.99842863184 0.99818304609 0.99489257986 0.99456177184 0.99239089532 0.99378916668 0.9894852985 0.98957795707 0.99104388659 
0.99240362175 0.99481718673 0.99657495735 0.99735736425 0.99784546467 0.998370557 0.99856267754 0.99886698873 0.99527110574 
0.99638448006 0.99484549113 0.99411347549 0.993598493 0.99447763512 0.99669495998 0.99867724294 0.99920902391 0.997428415 
0.99765705922 0.99702403782 0.99691933958 0.9987459154 0.99913691098 0.99819449 0.99852508634 0.99817217066 0.99822139432 
0.99823658293 0.99494626931 0.99285098016 0.99294174059 0.99404363301 0.99301190129 0.99294532901 0.99665693414 0.99881613344 
0.99864074421 0.99875302822 0.99909462867 0.99906667192 0.99950340741 0.9995438329 0.99933561925 0.9991216607 0.99894281574 
0.99898340996 0.99879994923 0.99749657016 0.99777906985 0.99731104062 0.99715276108 0.99516870627 0.99532133624 0.99462109816 
0.99600272398 0.99436892436 0.99637487501 0.99680666613 0.9973213459 0.99780536138 0.99818733215 0.9993916217 0.99981065948 
0.99931258625 0.99820977079 0.99782188385 0.99805553775 0.99868308055 0.99939977307 0.99621373026 0.9979999383 0.99212892566 
0.98900869474 0.98742240253 0.993177983 0.99730413579 0.99848501598 0.99908335859 0.99935311347 0.99665337517 0.99483219638 
0.99774224667 0.9986087406 0.99841677008 0.99733846297 0.99738435586 0.99811108737 0.99879663376 0.99902356707 0.99932524241 
0.99952764292 0.99235316864 0.98625851505 0.98746498036 0.9894869325 0.99112618149 0.99418944812 0.9968205406 0.99746254146 
0.99824008854 0.99889718849 0.99842016661 0.99828745759 0.99798033586 0.99824025126 0.99818643512 0.99875502761 0.9991237282 
0.99766983425 0.99591175358 0.99448927437 0.99366444395 0.99378990959 0.9946586782 0.99575948905 0.99688923171 0.99681424996 
0.99660418853 0.99706955461 0.99609309203 0.99877603097 0.99940079295 0.99343825482 0.99486321123 0.99412718669 0.9924332979 
0.99523792181 0.99853404113 0.99798267256 0.99762299315 0.99773020782 0.9975426826 0.9992385083 0.99951721346 0.99937600791 
0.99915279731 0.99903945094 0.99930562196 0.99808285545 0.99730436011 0.99635255112 0.99367793076 0.99403800928 0.99617124203 
0.99856610179 0.99944000131 0.99944506243 0.9984916996 0.99733447007 0.99697729936 0.99701828565 0.9960171118 0.99405684452 
0.99620828562 0.99046262594 0.98963199286 0.99063890545 0.99510676298 0.99656909002 0.99755340958 0.99764909613 0.99740586771 
0.9976827485 0.99813156679 0.99807031619 0.99862978941 0.9973416503 0.99481888388 0.99256528385 0.99393224212 0.99581671571 
0.99523295602 0.99745014446 0.99757244329 0.99817447249 0.99684535131 0.99874135588 0.99687532098 0.99738351342 0.99744560389 
0.99702335326 0.99772202093 0.99926997061 0.99937789548 0.99779494317 0.99657568775 0.99738907022 0.99858966157 0.99868313574 
0.99534992224 0.99558612012 0.99425569109 0.99086093258 0.99037370434 0.99127312788 0.99446360374 0.99772309431 0.99857746838 
0.99723453998 0.99570120976 0.99576229395 0.99891405808 0.99705442511 0.99815094859 0.99743158091 0.99796794731 0.99913317413 
0.99922292424 0.99913361243 0.99727218153 0.9986606745 0.99461392296 0.99238316309 0.99323809008 0.9936889055 0.99420454822 
0.99797223696 0.99513677932 0.99546719705 0.99161404096 0.99339574402 0.99827872564 0.99832951034 0.99848485563 0.99798323472 
0.99785236382 0.99772176259 0.99835119334 0.99910253831 0.99940653206 0.99931251882 0.99899871194 0.99838246757 0.99692236732 
0.99567895563 0.99524612693 0.99508293317 0.99529989683 0.99605731411 0.99631086687 0.99695601639 0.99731990102 0.99719576318 
0.99610609334 0.99814277174 0.99831898715 0.99949100743 0.99949730492 0.99938391863 0.99827074786 0.99280313864 0.99391600236 
0.9929489607 0.99478540569 0.99608154948 0.99658036835 0.99731040692 0.99780182673 0.99646042486 0.99930825054 0.9990524412 
0.99871041369 0.9981893105 0.99752956772 0.99658470645 0.99560173583 0.99484342977 0.9961137329 0.99520312036 0.99455920045 
0.99458471495 0.99485454969 0.99535381734 0.99758136496 0.99717839735 0.99587998904 0.99634724482 0.99798614023 0.99884689888 
0.99845795283 0.99760283308 0.99768631231 0.99762135765 0.99760523592 0.99382159445 0.99439895184 0.99645453756 0.99599595376 
0.99464941299 0.99536970111 0.9965679331 0.99711103838 0.99734599508 0.9977832669 0.99823631808 0.99882105248 0.99625205652 
0.99691482695 0.998118908 0.99952727343 0.9980003799 0.99919225564 0.99341892452 0.99306628212 0.9933754913 0.99629323333 
0.99763354304 0.99571596611 0.99950844289 0.99753853245 0.99904525077 0.9986799667 0.99790089433 0.99704138376 0.99701529931 
0.99742385855 0.99857620954 0.99893334896 0.99824363003 0.99810954395 0.99812736857 0.99817899341 0.99866499251 0.99918600719 
0.99809455256 0.99703864583 0.99440127417 0.99451807607 0.99447849117 0.99470185327 0.99308327896 0.99238593691 0.99307772955 
0.99683022696 0.99885802037 0.99863562145 0.99806467131 0.99745104845 0.99909831631 0.99889190815 0.99895687638 0.99820247152 
0.99801902479 0.99826723999 0.99801346112 0.99731388368 0.99524765665 0.99770543204 0.99823772377 0.99905435195 0.99922451602 
0.99885232454 0.99872778025 0.9984848051 0.99690968345 0.99567283332 0.99809163361 0.99764062221 0.99697160567 0.99590967734 
0.99730337894 0.99869054754 0.99844196769 0.99705563417 0.99568764998 0.99495416935 0.99728459831 0.99765961211 0.99805587312 
0.99832714889 0.99735568449 0.99311377935 0.99234904128 0.99288674533 0.99394883686 0.99693159925 0.99815779597 0.99946669576 

Circumferential 3 1116 double
-0.21939288528 -0.073250276029 -0.96722531644 -0.27998789031 0.11452269865 -0.93838993113 -0.27590568855 0.11633190941 -0.94663862939 
-0.22388011498 -0.02776347361 -0.97204403288 -0.33372239385 0.27998796844 -0.89929633004 -0.31400873032 0.23269624386 -0.9173490125 
-0.36559194201 0.34804504458 -0.86093133284 -0.34189822837 0.32376124133 -0.87913254006 -0.38411128606 0.41499701901 -0.82293433155 
-0.36114346167 0.39936848854 -0.84031345918 -0.38965867113 0.48087520205 -0.78529489992 -0.37491998308 0.46871691294 -0.79914729677 
-0.40594431313 0.53040627245 -0.74266986174 -0.38032686225 0.52777778057 -0.75803570555 -0.42395500465 0.59152918389 -0.68142077444 
-0.39756086734 0.60150334877 -0.68639536775 -0.44356302291 0.66615738076 -0.59945204344 -0.42638712798 0.69859647495 -0.56632776635 
-0.46272473676 0.78085594164 -0.38701662543 -0.45464499202 0.81223638399 -0.34968320477 -0.46468619278 0.85045998632 -0.23335404909 
-0.4645558723 0.85494750105 -0.2248435176 -0.45242963647 0.88171864392 -0.13349709875 -0.46141389105 0.86992539574 -0.17296295813 
-0.43708698318 0.89194138113 -0.11442473542 -0.42610976964 0.88718824734 -0.17542045528 -0.40678666376 0.90828531483 -0.088863310771 
-0.39715695603 0.90662946124 -0.12958467573 -0.37051697523 0.92674504698 -0.061398002924 -0.3645185746 0.92795012716 -0.077348903501 
-0.3953988969 0.91548026622 -0.070315021115 -0.33986375372 0.93885128508 -0.022886769387 -0.39776773088 0.91182443098 -0.03712560366 
-0.32159639775 0.94252240927 0.054834696593 -0.34874754572 0.92553699285 0.092177170431 -0.31718084442 0.93008467628 0.16053751041 
-0.30585703465 0.90866917443 0.24398591562 -0.30432235443 0.89986435302 0.28747174514 -0.26977775165 0.85782076556 0.4208030544 
-0.27953813961 0.84486329715 0.44213117052 -0.21313034818 0.8101633969 0.53644192081 -0.23343570651 0.79967994422 0.54680159444 
-0.14931875409 0.76372345049 0.627763624 -0.17785294483 0.76076496453 0.6240941306 -0.10832309015 0.71735174956 0.68450537648 
-0.1170212451 0.71613736485 0.6845338938 -0.063130056941 0.65660953308 0.74667587976 -0.054778188713 0.65078253347 0.75171534877 
-0.0078223402767 0.56123771727 0.8219284095 0.0053595769446 0.56074991832 0.82475486491 0.060190094934 0.43026149658 0.88960823014 
0.060963371259 0.42603004261 0.89244521262 0.13665963945 0.27418744726 0.95143296892 0.11664901583 0.2516099472 0.9565254061 
0.19357231213 0.072583849799 0.96644435295 0.17987526436 0.040395823029 0.97672947009 0.23777825949 -0.08317635843 0.96453156885 
0.23506327467 -0.11748050387 0.96008088881 0.26822439393 -0.18929384254 0.94429200257 0.29330954473 -0.21648790049 0.93075334359 
0.31266716847 -0.22499962685 0.92187797591 0.32130952034 -0.25062595009 0.91245674436 0.35848259403 -0.27430932257 0.89012104792 
0.35192794645 -0.29177536945 0.88813255375 0.40499206287 -0.34052588053 0.84796860814 0.38643018554 -0.34566848571 0.85472039104 
0.44401433096 -0.45222045833 0.76690489401 0.41744662787 -0.4454153717 0.78690980236 0.47098064757 -0.55454375117 0.679316733 
0.43896498978 -0.54756977217 0.70710109035 0.48662992309 -0.64798739725 0.58587662997 0.44708274199 -0.64577645634 0.61695574298 
0.47265050135 -0.702567729 0.52857568184 0.44438095165 -0.70128033927 0.55455600669 0.45834583899 -0.75388434022 0.46703742192 
0.43615049504 -0.74783871556 0.49835013675 0.44363424447 -0.80111747382 0.40019755365 0.41630154458 -0.79479636482 0.43947170469 
0.40643465225 -0.85015617028 0.32637193305 0.39675335631 -0.83877839313 0.36677480927 0.37227819522 -0.89328905921 0.24285336797 
0.37470374907 -0.87968562258 0.28844327191 0.34987601189 -0.92480553353 0.14293156995 0.34744627872 -0.91655226771 0.19534744577 
0.34408777671 -0.93392375612 0.091552305469 0.3513403034 -0.92727569265 0.11456108669 0.32821881367 -0.94213871187 0.028593122418 
0.35403657154 -0.9316477548 0.018286473072 0.29633146665 -0.95322272423 -0.058074915573 0.33493459389 -0.9341057759 -0.11861858458 
0.24101704192 -0.93328423446 -0.23663810544 0.27298806083 -0.90874055824 -0.29667249586 0.17752375459 -0.88461130493 -0.4095586239 
0.1871959744 -0.85994391118 -0.45898300743 0.11409327042 -0.81206284527 -0.5680168248 0.10497720215 -0.78970502528 -0.60006935513 
0.079487040318 -0.72299063425 -0.67961599174 0.060340789134 -0.70710750809 -0.69973080887 0.055343918978 -0.65962387623 -0.74759302517 
0.057260513148 -0.63297131502 -0.76842986246 0.037109744641 -0.61077404265 -0.7909348492 0.073793796911 -0.56183965669 -0.82334993066 
0.050618124521 -0.56934684342 -0.81950139753 0.07235597172 -0.52095641237 -0.84953886518 0.052082737882 -0.52332328512 -0.84945438176 
0.055869080815 -0.4794747742 -0.87485448985 0.033388167448 -0.46960621606 -0.88172802009 -0.0015315853735 -0.42502300699 -0.90500467111 
-0.049000650129 -0.41333681513 -0.90536684753 -0.067666199832 -0.34523413993 -0.9337060209 -0.1386263241 -0.29982274718 -0.93186845851 
-0.14193653271 -0.21253483275 -0.95754278652 0.1157127793 0.18656407387 0.97508301636 0.067494384932 0.31445556662 0.94073737659 
0.062492106477 0.34580611726 0.93323700586 0.10403601926 0.22662861378 0.96658975533 0.016956248577 0.44155877193 0.89112028217 
0.018313088904 0.46201183298 0.88156097869 -0.034940885211 0.56245608127 0.82242830297 -0.030139485775 0.57342275487 0.81465306831 
-0.070763875515 0.64125824826 0.7593392119 -0.069162305679 0.65322042228 0.74927099933 -0.10183535071 0.70823178642 0.69818774421 
-0.10314668408 0.71946113216 0.68653999892 -0.12039895788 0.75142854642 0.64550672432 -0.12314999188 0.76213584366 0.63257201871 
-0.14146498647 0.79830217021 0.57981805984 -0.13804703216 0.80569299779 0.5740547489 -0.17182944233 0.85883818126 0.4657959549 
-0.15140983644 0.85618951454 0.48492056527 -0.19584897688 0.91164158537 0.35386796255 -0.16791782192 0.90619915684 0.38621974792 
-0.20121898785 0.94171666414 0.24809516111 -0.18096222999 0.93706917289 0.28575985593 -0.20726749818 0.9648227347 0.15921716473 
-0.19205692411 0.95918683957 0.20442606649 -0.21517190955 0.96886645928 0.11655157189 -0.19372921264 0.96778816407 0.15425254364 
-0.22656582735 0.97062018895 0.068467681949 -0.19846495607 0.97399687717 0.09474705022 -0.24293036525 0.96911194018 0.012665710064 
-0.2074299016 0.97648470887 0.022581060297 -0.24763007545 0.95096755065 -0.11819088446 -0.22453989999 0.96167462329 -0.097973197911 
-0.24620008042 0.92408109981 -0.28848764252 -0.25802019707 0.93034138156 -0.25386875289 -0.29345659894 0.82218502768 -0.45654730186 
-0.30112754504 0.82787035235 -0.43656401637 -0.32397644871 0.71725462609 -0.60979886737 -0.33082538622 0.71486702061 -0.61000714155 
-0.30068948938 0.61383105902 -0.72153085793 -0.32377003915 0.6062230416 -0.71863955378 -0.28967369026 0.50415658291 -0.80690373165 
-0.30562217989 0.50173780872 -0.80285341424 -0.28709237004 0.39018559697 -0.87415888782 -0.2815004413 0.39275708908 -0.8742682675 
-0.23411521458 0.31726593782 -0.91574146241 -0.22820890275 0.29240319967 -0.9251404534 -0.17952991401 0.21829421518 -0.95355224107 
-0.17393069207 0.21655908896 -0.95888742086 -0.12602976644 0.070243798364 -0.98671522541 -0.14476051352 0.1118976602 -0.98101199647 
-0.13561078868 0.0038537251794 -0.98989780914 -0.14135764402 0.018168655618 -0.9884695055 -0.14655079204 -0.039044654629 -0.98827650324 
-0.13418879721 -0.051868481308 -0.98916808216 -0.13744813413 -0.066371909261 -0.98823749691 -0.14706245381 -0.065522321407 -0.98678451918 
-0.17031226201 -0.13863707758 -0.97363539807 -0.15610333846 -0.14323581237 -0.97558785476 -0.16834718106 -0.25190417816 -0.94553407097 
-0.15203950967 -0.26242884519 -0.94656411403 -0.11736130057 -0.41239938618 -0.9018578749 -0.13069576311 -0.40956512652 -0.90164974338 
-0.052871046158 -0.55598727922 -0.8193629517 -0.072542885217 -0.52636380797 -0.84139216275 -0.0025296565262 -0.64490676088 -0.76376182305 
-0.013874426514 -0.60689594172 -0.79437353034 0.028473475019 -0.66520375215 -0.74607882057 0.026172409449 -0.61592961099 -0.78719506775 
0.067975085492 -0.58661980608 -0.80378247596 0.063165284981 -0.55908757276 -0.8249647297 0.10960372026 -0.5463538245 -0.82972405038 
0.097216021266 -0.55115738442 -0.82760891741 0.15282709124 -0.54011351303 -0.82759970591 0.12920854239 -0.5848182171 -0.80037306063 
0.17519028652 -0.68307754047 -0.6919353562 0.14216876672 -0.71717689508 -0.66436961114 0.19360973541 -0.81548857879 -0.51865765596 
0.16529920706 -0.84412773483 -0.48985074353 0.20590061984 -0.93150031862 -0.28692897518 0.20370823485 -0.93427929838 -0.27471066053 
0.20791252212 -0.96198912521 -0.15299552831 0.23222890669 -0.9590677292 -0.14010639859 0.23097522254 -0.96979455021 -0.060696862076 
0.2528497583 -0.96543241416 -0.056320251479 0.27886160857 -0.95993690701 -0.0040170507561 0.26590136817 -0.96385379583 -0.0093394298694 
0.31933926174 -0.93186346408 0.13823816424 0.29333544265 -0.94845116445 0.094190604217 0.35625937114 -0.87302516829 0.30019416237 
0.3406555849 -0.89648065619 0.26031317294 0.38823891828 -0.78727495035 0.47665026374 0.37706620523 -0.82001196439 0.42655747764 
0.38222501195 -0.67782756205 0.6155835582 0.39079160714 -0.73158305454 0.55020174959 0.36941514788 -0.60774263821 0.70173910496 
0.38859656092 -0.63472475204 0.66679538787 0.3505300997 -0.57284542842 0.74071446827 0.37291812622 -0.58036870628 0.72319599544 
0.32804340273 -0.50966240058 0.79223445099 0.36788305608 -0.51895373488 0.76866981903 0.31388794241 -0.43403458655 0.84151974115 
0.36211140717 -0.45329990781 0.81361116871 0.32101264671 -0.33265075563 0.8830227407 0.34561208408 -0.3728230435 0.85812881023 
0.31667488048 -0.26726109929 0.90940928316 0.33721420122 -0.29916872287 0.89232892319 0.30393184977 -0.22826545252 0.92471114545 
0.32142186489 -0.24672679686 0.91352742617 0.27026520911 -0.15293007672 0.94720133632 0.29391227646 -0.16385812006 0.9379166891 
0.23190761132 -0.071106623402 0.96920124232 0.26634371634 -0.089016213874 0.9583383211 0.18543698502 0.013821436432 0.98007049106 
0.18845749329 0.058412672695 0.97434775962 0.14715690117 0.099767806063 0.98151131375 0.12766109809 0.17069392442 0.97506099208 
-0.28327465511 0.19241458722 -0.93680648155 -0.2582686326 0.085901799247 -0.95990778602 -0.30931464209 0.29434521402 -0.90267607229 
-0.33687775237 0.400381323 -0.85028060211 -0.35961502911 0.48782305296 -0.79353335471 -0.37579130801 0.55788510873 -0.73825321723 
-0.40194730843 0.65186076592 -0.6293217518 -0.43632382069 0.76112797123 -0.47528455539 -0.44756820359 0.81771400116 -0.35217825196 
-0.44174781377 0.84845846302 -0.28866148146 -0.42223889531 0.86857320697 -0.25671068647 -0.39950772631 0.89555779377 -0.18857927427 
-0.37894449584 0.91590254976 -0.11615451122 -0.35664826143 0.93262816206 -0.04484297575 -0.34864943554 0.93270675346 0.040184654289 
-0.33377644296 0.93152629958 0.13576384505 -0.3246891908 0.90350366516 0.25687136017 -0.30509712083 0.86897040676 0.38484872991 
-0.25789443115 0.83357812658 0.48197170972 -0.19670554276 0.80845720797 0.55085848009 -0.13496995717 0.79149945798 0.59434237359 
-0.053468662359 0.74841654491 0.65709238812 -0.0034657567349 0.66269952743 0.74333262927 0.037273985787 0.55934111678 0.8258290252 
0.071274161093 0.40937213742 0.90225150208 0.11457216266 0.2067890232 0.96284491276 0.15438965661 -0.017312490952 0.98066979083 
0.20111728797 -0.1730084362 0.96059864075 0.25327177307 -0.26169060209 0.93083082145 0.3049093373 -0.28642787479 0.90770672552 
0.33879395356 -0.3133983999 0.88624961947 0.37332383427 -0.37250279353 0.84870258568 0.39762154261 -0.45634771864 0.79184938795 
0.41684379825 -0.55827097279 0.71491625001 0.41736993986 -0.63938163834 0.64234180009 0.41497001785 -0.71400112527 0.56268181781 
0.40811407285 -0.75627619246 0.51090620949 0.39919470201 -0.79218186129 0.45926218219 0.38551022023 -0.83227097828 0.39716582 
0.3537060606 -0.87784893772 0.32039047349 0.35531291863 -0.9004955341 0.24622759618 0.36546564591 -0.91529676171 0.15978280382 
0.36715577169 -0.92524229377 0.052748478705 0.36122652304 -0.92255130563 -0.11310281788 0.26647384309 -0.88960571332 -0.3536982332 
0.17216973621 -0.82323734332 -0.52598321773 0.086154753142 -0.74088932253 -0.66255447008 0.049772629634 -0.65988167166 -0.74509133957 
0.031806900599 -0.58707474376 -0.80597136712 0.030234647111 -0.52110341567 -0.85186199646 0.0089797959194 -0.45660120188 -0.88691156277 
-0.0087328022837 -0.38876950292 -0.91970173319 -0.054741690774 -0.32247387945 -0.94300783458 -0.1006085272 -0.25176486318 -0.95772117513 
-0.16552198926 -0.11986157897 -0.9757731954 -0.22539536026 0.0058337320966 -0.97388286854 0.03705127289 0.44974482153 0.89020810711 
0.059417032113 0.3697885288 0.92559111119 0.00266494345 0.53687377229 0.84201154903 -0.059176930668 0.6441058559 0.75738820697 
-0.10622541978 0.72871256244 0.67548163156 -0.13370977454 0.77805276382 0.6116583255 -0.15957405398 0.82594073632 0.53882430885 
-0.16047969574 0.86244508774 0.47671884194 -0.15870776636 0.89338300999 0.41763329006 -0.16360632303 0.9189970416 0.35291292198 
-0.16165608165 0.94036790983 0.29670269174 -0.14248583126 0.95712700193 0.24445668204 -0.13012089076 0.9728501533 0.17835399535 
-0.12666583682 0.98480580289 0.084645963343 -0.15663412157 0.98058268933 -0.049917884706 -0.21201531712 0.9532454352 -0.19820039249 
-0.2826840335 0.86623600791 -0.38862230287 -0.35583276543 0.71852842107 -0.58555177489 -0.35876991761 0.59620216681 -0.71346090543 
-0.3369087393 0.49249489009 -0.79817476056 -0.29840160903 0.36455237493 -0.8799229006 -0.25604586705 0.26377770057 -0.92690526713 
-0.20899094971 0.18619841471 -0.95878168344 -0.16911029718 0.13166856092 -0.97614520366 -0.17101695956 0.049614493466 -0.9827472145 
-0.17160009102 -0.010493265662 -0.98444576256 -0.18058713334 -0.078150514263 -0.98037628131 -0.18628365966 -0.14826244794 -0.96996616883 
-0.17649730812 -0.26445184388 -0.94580205547 -0.15478235986 -0.38664159251 -0.90652311169 -0.10707081566 -0.50274040102 -0.85422117896 
-0.05277483164 -0.57225045916 -0.8161603187 0.0023502677516 -0.58067696059 -0.81244868459 0.065000787025 -0.53237217181 -0.84203819987 
0.12868914096 -0.53160374834 -0.83532212094 0.17433840388 -0.58013227008 -0.79325706333 0.16536939433 -0.71164672001 -0.6727756817 
0.16944026081 -0.84732540056 -0.4799678657 0.19842763843 -0.94030923215 -0.26383459578 0.23072052951 -0.96657254866 -0.10169191013 
0.25017523714 -0.96766298938 -0.026102845934 0.26636857179 -0.96297726882 0.035530990986 0.30118894164 -0.92961018968 0.1744249201 
0.33623724219 -0.88023707549 0.32078209337 0.36362358192 -0.81452919019 0.44537126376 0.38654200631 -0.73784443202 0.54664794092 
0.40197380022 -0.66151879916 0.63062297145 0.3984074163 -0.59840529723 0.69368991302 0.3926896556 -0.54366587593 0.74058282408 
0.38449566739 -0.48257399418 0.7861281537 0.37312681383 -0.41779327673 0.82641723129 0.3686875083 -0.35948466834 0.85610153899 
0.37065640119 -0.31272033647 0.8737410971 0.36218610275 -0.23672541081 0.8976081463 0.34836846782 -0.14409177422 0.92562214779 
0.22418505003 0.045745936788 0.96497690268 0.1268491276 0.19854589039 0.96768388507 0.081594904207 0.29094868518 0.95155549489 
-0.2848996644 0.27372836029 -0.91672810023 -0.27095902061 0.16805127134 -0.94273680854 -0.30910818754 0.3830350311 -0.86421357943 
-0.33184636884 0.48726463055 -0.8050032984 -0.3461372045 0.5669810684 -0.74566551668 -0.36032561365 0.64706432044 -0.66641025074 
-0.37116471133 0.7238175736 -0.57715643266 -0.3807321512 0.7939728949 -0.46810638116 -0.36688916391 0.83557934347 -0.40378522956 
-0.36133348933 0.87258529682 -0.32386850751 -0.35883554677 0.90425612747 -0.22098325029 -0.3601992099 0.92450225214 -0.10644582709 
-0.35785379099 0.93140470365 0.0067848963401 -0.35666475158 0.92679369931 0.10772511707 -0.34199189322 0.91612834197 0.20435204765 
-0.32653468399 0.8956842415 0.29419778198 -0.3019187077 0.8747159664 0.37535784898 -0.26008459335 0.85209170388 0.44961447226 
-0.20916534564 0.82926865767 0.51282181868 -0.15414578081 0.811369212 0.55920428637 -0.11550170478 0.79540253344 0.58881756317 
0.040626911214 0.48824636556 0.86993243601 0.0074337889358 0.60154973832 0.79313450383 0.067195320563 0.30205076131 0.93605478609 
0.10183115078 0.10150197716 0.98189865414 0.14703359455 -0.095264620336 0.97648751361 0.1865346561 -0.2137251767 0.95563878052 
0.22308704447 -0.29451974764 0.92914069589 0.27027011398 -0.31931379163 0.90675557973 0.30883360457 -0.35157788869 0.88254520298 
0.34692487179 -0.38998020912 0.85182448218 0.37215784002 -0.45611873185 0.80659548075 0.38349017585 -0.53294365535 0.75202871295 
0.39412730882 -0.62794286823 0.66630376003 0.39568932636 -0.6982936637 0.59346758236 0.3842111851 -0.75223411995 0.53506344917 
0.37712129326 -0.78650193457 0.48721767012 0.3672775398 -0.82403772379 0.42941775636 0.36776117328 -0.84857405839 0.37987983238 
0.37095719054 -0.87392452612 0.30918715888 0.37881492446 -0.89473564967 0.22269119311 0.36654640765 -0.92164706851 0.10900824221 
0.38604086035 -0.91530336556 0.026556977892 0.18830233509 -0.79203855632 -0.56931089438 0.26085889202 -0.85602232634 -0.43331365245 
0.097444212017 -0.7053764784 -0.69902508148 0.0509577768 -0.61231008821 -0.78426346237 0.02357612977 -0.53734236355 -0.8413083139 
0.0083887344575 -0.48390266595 -0.8740303256 -0.032176832595 -0.40778949819 -0.90866188711 -0.091040420149 -0.30741119988 -0.94606326105 
-0.11980026721 -0.20279550541 -0.9697902545 -0.14628062739 -0.10210931302 -0.98118538961 -0.17374589742 -0.018558284744 -0.98433326659 
-0.1977689265 0.026593327256 -0.97865031613 -0.25155728259 0.069212359064 -0.96492674828 -0.038677836223 0.71360313043 0.69808281309 
-0.10479464897 0.72922517346 0.67007781867 0.3436899637 -0.90071621604 -0.23378785896 0.38023910968 -0.91616873715 -0.085488497671 
-0.0043958564635 0.56512152465 0.82083650965 0.035722591312 0.4742055987 0.87833355398 -0.066468375616 0.66324192875 0.73884631126 
-0.11385883084 0.73929035886 0.66336791424 -0.13402120289 0.78413379684 0.60176466075 -0.15103467877 0.82654801794 0.54111331306 
-0.15170839874 0.85962545234 0.48413877597 -0.14811569835 0.89172886521 0.42694838661 -0.13023582789 0.90945853478 0.39384740087 
-0.12775909152 0.92924318811 0.34404947632 -0.092741975865 0.94642768115 0.30367406326 -0.076463416268 0.96427810832 0.24086685215 
-0.084360854184 0.98440015705 0.13000946609 -0.12383895776 0.983332883 -0.015012677522 -0.20386109244 0.95832407973 -0.17531476413 
-0.27835440914 0.86978483361 -0.36118754303 -0.36709275101 0.67316981777 -0.6320241466 -0.36436319031 0.55923721958 -0.74334981171 
-0.33521618096 0.47748697279 -0.80761840479 -0.30295264834 0.38705410354 -0.86697435773 -0.26755071935 0.25595536247 -0.92288874534 
-0.22499326969 0.16623479824 -0.95890719959 -0.18417776675 0.11564946097 -0.97567103847 -0.17145825477 0.087055989199 -0.98116720235 
-0.17115603787 0.039391454278 -0.98337496665 -0.18078026042 -0.034900434172 -0.98243579855 -0.19657687142 -0.13161451354 -0.97117926281 
-0.1874567351 -0.25638432865 -0.94406863251 -0.16419000005 -0.37333472468 -0.91005554848 -0.12604683114 -0.47718148216 -0.86867854999 
-0.063449645503 -0.53325518234 -0.84203012286 -0.0066795510599 -0.52173424373 -0.85194103686 0.064030841171 -0.48805632405 -0.86835383324 
0.11510391057 -0.5259525475 -0.83985850518 0.13851842091 -0.62593702589 -0.76447640714 0.14649174654 -0.77788345926 -0.58803707558 
0.16140766523 -0.90344299046 -0.37947614893 0.20202767188 -0.95379665831 -0.20057688768 0.22763968351 -0.96610871922 -0.10963842884 
0.25069435831 -0.96625481158 -0.039790230485 0.27626755437 -0.95890973237 0.0481302784 0.30070550529 -0.93758160939 0.16058124745 
0.33223331053 -0.8929414618 0.28721874487 0.36952799619 -0.82495821947 0.42396510256 0.39194520962 -0.75805213308 0.5140343944 
0.40938788685 -0.68869194416 0.59659275061 0.41722845515 -0.61493538287 0.6672920527 0.41200655188 -0.56274069185 0.71513342673 
0.40349861769 -0.52059922174 0.75242017941 0.40289795508 -0.4793863438 0.77864727526 0.40349770577 -0.43575637647 0.80355168631 
0.40794777582 -0.38078933665 0.82866538045 0.37609264323 -0.28888594822 0.87555087648 0.30301872268 -0.13645786496 0.93792393605 
0.17622580223 0.079991665891 0.97129838647 0.080682146564 0.24401628948 0.96296384038 0.048080883874 0.34619752849 0.93547942848 
0.042526882494 0.41274369528 0.90846736112 0.33732290642 -0.88096004859 -0.29742544817 0.35823196138 -0.9138819099 -0.16777961685 
0.32346930631 -0.84626209422 -0.41672160594 0.23222697988 -0.77392170613 -0.56730608835 0.13700586095 -0.67187673609 -0.72173332488 
0.069367218364 -0.56055208544 -0.82354137624 0.037429775991 -0.5038812745 -0.86237028252 0.0099014335312 -0.46904204658 -0.88270767467 
-0.029945121653 -0.40982322233 -0.90902402897 -0.083969982063 -0.31709840463 -0.94387181494 -0.14647033978 -0.16744717461 -0.97037410943 
-0.18319429316 -0.024093580507 -0.9804047441 -0.18879581141 0.10031930366 -0.9762546854 -0.18424765844 0.067063302008 -0.97986640128 
-0.20243860803 0.053388626739 -0.97684334052 -0.23528541029 0.099416161487 -0.96578922431 -0.2620307856 0.21506726418 -0.93347527738 
-0.28479956719 0.36421389104 -0.8833323968 -0.30552065796 0.48231447959 -0.81750288163 -0.31983135916 0.57466068272 -0.75062709422 
-0.3190475332 0.6485658694 -0.68760899732 -0.32556750451 0.72497317169 -0.60414042065 -0.31360825725 0.78067587828 -0.53719777224 
-0.31394473751 0.8371550741 -0.44279442353 -0.3262386565 0.88160611189 -0.33097103987 -0.34542447636 0.91186066261 -0.20399851965 
-0.3589678971 0.92439476886 -0.068528790384 -0.36589751185 0.92605832748 0.055122415191 -0.35724629876 0.91813168046 0.15010333137 
-0.34939454964 0.90189208524 0.25333816165 -0.32811586279 0.8951329044 0.29928120372 -0.3016699322 0.8929276457 0.33309816804 
-0.25359205306 0.88564852519 0.38583130696 -0.21636246648 0.86665707038 0.44507724377 -0.17798522042 0.83646894059 0.5114478011 
-0.15374490211 0.81235937386 0.56111441484 -0.13695574017 0.78229470505 0.60188621577 -0.10274039845 0.70065274486 0.70392570694 
-0.13320713445 0.71118898157 0.68556374435 -0.059578558808 0.62765584901 0.7708278321 -0.0095860239929 0.542918082 0.83090472861 
0.024378355742 0.44838774522 0.88702014983 0.05184304352 0.27416768726 0.95060387107 0.092123308715 0.077066439769 0.98632469441 
0.13437544262 -0.080886015081 0.98363391533 0.16979359071 -0.20078976084 0.96066669649 0.20903695939 -0.28840348887 0.93401149458 
0.25036714334 -0.33195463615 0.90755688344 0.28535343619 -0.3794488984 0.87931953924 0.30897523261 -0.42012695139 0.85252654534 
0.33701070936 -0.45985710739 0.82025140694 0.35688182018 -0.50766928629 0.78338073787 0.36486200117 -0.57966744892 0.72633754074 
0.3720422528 -0.64457829764 0.66437462401 0.37608129278 -0.70864948462 0.59649508636 0.36708043538 -0.76011517891 0.53285616097 
0.36471569278 -0.80064101286 0.47376831875 0.36942393202 -0.82716117021 0.42337334619 0.38327482573 -0.84491951027 0.37052309901 
0.39524692617 -0.86454986766 0.30115501876 0.40495166492 -0.88781894339 0.20509060853 0.39377803653 -0.9139803111 0.076734700544 
0.38809410212 -0.91421372529 0.02916351215 0.36455225596 -0.92246998141 -0.081041619145 0.33958610671 -0.90047697246 -0.23246697254 
0.31629371442 -0.91501862248 -0.23098986635 0.3152753552 -0.88324188762 -0.31802828747 -0.072215915025 0.68052121306 0.72282728212 
-0.0063856445122 0.57112872584 0.81548232015 -0.12659595205 0.76208323487 0.63409853787 -0.14660357861 0.80602351202 0.56839795683 
-0.16445976794 0.84841953699 0.5015084452 -0.16253091484 0.87708761177 0.4499040977 -0.14659807214 0.89865117829 0.41324666337 
-0.11885615616 0.9073410217 0.40215679524 -0.094232957368 0.91753544192 0.38518098775 -0.079585411219 0.93797682277 0.33212632319 
-0.077488565447 0.95739122644 0.27479924286 -0.12367792112 0.97246933529 0.1430761806 -0.17676859965 0.97974772213 -0.010221009909 
-0.25110932107 0.93564125798 -0.18823204548 -0.30711096621 0.87125267178 -0.3565621139 -0.33038790732 0.7925374328 -0.49457364603 
-0.33172888389 0.42384866062 -0.837539467 -0.35659064429 0.51173744171 -0.77854002225 -0.31144406678 0.31243528976 -0.89434341188 
-0.27944821663 0.1992699801 -0.93533272402 -0.24422577302 0.12570058082 -0.96111981407 -0.22024411912 0.099519158262 -0.97021937556 
-0.20051059002 0.060309361814 -0.97728032866 -0.18231116102 0.018281188811 -0.98283809067 -0.17131679435 -0.028384080731 -0.98444235831 
-0.17447492481 -0.14558254195 -0.97194531261 -0.16764438306 -0.28927723432 -0.93805931626 -0.14865082586 -0.40325875813 -0.9018151095 
-0.11294456204 -0.48606890351 -0.86581550997 -0.060036976834 -0.4778311858 -0.87471008544 -0.00073921686674 -0.45887747834 -0.88733961548 
0.057698376772 -0.46935753361 -0.87999095208 0.09621948412 -0.52554829323 -0.84155806835 0.11137237557 -0.66102577161 -0.73439725009 
0.12126488277 -0.81669455996 -0.5436495211 0.14668219749 -0.93062973098 -0.31722136023 0.19079822584 -0.96271013674 -0.17725589151 
0.22640838999 -0.96884628705 -0.082011933485 0.26260864846 -0.96352672031 -0.020129389714 0.28402422613 -0.9547492673 0.070545137378 
0.30894025654 -0.92562543677 0.19300756764 0.33797884133 -0.87904642708 0.3305474708 0.36556883847 -0.81309934421 0.44492995095 
0.38688498268 -0.73901767125 0.5475118735 0.40365981856 -0.66196126818 0.63112762293 0.40760636095 -0.59541322314 0.68978938157 
0.40958514127 -0.54594238143 0.73036103589 0.40128282777 -0.51822971559 0.75510262519 0.39096130308 -0.5058784513 0.76865261276 
0.38631825471 -0.47563980382 0.78987877996 0.3815787865 -0.43433441503 0.81490588153 0.35068947803 -0.31795053504 0.86879835709 
0.26670958198 -0.13312342333 0.94609796917 0.14211300955 0.10579130772 0.96603348881 0.054718089572 0.29999426624 0.95095314389 
0.046518658441 0.37048203696 0.92688564277 0.042483082607 0.41956876956 0.90622983861 0.039088830788 0.46546843631 0.88277469282 
-0.34802407861 0.62041279535 -0.68905552857 -0.3282280907 0.66050275431 -0.66784814374 0.28344035889 -0.85640769008 -0.4219566451 
0.2291471598 -0.77014627651 -0.5786269059 0.14896123497 -0.6463436155 -0.74390203147 0.080237701705 -0.55833675729 -0.82013196711 
0.038329743726 -0.49877643714 -0.86560481673 0.015709669864 -0.47634590507 -0.87864758444 -0.014268881291 -0.42981861997 -0.90137415928 
-0.043555353844 -0.36458799335 -0.92962441817 -0.087742069774 -0.21981614279 -0.9670822201 -0.13699786563 -0.050519807099 -0.9831408804 
-0.1989677485 0.14960529168 -0.96745996838 -0.15615797575 0.05803821344 -0.9849806631 -0.14073907595 0.084387034202 -0.98592035997 
-0.20923054634 0.15161363817 -0.96527679192 -0.24186734286 0.25874152369 -0.92696938271 -0.26753784126 0.35394486129 -0.8915880466 
-0.28020108728 0.44213417524 -0.84703401489 -0.27993593027 0.53538139884 -0.79263418921 -0.26773602251 0.61724303215 -0.7366737967 
-0.26187455286 0.68429553147 -0.6801791569 -0.26076645061 0.75841133281 -0.5942628401 -0.27790804465 0.83544654591 -0.46225602166 
-0.30164643893 0.89124367374 -0.32805225634 -0.34156019875 0.91674841147 -0.17236380059 -0.37041267772 0.92511601972 -0.019595418967 
-0.38152281613 0.90751947058 0.13102632367 -0.3746894595 0.89081162292 0.24890336918 -0.34641961623 0.88272206934 0.31189722647 
-0.31567615658 0.88500531631 0.34053228382 -0.27415086014 0.89534163186 0.35083564336 -0.23336085112 0.90013461216 0.36602325584 
-0.20895058466 0.88071585801 0.42006299575 -0.19603767632 0.85454081726 0.47620515164 -0.16862831505 0.84552365651 0.50355185419 
-0.1528858855 0.79398266367 0.58696419842 -0.14520711372 0.74971462351 0.63951229405 -0.12726107961 0.65065387301 0.74414457949 
-0.11817569446 0.66114820954 0.73819129446 -0.085414964451 0.59898352842 0.78784819244 -0.056640759257 0.57246006627 0.81225923508 
-0.029100436544 0.52997680992 0.8430030612 -0.0066194838074 0.44505846058 0.88422966448 0.030413739912 0.2937196984 0.94465952778 
0.061864556007 0.1119206835 0.98349874958 0.08708518742 -0.062722644347 0.99302887137 0.144402043 -0.2092751104 0.96236908603 
0.18955563566 -0.30450850981 0.93270340249 0.22267315107 -0.37235625399 0.89917452179 0.25663986113 -0.43466935348 0.86230566639 
0.28014516185 -0.47475403198 0.83346564166 0.30629493794 -0.5110776284 0.80185512697 0.33418710563 -0.54690056342 0.76749389309 
0.34209306021 -0.58694802382 0.73239182662 0.34965145165 -0.63411590727 0.68882038585 0.35232717785 -0.69263013255 0.62768562126 
0.35971701406 -0.74347610553 0.56163487708 0.36934339714 -0.78847856784 0.48978649112 0.38107174456 -0.81532409074 0.43527222649 
0.39791719617 -0.83896113217 0.36787104562 0.39779146452 -0.87083173801 0.28368148714 0.39520086207 -0.89091348176 0.19865763781 
0.39601131836 -0.89305009316 0.20463911346 0.37676950807 -0.9189537949 0.089198816872 0.35481257062 -0.93031601447 0.005363475856 
0.33950672545 -0.93619996578 -0.071917488829 0.29094955486 -0.88980386665 -0.32955908101 0.29137839483 -0.91516814528 -0.25460570504 
0.29585849781 -0.87062997909 -0.37766897911 -0.16686449334 0.17662827411 -0.96833980139 -0.20824999542 0.21609470047 -0.95356041632 
-0.33109599476 0.53418483033 -0.77352754468 -0.32013662583 0.65335351129 -0.67785674704 -0.31823781305 0.45895813824 -0.82521654535 
-0.29298669856 0.38804412271 -0.8698568144 -0.27386703297 0.30265534264 -0.91051914203 -0.26531822596 0.21761485703 -0.93696547448 
-0.24427455312 0.1470359276 -0.95722750529 -0.21976997583 0.093286364071 -0.97091762587 -0.20178275663 0.064085410416 -0.97716583438 
-0.17447365463 0.028482163528 -0.98391571667 -0.16328524309 -0.018382539246 -0.98596562966 -0.14312692003 -0.11721874178 -0.98121055289 
-0.12365143112 -0.260306567 -0.9538739336 -0.086529406459 -0.37753805895 -0.92037688946 -0.058745119676 -0.4378444922 -0.89670815694 
-0.035052746588 -0.4482675105 -0.89261114142 0.0025603172295 -0.44817145616 -0.89270839256 0.047244743718 -0.44109593225 -0.89569236632 
0.07093280114 -0.53236413692 -0.83442092878 0.085577416698 -0.65636408322 -0.74713405714 0.10120116692 -0.81524559772 -0.53899622626 
0.12804793371 -0.92330163321 -0.34594999249 0.17523913301 -0.95806249258 -0.207189264 0.21842183457 -0.96670153343 -0.11940902427 
0.26547830495 -0.96291083679 -0.031106411487 0.28859792459 -0.94393915072 0.12392018417 0.31715307576 -0.90607210857 0.26062201377 
0.33808872459 -0.85203999469 0.39860560391 0.36229526861 -0.79681831154 0.47742540294 0.38418479827 -0.73613771132 0.55461433597 
0.3907435941 -0.66638080647 0.63296553234 0.3892258648 -0.60269555117 0.69500988777 0.38706744056 -0.54716403794 0.74150461539 
0.38385016359 -0.52143818299 0.76191153335 0.37026088099 -0.50767881183 0.7776740856 0.35792957036 -0.49037428716 0.79444662585 
0.34636262504 -0.47055272625 0.81115201364 0.3328771952 -0.39775179344 0.84867182518 0.31671683547 -0.28525339543 0.90136687915 
0.20129182066 -0.0087266154838 0.95306691698 0.10465422508 0.22354057118 0.96371771921 0.031217192276 0.37900755979 0.92383751809 
0.046554227665 0.409348617 0.91088720435 0.056669984543 0.44599273806 0.89077881254 0.019962126139 0.54581253864 0.83473712417 
-0.026451317507 0.65609544469 0.7464774498 -0.068684205053 0.7484330175 0.65868610167 -0.10736558719 0.80056300621 0.58464907546 
-0.1426938329 0.85222890715 0.50276728095 -0.15862388974 0.87775957739 0.44798436361 -0.16969810136 0.90059678943 0.39968277192 
-0.14594732501 0.91061967488 0.38533587893 -0.12450272221 0.91920551281 0.37308890953 -0.11508887567 0.93007291574 0.34714761256 
-0.12561979703 0.94141143765 0.30866333498 -0.16456561507 0.96078378562 0.20816760872 -0.20742845303 0.97177136959 0.068273626311 
-0.26922864496 0.94462865293 -0.12701997396 -0.30875175183 0.8863607395 -0.33235054898 -0.3192478291 0.79543912568 -0.48951303884 
-0.32090890486 0.77994220023 -0.53251059077 -0.29990887736 0.71320434649 -0.62440216571 -0.29947043243 0.60307938089 -0.73505374548 
-0.28513445307 0.66380453912 -0.68288725283 -0.32011221722 0.5647030691 -0.75731715004 0.236780193 -0.78317565909 -0.56099894615 
0.14915483194 -0.66481401197 -0.72197676463 0.073309647956 -0.56717718583 -0.81435922919 0.01472769671 -0.48859631912 -0.87217529756 
-0.0045871916142 -0.44703301999 -0.89345990405 -0.017836017515 -0.4052430214 -0.91329841701 -0.024372489441 -0.35218593903 -0.93462044353 
-0.037631064483 -0.26706245429 -0.96081923178 -0.055823161277 -0.16309930282 -0.98137720973 -0.088585287338 -0.026303372035 -0.9907053387 
-0.13493208435 0.12850044683 -0.97711419927 -0.17347528323 0.22839728003 -0.95697318442 -0.17583471982 0.21395376535 -0.95852145813 
-0.13135804294 0.13504145544 -0.9786489874 -0.11715867011 0.074016443526 -0.98996300624 -0.13610354997 0.072637082276 -0.98747038527 
-0.16525491171 0.13015277862 -0.97154030416 -0.22043599586 0.26967300355 -0.93169631384 -0.26442833116 0.36651035814 -0.88827262164 
-0.25622424423 0.41440355629 -0.8712682065 -0.23941945964 0.48435203683 -0.83596683016 -0.22252195068 0.56255219253 -0.79239332811 
-0.21184126558 0.62523658542 -0.74763655974 -0.2098960281 0.68617926693 -0.6943173524 -0.28860998903 0.88069265145 -0.34372286463 
-0.24495094566 0.82753412711 -0.49889273186 -0.34154408504 0.92121952085 -0.16773832541 -0.36111750381 0.92154743974 -0.011848508687 
-0.37138060885 0.91503287202 0.11109228385 -0.36196161392 0.90324488677 0.22202770315 -0.33863530965 0.88048252341 0.32815591955 
-0.32264261593 0.87262118105 0.36611819196 -0.281517577 0.88406794837 0.36925840948 -0.17435716306 0.85534851332 0.48060021744 
-0.18699780943 0.89350175499 0.40663000995 -0.23370916433 0.77658232245 -0.58119596796 -0.23388851512 0.73654360996 -0.63137183566 
-0.21375589854 0.90134292252 0.37507225114 -0.2441226059 0.89870925178 0.3622910939 -0.10727706893 0.74657926897 0.65424833889 
-0.16532897688 0.83811968568 0.51510425077 -0.098879355646 0.7157805442 0.68625562051 -0.091632544746 0.62856563617 0.76921155851 
-0.069747057844 0.65909178341 0.74715557305 -0.077538173187 0.54061810559 0.83024940217 -0.069221348127 0.54268723329 0.83528524172 
-0.01570445641 0.39625820838 0.91348393573 0.017325560509 0.30935068584 0.94512717011 0.075949779097 0.15419349834 0.97334589769 
0.10203393631 -0.14282161189 0.97991080394 0.13074871875 -0.27073249177 0.94890702608 0.16713135147 -0.34607624642 0.92225559491 
0.19427434364 -0.39375471509 0.89656374114 0.22367416713 -0.44567960197 0.86489864916 0.25309243946 -0.50302186911 0.82491441378 
0.2769572651 -0.54846648791 0.78771236513 0.305607526 -0.56754448866 0.76417304954 0.31742690907 -0.59602270394 0.73723857211 
0.32698307075 -0.6220107487 0.71027608253 0.33437197652 -0.66567369677 0.66661336233 0.34612955385 -0.71825294607 0.60013551196 
0.36239683044 -0.76771460074 0.52587335505 0.38989079607 -0.8034661805 0.44897563872 0.40716284649 -0.84602619485 0.33622993491 
0.40831992976 -0.87075298198 0.26320674106 0.3807511103 -0.90405725445 0.17345279996 0.35760555575 -0.92631059501 0.094340192946 
0.31734135987 -0.93795112467 -0.057714020387 0.26099337013 -0.95026025927 -0.14592618885 0.22364593503 -0.8681042359 -0.42885031013 
0.19981281011 -0.93367784973 -0.25630820469 0.25478825905 -0.84699065629 -0.45377445556 -0.31074952777 0.50686928671 -0.79658636647 
-0.29764048741 0.42887587764 -0.84958626218 -0.27191763762 0.34122699372 -0.89608328265 -0.24700572369 0.24470879423 -0.93602098018 
-0.23041786075 0.14641699661 -0.9603123133 -0.21125789954 0.088086541764 -0.97330169936 -0.19100883343 0.066438368998 -0.97903736495 
-0.16604983444 0.051158164933 -0.98464446518 -0.14074434606 0.031559993914 -0.98876204866 -0.10792050825 -0.068101270399 -0.99096900987 
-0.075979960081 -0.19224098172 -0.97372095584 -0.043361887298 -0.29926300503 -0.95217294176 -0.017283611306 -0.36323688416 -0.93079203399 
0.0033013751119 -0.42034774356 -0.90682250558 -0.0094691751325 -0.40878918445 -0.91251974262 0.026714500238 -0.46914607258 -0.88222257145 
0.031387805797 -0.62463040349 -0.75903982861 0.042544275604 -0.78750090864 -0.60998176375 0.07463512094 -0.88322516282 -0.42986712387 
0.11387899261 -0.94993257095 -0.28226310914 0.16204210877 -0.96439939531 -0.19510423827 0.21756935911 -0.96553132655 -0.12283244781 
0.27581036863 -0.95894405506 -0.058795093572 0.31041694392 -0.94504633068 0.06475947514 0.34381298061 -0.88733716931 0.29650518128 
0.36995810509 -0.83553500701 0.40388507014 0.37978213558 -0.79124107218 0.47577518002 0.38117496241 -0.74445532471 0.54360311743 
0.37614879518 -0.68546150061 0.62177280093 0.37391307627 -0.60705877481 0.69734876309 0.37005311222 -0.54861258734 0.74962466096 
0.36063357694 -0.53388796199 0.76459637033 0.33852011243 -0.54495086325 0.76674463481 0.33478332727 -0.51523133384 0.78838339957 
0.32289998095 -0.47395729548 0.8189317128 0.29305557426 -0.41403721492 0.85774143525 0.24505232449 -0.24107188423 0.93358228452 
0.1776640452 0.0050660809344 0.96711940556 0.089576872469 0.24683986531 0.96225204726 0.037921933444 0.3547756881 0.93275694693 
0.024227401144 0.41325433909 0.90891333043 0.012909774576 0.48237200127 0.87261664451 -0.014514188875 0.59262117303 0.80133609854 
-0.026902892927 0.67089856398 0.73811145705 -0.030556430216 0.72407188233 0.68823422563 -0.068897801889 0.78312026016 0.61356784408 
-0.09689112272 0.85011495152 0.5158424267 -0.13093150976 0.88632198861 0.44029574503 -0.16582014033 0.90596664142 0.38894024333 
-0.1813632847 0.91295426371 0.36327206756 -0.17791788662 0.92268739976 0.34097879867 -0.19211044917 0.92808321452 0.31472019063 
-0.20597359871 0.93742716412 0.27953955278 -0.24132770506 0.94525012274 0.19174906711 -0.27872044157 0.9545553839 0.083993893693 
-0.29777223715 0.94025321051 -0.074922192835 -0.31980160999 0.91969528421 -0.21493121236 -0.32202914086 0.87103381726 -0.33857459018 
-0.30218232693 0.81144942326 -0.48428114506 -0.29722473497 0.79128325232 -0.53147824062 -0.29177088059 0.73588587967 -0.60121032929 
-0.28205160316 0.62351291254 -0.72474249846 -0.25837092095 0.64095301493 -0.71446238222 -0.27403913742 0.51601893164 -0.80589209531 
-0.0053946224388 -0.39235767383 -0.91964441462 0.0014937855938 -0.36228265196 -0.93173994291 -0.0015412367503 0.36895543338 0.92116218604 
0.051172784828 0.26991634037 0.95908431751 0.18164118777 -0.29458420107 0.93547694467 0.18405522535 -0.2113217163 0.95570167175 
0.18785940158 -0.3505427459 0.91553980997 0.20655203748 -0.40449083658 0.88950782416 0.22183369249 -0.47855067465 0.84647141757 
0.23945837167 -0.54446029123 0.80185746032 0.25978732863 -0.58438922724 0.76780869066 0.28283188413 -0.61413990855 0.73653350173 
0.29901900296 -0.59089858724 0.74911015573 0.31312393177 -0.59921249885 0.73629286139 0.32703379484 -0.62625893815 0.70739605262 
0.34583909069 -0.67136451277 0.65215207951 0.36710225141 -0.72454938593 0.58001375282 0.38591800692 -0.77706471906 0.49503462302 
0.40052550947 -0.81467340754 0.41414999318 0.40018962511 -0.8688579226 0.27836327244 0.39798376161 -0.86238996601 0.29898768065 
0.19172749967 -0.7704278261 -0.58964188501 0.10436904705 -0.64543902454 -0.74455875261 0.029485346597 -0.5094218187 -0.85771005463 
-0.0023775080779 -0.42587523268 -0.90416375167 -0.0067618484971 -0.37035318437 -0.92873085778 -0.0052191473848 -0.32639215139 -0.94466741916 
-0.016748262834 -0.25069572013 -0.96608155771 -0.019701806295 -0.19075631098 -0.98078368021 -0.037817574217 -0.11634934488 -0.98937662195 
-0.055247268724 -0.049081493253 -0.99416957257 -0.094588705787 0.054147007067 -0.98718971644 -0.13633155581 0.17328112807 -0.97514646027 
-0.13405813309 0.11553176109 -0.98280204111 -0.11804832091 0.16953097931 -0.97660800708 -0.096701478309 0.12866552945 -0.98538544089 
-0.089483829465 0.066044842511 -0.992924436 -0.12704000536 0.14413769803 -0.97967264332 -0.16321124782 0.23725590956 -0.95312858677 
-0.19825491447 0.29441667058 -0.93356259609 -0.1813260108 0.37767807337 -0.90170139069 -0.19046005315 0.47649984542 -0.85476721655 
-0.20857341897 0.56584419633 -0.79182826205 -0.20686362114 0.62434188785 -0.74883872308 -0.21179802845 0.65841508362 -0.71794724065 
-0.2486700434 0.76155463392 -0.59650494646 -0.27202739394 0.74216964079 -0.60283633824 -0.27126585068 0.80980879651 -0.51003703838 
-0.31850259515 0.86994741072 -0.37166393073 -0.34313583111 0.90515466765 -0.1833766693 -0.35945571783 0.93130985717 -0.018594844849 
-0.36291116188 0.9179237286 0.10869793677 -0.10330563908 0.80164935159 0.58469866843 -0.12853680015 0.85093450383 0.50515998494 
-0.062143857231 0.72431681602 0.68381582556 -0.038637807195 0.54238955388 0.83633628855 -0.052984741373 0.63819381076 0.76656366636 
-0.06304080069 0.50630479274 0.85482341312 -0.26079120922 0.43045784199 -0.85912419898 -0.24124236858 0.31984560748 -0.91119020565 
-0.22032485297 0.2123570307 -0.94881266614 -0.20097272391 0.14005554364 -0.96856354781 -0.17883259012 0.093966407621 -0.97911325153 
-0.16438092035 0.084220547368 -0.98257599946 -0.14833979393 0.096054302167 -0.98393393662 -0.079111751418 -0.082303697074 -0.98924261917 
-0.042650713752 -0.19788015875 -0.97666837279 -0.014188192652 -0.27222627653 -0.96100363674 0.0002439674755 -0.28836198101 -0.95636212151 
0.0063555140959 -0.44623404649 -0.89208998146 -0.0050392340087 -0.40673352791 -0.91098766308 0.016327138329 -0.50526053377 -0.85682144895 
0.020239978004 -0.61873329571 -0.77868819269 0.043603254966 -0.74536268959 -0.64980640354 0.073358662034 -0.85740448206 -0.49073306899 
0.11107294121 -0.92541348114 -0.34974233605 0.16360328043 -0.95644995032 -0.22285836797 0.22302828792 -0.96625492897 -0.10666554343 
0.28319902305 -0.95672841585 -0.010587312549 0.31471119219 -0.93891031745 0.084385891043 0.35178503906 -0.92217184355 0.1274030637 
0.37516445779 -0.76907789138 0.51426626837 0.39201196133 -0.8077486236 0.43876066929 0.36279392581 -0.71399765748 0.59490741347 
0.35726407211 -0.63757453713 0.67920800583 0.35344153478 -0.58927888339 0.72516690372 0.34853918249 -0.55087089989 0.7581247062 
0.3367821257 -0.56045546868 0.75642150995 0.32489526442 -0.57856430464 0.74804672445 0.29928526037 -0.45333173326 0.83917489525 
0.31508320442 -0.49387946857 0.80945179668 0.27052642964 -0.3766748566 0.88103867385 0.2363577663 -0.26877533829 0.93054102268 
0.19329447131 -0.058816765878 0.96863684994 0.14340622157 0.1186394583 0.97570174386 0.082791589663 0.27384901425 0.95287804419 
0.013176637296 0.41135799088 0.90520841202 0.39312994832 -0.85065816495 0.33359834562 0.39662572982 -0.8691110335 0.28668699725 
0.1644472349 -0.056638669972 0.97615361595 0.10983791394 0.15963939191 0.96721132892 0.32161560358 -0.55784114347 0.76475807661 
0.31134889064 -0.59314119283 0.74177866314 -0.054506606125 0.69453679145 0.71339611029 -0.05428629487 0.74087174853 0.66699136308 
-0.056267753546 0.78789475668 0.60725348766 -0.071888527066 0.8503022493 0.51997852761 -0.11847500524 0.87837675667 0.45631071451 
-0.17202545406 0.90572675967 0.38641468466 -0.21036333444 0.91767967928 0.33315860047 -0.23231364092 0.9249847231 0.30005442991 
-0.24919562675 0.93312162958 0.25263236543 -0.26792382189 0.94233907515 0.19573157491 -0.29156029949 0.94684169033 0.092480311338 
-0.3085288234 0.94936284491 -0.020510202554 -0.3106429581 0.92786263101 -0.15546584527 -0.30758379525 0.90365352899 -0.28106936467 
-0.30646318926 0.87171992034 -0.37044030656 -0.3059481617 0.86645696237 -0.38070429071 -0.30510982009 0.84081716945 -0.43877063736 
-0.28623479181 0.77413506229 -0.56360450576 -0.24932292557 0.60815983151 -0.74673367556 -0.33469413031 0.889489474 0.30750806004 
-0.34962747357 0.90611422638 0.22922949613 -0.32488810689 0.87994720597 0.34534671133 -0.30500438418 0.8886912428 0.34114312586 
-0.27563272061 0.89702005655 0.34197279894 -0.21036597891 0.90454713584 0.36931743476 -0.23628683862 0.91129628502 0.33429418667 
-0.1806410711 0.89201961343 0.40975008124 0.028017058827 -0.66852089314 -0.73133555961 0.0091534038792 -0.54737013461 -0.8286235995 
0.058063507276 -0.78831906493 -0.602913325 0.086424911839 -0.86525708427 -0.47592511694 0.12117003714 -0.91233327186 -0.37922404049 
0.16618003763 -0.93605305919 -0.28543948357 0.23054717927 -0.95781874187 -0.14120878877 0.32741197702 -0.94119581161 0.043699305971 
0.36943473175 -0.91437016548 0.13943607205 -0.25955618985 0.91665894373 0.30160368836 -0.27818604399 0.92619086585 0.24705366221 
-0.29710190773 0.93528319559 0.18694481994 -0.31033766807 0.94092285758 0.098584829007 -0.32254785506 0.94567297524 0.0045720892585 
-0.32280107875 0.93244106708 -0.10965552484 -0.32170700321 0.91688735835 -0.23184579761 -0.30569400068 0.86941592221 -0.37481141348 
-0.3035554972 0.83944783147 -0.43007940644 -0.30753622894 0.85319163196 -0.4088604279 -0.319590967 0.87975860508 -0.3267599151 
-0.33576358582 0.90739812215 -0.20003407857 -0.3514950173 0.92988348586 -0.042687995952 -0.35325454944 0.92416703051 0.095437613566 
-0.22959190103 0.48776253178 -0.83638850573 -0.20359128992 0.38065882039 -0.89809452536 -0.17646951252 0.28028884103 -0.94134992025 
-0.15374920716 0.18922481724 -0.96637826795 -0.129377171 0.11100780532 -0.98498064156 -0.13699698578 0.10857324985 -0.9843611381 
-0.12912214827 0.12041136468 -0.98416918078 -0.15300540226 0.3240478646 -0.93244793579 -0.14233054255 0.36929071313 -0.91383794545 
-0.14468701724 0.44559913749 -0.88323560292 -0.20272732982 0.53308154284 -0.81471853065 -0.12600041236 0.17269418119 -0.97564370558 
-0.079591792808 0.12131996345 -0.98929814095 -0.07688643001 0.13231231742 -0.98703007929 -0.10073117274 0.17666892306 -0.97516539054 
-0.32988082433 0.89815367289 -0.28476395021 -0.33456466847 0.91709257057 -0.17968463594 -0.33305498145 0.93501433247 -0.055417526872 
-0.3325622933 0.93680989347 0.057832697371 -0.33082291201 0.92564368779 0.15875429924 -0.32425391156 0.91166268948 0.24642942102 
-0.31601474792 0.89804199534 0.3005888906 -0.29393868824 0.91293727114 0.28062633242 -0.082705920757 0.00055459289976 -0.99411937092 
-0.04874871134 -0.091940634665 -0.99044158098 -0.012912528402 -0.19900430405 -0.97755179396 0.0014300158262 -0.25968169349 -0.96492233176 
-0.0043571359032 -0.37373972952 -0.92751778186 -0.00089138413016 -0.35901350269 -0.93311411192 0.14383447175 -0.79862017408 -0.57018235383 
0.062368204448 -0.64624885208 -0.75300606267 0.004346988147 -0.53379646871 -0.84278182314 -0.008154681128 -0.43594030481 -0.89696374077 
-0.014692708412 -0.37719434897 -0.92574744163 -0.0051502610054 -0.43834992957 -0.89835012496 -0.00036144015547 -0.29000610535 -0.95588190732 
0.39793864309 -0.81468542171 0.41489062346 0.39347451436 -0.78144316977 0.48300647047 0.37928590649 -0.74942838214 0.53986989639 
0.36414525572 -0.70831081288 0.60092448478 0.35083523617 -0.67013448872 0.65170535466 0.33815729008 -0.62313809846 0.7024346934 
0.32532145254 -0.57617604045 0.74840584456 0.31908645297 -0.57392229605 0.75407685155 0.31166277989 -0.5968756029 0.73893171033 
0.29812699097 -0.61798729697 0.72736970972 0.29315952195 -0.57564686762 0.76180037545 0.28572318153 -0.60983240534 0.73915522451 
0.29975757197 -0.54714070878 0.78091644979 0.29828782271 -0.50782229494 0.8060895926 0.29194976724 -0.46011373855 0.83831228794 
0.2684111164 -0.39979681938 0.87365527456 0.24147912938 -0.3090729373 0.9155472128 0.22760428605 -0.13418978925 0.95991425865 
0.17095671258 0.052053307237 0.97484850097 0.11883304073 0.18662201449 0.96921851338 0.052496426241 0.33329373816 0.93385766853 
0.17569096201 0.021607852249 0.97622476621 0.18829925437 -0.060558823765 0.97369240563 0.20387556076 -0.2021523187 0.94862154382 
0.21856818267 -0.32525869846 0.91964528693 0.23454589624 -0.39304690403 0.88658208628 0.24870013848 -0.44977725642 0.856299478 
0.25751508596 -0.50566890494 0.82112609711 0.26512447063 -0.56309606897 0.78005886286 0.29296157612 -0.59405836463 0.74904752133 
0.29051079488 -0.60530369127 0.7409203532 0.30255116916 -0.60271254099 0.73726469455 0.3196465649 -0.63999963382 0.69780491935 
0.343235601 -0.68534566242 0.63881258844 0.35576848739 -0.75013910158 0.55541581579 0.38101691962 -0.78604780105 0.48268819751 
0.39399593716 -0.81328706205 0.42437539844 0.14329620415 -0.89245917379 -0.42186516922 0.33688346608 -0.62388774597 0.70282620796 
0.32478053022 -0.5994602368 0.73121711483 0.31432301971 -0.5858740998 0.74668582323 0.30659953932 -0.58787296628 0.74831828767 
0.30247894516 -0.6015542217 0.73892461005 0.26138499367 -0.42531913094 0.86604441237 0.27302926563 -0.48351052241 0.82937121069 
0.24601499544 -0.37072455252 0.89268633552 0.23305969799 -0.32813034312 0.91390021747 -0.10511390147 0.11412973699 -0.98759454597 
-0.089975721448 0.11240137737 -0.9894013454 -0.19623647964 0.40290856708 -0.8891512674 -0.14704421608 0.2906608367 -0.94431281989 
-0.22444652663 0.47642845145 -0.84735095304 -0.30864578944 0.92685818318 0.20074293578 -0.32122776736 0.9385970964 0.11174229872 
-0.32693290263 0.93996159959 0.012454402792 -0.33172514681 0.93645090186 -0.095113551934 -0.31906414503 0.91054740921 -0.22947514022 
0.27810613115 -0.6037603702 0.74678672679 0.28538905838 -0.58906598776 0.75508546588 0.2814825318 -0.54357215264 0.78882419728 
-0.0060633635092 -0.38320870235 -0.92326754067 -0.0052268048213 -0.40735842325 -0.91236896875 0.011625134169 -0.58029039424 -0.80587092345 
0.041803003234 -0.67355816093 -0.72985898849 0.081095655413 -0.76918474676 -0.61919253981 0.10003510506 -0.8192229394 -0.54513179967 
-0.087190974486 0.15578121634 -0.98235795696 -0.051681594131 0.68185722699 0.72633823218 0.0059332967305 -0.32256204835 -0.94602136936 

Curv_Gaussian 1 1116 double
5.2769808382 5.4241749965 -0.0091084704208 -0.0037723472497 5.7656035194 -0.0071247132685 5.8562153915 -0.0047904368218 5.9182666067 
-0.0052638210802 5.9525663606 -0.0052514440885 6.0436294811 -0.0038916840461 5.9440733318 -0.0038690728456 5.6290735653 -0.0055375728808 
5.268088276 -0.0046866692679 5.0165432465 -0.0029165296395 4.8594797995 0.00038666170914 4.7813958004 -0.0051302760624 4.811679228 
-0.0070105331915 4.9124938074 -0.0047775705365 4.9622550193 -0.0077351690272 5.0097518471 -0.009519699003 5.052079927 -0.0096584998455 
4.9300883048 -0.0080965390092 4.625506393 -0.0038266325536 4.4820531878 -0.0022997726653 4.404835202 -0.0022888545812 4.4932722443 
-0.0081183606746 4.6552659272 -0.011677318924 4.9945140017 -0.015396374957 5.4227294966 -0.022656526078 5.9133989339 -0.02665235524 
6.4991717388 -0.013427542687 6.7493424125 -0.0084641866207 6.6360974598 -0.0023397561792 6.1171099353 -0.0018179035871 5.8088561359 
-0.0024135488429 5.7191513807 -0.0040841329164 5.6235935427 -0.0042535334803 5.8364821652 -0.0032094758274 6.3296064371 -0.0016311198774 
5.7997864739 -0.0011470041347 5.5018236758 -0.0010605674065 5.4939542058 -0.0028787937014 5.7680572193 -0.0046108481519 5.8057075747 
-0.0059534261476 5.3221591462 -0.0042753340684 5.3185005912 -0.0057821569786 5.3432280279 -0.0075643869408 5.3181555399 -0.010129590282 
5.1069505146 -0.014960552935 4.9196977878 -0.019648939979 4.7201262255 -0.019631238565 4.3616773059 -0.013270308412 4.2683984639 
-0.0071186402032 4.3248720493 -0.0052254392209 4.4831361851 -0.006025933714 4.9600117533 -0.0062087594986 5.9701877979 -0.0046459393147 
6.6288405656 -0.0012017694141 6.5865701156 -0.00028781716539 4.5738632977 5.2929217011 -0.0040270812727 -0.008209810325 5.6012298063 
-0.0050033480967 5.1282201196 -0.003198349344 5.335300212 -0.00189263943 5.6849961276 -0.00091906888472 5.7105565642 -0.00030912787955 
5.6341244914 -5.4089190517e-05 5.1787115161 -0.00037607476293 4.7588042582 -0.00020842671596 4.4432583753 -0.0046308419508 4.2961600184 
-0.0071234562288 4.6098166108 -0.0065318403166 4.7485323581 -0.0070609637455 4.6380539857 -0.0093769051881 4.6287137755 -0.015706275999 
4.6725202671 -0.026741141749 4.5447387338 -0.019019673678 4.6184643496 -0.011322120997 5.28432358 -0.0059836017318 5.9508362235 
-0.0048283557086 6.617797985 -0.0078385804197 6.5478051855 -0.0075327801865 6.8028796182 -0.0057150920332 7.6878087484 -0.0060256647264 
7.7860994222 -0.003606497779 7.4547270081 -0.00059269410643 6.5848532266 -0.0017679883257 6.039046261 -0.0044180055959 5.9383444672 
-0.0076922869618 6.3685303236 -0.011154505359 6.5230182356 -0.0093096120657 6.383243222 -0.0077676152262 5.8903944878 0.00042876023261 
5.7923350129 0.0032755262142 5.9478086432 -0.0016835865327 6.3063637441 -0.013370342799 6.8016263459 -0.021117231421 7.4458718864 
-0.022581464495 8.3216362555 -0.0071794799017 9.0527091614 -0.0022914057151 9.2707168917 -0.0015607598834 8.9171685471 -0.0010575506186 
8.4757339411 0.00044209747073 7.8878133026 -0.0031381377632 7.1797849232 -0.0057319770088 6.5137866491 -0.0025406141506 5.7918659582 
0.00029005444158 5.0199539357 0.00013913517561 5.4125654262 -0.00016146953361 5.7553283507 -0.00028725661681 5.7660009616 -0.0017553800441 
5.4544835286 -0.0038879048303 4.906708779 -0.0047593890952 4.2437194776 -0.0076121043286 3.8189201877 -0.011978696995 5.0977058923 
-0.012164860822 5.2894260309 -0.012382682248 0.0009211173112 0.0049292234962 -0.004981497059 -0.0010514610527 -0.00152396027 -0.00083463405729 
-0.0020799995562 -0.0047942779025 -0.0124917845 -0.010342146638 -0.0040397246208 -0.0061644165944 -0.0058600466611 -0.0033792215459 -0.0020802276237 
-0.0030176577776 -0.0042342919661 -0.0050317825472 -0.0075015351578 -0.0081451536955 -0.0075765365288 -0.0075257947796 -0.011167562328 -0.010932026595 
-0.0091842923114 -0.0077017843631 -0.0094368824687 -0.0061088951073 -0.0025260385217 -0.0022119792505 -0.0024587148397 -0.0024532435369 -0.0025059874847 
-0.0007343977833 -0.0019294654236 -0.0020816771744 -0.0021610967584 -0.0020717626719 -0.0011951196682 -0.0021722886702 -0.0024888901101 -0.0010691945308 
0.0003417255907 -8.8924794501e-05 0.0010981611552 0.0047913583087 0.0014532496909 0.00015565491069 -0.00021091929675 -0.00066768832826 -0.001261232497 
-0.007743627807 -0.0088171045477 -0.0061277944151 2.1022328718e-05 -0.0046469360932 -0.0036059904487 -0.0018502477952 -0.0065166595965 -0.0040804382292 
-0.002816867401 -0.0023888001041 -0.0023672458548 -0.003159244742 -0.0037877609891 -0.0036149107999 -0.0035741817641 -0.0049291717359 -0.0073733279195 
-0.010358042439 -0.0088662001546 -0.0090957861565 -0.011793663856 -0.0018133506364 2.2884119777e-05 0.0019730169427 0.00096128725657 -0.00014152535018 
-0.0016414705154 -0.0020065412619 0.00031568094319 0.0024540072355 0.0011594807922 -0.001530919931 -0.0031047671184 -0.0031434146849 -0.0013515032472 
-0.0010651975748 -0.0010360833669 -0.0014740046843 9.058210476e-06 0.0013396142145 -0.0092795780939 -0.010874872023 -0.0085705459065 -0.0015855182733 
-0.0025281595576 -0.003852369201 -0.0059540133994 -0.0059544974297 -0.0017695623435 -0.00052257677155 -0.00076440199224 -0.00026879496732 -0.00097669994694 
-0.0010469401381 -0.0021856368214 -0.0041805806242 -0.0031236678554 -0.0017694636308 -0.0008977893132 0.009123338702 0.0041639778345 -0.0019685283226 
0.0032010312501 -0.0033094411329 0.0028755029564 0.0028691875807 0.0012970870792 -0.0016628947806 -0.0059275661704 -0.0093870891099 -0.0066535094236 
-0.0047852530082 -0.0030857954945 -0.003522204118 -0.0073163058292 -0.0063352770303 0.00098496801243 -0.0020032011517 -0.0057529895246 -0.0038181081291 
-0.0018445449669 -0.0006795703017 0.0025298134131 -0.0091043726771 -0.0038907494734 -0.0078756737687 -0.0056927387582 -0.001516212576 -6.2812851898e-05 
0.00016436155219 -0.0014125028063 -0.0030556825218 -0.0024637275351 -0.0030415655135 -0.0011778846352 0.00019639407834 0.00010480494279 -0.00024502096908 
-0.00030478639837 0.00018587533286 -0.00094418709601 -0.00048181834608 0.0017662706185 0.0043987868475 0.0048492127504 -0.0024732185711 -0.0034003151053 
-0.0042751956696 0.0014944750034 0.0042284483093 0.001408295876 0.0014714113981 0.0043859319145 -0.0079752723027 -0.010636161602 -0.0064168880965 
0.0018269066752 -0.0033819288754 0.0019055619845 0.0051451342777 0.0074350072565 0.0053025127445 -0.0019399854888 -0.00023345688965 -0.0035563153945 
-0.0038195415596 -0.005988001899 -0.0071091969127 -0.0032104317426 -0.0023034216394 -0.0037516275755 -0.0031642263371 -0.0029002640792 -0.0028396288423 
0.0018302528987 0.0084683951181 0.019935601902 0.021262073799 0.012397550108 0.00058962451686 -0.00023488555145 0.00063805172011 0.0010056992223 
0.00027082245194 -0.00085829471533 -0.0013607154484 -0.00031221943428 0.0023160063616 0.0012031588699 0.0011538085776 0.0012321722471 -0.00040797811735 
0.00049778167104 -0.00024729414704 -0.00090125712795 -0.00045572791994 -0.0011945426489 0.00056139978211 0.0009444675834 -0.0013390438452 -0.00024446434106 
0.00021889665619 -0.002915539959 -0.0045070739976 -0.0048805335311 -0.0056736489034 -0.004923182222 -0.0038398247544 -0.0011545401778 -0.00070908707405 
-0.00036616985092 -0.00094680078421 -0.00072245269708 0.00010059464123 0.0037303566613 0.012152523883 0.0079800778855 -0.00055877695146 0.0010005668104 
0.00059762403578 0.0090729097165 0.0066993481551 0.011886628935 0.01215245937 0.011215893117 0.0077733207065 -0.00040991140609 0.0027572074066 
0.0035174747484 0.0043819650546 0.0022136927976 -0.0049065730891 -0.0027422380197 -0.0021918357842 -9.1821192285e-05 0.0056453859242 0.0066389010221 
0.0032706853718 0.0029753147633 0.00012207264969 -0.0024570242284 -0.0088959478363 -0.0026536894248 -0.0012412817508 -0.0012269640699 -0.00050101980604 
-5.303554049e-05 -0.00023172433766 -0.0032101436691 -0.008207341287 -0.0039409355581 -0.0003131726421 7.4452323502e-05 0.0010087448432 0.0021746079862 
0.0028052972268 0.0033572278833 0.004070554915 0.0060981295427 0.0090412590045 0.0042797529505 0.0026202262546 0.0023012708842 0.0028170271821 
0.00090550314177 -0.00029170891909 -0.00033054021966 -0.0003497707099 -0.0012576816923 -0.0024315692203 -0.00098082353588 0.00058163218044 0.0013175327877 
0.0016139906918 0.0019136843761 0.00048063481998 -0.00022579424614 -0.00023924608986 0.0014435088019 0.0021303567273 0.00091303535776 0.0038313994978 
0.0070510529652 0.0077930262262 0.010320466305 0.0053267054992 0.014612558994 0.0010005861873 0.00021095519264 0.0016085847069 -0.0012394816848 
-0.0037648775209 -0.0022026557829 -0.0002963450377 -0.00043060726254 -0.00090249069748 0.001621237434 0.0047180791288 0.013515729774 0.020977674432 
0.01846405162 0.017174003996 0.018105179572 0.0048088714983 0.0035768743356 0.0091125910641 0.0045783015304 0.00031123817811 0.00035564884878 
0.0013539784407 0.0012848123299 -0.0012413045037 0.007030151145 0.0060683524064 0.00078280611815 -0.00027739015824 -0.00092878283716 -0.0010606427503 
-0.00061829011385 -0.00069000665577 0.00079908239725 0.002573544947 0.0017749985409 -0.0011202337217 -0.0017396257686 -0.0025487800934 -0.0038949221054 
-0.0052064614879 -0.0047842497642 -0.0024348435964 -0.0017619841071 -0.002463037973 -0.0017641791701 -0.0013610937569 -0.00056497970044 3.0888478394e-05 
0.0012815546332 0.001791490828 0.0070138845949 0.011295239498 0.0073764974395 0.0021381919979 -0.0012028658748 -0.00078626293357 -0.0011385583162 
0.0083554615777 0.0072201093979 0.024757073571 0.023400872205 0.017937345936 0.010486749808 -5.5942695767e-05 -0.00031027811017 0.0011632638013 
0.004675205126 0.0062240378677 0.0068407687946 0.0026906974817 0.0011701975772 0.0012321096075 -0.005282490387 -0.0029488714064 -0.00042564188395 
-0.00054501069967 -0.0019401938689 -0.0029685589381 -0.0021547868698 -0.00052609150686 -0.00042740176393 0.00088075364469 0.0013620859353 0.0022072499196 
0.0018279759512 0.0010324499571 -0.00024940561993 -0.00052515875841 0.00011283594686 7.5008943929e-05 0.0006731911623 0.0012648604998 0.0015880656771 
0.0052231535045 0.0062189194277 0.0077366163018 0.0035388886904 0.0080420234045 0.010105222553 0.0099370585731 0.0081919616692 0.0033131426192 
-0.0043974027169 -0.011297070176 -0.0028710513162 -0.00074292605077 -0.00041020797846 0.0012143103457 -0.00069651588912 -0.00093135470393 0.00020251316787 
0.001078881837 0.00059858919364 0.0016248374682 0.0018550279471 0.0014302501901 0.00022120503595 0.0016128164251 0.0010414745267 0.0021175194449 
0.0070669754669 0.0084526984572 0.0074500415593 0.006041013728 0.0039279762695 0.0066825086533 0.0089799246003 0.0010321206772 -0.00097825315623 
0.0068216080239 0.0089140376264 0.0048618265331 0.0027238154491 0.0019261474287 0.0033107081638 0.0023784330345 0.00044683424414 0.001323879646 
4.0864334532e-05 0.0012522802174 0.0015364487656 0.0031407773441 0.00031594370447 -0.00084989295034 -0.0013707061208 -0.00041907304531 0.0019907218123 
0.0041659289784 0.0060631967513 3.3619341567e-05 -0.0018016914912 -0.00067213590213 -0.001219977352 -0.00070315754177 2.7956077397e-05 0.00032130608184 
-0.00063688640094 -0.00075138908687 -0.0010425354182 -7.1139651231e-05 0.00088034256803 0.0011284268951 8.1460893389e-05 -0.00031062001271 -0.00026627925601 
1.6676972634e-05 0.007317985905 0.018302377365 0.01068208608 0.0056133803803 0.0012583555199 -0.0016896540431 -0.0033716493278 -0.0023917011337 
-0.0023563479235 -0.0019761441118 -0.0015075099932 -0.0019889204097 -0.0006397918233 0.00031863866234 -0.00059404353024 -0.0017364565264 0.001314248772 
0.003413886692 0.0094037983009 0.019956855635 0.020571078251 0.021833939056 0.015025705142 0.0072467846061 0.00079432218004 0.0052797851775 
-0.00073943902505 0.0086013026367 0.0045862601942 0.00099754833458 -0.00023314309916 0.0013663976377 0.00089825548484 0.00086727474497 0.0025281536544 
0.004348670168 0.0062566214549 0.010663957393 -0.0023491575254 0.0015826435687 0.0025172675099 0.0056573260024 0.0015764540391 -0.0020131834265 
-0.0033978951112 -0.0034701636212 -0.0018513701533 -0.0018619896648 -0.002783992656 -0.003235803481 -0.0017290697936 8.118438543e-05 0.01091144596 
0.0068069897547 0.014006409924 0.0095188652688 0.0054128969241 0.0063252008747 0.0019730485976 -0.00014812195198 -0.00017379792377 0.0020532683432 
0.00085105830302 0.0020343657351 0.0012485175904 0.00019128749713 -8.3094010297e-05 0.0040132260523 0.0042652694724 0.0012023549881 0.00010734115994 
-0.00030069465881 0.0080005914396 0.010868997676 0.013230396276 0.0059675250184 0.014284187056 0.01141479837 0.001418457176 -0.00054487249602 
-0.00052656140211 -2.2133081415e-05 -6.4564872574e-05 -0.0013735842361 -0.00056616225743 0.00054502636377 -0.00043345914236 -0.00018022767665 0.00048079181882 
0.00094969338408 0.0012706999034 0.003288847116 0.0058226131742 0.0047712834574 0.0032139956526 0.0055171377926 0.007783647797 0.0091831122851 
0.0082166218337 0.0034664028003 0.0060515424422 0.0026072846813 0.0014972511338 0.0021051673801 0.0025108614978 0.001360867938 0.00077538217295 
-0.00039753900972 -0.0019835638041 -0.0074923084557 -0.0034491262263 -0.00076734419578 -0.0002554498225 0.0019253459323 -0.0019584998904 -0.00039303916162 
0.0030478413423 0.0044863976397 0.00076310478218 -0.0013205591453 -0.00074349316581 -0.00023979104201 0.00012587938833 0.00097429289924 0.0068342561337 
0.0024921494535 0.0020499499017 0.0029190970281 0.0054923850902 0.0022992288394 0.00095096316036 9.4092494019e-05 -0.00069465429861 -0.0010041251786 
-0.00074676911807 -0.0026052029933 -0.00032270654908 -0.00065647140946 -0.0046827124245 0.0032597839477 0.0021494015858 0.0013163655235 -0.0018502724592 
-0.00058358430282 0.00051803695312 0.0060835576809 0.008653787787 0.006590994053 0.0054033999549 0.0023621262494 -0.0011540191048 -0.00075096770712 
0.00066397479456 0.001283458586 0.007218861813 0.0098392509962 0.0087149348449 0.0054462489516 -0.00053144463533 -0.0023852211072 0.0016765410173 
0.001367643827 0.0053074137538 0.0017168820287 -0.0012778476257 0.00073457322285 0.010525792567 0.012390492806 0.0029104269298 0.0062579581759 
0.0027044373025 0.0046695019512 0.0031418037511 0.00068711340906 -0.00055226516116 -0.00023359996786 -0.00014584368723 0.00011749804346 0.00092411884605 
0.0017841542263 0.0028463490162 0.0044076561638 0.0041100337716 0.0051752396913 0.004289385174 0.0080984455127 0.0086017194054 0.0066559029865 
0.0045597347437 0.00062149602966 0.00041094254284 0.00028423453127 -0.00081749994987 -0.0016689722865 -0.0019340645925 0.0096682601903 0.0018923839952 
-0.0013587439818 0.0025623014047 0.0063078233537 -0.00011634100562 -0.0028721086192 -0.003587462513 -0.0027448404371 -0.0038513280175 -0.00210000585 
0.000951819134 0.00092771859468 0.0016537269492 0.0026389114744 0.0040929137044 0.0046879025183 0.013591172884 0.012780492402 0.010541350027 
0.0082509206564 0.003292945651 0.0062306233046 0.0014917337667 0.0014092301063 0.00074017298719 0.0042817157442 0.0043357011478 0.0061208766184 
0.005903450186 0.0043301625409 0.0013667587434 -0.00026357965064 -0.0028814282373 0.01196487307 0.0098755040678 0.0016232416719 0.0021933716495 
0.003343866575 0.0014121870365 0.0061858744998 0.011097523063 0.0066773841859 0.00060856701945 0.00079293599915 0.00033867131458 -0.0010288805739 
0.0010941757829 0.0032742086928 0.0061188596755 0.001514195651 0.0013763048548 0.001783455322 0.00081245336589 0.00026106949691 -0.00024067275256 
-0.00048451331222 -0.00062478159555 0.00020930561207 -0.00028307970919 -0.0016638167584 -0.0031289488019 -0.0028181052825 -0.0057597602148 -0.0061478241014 
0.00547476397 0.0027387229195 0.0012108663846 0.010770238165 0.012596141752 0.00061796191971 -0.00017085650396 0.0018179357884 0.0027609123127 
0.0016116999702 -0.00030300235372 0.00035492308493 0.0019039814559 0.0022891791535 -3.0529346808e-05 -0.00057710305007 -0.0015116692915 -0.0017162424453 
-0.0024892432199 -0.0012366968491 -0.00052393640453 -9.8589055719e-05 -0.0022368064371 7.8404102984e-05 0.0040776085429 0.0070422734526 0.0020299664958 
0.0041168534998 -5.9712696178e-05 -0.00031525031038 0.0012973120505 0.0016875784992 0.0024579528153 0.0012503262197 0.0022660282027 0.0065784892348 
-0.00079724064008 0.00036850738797 0.0023600097082 0.0045155355834 0.0058767524032 0.0021956628872 0.0028479577646 0.0025403143838 0.00097945582172 
-0.00055585187431 -0.0021150098499 -0.003813601045 -0.0069228437191 -0.0089593361097 0.0030064876273 0.0012558463624 0.005030001019 0.0068715327419 
0.0075596117157 0.0068587736837 0.0056061095526 0.0026047709476 0.0030642914679 0.0068758760919 0.0049113902375 0.00025468060274 -0.0016043333396 
-0.0041178159449 -0.0047694028328 -0.0027870292675 -0.0015516302364 0.0030121691161 -0.0075393150126 0.00088159739148 -0.0031696867519 -0.0021040941064 
0.00053630536051 0.00074809976216 0.0029390795519 0.0031727380159 0.0021284520537 0.00069435120303 0.00022363443014 0.0025223501254 0.0099011069323 
0.0069318304712 0.00059474227171 -0.00022588273436 -0.00074341513173 -0.00047518498559 0.010458132275 0.0085360999726 0.0015725914571 0.0016276664243 
0.00011576616873 0.008697552312 -0.00017850916943 0.00071556661057 -5.7251892586e-05 0.00032433288913 0.0010428524524 0.0017786722715 0.0012960058321 
0.00025229748221 -0.00030347068108 -0.00073864727502 -0.0004681231164 0.0018656817544 0.0018650977226 0.0021902155486 0.0010170181552 2.3259896849e-05 
0.0007330547921 0.0013753467076 0.0021360726402 0.0020629949654 0.0081710588662 0.010330271601 0.0098836219401 0.0098236273416 0.005643380613 
0.0031103392413 0.0040457934676 0.0052046968833 0.0042885876253 0.0040886988603 -0.00040688328196 -0.00039963543677 -0.00066915513054 -0.0017690609217 
-0.00032169421825 0.002725685316 0.0020502512414 0.0019915534253 0.0063356322401 0.0024115813067 0.001827901435 0.00051804918613 -0.00024463949623 
-0.00054208599183 0.0011694432864 0.0027051318167 0.0012676904238 0.0014879086332 -0.0022113915378 -0.0010402598942 0.0034909962815 0.00094437171382 
0.0053036529657 0.0020488285899 0.0015637378478 -0.0011107647587 -0.0035793245927 -8.917196006e-06 0.0039074855118 0.0039900111008 0.00400638495 
0.00054659491029 0.0040544239744 0.0021772015261 0.0043481759987 0.0056449010803 0.003181588277 -0.002456432583 0.00071601870102 0.0011092496284 

Curv_Mean 1 1116 double
-0.16835226517 0.061635300899 -0.025903601986 -0.064625900881 0.23108208708 -0.017644923455 0.089202635473 0.0042797494583 -0.011006177848 
0.015941191373 -0.070724987662 0.024435388706 0.10169543608 0.021778118014 0.074772307061 -0.017063634365 -0.18286575104 -0.071039786653 
-0.13611826921 -0.053846286712 -0.046131364173 0.03628440742 0.06203339667 0.10522200494 -0.072479106664 0.078839008001 0.016987682663 
0.052028056756 0.21987659778 -0.0034197977927 -0.1476085471 0.03282301739 -0.30672829705 0.041440941124 0.0097727745172 0.00052752572657 
0.071586260731 -0.023386523132 -0.14960636492 -0.024356675883 -0.098895852865 -0.015676621525 0.049256074364 0.00077810326735 -0.011113329484 
0.034968267443 -0.052415871361 0.029941403109 -0.047771711633 0.032418991887 -0.098070784369 0.027785641061 -0.18396613911 0.010356835568 
-0.11507870751 -0.0076221139663 0.031115577473 -0.00852363759 0.26102362923 -0.0011510968067 -0.060993939446 0.0098841652156 -0.23203522061 
0.009356209178 -0.23402366024 -0.005501442856 -0.092214331968 -0.027339681356 -0.0092312454141 -0.035266824672 0.019357825271 -0.019655590796 
0.061599194025 -0.017748114613 0.055574839249 -0.015695554705 -0.010838265462 -0.014678159445 -0.014673652167 -0.00051071491827 -0.01104028419 
0.013451979899 -0.010072390878 -0.014143710306 0.023023448229 0.0048914014486 -0.03149011642 0.0077916626257 -0.20498705964 0.012123179186 
-0.14689722989 0.0097916358827 -0.13264008474 0.029258037633 -0.15426154048 0.045989493176 -0.18333275369 0.051478515109 -0.16008274326 
0.065174161477 -0.10728479019 0.070538085805 0.031953425159 0.054070736958 0.12542325434 0.022874797724 0.14228471459 -0.014602540888 
-0.24485316737 -0.052860387256 -0.45581224053 -0.074967440053 -0.061281868514 -0.1483645304 -0.015842548498 0.012557494456 -0.11443377428 
0.0034142613856 0.10188119127 -0.034558400137 0.18668857105 -0.032290781571 0.22349657483 -0.017057423988 0.024671413398 -0.030104079824 
-0.1351818975 -0.043370298827 -0.15022470059 -0.042195543034 -0.15608437263 -0.042590824564 -0.13495221757 0.001267732154 -0.11043688791 
0.025167965308 -0.076667552103 0.053051387315 -0.052082664122 0.06999765999 -0.040580543571 0.075266342397 -0.13527672124 0.070165502985 
-0.28577863212 0.057679238036 -0.055132041124 -0.00066891347707 0.074432620227 -0.033200931125 -0.13267242384 -0.0063596338658 -0.12387236579 
-0.0076833857458 0.033328250679 -0.019080319237 0.044181410399 0.020322828536 -0.04207199839 0.040813757707 -0.28798954708 -0.01806526261 
0.1376901557 -0.013467116511 0.30027747846 0.078409736379 -0.28076296473 0.080315441614 -0.052918636763 0.018323254672 0.042640709384 
-0.015265079696 -0.1201384594 -0.0032379093289 -0.30183973603 0.0019476082171 -0.32988732423 0.03064056052 -0.15919773818 0.062318873251 
0.10544991472 0.07283106392 0.19101119085 0.062981877342 0.12528636233 0.03712488259 0.2206502157 -0.0025927636453 0.1322387071 
-0.03944596551 -0.24175890215 -0.065141648504 0.030731987311 -0.031648152162 0.13318763781 0.0010656378065 -0.019286157962 -0.00056253327932 
-0.020928251782 -0.057781827472 -0.019318760022 -0.051938848742 -0.025379476306 -0.019296282562 -0.23164840825 -0.038860223854 -0.24239102425 
-0.050023314011 -0.078344683649 -0.020232946545 -0.069686669617 -0.026052216601 -0.037842089965 -0.037695942921 0.079269168277 -0.026514413682 
0.038645478764 -0.0066169263642 -0.11764297506 0.02356317704 -0.087043202409 0.027921635681 -0.028972183125 0.027259670478 0.0060258865051 
0.020084482442 -0.0074143047973 0.014073842235 -0.063558828626 -0.073907444347 -0.029846834673 -0.034411236173 -0.019028583161 -0.020676150143 
-0.043628938999 -0.064101495808 0.025531570459 0.067739719253 0.057973117313 0.049232061175 0.035342201106 0.0096158094115 -0.022710011321 
-0.03239337377 -0.026115203473 -0.0209464698 0.040388217524 0.066262052997 0.073801841131 0.033686817101 0.040562116158 0.022669620164 
-0.031900450795 -0.066019348375 -0.032683330257 0.002116156742 0.055528368615 0.039087955262 0.020195341829 -0.011046126134 -0.023087214144 
-0.045845585537 -0.033296219885 -0.00072432210942 0.017073944614 -0.0068042143814 -0.030349031874 -0.028281898582 -0.013383067059 -0.02008981717 
-0.046643816393 -0.049950250132 -0.052664459094 -0.078095926727 -0.058585911089 -0.035465605618 -0.029232426041 -0.029085605114 -0.02938862624 
-0.007888326558 -0.0051451105613 -0.040649576675 -0.054563456828 -0.013351114268 -0.012409654975 -0.020593110885 -0.012723356528 -0.027034952115 
0.0030983675171 -0.0015984911068 -0.012645031367 -0.007339451992 -0.0015383704969 0.007104294305 0.013098034881 0.0061533831087 0.0072840907544 
0.024527030915 -0.0023972483178 -0.022381352126 -0.024835323046 -0.058065942101 -0.02763478475 -0.054685260058 -0.056662509171 -0.033265138572 
-0.015454955819 -0.015825765238 -0.052765225502 -0.052049665328 -0.034132872321 -0.031297572681 -0.022127329025 -0.021887224095 -0.033877020759 
-0.014438039106 0.024275989542 0.044158564094 -0.0057913554809 -0.063704507054 -0.051330098808 -0.058819803998 -0.042762919734 -0.011969962397 
0.036863596078 0.017139109065 -0.016397269128 -0.03859735921 -0.03672019141 -0.040217762743 -0.036256822244 -0.027011845759 -0.012553768473 
-0.026548419696 -0.021547348355 -0.0059331679808 0.0047965104396 -0.032997677983 -0.093323163945 -0.1173249874 -0.073234975485 -0.023903068418 
-0.07279643745 -0.061086824879 -0.064204838344 -0.058727390588 -0.044002375429 -0.043118211439 -0.021265673807 0.050697544518 0.010210530232 
-0.019255119725 -0.010873301337 -0.0056967269499 0.013469165816 -0.017228760172 -0.047294610815 -0.025283731438 0.0066787038863 0.0041267155846 
-0.0061866351659 -0.017011981217 -0.059586949024 -0.0016451256527 -0.017110303617 -0.037685144332 -0.060175876094 -0.055982556639 -0.042496563125 
-0.022933841993 0.0008657604255 0.014487882256 -0.003524223332 -0.0058271661406 -0.031525167028 -0.051765000262 -0.038456219626 -0.011316545825 
-0.018937114332 -0.029300623811 -0.032906193561 -0.036869369473 -0.050403215336 -0.070297298448 -0.072675619873 -0.039263235104 -0.029050442384 
-0.03945180135 -0.06684198934 -0.073526778894 -0.042254066358 -0.050179231162 -0.085673432171 0.0077724937184 0.010436619403 0.0040849779557 
0.0023447392446 -0.059819008492 -0.048770669222 -0.0715840018 -0.09511480128 -0.077462117257 -0.047662972359 -0.018897879036 -0.024839293242 
0.018207496774 0.025549084029 0.0331454365 0.0520711568 0.053444727134 0.016084380345 0.035695291456 0.01047874444 -0.013178743535 
-0.052755342425 -0.09110065462 -0.13530477824 -0.14634742142 -0.10107739694 -0.020773240721 -0.036386233617 -0.053128493585 -0.046124795863 
-0.018223871331 0.018224768453 0.014548145167 -0.013904390503 -0.067909097156 -0.063420910701 -0.051160075137 -0.044737091057 -0.031030424014 
0.011494448507 0.04325411573 0.0017207370174 -0.038886938807 -0.05775354498 -0.086400605918 -0.089235947575 -0.035044557746 -0.032771422761 
-0.030852210203 -0.0050203851407 -0.028210828008 -0.033078753248 -0.0038461903629 0.0013261230773 0.001304300973 -0.020033601964 -0.012896662239 
-0.0084327552011 -0.016309413367 -0.034102786803 -0.061015589315 -0.069798533567 -0.11780822722 -0.10116711106 -0.038721241643 -0.047439231097 
-0.028138630748 -0.10076061918 -0.085207951377 -0.11904561141 -0.11303901117 -0.10471019569 -0.085212701906 -0.037038593287 -0.059479197957 
-0.073563050041 -0.072215627666 -0.055773019483 -0.01581804949 0.029920672882 0.040598758119 0.0077162058194 -0.074189515992 -0.095600287975 
-0.074676783107 -0.061839166145 -0.038839117301 -0.027214474872 -0.0058227527239 -0.028546595536 -0.029304649701 -0.03467869834 -0.043725127882 
-0.048280087109 -0.046341357301 -0.022872847031 0.013350819252 0.0072737055509 -0.0074839621294 -0.028595069793 -0.046774889347 -0.052162849512 
-0.053653069863 -0.058718785988 -0.063830414454 -0.08333240554 -0.096360489324 -0.077300602898 -0.077744686883 -0.086180284314 -0.076458571385 
-0.057213126218 -0.032894579832 -0.014788035138 -0.014254436398 -0.0048295082409 0.0059101029909 -0.014750918034 -0.037954767494 -0.041287777588 
-0.050993842279 -0.065015161248 -0.040018502047 -0.014762939782 0.011969553061 -0.032453207052 -0.055562967634 -0.042216113709 -0.065071879931 
-0.083326743702 -0.089010510245 -0.10093847759 -0.07828881736 -0.11763399936 -0.051988562011 -0.043707257356 -0.047574522021 -0.017722454933 
0.011966856213 0.036026879687 0.067139383047 0.040923020486 0.01164483229 -0.030066463269 -0.073259562247 -0.11385505619 -0.14825374749 
-0.13717623045 -0.13080745289 -0.13321389076 -0.075339533975 -0.07096398206 -0.097513473826 -0.061520258009 -0.026078461232 -0.030297992251 
-0.043597388055 -0.040386788152 0.0018194510615 -0.078356948136 -0.076192058976 -0.034679371526 -0.032065189963 -0.0024843139405 0.01761271873 
-0.0059618542431 -0.035413741474 -0.077589510598 -0.10153003225 -0.07618271385 -0.0099770866088 0.0060906471355 -0.0026519086449 -0.015476792178 
-0.011916498113 -0.018318878448 -0.025715714916 -0.023315288083 -0.0079427783839 -0.0093362449417 -0.0044821905879 -0.0027379516684 -0.016122511335 
-0.042370669517 -0.056295347575 -0.095422464681 -0.12109768207 -0.096934692926 -0.056186321075 -0.010883966346 0.0039731166759 0.01175638111 
-0.090793205742 -0.093208251775 -0.15712574567 -0.15223835928 -0.13436914896 -0.081953022634 -0.022407318166 -0.014143385405 -0.033728280568 
-0.071420698531 -0.086293765725 -0.095775812843 -0.060789362585 0.029203242711 0.055696283935 -0.042040064721 -0.055987404433 -0.066663188652 
-0.057626889265 -0.029053527844 -0.011207092587 -0.01722746175 -0.03307588165 -0.040713835871 -0.052621108755 -0.061115873686 -0.067546389078 
-0.066281824036 -0.048316417426 -0.0077367994485 0.018183792527 0.030122125174 -0.011972881532 -0.034342677108 -0.040406019919 -0.043336116641 
-0.076415101639 -0.090695996151 -0.097873334441 -0.066285200026 -0.087744918533 -0.10040071988 -0.1056835376 -0.098305160299 -0.075073956925 
-0.033424156611 0.010775793168 -0.025206440966 -0.019434594231 -0.022325233084 -0.043143202631 -0.012253266874 -0.011791528016 -0.028333112002 
-0.036489039538 -0.035737681585 -0.050517219368 -0.056669765587 -0.049022593736 -0.026968916619 -0.037780341907 -0.032744419534 -0.045593624486 
-0.080052817272 -0.093122769724 -0.088425744387 -0.079346175646 -0.070368811198 -0.082996723555 -0.096493150847 0.058397300979 0.0045700772961 
-0.085027310438 -0.099973903791 -0.070146353128 -0.053357303767 -0.048605111851 -0.06197119198 -0.044048667805 -0.021472821179 -0.04246127173 
-0.024808374977 -0.039923129885 -0.053945621327 -0.062565595037 -0.036460538598 -0.030942572842 0.0015613356587 -0.012702774619 -0.048479409183 
-0.073390563157 -0.10345288712 -0.075381878451 -0.05186778199 -0.022050321414 -0.0068191313194 -0.019711048802 -0.044880583827 -0.050574207637 
-0.034474150239 -0.027203393037 -0.020346471854 -0.035491180949 -0.040142918022 -0.032529532561 -0.017893737542 -0.010910591988 -0.0016895601255 
-0.010892370014 -0.061070673454 -0.1373729265 -0.12362125743 -0.068119920617 0.029568941238 0.02409711006 0.0059362339925 -0.046821222862 
-0.029462639937 -0.012063357684 -0.01759735181 -0.010365480432 -0.030668491258 -0.043162205926 -0.043349457805 -0.026935123775 -0.058878279525 
-0.076046991274 -0.099026675803 -0.14197747149 -0.14356607673 -0.14858989948 -0.12340789112 -0.086378428521 -0.051539474344 -0.079892087655 
-0.044155546512 -0.095913998032 -0.07832323589 -0.067017494225 -0.05054890176 -0.04527534183 -0.048139986826 -0.049886344058 -0.056743225449 
-0.067846291298 -0.082447178156 -0.12185415454 -0.069736029932 0.026841698101 -0.067771768079 0.083229899407 0.038952887307 -0.019348056241 
-0.033783202624 -0.042394435431 -0.068363923085 -0.070035679267 -0.048114668761 -0.025994288218 -0.025254436726 -0.032109621372 -0.10546087635 
-0.08103100991 -0.11909040651 -0.10043001426 -0.081980885617 -0.079481480319 -0.031765245465 -0.0015645949011 -0.0042308022249 -0.046831233386 
-0.027663243732 -0.043645468068 -0.041402321843 -0.0082105056494 -0.033855494065 -0.074486816428 -0.07395957306 -0.039239864575 -0.026614791764 
-0.015826727379 -0.090492134786 -0.10627090415 -0.11396085422 -0.079594185502 -0.10895988496 -0.1103763534 -0.04104376713 -0.01096077903 
-0.020001180006 -0.028790638693 -0.029668269277 -0.031236862965 -0.021700278238 -0.022503205615 -0.023768435453 -0.027083431378 -0.038010689676 
-0.041425605655 -0.039364353292 -0.060927313863 -0.077950499932 -0.072403776988 -0.05937865176 -0.072080845608 -0.092461068217 -0.095185931954 
-0.093712734385 -0.06829497119 -0.07843133223 -0.054799032868 -0.046068195054 -0.049689401827 -0.051693446352 -0.046314895674 -0.039535735326 
-0.027617690778 -0.022248648963 -0.0026488251372 -0.022289413868 -0.025105369315 -0.015176858031 -0.003005886662 -0.013694058754 -0.029278327698 
-0.068179059834 -0.099702790412 -0.067020436131 -0.040321608505 -0.020864296493 -0.018452512867 -0.025205170506 -0.050226507609 -0.088197211139 
-0.056041844784 -0.048742116196 -0.053985058749 -0.073766738643 -0.050426608509 -0.032975673399 0.00045432500068 0.0043908723952 -0.0056648964836 
0.0064308375738 -0.015619596682 -0.078813505238 -0.093266147917 -0.10290408071 0.05751674821 0.018051541604 -0.062302974711 -0.033260246974 
-0.031468774357 -0.0319762881 -0.080862005051 -0.10169322267 -0.093028871502 -0.087425310154 -0.060762447086 -0.034910762615 -0.043602477918 
-0.053659076322 -0.068010220112 -0.096943751707 -0.10329111489 -0.09631779783 -0.080658343963 -0.047356485075 -0.036693958825 -0.056948767793 
-0.054240275235 -0.076949989324 -0.05921176532 -0.022440647195 -0.038945624874 -0.10325243472 -0.11276681905 -0.062430641175 -0.083952821726 
-0.059870833699 -0.065900098301 -0.05982062738 -0.042208020746 -0.01012682624 0.033515701922 0.013630035245 -0.0095520647715 -0.040272883475 
-0.047868794291 -0.056915047558 -0.071437392914 -0.063892500548 -0.073261196624 -0.069331822952 -0.092352513293 -0.093972084874 -0.08344880567 
-0.0756114768 -0.041301306393 -0.028224122026 -0.030924196235 -0.028528912129 -0.043593916494 -0.060033642421 -0.11452803419 -0.059807399445 
-0.051866025955 0.056269869989 0.069331822409 0.001327339203 -0.041344874299 -0.021685064299 -0.024800533423 -0.02784984552 -0.047114712655 
-0.051690653907 -0.047418719332 -0.052162756778 -0.054975777802 -0.072553908373 -0.071599786606 -0.12217238332 -0.11571908841 -0.10347399655 
-0.092390060726 -0.063376729998 -0.093376924556 -0.042192035675 -0.04413350171 -0.031404481015 -0.069016702916 -0.070526300198 -0.078784656113 
-0.076946002298 -0.066246409206 -0.050633376844 -0.04070759952 -0.0291669656 -0.11231657753 -0.096886282416 -0.047136054596 -0.05978430107 
-0.056829106484 -0.035230608914 -0.081755599239 -0.11498972634 -0.095822074651 -0.059260724852 -0.051605066595 -0.037465317281 -0.021946758346 
-0.045779723795 -0.06137693202 -0.085625390567 -0.041376773915 -0.041909892177 -0.048317029403 -0.044989826457 -0.03440473466 -0.019646016074 
-0.0012013877129 0.0098404108903 -0.02064680123 -0.016350103591 -0.036215548231 -0.052332014049 -0.058337869865 -0.063542428481 -0.081489873196 
-0.083181662689 -0.056991642598 -0.054510308764 -0.10780581876 -0.11345148713 -0.028277570007 -0.02635388769 -0.044301516252 -0.057707956903 
-0.047518586683 -0.029560828585 -0.034755201048 -0.04934091244 -0.055849269888 -0.038896696137 -0.037163265265 -0.031028990615 -0.034142111239 
-0.029282730045 -0.041275551334 -0.053254302149 -0.056080154417 -0.043839665298 -0.054653485843 -0.069799256944 -0.085929549259 -0.044268505394 
-0.063471151157 -0.01887668467 -0.02370154501 -0.043311665391 -0.052783359951 -0.057394368747 -0.066354916383 -0.073710578054 -0.089164736977 
-0.060271947804 -0.059083614401 -0.062753198243 -0.073485809637 -0.083031616006 -0.051556598879 -0.054690222629 -0.054921277002 -0.038737379662 
-0.025755169068 -0.025215568903 -0.023104341426 -0.011249543998 -0.0048119819041 -0.07190783664 -0.06240915651 -0.085662005591 -0.095090586061 
-0.093335354593 -0.08422531054 -0.074356995591 -0.054985702459 -0.053894857364 -0.080588337822 -0.057531989614 -0.027374683516 -0.050746759315 
-0.053606915827 -0.0028329922991 -0.022317932587 -0.030566392826 -0.061850699469 0.017378404684 0.032794033278 0.017192357377 -0.032821543223 
-0.060570811172 -0.056470953448 -0.063555400501 -0.061420796438 -0.054771734296 -0.042199902368 -0.033392063094 -0.060487126215 -0.10257775847 
-0.087479028264 -0.048751632528 -0.024421905529 -0.026568421085 -0.029199115615 -0.10269710322 -0.091213027957 -0.049299252215 -0.038936978107 
-0.017000192665 -0.091396940603 -0.020325905361 -0.036717901514 -0.021265644009 -0.030633287908 -0.042601274906 -0.052683239017 -0.031239364862 
0.0057396354707 0.014490695396 -0.0015713553263 -0.023192391643 -0.047751545072 -0.027126943901 -0.049587949581 -0.033073231885 -0.017643293701 
-0.034764593984 -0.053593493436 -0.073428549767 -0.079732380408 -0.10269285655 -0.1024042786 -0.10549983424 -0.1000594296 -0.073220796264 
-0.063707979469 -0.069813050597 -0.075975636527 -0.067229573541 -0.065315772505 -0.0076160491023 0.0074158419095 -0.015313856706 -0.0063547840451 
-0.024960428167 -0.052753647584 -0.044861030909 -0.047172687602 -0.081453660391 -0.057391156239 -0.037049387915 -0.00087206551309 0.011737551441 
0.00046095734698 -0.038705161804 -0.052603509689 -0.042519416277 -0.047174508242 -0.035077114673 -0.020201665493 -0.061970120437 -0.047310134255 
-0.074884744353 -0.054952397549 -0.048532073688 -0.027802680936 -0.011080415831 -0.04560898701 -0.048293443258 -0.06463883164 -0.064499708892 
-0.039664882069 -0.063668537985 -0.060754508411 -0.075874472311 -0.082021069877 -0.06800044261 -0.012524871114 -0.027929948254 -0.040952650116 

Displacement_Root 3 1116 double
0 0 0 0 0 0 0 0 0 
0 0 0 0 0 0 0 0 0 
0 0 0 0 0 0 0 0 0 
0 0 0 0 0 0 0 0 0 
0 0 0 0 0 0 0 0 0 
0 0 0 0 0 0 0 0 0 
0 0 0 0 0 0 0 0 0 
0 0 0 0 0 0 0 0 0 
0 0 0 0 0 0 0 0 0 
0 0 0 0 0 0 0 0 0 
0 0 0 0 0 0 0 0 0 
0 0 0 0 0 0 0 0 0 
0 0 0 0 0 0 0 0 0 
0 0 0 0 0 0 0 0 0 
0 0 0 0 0 0 0 0 0 
0 0 0 0 0 0 0 0 0 
0 0 0 0 0 0 0 0 0 
0 0 0 0 0 0 0 0 0 
0 0 0 0 0 0 0 0 0 
0 0 0 0 0 0 0 0 0 
0 0 0 0 0 0 0 0 0 
0 0 0 0 0 0 0 0 0 
0 0 0 0 0 0 0 0 0 
0 0 0 0 0 0 0 0 0 
0 0 0 0 0 0 0 0 0 
0 0 0 0 0 0 0 0 0 
0 0 0 0 0 0 0 0 0 
0 0 0 0 0 0 0 0 0 
0 0 0 0 0 0 0 0 0 
0 0 0 0 0 0 0 0 0 
0 0 0 0 0 0 0 0 0 
0 0 0 0 0 0 0 0 0 
0 0 0 0 0 0 0 0 0 
0 0 0 0 0 0 0 0 0 
0 0 0 0 0 0 0 0 0 
0 0 0 0 0 0 0 0 0 
0 0 0 0 0 0 0 0 0 
0 0 0 0 0 0 0 0 0 
0 0 0 0 0 0 0 0 0 
0 0 0 0 0 0 0 0 0 
0 0 0 0 0 0 0 0 0 
0 0 0 0 0 0 0 0 0 
0 0 0 0 0 0 0 0 0 
0 0 0 0 0 0 0 0 0 
0 0 0 0 0 0 0 0 0 
0 0 0 0 0 0 0 0 0 
0 0 0 0 0 0 0 0 0 
0 0 0 0 0 0 0 0 0 
0 0 0 0 0 0 0 0 0 
0 0 0 0 0 0 0 0 0 
0 0 0 0 0 0 0 0 0 
0 0 0 0 0 0 0 0 0 
0 0 0 0 0 0 0 0 0 
0 0 0 0 0 0 0 0 0 
0 0 0 0 0 0 0 0 0 
0 0 0 0 0 0 0 0 0 
0 0 0 0 0 0 0 0 0 
0 0 0 0 0 0 0 0 0 
0 0 0 0 0 0 0 0 0 
0 0 0 0 0 0 0 0 0 
0 0 0 0 0 0 0 0 0 
0 0 0 0 0 0 0 0 0 
0 0 0 0 0 0 0 0 0 
0 0 0 0 0 0 0 0 0 
0 0 0 0 0 0 0 0 0 
0 0 0 0 0 0 0 0 0 
0 0 0 0 0 0 0 0 0 
0 0 0 0 0 0 0 0 0 
0 0 0 0 0 0 0 0 0 
0 0 0 0 0 0 0 0 0 
0 0 0 0 0 0 0 0 0 
0 0 0 0 0 0 0 0 0 
0 0 0 0 0 0 0 0 0 
0 0 0 0 0 0 0 0 0 
0 0 0 0 0 0 0 0 0 
0 0 0 0 0 0 0 0 0 
0 0 0 0 0 0 0 0 0 
0 0 0 0 0 0 0 0 0 
0 0 0 0 0 0 0 0 0 
0 0 0 0 0 0 0 0 0 
0 0 0 0 0 0 0 0 0 
0 0 0 0 0 0 0 0 0 
0 0 0 0 0 0 0 0 0 
0 0 0 0 0 0 0 0 0 
0 0 0 0 0 0 0 0 0 
0 0 0 0 0 0 0 0 0 
0 0 0 0 0 0 0 0 0 
0 0 0 0 0 0 0 0 0 
0 0 0 0 0 0 0 0 0 
0 0 0 0 0 0 0 0 0 
0 0 0 0 0 0 0 0 0 
0 0 0 0 0 0 0 0 0 
0 0 0 0 0 0 0 0 0 
0 0 0 0 0 0 0 0 0 
0 0 0 0 0 0 0 0 0 
0 0 0 0 0 0 0 0 0 
0 0 0 0 0 0 0 0 0 
0 0 0 0 0 0 0 0 0 
0 0 0 0 0 0 0 0 0 
0 0 0 0 0 0 0 0 0 
0 0 0 0 0 0 0 0 0 
0 0 0 0 0 0 0 0 0 
0 0 0 0 0 0 0 0 0 
0 0 0 0 0 0 0 0 0 
0 0 0 0 0 0 0 0 0 
0 0 0 0 0 0 0 0 0 
0 0 0 0 0 0 0 0 0 
0 0 0 0 0 0 0 0 0 
0 0 0 0 0 0 0 0 0 
0 0 0 0 0 0 0 0 0 
0 0 0 0 0 0 0 0 0 
0 0 0 0 0 0 0 0 0 
0 0 0 0 0 0 0 0 0 
0 0 0 0 0 0 0 0 0 
0 0 0 0 0 0 0 0 0 
0 0 0 0 0 0 0 0 0 
0 0 0 0 0 0 0 0 0 
0 0 0 0 0 0 0 0 0 
0 0 0 0 0 0 0 0 0 
0 0 0 0 0 0 0 0 0 
0 0 0 0 0 0 0 0 0 
0 0 0 0 0 0 0 0 0 
0 0 0 0 0 0 0 0 0 
0 0 0 0 0 0 0 0 0 
0 0 0 0 0 0 0 0 0 
0 0 0 0 0 0 0 0 0 
0 0 0 0 0 0 0 0 0 
0 0 0 0 0 0 0 0 0 
0 0 0 0 0 0 0 0 0 
0 0 0 0 0 0 0 0 0 
0 0 0 0 0 0 0 0 0 
0 0 0 0 0 0 0 0 0 
0 0 0 0 0 0 0 0 0 
0 0 0 0 0 0 0 0 0 
0 0 0 0 0 0 0 0 0 
0 0 0 0 0 0 0 0 0 
0 0 0 0 0 0 0 0 0 
0 0 0 0 0 0 0 0 0 
0 0 0 0 0 0 0 0 0 
0 0 0 0 0 0 0 0 0 
0 0 0 0 0 0 0 0 0 
0 0 0 0 0 0 0 0 0 
0 0 0 0 0 0 0 0 0 
0 0 0 0 0 0 0 0 0 
0 0 0 0 0 0 0 0 0 
0 0 0 0 0 0 0 0 0 
0 0 0 0 0 0 0 0 0 
0 0 0 0 0 0 0 0 0 
0 0 0 0 0 0 0 0 0 
0 0 0 0 0 0 0 0 0 
0 0 0 0 0 0 0 0 0 
0 0 0 0 0 0 0 0 0 
0 0 0 0 0 0 0 0 0 
0 0 0 0 0 0 0 0 0 
0 0 0 0 0 0 0 0 0 
0 0 0 0 0 0 0 0 0 
0 0 0 0 0 0 0 0 0 
0 0 0 0 0 0 0 0 0 
0 0 0 0 0 0 0 0 0 
0 0 0 0 0 0 0 0 0 
0 0 0 0 0 0 0 0 0 
0 0 0 0 0 0 0 0 0 
0 0 0 0 0 0 0 0 0 
0 0 0 0 0 0 0 0 0 
0 0 0 0 0 0 0 0 0 
0 0 0 0 0 0 0 0 0 
0 0 0 0 0 0 0 0 0 
0 0 0 0 0 0 0 0 0 
0 0 0 0 0 0 0 0 0 
0 0 0 0 0 0 0 0 0 
0 0 0 0 0 0 0 0 0 
0 0 0 0 0 0 0 0 0 
0 0 0 0 0 0 0 0 0 
0 0 0 0 0 0 0 0 0 
0 0 0 0 0 0 0 0 0 
0 0 0 0 0 0 0 0 0 
0 0 0 0 0 0 0 0 0 
0 0 0 0 0 0 0 0 0 
0 0 0 0 0 0 0 0 0 
0 0 0 0 0 0 0 0 0 
0 0 0 0 0 0 0 0 0 
0 0 0 0 0 0 0 0 0 
0 0 0 0 0 0 0 0 0 
0 0 0 0 0 0 0 0 0 
0 0 0 0 0 0 0 0 0 
0 0 0 0 0 0 0 0 0 
0 0 0 0 0 0 0 0 0 
0 0 0 0 0 0 0 0 0 
0 0 0 0 0 0 0 0 0 
0 0 0 0 0 0 0 0 0 
0 0 0 0 0 0 0 0 0 
0 0 0 0 0 0 0 0 0 
0 0 0 0 0 0 0 0 0 
0 0 0 0 0 0 0 0 0 
0 0 0 0 0 0 0 0 0 
0 0 0 0 0 0 0 0 0 
0 0 0 0 0 0 0 0 0 
0 0 0 0 0 0 0 0 0 
0 0 0 0 0 0 0 0 0 
0 0 0 0 0 0 0 0 0 
0 0 0 0 0 0 0 0 0 
0 0 0 0 0 0 0 0 0 
0 0 0 0 0 0 0 0 0 
0 0 0 0 0 0 0 0 0 
0 0 0 0 0 0 0 0 0 
0 0 0 0 0 0 0 0 0 
0 0 0 0 0 0 0 0 0 
0 0 0 0 0 0 0 0 0 
0 0 0 0 0 0 0 0 0 
0 0 0 0 0 0 0 0 0 
0 0 0 0 0 0 0 0 0 
0 0 0 0 0 0 0 0 0 
0 0 0 0 0 0 0 0 0 
0 0 0 0 0 0 0 0 0 
0 0 0 0 0 0 0 0 0 
0 0 0 0 0 0 0 0 0 
0 0 0 0 0 0 0 0 0 
0 0 0 0 0 0 0 0 0 
0 0 0 0 0 0 0 0 0 
0 0 0 0 0 0 0 0 0 
0 0 0 0 0 0 0 0 0 
0 0 0 0 0 0 0 0 0 
0 0 0 0 0 0 0 0 0 
0 0 0 0 0 0 0 0 0 
0 0 0 0 0 0 0 0 0 
0 0 0 0 0 0 0 0 0 
0 0 0 0 0 0 0 0 0 
0 0 0 0 0 0 0 0 0 
0 0 0 0 0 0 0 0 0 
0 0 0 0 0 0 0 0 0 
0 0 0 0 0 0 0 0 0 
0 0 0 0 0 0 0 0 0 
0 0 0 0 0 0 0 0 0 
0 0 0 0 0 0 0 0 0 
0 0 0 0 0 0 0 0 0 
0 0 0 0 0 0 0 0 0 
0 0 0 0 0 0 0 0 0 
0 0 0 0 0 0 0 0 0 
0 0 0 0 0 0 0 0 0 
0 0 0 0 0 0 0 0 0 
0 0 0 0 0 0 0 0 0 
0 0 0 0 0 0 0 0 0 
0 0 0 0 0 0 0 0 0 
0 0 0 0 0 0 0 0 0 
0 0 0 0 0 0 0 0 0 
0 0 0 0 0 0 0 0 0 
0 0 0 0 0 0 0 0 0 
0 0 0 0 0 0 0 0 0 
0 0 0 0 0 0 0 0 0 
0 0 0 0 0 0 0 0 0 
0 0 0 0 0 0 0 0 0 
0 0 0 0 0 0 0 0 0 
0 0 0 0 0 0 0 0 0 
0 0 0 0 0 0 0 0 0 
0 0 0 0 0 0 0 0 0 
0 0 0 0 0 0 0 0 0 
0 0 0 0 0 0 0 0 0 
0 0 0 0 0 0 0 0 0 
0 0 0 0 0 0 0 0 0 
0 0 0 0 0 0 0 0 0 
0 0 0 0 0 0 0 0 0 
0 0 0 0 0 0 0 0 0 
0 0 0 0 0 0 0 0 0 
0 0 0 0 0 0 0 0 0 
0 0 0 0 0 0 0 0 0 
0 0 0 0 0 0 0 0 0 
0 0 0 0 0 0 0 0 0 
0 0 0 0 0 0 0 0 0 
0 0 0 0 0 0 0 0 0 
0 0 0 0 0 0 0 0 0 
0 0 0 0 0 0 0 0 0 
0 0 0 0 0 0 0 0 0 
0 0 0 0 0 0 0 0 0 
0 0 0 0 0 0 0 0 0 
0 0 0 0 0 0 0 0 0 
0 0 0 0 0 0 0 0 0 
0 0 0 0 0 0 0 0 0 
0 0 0 0 0 0 0 0 0 
0 0 0 0 0 0 0 0 0 
0 0 0 0 0 0 0 0 0 
0 0 0 0 0 0 0 0 0 
0 0 0 0 0 0 0 0 0 
0 0 0 0 0 0 0 0 0 
0 0 0 0 0 0 0 0 0 
0 0 0 0 0 0 0 0 0 
0 0 0 0 0 0 0 0 0 
0 0 0 0 0 0 0 0 0 
0 0 0 0 0 0 0 0 0 
0 0 0 0 0 0 0 0 0 
0 0 0 0 0 0 0 0 0 
0 0 0 0 0 0 0 0 0 
0 0 0 0 0 0 0 0 0 
0 0 0 0 0 0 0 0 0 
0 0 0 0 0 0 0 0 0 
0 0 0 0 0 0 0 0 0 
0 0 0 0 0 0 0 0 0 
0 0 0 0 0 0 0 0 0 
0 0 0 0 0 0 0 0 0 
0 0 0 0 0 0 0 0 0 
0 0 0 0 0 0 0 0 0 
0 0 0 0 0 0 0 0 0 
0 0 0 0 0 0 0 0 0 
0 0 0 0 0 0 0 0 0 
0 0 0 0 0 0 0 0 0 
0 0 0 0 0 0 0 0 0 
0 0 0 0 0 0 0 0 0 
0 0 0 0 0 0 0 0 0 
0 0 0 0 0 0 0 0 0 
0 0 0 0 0 0 0 0 0 
0 0 0 0 0 0 0 0 0 
0 0 0 0 0 0 0 0 0 
0 0 0 0 0 0 0 0 0 
0 0 0 0 0 0 0 0 0 
0 0 0 0 0 0 0 0 0 
0 0 0 0 0 0 0 0 0 
0 0 0 0 0 0 0 0 0 
0 0 0 0 0 0 0 0 0 
0 0 0 0 0 0 0 0 0 
0 0 0 0 0 0 0 0 0 
0 0 0 0 0 0 0 0 0 
0 0 0 0 0 0 0 0 0 
0 0 0 0 0 0 0 0 0 
0 0 0 0 0 0 0 0 0 
0 0 0 0 0 0 0 0 0 
0 0 0 0 0 0 0 0 0 
0 0 0 0 0 0 0 0 0 
0 0 0 0 0 0 0 0 0 
0 0 0 0 0 0 0 0 0 
0 0 0 0 0 0 0 0 0 
0 0 0 0 0 0 0 0 0 
0 0 0 0 0 0 0 0 0 
0 0 0 0 0 0 0 0 0 
0 0 0 0 0 0 0 0 0 
0 0 0 0 0 0 0 0 0 
0 0 0 0 0 0 0 0 0 
0 0 0 0 0 0 0 0 0 
0 0 0 0 0 0 0 0 0 
0 0 0 0 0 0 0 0 0 
0 0 0 0 0 0 0 0 0 
0 0 0 0 0 0 0 0 0 
0 0 0 0 0 0 0 0 0 
0 0 0 0 0 0 0 0 0 
0 0 0 0 0 0 0 0 0 
0 0 0 0 0 0 0 0 0 
0 0 0 0 0 0 0 0 0 
0 0 0 0 0 0 0 0 0 
0 0 0 0 0 0 0 0 0 
0 0 0 0 0 0 0 0 0 
0 0 0 0 0 0 0 0 0 
0 0 0 0 0 0 0 0 0 
0 0 0 0 0 0 0 0 0 
0 0 0 0 0 0 0 0 0 
0 0 0 0 0 0 0 0 0 
0 0 0 0 0 0 0 0 0 
0 0 0 0 0 0 0 0 0 
0 0 0 0 0 0 0 0 0 
0 0 0 0 0 0 0 0 0 
0 0 0 0 0 0 0 0 0 
0 0 0 0 0 0 0 0 0 
0 0 0 0 0 0 0 0 0 
0 0 0 0 0 0 0 0 0 
0 0 0 0 0 0 0 0 0 
0 0 0 0 0 0 0 0 0 
0 0 0 0 0 0 0 0 0 
0 0 0 0 0 0 0 0 0 
0 0 0 0 0 0 0 0 0 
0 0 0 0 0 0 0 0 0 
0 0 0 0 0 0 0 0 0 
0 0 0 0 0 0 0 0 0 
0 0 0 0 0 0 0 0 0 
0 0 0 0 0 0 0 0 0 
0 0 0 0 0 0 0 0 0 

Displacement_Total 3 1116 double
0 0 0 0 0 0 0 0 0 
0 0 0 0 0 0 0 0 0 
0 0 0 0 0 0 0 0 0 
0 0 0 0 0 0 0 0 0 
0 0 0 0 0 0 0 0 0 
0 0 0 0 0 0 0 0 0 
0 0 0 0 0 0 0 0 0 
0 0 0 0 0 0 0 0 0 
0 0 0 0 0 0 0 0 0 
0 0 0 0 0 0 0 0 0 
0 0 0 0 0 0 0 0 0 
0 0 0 0 0 0 0 0 0 
0 0 0 0 0 0 0 0 0 
0 0 0 0 0 0 0 0 0 
0 0 0 0 0 0 0 0 0 
0 0 0 0 0 0 0 0 0 
0 0 0 0 0 0 0 0 0 
0 0 0 0 0 0 0 0 0 
0 0 0 0 0 0 0 0 0 
0 0 0 0 0 0 0 0 0 
0 0 0 0 0 0 0 0 0 
0 0 0 0 0 0 0 0 0 
0 0 0 0 0 0 0 0 0 
0 0 0 0 0 0 0 0 0 
0 0 0 0 0 0 0 0 0 
0 0 0 0 0 0 0 0 0 
0 0 0 0 0 0 0 0 0 
0 0 0 0 0 0 0 0 0 
0 0 0 0 0 0 0 0 0 
0 0 0 0 0 0 0 0 0 
0 0 0 0 0 0 0 0 0 
0 0 0 0 0 0 0 0 0 
0 0 0 0 0 0 0 0 0 
0 0 0 0 0 0 0 0 0 
0 0 0 0 0 0 0 0 0 
0 0 0 0 0 0 0 0 0 
0 0 0 0 0 0 0 0 0 
0 0 0 0 0 0 0 0 0 
0 0 0 0 0 0 0 0 0 
0 0 0 0 0 0 0 0 0 
0 0 0 0 0 0 0 0 0 
0 0 0 0 0 0 0 0 0 
0 0 0 0 0 0 0 0 0 
0 0 0 0 0 0 0 0 0 
0 0 0 0 0 0 0 0 0 
0 0 0 0 0 0 0 0 0 
0 0 0 0 0 0 0 0 0 
0 0 0 0 0 0 0 0 0 
0 0 0 0 0 0 0 0 0 
0 0 0 0 0 0 0 0 0 
0 0 0 0 0 0 0 0 0 
0 0 0 0 0 0 0 0 0 
0 0 0 0 0 0 0 0 0 
0 0 0 0 0 0 0 0 0 
0 0 0 0 0 0 0 0 0 
0 0 0 0 0 0 0 0 0 
0 0 0 0 0 0 0 0 0 
0 0 0 0 0 0 0 0 0 
0 0 0 0 0 0 0 0 0 
0 0 0 0 0 0 0 0 0 
0 0 0 0 0 0 0 0 0 
0 0 0 0 0 0 0 0 0 
0 0 0 0 0 0 0 0 0 
0 0 0 0 0 0 0 0 0 
0 0 0 0 0 0 0 0 0 
0 0 0 0 0 0 0 0 0 
0 0 0 0 0 0 0 0 0 
0 0 0 0 0 0 0 0 0 
0 0 0 0 0 0 0 0 0 
0 0 0 0 0 0 0 0 0 
0 0 0 0 0 0 0 0 0 
0 0 0 0 0 0 0 0 0 
0 0 0 0 0 0 0 0 0 
0 0 0 0 0 0 0 0 0 
0 0 0 0 0 0 0 0 0 
0 0 0 0 0 0 0 0 0 
0 0 0 0 0 0 0 0 0 
0 0 0 0 0 0 0 0 0 
0 0 0 0 0 0 0 0 0 
0 0 0 0 0 0 0 0 0 
0 0 0 0 0 0 0 0 0 
0 0 0 0 0 0 0 0 0 
0 0 0 0 0 0 0 0 0 
0 0 0 0 0 0 0 0 0 
0 0 0 0 0 0 0 0 0 
0 0 0 0 0 0 0 0 0 
0 0 0 0 0 0 0 0 0 
0 0 0 0 0 0 0 0 0 
0 0 0 0 0 0 0 0 0 
0 0 0 0 0 0 0 0 0 
0 0 0 0 0 0 0 0 0 
0 0 0 0 0 0 0 0 0 
0 0 0 0 0 0 0 0 0 
0 0 0 0 0 0 0 0 0 
0 0 0 0 0 0 0 0 0 
0 0 0 0 0 0 0 0 0 
0 0 0 0 0 0 0 0 0 
0 0 0 0 0 0 0 0 0 
0 0 0 0 0 0 0 0 0 
0 0 0 0 0 0 0 0 0 
0 0 0 0 0 0 0 0 0 
0 0 0 0 0 0 0 0 0 
0 0 0 0 0 0 0 0 0 
0 0 0 0 0 0 0 0 0 
0 0 0 0 0 0 0 0 0 
0 0 0 0 0 0 0 0 0 
0 0 0 0 0 0 0 0 0 
0 0 0 0 0 0 0 0 0 
0 0 0 0 0 0 0 0 0 
0 0 0 0 0 0 0 0 0 
0 0 0 0 0 0 0 0 0 
0 0 0 0 0 0 0 0 0 
0 0 0 0 0 0 0 0 0 
0 0 0 0 0 0 0 0 0 
0 0 0 0 0 0 0 0 0 
0 0 0 0 0 0 0 0 0 
0 0 0 0 0 0 0 0 0 
0 0 0 0 0 0 0 0 0 
0 0 0 0 0 0 0 0 0 
0 0 0 0 0 0 0 0 0 
0 0 0 0 0 0 0 0 0 
0 0 0 0 0 0 0 0 0 
0 0 0 0 0 0 0 0 0 
0 0 0 0 0 0 0 0 0 
0 0 0 0 0 0 0 0 0 
0 0 0 0 0 0 0 0 0 
0 0 0 0 0 0 0 0 0 
0 0 0 0 0 0 0 0 0 
0 0 0 0 0 0 0 0 0 
0 0 0 0 0 0 0 0 0 
0 0 0 0 0 0 0 0 0 
0 0 0 0 0 0 0 0 0 
0 0 0 0 0 0 0 0 0 
0 0 0 0 0 0 0 0 0 
0 0 0 0 0 0 0 0 0 
0 0 0 0 0 0 0 0 0 
0 0 0 0 0 0 0 0 0 
0 0 0 0 0 0 0 0 0 
0 0 0 0 0 0 0 0 0 
0 0 0 0 0 0 0 0 0 
0 0 0 0 0 0 0 0 0 
0 0 0 0 0 0 0 0 0 
0 0 0 0 0 0 0 0 0 
0 0 0 0 0 0 0 0 0 
0 0 0 0 0 0 0 0 0 
0 0 0 0 0 0 0 0 0 
0 0 0 0 0 0 0 0 0 
0 0 0 0 0 0 0 0 0 
0 0 0 0 0 0 0 0 0 
0 0 0 0 0 0 0 0 0 
0 0 0 0 0 0 0 0 0 
0 0 0 0 0 0 0 0 0 
0 0 0 0 0 0 0 0 0 
0 0 0 0 0 0 0 0 0 
0 0 0 0 0 0 0 0 0 
0 0 0 0 0 0 0 0 0 
0 0 0 0 0 0 0 0 0 
0 0 0 0 0 0 0 0 0 
0 0 0 0 0 0 0 0 0 
0 0 0 0 0 0 0 0 0 
0 0 0 0 0 0 0 0 0 
0 0 0 0 0 0 0 0 0 
0 0 0 0 0 0 0 0 0 
0 0 0 0 0 0 0 0 0 
0 0 0 0 0 0 0 0 0 
0 0 0 0 0 0 0 0 0 
0 0 0 0 0 0 0 0 0 
0 0 0 0 0 0 0 0 0 
0 0 0 0 0 0 0 0 0 
0 0 0 0 0 0 0 0 0 
0 0 0 0 0 0 0 0 0 
0 0 0 0 0 0 0 0 0 
0 0 0 0 0 0 0 0 0 
0 0 0 0 0 0 0 0 0 
0 0 0 0 0 0 0 0 0 
0 0 0 0 0 0 0 0 0 
0 0 0 0 0 0 0 0 0 
0 0 0 0 0 0 0 0 0 
0 0 0 0 0 0 0 0 0 
0 0 0 0 0 0 0 0 0 
0 0 0 0 0 0 0 0 0 
0 0 0 0 0 0 0 0 0 
0 0 0 0 0 0 0 0 0 
0 0 0 0 0 0 0 0 0 
0 0 0 0 0 0 0 0 0 
0 0 0 0 0 0 0 0 0 
0 0 0 0 0 0 0 0 0 
0 0 0 0 0 0 0 0 0 
0 0 0 0 0 0 0 0 0 
0 0 0 0 0 0 0 0 0 
0 0 0 0 0 0 0 0 0 
0 0 0 0 0 0 0 0 0 
0 0 0 0 0 0 0 0 0 
0 0 0 0 0 0 0 0 0 
0 0 0 0 0 0 0 0 0 
0 0 0 0 0 0 0 0 0 
0 0 0 0 0 0 0 0 0 
0 0 0 0 0 0 0 0 0 
0 0 0 0 0 0 0 0 0 
0 0 0 0 0 0 0 0 0 
0 0 0 0 0 0 0 0 0 
0 0 0 0 0 0 0 0 0 
0 0 0 0 0 0 0 0 0 
0 0 0 0 0 0 0 0 0 
0 0 0 0 0 0 0 0 0 
0 0 0 0 0 0 0 0 0 
0 0 0 0 0 0 0 0 0 
0 0 0 0 0 0 0 0 0 
0 0 0 0 0 0 0 0 0 
0 0 0 0 0 0 0 0 0 
0 0 0 0 0 0 0 0 0 
0 0 0 0 0 0 0 0 0 
0 0 0 0 0 0 0 0 0 
0 0 0 0 0 0 0 0 0 
0 0 0 0 0 0 0 0 0 
0 0 0 0 0 0 0 0 0 
0 0 0 0 0 0 0 0 0 
0 0 0 0 0 0 0 0 0 
0 0 0 0 0 0 0 0 0 
0 0 0 0 0 0 0 0 0 
0 0 0 0 0 0 0 0 0 
0 0 0 0 0 0 0 0 0 
0 0 0 0 0 0 0 0 0 
0 0 0 0 0 0 0 0 0 
0 0 0 0 0 0 0 0 0 
0 0 0 0 0 0 0 0 0 
0 0 0 0 0 0 0 0 0 
0 0 0 0 0 0 0 0 0 
0 0 0 0 0 0 0 0 0 
0 0 0 0 0 0 0 0 0 
0 0 0 0 0 0 0 0 0 
0 0 0 0 0 0 0 0 0 
0 0 0 0 0 0 0 0 0 
0 0 0 0 0 0 0 0 0 
0 0 0 0 0 0 0 0 0 
0 0 0 0 0 0 0 0 0 
0 0 0 0 0 0 0 0 0 
0 0 0 0 0 0 0 0 0 
0 0 0 0 0 0 0 0 0 
0 0 0 0 0 0 0 0 0 
0 0 0 0 0 0 0 0 0 
0 0 0 0 0 0 0 0 0 
0 0 0 0 0 0 0 0 0 
0 0 0 0 0 0 0 0 0 
0 0 0 0 0 0 0 0 0 
0 0 0 0 0 0 0 0 0 
0 0 0 0 0 0 0 0 0 
0 0 0 0 0 0 0 0 0 
0 0 0 0 0 0 0 0 0 
0 0 0 0 0 0 0 0 0 
0 0 0 0 0 0 0 0 0 
0 0 0 0 0 0 0 0 0 
0 0 0 0 0 0 0 0 0 
0 0 0 0 0 0 0 0 0 
0 0 0 0 0 0 0 0 0 
0 0 0 0 0 0 0 0 0 
0 0 0 0 0 0 0 0 0 
0 0 0 0 0 0 0 0 0 
0 0 0 0 0 0 0 0 0 
0 0 0 0 0 0 0 0 0 
0 0 0 0 0 0 0 0 0 
0 0 0 0 0 0 0 0 0 
0 0 0 0 0 0 0 0 0 
0 0 0 0 0 0 0 0 0 
0 0 0 0 0 0 0 0 0 
0 0 0 0 0 0 0 0 0 
0 0 0 0 0 0 0 0 0 
0 0 0 0 0 0 0 0 0 
0 0 0 0 0 0 0 0 0 
0 0 0 0 0 0 0 0 0 
0 0 0 0 0 0 0 0 0 
0 0 0 0 0 0 0 0 0 
0 0 0 0 0 0 0 0 0 
0 0 0 0 0 0 0 0 0 
0 0 0 0 0 0 0 0 0 
0 0 0 0 0 0 0 0 0 
0 0 0 0 0 0 0 0 0 
0 0 0 0 0 0 0 0 0 
0 0 0 0 0 0 0 0 0 
0 0 0 0 0 0 0 0 0 
0 0 0 0 0 0 0 0 0 
0 0 0 0 0 0 0 0 0 
0 0 0 0 0 0 0 0 0 
0 0 0 0 0 0 0 0 0 
0 0 0 0 0 0 0 0 0 
0 0 0 0 0 0 0 0 0 
0 0 0 0 0 0 0 0 0 
0 0 0 0 0 0 0 0 0 
0 0 0 0 0 0 0 0 0 
0 0 0 0 0 0 0 0 0 
0 0 0 0 0 0 0 0 0 
0 0 0 0 0 0 0 0 0 
0 0 0 0 0 0 0 0 0 
0 0 0 0 0 0 0 0 0 
0 0 0 0 0 0 0 0 0 
0 0 0 0 0 0 0 0 0 
0 0 0 0 0 0 0 0 0 
0 0 0 0 0 0 0 0 0 
0 0 0 0 0 0 0 0 0 
0 0 0 0 0 0 0 0 0 
0 0 0 0 0 0 0 0 0 
0 0 0 0 0 0 0 0 0 
0 0 0 0 0 0 0 0 0 
0 0 0 0 0 0 0 0 0 
0 0 0 0 0 0 0 0 0 
0 0 0 0 0 0 0 0 0 
0 0 0 0 0 0 0 0 0 
0 0 0 0 0 0 0 0 0 
0 0 0 0 0 0 0 0 0 
0 0 0 0 0 0 0 0 0 
0 0 0 0 0 0 0 0 0 
0 0 0 0 0 0 0 0 0 
0 0 0 0 0 0 0 0 0 
0 0 0 0 0 0 0 0 0 
0 0 0 0 0 0 0 0 0 
0 0 0 0 0 0 0 0 0 
0 0 0 0 0 0 0 0 0 
0 0 0 0 0 0 0 0 0 
0 0 0 0 0 0 0 0 0 
0 0 0 0 0 0 0 0 0 
0 0 0 0 0 0 0 0 0 
0 0 0 0 0 0 0 0 0 
0 0 0 0 0 0 0 0 0 
0 0 0 0 0 0 0 0 0 
0 0 0 0 0 0 0 0 0 
0 0 0 0 0 0 0 0 0 
0 0 0 0 0 0 0 0 0 
0 0 0 0 0 0 0 0 0 
0 0 0 0 0 0 0 0 0 
0 0 0 0 0 0 0 0 0 
0 0 0 0 0 0 0 0 0 
0 0 0 0 0 0 0 0 0 
0 0 0 0 0 0 0 0 0 
0 0 0 0 0 0 0 0 0 
0 0 0 0 0 0 0 0 0 
0 0 0 0 0 0 0 0 0 
0 0 0 0 0 0 0 0 0 
0 0 0 0 0 0 0 0 0 
0 0 0 0 0 0 0 0 0 
0 0 0 0 0 0 0 0 0 
0 0 0 0 0 0 0 0 0 
0 0 0 0 0 0 0 0 0 
0 0 0 0 0 0 0 0 0 
0 0 0 0 0 0 0 0 0 
0 0 0 0 0 0 0 0 0 
0 0 0 0 0 0 0 0 0 
0 0 0 0 0 0 0 0 0 
0 0 0 0 0 0 0 0 0 
0 0 0 0 0 0 0 0 0 
0 0 0 0 0 0 0 0 0 
0 0 0 0 0 0 0 0 0 
0 0 0 0 0 0 0 0 0 
0 0 0 0 0 0 0 0 0 
0 0 0 0 0 0 0 0 0 
0 0 0 0 0 0 0 0 0 
0 0 0 0 0 0 0 0 0 
0 0 0 0 0 0 0 0 0 
0 0 0 0 0 0 0 0 0 
0 0 0 0 0 0 0 0 0 
0 0 0 0 0 0 0 0 0 
0 0 0 0 0 0 0 0 0 
0 0 0 0 0 0 0 0 0 
0 0 0 0 0 0 0 0 0 
0 0 0 0 0 0 0 0 0 
0 0 0 0 0 0 0 0 0 
0 0 0 0 0 0 0 0 0 
0 0 0 0 0 0 0 0 0 
0 0 0 0 0 0 0 0 0 
0 0 0 0 0 0 0 0 0 
0 0 0 0 0 0 0 0 0 
0 0 0 0 0 0 0 0 0 
0 0 0 0 0 0 0 0 0 

Displacement_Wall 3 1116 double
0 0 0 0 0 0 0 0 0 
0 0 0 0 0 0 0 0 0 
0 0 0 0 0 0 0 0 0 
0 0 0 0 0 0 0 0 0 
0 0 0 0 0 0 0 0 0 
0 0 0 0 0 0 0 0 0 
0 0 0 0 0 0 0 0 0 
0 0 0 0 0 0 0 0 0 
0 0 0 0 0 0 0 0 0 
0 0 0 0 0 0 0 0 0 
0 0 0 0 0 0 0 0 0 
0 0 0 0 0 0 0 0 0 
0 0 0 0 0 0 0 0 0 
0 0 0 0 0 0 0 0 0 
0 0 0 0 0 0 0 0 0 
0 0 0 0 0 0 0 0 0 
0 0 0 0 0 0 0 0 0 
0 0 0 0 0 0 0 0 0 
0 0 0 0 0 0 0 0 0 
0 0 0 0 0 0 0 0 0 
0 0 0 0 0 0 0 0 0 
0 0 0 0 0 0 0 0 0 
0 0 0 0 0 0 0 0 0 
0 0 0 0 0 0 0 0 0 
0 0 0 0 0 0 0 0 0 
0 0 0 0 0 0 0 0 0 
0 0 0 0 0 0 0 0 0 
0 0 0 0 0 0 0 0 0 
0 0 0 0 0 0 0 0 0 
0 0 0 0 0 0 0 0 0 
0 0 0 0 0 0 0 0 0 
0 0 0 0 0 0 0 0 0 
0 0 0 0 0 0 0 0 0 
0 0 0 0 0 0 0 0 0 
0 0 0 0 0 0 0 0 0 
0 0 0 0 0 0 0 0 0 
0 0 0 0 0 0 0 0 0 
0 0 0 0 0 0 0 0 0 
0 0 0 0 0 0 0 0 0 
0 0 0 0 0 0 0 0 0 
0 0 0 0 0 0 0 0 0 
0 0 0 0 0 0 0 0 0 
0 0 0 0 0 0 0 0 0 
0 0 0 0 0 0 0 0 0 
0 0 0 0 0 0 0 0 0 
0 0 0 0 0 0 0 0 0 
0 0 0 0 0 0 0 0 0 
0 0 0 0 0 0 0 0 0 
0 0 0 0 0 0 0 0 0 
0 0 0 0 0 0 0 0 0 
0 0 0 0 0 0 0 0 0 
0 0 0 0 0 0 0 0 0 
0 0 0 0 0 0 0 0 0 
0 0 0 0 0 0 0 0 0 
0 0 0 0 0 0 0 0 0 
0 0 0 0 0 0 0 0 0 
0 0 0 0 0 0 0 0 0 
0 0 0 0 0 0 0 0 0 
0 0 0 0 0 0 0 0 0 
0 0 0 0 0 0 0 0 0 
0 0 0 0 0 0 0 0 0 
0 0 0 0 0 0 0 0 0 
0 0 0 0 0 0 0 0 0 
0 0 0 0 0 0 0 0 0 
0 0 0 0 0 0 0 0 0 
0 0 0 0 0 0 0 0 0 
0 0 0 0 0 0 0 0 0 
0 0 0 0 0 0 0 0 0 
0 0 0 0 0 0 0 0 0 
0 0 0 0 0 0 0 0 0 
0 0 0 0 0 0 0 0 0 
0 0 0 0 0 0 0 0 0 
0 0 0 0 0 0 0 0 0 
0 0 0 0 0 0 0 0 0 
0 0 0 0 0 0 0 0 0 
0 0 0 0 0 0 0 0 0 
0 0 0 0 0 0 0 0 0 
0 0 0 0 0 0 0 0 0 
0 0 0 0 0 0 0 0 0 
0 0 0 0 0 0 0 0 0 
0 0 0 0 0 0 0 0 0 
0 0 0 0 0 0 0 0 0 
0 0 0 0 0 0 0 0 0 
0 0 0 0 0 0 0 0 0 
0 0 0 0 0 0 0 0 0 
0 0 0 0 0 0 0 0 0 
0 0 0 0 0 0 0 0 0 
0 0 0 0 0 0 0 0 0 
0 0 0 0 0 0 0 0 0 
0 0 0 0 0 0 0 0 0 
0 0 0 0 0 0 0 0 0 
0 0 0 0 0 0 0 0 0 
0 0 0 0 0 0 0 0 0 
0 0 0 0 0 0 0 0 0 
0 0 0 0 0 0 0 0 0 
0 0 0 0 0 0 0 0 0 
0 0 0 0 0 0 0 0 0 
0 0 0 0 0 0 0 0 0 
0 0 0 0 0 0 0 0 0 
0 0 0 0 0 0 0 0 0 
0 0 0 0 0 0 0 0 0 
0 0 0 0 0 0 0 0 0 
0 0 0 0 0 0 0 0 0 
0 0 0 0 0 0 0 0 0 
0 0 0 0 0 0 0 0 0 
0 0 0 0 0 0 0 0 0 
0 0 0 0 0 0 0 0 0 
0 0 0 0 0 0 0 0 0 
0 0 0 0 0 0 0 0 0 
0 0 0 0 0 0 0 0 0 
0 0 0 0 0 0 0 0 0 
0 0 0 0 0 0 0 0 0 
0 0 0 0 0 0 0 0 0 
0 0 0 0 0 0 0 0 0 
0 0 0 0 0 0 0 0 0 
0 0 0 0 0 0 0 0 0 
0 0 0 0 0 0 0 0 0 
0 0 0 0 0 0 0 0 0 
0 0 0 0 0 0 0 0 0 
0 0 0 0 0 0 0 0 0 
0 0 0 0 0 0 0 0 0 
0 0 0 0 0 0 0 0 0 
0 0 0 0 0 0 0 0 0 
0 0 0 0 0 0 0 0 0 
0 0 0 0 0 0 0 0 0 
0 0 0 0 0 0 0 0 0 
0 0 0 0 0 0 0 0 0 
0 0 0 0 0 0 0 0 0 
0 0 0 0 0 0 0 0 0 
0 0 0 0 0 0 0 0 0 
0 0 0 0 0 0 0 0 0 
0 0 0 0 0 0 0 0 0 
0 0 0 0 0 0 0 0 0 
0 0 0 0 0 0 0 0 0 
0 0 0 0 0 0 0 0 0 
0 0 0 0 0 0 0 0 0 
0 0 0 0 0 0 0 0 0 
0 0 0 0 0 0 0 0 0 
0 0 0 0 0 0 0 0 0 
0 0 0 0 0 0 0 0 0 
0 0 0 0 0 0 0 0 0 
0 0 0 0 0 0 0 0 0 
0 0 0 0 0 0 0 0 0 
0 0 0 0 0 0 0 0 0 
0 0 0 0 0 0 0 0 0 
0 0 0 0 0 0 0 0 0 
0 0 0 0 0 0 0 0 0 
0 0 0 0 0 0 0 0 0 
0 0 0 0 0 0 0 0 0 
0 0 0 0 0 0 0 0 0 
0 0 0 0 0 0 0 0 0 
0 0 0 0 0 0 0 0 0 
0 0 0 0 0 0 0 0 0 
0 0 0 0 0 0 0 0 0 
0 0 0 0 0 0 0 0 0 
0 0 0 0 0 0 0 0 0 
0 0 0 0 0 0 0 0 0 
0 0 0 0 0 0 0 0 0 
0 0 0 0 0 0 0 0 0 
0 0 0 0 0 0 0 0 0 
0 0 0 0 0 0 0 0 0 
0 0 0 0 0 0 0 0 0 
0 0 0 0 0 0 0 0 0 
0 0 0 0 0 0 0 0 0 
0 0 0 0 0 0 0 0 0 
0 0 0 0 0 0 0 0 0 
0 0 0 0 0 0 0 0 0 
0 0 0 0 0 0 0 0 0 
0 0 0 0 0 0 0 0 0 
0 0 0 0 0 0 0 0 0 
0 0 0 0 0 0 0 0 0 
0 0 0 0 0 0 0 0 0 
0 0 0 0 0 0 0 0 0 
0 0 0 0 0 0 0 0 0 
0 0 0 0 0 0 0 0 0 
0 0 0 0 0 0 0 0 0 
0 0 0 0 0 0 0 0 0 
0 0 0 0 0 0 0 0 0 
0 0 0 0 0 0 0 0 0 
0 0 0 0 0 0 0 0 0 
0 0 0 0 0 0 0 0 0 
0 0 0 0 0 0 0 0 0 
0 0 0 0 0 0 0 0 0 
0 0 0 0 0 0 0 0 0 
0 0 0 0 0 0 0 0 0 
0 0 0 0 0 0 0 0 0 
0 0 0 0 0 0 0 0 0 
0 0 0 0 0 0 0 0 0 
0 0 0 0 0 0 0 0 0 
0 0 0 0 0 0 0 0 0 
0 0 0 0 0 0 0 0 0 
0 0 0 0 0 0 0 0 0 
0 0 0 0 0 0 0 0 0 
0 0 0 0 0 0 0 0 0 
0 0 0 0 0 0 0 0 0 
0 0 0 0 0 0 0 0 0 
0 0 0 0 0 0 0 0 0 
0 0 0 0 0 0 0 0 0 
0 0 0 0 0 0 0 0 0 
0 0 0 0 0 0 0 0 0 
0 0 0 0 0 0 0 0 0 
0 0 0 0 0 0 0 0 0 
0 0 0 0 0 0 0 0 0 
0 0 0 0 0 0 0 0 0 
0 0 0 0 0 0 0 0 0 
0 0 0 0 0 0 0 0 0 
0 0 0 0 0 0 0 0 0 
0 0 0 0 0 0 0 0 0 
0 0 0 0 0 0 0 0 0 
0 0 0 0 0 0 0 0 0 
0 0 0 0 0 0 0 0 0 
0 0 0 0 0 0 0 0 0 
0 0 0 0 0 0 0 0 0 
0 0 0 0 0 0 0 0 0 
0 0 0 0 0 0 0 0 0 
0 0 0 0 0 0 0 0 0 
0 0 0 0 0 0 0 0 0 
0 0 0 0 0 0 0 0 0 
0 0 0 0 0 0 0 0 0 
0 0 0 0 0 0 0 0 0 
0 0 0 0 0 0 0 0 0 
0 0 0 0 0 0 0 0 0 
0 0 0 0 0 0 0 0 0 
0 0 0 0 0 0 0 0 0 
0 0 0 0 0 0 0 0 0 
0 0 0 0 0 0 0 0 0 
0 0 0 0 0 0 0 0 0 
0 0 0 0 0 0 0 0 0 
0 0 0 0 0 0 0 0 0 
0 0 0 0 0 0 0 0 0 
0 0 0 0 0 0 0 0 0 
0 0 0 0 0 0 0 0 0 
0 0 0 0 0 0 0 0 0 
0 0 0 0 0 0 0 0 0 
0 0 0 0 0 0 0 0 0 
0 0 0 0 0 0 0 0 0 
0 0 0 0 0 0 0 0 0 
0 0 0 0 0 0 0 0 0 
0 0 0 0 0 0 0 0 0 
0 0 0 0 0 0 0 0 0 
0 0 0 0 0 0 0 0 0 
0 0 0 0 0 0 0 0 0 
0 0 0 0 0 0 0 0 0 
0 0 0 0 0 0 0 0 0 
0 0 0 0 0 0 0 0 0 
0 0 0 0 0 0 0 0 0 
0 0 0 0 0 0 0 0 0 
0 0 0 0 0 0 0 0 0 
0 0 0 0 0 0 0 0 0 
0 0 0 0 0 0 0 0 0 
0 0 0 0 0 0 0 0 0 
0 0 0 0 0 0 0 0 0 
0 0 0 0 0 0 0 0 0 
0 0 0 0 0 0 0 0 0 
0 0 0 0 0 0 0 0 0 
0 0 0 0 0 0 0 0 0 
0 0 0 0 0 0 0 0 0 
0 0 0 0 0 0 0 0 0 
0 0 0 0 0 0 0 0 0 
0 0 0 0 0 0 0 0 0 
0 0 0 0 0 0 0 0 0 
0 0 0 0 0 0 0 0 0 
0 0 0 0 0 0 0 0 0 
0 0 0 0 0 0 0 0 0 
0 0 0 0 0 0 0 0 0 
0 0 0 0 0 0 0 0 0 
0 0 0 0 0 0 0 0 0 
0 0 0 0 0 0 0 0 0 
0 0 0 0 0 0 0 0 0 
0 0 0 0 0 0 0 0 0 
0 0 0 0 0 0 0 0 0 
0 0 0 0 0 0 0 0 0 
0 0 0 0 0 0 0 0 0 
0 0 0 0 0 0 0 0 0 
0 0 0 0 0 0 0 0 0 
0 0 0 0 0 0 0 0 0 
0 0 0 0 0 0 0 0 0 
0 0 0 0 0 0 0 0 0 
0 0 0 0 0 0 0 0 0 
0 0 0 0 0 0 0 0 0 
0 0 0 0 0 0 0 0 0 
0 0 0 0 0 0 0 0 0 
0 0 0 0 0 0 0 0 0 
0 0 0 0 0 0 0 0 0 
0 0 0 0 0 0 0 0 0 
0 0 0 0 0 0 0 0 0 
0 0 0 0 0 0 0 0 0 
0 0 0 0 0 0 0 0 0 
0 0 0 0 0 0 0 0 0 
0 0 0 0 0 0 0 0 0 
0 0 0 0 0 0 0 0 0 
0 0 0 0 0 0 0 0 0 
0 0 0 0 0 0 0 0 0 
0 0 0 0 0 0 0 0 0 
0 0 0 0 0 0 0 0 0 
0 0 0 0 0 0 0 0 0 
0 0 0 0 0 0 0 0 0 
0 0 0 0 0 0 0 0 0 
0 0 0 0 0 0 0 0 0 
0 0 0 0 0 0 0 0 0 
0 0 0 0 0 0 0 0 0 
0 0 0 0 0 0 0 0 0 
0 0 0 0 0 0 0 0 0 
0 0 0 0 0 0 0 0 0 
0 0 0 0 0 0 0 0 0 
0 0 0 0 0 0 0 0 0 
0 0 0 0 0 0 0 0 0 
0 0 0 0 0 0 0 0 0 
0 0 0 0 0 0 0 0 0 
0 0 0 0 0 0 0 0 0 
0 0 0 0 0 0 0 0 0 
0 0 0 0 0 0 0 0 0 
0 0 0 0 0 0 0 0 0 
0 0 0 0 0 0 0 0 0 
0 0 0 0 0 0 0 0 0 
0 0 0 0 0 0 0 0 0 
0 0 0 0 0 0 0 0 0 
0 0 0 0 0 0 0 0 0 
0 0 0 0 0 0 0 0 0 
0 0 0 0 0 0 0 0 0 
0 0 0 0 0 0 0 0 0 
0 0 0 0 0 0 0 0 0 
0 0 0 0 0 0 0 0 0 
0 0 0 0 0 0 0 0 0 
0 0 0 0 0 0 0 0 0 
0 0 0 0 0 0 0 0 0 
0 0 0 0 0 0 0 0 0 
0 0 0 0 0 0 0 0 0 
0 0 0 0 0 0 0 0 0 
0 0 0 0 0 0 0 0 0 
0 0 0 0 0 0 0 0 0 
0 0 0 0 0 0 0 0 0 
0 0 0 0 0 0 0 0 0 
0 0 0 0 0 0 0 0 0 
0 0 0 0 0 0 0 0 0 
0 0 0 0 0 0 0 0 0 
0 0 0 0 0 0 0 0 0 
0 0 0 0 0 0 0 0 0 
0 0 0 0 0 0 0 0 0 
0 0 0 0 0 0 0 0 0 
0 0 0 0 0 0 0 0 0 
0 0 0 0 0 0 0 0 0 
0 0 0 0 0 0 0 0 0 
0 0 0 0 0 0 0 0 0 
0 0 0 0 0 0 0 0 0 
0 0 0 0 0 0 0 0 0 
0 0 0 0 0 0 0 0 0 
0 0 0 0 0 0 0 0 0 
0 0 0 0 0 0 0 0 0 
0 0 0 0 0 0 0 0 0 
0 0 0 0 0 0 0 0 0 
0 0 0 0 0 0 0 0 0 
0 0 0 0 0 0 0 0 0 
0 0 0 0 0 0 0 0 0 
0 0 0 0 0 0 0 0 0 
0 0 0 0 0 0 0 0 0 
0 0 0 0 0 0 0 0 0 
0 0 0 0 0 0 0 0 0 
0 0 0 0 0 0 0 0 0 
0 0 0 0 0 0 0 0 0 
0 0 0 0 0 0 0 0 0 
0 0 0 0 0 0 0 0 0 
0 0 0 0 0 0 0 0 0 
0 0 0 0 0 0 0 0 0 
0 0 0 0 0 0 0 0 0 
0 0 0 0 0 0 0 0 0 
0 0 0 0 0 0 0 0 0 
0 0 0 0 0 0 0 0 0 
0 0 0 0 0 0 0 0 0 
0 0 0 0 0 0 0 0 0 
0 0 0 0 0 0 0 0 0 
0 0 0 0 0 0 0 0 0 

I1_Pt 1 1116 double
2 2 2 2 2 2 2 2 2 
2 2 2 2 2 2 2 2 2 
2 2 2 2 2 2 2 2 2 
2 2 2 2 2 2 2 2 2 
2 2 2 2 2 2 2 2 2 
2 2 2 2 2 2 2 2 2 
2 2 2 2 2 2 2 2 2 
2 2 2 2 2 2 2 2 2 
2 2 2 2 2 2 2 2 2 
2 2 2 2 2 2 2 2 2 
2 2 2 2 2 2 2 2 2 
2 2 2 2 2 2 2 2 2 
2 2 2 2 2 2 2 2 2 
2 2 2 2 2 2 2 2 2 
2 2 2 2 2 2 2 2 2 
2 2 2 2 2 2 2 2 2 
2 2 2 2 2 2 2 2 2 
2 2 2 2 2 2 2 2 2 
2 2 2 2 2 2 2 2 2 
2 2 2 2 2 2 2 2 2 
2 2 2 2 2 2 2 2 2 
2 2 2 2 2 2 2 2 2 
2 2 2 2 2 2 2 2 2 
2 2 2 2 2 2 2 2 2 
2 2 2 2 2 2 2 2 2 
2 2 2 2 2 2 2 2 2 
2 2 2 2 2 2 2 2 2 
2 2 2 2 2 2 2 2 2 
2 2 2 2 2 2 2 2 2 
2 2 2 2 2 2 2 2 2 
2 2 2 2 2 2 2 2 2 
2 2 2 2 2 2 2 2 2 
2 2 2 2 2 2 2 2 2 
2 2 2 2 2 2 2 2 2 
2 2 2 2 2 2 2 2 2 
2 2 2 2 2 2 2 2 2 
2 2 2 2 2 2 2 2 2 
2 2 2 2 2 2 2 2 2 
2 2 2 2 2 2 2 2 2 
2 2 2 2 2 2 2 2 2 
2 2 2 2 2 2 2 2 2 
2 2 2 2 2 2 2 2 2 
2 2 2 2 2 2 2 2 2 
2 2 2 2 2 2 2 2 2 
2 2 2 2 2 2 2 2 2 
2 2 2 2 2 2 2 2 2 
2 2 2 2 2 2 2 2 2 
2 2 2 2 2 2 2 2 2 
2 2 2 2 2 2 2 2 2 
2 2 2 2 2 2 2 2 2 
2 2 2 2 2 2 2 2 2 
2 2 2 2 2 2 2 2 2 
2 2 2 2 2 2 2 2 2 
2 2 2 2 2 2 2 2 2 
2 2 2 2 2 2 2 2 2 
2 2 2 2 2 2 2 2 2 
2 2 2 2 2 2 2 2 2 
2 2 2 2 2 2 2 2 2 
2 2 2 2 2 2 2 2 2 
2 2 2 2 2 2 2 2 2 
2 2 2 2 2 2 2 2 2 
2 2 2 2 2 2 2 2 2 
2 2 2 2 2 2 2 2 2 
2 2 2 2 2 2 2 2 2 
2 2 2 2 2 2 2 2 2 
2 2 2 2 2 2 2 2 2 
2 2 2 2 2 2 2 2 2 
2 2 2 2 2 2 2 2 2 
2 2 2 2 2 2 2 2 2 
2 2 2 2 2 2 2 2 2 
2 2 2 2 2 2 2 2 2 
2 2 2 2 2 2 2 2 2 
2 2 2 2 2 2 2 2 2 
2 2 2 2 2 2 2 2 2 
2 2 2 2 2 2 2 2 2 
2 2 2 2 2 2 2 2 2 
2 2 2 2 2 2 2 2 2 
2 2 2 2 2 2 2 2 2 
2 2 2 2 2 2 2 2 2 
2 2 2 2 2 2 2 2 2 
2 2 2 2 2 2 2 2 2 
2 2 2 2 2 2 2 2 2 
2 2 2 2 2 2 2 2 2 
2 2 2 2 2 2 2 2 2 
2 2 2 2 2 2 2 2 2 
2 2 2 2 2 2 2 2 2 
2 2 2 2 2 2 2 2 2 
2 2 2 2 2 2 2 2 2 
2 2 2 2 2 2 2 2 2 
2 2 2 2 2 2 2 2 2 
2 2 2 2 2 2 2 2 2 
2 2 2 2 2 2 2 2 2 
2 2 2 2 2 2 2 2 2 
2 2 2 2 2 2 2 2 2 
2 2 2 2 2 2 2 2 2 
2 2 2 2 2 2 2 2 2 
2 2 2 2 2 2 2 2 2 
2 2 2 2 2 2 2 2 2 
2 2 2 2 2 2 2 2 2 
2 2 2 2 2 2 2 2 2 
2 2 2 2 2 2 2 2 2 
2 2 2 2 2 2 2 2 2 
2 2 2 2 2 2 2 2 2 
2 2 2 2 2 2 2 2 2 
2 2 2 2 2 2 2 2 2 
2 2 2 2 2 2 2 2 2 
2 2 2 2 2 2 2 2 2 
2 2 2 2 2 2 2 2 2 
2 2 2 2 2 2 2 2 2 
2 2 2 2 2 2 2 2 2 
2 2 2 2 2 2 2 2 2 
2 2 2 2 2 2 2 2 2 
2 2 2 2 2 2 2 2 2 
2 2 2 2 2 2 2 2 2 
2 2 2 2 2 2 2 2 2 
2 2 2 2 2 2 2 2 2 
2 2 2 2 2 2 2 2 2 
2 2 2 2 2 2 2 2 2 
2 2 2 2 2 2 2 2 2 
2 2 2 2 2 2 2 2 2 
2 2 2 2 2 2 2 2 2 
2 2 2 2 2 2 2 2 2 
2 2 2 2 2 2 2 2 2 
2 2 2 2 2 2 2 2 2 

IAS 1 1116 double
0 0 0 0 0 0 0 0 0 
0 0 0 0 0 0 0 0 0 
0 0 0 0 0 0 0 0 0 
0 0 0 0 0 0 0 0 0 
0 0 0 0 0 0 0 0 0 
0 0 0 0 0 0 0 0 0 
0 0 0 0 0 0 0 0 0 
0 0 0 0 0 0 0 0 0 
0 0 0 0 0 0 0 0 0 
0 0 0 0 0 0 0 0 0 
0 0 0 0 0.10905443507 0.11049866669 0.76372023372 0.74818487272 0.61009708918 
0.63742142367 0 0.042398175081 0 0 0 0 0 0 
0 0 0 0 0 0 0 0 0 
0 0 0 0 0 0 0 0 0 
0 0 0 0 0 0 0 0 0 
0 0 0 0 0 0 0 0 0 
0 0 0 0 0 0 0 0 0 
0 0 0 0 0 0 0 0 0 
0 0 0 0 0 0 0 0 0 
0 0 0 0 0 0 0 0 0.01415413061 
0.68206820775 0.68876632751 0.64710919364 0.65820396249 0 0.032142973242 0 0 0 
0 0 0 0 0 0 0 0 0 
0 0 0 0 0 0 0 0 0 
0 0 0 0 0 0 0 0 0 
0 0 0 0 0 0 0 0 0 
0 0 0 0 0 0 0 0 0 
0 0 0 0 0 0 0 0 0 
0 0 0 0 0 0 0 0 0 
0 0 0 0 0 0 0 0 0 
0 0 0 0 0 0 0 0 0 
0 0 0 0 0.12719029353 0.7418156001 0.6718618367 0.10079692666 0 
0 0 0 0 0 0 0 0 0 
0 0 0 0 0 0 0 0 0 
0 0 0 0 0 0 0 0 0 
0 0 0 0 0 0 0 0 0 
0 0.064000865661 0.71055377851 0.67355844208 0.076540596574 0 0 0 0 
0 0 0 0 0 0 0 0 0 
0 0 0 0 0 0 0 0 0 
0 0 0 0 0 0 0 0 0 
0 0 0 0 0 0 0 0 0 
0 0 0 0 0 0 0 0 0 
0 0 0 0 0 0 0 0 0 
0 0 0 0 0 0 0 0 0 
0.14285265981 0.72583347682 0.70542623779 0.15505519853 0 0 0 0 0 
0 0 0 0 0 0 0 0 0 
0 0 0 0 0 0 0 0 0 
0 0 0 0 0 0 0 0 0 
0 0 0 0 0 0 0 0 0 
0 0.12621457116 0.72462538099 0.67920884799 0.094015957868 0 0 0 0 
0 0 0 0 0 0 0 0 0 
0 0 0 0 0 0 0 0 0 
0 0 0 0 0 0.1230137066 0.68487776552 0.77135024666 0.22118401182 
0 0 0 0 0 0 0 0 0 
0 0 0 0 0 0 0 0 0 
0 0 0 0 0 0 0 0 0 
0 0 0 0 0 0 0 0 0 
0 0 0 0 0 0 0 0 0 
0 0 0 0 0 0 0 0 0 
0 0 0 0 0 0 0 0 0 
0 0 0 0 0 0 0 0 0 
0 0 0 0 0 0 0 0 0 
0 0 0 0 0 0 0 0 0.21833446113 
0.78713288581 0.63721683514 0.078787205886 0 0 0 0 0 0 
0 0 0 0 0 0 0 0 0 
0 0 0 0 0 0 0 0 0 
0 0 0 0 0.046815772464 0.58315853364 0.86173987608 0.30217284205 0 
0 0 0 0 0 0 0 0 0 
0 0 0 0 0 0 0 0 0 
0 0 0 0 0 0 0 0 0 
0 0 0 0 0 0 0 0 0 
0 0 0 0 0 0 0 0 0 
0 0 0 0 0 0 0 0 0 
0 0 0 0 0 0 0 0 0 
0 0 0 0 0 0 0 0 0 
0 0 0 0 0 0 0 0.33499210527 0.86995214018 
0.57944121166 0.039854021195 0 0 0 0 0 0 0 
0 0 0 0 0 0 0 0 0 
0 0 0 0 0 0 0 0 0 
0 0 0 0 0 0 0 0 0 
0 0 0 0 0 0 0 0 0 
0 0 0 0 0.45601220169 0.96481518911 0.38725934149 0 0 
0 0 0 0 0 0 0 0 0 
0 0 0 0 0 0 0 0 0 
0 0 0 0 0 0 0 0 0 
0 0 0 0 0 0 0 0 0 
0 0 0 0 0 0 0 0 0 
0 0 0 0 0 0 0 0 0 
0 0 0 0 0 0 0 0 0 
0 0 0 0 0 0 0 0 0 
0 0 0 0 0 0 0.50106207993 0.035665823404 0.99700579231 
0.47313752657 0 0 0 0 0 0 0 0 
0 0 0 0 0 0 0 0 0 
0 0 0 0 0 0 0 0 0 
0 0 0 0 0 0 0 0 0 
0 0 0 0 0 0 0 0 0 
0 0 0 0 0 0 0 0 0 
0 0 0 0 0 0 0 0 0 
0 0 0 0 0 0 0 0.32761327369 0.93394115064 
0.4590596707 0 0 0 0 0 0 0 0 
0 0 0 0 0 0 0 0 0 
0 0 0 0 0 0 0 0 0 
0 0 0 0 0 0 0 0 0 
0 0 0 0 0 0 0 0 0 
0.69423934829 0.26643371385 0.85153942614 0.36360253477 0 0 0 0 0 
0 0 0 0 0 0 0 0 0 
0 0 0 0 0 0 0 0 0 
0 0 0 0 0 0 0 0 0 
0 0 0 0 0 0 0 0 0 
0 0 0 0 0 0 0 0 0 
0 0 0 0 0 0 0 0.25823259342 0.70421797892 
0 0 0 0 0 0 0 0 0 
0 0 0 0 0 0 0 0 0 
0 0 0 0 0 0 0 0 0 
0 0 0 0 0 0 0 0 0 
0 0 0 0 0 0 0 0 0 
0 0 0 0 0 0 0.22694966334 0.8778201409 0.50958052069 
0.027383021715 0.87188800829 0 0 0 0 0 0 0 
0 0 0 0 0 0 0 0 0 
0 0 0 0 0 0 0 0 0 
0 0 0 0 0 0 0 0 0 
0 0 0 0 0 0 0 0 0 
0 0 0 0 0 0 0 0 0 
0 0 0 0 0 0 0 0 0 
0.1166659757 0.44457689207 0.5805123915 0.19045240424 0 0 0 0 0 

J_Pt 1 1116 double
1 1 1 1 1 1 1 1 1 
1 1 1 1 1 1 1 1 1 
1 1 1 1 1 1 1 1 1 
1 1 1 1 1 1 1 1 1 
1 1 1 1 1 1 1 1 1 
1 1 1 1 1 1 1 1 1 
1 1 1 1 1 1 1 1 1 
1 1 1 1 1 1 1 1 1 
1 1 1 1 1 1 1 1 1 
1 1 1 1 1 1 1 1 1 
1 1 1 1 1 1 1 1 1 
1 1 1 1 1 1 1 1 1 
1 1 1 1 1 1 1 1 1 
1 1 1 1 1 1 1 1 1 
1 1 1 1 1 1 1 1 1 
1 1 1 1 1 1 1 1 1 
1 1 1 1 1 1 1 1 1 
1 1 1 1 1 1 1 1 1 
1 1 1 1 1 1 1 1 1 
1 1 1 1 1 1 1 1 1 
1 1 1 1 1 1 1 1 1 
1 1 1 1 1 1 1 1 1 
1 1 1 1 1 1 1 1 1 
1 1 1 1 1 1 1 1 1 
1 1 1 1 1 1 1 1 1 
1 1 1 1 1 1 1 1 1 
1 1 1 1 1 1 1 1 1 
1 1 1 1 1 1 1 1 1 
1 1 1 1 1 1 1 1 1 
1 1 1 1 1 1 1 1 1 
1 1 1 1 1 1 1 1 1 
1 1 1 1 1 1 1 1 1 
1 1 1 1 1 1 1 1 1 
1 1 1 1 1 1 1 1 1 
1 1 1 1 1 1 1 1 1 
1 1 1 1 1 1 1 1 1 
1 1 1 1 1 1 1 1 1 
1 1 1 1 1 1 1 1 1 
1 1 1 1 1 1 1 1 1 
1 1 1 1 1 1 1 1 1 
1 1 1 1 1 1 1 1 1 
1 1 1 1 1 1 1 1 1 
1 1 1 1 1 1 1 1 1 
1 1 1 1 1 1 1 1 1 
1 1 1 1 1 1 1 1 1 
1 1 1 1 1 1 1 1 1 
1 1 1 1 1 1 1 1 1 
1 1 1 1 1 1 1 1 1 
1 1 1 1 1 1 1 1 1 
1 1 1 1 1 1 1 1 1 
1 1 1 1 1 1 1 1 1 
1 1 1 1 1 1 1 1 1 
1 1 1 1 1 1 1 1 1 
1 1 1 1 1 1 1 1 1 
1 1 1 1 1 1 1 1 1 
1 1 1 1 1 1 1 1 1 
1 1 1 1 1 1 1 1 1 
1 1 1 1 1 1 1 1 1 
1 1 1 1 1 1 1 1 1 
1 1 1 1 1 1 1 1 1 
1 1 1 1 1 1 1 1 1 
1 1 1 1 1 1 1 1 1 
1 1 1 1 1 1 1 1 1 
1 1 1 1 1 1 1 1 1 
1 1 1 1 1 1 1 1 1 
1 1 1 1 1 1 1 1 1 
1 1 1 1 1 1 1 1 1 
1 1 1 1 1 1 1 1 1 
1 1 1 1 1 1 1 1 1 
1 1 1 1 1 1 1 1 1 
1 1 1 1 1 1 1 1 1 
1 1 1 1 1 1 1 1 1 
1 1 1 1 1 1 1 1 1 
1 1 1 1 1 1 1 1 1 
1 1 1 1 1 1 1 1 1 
1 1 1 1 1 1 1 1 1 
1 1 1 1 1 1 1 1 1 
1 1 1 1 1 1 1 1 1 
1 1 1 1 1 1 1 1 1 
1 1 1 1 1 1 1 1 1 
1 1 1 1 1 1 1 1 1 
1 1 1 1 1 1 1 1 1 
1 1 1 1 1 1 1 1 1 
1 1 1 1 1 1 1 1 1 
1 1 1 1 1 1 1 1 1 
1 1 1 1 1 1 1 1 1 
1 1 1 1 1 1 1 1 1 
1 1 1 1 1 1 1 1 1 
1 1 1 1 1 1 1 1 1 
1 1 1 1 1 1 1 1 1 
1 1 1 1 1 1 1 1 1 
1 1 1 1 1 1 1 1 1 
1 1 1 1 1 1 1 1 1 
1 1 1 1 1 1 1 1 1 
1 1 1 1 1 1 1 1 1 
1 1 1 1 1 1 1 1 1 
1 1 1 1 1 1 1 1 1 
1 1 1 1 1 1 1 1 1 
1 1 1 1 1 1 1 1 1 
1 1 1 1 1 1 1 1 1 
1 1 1 1 1 1 1 1 1 
1 1 1 1 1 1 1 1 1 
1 1 1 1 1 1 1 1 1 
1 1 1 1 1 1 1 1 1 
1 1 1 1 1 1 1 1 1 
1 1 1 1 1 1 1 1 1 
1 1 1 1 1 1 1 1 1 
1 1 1 1 1 1 1 1 1 
1 1 1 1 1 1 1 1 1 
1 1 1 1 1 1 1 1 1 
1 1 1 1 1 1 1 1 1 
1 1 1 1 1 1 1 1 1 
1 1 1 1 1 1 1 1 1 
1 1 1 1 1 1 1 1 1 
1 1 1 1 1 1 1 1 1 
1 1 1 1 1 1 1 1 1 
1 1 1 1 1 1 1 1 1 
1 1 1 1 1 1 1 1 1 
1 1 1 1 1 1 1 1 1 
1 1 1 1 1 1 1 1 1 
1 1 1 1 1 1 1 1 1 
1 1 1 1 1 1 1 1 1 
1 1 1 1 1 1 1 1 1 
1 1 1 1 1 1 1 1 1 

Label 4 1116 double
1 1 1 1 1 1 1 1 1 
1 1 1 1 1 1 1 1 1 
1 1 1 1 1 1 1 1 1 
1 1 1 1 1 1 1 1 1 
1 1 1 1 1 1 1 1 1 
1 1 1 1 1 1 1 1 1 
1 1 1 1 1 1 1 1 1 
1 1 1 1 1 1 1 1 1 
1 1 1 1 1 1 1 1 1 
1 1 1 1 1 1 1 1 1 
1 1 1 1 1 1 1 1 1 
1 1 1 1 1 1 1 1 1 
1 1 1 1 1 1 1 1 1 
1 1 1 1 1 1 1 1 1 
1 1 1 1 1 1 1 1 1 
1 1 1 1 1 1 1 1 1 
1 1 1 1 1 1 1 1 1 
1 1 1 1 1 1 1 1 1 
1 1 1 1 1 1 1 1 1 
1 1 1 1 1 1 1 1 1 
1 1 1 1 1 1 1 1 1 
1 1 1 1 1 1 1 1 1 
1 1 1 1 1 1 1 1 1 
1 1 1 1 1 1 1 1 1 
1 1 1 1 1 1 1 1 1 
1 1 1 1 1 1 1 1 1 
1 1 1 1 1 1 1 1 1 
1 1 1 1 1 1 1 1 1 
1 1 1 1 1 1 1 1 1 
1 1 1 1 1 1 1 1 1 
1 1 1 1 1 1 1 1 1 
1 1 1 1 1 1 1 1 1 
1 1 1 1 1 1 1 1 1 
1 1 1 1 1 1 1 1 1 
1 1 1 1 1 1 1 1 1 
1 1 1 1 1 1 1 1 1 
1 1 1 1 1 1 1 1 1 
1 1 1 1 1 1 1 1 1 
1 1 1 1 1 1 1 1 1 
1 1 1 1 1 1 1 1 1 
1 1 1 1 1 1 1 1 1 
1 1 1 1 1 1 1 1 1 
1 1 1 1 1 1 1 1 1 
1 1 1 1 1 1 1 1 1 
1 1 1 1 1 1 1 1 1 
1 1 1 1 1 1 1 1 1 
1 1 1 1 1 1 1 1 1 
1 1 1 1 1 1 1 1 1 
1 1 1 1 1 1 1 1 1 
1 1 1 1 1 1 1 1 1 
1 1 1 1 1 1 1 1 1 
1 1 1 1 1 1 1 1 1 
1 1 1 1 1 1 1 1 1 
1 1 1 1 1 1 1 1 1 
1 1 1 1 1 1 1 1 1 
1 1 1 1 1 1 1 1 1 
1 1 1 1 1 1 1 1 1 
1 1 1 1 1 1 1 1 1 
1 1 1 1 1 1 1 1 1 
1 1 1 1 1 1 1 1 1 
1 1 1 1 1 1 1 1 1 
1 1 1 1 1 1 1 1 1 
1 1 1 1 1 1 1 1 1 
1 1 1 1 1 1 1 1 1 
1 1 1 1 1 1 1 1 1 
1 1 1 1 1 1 1 1 1 
1 1 1 1 1 1 1 1 1 
1 1 1 1 1 1 1 1 1 
1 1 1 1 1 1 1 1 1 
1 1 1 1 1 1 1 1 1 
1 1 1 1 1 1 1 1 1 
1 1 1 1 1 1 1 1 1 
1 1 1 1 1 1 1 1 1 
1 1 1 1 1 1 1 1 1 
1 1 1 1 1 1 1 1 1 
1 1 1 1 1 1 1 1 1 
1 1 1 1 1 1 1 1 1 
1 1 1 1 1 1 1 1 1 
1 1 1 1 1 1 1 1 1 
1 1 1 1 1 1 1 1 1 
1 1 1 1 1 1 1 1 1 
1 1 1 1 1 1 1 1 1 
1 1 1 1 1 1 1 1 1 
1 1 1 1 1 1 1 1 1 
1 1 1 1 1 1 1 1 1 
1 1 1 1 1 1 1 1 1 
1 1 1 1 1 1 1 1 1 
1 1 1 1 1 1 1 1 1 
1 1 1 1 1 1 1 1 1 
1 1 1 1 1 1 1 1 1 
1 1 1 1 1 1 1 1 1 
1 1 1 1 1 1 1 1 1 
1 1 1 1 1 1 1 1 1 
1 1 1 1 1 1 1 1 1 
1 1 1 1 1 1 1 1 1 
1 1 1 1 1 1 1 1 1 
1 1 1 1 1 1 1 1 1 
1 1 1 1 1 1 1 1 1 
1 1 1 1 1 1 1 1 1 
1 1 1 1 1 1 1 1 1 
1 1 1 1 1 1 1 1 1 
1 1 1 1 1 1 1 1 1 
1 1 1 1 1 1 1 1 1 
1 1 1 1 1 1 1 1 1 
1 1 1 1 1 1 1 1 1 
1 1 1 1 1 1 1 1 1 
1 1 1 1 1 1 1 1 1 
1 1 1 1 1 1 1 1 1 
1 1 1 1 1 1 1 1 1 
1 1 1 1 1 1 1 1 1 
1 1 1 1 1 1 1 1 1 
1 1 1 1 1 1 1 1 1 
1 1 1 1 1 1 1 1 1 
1 1 1 1 1 1 1 1 1 
1 1 1 1 1 1 1 1 1 
1 1 1 1 1 1 1 1 1 
1 1 1 1 1 1 1 1 1 
1 1 1 1 1 1 1 1 1 
1 1 1 1 1 1 1 1 1 
1 1 1 1 1 1 1 1 1 
1 1 1 1 1 1 1 1 1 
1 1 1 1 1 1 1 1 1 
1 1 1 1 1 1 1 1 1 
1 1 1 1 1 1 1 1 1 
1 1 1 1 1 1 1 1 1 
1 1 1 1 1 1 1 1 1 
1 1 1 1 1 1 1 1 1 
1 1 1 1 1 1 1 1 1 
1 1 1 1 1 1 1 1 1 
1 1 1 1 1 1 1 1 1 
1 1 1 1 1 1 1 1 1 
1 1 1 1 1 1 1 1 1 
1 1 1 1 1 1 1 1 1 
1 1 1 1 1 1 1 1 1 
1 1 1 1 1 1 1 1 1 
1 1 1 1 1 1 1 1 1 
1 1 1 1 1 1 1 1 1 
1 1 1 1 1 1 1 1 1 
1 1 1 1 1 1 1 1 1 
1 1 1 1 1 1 1 1 1 
1 1 1 1 1 1 1 1 1 
1 1 1 1 1 1 1 1 1 
1 1 1 1 1 1 1 1 1 
1 1 1 1 1 1 1 1 1 
1 1 1 1 1 1 1 1 1 
1 1 1 1 1 1 1 1 1 
1 1 1 1 1 1 1 1 1 
1 1 1 1 1 1 1 1 1 
1 1 1 1 1 1 1 1 1 
1 1 1 1 1 1 1 1 1 
1 1 1 1 1 1 1 1 1 
1 1 1 1 1 1 1 1 1 
1 1 1 1 1 1 1 1 1 
1 1 1 1 1 1 1 1 1 
1 1 1 1 1 1 1 1 1 
1 1 1 1 1 1 1 1 1 
1 1 1 1 1 1 1 1 1 
1 1 1 1 1 1 1 1 1 
1 1 1 1 1 1 1 1 1 
1 1 1 1 1 1 1 1 1 
1 1 1 1 1 1 1 1 1 
1 1 1 1 1 1 1 1 1 
1 1 1 1 1 1 1 1 1 
1 1 1 1 1 1 1 1 1 
1 1 1 1 1 1 1 1 1 
1 1 1 1 1 1 1 1 1 
1 1 1 1 1 1 1 1 1 
1 1 1 1 1 1 1 1 1 
1 1 1 1 1 1 1 1 1 
1 1 1 1 1 1 1 1 1 
1 1 1 1 1 1 1 1 1 
1 1 1 1 1 1 1 1 1 
1 1 1 1 1 1 1 1 1 
1 1 1 1 1 1 1 1 1 
1 1 1 1 1 1 1 1 1 
1 1 1 1 1 1 1 1 1 
1 1 1 1 1 1 1 1 1 
1 1 1 1 1 1 1 1 1 
1 1 1 1 1 1 1 1 1 
1 1 1 1 1 1 1 1 1 
1 1 1 1 1 1 1 1 1 
1 1 1 1 1 1 1 1 1 
1 1 1 1 1 1 1 1 1 
1 1 1 1 1 1 1 1 1 
1 1 1 1 1 1 1 1 1 
1 1 1 1 1 1 1 1 1 
1 1 1 1 1 1 1 1 1 
1 1 1 1 1 1 1 1 1 
1 1 1 1 1 1 1 1 1 
1 1 1 1 1 1 1 1 1 
1 1 1 1 1 1 1 1 1 
1 1 1 1 1 1 1 1 1 
1 1 1 1 1 1 1 1 1 
1 1 1 1 1 1 1 1 1 
1 1 1 1 1 1 1 1 1 
1 1 1 1 1 1 1 1 1 
1 1 1 1 1 1 1 1 1 
1 1 1 1 1 1 1 1 1 
1 1 1 1 1 1 1 1 1 
1 1 1 1 1 1 1 1 1 
1 1 1 1 1 1 1 1 1 
1 1 1 1 1 1 1 1 1 
1 1 1 1 1 1 1 1 1 
1 1 1 1 1 1 1 1 1 
1 1 1 1 1 1 1 1 1 
1 1 1 1 1 1 1 1 1 
1 1 1 1 1 1 1 1 1 
1 1 1 1 1 1 1 1 1 
1 1 1 1 1 1 1 1 1 
1 1 1 1 1 1 1 1 1 
1 1 1 1 1 1 1 1 1 
1 1 1 1 1 1 1 1 1 
1 1 1 1 1 1 1 1 1 
1 1 1 1 1 1 1 1 1 
1 1 1 1 1 1 1 1 1 
1 1 1 1 1 1 1 1 1 
1 1 1 1 1 1 1 1 1 
1 1 1 1 1 1 1 1 1 
1 1 1 1 1 1 1 1 1 
1 1 1 1 1 1 1 1 1 
1 1 1 1 1 1 1 1 1 
1 1 1 1 1 1 1 1 1 
1 1 1 1 1 1 1 1 1 
1 1 1 1 1 1 1 1 1 
1 1 1 1 1 1 1 1 1 
1 1 1 1 1 1 1 1 1 
1 1 1 1 1 1 1 1 1 
1 1 1 1 1 1 1 1 1 
1 1 1 1 1 1 1 1 1 
1 1 1 1 1 1 1 1 1 
1 1 1 1 1 1 1 1 1 
1 1 1 1 1 1 1 1 1 
1 1 1 1 1 1 1 1 1 
1 1 1 1 1 1 1 1 1 
1 1 1 1 1 1 1 1 1 
1 1 1 1 1 1 1 1 1 
1 1 1 1 1 1 1 1 1 
1 1 1 1 1 1 1 1 1 
1 1 1 1 1 1 1 1 1 
1 1 1 1 1 1 1 1 1 
1 1 1 1 1 1 1 1 1 
1 1 1 1 1 1 1 1 1 
1 1 1 1 1 1 1 1 1 
1 1 1 1 1 1 1 1 1 
1 1 1 1 1 1 1 1 1 
1 1 1 1 1 1 1 1 1 
1 1 1 1 1 1 1 1 1 
1 1 1 1 1 1 1 1 1 
1 1 1 1 1 1 1 1 1 
1 1 1 1 1 1 1 1 1 
1 1 1 1 1 1 1 1 1 
1 1 1 1 1 1 1 1 1 
1 1 1 1 1 1 1 1 1 
1 1 1 1 1 1 1 1 1 
1 1 1 1 1 1 1 1 1 
1 1 1 1 1 1 1 1 1 
1 1 1 1 1 1 1 1 1 
1 1 1 1 1 1 1 1 1 
1 1 1 1 1 1 1 1 1 
1 1 1 1 1 1 1 1 1 
1 1 1 1 1 1 1 1 1 
1 1 1 1 1 1 1 1 1 
1 1 1 1 1 1 1 1 1 
1 1 1 1 1 1 1 1 1 
1 1 1 1 1 1 1 1 1 
1 1 1 1 1 1 1 1 1 
1 1 1 1 1 1 1 1 1 
1 1 1 1 1 1 1 1 1 
1 1 1 1 1 1 1 1 1 
1 1 1 1 1 1 1 1 1 
1 1 1 1 1 1 1 1 1 
1 1 1 1 1 1 1 1 1 
1 1 1 1 1 1 1 1 1 
1 1 1 1 1 1 1 1 1 
1 1 1 1 1 1 1 1 1 
1 1 1 1 1 1 1 1 1 
1 1 1 1 1 1 1 1 1 
1 1 1 1 1 1 1 1 1 
1 1 1 1 1 1 1 1 1 
1 1 1 1 1 1 1 1 1 
1 1 1 1 1 1 1 1 1 
1 1 1 1 1 1 1 1 1 
1 1 1 1 1 1 1 1 1 
1 1 1 1 1 1 1 1 1 
1 1 1 1 1 1 1 1 1 
1 1 1 1 1 1 1 1 1 
1 1 1 1 1 1 1 1 1 
1 1 1 1 1 1 1 1 1 
1 1 1 1 1 1 1 1 1 
1 1 1 1 1 1 1 1 1 
1 1 1 1 1 1 1 1 1 
1 1 1 1 1 1 1 1 1 
1 1 1 1 1 1 1 1 1 
1 1 1 1 1 1 1 1 1 
1 1 1 1 1 1 1 1 1 
1 1 1 1 1 1 1 1 1 
1 1 1 1 1 1 1 1 1 
1 1 1 1 1 1 1 1 1 
1 1 1 1 1 1 1 1 1 
1 1 1 1 1 1 1 1 1 
1 1 1 1 1 1 1 1 1 
1 1 1 1 1 1 1 1 1 
1 1 1 1 1 1 1 1 1 
1 1 1 1 1 1 1 1 1 
1 1 1 1 1 1 1 1 1 
1 1 1 1 1 1 1 1 1 
1 1 1 1 1 1 1 1 1 
1 1 1 1 1 1 1 1 1 
1 1 1 1 1 1 1 1 1 
1 1 1 1 1 1 1 1 1 
1 1 1 1 1 1 1 1 1 
1 1 1 1 1 1 1 1 1 
1 1 1 1 1 1 1 1 1 
1 1 1 1 1 1 1 1 1 
1 1 1 1 1 1 1 1 1 
1 1 1 1 1 1 1 1 1 
1 1 1 1 1 1 1 1 1 
1 1 1 1 1 1 1 1 1 
1 1 1 1 1 1 1 1 1 
1 1 1 1 1 1 1 1 1 
1 1 1 1 1 1 1 1 1 
1 1 1 1 1 1 1 1 1 
1 1 1 1 1 1 1 1 1 
1 1 1 1 1 1 1 1 1 
1 1 1 1 1 1 1 1 1 
1 1 1 1 1 1 1 1 1 
1 1 1 1 1 1 1 1 1 
1 1 1 1 1 1 1 1 1 
1 1 1 1 1 1 1 1 1 
1 1 1 1 1 1 1 1 1 
1 1 1 1 1 1 1 1 1 
1 1 1 1 1 1 1 1 1 
1 1 1 1 1 1 1 1 1 
1 1 1 1 1 1 1 1 1 
1 1 1 1 1 1 1 1 1 
1 1 1 1 1 1 1 1 1 
1 1 1 1 1 1 1 1 1 
1 1 1 1 1 1 1 1 1 
1 1 1 1 1 1 1 1 1 
1 1 1 1 1 1 1 1 1 
1 1 1 1 1 1 1 1 1 
1 1 1 1 1 1 1 1 1 
1 1 1 1 1 1 1 1 1 
1 1 1 1 1 1 1 1 1 
1 1 1 1 1 1 1 1 1 
1 1 1 1 1 1 1 1 1 
1 1 1 1 1 1 1 1 1 
1 1 1 1 1 1 1 1 1 
1 1 1 1 1 1 1 1 1 
1 1 1 1 1 1 1 1 1 
1 1 1 1 1 1 1 1 1 
1 1 1 1 1 1 1 1 1 
1 1 1 1 1 1 1 1 1 
1 1 1 1 1 1 1 1 1 
1 1 1 1 1 1 1 1 1 
1 1 1 1 1 1 1 1 1 
1 1 1 1 1 1 1 1 1 
1 1 1 1 1 1 1 1 1 
1 1 1 1 1 1 1 1 1 
1 1 1 1 1 1 1 1 1 
1 1 1 1 1 1 1 1 1 
1 1 1 1 1 1 1 1 1 
1 1 1 1 1 1 1 1 1 
1 1 1 1 1 1 1 1 1 
1 1 1 1 1 1 1 1 1 
1 1 1 1 1 1 1 1 1 
1 1 1 1 1 1 1 1 1 
1 1 1 1 1 1 1 1 1 
1 1 1 1 1 1 1 1 1 
1 1 1 1 1 1 1 1 1 
1 1 1 1 1 1 1 1 1 
1 1 1 1 1 1 1 1 1 
1 1 1 1 1 1 1 1 1 
1 1 1 1 1 1 1 1 1 
1 1 1 1 1 1 1 1 1 
1 1 1 1 1 1 1 1 1 
1 1 1 1 1 1 1 1 1 
1 1 1 1 1 1 1 1 1 
1 1 1 1 1 1 1 1 1 
1 1 1 1 1 1 1 1 1 
1 1 1 1 1 1 1 1 1 
1 1 1 1 1 1 1 1 1 
1 1 1 1 1 1 1 1 1 
1 1 1 1 1 1 1 1 1 
1 1 1 1 1 1 1 1 1 
1 1 1 1 1 1 1 1 1 
1 1 1 1 1 1 1 1 1 
1 1 1 1 1 1 1 1 1 
1 1 1 1 1 1 1 1 1 
1 1 1 1 1 1 1 1 1 
1 1 1 1 1 1 1 1 1 
1 1 1 1 1 1 1 1 1 
1 1 1 1 1 1 1 1 1 
1 1 1 1 1 1 1 1 1 
1 1 1 1 1 1 1 1 1 
1 1 1 1 1 1 1 1 1 
1 1 1 1 1 1 1 1 1 
1 1 1 1 1 1 1 1 1 
1 1 1 1 1 1 1 1 1 
1 1 1 1 1 1 1 1 1 
1 1 1 1 1 1 1 1 1 
1 1 1 1 1 1 1 1 1 
1 1 1 1 1 1 1 1 1 
1 1 1 1 1 1 1 1 1 
1 1 1 1 1 1 1 1 1 
1 1 1 1 1 1 1 1 1 
1 1 1 1 1 1 1 1 1 
1 1 1 1 1 1 1 1 1 
1 1 1 1 1 1 1 1 1 
1 1 1 1 1 1 1 1 1 
1 1 1 1 1 1 1 1 1 
1 1 1 1 1 1 1 1 1 
1 1 1 1 1 1 1 1 1 
1 1 1 1 1 1 1 1 1 
1 1 1 1 1 1 1 1 1 
1 1 1 1 1 1 1 1 1 
1 1 1 1 1 1 1 1 1 
1 1 1 1 1 1 1 1 1 
1 1 1 1 1 1 1 1 1 
1 1 1 1 1 1 1 1 1 
1 1 1 1 1 1 1 1 1 
1 1 1 1 1 1 1 1 1 
1 1 1 1 1 1 1 1 1 
1 1 1 1 1 1 1 1 1 
1 1 1 1 1 1 1 1 1 
1 1 1 1 1 1 1 1 1 
1 1 1 1 1 1 1 1 1 
1 1 1 1 1 1 1 1 1 
1 1 1 1 1 1 1 1 1 
1 1 1 1 1 1 1 1 1 
1 1 1 1 1 1 1 1 1 
1 1 1 1 1 1 1 1 1 
1 1 1 1 1 1 1 1 1 
1 1 1 1 1 1 1 1 1 
1 1 1 1 1 1 1 1 1 
1 1 1 1 1 1 1 1 1 
1 1 1 1 1 1 1 1 1 
1 1 1 1 1 1 1 1 1 
1 1 1 1 1 1 1 1 1 
1 1 1 1 1 1 1 1 1 
1 1 1 1 1 1 1 1 1 
1 1 1 1 1 1 1 1 1 
1 1 1 1 1 1 1 1 1 
1 1 1 1 1 1 1 1 1 
1 1 1 1 1 1 1 1 1 
1 1 1 1 1 1 1 1 1 
1 1 1 1 1 1 1 1 1 
1 1 1 1 1 1 1 1 1 
1 1 1 1 1 1 1 1 1 
1 1 1 1 1 1 1 1 1 
1 1 1 1 1 1 1 1 1 
1 1 1 1 1 1 1 1 1 
1 1 1 1 1 1 1 1 1 
1 1 1 1 1 1 1 1 1 
1 1 1 1 1 1 1 1 1 
1 1 1 1 1 1 1 1 1 
1 1 1 1 1 1 1 1 1 
1 1 1 1 1 1 1 1 1 
1 1 1 1 1 1 1 1 1 
1 1 1 1 1 1 1 1 1 
1 1 1 1 1 1 1 1 1 
1 1 1 1 1 1 1 1 1 
1 1 1 1 1 1 1 1 1 
1 1 1 1 1 1 1 1 1 
1 1 1 1 1 1 1 1 1 
1 1 1 1 1 1 1 1 1 
1 1 1 1 1 1 1 1 1 
1 1 1 1 1 1 1 1 1 
1 1 1 1 1 1 1 1 1 
1 1 1 1 1 1 1 1 1 
1 1 1 1 1 1 1 1 1 
1 1 1 1 1 1 1 1 1 
1 1 1 1 1 1 1 1 1 
1 1 1 1 1 1 1 1 1 
1 1 1 1 1 1 1 1 1 
1 1 1 1 1 1 1 1 1 
1 1 1 1 1 1 1 1 1 
1 1 1 1 1 1 1 1 1 
1 1 1 1 1 1 1 1 1 
1 1 1 1 1 1 1 1 1 
1 1 1 1 1 1 1 1 1 
1 1 1 1 1 1 1 1 1 
1 1 1 1 1 1 1 1 1 
1 1 1 1 1 1 1 1 1 
1 1 1 1 1 1 1 1 1 
1 1 1 1 1 1 1 1 1 
1 1 1 1 1 1 1 1 1 
1 1 1 1 1 1 1 1 1 
1 1 1 1 1 1 1 1 1 
1 1 1 1 1 1 1 1 1 
1 1 1 1 1 1 1 1 1 
1 1 1 1 1 1 1 1 1 
1 1 1 1 1 1 1 1 1 
1 1 1 1 1 1 1 1 1 
1 1 1 1 1 1 1 1 1 
1 1 1 1 1 1 1 1 1 

Long_Strain_Pt 1 1116 double
0.99854279736 0.99879854749 0.99590288806 0.99695399876 0.99863200574 0.99596102604 0.9994995447 0.99740518521 0.99932009497 
0.99774757349 0.9981233204 0.99784361461 0.99828447314 0.99808199659 0.99871548296 0.99860512769 0.99940645072 0.99907386761 
0.99865377148 0.99611981349 0.99867395276 0.99234761918 0.99918272944 0.98848445321 0.99727711195 0.98728030569 0.99667219758 
0.9899195004 0.99629649357 0.99385305411 0.98643834598 0.99586762477 0.98186079516 0.99719355763 0.98933688586 0.99754608917 
0.99479370844 0.99749175853 0.99800674193 0.99694795445 0.99923464869 0.9955229 0.99969652603 0.99382052106 0.99982036856 
0.99242250008 0.99984921594 0.99266684742 0.99964914713 0.99268673722 0.99959372635 0.99394993575 0.99962840465 0.99535794242 
0.99899600759 0.99743460555 0.99696048723 0.99687589355 0.99340555778 0.99708014909 0.99484795614 0.99773092549 0.99657399103 
0.99827736471 0.99839802632 0.99863991996 0.99915354319 0.9989774835 0.99933945684 0.99923294689 0.99900035876 0.99953379371 
0.99911403341 0.99924519088 0.99937271941 0.99892710877 0.99981283963 0.99877127828 0.99980399226 0.9979738824 0.9995032025 
0.99701722333 0.9987721997 0.99655870245 0.99759800138 0.99729769286 0.99493859341 0.99782847355 0.99044011123 0.99744952232 
0.98647111888 0.99605106227 0.98182148607 0.99445001024 0.97625123281 0.99265206764 0.96858127839 0.99419041718 0.96394093699 
0.99467397372 0.96101154243 0.99617899187 0.97506726398 0.99625365591 0.98662233658 0.99735523268 0.99399175501 0.99779550626 
0.99411466403 0.99779876044 0.99462213615 0.99789983417 0.99994331228 0.99971768927 0.99611987059 0.99716970454 0.99932787688 
0.99600676508 0.99872801395 0.99776089222 0.99826627561 0.99868776473 0.99790651124 0.99933043994 0.99854737952 0.99914347398 
0.99912781239 0.99853491176 0.99948368108 0.99769237976 0.99974660708 0.99649285699 0.99973634813 0.993488667 0.99974498771 
0.99226792142 0.99980532045 0.99011760828 0.9998705008 0.98896152193 0.99994258629 0.98907738069 0.99954783179 0.98972629567 
0.99890775935 0.9910274058 0.99831069362 0.99442081246 0.99799822176 0.99738565722 0.99848370483 0.99839502694 0.99899480121 
0.99831294785 0.9995235027 0.99734686338 0.99969194541 0.99684043679 0.99963817105 0.99662138543 0.99922099535 0.99569051906 
0.99708077868 0.99397321937 0.99554060748 0.99279415792 0.99576511348 0.99467435966 0.99740738093 0.99690913795 0.99878403929 
0.99779864854 0.99966491623 0.99718579983 0.99821525331 0.99606835568 0.99743555879 0.99519648177 0.99772079441 0.99407222398 
0.99850295768 0.99454722792 0.99897456234 0.99413951009 0.99917679683 0.99291654268 0.99770576115 0.99441760357 0.9971915269 
0.99648315684 0.99816415785 0.99803940403 0.99884740774 0.99885190898 0.99934981457 0.99886393982 0.99967205272 0.99935944109 
0.99984950462 0.99951156538 0.99989805958 0.99888964354 0.99979967915 0.99826499936 0.99894302502 0.99858474513 0.99873723976 
0.99925573498 0.99911329273 0.99858301745 0.99957899639 0.99814026981 0.99982524414 0.997658013 0.99951187931 0.99758291687 
0.99934616302 0.99681027956 0.99928871528 0.99290759903 0.99952678334 0.99110291015 0.99978561888 0.99101305536 0.99985784874 
0.99383492974 0.99990926585 0.99658587196 0.99560270289 0.99633055924 0.99624663522 0.99851661369 0.9994550433 0.99974230123 
0.99813999746 0.99597122324 0.99305552224 0.99326299424 0.99591380668 0.99562461741 0.99604009411 0.99750427039 0.9977419842 
0.99759451315 0.9964589544 0.99508330091 0.9930549561 0.99261320902 0.99364817917 0.99723088379 0.99621739835 0.99695699495 
0.99778893927 0.99856757318 0.9981198666 0.99673934911 0.99607752589 0.9968483737 0.99806204488 0.99862351629 0.99867629489 
0.99865214557 0.99871461542 0.99890047874 0.9985946653 0.99896713105 0.99916246533 0.99897551412 0.99879212701 0.99899456575 
0.99929106644 0.99886218077 0.99963932644 0.99940667527 0.99915571698 0.99900762402 0.99885223535 0.99826177621 0.99755650353 
0.99602898273 0.99545867275 0.99639302662 0.99804141506 0.99608678854 0.99833943003 0.99777530781 0.99813445658 0.99826792389 
0.99844398651 0.99891543373 0.99929688696 0.99836269605 0.99715207756 0.99721600242 0.99660219693 0.99422605229 0.99283013378 
0.99035650163 0.99100098869 0.9916751608 0.99411307732 0.99548244001 0.99762656179 0.9984326484 0.99897928535 0.99812523693 
0.99795101681 0.99811959947 0.99673463149 0.99622524689 0.99703991372 0.99788783755 0.99912890296 0.99922262559 0.99863814247 
0.99841803605 0.99765383423 0.99655869996 0.99559234717 0.99472900474 0.99381371018 0.99358912966 0.9954406135 0.99787016794 
0.9979268864 0.99850147451 0.99898234244 0.99936145113 0.99951750567 0.99962924163 0.99974292927 0.99979936536 0.99970580623 
0.99913988236 0.99805064854 0.99678835721 0.99664383136 0.99619971507 0.99539790266 0.99672443307 0.99681530247 0.99704850048 
0.99174220989 0.99069878933 0.99554795063 0.99845542402 0.99933057153 0.99721220705 0.99441402703 0.9915322802 0.99427027222 
0.99694224743 0.99942527448 0.99872623714 0.99656838553 0.99595184008 0.99647373912 0.9966052309 0.99687586181 0.99742796121 
0.99832483841 0.99865344151 0.99863492881 0.99767074497 0.99836250243 0.9982369279 0.99891944457 0.9996484283 0.99953622239 
0.99901661246 0.99871435897 0.99850300061 0.99875680229 0.99876063505 0.99917629422 0.99894168536 0.9987688505 0.99885780606 
0.99928393148 0.99947180593 0.99853982698 0.99824187029 0.99825962202 0.99800572196 0.99875788792 0.9980942186 0.99807108043 
0.99754859347 0.99785281018 0.99835242916 0.99869594178 0.998380704 0.99736064692 0.99497477226 0.99331170835 0.99415735732 
0.99641183198 0.99133459726 0.99872996938 0.99823373712 0.99649651775 0.99656518921 0.99908827967 0.99942068461 0.9977729211 
0.99704597559 0.99584524545 0.99506701062 0.99618224637 0.99594309446 0.99567211338 0.99360256519 0.99446181632 0.99512989903 
0.99590251228 0.99623902703 0.99504750177 0.99541524544 0.99605342123 0.99822974769 0.99910190148 0.99959689777 0.99961308218 
0.9991446578 0.99857874408 0.99790014915 0.99703050765 0.99629764098 0.99797316451 0.99905953576 0.99964985021 0.99969984232 
0.9994034574 0.9987297475 0.99879832265 0.99860365659 0.99880925778 0.99801162814 0.99702925425 0.99794998018 0.99817217108 
0.99811104591 0.99793196322 0.99811519865 0.998413988 0.99862851911 0.99872070258 0.99902951853 0.99952453371 0.99954868962 
0.99949223678 0.99863195165 0.99783324065 0.99719798791 0.99753927306 0.99813350974 0.99826290259 0.99775188371 0.99844044612 
0.9990514431 0.99174482143 0.9930783544 0.99106075776 0.98760896231 0.98705542941 0.99209109114 0.99651101219 0.99778923587 
0.99777448045 0.99816626545 0.99866127416 0.997798139 0.9972945302 0.99539361673 0.99435924768 0.99350546468 0.99385648763 
0.99606558962 0.99816022067 0.99888507585 0.99844455772 0.99634092473 0.99771998897 0.99858190554 0.9993072602 0.99936167394 
0.99861022165 0.99719620903 0.99602704028 0.99479401914 0.9973082491 0.9991905906 0.99883825119 0.99887466652 0.99875984532 
0.99871410921 0.99841585751 0.99802977135 0.9958826276 0.99769724589 0.99771571999 0.99779965562 0.99834531047 0.99922381243 
0.99956127085 0.99970896179 0.99985569407 0.9996210433 0.99920073224 0.99887412038 0.99930572494 0.99981228816 0.99973849995 
0.99930821916 0.99869795603 0.99875635943 0.99899919001 0.99944289248 0.9993004804 0.99920239142 0.9990587051 0.99756082593 
0.99498674653 0.99496786521 0.99427944945 0.99739044599 0.99223259928 0.9985847629 0.99936365319 0.99749690103 0.99707963079 
0.99632799256 0.99542021914 0.99555399155 0.99715927979 0.9981460274 0.99776383758 0.99674112623 0.99400750368 0.99147340945 
0.99082902981 0.99067984351 0.99113953648 0.9958279288 0.99574303935 0.9961309041 0.9980026686 0.99901513505 0.9985551811 
0.99857094148 0.99873721003 0.99803204635 0.9984427698 0.99900525986 0.99943563416 0.99881602044 0.99897693928 0.9992578309 
0.99953338594 0.99947704166 0.99857352321 0.99799018323 0.99833697211 0.99906506979 0.99936330276 0.99920611458 0.99848541663 
0.9982293479 0.99866675441 0.99917746577 0.99912634341 0.99943574637 0.99955630197 0.99970983146 0.99963541641 0.99930005113 
0.99829686928 0.9975530923 0.99737371616 0.99868265037 0.99900207177 0.99908734413 0.99870812597 0.9991919198 0.9990925393 
0.99382153736 0.99348587049 0.99033852206 0.99207261812 0.99469183796 0.9960610715 0.99879776286 0.99883817532 0.99853666236 
0.99821413148 0.99677286183 0.99620243928 0.99743439401 0.99743448764 0.99713725669 0.99814464809 0.99792390934 0.99769959424 
0.99782158405 0.99824757372 0.99820047556 0.9987994264 0.99833788321 0.9975526398 0.99699364035 0.99720385805 0.99648043939 
0.99695578705 0.99754491696 0.99829667254 0.99886781734 0.99936353122 0.99959507185 0.99948604332 0.99923951701 0.99908171151 
0.99631836329 0.99553620319 0.99547853544 0.99706226815 0.99597708364 0.99704838297 0.99749726491 0.99751784234 0.9976591842 
0.99682993841 0.99729620257 0.99874659721 0.99933799569 0.99944470331 0.99913841445 0.99905212874 0.99905419265 0.9992201946 
0.99935586448 0.99928957014 0.99858860842 0.99850099985 0.99852523826 0.9989047744 0.99833595214 0.99772697283 0.99752481798 
0.99613950986 0.99642308456 0.99736929391 0.99752699793 0.99743260702 0.99661948169 0.99630340714 0.99839326085 0.99670873209 
0.99782495164 0.99384009704 0.99846545529 0.99800460495 0.99819949085 0.99811717289 0.99862900106 0.99904678748 0.99872885738 
0.99893516951 0.9994287214 0.99910792103 0.99908321443 0.99914395736 0.9983076694 0.99845386746 0.99866373334 0.9989496764 
0.99928783609 0.99925625771 0.99885749633 0.99894267076 0.99931002039 0.99938741256 0.99945733566 0.99902451138 0.99884436934 
0.99910598565 0.99940199135 0.99958042339 0.9989939896 0.99893280973 0.99904659423 0.99935978049 0.99943322253 0.99928255992 
0.99836457016 0.99703577648 0.99539422171 0.9960952732 0.99673977932 0.99792612708 0.99726696491 0.99675685802 0.99754182716 
0.99858647377 0.99914605425 0.99883571094 0.998214146 0.99634900383 0.99482873237 0.99550489405 0.99583602945 0.99575732589 
0.99419878471 0.99202494613 0.98997929815 0.98887025334 0.98948679125 0.99071024459 0.99261057276 0.99665325381 0.99619831092 
0.99867461907 0.99575942946 0.99875013999 0.99814912313 0.99765870501 0.99687183792 0.99639020092 0.99654721384 0.99745118192 
0.99813723433 0.99836991597 0.99767506973 0.99624242197 0.9975087878 0.99517724904 0.99690052257 0.99740329349 0.9986327098 
0.99848743413 0.99752299024 0.99724810242 0.99706266184 0.99723917075 0.99772691387 0.99890190491 0.99956759684 0.99440610211 
0.99625276952 0.99337445608 0.99447595754 0.99552072993 0.99663588538 0.99866334737 0.99924585848 0.99867507001 0.99837969635 
0.99748291495 0.99819718509 0.99810828562 0.99731546852 0.99649455378 0.99761379707 0.99504623863 0.99858346684 0.99931760487 
0.99933119639 0.99456118343 0.99546327612 0.99711801428 0.99516747493 0.9931563781 0.99223534421 0.99599389516 0.99882152622 
0.99902542273 0.99891277831 0.99850727928 0.99831700477 0.99853138705 0.99922036473 0.99938370771 0.99921034621 0.99883754645 
0.9983167883 0.99749399095 0.9970717029 0.99673879409 0.99722162134 0.99767406317 0.99730963785 0.9964189456 0.99597281043 
0.99677637374 0.99754221745 0.99651361801 0.99748186505 0.99830225269 0.99912038838 0.99856357377 0.99838677021 0.99804843781 
0.99811498675 0.99834854518 0.99815644812 0.9985670342 0.99890003159 0.99920807653 0.99890725031 0.99814234567 0.99932650913 
0.9993808603 0.99977097164 0.99968962684 0.99962751617 0.99956253914 0.99966665785 0.99986882223 0.99944133178 0.99654677733 
0.99800516808 0.99879473397 0.99926169643 0.99911289353 0.99868865077 0.99863279315 0.99900720402 0.99940740758 0.99942069428 
0.9993319925 0.99872652145 0.99700824984 0.99476172718 0.99263340598 0.99368962303 0.99522484282 0.9974895729 0.99838285023 
0.9988837532 0.99910274535 0.99723452375 0.99451560187 0.99461315811 0.99604674636 0.99623613458 0.99482549229 0.99510785917 
0.99429646949 0.99234499398 0.99081884877 0.99048808505 0.99128252271 0.9929593653 0.99697580008 0.99851047013 0.99927961174 
0.99969534071 0.99880420748 0.99797256484 0.99874159229 0.99848721224 0.99174732881 0.99312851027 0.99465463529 0.99577716158 
0.99475931718 0.99714771706 0.99772410739 0.99788239944 0.99811279089 0.99848939081 0.99933068979 0.99955846477 0.99940463826 
0.99918579696 0.99865550406 0.99761094425 0.99752899051 0.99679535143 0.99888031369 0.99669432823 0.99560768389 0.99473950997 
0.9959099436 0.99860219081 0.99933235658 0.99966247513 0.99926831812 0.99826855508 0.99711784834 0.99618648211 0.99461544657 
0.99515754348 0.99599617507 0.99706089266 0.99664303819 0.99857290891 0.9980871886 0.99723547786 0.99732302653 0.99810136218 
0.99937455954 0.99872026353 0.99759855007 0.997160531 0.9978769342 0.99717981379 0.99605351949 0.99649794687 0.99674503365 
0.99694260425 0.99789803785 0.99636737909 0.99929203465 0.99828750517 0.99882345602 0.99887285275 0.99840545227 0.99808627202 
0.9976436165 0.99740774673 0.99726513307 0.99707300558 0.99741303549 0.99653978341 0.99684022962 0.9977266678 0.99695347868 
0.99871932397 0.99868280282 0.9985747548 0.99808115637 0.99809086795 0.99853727805 0.99914264013 0.99942183062 0.99929868 
0.99838166905 0.99791075161 0.99728122943 0.99828079235 0.99775145652 0.99863046414 0.99872417314 0.99885094203 0.99900737773 
0.9992684822 0.99945903908 0.99942928677 0.9995602804 0.99904367082 0.9984760453 0.9966728902 0.99523779047 0.99384073394 
0.99792672423 0.99803447137 0.99870682725 0.99590408227 0.99627043204 0.99955580358 0.99942819887 0.99803186102 0.99758452806 
0.99795702025 0.99781977694 0.99741459753 0.99676401884 0.99693892373 0.99768815873 0.99770271931 0.99761834908 0.99728706255 
0.99808868994 0.99793158862 0.99811881285 0.99792799456 0.99886677517 0.99866361504 0.99873417193 0.99781844199 0.99866919488 
0.99870277873 0.9989765923 0.99783687321 0.99587722043 0.99568417199 0.9971573625 0.99585116489 0.99804410925 0.99774818522 
0.99822012787 0.99884453739 0.99918693877 0.99880050842 0.99786374034 0.99690632751 0.99826948722 0.99831119306 0.99868220456 
0.99888322191 0.99889065067 0.99881717255 0.99852771203 0.9983172087 0.99825775233 0.99858156146 0.99774324025 0.9975259725 
0.99774409898 0.99819086872 0.9984189644 0.99874202249 0.99811200566 0.99743935344 0.99709197034 0.99689728875 0.99478837704 
0.99303659507 0.99844385602 0.99876644979 0.99914718309 0.99800182972 0.9946332385 0.99748195083 0.99725235743 0.997729614 
0.99908351041 0.99910213897 0.99882213636 0.9984974547 0.99796681316 0.99779808985 0.99756616691 0.99701488304 0.9954851175 
0.99617943821 0.99697352056 0.99822888764 0.99847451727 0.99825460965 0.99683658153 0.9969550352 0.99739487219 0.99791739194 
0.99860673361 0.99692856829 0.99872272041 0.99933685189 0.99960023418 0.99936729126 0.99937266143 0.99954859676 0.99956894484 
0.99957036725 0.99955292714 0.99942291279 0.99913855376 0.99925150616 0.99870703759 0.99958825151 0.99973599009 0.99985825453 
0.99918103359 0.99851686238 0.99784612899 0.99734023582 0.99731760027 0.99695225915 0.99722399161 0.9972413344 0.99762088708 
0.99701315437 0.99705538993 0.99753400824 0.99774097305 0.99765930486 0.99948958709 0.99940143651 0.99940965457 0.99906006565 
0.99910190972 0.99945026145 0.99934446384 0.99916457515 0.99796404429 0.99900989997 0.99913733833 0.99946856521 0.9995496586 
0.99942537037 0.99906226734 0.99906671292 0.99875712116 0.99839900913 0.99572406491 0.99755387422 0.99835846814 0.99916196675 
0.99817568527 0.99824806843 0.99921110327 0.99881506885 0.99857343928 0.99830893806 0.9978893606 0.99844197055 0.99880843371 
0.99792512222 0.99742840026 0.99765737514 0.99797939644 0.99843529677 0.99883076528 0.99812689307 0.99943322308 0.99797572387 

Longtudinal 3 1116 double
0.94597279298 0.22719994595 -0.23110201395 0.92549763259 0.29447106128 -0.22802035827 0.92044214334 0.30583886772 -0.21708935418 
0.9549942365 0.18854368628 -0.22706139425 0.90489490096 0.36269251913 -0.22257010292 0.8920301695 0.40128879642 -0.19859921337 
0.89668309032 0.38022959656 -0.22620026369 0.86894154339 0.46334086539 -0.16201194117 0.89584466902 0.38272686544 -0.22555066074 
0.85838301991 0.49508330958 -0.13197528391 0.90217073028 0.37061044165 -0.22074255063 0.85281548198 0.51231231973 -0.099236889701 
0.88334891912 0.43256043687 -0.16996969501 0.85556153884 0.51231477648 -0.072103639367 0.87615861337 0.45798170178 -0.14940998444 
0.86424532462 0.49844744668 -0.065686576304 0.88279366539 0.44013822529 -0.1641557916 0.87601151051 0.47656241784 -0.073188701348 
0.88210835754 0.438708056 -0.17145183188 0.88447091252 0.45874684757 -0.084618886283 0.88441029619 0.4372543007 -0.16233461402 
0.87392112823 0.47173256713 0.007773769807 0.88911956342 0.43464742081 -0.14297388433 0.86702379229 0.47703751927 0.078730838006 
0.89262432955 0.41555342182 -0.17315731003 0.88177095567 0.44578346311 0.10589525503 0.90777934916 0.39204453502 -0.12769840372 
0.8973084999 0.41307203386 0.12663302726 0.9277120772 0.36766941647 -0.045631373069 0.91493786601 0.37220706729 0.15382842773 
0.90185789371 0.37421216523 -0.18056973459 0.92862839962 0.34033917243 0.14354019667 0.89187417065 0.37279892712 -0.24837095324 
0.94001550787 0.3183034465 0.10790584602 0.9181168154 0.35322512534 -0.16292300564 0.94105996776 0.32726968228 0.010271801699 
0.92396417453 0.35435505695 -0.13818940457 0.93449559686 0.34529199089 -0.071668045867 0.90714851116 0.37849075495 -0.18092093387 
0.91665310704 0.37603962695 -0.12818128762 0.91429992034 0.3591174355 -0.18410775357 0.92090521641 0.3619879922 -0.13889352811 
0.93019630774 0.32385104911 -0.17275893802 0.9372942441 0.3187564751 -0.12169937249 0.93302374758 0.31170580423 -0.1793368216 
0.96037722384 0.24839339647 -0.09299063156 0.9361684382 0.29904484193 -0.18458873592 0.96803421912 0.21169246965 -0.11475355009 
0.94007762941 0.28514112061 -0.1866453728 0.9757860431 0.17415699397 -0.12314113968 0.93557768356 0.28991698983 -0.20031364121 
0.98205459896 0.12602663809 -0.13180561125 0.9254838536 0.30727191361 -0.2214955529 0.98546508344 0.088573795943 -0.14236416074 
0.92860738013 0.30626217213 -0.20930310417 0.97361370054 0.12990945138 -0.17989743342 0.93878522747 0.26018992626 -0.21467960893 
0.95505941689 0.19763475946 -0.20452580278 0.95660203232 0.16532055805 -0.2390811187 0.93118904216 0.27733069544 -0.22967822088 
0.93252409963 0.24880657675 -0.25356840585 0.92270655695 0.29635331497 -0.24355798662 0.90550146152 0.3312015874 -0.25910366418 
0.91484367315 0.30618506724 -0.26201360016 0.87769973085 0.4044431252 -0.25696995915 0.90735746345 0.30742308877 -0.28562710111 
0.8770166464 0.38988102682 -0.2801132485 0.90187218934 0.29921777866 -0.31076666018 0.87561197011 0.37679485259 -0.30173670248 
0.89659828865 0.29345408483 -0.33096703071 0.87355850286 0.36491875757 -0.32203323022 0.89174058103 0.28082997046 -0.3539749752 
0.87520017385 0.32310499454 -0.35768614491 0.89087046709 0.28329273224 -0.3545090878 0.87573383506 0.29725785998 -0.38038068047 
0.88871605364 0.27925505927 -0.36167417959 0.87488118483 0.29138773317 -0.38686204735 0.88315521938 0.24213092292 -0.40086524813 
0.87660336437 0.26720341617 -0.39956268708 0.86950021748 0.2219244302 -0.43970864838 0.87568070865 0.2534515908 -0.41092949111 
0.84896708685 0.20426486162 -0.48597974735 0.86908317562 0.26426713496 -0.4181176206 0.81883927742 0.19802240945 -0.53469671034 
0.85247745469 0.27108147977 -0.44625132302 0.75873377112 0.21457511331 -0.61046449964 0.85164326573 0.28078188329 -0.44085771083 
0.70253524248 0.25466908079 -0.6629059169 0.87298974819 0.29493217578 -0.3883715531 0.66435443423 0.32386274384 -0.67321181513 
0.87210967514 0.3182521377 -0.37120953114 0.62960788674 0.40705816266 -0.65725275846 0.87930756614 0.3306624587 -0.34153482977 
0.61156566022 0.47108275817 -0.63163924478 0.89525369013 0.33008196579 -0.29665486916 0.60991788089 0.5257750641 -0.58920609641 
0.92436319759 0.30471579855 -0.22315649614 0.63449702871 0.56845070331 -0.52001532165 0.94347071376 0.27770827335 -0.17766173856 
0.65766327805 0.60075650792 -0.44772800688 0.9569296949 0.24977380595 -0.14798177209 0.68286176588 0.62993984172 -0.36870100847 
0.92985027728 0.32297750773 -0.16455509025 0.74876561147 0.58585130672 -0.29812767644 0.90162517403 0.3896288261 -0.1826123145 
0.80973078186 0.53040639504 -0.24191203061 0.87148239105 0.44531258699 -0.20315334113 0.86544183454 0.44742790315 -0.21146115148 
0.91636478014 0.31981429852 -0.2046548628 0.91400034702 0.34785664909 -0.19874593241 0.95304246803 0.2174137619 -0.21028744979 
0.9430290418 0.25812598221 -0.20358451229 0.89209596517 0.41236790992 -0.18451349752 0.88919414642 0.41054954409 -0.20150325299 
0.89660704128 0.38757041679 -0.19705306185 0.86810062195 0.45176153832 -0.20014725138 0.8771981789 0.42040535596 -0.22884982487 
0.93460208235 0.30621336419 -0.18076614147 0.85319445197 0.44507373753 -0.27049759507 0.93023074731 0.31505850186 -0.18800509879 
0.87658872014 0.40439619447 -0.2529127526 0.93279930622 0.31021230268 -0.18306667656 0.9109210993 0.34830880975 -0.21955430075 
0.93748941843 0.30104601725 -0.17442732413 0.93725129873 0.29843541019 -0.16545642135 0.94088140901 0.29291464463 -0.16929392564 
0.95676436898 0.26082440873 -0.12780117559 0.94387550559 0.28214389604 -0.16615174072 0.95094654209 0.26877768174 -0.15124300616 
0.95906298986 0.24606020311 -0.12307924572 0.94625155776 0.27039634875 -0.17606551134 0.97004842481 0.22006863991 -0.097388372997 
0.94485692624 0.25339581175 -0.20494621086 0.97216863988 0.21544880222 -0.090258932759 0.94208635686 0.24034940537 -0.23320656895 
0.96795041923 0.21525088814 -0.11193727572 0.9355521811 0.23811874257 -0.25977010557 0.95555743965 0.21764995122 -0.18589408114 
0.92974137887 0.23635811377 -0.28205844836 0.94498773137 0.21505732062 -0.24504978335 0.92496098453 0.23526702392 -0.29825700028 
0.93803762051 0.20446492772 -0.27840167265 0.9303249108 0.20412870187 -0.30205032867 0.93577005593 0.18608122842 -0.29884397588 
0.9410195369 0.15720097593 -0.29932488409 0.93262902678 0.17159634473 -0.31729243252 0.92466125133 0.11937365259 -0.35639271438 
0.91843643261 0.12551321172 -0.36984650635 0.9186020917 0.10042174955 -0.37756432448 0.91421479076 0.095009451608 -0.3900281258 
0.94526315054 0.13355414775 -0.28932792883 0.93359554331 0.099380100634 -0.34144815005 0.95628893855 0.11788580252 -0.26439594729 
0.94662177048 0.0826554981 -0.30776615845 0.95656795449 0.068674676193 -0.28297572305 0.95537567971 0.057362677711 -0.28419938428 
0.97038018833 0.07715561224 -0.2230556247 0.96996102377 0.099437432105 -0.20960148433 0.98157027459 0.089537455813 -0.16581624604 
0.97799287383 0.15138457637 -0.14325878064 0.98708972615 0.10430536033 -0.1194010814 0.97990133832 0.15304977765 -0.12747730904 
0.9883867732 0.047515285746 -0.13325781896 0.98126748791 0.084581641565 -0.13752914795 0.98181368317 0.058139073388 -0.14965241792 
0.98232297522 0.09785695861 -0.13806583536 0.96172111405 0.22322892099 -0.14926464751 0.97454293902 0.13527718886 -0.15428250655 
0.9705388068 0.12768762767 -0.18371794299 0.97672044459 0.11717740092 -0.17119614537 0.97470650265 0.087491829267 -0.2015265302 
0.9732657007 0.11522697904 -0.19301204436 0.96974027358 0.14673807477 -0.19426580251 0.96206526565 0.16045551175 -0.2134076601 
0.97233715225 0.1590205953 -0.1699505511 0.97235663508 0.13948109176 -0.16942496322 0.98150291607 0.12931975154 -0.11011079115 
0.97921789417 0.13967060394 -0.12340217144 0.99842611743 0.049917962256 -0.0062143913453 0.98862854182 0.12935256467 -0.068824795276 
0.99576431001 0.011877755872 0.0712909406 0.99279378948 0.10595689442 0.0017615127745 0.99203925199 0.034812182487 0.10830701495 
0.99240781666 0.10367934907 0.047337025922 0.98783941085 0.10771401776 0.11212042075 0.98788882892 0.1201689447 0.071166001611 
0.98336745463 0.1530312909 0.089411171973 0.98138282687 0.17883716599 0.0033609253727 0.97586442128 0.19764441357 0.024701633164 
0.97165603867 0.22598563952 -0.066873783305 0.96365110744 0.24116328954 -0.10527617082 0.96619214465 0.23794202416 -0.098139307344 
0.97058908791 0.22513215596 -0.07890423749 0.9583982445 0.24963576175 -0.1355912497 0.96697245748 0.23391373656 -0.086589214171 
0.9508045086 0.25854370247 -0.16997429798 0.94963567314 0.27647922378 -0.14741243205 0.94686391154 0.26300477996 -0.18504988274 
0.94166683011 0.30016790189 -0.15121340456 0.94382042378 0.27308014938 -0.18588009923 0.93198473976 0.32043403459 -0.16770593487 
0.93176814659 0.28529276246 -0.22092145226 0.92145478619 0.3361998454 -0.19452135311 0.9173211716 0.26676309645 -0.29405104392 
0.92215248602 0.32028697064 -0.21609022258 0.9164552537 0.28568779274 -0.27752301694 0.91778904691 0.34198593864 -0.19076280948 
0.91836302455 0.3177351664 -0.23429277781 0.90890124908 0.39730766848 -0.12351289477 0.9170514284 0.34705973178 -0.19528053512 
0.90039865242 0.42190300006 -0.10352539409 0.91577261655 0.34567882952 -0.20403237728 0.88973574023 0.44362023204 -0.10319439944 
0.91144442416 0.35182943786 -0.21084356103 0.87365311817 0.46371358638 -0.14308185293 0.90081164833 0.38538630594 -0.19677201937 
0.8771026366 0.44610860592 -0.17263452553 0.8786398928 0.43195660795 -0.18732610909 0.89487479221 0.40085997978 -0.19460885224 
0.87031607758 0.4548775351 -0.18316687202 0.8840638003 0.42695417278 -0.18644278744 0.83269744655 0.51411423147 -0.17915756296 
0.87126111644 0.45867974647 -0.17462399439 0.80010227205 0.56528452073 -0.17303915426 0.87662004158 0.44944581744 -0.17167594379 
0.79414128303 0.57524136562 -0.18447259991 0.88365752651 0.43364660898 -0.17533677833 0.82079534828 0.5323707652 -0.19772156207 
0.90799879968 0.35701591328 -0.19358284377 0.94336812714 0.23069735205 -0.22867890151 0.87422318648 0.46144073707 -0.14810391379 
0.85611528634 0.50430424622 -0.099252787692 0.84883630291 0.52437785163 -0.062630188515 0.8556743087 0.51501826723 -0.046250153995 
0.86609753406 0.49717750623 -0.041907189958 0.87639625201 0.47730953077 -0.033959342042 0.86883717973 0.48880380532 0.041439884416 
0.84305696045 0.49626119931 0.17493514748 0.81598914466 0.48797343445 0.30832360747 0.83482341827 0.44125027173 0.32678111814 
0.86514076982 0.39813160556 0.29679213849 0.90143461851 0.35659791487 0.23779448407 0.92497554964 0.34232912568 0.15843118414 
0.93936857754 0.32086285541 0.11743475818 0.94001554525 0.33056615345 0.053520421601 0.94399379078 0.31828451969 0.019601554173 
0.95821408583 0.26432498215 0.05217340011 0.97124827937 0.19255361774 0.062130676312 0.98658749071 0.097274600588 0.096562666887 
0.99363130201 -0.010668381914 0.094768657512 0.99791813751 -0.00051163336659 0.0076206878799 0.99652850875 0.017274150443 -0.054565312494 
0.99357254114 0.04250571006 -0.098724869607 0.99109924059 0.036242770832 -0.12550627056 0.98635887677 0.038832020846 -0.15488458117 
0.97690138318 0.053917059639 -0.19681046541 0.96383775887 0.0891086047 -0.23720247791 0.9482250364 0.16843770681 -0.26569121084 
0.93451284242 0.21987374843 -0.279483001 0.92067847465 0.2585660955 -0.29057832919 0.91297422596 0.26785170553 -0.30495378954 
0.90677363904 0.27334047999 -0.31634370008 0.9030493337 0.23487507604 -0.35623128599 0.89090549432 0.20399400249 -0.40175329062 
0.88945817562 0.20541108116 -0.40617058852 0.88446898003 0.20322200931 -0.41828227696 0.87766992627 0.20116341115 -0.43313420418 
0.86044696789 0.1725405452 -0.47820029341 0.81329733924 0.17115204096 -0.55335886233 0.76658519706 0.20111802589 -0.60744971232 
0.7144902848 0.24761994396 -0.65268129016 0.65175163883 0.33922842875 -0.67664876198 0.63186349577 0.43993263458 -0.63464421273 
0.62461435784 0.50830477928 -0.58961589935 0.60284934251 0.56809112852 -0.55807069491 0.62756293117 0.60023796968 -0.49225862991 
0.66431521659 0.61211336773 -0.4228035523 0.70296459509 0.61574539203 -0.35284665498 0.7262646865 0.61124367662 -0.31038765206 
0.77077949824 0.57901342345 -0.25610390766 0.85950612185 0.4578462758 -0.21039090941 0.9234594152 0.32552634911 -0.18979974571 
0.9547517751 0.22258283335 -0.19260555184 0.96087857945 0.16594621615 -0.22109339283 0.89673292927 0.37859936454 -0.22705336466 
0.86227933149 0.44513224589 -0.22899162474 0.91027272728 0.3465697357 -0.22286378835 0.91070453758 0.34483045689 -0.21941158018 
0.93134903187 0.31094197112 -0.18930068844 0.93911751404 0.2969630912 -0.17036034639 0.95011421921 0.27660409558 -0.14089792415 
0.96301869037 0.2416947365 -0.10863805205 0.97083118904 0.21643726487 -0.097665826086 0.96186418821 0.22484948249 -0.14811970058 
0.94553181457 0.22942513937 -0.21836579275 0.90922614234 0.21851842472 -0.34253270065 0.87887822919 0.19426179551 -0.43203276662 
0.85310276375 0.14934225538 -0.49671126928 0.82279481021 0.10340711807 -0.5552968354 0.82288039062 0.065715660123 -0.56197761655 
0.84176723104 0.043781162625 -0.53210532532 0.86164724284 0.021690583139 -0.49892422387 0.89934778652 0.03485669641 -0.42736503745 
0.92060205751 0.0052652462405 -0.38694518058 0.94828941601 0.017552312063 -0.31568692539 0.96433501206 0.023270574974 -0.26038189379 
0.97526294807 0.055181695398 -0.20371215102 0.98140351646 0.098177683932 -0.1567226357 0.98372434934 0.0024613740644 -0.1679540737 
0.98491392481 -0.014776986231 -0.1712227283 0.98221449053 -0.058964370062 -0.17616463369 0.9811262571 -0.01103004067 -0.18793242832 
0.97979092306 0.027613986327 -0.19301197831 0.98201338204 0.035868188037 -0.18116673431 0.99002160491 0.020940703402 -0.13557090089 
0.99504526363 0.025142638326 -0.080827361371 0.9987895096 0.028488438834 -0.017783062959 0.99516838182 0.0094792768968 0.070001867018 
0.98598268082 -0.0084500811665 0.15720721559 0.97757670751 0.0072486745897 0.2085300178 0.98281600923 0.096131422725 0.12366870033 
0.98111166693 0.15974124144 0.050492893672 0.97167298924 0.21544710228 -0.045867748963 0.96589674098 0.23673139249 -0.081673094665 
0.96051256276 0.25097220604 -0.11347029496 0.95785851563 0.26034636589 -0.12024133867 0.94735453111 0.27163771577 -0.16522100832 
0.9369824766 0.28362613974 -0.20291578033 0.92939809338 0.29697110068 -0.21698121162 0.92184015975 0.30832038236 -0.23327091472 
0.91370161574 0.32241737067 -0.24624224079 0.91052262155 0.34603994487 -0.22535874583 0.91070588213 0.3415566769 -0.23212544465 
0.9060540544 0.35770892785 -0.22464658315 0.89343124902 0.39823871704 -0.20444747159 0.87086705116 0.44811570188 -0.19004940072 
0.82888320218 0.53078937515 -0.16397514025 0.76513727965 0.61783827491 -0.15308299548 0.69205553848 0.70459894876 -0.15191127074 
0.71740700209 0.66761279975 -0.19409836528 0.76773316185 0.59881743783 -0.21755617019 0.81902910476 0.52495554003 -0.2301502306 
0.89492186474 0.41635266846 -0.15052262355 0.92761651839 0.26316015185 -0.20201938942 0.87712829597 0.4631764643 -0.10140998041 
0.87277503858 0.48162506469 -0.067572043304 0.8756572967 0.48055618349 -0.039962497826 0.88092654399 0.47255107847 -0.016795908303 
0.87041038018 0.47908438405 0.05220994601 0.8230509831 0.51494648624 0.21832841035 0.81453761349 0.49750918565 0.29449297322 
0.81403589963 0.46490206438 0.34664211836 0.82119914927 0.41880597741 0.38602499621 0.8466348526 0.37524995379 0.37248136818 
0.87644575634 0.3335592338 0.34457998986 0.90258331632 0.32283886941 0.25111085929 0.93845150506 0.33209703061 0.087213592329 
0.94319900809 0.32626588734 0.055691313496 0.95057552472 0.29929577267 0.060565096301 0.96388085728 0.22449441182 0.12410779495 
0.97397099478 0.14510725894 0.15839304291 0.98190652307 0.074451584092 0.15861287477 0.98965820869 0.051935060874 0.1219137934 
0.99392329291 -0.10451031586 0.014053880024 0.99349165411 -0.089430969968 0.059280808703 0.99538018686 -0.051392700773 -0.044517905048 
0.99430821783 -0.0085185875228 -0.1004745537 0.98862066909 0.0065162811683 -0.14692455022 0.9816348203 0.020836917965 -0.1865416743 
0.97413854091 0.034209819977 -0.22286436513 0.96123129691 0.074183923348 -0.26058379593 0.94880532956 0.11331754662 -0.28656553136 
0.93512420001 0.18976607009 -0.29336426343 0.92729056024 0.20796806976 -0.31024765161 0.92264508969 0.22212682704 -0.31388868234 
0.91517334512 0.21937985605 -0.33676245522 0.90359071918 0.19596753316 -0.37711038096 0.89239783584 0.15428972225 -0.4237840098 
0.88855934215 0.16013187056 -0.42958043965 0.88308255886 0.16572368145 -0.43842128897 0.87611047728 0.1805751862 -0.44592033588 
0.83674248932 0.17688035081 -0.51360992503 0.79847439351 0.20146814891 -0.5627926858 0.78073624127 0.24351641007 -0.57449251359 
0.76569078457 0.30551317502 -0.56211728764 0.58894285838 0.5548712561 -0.58391026867 0.58874710868 0.50231367878 -0.62934834462 
0.6040578809 0.60062941378 -0.52238215703 0.6849034242 0.58578916498 -0.42134389163 0.74033804787 0.57500520351 -0.34704180927 
0.74952920914 0.58147365897 -0.31501280556 0.77207921428 0.56568167943 -0.28537036303 0.80568753409 0.53613447304 -0.25138433914 
0.82229545246 0.52726745984 -0.21239356831 0.88199263375 0.4229912536 -0.18096849584 0.93568802901 0.2967448017 -0.17185771351 
0.95314238524 0.23388478374 -0.18636310682 0.95913479691 0.13427555317 -0.24091941257 0.99495351204 -0.034162135659 0.090226700653 
0.9934501383 0.093516653464 0.053544560884 0.68850990772 0.41834409257 -0.58623821882 0.77192642856 0.36732698095 -0.51598115174 
0.87041188159 0.40731666443 -0.27570698081 0.87771211022 0.40508600305 -0.25521062451 0.87639966955 0.3953838371 -0.27451158852 
0.89459721594 0.36511603957 -0.25242005849 0.91596691184 0.33015019783 -0.22067543249 0.93508989393 0.29718796587 -0.19219148729 
0.94607264686 0.26860244647 -0.17874241819 0.95220225614 0.24104369717 -0.17310637442 0.9260422735 0.24196503328 -0.25452342186 
0.91313588116 0.24276777857 -0.31346247776 0.87028672002 0.21917410355 -0.41684092342 0.83163571176 0.19326420835 -0.5123085355 
0.79059481326 0.13888636412 -0.58164289313 0.7564334173 0.085891863871 -0.64749302182 0.76461285016 0.044248704495 -0.6421470113 
0.80618236965 0.030006535174 -0.58544149082 0.8917314243 0.078086691127 -0.44075489102 0.91191505108 0.052716943326 -0.4064911436 
0.92951029484 0.039317717842 -0.36386664127 0.9473674436 0.032210258968 -0.31740759542 0.96139434391 0.033752133238 -0.27070850839 
0.97219485036 0.060698392423 -0.21946267937 0.97780760434 0.11327144097 -0.17188786916 0.97925178189 0.12199346029 -0.16045237151 
0.98072387255 0.088039015244 -0.16459292002 0.98305516532 0.012244227665 -0.18084856857 0.97998980066 -0.051848806316 -0.19147254605 
0.98190084582 -0.036071039455 -0.18540498432 0.98514012818 -0.023995101317 -0.16819567629 0.98981112242 -0.0040850129495 -0.14081025894 
0.99539768167 0.0068559902776 -0.079454884754 0.99842543742 0.013632450185 -0.017194204283 0.99251093368 -0.020285438731 0.082941813161 
0.98631213985 -0.037096283083 0.15652552138 0.98484028773 0.0076032906784 0.17125970695 0.98584450744 0.0675073752 0.14067781862 
0.98391333722 0.12653383407 0.097560126063 0.97736824086 0.19939659323 0.0058610995466 0.9727306186 0.22901225128 0.015172129081 
0.96755259044 0.24847724773 0.025992132047 0.960581411 0.27560046492 -0.026604542702 0.95210810817 0.28907805435 -0.074076256404 
0.94168339073 0.30294859057 -0.14136768693 0.92836480537 0.31373800632 -0.19427293644 0.91915501407 0.32308638286 -0.22276139959 
0.91131007158 0.33061435048 -0.24478129032 0.90254738412 0.36090490045 -0.23337782539 0.9015561163 0.36534969523 -0.23150094304 
0.90245820897 0.36179836389 -0.23368549253 0.88265012608 0.42138558779 -0.20009232809 0.85516107389 0.48569605258 -0.1687689944 
0.80800525392 0.567724005 -0.14004909014 0.79367994878 0.59021468573 -0.14545884694 0.75494608508 0.63314570825 -0.15803826729 
0.76218002414 0.6172363948 -0.17811756341 0.81442359836 0.54056971664 -0.20086812961 0.84498994498 0.48522995114 -0.22117917516 
0.86747075899 0.43559858144 -0.23702706437 0.72859385824 0.45249253507 -0.49860113907 0.81922177139 0.39135657742 -0.40848934405 
0.66284238518 0.51371405486 -0.53258330406 0.66497366061 0.55574261562 -0.48733893886 0.69947223791 0.57113316493 -0.41163363534 
0.79617245589 0.5291398522 -0.29104221552 0.79864829027 0.5330765305 -0.27706950514 0.82579794706 0.49815355575 -0.25665126837 
0.8459940647 0.47420389373 -0.2394344985 0.83683642375 0.4901907303 -0.2405139971 0.82296522696 0.52484389611 -0.21211358377 
0.83804119282 0.5174907573 -0.16977487579 0.88619462419 0.43786145638 -0.12397939768 0.93990047075 0.28586434144 -0.15491992115 
0.95577750487 0.22210422978 -0.18551414635 0.94676930334 0.2461494373 -0.20405188504 0.92588655399 0.32463957405 -0.17601005336 
0.90487602151 0.40649664405 -0.12217686127 0.89157226845 0.4448789752 -0.067447368745 0.88716349 0.45986133931 -0.025349123347 
0.87746591571 0.47147293683 0.040342372051 0.86728411481 0.48234754224 0.11116489294 0.84695322382 0.48354341754 0.21127479463 
0.82465883744 0.46932141893 0.30694092513 0.81972123096 0.43998423456 0.36446088882 0.82750536471 0.39944729248 0.39170384555 
0.84691487798 0.36142832621 0.38649953686 0.87603887614 0.32711560502 0.35179641733 0.90479028293 0.31764069433 0.26390370401 
0.93450181312 0.32148823394 0.14594568537 0.943479592 0.31177895513 0.10397892088 0.95226153355 0.29689623071 0.065357303554 
0.96657615641 0.23191091936 0.099361338334 0.97519306304 0.18557417143 0.10904211886 0.98214141285 0.14125777812 0.10594598806 
0.98791333645 0.13096483177 0.080068892639 0.98705743347 0.15197914466 0.027321501497 0.98928739778 0.13977087509 0.0063673977981 
0.96524553805 0.23894224181 -0.057684568587 0.99730944064 0.064377145926 0.026206672407 0.99702631019 -0.031310767851 0.028707008136 
0.99718107314 -0.052166234178 0.00412789398 0.99765658811 -0.0052272986147 -0.048183717861 0.99449691111 0.024176765479 -0.093878426905 
0.99034363703 0.022452303805 -0.13387168628 0.98453428756 0.023528820891 -0.16926799805 0.97707603778 0.027302002693 -0.21039148298 
0.96618838666 0.040538137643 -0.25196254717 0.95686567096 0.071498906583 -0.27817829578 0.95066581194 0.13587157026 -0.27631660187 
0.9405576292 0.19433228714 -0.27585475524 0.93293622534 0.23335613683 -0.27404819224 0.93042809842 0.22932626381 -0.28523455407 
0.9245478019 0.21745441556 -0.31034907809 0.91632248862 0.19163440587 -0.35076312104 0.90421424251 0.1662684339 -0.39046173888 
0.89062812778 0.15385675432 -0.42691758176 0.87541952988 0.15728542742 -0.45682730403 0.86283882467 0.18549924944 -0.46949220303 
0.8411770654 0.2145448762 -0.49400454725 0.80516570169 0.24497835423 -0.53791288808 0.79738363582 0.30003755219 -0.52246117016 
0.83696147509 0.33676688611 -0.42272999642 0.86903477431 0.37230260245 -0.3209681775 0.86986352355 0.39311559486 -0.28993318963 
0.89122794683 0.37027404867 -0.25938634929 0.83408660488 0.41043821325 -0.34753674827 0.8558279349 0.41555943483 -0.30662117522 
0.86034894579 0.41992473617 -0.28827496702 0.83875704888 0.42356637863 -0.3419912269 0.84855301174 0.39952500105 -0.34456707469 
0.85888916396 0.37259302074 -0.34755306038 0.85959500368 0.34665609747 -0.36758113995 0.87983644103 0.30834780048 -0.35862709558 
0.87545031258 0.28614692593 -0.38670412919 0.86480242114 0.26626071478 -0.42332101415 0.83887772519 0.24076535709 -0.48441563449 
0.82736875719 0.21675626785 -0.51669244059 0.82016986161 0.18017390437 -0.53727794703 0.81764817635 0.14787795968 -0.54710301343 
0.8583828455 0.14504716383 -0.48011076672 0.89751548529 0.15831669788 -0.40142823169 0.92560059388 0.19088097577 -0.32214042497 
0.93539202192 0.11387387773 -0.31783737188 0.92629268692 0.11498570263 -0.35056249866 0.94748650211 0.080628006195 -0.30005554453 
0.95812106744 0.069761337333 -0.2736372736 0.9683612372 0.076844952538 -0.23604162709 0.97452473541 0.059982604619 -0.2150267161 
0.97800683167 0.062742746032 -0.19684916508 0.98122492179 0.062870671616 -0.18119780256 0.97838032112 0.11037590337 -0.17373918123 
0.98099437708 0.042512166548 -0.179022365 0.98375753891 0.0071865967175 -0.17846597971 0.98530028767 0.012148551595 -0.16799387826 
0.99075253555 0.0091620158565 -0.13369003914 0.99596526639 -0.030387979602 -0.053342888511 0.9977318897 -0.042429757667 0.021161461968 
0.99419260133 -0.040453680577 0.086992056341 0.99053394394 -0.027709500197 0.12958213756 0.98748070023 -0.0063979035576 0.15623526737 
0.98871191913 0.056812816284 0.11748492748 0.98808248399 0.1349613342 0.047155222842 0.98053121011 0.19042198192 0.013811889768 
0.97358871076 0.22551679842 0.017931642176 0.96411230834 0.2621779787 0.027776527219 0.95655270034 0.28785816434 0.036888667467 
0.94923414033 0.30964542386 -0.013681005423 0.9401411165 0.32822825398 -0.086596038593 0.92784172091 0.35228841228 -0.11885077172 
0.91524237615 0.37722975875 -0.13861713151 0.90588589619 0.38511710597 -0.17495590081 0.90074147942 0.38548772671 -0.19917277277 
0.89833087892 0.38088193003 -0.21874339475 0.90121363912 0.37071136505 -0.22441532029 0.90275757107 0.37134422467 -0.21522498483 
0.89041412241 0.41178324329 -0.1882916831 0.87437224066 0.45008787807 -0.17138604367 0.84808436929 0.50507322243 -0.15835512829 
0.82717224581 0.53853670223 -0.15728146428 0.82087049465 0.54048426608 -0.18226156499 0.82536027525 0.52160148534 -0.20993818628 
0.86351463102 0.4507175951 -0.22205483195 0.88007929127 0.41342938085 -0.23234724514 0.87126324767 0.41650027841 -0.25869645868 
0.93291198217 0.16620438648 -0.31436846359 0.94121442506 0.26470536331 -0.18843505775 0.84474297567 0.43117915073 -0.30508349473 
0.84538197519 0.44909739804 -0.27791071247 0.851738929 0.4677588338 -0.23119106899 0.83609802621 0.48808931594 -0.24885533518 
0.8352339008 0.49108392161 -0.24640247712 0.85440343956 0.462294024 -0.23607560456 0.87628438628 0.42765739685 -0.21905517053 
0.89556263587 0.39562529543 -0.19797091679 0.88787055738 0.41907344045 -0.16910944665 0.88555680695 0.43211806218 -0.13963304454 
0.8650910572 0.49007664616 -0.10301068531 0.94318922571 0.30431583071 -0.13177654768 0.9378440733 0.32861834096 -0.1047980282 
0.94240577903 0.29425976421 -0.15838966969 0.93033678228 0.33317693941 -0.14254794744 0.91902773238 0.37149515714 -0.12445270972 
0.9094271469 0.40112747365 -0.085031565927 0.89318923925 0.44267751933 -0.0098316391198 0.87452060953 0.47512261003 0.082919881933 
0.86705152826 0.47623689618 0.1455069458 0.86680313102 0.45517289787 0.20181315101 0.84140797791 0.43982435847 0.30350064964 
0.82799974509 0.41671180381 0.37384784673 0.83822366262 0.38478474824 0.38517630471 0.86109665373 0.35416760231 0.36275374233 
0.88818731104 0.33306951969 0.31279872314 0.91283308823 0.31712456104 0.25000740028 0.93294280857 0.3029065029 0.18629864605 
0.94768394507 0.28361369363 0.14179204697 0.9615955288 0.254715687 0.10136110789 0.97174143002 0.21866038493 0.081421241941 
0.97757306664 0.19343950884 0.079942604893 0.97984065269 0.18051882405 0.078697293096 0.98498301215 0.16026946283 0.059787912547 
0.97453223912 0.21383339017 -0.034532547057 0.94230927932 0.30175201202 -0.13506292943 0.92050992035 0.35274119626 -0.15227915859 
0.88919429553 0.4011596645 -0.21401081987 0.97295710001 0.21706702351 -0.054782277847 0.99202527093 0.10945813679 -0.012640887862 
0.99810627586 0.037592023725 0.0086505099675 0.99809445874 0.036369208201 -0.011569396923 0.99672073171 0.047214214247 -0.048838469658 
0.99370279441 -0.015663863253 -0.070475785874 0.98846762017 -0.10849559468 -0.093174754722 0.98705109584 -0.010054603931 -0.14683194451 
0.98061945419 0.01549770303 -0.1943747195 0.97331399403 0.040119937355 -0.22329906297 0.96609078109 0.092850775376 -0.24007579642 
0.95950295731 0.11727068031 -0.25524222768 0.9503115003 0.17473779476 -0.2486249341 0.94054352005 0.24091520454 -0.23778791522 
0.93804145581 0.25164374256 -0.23620530331 0.93615950567 0.24114521595 -0.25425859875 0.93464237163 0.23046722144 -0.27048965172 
0.92434107995 0.2114697932 -0.31515558602 0.90762385683 0.19641318125 -0.36983292069 0.88569202388 0.18871835605 -0.42330751519 
0.8675419991 0.21645147759 -0.44530070842 0.84751663607 0.2297923311 -0.47544730534 0.82808922086 0.25679391326 -0.49479091562 
0.86190135247 0.28371592118 -0.41672990434 0.88846355411 0.33321342401 -0.3085618629 0.90999561558 0.34188604935 -0.23121961151 
0.91957667565 0.34885318599 -0.17845448832 0.90161220533 0.37024449664 -0.21815779891 0.9331847805 0.33446048934 -0.11635484318 
0.8879593043 0.39835422676 -0.22823863655 0.89975709643 0.42544507649 -0.073816063645 0.85362944495 0.51530122383 -0.068933164065 
0.9420127681 0.22908921333 -0.24007237216 0.94158465665 0.29486255312 -0.15239732655 0.94510795048 0.21123666415 -0.24795201259 
0.94990004194 0.21339217957 -0.22622452047 0.95493746172 0.18844167055 -0.22028534221 0.95921823846 0.14434798191 -0.23581735545 
0.9639752452 0.13572849963 -0.22535444455 0.96974122424 0.12878386965 -0.20702066215 0.97276693862 0.12844598092 -0.19238873609 
0.97594716956 0.13203933752 -0.16827037086 0.98081220786 0.10389185281 -0.16458572966 0.98017485919 0.1195163507 -0.15739559629 
0.98406905315 0.08613477843 -0.14924517272 0.98646120358 0.093816696412 -0.12929632227 0.99378094355 0.050371846019 -0.08993388833 
0.99787961478 0.0012133301222 -0.038919164932 0.9976035717 -0.031674833151 0.018895787406 0.99491531704 -0.052949015545 0.078228680686 
0.99398042793 -0.030461427581 0.10104484378 0.99302433188 -0.0018919926517 0.11585509293 0.99251219372 0.061184312512 0.068937855007 
0.99069607561 0.12361034351 0.041859265434 0.98278188946 0.16418611596 0.077414344524 0.9733418575 0.2089905988 0.083509196843 
0.95986911714 0.26149021103 0.098351100658 0.94638840739 0.30324926664 0.10684510851 0.93565424842 0.34157234316 0.064828356754 
0.93062006078 0.36512908861 -0.0076958815526 0.92282121569 0.37620805194 -0.067885092702 0.91264759456 0.39257825934 -0.1100483131 
0.90106627739 0.41613496952 -0.11931636395 0.89924584971 0.41064233392 -0.1454421961 0.90302062449 0.38675712621 -0.18539084254 
0.9067887008 0.36799107626 -0.20481275237 0.91338060845 0.35115558297 -0.20534406521 0.91765061502 0.34068703308 -0.20339841395 
0.91768072358 0.34679103663 -0.19075212162 0.90375408336 0.38195559714 -0.18169432612 0.88179260875 0.4343108732 -0.17468324407 
0.86158201963 0.46524549575 -0.18828609532 0.84498479667 0.49362127124 -0.20307331453 0.86526687538 0.45175697694 -0.21272631243 
0.84732135464 0.46412820972 -0.25203075821 0.82745720998 0.47915620343 -0.2902487712 0.85017795198 0.42984870224 -0.2978779609 
0.86567502223 0.3902523147 -0.3128691441 0.85279210312 0.38596428269 -0.35051503408 0.82731104112 0.39813019868 -0.39531267957 
0.80342997414 0.39633431366 -0.44401625262 0.78476586051 0.38589828935 -0.48275797688 0.77445187723 0.37168774316 -0.51005247159 
0.80810732227 0.33215225439 -0.48028432329 0.85439254112 0.29060309613 -0.4299360761 0.86961640725 0.26313920447 -0.41603020349 
0.89307225096 0.2435771201 -0.37134249343 0.90592114142 0.22818669707 -0.35076674771 0.91603678069 0.22372473431 -0.32152038784 
0.93035749922 0.22288182623 -0.28306519453 0.9383019131 0.24063573472 -0.23695725229 0.94301134978 0.28807995426 -0.15695578167 
0.93588052261 0.341507383 -0.063051669643 0.93012109143 0.34855090444 -0.031870265841 0.93592393736 0.32054613162 -0.11576536738 
0.92655983554 0.37336304638 -0.018634777376 0.94287439652 0.26372154909 -0.19949262704 0.88616639458 0.41550459967 -0.20379844808 
0.87457896577 0.43356665409 -0.21637650822 0.86694594298 0.4423860776 -0.22892584433 0.86972120689 0.43489505753 -0.22956647749 
0.9023432913 0.37468160897 -0.19576609954 0.92997852783 0.3212465718 -0.16298030217 0.94887528859 0.27906937932 -0.13184069421 
0.95528734787 0.27104353011 -0.11312518514 0.95348507915 0.28255241753 -0.098260785968 0.93894492767 0.33005586653 -0.088804738185 
0.90725354337 0.40212155546 -0.061388855732 0.8578527159 0.51209255501 -0.032370278622 0.88910131921 0.44782514556 -0.058411398445 
0.89652485655 0.43250769239 -0.054478184592 0.92989690617 0.35724787982 -0.083462582858 0.9352677594 0.33729424358 -0.10395789297 
0.93366849068 0.33802129198 -0.1104902804 0.9294756564 0.34507105769 -0.11675060433 0.92536979888 0.35606017181 -0.1268650793 
0.91571231156 0.38195989672 -0.085290799847 0.89598296287 0.42931695624 -0.00015002584351 0.876967451 0.47070445027 0.089547616511 
0.87203398913 0.4651468408 0.14389591183 0.87457226051 0.44967544289 0.18004065326 0.88148633382 0.39415602769 0.25272730394 
0.87812360092 0.40797444427 0.24815613578 0.89250424708 0.37652224487 0.2343567108 0.89721422204 0.35893651811 0.24002735209 
0.90212409821 0.34613185355 0.24015594015 0.92872141056 0.33979142544 0.14006875662 0.94048148297 0.31278957737 0.12583847462 
0.9461698933 0.29015762235 0.14209782261 0.95779769825 0.25038931856 0.13092144 0.98206923399 0.18280866226 0.034471901849 
0.98064881995 0.1853889537 0.044753271791 0.8843563696 0.41817227611 0.20467618206 0.89309732464 0.42004346775 0.15816761062 
0.97531256698 0.19542738413 0.088139392008 0.96679497324 0.2391164052 0.057826229537 0.926789223 0.31308245196 -0.20260797831 
0.96453639888 0.24410153767 -0.082055976424 0.90153589565 0.35684740811 -0.23907194471 0.88164961489 0.411033226 -0.22997292581 
0.88875231732 0.38098858671 -0.25310877727 0.88189096542 0.4277372346 -0.19740807362 0.94522527982 0.29705747933 -0.11871521139 
0.98455714638 0.16293880906 -0.056457209091 0.98743484725 0.14009074962 -0.066655329866 0.98237669145 0.1547254652 -0.096652683336 
0.98746271824 0.0089264943698 -0.10547775698 0.98855285645 -0.013566521397 -0.13709584992 0.98432909865 0.010769317559 -0.17418466083 
0.97912329675 0.029553005695 -0.1982641725 0.97318878274 0.066386729174 -0.21554106808 0.966894234 0.11739765431 -0.22428620519 
0.95780779589 0.1870374466 -0.20540126233 0.94598833691 0.27072543443 -0.17714716477 0.94372811091 0.27292467776 -0.18581574446 
0.94171688091 0.26265471791 -0.20587778421 0.94185396283 0.22931840979 -0.24430262184 0.93341717615 0.2152573964 -0.28418025024 
0.91996854343 0.21395244429 -0.32494054622 0.90100065474 0.23381855039 -0.36449600291 0.8906024518 0.28832419234 -0.3494911262 
0.87398014669 0.29249023069 -0.3862119405 0.90694713255 0.32810945214 -0.25232997029 0.92671619941 0.34192136883 -0.15186786904 
0.94283253281 0.32070458484 -0.073381061866 0.96165457515 0.26621664686 -0.0021213739206 0.9536794844 0.28556411695 -0.083106753532 
0.97791530695 0.2024387058 0.024159494713 0.91028218558 0.37109501808 -0.18188573338 0.94385593508 0.25941694337 -0.20141982827 
0.94522333263 0.25454445319 -0.2028328598 0.94901682246 0.24874630966 -0.19303719167 0.95355991773 0.23120269049 -0.19057925543 
0.95625854926 0.21145601549 -0.19784691393 0.96262916151 0.18310025141 -0.19208386091 0.96512921996 0.18773523443 -0.17601979481 
0.96858098845 0.19347846652 -0.15294302874 0.97667638876 0.16766795338 -0.13372996354 0.9786893851 0.16506952871 -0.11855446807 
0.98161858852 0.15678986062 -0.10653158949 0.98501572801 0.14588386457 -0.090014688506 0.99099671829 0.1137305735 -0.061873841551 
0.99893335323 -0.0010292721154 0.0045156816543 0.99957908128 -0.017940194071 -0.0023397559494 0.99928628419 -0.0097678659034 0.035141808544 
0.99920894126 0.0053871741348 0.036223183354 0.99858041484 0.016484874306 0.047125216183 0.99666150348 0.059954640285 0.041349624479 
0.99203088729 0.10414888041 0.054245227731 0.98356513325 0.1474044079 0.093689064311 0.97105624703 0.20432153513 0.11050778014 
0.9565439817 0.26827669613 0.11173842585 0.94337336604 0.31577010702 0.096792305141 0.92717298239 0.36824674921 0.039234010964 
0.92085149944 0.38632624268 -0.041343156736 0.91639558412 0.39172739448 -0.077646140153 0.91412077536 0.39185359392 -0.10244179652 
0.91306866399 0.38848141397 -0.12348722799 0.91284697523 0.36939122835 -0.16204705169 0.91678666254 0.34366084294 -0.20104070443 
0.92385629244 0.31698730092 -0.21424193149 0.92808947196 0.32546385499 -0.17902035353 0.92332812303 0.34641839316 -0.16548737135 
0.92706261035 0.3319134034 -0.17361350031 0.9374887176 0.30023175607 -0.17351129806 0.93844976383 0.29950946415 -0.17048882544 
0.9033676463 0.38384616821 -0.17949810736 0.83743740331 0.49133530618 -0.20867972811 0.8125417088 0.52843735595 -0.23595542117 
0.77885298904 0.56197281553 -0.27682938087 0.7816005958 0.53985816358 -0.30531951383 0.84206808007 0.43988919495 -0.3046037504 
0.85580054198 0.39619546728 -0.33031302688 0.84509643681 0.38594405454 -0.36920542553 0.81972049121 0.3915698069 -0.41378725262 
0.84002794488 0.34650316836 -0.40776000715 0.86036668433 0.31967380605 -0.39254905058 0.85890059154 0.32505195631 -0.38701827605 
0.86517191063 0.32342999301 -0.37108072511 0.89302009368 0.29697060123 -0.33431596823 0.91385783918 0.2851716346 -0.26577058365 
0.93770283878 0.26923712839 -0.20946152862 0.94217349302 0.27893900785 -0.12202155711 0.94922299613 0.2817703433 -0.066056505241 
0.94354844616 0.30347178045 -0.049692567806 0.9402873835 0.32828956089 -0.006931659813 0.93712803372 0.34655941891 0.011067253842 
0.92912979037 0.36461739686 0.036513544344 0.93106935908 0.36362597209 0.018840108344 0.93341806774 0.35783547016 -0.01378763705 
0.92719895647 0.37218188733 -0.039683691288 0.92946185779 0.36791681871 -0.0061435479982 0.93395899207 0.33795859486 -0.094089575354 
0.99762101591 0.030979057096 -0.018084980573 0.9940025377 0.10158297011 -0.037592784562 0.92130299839 0.33387582063 -0.14741008442 
0.92416505916 0.34378798297 -0.15068014635 0.97521895775 0.14524794585 -0.14666241727 0.96182757248 0.21760401985 -0.14337442805 
0.97963275836 0.12145352712 -0.15239828758 0.9750667014 0.13589337172 -0.16170336086 0.97348039704 0.12684240694 -0.18284874725 
0.97045810112 0.13619213561 -0.19535819782 0.9650602162 0.16978066662 -0.19598223364 0.95793845257 0.2162033947 -0.18732325705 
0.9513672151 0.24333925285 -0.18796506842 0.94711075947 0.2528997502 -0.19686562346 0.94340741102 0.2566979903 -0.2093439665 
0.93732351695 0.25433497698 -0.23692399032 0.9294213859 0.26586386508 -0.25472559446 0.92098922179 0.30097554582 -0.24612587441 
0.91369333341 0.33121138308 -0.23308009983 0.91090334179 0.34459693157 -0.22288772934 0.91595868041 0.36013565798 -0.17627558496 
0.92113722702 0.3527630563 -0.16228251398 0.9285086791 0.33220393014 -0.15667718808 0.93679126957 0.30593621349 -0.15116421755 
0.96113267986 0.24657596332 -0.11788546178 0.96972339488 0.22310028856 -0.096151221991 0.97062401658 0.225629153 -0.083125124716 
0.96595000851 0.24549491708 -0.079481676398 0.96121459517 0.26630613036 -0.070974446939 0.94962499605 0.30307591983 -0.069803630408 
0.93829475286 0.33863744615 -0.069572185948 0.95214289747 0.2929026583 -0.074694191127 0.91294762754 0.38504017587 -0.056535305313 
0.9675560785 0.22776637684 -0.10389156647 0.84747436382 0.52938832056 -0.012564522353 0.8736738119 0.47789740123 -0.020271411541 
0.92429028136 0.3754732667 -0.056799329837 0.92565512251 0.3681082063 -0.063589878426 0.91961352892 0.38439733538 -0.057858995531 
0.92190375634 0.37890734361 -0.076552797361 0.89996842156 0.4295678597 0.0047527408166 0.8890968459 0.45362534164 0.055627507092 
0.88818245546 0.44773596436 0.089799891831 0.88520494937 0.44513296018 0.12910000623 0.89410459672 0.42778615938 0.12555359236 
0.91624250776 0.38493940873 0.10716658005 0.92190688255 0.38278360535 0.054727887821 0.91760613816 0.37514890742 0.088435078976 
0.92265953765 0.37299852103 0.083333682504 0.92402028841 0.37131363819 0.088702157212 0.92740911968 0.36086627707 0.089212365466 
0.92871025643 0.35200212617 0.10612168607 0.91563368758 0.30748792921 -0.25654134666 0.94948331654 0.25266913018 -0.17659105594 
0.89380508309 0.34475076054 -0.28330040422 0.84578990303 0.46385596506 -0.25867714418 0.86936008034 0.407211366 -0.27760198026 
0.87431523318 0.44167577257 -0.19977771413 0.93928375068 0.31603827444 -0.1216202479 0.9445204355 0.29191019637 -0.14772157809 
0.94801688674 0.27569139947 -0.15826828459 0.94950966643 0.26987090805 -0.15767000833 0.94811539652 0.27870396334 -0.14673337183 
0.95037661544 0.27688517451 -0.13466932859 0.95474548993 0.26766156488 -0.11636633218 0.98719105049 0.11701839326 -0.083597232355 
0.99079851572 0.10535134259 -0.067700625754 0.98441241355 0.16303033592 -0.060982776658 0.98717109228 0.1506110586 -0.043855739663 
0.99924366014 0.0069220722441 0.0047529516374 0.99887400188 0.035638433233 -0.020032127637 0.99940334168 -0.0048242544906 0.01958909549 
0.99963235804 0.017933128564 0.01090336852 0.99699786028 0.056917308803 -0.00059476089014 0.99548572428 0.078241059398 0.019855002722 
0.99207283417 0.09717227417 0.063022260082 0.98261319407 0.14637086134 0.10088945003 0.97019086642 0.21201757627 0.10664169224 
0.95354581434 0.28090010151 0.098548312604 0.94258951251 0.31879866338 0.073948053816 0.93455484652 0.35063514225 -0.011221041752 
0.92323494345 0.35463666922 -0.13859362505 0.91778895539 0.36954371302 -0.13901451549 0.92680799969 0.34208095518 -0.15066601154 
0.92821805759 0.3232931799 -0.18233080369 0.92974368854 0.30592318509 -0.20325855733 0.93229291257 0.28558441498 -0.2208218001 
0.93494443969 0.29189661301 -0.19952460677 0.93588020126 0.30999587652 -0.16667437563 0.92289280922 0.36052774832 -0.13456888958 
0.92334913913 0.35668307119 -0.1417130697 0.9328250772 0.32774810407 -0.14286961375 0.94036723025 0.30084590893 -0.15475966614 
0.90661809042 0.38366830349 -0.16549922239 0.84728922288 0.47585950816 -0.19653547649 0.74912451361 0.6018971168 -0.24902874913 
0.78391685323 0.56041843462 -0.26105104551 0.91902588977 0.36965283864 -0.12686278557 0.91741890065 0.36793503695 -0.14979844948 
0.93911076504 0.3071972778 -0.14229410048 0.89571390063 0.40810697641 -0.17058600992 0.92645105032 0.34991898905 -0.13450823771 
0.93599765365 0.32282964638 -0.13584986624 0.86510892229 0.38859031588 -0.31426497609 0.86754563683 0.36436900555 -0.33554269572 
0.89707423624 0.30705533008 -0.30727046093 0.93630379234 0.23723332624 -0.2575833636 0.9409142201 0.24703179146 -0.22723250991 
0.93445120253 0.27199703158 -0.22301304328 0.92088279444 0.30065372507 -0.24108558677 0.92263684323 0.3071694548 -0.23095928315 
0.93763594622 0.29895300833 -0.16681489985 0.94999968656 0.29287642659 -0.10430613821 0.9500687666 0.30216787615 -0.021703837374 
0.94791704621 0.31120369416 0.058319395558 0.94152577457 0.32839905771 0.070740276252 0.93510299214 0.34446637224 0.07971837247 
0.9322848106 0.35238895358 0.066938050599 0.93395168655 0.35065058288 0.056528191371 0.94048554375 0.33825956282 -0.011526397181 
0.93502981745 0.35314807957 0.010965243187 0.91810675444 0.39461473755 0.017298390628 0.94195098397 0.31859707442 0.099738411891 
0.93590749876 0.34555272189 0.049060428597 0.94560473743 0.29988258445 0.12384914912 0.95156254057 0.28878673499 0.097946663223 
0.95279079771 0.29222371255 0.0045285942831 0.95622319524 0.26651399337 -0.10629889554 0.94548409167 0.29402124914 -0.13419545518 
0.95310399122 0.2545047398 -0.12082731001 0.99539150673 0.073542462379 -0.037223488235 0.99680699984 0.054137560627 -0.026991683626 
0.99285243276 0.10559908885 -0.03917106067 0.99343801535 0.10307792295 0.0038071020825 0.99125757395 0.11382790489 0.049044092752 
0.98231506809 0.14921004632 0.096799133772 0.96885460822 0.21477810223 0.099980206879 0.94292839894 0.3229123128 -0.025273822035 
0.92664232525 0.35219594061 -0.12605526457 0.9378884843 0.3139784128 -0.14446574195 0.94071258174 0.31609999759 -0.11740131979 
0.94448090557 0.31736618144 -0.080160014393 0.94536597739 0.31993720892 -0.023558648412 0.94600504523 0.32262427776 0.02805755473 
0.93986101559 0.3354612813 0.056871492683 0.93375016325 0.34843792793 0.081580866645 0.94638969044 0.3200471257 -0.035498229838 
0.93240582188 0.3577820318 0.027759838024 0.93761849414 0.34599490096 0.010312932051 0.94055025692 0.33925304518 -0.010114707605 
0.93847159969 0.34429435052 -0.022221527176 0.93568614682 0.35103807778 -0.015875398099 0.93399164867 0.35549063372 0.015369406602 
0.92237608678 0.38289925579 -0.03153684194 0.91871174085 0.38996210158 -0.04216873313 0.91916164318 0.38610281274 -0.05735857593 
0.91879689216 0.38427083993 -0.073405155289 0.91806956726 0.38345706814 -0.077119540245 0.92606530497 0.36348105032 -0.088539744473 
0.92048312254 0.38197727913 -0.073762202239 0.8922961022 0.45095649207 0.010612333312 0.8893925256 0.45299114027 0.046241839488 
0.88593285752 0.45572927679 0.084861815474 0.89899332875 0.42544978402 0.060440317437 0.86932496664 0.49189590634 -0.02329160653 
0.87415310695 0.48232411962 -0.01035052889 0.89025393352 0.45500489606 -0.0083250248228 0.90350095838 0.42545656258 -0.012804906392 
0.93981832635 0.34052817509 -0.016140023965 0.93897710343 0.34003722854 -0.036282398508 0.93884120535 0.33377747486 -0.077315357345 
0.93861391936 0.33475008554 -0.07469534652 0.93855400395 0.34050453084 -0.044332784587 0.94129689198 0.33081846891 0.00041365555076 
0.94637656849 0.31166332981 0.051604427198 0.94597217493 0.3187311595 -0.047342342357 0.97019547097 0.22828124707 -0.079872803244 
0.96700788324 0.23797871577 -0.067879509325 0.96434608538 0.24732789926 -0.059068961761 0.96333012978 0.2537177515 -0.064779867084 
0.99614670604 0.075950465557 -0.035354078293 0.98455114425 0.15106995452 -0.057725790665 0.97265001949 0.2140834123 -0.062070348526 
0.97083201949 0.21303759789 -0.099041935153 0.97015892369 0.2063753181 -0.12613125842 0.97511794647 0.19392047016 -0.10458766391 
0.97945626899 0.18065196154 -0.089300352918 0.9948955858 0.086866492211 -0.048550646366 0.96506051626 0.24955825294 -0.074927109994 
0.91734188147 0.35246573996 -0.18362829095 0.91909303862 0.3423078842 -0.19498030024 0.9241452981 0.33285029177 -0.18726031221 
0.92930452763 0.31827020822 -0.1866689673 0.9337909503 0.3023244872 -0.19099582135 0.93828425382 0.28023386317 -0.20080667757 
0.94321337738 0.25367966568 -0.21356606763 0.94249161534 0.27102805407 -0.1919878933 0.94230445187 0.2923346539 -0.16086523401 
0.94752007822 0.28116592314 -0.14919288196 0.94235013411 0.30659957205 -0.1321117534 0.95427800822 0.24803788653 -0.16428680023 
0.93351862851 0.33653854633 -0.12211772368 0.93108615036 0.34069592086 -0.12934421431 0.93045101156 0.33956271128 -0.13759532777 
0.93549504639 0.32468748092 -0.1372251474 0.9351767049 0.32027953882 -0.14257482693 0.89656352353 0.40646956845 -0.16150085886 
0.87216986359 0.45277821965 -0.18026979593 0.84829439323 0.48686332868 -0.20218223827 0.85188355931 0.47261467984 -0.21632816583 
0.88109221396 0.43687749536 -0.172411122 0.90747581638 0.38602994442 -0.15592953482 0.93924742 0.30708272849 -0.14288791337 
0.95799375409 0.24826182827 -0.14056536552 0.95578139281 0.25677853308 -0.13625545628 0.95312425749 0.26824478223 -0.13423849125 
0.95433228977 0.2531644181 -0.14667713238 0.9577302298 0.23374659562 -0.15751519453 0.95184201827 0.25342238056 -0.17157104763 
0.95437208777 0.23717796301 -0.18068418642 0.94895287359 0.25441203484 -0.18314588041 0.94654634137 0.2278527725 -0.22610318353 
0.93822274686 0.26586686328 -0.21398557519 0.93406820659 0.29790165228 -0.19528321336 0.92422923971 0.32688477261 -0.19553726889 
0.91901673549 0.34528781561 -0.18949515664 0.98834770551 0.14885569232 0.020527976922 0.93923996102 0.27436774893 -0.20495104173 
0.94302314974 0.26339555894 -0.20303510565 0.94570307839 0.26109180401 -0.19332830082 0.94765086437 0.26044565265 -0.183370505 
0.94807882718 0.26623063643 -0.17069694999 0.9378414383 0.32314449739 -0.12355647899 0.93990829677 0.31749982832 -0.12434354305 
0.94232957453 0.30728904562 -0.13001740797 0.94673122378 0.29133694247 -0.13570773005 0.908959936 0.41209178276 -0.049552065983 
0.90073447483 0.43242776029 -0.033000558716 0.91135062373 0.41091292226 -0.016599151328 0.90308630871 0.42933160463 -0.0086760943205 
0.91778559468 0.39613297193 -0.021401786067 0.94193570886 0.327797273 -0.069935031137 0.93953145598 0.33195209029 -0.08276950612 
0.94147286821 0.33134163053 -0.050929744168 0.9429712893 0.33240008585 -0.016960087066 0.9462552168 0.3213323389 -0.032668601508 
0.95611188008 0.24345405711 -0.15888262739 0.94862361936 0.2826720197 -0.13908352366 0.94420733979 0.30133475153 -0.12991086646 
0.99159870244 0.11162603749 -0.05261096958 0.99326859856 0.10073120978 -0.050339043993 0.98384030876 0.14313837688 -0.08284124108 
0.98820998535 0.13102185303 -0.058596527647 0.99128185133 0.12442950197 -0.02027816888 0.9918949236 0.1213952424 0.0054919400817 
0.8898862943 0.4556521273 -0.0058881839608 0.89003862387 0.36107304532 -0.27536268865 0.97958463418 0.1822830156 -0.05504455649 

Motion 1 1116 double
0 0 0 0 0 0 0 0 0 
0 0 0 0 0 0 0 0 0 
0 0 0 0 0 0 0 0 0 
0 0 0 0 0 0 0 0 0 
0 0 0 0 0 0 0 0 0 
0 0 0 0 0 0 0 0 0 
0 0 0 0 0 0 0 0 0 
0 0 0 0 0 0 0 0 0 
0 0 0 0 0 0 0 0 0 
0 0 0 0 0 0 0 0 0 
0 0 0 0 0 0 0 0 0 
0 0 0 0 0 0 0 0 0 
0 0 0 0 0 0 0 0 0 
0 0 0 0 0 0 0 0 0 
0 0 0 0 0 0 0 0 0 
0 0 0 0 0 0 0 0 0 
0 0 0 0 0 0 0 0 0 
0 0 0 0 0 0 0 0 0 
0 0 0 0 0 0 0 0 0 
0 0 0 0 0 0 0 0 0 
0 0 0 0 0 0 0 0 0 
0 0 0 0 0 0 0 0 0 
0 0 0 0 0 0 0 0 0 
0 0 0 0 0 0 0 0 0 
0 0 0 0 0 0 0 0 0 
0 0 0 0 0 0 0 0 0 
0 0 0 0 0 0 0 0 0 
0 0 0 0 0 0 0 0 0 
0 0 0 0 0 0 0 0 0 
0 0 0 0 0 0 0 0 0 
0 0 0 0 0 0 0 0 0 
0 0 0 0 0 0 0 0 0 
0 0 0 0 0 0 0 0 0 
0 0 0 0 0 0 0 0 0 
0 0 0 0 0 0 0 0 0 
0 0 0 0 0 0 0 0 0 
0 0 0 0 0 0 0 0 0 
0 0 0 0 0 0 0 0 0 
0 0 0 0 0 0 0 0 0 
0 0 0 0 0 0 0 0 0 
0 0 0 0 0 0 0 0 0 
0 0 0 0 0 0 0 0 0 
0 0 0 0 0 0 0 0 0 
0 0 0 0 0 0 0 0 0 
0 0 0 0 0 0 0 0 0 
0 0 0 0 0 0 0 0 0 
0 0 0 0 0 0 0 0 0 
0 0 0 0 0 0 0 0 0 
0 0 0 0 0 0 0 0 0 
0 0 0 0 0 0 0 0 0 
0 0 0 0 0 0 0 0 0 
0 0 0 0 0 0 0 0 0 
0 0 0 0 0 0 0 0 0 
0 0 0 0 0 0 0 0 0 
0 0 0 0 0 0 0 0 0 
0 0 0 0 0 0 0 0 0 
0 0 0 0 0 0 0 0 0 
0 0 0 0 0 0 0 0 0 
0 0 0 0 0 0 0 0 0 
0 0 0 0 0 0 0 0 0 
0 0 0 0 0 0 0 0 0 
0 0 0 0 0 0 0 0 0 
0 0 0 0 0 0 0 0 0 
0 0 0 0 0 0 0 0 0 
0 0 0 0 0 0 0 0 0 
0 0 0 0 0 0 0 0 0 
0 0 0 0 0 0 0 0 0 
0 0 0 0 0 0 0 0 0 
0 0 0 0 0 0 0 0 0 
0 0 0 0 0 0 0 0 0 
0 0 0 0 0 0 0 0 0 
0 0 0 0 0 0 0 0 0 
0 0 0 0 0 0 0 0 0 
0 0 0 0 0 0 0 0 0 
0 0 0 0 0 0 0 0 0 
0 0 0 0 0 0 0 0 0 
0 0 0 0 0 0 0 0 0 
0 0 0 0 0 0 0 0 0 
0 0 0 0 0 0 0 0 0 
0 0 0 0 0 0 0 0 0 
0 0 0 0 0 0 0 0 0 
0 0 0 0 0 0 0 0 0 
0 0 0 0 0 0 0 0 0 
0 0 0 0 0 0 0 0 0 
0 0 0 0 0 0 0 0 0 
0 0 0 0 0 0 0 0 0 
0 0 0 0 0 0 0 0 0 
0 0 0 0 0 0 0 0 0 
0 0 0 0 0 0 0 0 0 
0 0 0 0 0 0 0 0 0 
0 0 0 0 0 0 0 0 0 
0 0 0 0 0 0 0 0 0 
0 0 0 0 0 0 0 0 0 
0 0 0 0 0 0 0 0 0 
0 0 0 0 0 0 0 0 0 
0 0 0 0 0 0 0 0 0 
0 0 0 0 0 0 0 0 0 
0 0 0 0 0 0 0 0 0 
0 0 0 0 0 0 0 0 0 
0 0 0 0 0 0 0 0 0 
0 0 0 0 0 0 0 0 0 
0 0 0 0 0 0 0 0 0 
0 0 0 0 0 0 0 0 0 
0 0 0 0 0 0 0 0 0 
0 0 0 0 0 0 0 0 0 
0 0 0 0 0 0 0 0 0 
0 0 0 0 0 0 0 0 0 
0 0 0 0 0 0 0 0 0 
0 0 0 0 0 0 0 0 0 
0 0 0 0 0 0 0 0 0 
0 0 0 0 0 0 0 0 0 
0 0 0 0 0 0 0 0 0 
0 0 0 0 0 0 0 0 0 
0 0 0 0 0 0 0 0 0 
0 0 0 0 0 0 0 0 0 
0 0 0 0 0 0 0 0 0 
0 0 0 0 0 0 0 0 0 
0 0 0 0 0 0 0 0 0 
0 0 0 0 0 0 0 0 0 
0 0 0 0 0 0 0 0 0 
0 0 0 0 0 0 0 0 0 
0 0 0 0 0 0 0 0 0 
0 0 0 0 0 0 0 0 0 
0 0 0 0 0 0 0 0 0 

Normal 3 1116 float
-0.236738 0.965547 -0.0195108 -0.225269 0.941055 0.182692 -0.237366 0.945011 0.185936 
-0.226348 0.97152 0.0243656 -0.226018 0.902222 0.364897 -0.283131 0.897578 0.324402 
-0.230717 0.861712 0.446681 -0.31984 0.838879 0.433219 -0.218116 0.825316 0.518008 
-0.319552 0.792914 0.514018 -0.188705 0.792915 0.579176 -0.311764 0.747629 0.584526 
-0.208311 0.736834 0.640222 -0.299898 0.704702 0.641012 -0.201905 0.67159 0.708593 
-0.266182 0.639767 0.714723 -0.164808 0.596817 0.785177 -0.203917 0.53528 0.813755 
-0.0410419 0.418163 0.892757 -0.083638 0.351998 0.926021 0.0372721 0.282518 0.955209 
-0.0423275 0.231872 0.969348 0.0768768 0.187682 0.979188 -0.0390133 0.174531 0.982341 
0.0990012 0.174084 0.979594 -0.074597 0.159634 0.982228 0.0886876 0.137419 0.985437 
-0.0963512 0.100535 0.98741 0.0617117 0.0907008 0.993738 -0.125743 0.0333797 0.991281 
0.113951 0.126091 0.983919 -0.0967504 -0.0113009 0.994079 0.161146 0.110262 0.976261 
-0.0426417 -0.0723868 0.993161 0.196827 -0.0224781 0.973538 0.0502707 -0.152353 0.981248 
0.242852 -0.171608 0.943647 0.149544 -0.251747 0.947326 0.300371 -0.338951 0.883569 
0.255879 -0.376789 0.882308 0.331834 -0.455578 0.819989 0.306215 -0.472843 0.822048 
0.352674 -0.551955 0.755396 0.322156 -0.553332 0.766655 0.349701 -0.616592 0.701701 
0.300186 -0.630643 0.710263 0.346634 -0.686692 0.633212 0.303837 -0.704389 0.632715 
0.343337 -0.769958 0.529069 0.29529 -0.788035 0.533749 0.341504 -0.845451 0.38567 
0.258333 -0.868776 0.397281 0.340253 -0.914968 0.214808 0.215821 -0.945581 0.22222 
0.308611 -0.938869 0.00874143 0.178892 -0.976663 0.00637733 0.248553 -0.953558 -0.143314 
0.186779 -0.963358 -0.165155 0.157725 -0.958272 -0.236881 0.202739 -0.93721 -0.282233 
0.162009 -0.943857 -0.285773 0.218998 -0.917436 -0.32958 0.185858 -0.911833 -0.357285 
0.217471 -0.897413 -0.381123 0.223126 -0.862592 -0.452971 0.192187 -0.875996 -0.441408 
0.168564 -0.798775 -0.568686 0.125103 -0.829916 -0.536094 0.0988598 -0.732557 -0.666443 
0.048561 -0.771793 -0.627821 0.0151774 -0.664265 -0.747299 -0.036807 -0.702576 -0.708884 
-0.0608404 -0.624263 -0.775896 -0.0803253 -0.647926 -0.755244 -0.12911 -0.57675 -0.804339 
-0.12122 -0.597551 -0.791031 -0.187687 -0.519839 -0.832587 -0.178341 -0.545454 -0.817727 
-0.24403 -0.445808 -0.858024 -0.24245 -0.481568 -0.83911 -0.297466 -0.363369 -0.880357 
-0.312159 -0.412832 -0.85327 -0.346022 -0.269659 -0.89759 -0.406799 -0.335074 -0.848484 
-0.382974 -0.228952 -0.894274 -0.489332 -0.288933 -0.8197 -0.405523 -0.168381 -0.896133 
-0.564367 -0.230556 -0.789506 -0.411556 -0.0725945 -0.908381 -0.626229 -0.126685 -0.768736 
-0.434492 0.11262 -0.885232 -0.6732 0.0334937 -0.729652 -0.448377 0.295784 -0.832502 
-0.706797 0.197997 -0.664334 -0.446802 0.468329 -0.758544 -0.721144 0.34773 -0.585831 
-0.401736 0.600037 -0.68416 -0.723063 0.445518 -0.516492 -0.356113 0.685696 -0.631117 
-0.706047 0.514477 -0.475641 -0.310174 0.745349 -0.590125 -0.690878 0.565359 -0.448573 
-0.345074 0.759469 -0.549748 -0.634144 0.630762 -0.439723 -0.391712 0.770476 -0.499013 
-0.583702 0.693211 -0.417706 -0.457999 0.776272 -0.43094 -0.510175 0.777912 -0.364775 
-0.400721 0.835882 -0.363079 -0.420174 0.857044 -0.287041 -0.319749 0.903034 -0.243162 
-0.325689 0.921061 -0.156819 0.43815 -0.890494 0.118401 0.465399 -0.842762 0.248082 
0.436703 -0.848115 0.285649 0.492706 -0.85488 0.147615 0.484967 -0.781922 0.378144 
0.38586 -0.815995 0.419669 0.489992 -0.70693 0.504237 0.373491 -0.749005 0.54104 
0.430198 -0.664283 0.601871 0.356949 -0.684568 0.629767 0.356384 -0.629146 0.690205 
0.339876 -0.62301 0.703973 0.307209 -0.589229 0.743433 0.306374 -0.576653 0.75458 
0.268868 -0.532369 0.798476 0.270485 -0.526494 0.80433 0.270779 -0.412549 0.860258 
0.219497 -0.448587 0.860866 0.272546 -0.29598 0.912586 0.18514 -0.355813 0.914928 
0.27389 -0.188963 0.937127 0.214321 -0.245769 0.940208 0.278258 -0.0978642 0.954969 
0.24081 -0.155826 0.957076 0.290895 -0.0503048 0.954487 0.320185 -0.0864904 0.939514 
0.297036 0.00204497 0.953844 0.372727 -0.0146327 0.925827 0.293922 0.0612183 0.952971 
0.388875 0.0606127 0.916786 0.283735 0.18839 0.929981 0.387826 0.181639 0.894863 
0.269831 0.351293 0.895369 0.377535 0.339176 0.859503 0.230045 0.526427 0.800134 
0.315191 0.521694 0.771748 0.17772 0.680454 0.704851 0.240986 0.690296 0.67681 
0.0934577 0.773226 0.617577 0.169152 0.785715 0.585619 0.0502328 0.850191 0.51334 
0.117581 0.857421 0.491056 0.0352146 0.916289 0.397443 0.0795432 0.91749 0.386006 
-0.0116709 0.942109 0.328277 0.00456957 0.951075 0.297776 -0.0481467 0.966698 0.230548 
-0.0619583 0.969435 0.230228 -0.0638101 0.992249 0.0788773 -0.0827545 0.986549 0.124647 
-0.076136 0.996314 0.0143823 -0.0643807 0.995504 0.0267795 -0.10929 0.992635 -0.0231536 
-0.0352084 0.997248 -0.0486501 -0.183432 0.981874 -0.0404738 -0.0555625 0.995453 -0.0587015 
-0.148943 0.979975 -0.114958 -0.0965378 0.984978 -0.129312 -0.150671 0.954417 -0.227814 
-0.13209 0.954356 -0.243417 -0.210594 0.897746 -0.38319 -0.164571 0.905268 -0.387436 
-0.182188 0.812177 -0.538387 -0.142859 0.840457 -0.512695 -0.114288 0.757878 -0.63769 
-0.111405 0.790469 -0.601094 -0.00352965 0.746233 -0.665325 -0.0591111 0.785164 -0.616157 
0.0205989 0.806714 -0.586432 -0.0170449 0.826227 -0.560217 0.000286999 0.833775 -0.550574 
-0.00516442 0.831211 -0.554104 -0.0552556 0.831457 -0.552835 -0.0182293 0.805459 -0.590326 
-0.0943807 0.686451 -0.70188 -0.0732906 0.659496 -0.727116 -0.12774 0.502792 -0.836724 
-0.129859 0.473213 -0.85915 -0.15214 0.259066 -0.949497 -0.14429 0.248099 -0.951032 
-0.123118 0.129182 -0.979952 -0.150596 0.106538 -0.979112 -0.118075 0.0330422 -0.991176 
-0.153737 0.0172672 -0.987138 -0.144185 -0.0377553 -0.988464 -0.157196 -0.0338231 -0.986679 
-0.10497 -0.180357 -0.972708 -0.147921 -0.142633 -0.975857 -0.058185 -0.342673 -0.926563 
-0.119871 -0.317011 -0.934037 -0.00376333 -0.518675 -0.853627 -0.0880543 -0.490361 -0.864661 
0.0760423 -0.641222 -0.75331 -0.0252362 -0.606411 -0.78846 0.157023 -0.70278 -0.690765 
0.0685428 -0.701781 -0.70799 0.239056 -0.709818 -0.661987 0.127318 -0.740036 -0.659478 
0.288407 -0.744137 -0.598177 0.16283 -0.777943 -0.603164 0.326981 -0.782863 -0.525391 
0.201462 -0.81405 -0.543248 0.344715 -0.827622 -0.436648 0.275021 -0.833131 -0.473007 
0.349355 -0.858277 -0.373844 0.360261 -0.833628 -0.416328 0.344394 -0.878593 -0.330061 
0.453385 -0.805377 -0.377325 0.384562 -0.884042 -0.252428 0.523617 -0.789737 -0.303747 
0.426839 -0.887683 -0.167273 0.556617 -0.792369 -0.230354 0.433585 -0.895656 -0.0694449 
0.591009 -0.794838 -0.0665904 0.437182 -0.896183 0.0256278 0.559409 -0.821097 0.0712021 
-0.310366 0.903082 0.278939 -0.249104 0.951095 0.152148 -0.347894 0.846756 0.395696 
-0.38721 0.764312 0.512833 -0.374501 0.703418 0.602019 -0.343581 0.655943 0.670447 
-0.280597 0.565267 0.764726 -0.210383 0.427095 0.876121 -0.204183 0.289354 0.929729 
-0.252577 0.191543 0.944113 -0.321032 0.121025 0.93846 -0.291026 0.0707179 0.952653 
-0.247983 0.0198865 0.966315 -0.206115 -0.0314961 0.975793 -0.13193 -0.0919265 0.983351 
-0.0597283 -0.164899 0.982159 0.0525416 -0.253564 0.958464 0.136852 -0.3586 0.920486 
0.159308 -0.453823 0.871584 0.1399 -0.526903 0.832146 0.0809554 -0.585323 0.802186 
-0.0198575 -0.660105 0.747529 0.058952 -0.739966 0.661324 0.0912171 -0.823138 0.554157 
0.100037 -0.902064 0.401838 0.0822941 -0.967559 0.197768 0.0755787 -0.988952 -0.0296443 
0.0724947 -0.974547 -0.190701 0.0920798 -0.948308 -0.293504 0.125723 -0.931552 -0.335906 
0.147199 -0.912668 -0.378698 0.12264 -0.886663 -0.443295 0.0851186 -0.841213 -0.527448 
0.0112504 -0.783361 -0.618403 -0.0625831 -0.725667 -0.681771 -0.139744 -0.660705 -0.735902 
-0.174974 -0.613798 -0.769189 -0.229863 -0.571425 -0.785965 -0.287393 -0.51723 -0.805248 
-0.37718 -0.447673 -0.809416 -0.460908 -0.399017 -0.790424 -0.530473 -0.347482 -0.772174 
-0.592234 -0.278427 -0.752762 -0.656311 -0.167733 -0.732974 -0.733317 0.0477666 -0.672031 
-0.77256 0.214371 -0.587203 -0.789611 0.35418 -0.497835 -0.772697 0.446522 -0.445417 
-0.74994 0.519178 -0.406284 -0.720513 0.579135 -0.379177 -0.685111 0.6423 -0.337093 
-0.603101 0.732834 -0.303513 -0.502189 0.821893 -0.252385 -0.371291 0.901547 -0.198187 
-0.25122 0.961101 -0.0756893 -0.224177 0.972384 0.0578536 0.477813 -0.789682 0.379315 
0.525866 -0.797462 0.285924 0.452005 -0.751344 0.477695 0.424321 -0.669102 0.602163 
0.375928 -0.599372 0.705697 0.332281 -0.545737 0.766714 0.27718 -0.486024 0.827399 
0.249037 -0.431476 0.864678 0.241616 -0.374808 0.892924 0.241849 -0.309273 0.917159 
0.272887 -0.246583 0.926152 0.374219 -0.176752 0.90657 0.461929 -0.0999439 0.873999 
0.534281 -0.00350067 0.841936 0.560759 0.130426 0.809188 0.551354 0.2851 0.779332 
0.483587 0.481645 0.718607 0.353989 0.685991 0.62504 0.242007 0.799209 0.544762 
0.16316 0.867003 0.465771 0.0911243 0.928847 0.353804 0.0446463 0.961968 0.261171 
-0.00752019 0.980419 0.191279 -0.0551266 0.987837 0.142615 -0.0395638 0.995696 0.0570814 
-0.00963021 0.998668 -0.00912413 0.0221254 0.996165 -0.0834749 -0.00701133 0.987448 -0.149585 
-0.0508299 0.961788 -0.25989 -0.0756096 0.919611 -0.379576 -0.0780914 0.860985 -0.497134 
-0.0664771 0.81838 -0.569207 -0.0346072 0.811781 -0.579913 0.031792 0.845757 -0.53066 
0.0767319 0.846147 -0.525776 0.0979506 0.812023 -0.572132 0.067179 0.688362 -0.711771 
0.0164736 0.487689 -0.856993 -0.0460625 0.259335 -0.960751 -0.0773397 0.0853868 -0.991639 
-0.0713075 0.00811663 -0.996414 -0.0892426 -0.0613977 -0.993593 -0.0861667 -0.209758 -0.966036 
-0.070729 -0.363883 -0.923771 -0.0401776 -0.491792 -0.866341 0.00030111 -0.593164 -0.800654 
0.046798 -0.673062 -0.7359 0.096374 -0.724811 -0.68068 0.137387 -0.761596 -0.63197 
0.190822 -0.79147 -0.579331 0.266305 -0.803443 -0.526981 0.348063 -0.799457 -0.486218 
0.422207 -0.779272 -0.458531 0.502248 -0.757563 -0.404513 0.582181 -0.739978 -0.33464 
0.626877 -0.760794 -0.109734 0.611781 -0.779274 0.0796527 0.575185 -0.792542 0.193149 
-0.378625 0.84584 0.369898 -0.29746 0.911356 0.246008 -0.383815 0.7801 0.482271 
-0.372013 0.716247 0.586703 -0.353143 0.657425 0.6637 -0.308556 0.590795 0.740677 
-0.292198 0.498549 0.81125 -0.304612 0.369938 0.873798 -0.38423 0.259101 0.880851 
-0.423188 0.155969 0.890553 -0.419525 0.054263 0.90389 -0.361653 -0.0353162 0.92894 
-0.267938 -0.110657 0.954193 -0.159211 -0.175086 0.9687 -0.0214017 -0.225061 0.972246 
0.0306811 -0.300954 0.950652 0.050112 -0.378549 0.922689 -0.00765314 -0.465024 0.880496 
-0.0674191 -0.535451 0.839953 -0.0827308 -0.574384 0.812624 -0.0770163 -0.598069 0.794437 
-0.0250102 -0.869829 0.489294 -0.07613 -0.790672 0.600322 0.00105801 -0.938179 0.30199 
0.0157967 -0.98758 0.100428 -0.00836604 -0.98787 -0.0951279 -0.0204322 -0.973843 -0.214113 
-0.0255404 -0.954481 -0.296496 0.00662085 -0.940867 -0.335118 0.037645 -0.922309 -0.382 
0.0618337 -0.896479 -0.436673 0.0498036 -0.858005 -0.508647 0.00159881 -0.813936 -0.57793 
-0.0900585 -0.748618 -0.651708 -0.164919 -0.689965 -0.701881 -0.226142 -0.638261 -0.735376 
-0.258075 -0.594576 -0.760317 -0.296951 -0.541732 -0.785366 -0.338791 -0.502748 -0.7949 
-0.41276 -0.454667 -0.786901 -0.485161 -0.399776 -0.774713 -0.543887 -0.308895 -0.777802 
-0.53851 -0.249434 -0.799078 -0.767638 0.238884 -0.584418 -0.746702 0.10181 -0.651081 
-0.767717 0.392434 -0.502717 -0.732185 0.509605 -0.443012 -0.694713 0.595782 -0.399018 
-0.667524 0.647723 -0.3644 -0.632652 0.709986 -0.295521 -0.585733 0.784523 -0.198548 
-0.485686 0.86164 -0.119162 -0.358399 0.926427 -0.0423253 -0.244053 0.968289 0.0244782 
-0.194162 0.977758 0.0663133 -0.220284 0.96676 0.127073 -0.0979416 -0.697983 0.708178 
-0.0279271 -0.675393 0.73134 -0.661574 -0.060631 -0.739763 -0.532494 -0.144045 -0.828986 
0.485804 -0.715509 0.495038 0.481893 -0.777969 0.40028 0.485576 -0.624099 0.603694 
0.463913 -0.549285 0.692183 0.440728 -0.495301 0.744154 0.413267 -0.443991 0.793793 
0.367845 -0.404846 0.834046 0.34449 -0.358058 0.866361 0.365637 -0.32592 0.867932 
0.436918 -0.259603 0.859989 0.494199 -0.223661 0.837121 0.554526 -0.16005 0.813084 
0.58983 -0.057512 0.802875 0.598475 0.0878173 0.785143 0.558611 0.262447 0.780828 
0.454053 0.454691 0.741479 0.221894 0.722968 0.641545 0.189193 0.82576 0.528998 
0.14764 0.874495 0.45558 0.1005 0.9181 0.374522 0.0386874 0.960881 0.254618 
-0.0148959 0.983806 0.173474 -0.0532176 0.990112 0.127269 -0.0697431 0.992342 0.100206 
-0.0753267 0.994652 0.0528926 -0.0760276 0.996275 -0.0215308 -0.0252237 0.990756 -0.129097 
-0.0355843 0.962359 -0.254209 -0.0486559 0.924809 -0.370563 -0.0632149 0.87789 -0.472999 
-0.0401959 0.845516 -0.531253 0.00695761 0.852541 -0.521291 0.0567031 0.872036 -0.484111 
0.0928781 0.847629 -0.5181 0.0843195 0.776338 -0.620848 0.0559828 0.599602 -0.779734 
0.0145739 0.385751 -0.914596 -0.0206876 0.199894 -0.974368 -0.0121992 0.109819 -0.992411 
0.00608497 0.042555 -0.998176 0.0157661 -0.0456662 -0.997851 0.00450304 -0.167763 -0.982883 
0.00262063 -0.304369 -0.94743 0.0204173 -0.44951 -0.891278 0.0437195 -0.543328 -0.833887 
0.067286 -0.629401 -0.772757 0.105719 -0.69634 -0.708034 0.13811 -0.73723 -0.65973 
0.161216 -0.769007 -0.618536 0.21548 -0.776586 -0.589958 0.27451 -0.778872 -0.561114 
0.352249 -0.770084 -0.528309 0.441901 -0.772884 -0.444787 0.533906 -0.788504 -0.287393 
0.582125 -0.799417 -0.0394066 0.557558 -0.810416 0.159448 0.500881 -0.817771 0.277467 
0.484409 -0.803627 0.34269 -0.609803 0.0236563 -0.778311 -0.489103 -0.0318953 -0.864833 
-0.689536 0.0856937 -0.712839 -0.736247 0.229259 -0.615902 -0.744474 0.405556 -0.51403 
-0.675891 0.579086 -0.451281 -0.635123 0.652179 -0.407882 -0.597485 0.703734 -0.380705 
-0.576017 0.749087 -0.319019 -0.577024 0.787144 -0.213141 -0.555837 0.824106 -0.0584853 
-0.499019 0.860353 0.0731438 -0.381015 0.906187 0.168181 -0.260987 0.955248 0.112276 
-0.206086 0.972672 0.0956882 -0.222509 0.96133 0.153497 -0.280015 0.904981 0.285894 
-0.330132 0.826567 0.447732 -0.343505 0.743912 0.567423 -0.336262 0.671264 0.657546 
-0.352954 0.592888 0.721132 -0.377456 0.48619 0.786045 -0.434371 0.384734 0.810733 
-0.468975 0.269062 0.839803 -0.462439 0.155505 0.869505 -0.43586 0.0357327 0.896001 
-0.383086 -0.0813565 0.914327 -0.317401 -0.180869 0.927635 -0.224766 -0.242937 0.936072 
-0.0931943 -0.302805 0.948205 -0.0187881 -0.323553 0.944166 0.0305642 -0.339879 0.939642 
0.00587915 -0.396951 0.916691 -0.0204402 -0.458768 0.886157 -0.0431888 -0.524906 0.846495 
-0.019468 -0.56981 0.820147 0.0435567 -0.602026 0.792757 0.0588358 -0.701608 0.707365 
0.142648 -0.66899 0.722831 -0.0220686 -0.773011 0.626996 -0.0615357 -0.829751 0.542363 
-0.0569316 -0.885202 0.448836 -0.0166737 -0.951748 0.274986 0.00984025 -0.991247 0.0764778 
-0.00162274 -0.993103 -0.0813872 -0.0156162 -0.97606 -0.20134 -0.0297146 -0.956676 -0.288746 
-0.0425668 -0.941034 -0.332396 -0.03281 -0.920291 -0.387003 -0.00529068 -0.897216 -0.440311 
0.0151648 -0.867924 -0.493598 0.0211099 -0.834094 -0.550116 -0.00994528 -0.782832 -0.619555 
-0.0667954 -0.732759 -0.672983 -0.14254 -0.680404 -0.718316 -0.206796 -0.625502 -0.749436 
-0.258451 -0.576196 -0.774464 -0.292342 -0.535943 -0.791963 -0.330114 -0.500734 -0.7992 
-0.37394 -0.452862 -0.806617 -0.428787 -0.384741 -0.814549 -0.468919 -0.272979 -0.838246 
-0.427665 -0.207791 -0.872292 -0.37745 -0.0700311 -0.915929 -0.428052 0.068882 -0.888622 
-0.339807 0.117075 -0.927797 -0.516554 0.117741 -0.833249 0.511335 -0.595767 0.611893 
0.513144 -0.69699 0.492313 0.512244 -0.497038 0.699621 0.514028 -0.428299 0.739374 
0.51555 -0.359403 0.776314 0.522886 -0.310393 0.791878 0.512024 -0.288364 0.808741 
0.503965 -0.293833 0.811825 0.499076 -0.291347 0.814966 0.520143 -0.245542 0.816827 
0.510695 -0.198378 0.834444 0.475927 -0.0669954 0.865128 0.428967 0.0858313 0.891511 
0.334583 0.267572 0.885504 0.218825 0.429904 0.861236 0.0913393 0.548914 0.818425 
0.000493241 0.889013 0.446481 0.0246047 0.838125 0.537815 -0.0356328 0.936754 0.338423 
-0.0467916 0.970564 0.220602 -0.0580433 0.987557 0.14375 -0.0673724 0.990711 0.116891 
-0.0834068 0.992783 0.0782936 -0.0917951 0.99491 0.0354661 -0.0994227 0.994565 -0.0114234 
-0.0902254 0.984996 -0.131725 -0.090963 0.951741 -0.277554 -0.0865065 0.913949 -0.394731 
-0.0660101 0.872518 -0.481588 0.00953835 0.876858 -0.477655 0.0545118 0.886999 -0.458462 
0.0711078 0.882074 -0.465359 0.0911479 0.847075 -0.518619 0.0750703 0.742375 -0.656641 
0.0472441 0.551529 -0.818768 0.0111108 0.321644 -0.940432 0.00924944 0.182156 -0.980902 
0.024179 0.0895559 -0.994406 0.0492255 0.0344486 -0.996836 0.079477 -0.0493974 -0.993769 
0.0820617 -0.176274 -0.975569 0.0734275 -0.325196 -0.939881 0.0826667 -0.447668 -0.886575 
0.115605 -0.549925 -0.824782 0.143509 -0.635298 -0.758153 0.15808 -0.698126 -0.695735 
0.167317 -0.742058 -0.648525 0.177787 -0.764641 -0.619258 0.178064 -0.777536 -0.602525 
0.213919 -0.786057 -0.57857 0.257322 -0.795202 -0.545582 0.345823 -0.815866 -0.438331 
0.462221 -0.841168 -0.249016 0.516412 -0.835177 0.0153753 0.533756 -0.813276 0.226123 
0.520173 -0.800987 0.29421 0.493697 -0.797224 0.346277 0.508611 -0.769227 0.383185 
0.00880965 0.7378 0.659377 -0.0797681 0.684806 0.714737 -0.543935 0.214846 -0.802278 
-0.558043 0.379609 -0.717717 -0.559714 0.561348 -0.5996 -0.571178 0.645326 -0.494467 
-0.552866 0.710604 -0.434008 -0.531153 0.740301 -0.410897 -0.502946 0.781308 -0.36461 
-0.479121 0.823457 -0.30032 -0.475885 0.859421 -0.152723 -0.477391 0.870863 0.0216587 
-0.469844 0.851565 0.22858 -0.267874 0.956901 0.098876 -0.312705 0.939986 0.124378 
-0.277234 0.937384 0.207362 -0.291241 0.890015 0.324016 -0.307678 0.844254 0.427187 
-0.322063 0.78753 0.516704 -0.342659 0.715321 0.60257 -0.376739 0.636458 0.669077 
-0.405956 0.560986 0.720096 -0.465542 0.440426 0.764929 -0.476701 0.297184 0.820669 
-0.474028 0.157293 0.86255 -0.417592 0.0138156 0.901435 -0.349075 -0.120142 0.926328 
-0.234779 -0.234726 0.934847 -0.129185 -0.317566 0.936794 -0.0552609 -0.352149 0.931616 
-0.0130296 -0.363132 0.931296 -0.000106868 -0.364849 0.93105 0.00716632 -0.374898 0.926899 
0.000374553 -0.429646 0.900753 -0.000314272 -0.486176 0.871844 0.0228664 -0.507204 0.85959 
0.101476 -0.57758 0.808232 0.22001 -0.605214 0.757589 0.277374 -0.694467 0.654845 
0.38066 -0.655868 0.648908 0.153679 -0.772021 0.603385 0.0544677 -0.809197 0.575794 
-0.00279065 -0.843201 0.530143 0.0119571 -0.884276 0.445146 0.0336316 -0.945116 0.292915 
0.00404854 -0.985306 0.112209 -0.0316533 -0.996498 -0.0602997 -0.0400387 -0.973721 -0.20566 
-0.047767 -0.95167 -0.301248 -0.0390654 -0.925117 -0.373794 -0.0289729 -0.895094 -0.442874 
-0.00313773 -0.868252 -0.494095 0.0210046 -0.838219 -0.542878 0.0349522 -0.806598 -0.589962 
0.0248195 -0.77355 -0.631177 -0.0105103 -0.737927 -0.673593 -0.0791534 -0.690372 -0.716453 
-0.148512 -0.639996 -0.751509 -0.220367 -0.586568 -0.777502 -0.272617 -0.548724 -0.789314 
-0.315958 -0.502063 -0.803967 -0.364631 -0.433849 -0.822014 -0.407003 -0.366208 -0.831314 
-0.365818 -0.358028 -0.856829 -0.31527 -0.218906 -0.918383 -0.262652 -0.105164 -0.953335 
-0.22906 -0.00863091 -0.971277 -0.339873 0.224304 -0.904402 -0.238747 0.186231 -0.94528 
-0.414044 0.236999 -0.870861 -0.394192 0.886169 0.229311 -0.426309 0.857073 0.287527 
-0.101197 0.794292 0.590838 -0.175754 0.661485 0.719896 -0.0944866 0.850821 0.509858 
-0.113186 0.88929 0.434902 -0.12674 0.926596 0.345946 -0.126484 0.955109 0.25749 
-0.126126 0.973484 0.18208 -0.126858 0.983614 0.12333 -0.143167 0.98477 0.0944196 
-0.142258 0.987533 0.0538064 -0.13343 0.990537 0.00359715 -0.142508 0.983512 -0.0968512 
-0.147078 0.955436 -0.242048 -0.131758 0.919711 -0.365124 -0.0794576 0.897498 -0.432988 
-0.0347527 0.893113 -0.446658 -0.00424359 0.893445 -0.447264 0.0277819 0.897308 -0.439732 
0.0496571 0.837437 -0.53008 0.0546998 0.751803 -0.654311 0.0315471 0.543559 -0.817226 
0.0201677 0.351354 -0.930526 0.0392425 0.217297 -0.971487 0.0679238 0.13712 -0.987239 
0.0915919 0.0573157 -0.993501 0.117003 -0.0938207 -0.983725 0.127142 -0.232607 -0.959021 
0.120189 -0.381115 -0.916267 0.126199 -0.466158 -0.872497 0.144213 -0.54577 -0.824084 
0.165847 -0.625335 -0.76083 0.181229 -0.689658 -0.699501 0.172087 -0.746823 -0.641156 
0.163147 -0.773735 -0.611892 0.163814 -0.78842 -0.592663 0.176907 -0.799816 -0.573402 
0.183152 -0.814121 -0.550685 0.220641 -0.841815 -0.481655 0.280731 -0.879238 -0.377261 
0.392941 -0.885674 -0.091536 0.487777 -0.854544 0.144969 0.525114 -0.792172 0.307419 
0.55023 -0.771067 0.317376 0.576082 -0.742234 0.335515 0.547966 -0.703047 0.447627 
0.523156 -0.625797 0.568773 0.53146 -0.530993 0.65843 0.563467 -0.434653 0.698109 
0.591174 -0.333962 0.733736 0.565793 -0.289932 0.769321 0.542358 -0.253087 0.800645 
0.526561 -0.258108 0.809703 0.496654 -0.267337 0.823174 0.438421 -0.266063 0.856739 
0.365816 -0.246574 0.89155 0.313912 -0.150369 0.931839 0.232971 -0.0216069 0.961435 
0.142834 0.168789 0.960645 0.0316604 0.356613 0.924155 -0.07841 0.492337 0.85061 
-0.179179 0.501079 0.841244 -0.209698 0.589846 0.772309 -0.216208 0.707724 0.667988 
-0.232201 0.64314 0.72155 -0.178279 0.748032 0.631935 -0.423931 0.43333 -0.784946 
-0.474403 0.590205 -0.641797 -0.497129 0.685646 -0.522334 -0.501197 0.750846 -0.429013 
-0.45518 0.795169 -0.395152 -0.406282 0.836645 -0.362476 -0.360805 0.873818 -0.318977 
-0.339884 0.906773 -0.23775 -0.332426 0.927835 -0.134943 -0.353727 0.929222 0.00693971 
-0.409631 0.888223 0.1735 -0.44848 0.846508 0.283581 -0.45498 0.843287 0.272029 
-0.380308 0.902534 0.1754 -0.331243 0.93678 0.108974 -0.317379 0.940804 0.112484 
-0.296086 0.932647 0.174986 -0.300506 0.888641 0.327946 -0.329577 0.830027 0.440481 
-0.34639 0.803273 0.482455 -0.373292 0.749587 0.538291 -0.401774 0.686998 0.600062 
-0.420483 0.632586 0.646783 -0.429994 0.572818 0.695822 -0.407505 0.208083 0.87581 
-0.431107 0.36756 0.820051 -0.355894 0.0368128 0.929704 -0.283956 -0.100683 0.94219 
-0.221573 -0.206668 0.945558 -0.11005 -0.278436 0.950888 -0.0405937 -0.361805 0.930027 
-0.0237199 -0.394344 0.918501 -0.0233141 -0.391554 0.919798 0.0443143 -0.480807 0.871671 
0.0208281 -0.410534 0.911164 -0.413856 0.461193 0.781617 -0.398788 0.518992 0.753335 
-0.0124596 -0.38698 0.921668 0.0166023 -0.369229 0.927921 0.330714 -0.593221 0.731886 
0.12429 -0.500046 0.853042 0.388568 -0.605278 0.689066 0.444179 -0.665051 0.596705 
0.454976 -0.645438 0.611886 0.370459 -0.755037 0.526373 0.261519 -0.796595 0.539546 
0.0945458 -0.908488 0.396209 0.121885 -0.937892 0.30451 0.126838 -0.969318 0.144662 
-0.036273 -0.983395 -0.141738 -0.0510125 -0.95769 -0.267848 -0.0416194 -0.937304 -0.34425 
-0.0433582 -0.91679 -0.393361 -0.0414044 -0.891143 -0.448836 -0.0277199 -0.856059 -0.513526 
0.0157812 -0.816753 -0.574709 0.0655739 -0.78783 -0.610879 0.069937 -0.760796 -0.644755 
0.0382381 -0.742296 -0.667447 -0.0216412 -0.712483 -0.700584 -0.092915 -0.663305 -0.739524 
-0.16229 -0.60844 -0.775089 -0.204889 -0.55121 -0.808299 -0.221971 -0.449062 -0.862492 
-0.29906 -0.400752 -0.861371 -0.221948 -0.272431 -0.930456 -0.160938 -0.160967 -0.96969 
-0.132039 0.0150039 -0.982817 -0.110695 0.118832 -0.982395 -0.253698 0.371711 -0.885605 
-0.0935891 0.241545 -0.954524 -0.351576 0.354588 -0.859563 -0.178225 0.791038 0.571814 
-0.180007 0.848392 0.49095 -0.18785 0.89409 0.397551 -0.189771 0.934844 0.294122 
-0.203517 0.957454 0.19409 -0.20594 0.968664 0.131874 -0.214844 0.969728 0.107104 
-0.21532 0.971771 0.0869511 -0.187639 0.979592 0.05814 -0.145387 0.987242 -0.0519185 
-0.154519 0.967089 -0.178835 -0.156093 0.943365 -0.289401 -0.126422 0.924153 -0.358137 
0.00763689 0.907181 -0.420424 -0.0381115 0.911872 -0.408143 0.0176394 0.882608 -0.468827 
0.00767739 0.759356 -0.624709 0.00505235 0.610685 -0.788188 0.0214876 0.432686 -0.885222 
0.0419177 0.289046 -0.954538 0.068284 0.208818 -0.973408 0.0846249 0.144209 -0.984686 
0.0952577 0.0881459 -0.991376 0.104415 -0.0336313 -0.991013 0.0694426 -0.291447 -0.95026 
0.102073 -0.395554 -0.90982 0.111347 -0.471513 -0.872305 0.123775 -0.541475 -0.828099 
0.132533 -0.624369 -0.76828 0.140318 -0.705791 -0.689286 0.136362 -0.765993 -0.627977 
0.128402 -0.783503 -0.607696 0.162312 -0.768836 -0.618028 0.184675 -0.784546 -0.591094 
0.209562 -0.80808 -0.550126 0.206007 -0.848651 -0.480048 0.270288 -0.907412 -0.305446 
0.388321 -0.897987 -0.0678781 0.539085 -0.822226 0.160066 0.620927 -0.736853 0.254703 
0.632949 -0.708932 0.306345 0.603167 -0.69764 0.378075 0.545798 -0.665215 0.50313 
0.523627 -0.619251 0.58215 0.51795 -0.577414 0.630463 0.508603 -0.500618 0.69553 
0.44812 -0.422078 0.782899 0.421889 -0.350056 0.831634 0.420616 -0.289795 0.855367 
0.428582 -0.258087 0.863065 0.377127 -0.256081 0.889603 0.310733 -0.247013 0.914209 
0.247454 -0.226625 0.941805 0.149582 -0.161468 0.966909 0.0675795 -0.0690089 0.992429 
-0.0185611 0.0701235 0.984805 -0.101727 0.190949 0.972173 -0.157912 0.302673 0.927882 
-0.199315 0.44273 0.865259 -0.191832 0.49567 0.845263 -0.221059 0.559398 0.791564 
-0.256848 0.678482 0.68361 -0.293184 0.651692 0.690556 -0.231052 0.777953 0.575615 
-0.0727293 0.91704 -0.390941 -0.144917 0.920777 -0.358623 0.274404 -0.88246 0.354648 
0.324371 -0.908904 0.23768 0.0534826 -0.944734 -0.309203 0.124053 -0.957314 -0.236611 
0.0109228 -0.931005 -0.359308 -0.00172556 -0.90895 -0.413786 -0.011233 -0.86898 -0.489007 
-0.00227606 -0.825721 -0.560691 0.022226 -0.790914 -0.610005 0.0435554 -0.758763 -0.649551 
0.0792963 -0.766807 -0.636636 0.0681866 -0.759176 -0.646696 0.0381848 -0.739121 -0.671954 
-0.00558632 -0.696922 -0.713985 -0.053556 -0.639442 -0.764589 -0.0935475 -0.567413 -0.816623 
-0.0976805 -0.487636 -0.863982 -0.147808 -0.361403 -0.915229 -0.0654839 -0.352129 -0.928982 
-0.376856 0.494458 -0.768856 -0.398345 0.655846 -0.625149 -0.393899 0.779999 -0.476783 
-0.342711 0.848402 -0.39849 -0.28432 0.890468 -0.352787 -0.255731 0.913601 -0.31418 
-0.278522 0.928817 -0.236391 -0.294188 0.93851 -0.176664 -0.317041 0.939456 -0.0984939 
-0.335162 0.937782 -0.0276855 -0.329253 0.932384 0.0825903 -0.397989 0.889335 0.213379 
-0.280855 0.944326 0.148876 -0.472328 0.85509 0.205695 -0.435546 0.883236 0.157418 
-0.373638 0.921328 0.0947313 -0.361463 0.912916 0.180387 -0.340188 0.892176 0.279371 
-0.301657 0.887494 0.344199 -0.356666 0.827995 0.416154 -0.406999 0.753145 0.510272 
-0.431339 0.673204 0.593721 -0.42466 0.631984 0.643653 -0.397898 0.612316 0.678657 
-0.348216 0.503855 0.78825 -0.289272 0.533005 0.787281 -0.311261 0.425739 0.841482 
-0.273528 0.290426 0.9143 -0.207551 0.114677 0.956195 -0.151273 -0.0389581 0.984595 
-0.118602 -0.161643 0.971254 0.330607 -0.525833 0.779732 0.22794 -0.46931 0.848763 
0.425648 -0.600684 0.67476 0.508695 -0.708815 0.483722 0.480366 -0.656298 0.580064 
0.455054 -0.745838 0.475354 -0.25273 0.828032 0.490985 -0.270469 0.879015 0.379901 
-0.28521 0.915598 0.271065 -0.292634 0.934307 0.195476 -0.301175 0.941213 0.14445 
-0.296365 0.944995 0.130194 -0.257058 0.955741 0.132192 -0.186449 0.974803 -0.066397 
-0.17697 0.962862 -0.187837 -0.197992 0.941469 -0.264506 -0.218039 0.932614 -0.28157 
-0.0483747 0.890706 -0.44523 -0.0733484 0.908547 -0.405214 -0.0347208 0.855899 -0.50468 
-0.0465394 0.777441 -0.618702 -0.0423678 0.648424 -0.746468 -0.028265 0.490322 -0.860247 
0.0143667 0.354224 -0.930964 0.0547638 0.235206 -0.966863 0.0760754 0.125973 -0.987467 
0.0568848 0.0268871 -0.996389 0.0530616 -0.0730184 -0.989237 0.00933192 -0.133989 -0.985581 
0.0512371 -0.536649 -0.839915 0.0373767 -0.4626 -0.884947 0.0639678 -0.617742 -0.780552 
0.0770653 -0.704602 -0.701944 0.0911203 -0.7498 -0.653811 0.103116 -0.781267 -0.615272 
0.120219 -0.770996 -0.624552 0.126941 -0.756943 -0.640724 0.222868 -0.821915 -0.523519 
0.218206 -0.792269 -0.568413 0.239639 -0.859634 -0.441191 0.274442 -0.899725 -0.329725 
0.370445 -0.907301 -0.129813 0.48134 -0.864952 0.0329731 0.580205 -0.788225 0.17507 
0.572717 -0.742422 0.329322 0.0071177 -0.360604 -0.926276 -0.0443267 -0.330506 -0.939959 
0.22727 -0.958847 -0.0946429 0.377131 -0.904592 0.106194 0.178055 -0.757592 -0.627512 
0.132865 -0.745323 -0.652068 0.470496 -0.612035 0.631877 0.454014 -0.576329 0.677392 
0.417355 -0.532334 0.730986 0.359417 -0.464355 0.80857 0.318869 -0.40202 0.854224 
0.282252 -0.330614 0.899905 0.26426 -0.275602 0.922458 0.256961 -0.239319 0.934869 
0.189901 -0.208833 0.956069 0.121647 -0.168885 0.976056 0.0310924 -0.087819 0.989569 
-0.0563436 0.00298138 0.996473 -0.111877 0.126089 0.976419 -0.156856 0.242757 0.952225 
-0.182095 0.328287 0.922169 -0.165958 0.345038 0.917646 -0.15144 0.411733 0.894497 
-0.231772 0.514719 0.824639 -0.350634 0.661273 0.655283 -0.00275342 -0.327588 0.943674 
0.00467216 -0.242843 0.966797 -0.00076124 -0.365487 0.930109 0.0152824 -0.353303 0.935187 
0.0620126 -0.340378 0.936541 0.134189 -0.348464 0.926923 0.173512 -0.298209 0.936983 
0.156508 -0.386876 0.903866 -0.102484 0.725306 -0.667245 -0.116227 0.82158 -0.544245 
-0.0828444 0.598188 -0.790047 -0.0386806 0.474511 -0.869363 -0.0140564 0.380187 -0.91999 
0.00457337 0.290671 -0.949783 0.0070037 0.145301 -0.984582 -0.042505 -0.062157 -0.993132 
-0.0896596 -0.185292 -0.974232 0.196603 -0.255653 0.945576 0.175845 -0.203719 0.961138 
0.141783 -0.150276 0.97721 0.084394 -0.075913 0.988591 0.0251535 0.0037507 0.998825 
-0.0337692 0.104258 0.986515 -0.0965927 0.211778 0.971301 -0.126655 0.352563 0.921512 
-0.173175 0.394193 0.891485 -0.190479 0.364979 0.904459 -0.163061 0.287583 0.933519 
-0.113326 0.170985 0.966038 -0.0530676 0.0254724 0.99285 -0.0174913 -0.108893 0.987096 
-0.329444 0.769196 0.538617 -0.359674 0.823794 0.430285 -0.384582 0.860626 0.327942 
-0.390084 0.886222 0.235036 -0.392128 0.906317 0.152622 -0.399554 0.902521 0.154258 
-0.428998 0.887734 0.164859 -0.40287 0.841035 0.358242 -0.411402 0.817383 0.393558 
-0.421578 0.779806 0.462439 -0.405806 0.712027 0.564911 -0.467247 0.85691 0.212006 
-0.45672 0.877206 0.144416 -0.411697 0.897191 0.152299 -0.393597 0.892501 0.201896 
-0.0776469 0.274797 0.956466 -0.0295817 0.180317 0.975605 0.0199968 0.0658347 0.991626 
0.04518 -0.0455042 0.993201 0.0480532 -0.151515 0.98253 0.0446048 -0.24527 0.966258 
0.0312449 -0.306513 0.948957 0.0936776 -0.264857 0.958615 -0.288654 0.954295 0.0246261 
-0.283818 0.951412 -0.0743906 -0.275884 0.939773 -0.187782 -0.256734 0.932107 -0.251369 
-0.120956 0.91999 -0.370177 -0.192981 0.914951 -0.35211 -0.224683 0.531708 -0.805049 
-0.264855 0.714609 -0.636444 -0.241806 0.816402 -0.518944 -0.240506 0.87091 -0.421277 
-0.224666 0.903374 -0.364512 -0.156141 0.887334 -0.431993 -0.253115 0.924585 -0.280569 
-0.017325 -0.458943 -0.884818 0.00938102 -0.52203 -0.85217 0.0263557 -0.574425 -0.816065 
0.0453609 -0.630964 -0.771322 0.0654688 -0.676687 -0.731171 0.076004 -0.72585 -0.680648 
0.08343 -0.770862 -0.629802 0.0983198 -0.771243 -0.62856 0.105717 -0.751077 -0.651273 
0.0909217 -0.739884 -0.666115 0.130928 -0.764717 -0.628441 0.0621318 -0.757755 -0.64932 
0.170607 -0.77449 -0.608307 0.196831 -0.793468 -0.572875 0.22298 -0.81956 -0.527507 
0.226886 -0.854916 -0.461103 0.248592 -0.891828 -0.367131 0.335066 -0.914392 -0.207752 
0.431902 -0.890332 -0.0282579 0.470032 -0.868825 0.109801 0.466092 -0.832972 0.270453 
0.368763 -0.918954 -0.0466846 0.317691 -0.933441 -0.120063 0.240126 -0.927843 -0.249797 
0.160641 -0.916343 -0.362665 0.126728 -0.891039 -0.429169 0.106541 -0.865261 -0.485924 
0.0817577 -0.834583 -0.539926 0.0495845 -0.799274 -0.594352 0.0697386 -0.768056 -0.63643 
0.0652946 -0.759931 -0.646521 0.0609043 -0.759849 -0.646032 0.032313 -0.728762 -0.683087 
0.0204398 -0.674389 -0.735145 -0.0019424 -0.594672 -0.802633 -0.0177686 -0.528145 -0.846802 
-0.0318649 -0.473554 -0.878184 -0.092619 0.411723 -0.903337 0.050284 -0.733449 -0.675369 
0.065492 -0.757067 -0.649571 0.0866813 -0.765579 -0.63706 0.0938005 -0.763641 -0.638412 
0.0911258 -0.753304 -0.650675 0.188098 -0.857176 -0.477993 0.164459 -0.825455 -0.535629 
0.206584 -0.879651 -0.422296 0.216618 -0.898527 -0.377917 -0.446361 0.881923 0.149024 
-0.455837 0.878368 0.140907 -0.394323 0.796818 0.448139 -0.412937 0.849231 0.325725 
-0.37436 0.759878 0.526726 0.0974501 -0.178954 0.975913 0.0918362 -0.0864704 0.990306 
0.0532141 0.005342 0.993815 0.0105101 0.104505 0.992449 -0.0544311 0.224082 0.964382 
0.0478224 -0.767555 -0.638584 0.0913314 -0.766689 -0.633148 0.129038 -0.79222 -0.592462 
-0.17475 0.909236 -0.37614 -0.169026 0.899494 -0.400614 -0.179866 0.79073 -0.571753 
-0.163129 0.715466 -0.669728 -0.127723 0.607752 -0.771325 -0.0906784 0.538166 -0.824582 
-0.447868 0.874136 0.178529 0.457395 -0.629891 0.624827 -0.221865 0.921759 -0.315712 

Radius 1 1116 double
0.15 0.15 1.3837835335 1.2050487856 0.15 1.4716922249 0.15 1.4920706558 0.15 
1.516783637 0.15 1.5390522029 0.15 1.5965543033 0.15 1.5884270607 0.15 1.4912132428 
0.15 1.3898288955 0.15 1.3326461442 0.15 1.2898016053 0.15 1.3698200353 0.15 
1.4011537608 0.15 1.4497232058 0.15 1.4771134761 0.15 1.4803170086 0.15 1.3909136458 
0.15 1.3213239912 0.15 1.2723519444 0.15 1.2455979952 0.15 1.2198712447 0.15 
1.2577871264 0.15 1.2571357216 0.15 1.2708769781 0.15 1.3917645769 0.15 1.5461111587 
0.15 1.7509879135 0.15 1.8097876165 0.15 1.6899546803 0.15 1.5444426666 0.15 
1.4379375214 0.15 1.3894997568 0.15 1.3607214426 0.15 1.3198558027 0.15 1.2729693451 
0.15 1.2516963147 0.15 1.2429255021 0.15 1.2463077714 0.15 1.2568230454 0.15 
1.2477925752 0.15 1.1240957667 0.14999968179 1.1306899735 0.14999934307 1.1660866887 0.14999906194 1.2202262168 
0.14999924036 1.1771800526 0.14999974081 1.1458465728 0.15 1.1099568063 0.15 1.0339176984 0.15 
1.0188822222 0.15 1.0246920434 0.15 1.1173310866 0.15 1.2601280922 0.15 1.4862431447 
0.15 1.5269719483 0.15 1.4548178925 0.15 0.15 1.3110791708 1.1694345764 0.15 
1.4284102894 0.15 1.4545459421 0.15 1.5314804842 0.15 1.6237815694 0.15 1.6574046128 
0.15 1.6383804807 0.15 1.430761641 0.15 1.2626946964 0.15 1.1561910387 0.15 
1.0744385869 0.15 1.2075961252 0.15 1.2996968653 0.15 1.3433224417 0.15 1.3723757604 
0.15 1.4003459559 0.15 1.3082670987 0.15 1.2304864537 0.15 1.3081254611 0.15 
1.3910910607 0.15 1.4955397221 0.15 1.4548280864 0.15 1.499261799 0.15 1.6633534618 
0.15 1.5870852905 0.15 1.5108017992 0.15 1.3828164523 0.15 1.4365724137 0.15 
1.571917708 0.15 1.7675853898 0.15 1.8498716027 0.15000001557 1.7995083942 0.14999990124 1.6728394445 
0.14999996128 1.7269979743 0.15 1.8624713527 0.15 2.0646505916 0.15 2.1536209679 0.15 
2.1740000492 0.15 2.0474630387 0.15 1.9671678418 0.15 1.8584803317 0.15 1.7341000193 
0.15 1.6287705747 0.15 1.5448544805 0.15 1.4703554452 0.15 1.4564928598 0.15 
1.3782902522 0.15 1.2270431634 0.15 1.2898530725 0.15 1.3609217814 0.15 1.3653179121 
0.15 1.2729056381 0.15 1.134749743 0.15 0.99838572397 0.15 0.86033473226 0.15 
1.0741444424 0.15 1.2198049203 1.7766845 1.7110235683 1.8079727563 1.7304691228 1.7013922041 1.7285638516 
1.6502627387 1.5249342545 1.3810758208 1.3160700405 1.3148170252 1.3711686483 1.4054996411 1.4412536609 1.4863595923 
1.5273131771 1.53653957 1.5400587352 1.5304894514 1.5201050558 1.4991479505 1.5968195686 1.5473378575 1.4962386911 
1.5104739878 1.604895218 1.7919227521 1.8823552423 1.785845393 1.6259120989 1.5357741452 1.5163142908 1.4798450916 
1.4333932427 1.3643876073 1.3982090856 1.4032180223 1.3834638156 1.3555961269 1.3446607322 1.2676728451 1.2901282622 
1.3476242526 1.3674822746 1.2682280852 1.2638122471 1.2634548592 1.237906645 1.2167792347 1.1906859323 1.2174108817 
1.3346799356 1.6348269215 1.7972708549 1.7214998123 1.5418441013 1.7035336596 1.6502619093 1.7243675606 1.8190025536 
1.90156205 1.9403788666 1.935088479 1.6795913412 1.4352435955 1.3173322638 1.2360893693 1.3105726342 1.3798692684 
1.4320581958 1.4594746787 1.4814039828 1.4506708515 1.4350838047 1.3965584579 1.4625213933 1.5570865438 1.5258633438 
1.6162889293 1.8032210161 1.689536794 1.554934819 1.4386454293 1.5199022917 1.6901804937 1.825811414 1.9034125672 
1.8086044562 1.633695201 1.6972022587 1.9078224438 2.1688136782 2.2420336073 2.2180155119 2.1135365906 2.0113648658 
1.9175667308 1.7978199941 1.6806252726 1.5852731043 1.5265539662 1.5136097715 1.4705816606 1.3838165526 1.4671132517 
1.5048272456 1.4756196828 1.3719988342 1.1888200356 1.0367996671 0.8931758427 1.1702852723 1.4122150352 1.568851332 
2.0312237151 1.9557597425 1.9103646659 1.8215306201 1.7603021825 1.6251095762 1.4852089917 1.3996163998 1.4705853364 
1.5443626512 1.5516093607 1.5193300831 1.4180590373 1.4245847713 1.4720420824 1.4958485151 1.5213463667 1.5372786944 
1.5622511821 1.6296516547 1.7427327351 1.6124664473 1.6889262576 1.5871488072 1.6242407808 1.7863041568 1.8248034428 
1.809348627 1.6382563778 1.5224666553 1.4604473024 1.4113582536 1.4071375049 1.3603836955 1.380850659 1.4257737755 
1.4222830211 1.4042733244 1.3385913613 1.3002014339 1.3231752921 1.4497797528 1.4330953491 1.113390337 1.1490945268 
1.0959792318 1.1600149477 1.2102538557 1.2392049746 1.3120290926 1.3706488024 1.553779729 1.7215872407 1.7421589301 
1.7399306482 1.8728950647 1.8206697684 1.9248994045 1.2745674399 1.3778898871 1.9527079235 1.876897671 2.0298010343 
2.1039428017 2.1292824294 2.1005991547 1.7926462143 1.5086035699 1.2854616199 1.2122529817 1.3295783778 1.4057188572 
1.4558931045 1.4884750419 1.5016214899 1.5508357482 1.6444739413 1.4514523842 1.5285734701 1.6095458973 1.6037182438 
1.674455032 1.8312640045 1.720586273 1.5858035006 1.5108002323 1.5800393397 1.7041116662 1.809703847 1.8548640623 
1.7153427482 1.5911440706 1.7690090835 1.9159365657 2.1103074181 2.1288651022 2.0963145892 2.0056232556 1.9171229482 
1.8320168277 1.752365395 1.620169535 1.5205631154 1.5388211442 1.5403038678 1.5380832431 1.5841097216 1.5836867901 
1.5970380724 1.5294963985 1.4419007688 1.3350853084 1.2845210841 1.205089031 1.3715306084 1.5597432458 1.6946771562 
1.7929568185 1.1931757996 1.330104313 1.0572637161 1.0200699732 1.0239224106 1.1095903524 1.1679136305 1.2154140977 
1.3158225418 1.4579482988 1.4997585969 1.5909740382 1.6806731572 1.7822584724 1.8726336957 2.1110331013 2.121590005 
1.9526480395 1.833971527 1.7449565987 1.6627950581 1.5433655223 1.6337549056 1.6808035002 1.7214743373 1.6795270455 
1.5798850866 1.4388811555 1.417659387 1.440309861 1.463328543 1.5021786301 1.5431042879 1.6265974256 1.7036704425 
1.8296776084 1.9928650213 2.1086728887 2.1158511218 1.9328135081 1.810557375 1.7359279583 1.6728609943 1.6850321302 
1.7708278238 1.7696754144 1.7456702632 1.5923810541 1.4623737528 1.361703463 1.3388227022 1.3427768592 1.3241367225 
1.3571819861 1.4097495612 1.4100310256 1.3833149183 1.3186972258 1.3159146726 1.3512269847 1.4454588195 1.4734240132 
1.4534192731 1.4433506627 1.2831938528 1.4300940627 1.1925364615 2.1002288504 1.9866415283 2.194890392 2.1658848833 
2.1090290935 1.8762993406 1.6144786821 1.3726721314 1.1813356807 1.347610667 1.5203472502 1.6302685002 1.7209245683 
1.735498093 1.7931537992 1.8969044509 1.5632516606 1.6006345165 1.6065178157 1.6618982744 1.7664802217 1.8909140121 
1.7632549408 1.609985788 1.5253284326 1.5819384802 1.6817180625 1.753365231 1.7825822736 1.6469731399 1.6118455086 
1.7776974469 1.9261961985 1.9822561325 1.9800731355 1.9610999109 1.9110017999 1.833087706 1.7423928452 1.6695779142 
1.5634277588 1.4590753651 1.5045059649 1.5223470623 1.5417349855 1.6057118158 1.6297118713 1.6057155198 1.4771627832 
1.4048039043 1.4029981368 1.4648624143 1.5347487827 1.6792221072 1.7682135923 1.7391028982 1.7713207545 1.8563024429 
1.7602346414 1.8116601585 1.0972968363 1.0672356991 1.0694042484 1.1787533411 1.26634537 1.3551379902 1.44883436 
1.5438419883 1.5579167027 1.5367624813 1.51247593 1.9185066714 1.6959992809 2.1844077978 2.0818413067 1.9653863777 
1.8594260728 1.7510948375 1.6714360067 1.6791339281 1.9041984667 1.9072337834 1.8646183427 1.777018283 1.6431037137 
1.5121772351 1.4437683512 1.4128069251 1.4259132904 1.4778491205 1.6298907316 1.7203155465 1.7777127871 1.8761500684 
2.0024591497 2.1374718674 2.1358255971 2.1213888319 2.1136043764 1.9863638675 1.8796495875 1.8331252683 1.7554664656 
1.7261257264 1.7583923757 1.7634657163 1.7436222047 1.6268766819 1.4741940741 1.3317603545 1.2882680749 1.3078376109 
1.3844438254 1.3880189358 1.3871660668 1.4233010998 1.437309676 1.3918944283 1.3822438214 1.3768288907 1.42340329 
1.4890540649 1.5506650617 1.5796131396 1.5636154404 1.4082769142 1.5753766411 1.2191544914 1.6867925154 1.5803747131 
1.7910054452 1.8050409976 1.74053819 1.6782741679 1.6560057402 1.6589695446 1.7527153284 1.8903293901 1.7418090473 
1.5656473075 1.4383511128 1.480658365 1.5712427165 1.6263898861 1.6909831292 1.6132608649 1.6481739171 1.7513239117 
1.7847260531 1.7995797614 1.8307098969 1.8409107058 1.8343794769 1.7562933705 1.6581368957 1.5817608841 1.5002131535 
1.4118912365 1.4418636867 1.4669690021 1.4779510465 1.5321571412 1.5508640487 1.5071280949 1.3747220401 1.2806882133 
1.3460870264 1.4932531363 1.6936647678 1.7765765585 1.7386202652 1.5994167817 1.6754657555 1.7950498365 1.9436060452 
2.0345965802 2.0687139174 2.0637790383 2.0581351112 1.8792691022 1.695336793 1.4848509649 1.3121173525 1.4826497038 
1.635902477 1.791817328 1.9140164602 1.8996094888 1.8709095679 1.8510248394 1.8264983498 1.7821913666 1.7795871218 
1.7899117051 1.775862408 1.2006102959 1.1982295983 1.3209559736 1.4761441698 1.509811613 1.5491877454 1.6036563651 
1.5973690243 1.5310171818 1.4117198341 1.3961440965 1.468555057 1.4472934788 1.5507692329 1.7309608222 1.9583042482 
2.0334123937 2.0063687146 1.9592489905 1.9060510258 1.8286928577 1.7801147858 1.8706082139 1.9752413466 1.8769306825 
1.9812646899 1.7384332348 1.6320051672 1.5393588567 1.4443864687 1.4093695963 1.4292593306 1.4866178528 1.8462094356 
1.7815273136 1.9958353334 1.9880259807 1.6320466488 1.5268259263 2.1684901472 2.012986108 2.1193206357 2.0291685328 
2.0076651853 2.0692091786 2.0659635562 1.9593357055 1.8361273579 1.7982181407 1.8050635059 1.7743076799 1.7326378054 
1.6480566053 1.5319349315 1.3779747132 1.3122126073 1.2938109121 1.4116722133 1.4725893866 1.4577558781 1.4882965149 
1.4974270262 1.4896296049 1.5225342934 1.5025421072 1.5542885213 1.5369836778 1.5842288961 1.6197102675 1.5434755619 
1.5763349041 1.3766208178 1.7368211314 1.6831389886 1.6525740027 1.6457102681 1.739898432 1.8676668523 1.6959986627 
1.5399806345 1.4382481945 1.4287458461 1.5032301586 1.5766188614 1.6065633174 1.6718153656 1.6436597707 1.7547606212 
1.7167905256 1.6922488966 1.7164268908 1.7288527953 1.7245298016 1.6518907909 1.5429958442 1.4971594722 1.4556394285 
1.3918535887 1.382241922 1.3839241959 1.409815437 1.4461907354 1.4704778888 1.416923134 1.293964132 1.2448166918 
1.28617134 1.4774188317 1.7088554316 1.6929484238 1.633777681 1.4819922711 1.5525842269 1.7052740981 1.8678434574 
1.9949564876 2.0824587258 2.1053055108 2.0705647581 1.9141205794 1.7868726313 1.6380041908 1.474740498 1.5458898195 
1.6684390273 1.722835223 1.8076741265 1.8531106905 1.8585828732 1.8359607836 1.7966403392 1.7699238951 1.7751150011 
1.8006306947 1.8361161848 1.7313595375 1.6238488629 1.5840240988 1.9432994733 1.8935766344 1.7966412739 1.8517594431 
1.7197965738 1.6193750676 1.5018672342 1.3519889684 1.3045626057 1.3121756075 1.423478711 1.5052963343 1.5297508131 
1.5356952089 1.5390558288 1.5469043977 1.5575383375 1.5692768782 1.572412459 1.398262339 1.4649359422 1.6169689602 
1.6266994846 1.5880279809 1.5568913842 1.5439811236 1.4947604776 1.4412030802 1.3846498281 1.4477356569 1.4345034281 
1.5092637451 1.3625876086 1.49366325 1.7555344611 1.8841922359 1.8790442462 1.8853977623 1.8246464151 1.8247647044 
1.9110592187 2.0125100644 2.0314076123 1.891193707 1.9028749571 1.9240846686 1.9216457681 1.7957581232 1.6494235599 
1.5427159276 2.1803296315 1.9909659192 2.1326653492 1.8423308434 1.8616155038 1.9960947293 1.6562869709 1.5916414612 
1.5736607268 1.670953728 1.7848072625 1.6216165244 1.4878288912 1.4785099633 1.4839476331 1.5070351284 1.5135000455 
1.6781663725 1.6431197049 1.6876670768 1.6363743513 1.5997576842 1.6429813236 1.6641685799 1.6527047928 1.5770748727 
1.4665836846 1.4560223725 1.429616952 1.375500109 1.4145107519 1.3603348377 1.3919598923 1.4042427627 1.4029092285 
1.353835727 1.3007978293 1.2775736917 1.2456006555 1.4761604644 1.6910617691 1.6710275088 1.645388717 1.5750740518 
1.7185217391 1.452927091 1.4955976115 1.8790349885 1.9010863584 1.2395398918 1.261493881 1.9675715302 2.0951699189 
2.1002789833 2.0325332427 1.8816550838 1.7565679184 1.6467175578 1.5328936748 1.5680410466 1.5870549886 1.6432821306 
1.6986718274 1.7499008269 1.7947897706 1.8043567339 1.7844927097 1.7570558857 1.7727808381 1.9526918406 1.4241200035 
1.4197550304 1.4261358997 1.436943654 1.4823297503 1.6086163078 1.5272208843 1.7726053854 1.573793253 1.6370618931 
1.5604172041 1.6012367422 1.6276327984 1.6218121828 1.5681492008 1.4254656995 1.5161494509 1.4671973189 1.4824239389 
1.5078650557 1.5921212264 1.6723678033 1.7269512844 1.7767402144 1.7483615665 1.8079057768 1.8317668604 1.794304412 
1.6895848282 1.5782666862 1.4910926418 1.777928066 1.7116131041 1.6127797384 1.6066110233 1.6719889399 1.5377477713 
1.3856227756 1.8066403383 1.8496594058 1.9130644593 1.9832260241 1.4469007354 1.540648468 1.6839839408 1.7639656458 
1.7677840462 1.7223769967 1.6631554308 1.573162263 1.4644196459 1.4104282384 1.4196965282 1.4439155252 1.4727323491 
1.4516569155 1.4388222511 1.448956273 1.6110222491 1.5644088088 1.5123352075 1.5208039895 1.6545818764 1.6336696943 
1.5746078734 1.6650419447 1.4842402923 1.4952639436 1.455095824 1.4221020225 1.4110522168 1.4109549299 1.3831872475 
1.3398478949 1.3271269805 1.3117210085 1.2793482135 1.2144292695 1.2488356954 1.1922699751 1.245622226 1.3032694635 
1.5094356366 1.7263085703 1.7985881785 1.8158783178 1.8684120715 1.9208169354 1.8696262131 1.8356829006 1.7677670784 
1.7289657794 1.6229042459 1.5331376577 1.4115567946 1.292150952 1.3881047499 1.303736044 1.4589297281 1.5254508066 
1.4976961914 1.4794235542 1.516282255 1.5399704862 1.5877264678 1.4798134866 1.4597379348 1.407018904 1.3566551838 
1.322681755 1.3836704011 1.3131827412 1.5296674098 1.6545938205 1.5254144658 1.6223988315 1.8218945514 1.677739307 
1.880935086 1.4504583889 1.4847610077 1.5491235004 1.613967994 1.6876346148 1.2422125007 1.2114359919 1.2405491435 
1.6040050021 1.6302919646 1.6135757177 1.5454906028 1.5445546799 1.5918398087 1.636770328 2.0300186769 1.5193556902 

STJ 1 1116 double
0 0 0 0 0 0 0 0 0 
0 0 0 0 0 0 0 0 0 
0 0 0 0 0 0 0 0 0 
0 0 0 0 0 0 0 0 0 
0 0 0 0 0 0 0 0 0 
0 0 0 0 0 0 0 0 0 
0 0 0 0 0 0 0 0 0 
0 0 0 0 0 0 0 0 0 
0 0 0 0 0 0 0 0 0 
0 0 0 0 0 0 0 0 0 
0 0 0 0 0 0 0 0 0 
0 0 0 0 0 0 0 0 0 
0 0 0 0 1 1 0 0 1 
0 1 0 1 0 1 0 1 0 
1 0 1 0 1 0 1 0 1 
0 1 0 1 0 1 0 1 0 
1 0 1 0 1 0 1 0 1 
0 1 0 1 0 1 0 1 0 
1 0 1 0 1 0 1 0 1 
0 1 0 1 0 0.99999998425 0 1.0000000999 0 
1.0000000372 0 1 0 1 0 1 0 1 
0 1 0 1 0 1 0 1 0 
1 0 1 0 1 0 1 0 1 
0 1 0 1 0 1 0 1 0 
1 0 1 0 1 0 1 0 1 
0 1 0 0 0 0 0 0 0 
0 0 0 0 0 0 0 0 0 
0 0 0 0 0 0 0 0 0 
0 0 0 0 0 0 0 0 0 
0 0 0 0 0 0 0 0 0 
0 0 0 0 0 0 0 0 0 
0 0 0 0 0 0 0 0 0 
0 0 0 0 0 0 0 0 0 
0 0 0 0 0 0 0 0 0 
0 0 0 0 0 0 0 0 0 
0 0 0 0 0 0 0 0 0 
0 0 0 0 0 0 0 0 0 
0 0 0 0 0 0 0 0 0 
0 0 0 0 0 0 0 0 0 
0 0 0 0 0 0 0 0 0 
0 0 0 0 0 0 0 0 0 
0 0 0 0 0 0 0 0 0 
0 0 0 0 0 0 0 0 0 
0 0 0 0 0 0 0 0 0 
0 0 0 0 0 0 0 0 0 
0 0 0 0 0 0 0 0 0 
0 0 0 0 0 0 0 0 0 
0 0 0 0 0 0 0 0 0 
0 0 0 0 0 0 0 0 0 
0 0 0 0 0 0 0 0 0 
0 0 0 0 0 0 0 0 0 
0 0 0 0 0 0 0 0 0 
0 0 0 0 0 0 0 0 0 
0 0 0 0 0 0 0 0 0 
0 0 0 0 0 0 0 0 0 
0 0 0 0 0 0 0 0 0 
0 0 0 0 0 0 0 0 0 
0 0 0 0 0 0 0 0 0 
0 0 0 0 0 0 0 0 0 
0 0 0 0 0 0 0 0 0 
0 0 0 0 0 0 0 0 0 
0 0 0 0 0 0 0 0 0 
0 0 0 0 0 0 0 0 0 
0 0 0 0 0 0 0 0 0 
0 0 0 0 0 0 0 0 0 
0 0 0 0 0 0 0 0 0 
0 0 0 0 0 0 0 0 0 
0 0 0 0 0 0 0 0 0 
0 0 0 0 0 0 0 0 0 
0 0 0 0 0 0 0 0 0 
0 0 0 0 0 0 0 0 0 
0 0 0 0 0 0 0 0 0 
0 0 0 0 0 0 0 0 0 
0 0 0 0 0 0 0 0 0 
0 0 0 0 0 0 0 0 0 
0 0 0 0 0 0 0 0 0 
0 0 0 0 0 0 0 0 0 
0 0 0 0 0 0 0 0 0 
0 0 0 0 0 0 0 0 0 
0 0 0 0 0 0 0 0 0 
0 0 0 0 0 0 0 0 0 
0 0 0 0 0 0 0 0 0 
0 0 0 0 0 0 0 0 0 
0 0 0 0 0 0 0 0 0 
0 0 0 0 0 0 0 0 0 
0 0 0 0 0 0 0 0 0 
0 0 0 0 0 0 0 0 0 
0 0 0 0 0 0 0 0 0 
0 0 0 0 0 0 0 0 0 
0 0 0 0 0 0 0 0 0 
0 0 0 0 0 0 0 0 0 
0 0 0 0 0 0 0 0 0 
0 0 0 0 0 0 0 0 0 
0 0 0 0 0 0 0 0 0 
0 0 0 0 0 0 0 0 0 
0 0 0 0 0 0 0 0 0 
0 0 0 0 0 0 0 0 0 
0 0 0 0 0 0 0 0 0 
0 0 0 0 0 0 0 0 0 
0 0 0 0 0 0 0 0 0 
0 0 0 0 0 0 0 0 0 
0 0 0 0 0 0 0 0 0 
0 0 0 0 0 0 0 0 0 
0 0 0 0 0 0 0 0 0 
0 0 0 0 0 0 0 0 0 
0 0 0 0 0 0 0 0 0 
0 0 0 0 0 0 0 0 0 
0 0 0 0 0 0 0 0 0 
0 0 0 0 0 0 0 0 0 
0 0 0 0 0 0 0 0 0 
0 0 0 0 0 0 0 0 0 
0 0 0 0 0 0 0 0 0 
0 0 0 0 0 0 0 0 0 
0 0 0 0 0 0 0 0 0 
0 0 0 0 0 0 0 0 0 
0 0 0 0 0 0 0 0 0 
0 0 0 0 0 0 0 0 0 
0 0 0 0 0 0 0 0 0 
0 0 0 0 0 0 0 0 0 
0 0 0 0 0 0 0 0 0 
0 0 0 0 0 0 0 0 0 
0 0 0 0 0 0 0 0 0 
0 0 0 0 0 0 0 0 0 
0 0 0 0 0 0 0 0 0 

Thickness 1 1116 double
3.0670925725 3.0670925725 2.767567067 2.4100975711 3.0670925725 2.9433842124 3.0670925725 2.98414115 3.0670925725 
3.033567274 3.0670925725 3.0781044059 3.0670925725 3.1931086065 3.0670925725 3.1768537203 3.0670925725 2.9824256829 
3.0670925725 2.7796577579 3.0670925725 2.6652920329 3.0670925725 2.5796032105 3.0670925725 2.7396400706 3.0670925725 
2.8023070154 3.0670925725 2.8994454155 3.0670925725 2.9542265673 3.0670925725 2.9606338972 3.0670925725 2.7818266259 
3.0670925725 2.6426472334 3.0670925725 2.5447037124 3.0670925725 2.4911963603 3.0670925725 2.4397432863 3.0670925725 
2.5155741932 3.0670925725 2.5142713078 3.0670925725 2.5417538591 3.0670925725 2.7835287128 3.0670925725 3.0922217471 
3.0670925725 3.5019760417 3.0670925725 3.6195749864 3.0670925725 3.3799093422 3.0670925725 3.0888853333 3.0670925725 
2.8758747951 3.0670925725 2.7789987066 3.0670925725 2.7214426189 3.0670925725 2.6397113543 3.0670925725 2.5459378964 
3.0670925725 2.503392318 3.0670925725 2.4858509151 3.0670925725 2.4926154663 3.0670925725 2.5136460208 3.0670925725 
2.4955851504 3.0670925725 2.2481915333 3.0670931903 2.2613798825 3.0670939246 2.3321736073 3.0670945033 2.4404533883 
3.067093824 2.3543608619 3.0670929879 2.2916937323 3.0670925725 2.2199136125 3.0670925725 2.0678353969 3.0670925725 
2.0377643431 3.0670925725 2.0493840583 3.0670925725 2.234662216 3.0670925725 2.5202563889 3.0670925725 2.9724869928 
3.0670925725 3.0539435752 3.0670925725 2.9096352017 3.0670925725 3.0670925725 2.6221583415 2.3388691527 3.0670925725 
2.8568205788 3.0670925725 2.9090919006 3.0670925725 3.0629609683 3.0670925725 3.2475631387 3.0670925725 3.3148092255 
3.0670925725 3.2767608632 3.0670925725 2.8615226765 3.0670925725 2.5253885106 3.0670925725 2.3123822896 3.0670925725 
2.1488779362 3.0670925725 2.4151931947 3.0670925725 2.5993942859 3.0670925725 2.6866443013 3.0670925725 2.7447509614 
3.0670925725 2.8006918782 3.0670925725 2.6165336859 3.0670925725 2.4609720818 3.0670925725 2.6162506913 3.0670925725 
2.7821821215 3.0670925725 2.9910794443 3.0670925725 2.9096559845 3.0670925725 2.9985235284 3.0670925725 3.3267063518 
3.0670925725 3.1741703872 3.0670925725 3.0216043313 3.0670925725 2.7656329363 3.0670925725 2.8731443452 3.0670925725 
3.143835036 3.0670925725 3.535171561 3.0670925725 3.6997439541 3.06709256 3.5990174472 3.0670926513 3.3456789032 
3.067092598 3.4539959629 3.0670925725 3.7249427054 3.0670925725 4.1293011832 3.0670925725 4.3072420683 3.0670925725 
4.3480000985 3.0670925725 4.0949260774 3.0670925725 3.9343356836 3.0670925725 3.7169606635 3.0670925725 3.4682000386 
3.0670925725 3.257540522 3.0670925725 3.0897087157 3.0670925725 2.9407108903 3.0670925725 2.9129859611 3.0670925725 
2.7565811861 3.0670925725 2.454085542 3.0670925725 2.5797052848 3.0670925725 2.7218426895 3.0670925725 2.7306356815 
3.0670925725 2.5458122358 3.0670925725 2.2694997262 3.0670925725 1.9967716759 3.0670925725 1.7206697272 3.0670925725 
2.1482892236 3.0670925725 2.4396098406 3.553368212 3.4220468964 3.6159448643 3.4609382456 3.4027842227 3.457127472 
3.3005259389 3.0498692577 2.7621511386 2.6321399267 2.6296349375 2.7423375995 2.8109991504 2.8825070378 2.9727188001 
3.0546258888 3.0730789863 3.0801181567 3.0609791227 3.0402096862 2.9982955715 3.1936388592 3.0946754755 2.9924773017 
3.0209479756 3.2097908243 3.5838456091 3.7647104256 3.571691249 3.2518248064 3.0715487999 3.0326283534 2.9596901833 
2.8667864854 2.7287752145 2.7964181638 2.806435264 2.7669266312 2.711191276 2.689321213 2.5353456903 2.5802565244 
2.6952485052 2.7349645492 2.5364564451 2.5276242619 2.5269090702 2.4758133711 2.4335586024 2.3813715527 2.4348212974 
2.6693593377 3.2696536744 3.5945411412 3.4429991594 3.0836880497 3.4070675189 3.3005237846 3.4487358835 3.6380053384 
3.8031245842 3.8807581836 3.8701768668 3.3591822903 2.870486768 2.6346643867 2.4721787386 2.6211452684 2.7597385368 
2.8641163916 2.9189494006 2.9628085592 2.9013423441 2.8701679571 2.7931169159 2.9250427866 3.1141730438 3.0517262093 
3.2325775659 3.6064420322 3.3790735879 3.1098696381 2.8772902269 3.0398048356 3.3803610664 3.6516222856 3.8068245821 
3.6172084892 3.267390213 3.3944050391 3.8156451581 4.3376271007 4.4840675297 4.4360312499 4.2270733204 4.0227301645 
3.8351334616 3.5956399882 3.3612499689 3.1705456427 3.053108538 3.0272202858 2.9411639294 2.7676335206 2.9342270357 
3.0096537461 2.9512386943 2.7439977607 2.3776401677 2.0735992705 1.7863516868 2.3405705445 2.8244298197 3.137702664 
4.0624473054 3.9115193067 3.8207293318 3.6430609739 3.5206037303 3.2502194109 2.9704188267 2.7992329795 2.9411705037 
3.0887254334 3.1032194299 3.0386601219 2.8361175985 2.8491692009 2.9440839723 2.9916971046 3.0426933348 3.0745573411 
3.1245014085 3.2593026076 3.4854654701 3.224932989 3.3778533484 3.174297709 3.2484815616 3.5726083135 3.6496069358 
3.6186974004 3.2765130975 3.044933318 2.920894178 2.8227165073 2.8142750098 2.7207673911 2.7617011361 2.85154686 
2.8445654252 2.8085464502 2.6771831164 2.600403188 2.6463505565 2.8995586612 2.8661903376 2.2267801814 2.2981883572 
2.1919586064 2.3200294145 2.4205070442 2.4784099549 2.6240579022 2.7412966882 3.1075592505 3.4431749197 3.4843184279 
3.4798617609 3.7457902121 3.6413396108 3.8497990515 2.5491348798 2.7557801237 3.9054163059 3.7537955092 4.0596018337 
4.207885161 4.2585646762 4.2011982298 3.5852918491 3.017206493 2.5709232398 2.4245059634 2.6591567557 2.8114375874 
2.9117855589 2.9769493056 3.0032427656 3.1016719343 3.2889477158 2.9029046928 3.0571464076 3.2190910811 3.2074369627 
3.3489102905 3.6625272382 3.4411716819 3.1716060397 3.0215995039 3.1600776795 3.4082230123 3.6194076137 3.7097280071 
3.4306856926 3.1822880108 3.5380175947 3.8318725234 4.2206142455 4.2577300239 4.1926285821 4.0112462549 3.8342459131 
3.66403371 3.5047309259 3.2403385474 3.04112567 3.0776422772 3.0806076494 3.0761665326 3.1682196199 3.1673737198 
3.1940761449 3.0589927969 2.8838013561 2.6701698552 2.5690415049 2.410177963 2.7430606566 3.1194859271 3.3893533244 
3.5859131661 2.3863521045 2.6602087406 2.1145274906 2.0401394246 2.0478440134 2.2191800546 2.3358271895 2.4308289742 
2.6316458245 2.9158972815 2.9995174796 3.1819479515 3.3613454079 3.5645170285 3.745267835 4.2220664379 4.2431800101 
3.9052960791 3.667943054 3.4899131973 3.3255902372 3.0867318562 3.2675099706 3.3616065021 3.4429485153 3.3590535941 
3.1597699116 2.8777623109 2.835318774 2.8806198138 2.9266573955 3.0043580058 3.086208602 3.2531944655 3.4073404837 
3.659355532 3.985729724 4.2173450778 4.2317019782 3.8656272669 3.6211157499 3.4718569166 3.3457226683 3.3700643457 
3.5416552951 3.5393504713 3.4913407282 3.1847614885 2.92474666 2.7234060982 2.6776449656 2.6855537184 2.6482735929 
2.7143637859 2.8194990878 2.8200620513 2.7666297722 2.637394485 2.6318287667 2.7024532466 2.8909177959 2.9468480264 
2.9068378812 2.8867009911 2.5663868581 2.8601880774 2.3850729057 4.2004567009 3.9732828716 4.3897797839 4.3317692944 
4.2180582554 3.7525989647 3.2289574367 2.7453447482 2.3626721007 2.6952212859 3.0406935629 3.2605365718 3.4418491367 
3.4709965931 3.5863083488 3.7938097841 3.1265028061 3.2012693968 3.2130351843 3.3237958081 3.5329597607 3.7818279468 
3.5265092681 3.2199706215 3.0506565814 3.1638769605 3.3634363745 3.5067304777 3.5651639193 3.2939452799 3.2236902779 
3.555395157 3.8523930188 3.9645128532 3.960147271 3.9222004004 3.8220034231 3.6661758431 3.4847859977 3.3391553935 
3.1268552846 2.9181507302 3.0090117048 3.0446935149 3.0834699709 3.2114231257 3.2594232277 3.2114313444 2.9543260233 
2.8096082514 2.8059966153 2.9297250093 3.0694982752 3.3584445158 3.5364273543 3.4782065689 3.5426416601 3.7126050389 
3.520470233 3.6233204759 2.1945933195 2.1344709191 2.1388080178 2.3575071623 2.5326914032 2.7102762235 2.89766872 
3.0876839766 3.1158334055 3.0735249627 3.02495186 3.8370128248 3.3919982869 4.3688155752 4.1636824784 3.9307724396 
3.7188517361 3.502189478 3.3428720135 3.3582673599 3.8083959528 3.8144674526 3.7292371324 3.5540368751 3.2862081103 
3.0243552806 2.8875373347 2.825613616 2.8518260895 2.9556982213 3.2597814632 3.4406309452 3.5554256195 3.7523007866 
4.0049175626 4.274943493 4.2716513482 4.2427775025 4.2272090733 3.9727270909 3.759298979 3.6662501787 3.5109327411 
3.4522512937 3.5167846509 3.5269306084 3.4872442871 3.2537534084 2.9483880997 2.6635212717 2.5765370093 2.615676044 
2.7688877545 2.7760370461 2.7743316987 2.8466020105 2.874619105 2.7837897953 2.7644882115 2.7536583871 2.8468069307 
2.9781075537 3.1013304146 3.1592268226 3.1272308809 2.8165537057 3.1507538509 2.4383081652 3.3735850308 3.1607493965 
3.5820107696 3.6100812528 3.4810762642 3.3565481371 3.3120111728 3.3179385887 3.5054304109 3.7806590544 3.4836178207 
3.1312941667 2.876701341 2.9613166049 3.1424860314 3.2527803701 3.3819655282 3.2265212675 3.2963475291 3.5026476934 
3.5694526497 3.5991605228 3.6614202105 3.6818215767 3.6687590391 3.5125865443 3.3162727914 3.1635214415 3.000426307 
2.823782473 2.8837273734 2.9339380043 2.9559026294 3.0643147018 3.1017283155 3.0142564892 2.7494442375 2.5613766607 
2.692174449 2.9865065453 3.3873295356 3.553153117 3.4772403333 3.1988330865 3.3509308247 3.5900986928 3.8872111979 
4.0691923777 4.1374272442 4.1275580766 4.1162702766 3.7585383357 3.3906738181 2.9697019298 2.6242346758 2.965298888 
3.2718043625 3.5836346157 3.8280329204 3.7992189775 3.7418192121 3.7020495702 3.6529959176 3.5643823831 3.5591733412 
3.5798231347 3.5517240893 2.4012195917 2.3964581966 2.6419110636 2.9522873397 3.0196225413 3.0983749764 3.2073120811 
3.1947373399 3.0620337393 2.8234403018 2.7922879287 2.9371095049 2.894587646 3.1015379439 3.4619209803 3.9166083249 
4.0668247874 4.0127371748 3.9184971359 3.8121012689 3.6573853396 3.5602294407 3.7412157703 3.95048243 3.7538623649 
3.9625300821 3.4768674696 3.264010607 3.0787174132 2.8887723979 2.8187393343 2.8585193816 2.9732362346 3.6924186948 
3.5630550319 3.9916704561 3.9760519956 3.2640935752 3.0536521117 4.3369794234 4.0259723985 4.2386410914 4.0583367969 
4.0153303706 4.1384186914 4.13192798 3.9186713094 3.6722545787 3.5964366854 3.6101272569 3.5486153598 3.4652754176 
3.2961124928 3.063868863 2.7559487574 2.6244254265 2.5876218385 2.8233446784 2.9451791767 2.9155119629 2.976593447 
2.9948542753 2.9792593412 3.0450685391 3.0050838584 3.1085773072 3.0739673557 3.1684582122 3.2394208919 3.0869520255 
3.152669823 2.7532413933 3.4736418113 3.3662778879 3.3051483198 3.2914212123 3.4797965994 3.7353337962 3.3919976796 
3.079960934 2.8764956556 2.8574906923 3.0064604634 3.1532384054 3.2131262172 3.3436312302 3.2873205058 3.5095212453 
3.4335811779 3.384497736 3.4328537478 3.4577057064 3.449060152 3.3037820238 3.0859917138 2.994319753 2.9112786876 
2.7837067438 2.7644829846 2.7678476608 2.8196308601 2.8923817203 2.9409557776 2.8338462526 2.587928264 2.4896331528 
2.5723418789 2.9548370861 3.4177105323 3.3858968123 3.2675560021 2.9639845513 3.1051686428 3.4105486649 3.7356869149 
3.9899129753 4.1649174515 4.2106105676 4.1411290648 3.8282406959 3.5737446281 3.2760079825 2.949480996 3.091779639 
3.3368780546 3.445670446 3.615348253 3.706221381 3.7171657464 3.6719211247 3.5932801024 3.5398483729 3.5502298743 
3.6012612803 3.6722322963 3.4627183682 3.2476977707 3.1680475157 3.8865997339 3.7871532159 3.5932827089 3.7035195161 
3.4395928392 3.238749343 3.0037337678 2.703977972 2.6091259305 2.6243521715 2.8469569533 3.0105925606 3.0595026262 
3.0713903324 3.078110896 3.0938087636 3.1150759423 3.1385531528 3.1448246667 2.796524717 2.9298717451 3.2339373516 
3.253398524 3.1760557758 3.1137835324 3.0879627829 2.9895211332 2.8824061604 2.7692996257 2.8954707985 2.8690059689 
3.0185277471 2.7251752183 2.9873267799 3.5110695468 3.7683847695 3.7580884924 3.770795426 3.6492928301 3.6495298224 
3.8221192745 4.0250207366 4.0628155396 3.7823883502 3.8057509141 3.8481684123 3.8432912912 3.5915167358 3.2988480552 
3.0854320368 4.3606591271 3.9819318349 4.2653306983 3.6846616867 3.7232310075 3.992188554 3.3125735854 3.1832829224 
3.1473215765 3.341907258 3.5696146133 3.243233218 2.9756572162 2.9570201449 2.9678952662 3.0140702568 3.027000091 
3.3563331563 3.2862396762 3.3753347621 3.272749692 3.1995157539 3.2859620427 3.3283367129 3.3054095856 3.1541498867 
2.933168225 2.9120452458 2.8592336664 2.750999218 2.8290211285 2.7206690256 2.7839204448 2.8084857957 2.8058176606 
2.7076711584 2.6015963716 2.5551472192 2.4912004448 2.9523206459 3.3821231072 3.3420545688 3.2907771251 3.1501482744 
3.4370441703 2.9058538972 2.991195223 3.7580707084 3.8021724002 2.4790796326 2.5229879304 3.9351430604 4.1903398378 
4.2005579665 4.0650664554 3.7633101675 3.5131358367 3.2934351157 3.0657873496 3.1360820932 3.1741099771 3.2865642612 
3.3973436549 3.4998013299 3.5895787787 3.6087125064 3.5689852945 3.5141124047 3.5455611838 3.9053843181 2.8482399772 
2.8395095391 2.8522721615 2.8738875925 2.9646601914 3.21723272 3.0544417685 3.5452103143 3.1475867643 3.2741244904 
3.1208344082 3.2024734843 3.2552657314 3.2436249935 3.1362992077 2.8509317371 3.0322989018 2.9343947353 2.96484846 
3.0157309447 3.1842423619 3.344734737 3.4539021073 3.5534803226 3.4967230017 3.6158121633 3.6635334676 3.5886083957 
3.3791700048 3.1565340424 2.9821849977 3.5558561477 3.4232264379 3.2255596183 3.2132220466 3.3439782132 3.0754963968 
2.7712464581 3.6132807396 3.6993185181 3.8261279264 3.9664519312 2.8938005255 3.0812965452 3.3679680493 3.5279322023 
3.5355681283 3.4447537817 3.3263101178 3.1463238765 2.9288394802 2.8208571672 2.8393936396 2.8878313387 2.945464687 
2.9033138309 2.8776447513 2.8979134005 3.2220438649 3.1288174722 3.024670985 3.0416085639 3.3091638749 3.2673393887 
3.1492157468 3.3300847347 2.9684815845 2.9905276698 2.9101914759 2.8442036457 2.8221041269 2.8219097441 2.7663741718 
2.6796949452 2.654253868 2.6234423991 2.5586963401 2.4288586467 2.4976712798 2.3845399033 2.4912439475 2.6065379511 
3.0188714491 3.4526179636 3.5971764283 3.6317568433 3.7368248346 3.8416340688 3.7392526183 3.6713659626 3.5355349067 
3.4579320143 3.2458083319 3.0662752223 2.8231136752 2.5843023629 2.7762084999 2.6074711769 2.9178589841 3.0509022863 
2.99539291 2.9588471083 3.0325639432 3.079940118 3.1754529355 2.9596277891 2.9194765596 2.8140379992 2.7133102532 
2.6453632974 2.7673398692 2.6263650983 3.0593348202 3.3091883666 3.0508289514 3.2447970366 3.6437890644 3.3554778247 
3.7618703055 2.9009169425 2.9695219688 3.0982474143 3.2279368731 3.3752696183 2.4844259153 2.422872582 2.4810985244 
3.2080094347 3.2605839013 3.2271515678 3.0909812057 3.0891093597 3.1836796175 3.2735402325 4.0600373538 3.0387119016 

Total_Motion 1 1116 double
0 0 0 0 0 0 0 0 0 
0 0 0 0 0 0 0 0 0 
0 0 0 0 0 0 0 0 0 
0 0 0 0 0 0 0 0 0 
0 0 0 0 0 0 0 0 0 
0 0 0 0 0 0 0 0 0 
0 0 0 0 0 0 0 0 0 
0 0 0 0 0 0 0 0 0 
0 0 0 0 0 0 0 0 0 
0 0 0 0 0 0 0 0 0 
0 0 0 0 0 0 0 0 0 
0 0 0 0 0 0 0 0 0 
0 0 0 0 0 0 0 0 0 
0 0 0 0 0 0 0 0 0 
0 0 0 0 0 0 0 0 0 
0 0 0 0 0 0 0 0 0 
0 0 0 0 0 0 0 0 0 
0 0 0 0 0 0 0 0 0 
0 0 0 0 0 0 0 0 0 
0 0 0 0 0 0 0 0 0 
0 0 0 0 0 0 0 0 0 
0 0 0 0 0 0 0 0 0 
0 0 0 0 0 0 0 0 0 
0 0 0 0 0 0 0 0 0 
0 0 0 0 0 0 0 0 0 
0 0 0 0 0 0 0 0 0 
0 0 0 0 0 0 0 0 0 
0 0 0 0 0 0 0 0 0 
0 0 0 0 0 0 0 0 0 
0 0 0 0 0 0 0 0 0 
0 0 0 0 0 0 0 0 0 
0 0 0 0 0 0 0 0 0 
0 0 0 0 0 0 0 0 0 
0 0 0 0 0 0 0 0 0 
0 0 0 0 0 0 0 0 0 
0 0 0 0 0 0 0 0 0 
0 0 0 0 0 0 0 0 0 
0 0 0 0 0 0 0 0 0 
0 0 0 0 0 0 0 0 0 
0 0 0 0 0 0 0 0 0 
0 0 0 0 0 0 0 0 0 
0 0 0 0 0 0 0 0 0 
0 0 0 0 0 0 0 0 0 
0 0 0 0 0 0 0 0 0 
0 0 0 0 0 0 0 0 0 
0 0 0 0 0 0 0 0 0 
0 0 0 0 0 0 0 0 0 
0 0 0 0 0 0 0 0 0 
0 0 0 0 0 0 0 0 0 
0 0 0 0 0 0 0 0 0 
0 0 0 0 0 0 0 0 0 
0 0 0 0 0 0 0 0 0 
0 0 0 0 0 0 0 0 0 
0 0 0 0 0 0 0 0 0 
0 0 0 0 0 0 0 0 0 
0 0 0 0 0 0 0 0 0 
0 0 0 0 0 0 0 0 0 
0 0 0 0 0 0 0 0 0 
0 0 0 0 0 0 0 0 0 
0 0 0 0 0 0 0 0 0 
0 0 0 0 0 0 0 0 0 
0 0 0 0 0 0 0 0 0 
0 0 0 0 0 0 0 0 0 
0 0 0 0 0 0 0 0 0 
0 0 0 0 0 0 0 0 0 
0 0 0 0 0 0 0 0 0 
0 0 0 0 0 0 0 0 0 
0 0 0 0 0 0 0 0 0 
0 0 0 0 0 0 0 0 0 
0 0 0 0 0 0 0 0 0 
0 0 0 0 0 0 0 0 0 
0 0 0 0 0 0 0 0 0 
0 0 0 0 0 0 0 0 0 
0 0 0 0 0 0 0 0 0 
0 0 0 0 0 0 0 0 0 
0 0 0 0 0 0 0 0 0 
0 0 0 0 0 0 0 0 0 
0 0 0 0 0 0 0 0 0 
0 0 0 0 0 0 0 0 0 
0 0 0 0 0 0 0 0 0 
0 0 0 0 0 0 0 0 0 
0 0 0 0 0 0 0 0 0 
0 0 0 0 0 0 0 0 0 
0 0 0 0 0 0 0 0 0 
0 0 0 0 0 0 0 0 0 
0 0 0 0 0 0 0 0 0 
0 0 0 0 0 0 0 0 0 
0 0 0 0 0 0 0 0 0 
0 0 0 0 0 0 0 0 0 
0 0 0 0 0 0 0 0 0 
0 0 0 0 0 0 0 0 0 
0 0 0 0 0 0 0 0 0 
0 0 0 0 0 0 0 0 0 
0 0 0 0 0 0 0 0 0 
0 0 0 0 0 0 0 0 0 
0 0 0 0 0 0 0 0 0 
0 0 0 0 0 0 0 0 0 
0 0 0 0 0 0 0 0 0 
0 0 0 0 0 0 0 0 0 
0 0 0 0 0 0 0 0 0 
0 0 0 0 0 0 0 0 0 
0 0 0 0 0 0 0 0 0 
0 0 0 0 0 0 0 0 0 
0 0 0 0 0 0 0 0 0 
0 0 0 0 0 0 0 0 0 
0 0 0 0 0 0 0 0 0 
0 0 0 0 0 0 0 0 0 
0 0 0 0 0 0 0 0 0 
0 0 0 0 0 0 0 0 0 
0 0 0 0 0 0 0 0 0 
0 0 0 0 0 0 0 0 0 
0 0 0 0 0 0 0 0 0 
0 0 0 0 0 0 0 0 0 
0 0 0 0 0 0 0 0 0 
0 0 0 0 0 0 0 0 0 
0 0 0 0 0 0 0 0 0 
0 0 0 0 0 0 0 0 0 
0 0 0 0 0 0 0 0 0 
0 0 0 0 0 0 0 0 0 
0 0 0 0 0 0 0 0 0 
0 0 0 0 0 0 0 0 0 
0 0 0 0 0 0 0 0 0 
0 0 0 0 0 0 0 0 0 
0 0 0 0 0 0 0 0 0 

VAJ 1 1116 double
1 1 0 0 1 0 1 0 1 
0 1 0 1 0 1 0 1 0 
1 0 1 0 1 0 1 0 1 
0 1 0 1 0 1 0 1 0 
1 0 1 0 1 0 1 0 1 
0 1 0 1 0 1 0 1 0 
1 0 1 0 1 0 1 0 1 
0 1 0 1 0 1 0 1 0 
1 0 1 0 1 0 1 0 1 
0 1 0 1.0000004533 0 1.0000009635 0 1.0000013758 0 
1.0000010013 0 1.0000003375 0 1 0 1 0 1 
0 1 0 1 0 1 0 1 0 
1 0 1 0 0 0 0 0 0 
0 0 0 0 0 0 0 0 0 
0 0 0 0 0 0 0 0 0 
0 0 0 0 0 0 0 0 0 
0 0 0 0 0 0 0 0 0 
0 0 0 0 0 0 0 0 0 
0 0 0 0 0 0 0 0 0 
0 0 0 0 0 0 0 0 0 
0 0 0 0 0 0 0 0 0 
0 0 0 0 0 0 0 0 0 
0 0 0 0 0 0 0 0 0 
0 0 0 0 0 0 0 0 0 
0 0 0 0 0 0 0 0 0 
0 0 0 0 0 0 0 0 0 
0 0 0 0 0 0 0 0 0 
0 0 0 0 0 0 0 0 0 
0 0 0 0 0 0 0 0 0 
0 0 0 0 0 0 0 0 0 
0 0 0 0 0 0 0 0 0 
0 0 0 0 0 0 0 0 0 
0 0 0 0 0 0 0 0 0 
0 0 0 0 0 0 0 0 0 
0 0 0 0 0 0 0 0 0 
0 0 0 0 0 0 0 0 0 
0 0 0 0 0 0 0 0 0 
0 0 0 0 0 0 0 0 0 
0 0 0 0 0 0 0 0 0 
0 0 0 0 0 0 0 0 0 
0 0 0 0 0 0 0 0 0 
0 0 0 0 0 0 0 0 0 
0 0 0 0 0 0 0 0 0 
0 0 0 0 0 0 0 0 0 
0 0 0 0 0 0 0 0 0 
0 0 0 0 0 0 0 0 0 
0 0 0 0 0 0 0 0 0 
0 0 0 0 0 0 0 0 0 
0 0 0 0 0 0 0 0 0 
0 0 0 0 0 0 0 0 0 
0 0 0 0 0 0 0 0 0 
0 0 0 0 0 0 0 0 0 
0 0 0 0 0 0 0 0 0 
0 0 0 0 0 0 0 0 0 
0 0 0 0 0 0 0 0 0 
0 0 0 0 0 0 0 0 0 
0 0 0 0 0 0 0 0 0 
0 0 0 0 0 0 0 0 0 
0 0 0 0 0 0 0 0 0 
0 0 0 0 0 0 0 0 0 
0 0 0 0 0 0 0 0 0 
0 0 0 0 0 0 0 0 0 
0 0 0 0 0 0 0 0 0 
0 0 0 0 0 0 0 0 0 
0 0 0 0 0 0 0 0 0 
0 0 0 0 0 0 0 0 0 
0 0 0 0 0 0 0 0 0 
0 0 0 0 0 0 0 0 0 
0 0 0 0 0 0 0 0 0 
0 0 0 0 0 0 0 0 0 
0 0 0 0 0 0 0 0 0 
0 0 0 0 0 0 0 0 0 
0 0 0 0 0 0 0 0 0 
0 0 0 0 0 0 0 0 0 
0 0 0 0 0 0 0 0 0 
0 0 0 0 0 0 0 0 0 
0 0 0 0 0 0 0 0 0 
0 0 0 0 0 0 0 0 0 
0 0 0 0 0 0 0 0 0 
0 0 0 0 0 0 0 0 0 
0 0 0 0 0 0 0 0 0 
0 0 0 0 0 0 0 0 0 
0 0 0 0 0 0 0 0 0 
0 0 0 0 0 0 0 0 0 
0 0 0 0 0 0 0 0 0 
0 0 0 0 0 0 0 0 0 
0 0 0 0 0 0 0 0 0 
0 0 0 0 0 0 0 0 0 
0 0 0 0 0 0 0 0 0 
0 0 0 0 0 0 0 0 0 
0 0 0 0 0 0 0 0 0 
0 0 0 0 0 0 0 0 0 
0 0 0 0 0 0 0 0 0 
0 0 0 0 0 0 0 0 0 
0 0 0 0 0 0 0 0 0 
0 0 0 0 0 0 0 0 0 
0 0 0 0 0 0 0 0 0 
0 0 0 0 0 0 0 0 0 
0 0 0 0 0 0 0 0 0 
0 0 0 0 0 0 0 0 0 
0 0 0 0 0 0 0 0 0 
0 0 0 0 0 0 0 0 0 
0 0 0 0 0 0 0 0 0 
0 0 0 0 0 0 0 0 0 
0 0 0 0 0 0 0 0 0 
0 0 0 0 0 0 0 0 0 
0 0 0 0 0 0 0 0 0 
0 0 0 0 0 0 0 0 0 
0 0 0 0 0 0 0 0 0 
0 0 0 0 0 0 0 0 0 
0 0 0 0 0 0 0 0 0 
0 0 0 0 0 0 0 0 0 
0 0 0 0 0 0 0 0 0 
0 0 0 0 0 0 0 0 0 
0 0 0 0 0 0 0 0 0 
0 0 0 0 0 0 0 0 0 
0 0 0 0 0 0 0 0 0 
0 0 0 0 0 0 0 0 0 
0 0 0 0 0 0 0 0 0 
0 0 0 0 0 0 0 0 0 
0 0 0 0 0 0 0 0 0 
0 0 0 0 0 0 0 0 0 
0 0 0 0 0 0 0 0 0 
0 0 0 0 0 0 0 0 0 

vtkValidPointMask 1 1116 char
1 1 1 1 1 1 1 1 1 
1 1 1 1 1 1 1 1 1 
1 1 1 1 1 1 1 1 1 
1 1 1 1 1 1 1 1 1 
1 1 1 1 1 1 1 1 1 
1 1 1 1 1 1 1 1 1 
1 1 1 1 1 1 1 1 1 
1 1 1 1 1 1 1 1 1 
1 1 1 1 1 1 1 1 1 
1 1 1 1 1 1 1 1 1 
1 1 1 1 1 1 1 1 1 
1 1 1 1 1 1 1 1 1 
1 1 1 1 1 1 1 1 1 
1 1 1 1 1 1 1 1 1 
1 1 1 1 1 1 1 1 1 
1 1 1 1 1 1 1 1 1 
1 1 1 1 1 1 1 1 1 
1 1 1 1 1 1 1 1 1 
1 1 1 1 1 1 1 1 1 
1 1 1 1 1 1 1 1 1 
1 1 1 1 1 1 1 1 1 
1 1 1 1 1 1 1 1 1 
1 1 1 1 1 1 1 1 1 
1 1 1 1 1 1 1 1 1 
1 1 1 1 1 1 1 1 1 
1 1 1 1 1 1 1 1 1 
1 1 1 1 1 1 1 1 1 
1 1 1 1 1 1 1 1 1 
1 1 1 1 1 1 1 1 1 
1 1 1 1 1 1 1 1 1 
1 1 1 1 1 1 1 1 1 
1 1 1 1 1 1 1 1 1 
1 1 1 1 1 1 1 1 1 
1 1 1 1 1 1 1 1 1 
1 1 1 1 1 1 1 1 1 
1 1 1 1 1 1 1 1 1 
1 1 1 1 1 1 1 1 1 
1 1 1 1 1 1 1 1 1 
1 1 1 1 1 1 1 1 1 
1 1 1 1 1 1 1 1 1 
1 1 1 1 1 1 1 1 1 
1 1 1 1 1 1 1 1 1 
1 1 1 1 1 1 1 1 1 
1 1 1 1 1 1 1 1 1 
1 1 1 1 1 1 1 1 1 
1 1 1 1 1 1 1 1 1 
1 1 1 1 1 1 1 1 1 
1 1 1 1 1 1 1 1 1 
1 1 1 1 1 1 1 1 1 
1 1 1 1 1 1 1 1 1 
1 1 1 1 1 1 1 1 1 
1 1 1 1 1 1 1 1 1 
1 1 1 1 1 1 1 1 1 
1 1 1 1 1 1 1 1 1 
1 1 1 1 1 1 1 1 1 
1 1 1 1 1 1 1 1 1 
1 1 1 1 1 1 1 1 1 
1 1 1 1 1 1 1 1 1 
1 1 1 1 1 1 1 1 1 
1 1 1 1 1 1 1 1 1 
1 1 1 1 1 1 1 1 1 
1 1 1 1 1 1 1 1 1 
1 1 1 1 1 1 1 1 1 
1 1 1 1 1 1 1 1 1 
1 1 1 1 1 1 1 1 1 
1 1 1 1 1 1 1 1 1 
1 1 1 1 1 1 1 1 1 
1 1 1 1 1 1 1 1 1 
1 1 1 1 1 1 1 1 1 
1 1 1 1 1 1 1 1 1 
1 1 1 1 1 1 1 1 1 
1 1 1 1 1 1 1 1 1 
1 1 1 1 1 1 1 1 1 
1 1 1 1 1 1 1 1 1 
1 1 1 1 1 1 1 1 1 
1 1 1 1 1 1 1 1 1 
1 1 1 1 1 1 1 1 1 
1 1 1 1 1 1 1 1 1 
1 1 1 1 1 1 1 1 1 
1 1 1 1 1 1 1 1 1 
1 1 1 1 1 1 1 1 1 
1 1 1 1 1 1 1 1 1 
1 1 1 1 1 1 1 1 1 
1 1 1 1 1 1 1 1 1 
1 1 1 1 1 1 1 1 1 
1 1 1 1 1 1 1 1 1 
1 1 1 1 1 1 1 1 1 
1 1 1 1 1 1 1 1 1 
1 1 1 1 1 1 1 1 1 
1 1 1 1 1 1 1 1 1 
1 1 1 1 1 1 1 1 1 
1 1 1 1 1 1 1 1 1 
1 1 1 1 1 1 1 1 1 
1 1 1 1 1 1 1 1 1 
1 1 1 1 1 1 1 1 1 
1 1 1 1 1 1 1 1 1 
1 1 1 1 1 1 1 1 1 
1 1 1 1 1 1 1 1 1 
1 1 1 1 1 1 1 1 1 
1 1 1 1 1 1 1 1 1 
1 1 1 1 1 1 1 1 1 
1 1 1 1 1 1 1 1 1 
1 1 1 1 1 1 1 1 1 
1 1 1 1 1 1 1 1 1 
1 1 1 1 1 1 1 1 1 
1 1 1 1 1 1 1 1 1 
1 1 1 1 1 1 1 1 1 
1 1 1 1 1 1 1 1 1 
1 1 1 1 1 1 1 1 1 
1 1 1 1 1 1 1 1 1 
1 1 1 1 1 1 1 1 1 
1 1 1 1 1 1 1 1 1 
1 1 1 1 1 1 1 1 1 
1 1 1 1 1 1 1 1 1 
1 1 1 1 1 1 1 1 1 
1 1 1 1 1 1 1 1 1 
1 1 1 1 1 1 1 1 1 
1 1 1 1 1 1 1 1 1 
1 1 1 1 1 1 1 1 1 
1 1 1 1 1 1 1 1 1 
1 1 1 1 1 1 1 1 1 
1 1 1 1 1 1 1 1 1 
1 1 1 1 1 1 1 1 1 
1 1 1 1 1 1 1 1 1 

Stress_X_Pt 1 1116 double
-0.040017273277 -0.029683861881 -0.023502479075 -0.029859819449 -0.015190721024 -0.012186128995 -0.0058859087876 -0.0033652240818 0.00086232769536 
0.0029201363504 0.0051590530202 0.0069051916944 0.0096449258272 0.010017392109 0.014884581324 0.014892123174 0.01646787487 0.018514784984 
0.013492612634 0.016703354428 0.010764436331 0.013503571274 0.0098326872103 0.012148286682 0.0092745348811 0.012233175104 0.011752655264 
0.015212223632 0.015336104669 0.018802459817 0.012778813485 0.017634307733 0.0066707559163 0.012559490569 0.0013397780131 0.0065476380696 
-0.0028970732237 0.0010262507712 -0.0043699750677 -0.0022838832519 -0.0022722839785 -0.0020812284056 0.00087592183263 0.00035393364669 0.0041417342145 
0.0031029389647 0.0086286768783 0.0070919369464 0.012072878424 0.010605609277 0.013491022866 0.012051093159 0.013557947241 0.011323647574 
0.010209566215 0.0068852766262 0.0050618951209 0.0013716964595 8.2807731815e-05 -0.0030934037059 -0.0055418369593 -0.0070048906491 -0.0097765182145 
-0.0092659036163 -0.011663547717 -0.0097273414722 -0.012241341639 -0.0084619159461 -0.0096350770909 -0.0039432000485 -0.0042139287107 0.0019094962627 
-0.00040064897621 0.0057207522623 0.0016599867376 0.0087135332578 0.0052256355993 0.01381305675 0.0114435656 0.021296950057 0.022446440998 
0.031773080351 0.035403441638 0.041916491464 0.041853936389 0.044655141421 0.040904318914 0.041354865767 0.040708497167 0.038404980674 
0.042697938159 0.0366041339 0.040049690753 0.032992209774 0.031644284725 0.027466118801 0.021853630431 0.02167958254 0.01610355312 
0.018571921857 0.015435630921 0.019104375271 0.016023919918 0.020446013659 0.012792841531 0.01817554282 0.0019076282624 0.0078382439679 
-0.01353735826 -0.0071258777753 -0.031079380773 -0.022198936786 0.030395326205 0.018927102443 0.020306822145 0.030236089602 0.0074490607949 
0.010993530799 -0.00043366767932 0.0053091241862 -0.0080028062221 -0.0017414893082 -0.015210997313 -0.0098018106364 -0.021342578344 -0.01624433673 
-0.024354472756 -0.019551533973 -0.023616008461 -0.018628195161 -0.020174195059 -0.014671891811 -0.014735643752 -0.008982307023 -0.009335576091 
-0.0033265516176 -0.0039458351675 0.00092789600603 0.0017411136068 0.0048773257295 0.0075510980096 0.0090929289581 0.014737927821 0.014464350184 
0.022990270518 0.020814564545 0.032264697365 0.028189094272 0.036791959777 0.033533632755 0.031211083755 0.031555623747 0.024854735471 
0.027340447064 0.020684359595 0.024059633259 0.013836698141 0.017940344987 0.0058386105229 0.009412070649 0.0012783779821 0.0038151670742 
0.0046110060939 0.0060184156027 0.010175206698 0.011483942857 0.012112214696 0.014514051145 0.011567146983 0.013553427765 0.0066661448218 
0.0087155504152 0.0028715586523 0.0046949167154 0.0024518792634 0.0035051079758 0.0070917258854 0.0071364220639 0.015620841179 0.014597146539 
0.021896708757 0.020073515363 0.025366188027 0.02341892058 0.026319173165 0.025531302672 0.025166591629 0.025153382681 0.023861776106 
0.023911818862 0.023298431188 0.022335227579 0.021097527817 0.018600960262 0.018431637436 0.015138387214 0.015999730211 0.013810323551 
0.014189057052 0.013252300909 0.011185966432 0.011648943881 0.006969692884 0.0080984001979 0.0026898741489 0.0034845968476 -0.0025509808911 
-0.00036956573604 -0.0074901753105 -0.0033158985843 -0.011426197365 -0.0056657205841 -0.010844257195 -0.0033256872302 -0.0017992486246 0.0062407422811 
0.012417001184 0.020778142149 0.027162007987 0.036229602993 0.044746998698 0.05139861349 0.055454008281 0.054815225303 0.04846993275 
0.043427183293 0.037941290066 0.035171366297 -0.006595122788 -0.012887634104 0.00078687498171 0.0062575946795 0.0093548531877 0.010790890548 
0.014492656803 0.019549105782 0.019841010217 0.017127297353 0.015904093394 0.016741983825 0.020332773216 0.024248029571 0.024965733755 
0.021700123791 0.015573767014 0.0092100829061 0.0040878446598 0.0016286707832 0.0024804185668 0.0044421457453 0.0056275559473 0.0082336480264 
0.009266548208 0.0072689488879 0.0023321866311 -0.0027638588663 -0.0061677314807 -0.0073775760829 -0.0063456821954 -0.0040326543967 -0.00014962593559 
0.006265449163 0.012437117519 0.016369617311 0.020586877596 0.027125629131 0.035285273101 0.043476822786 0.048331136815 0.046399529092 
0.040650334209 0.032986454293 0.027359053493 0.022789453156 0.020602063742 0.019727220759 0.020295193885 0.022142590489 0.024183242582 
0.024213321041 0.016667272896 0.0042340316577 -0.0071103740484 -0.013706805301 0.015324363019 0.020590268075 0.012792797294 0.007171110221 
-0.0010519948264 -0.0078453691094 -0.011555152596 -0.01071702654 -0.0055417359108 0.0010050864876 0.0058597790994 0.0079651639098 0.00965157256 
0.011475802399 0.013642329723 0.016794261057 0.020995848347 0.026193934493 0.029040914495 0.029237408657 0.028167090844 0.024074271787 
0.015664264094 0.0085280479398 0.0095077189617 0.015194170875 0.019101360813 0.017979417462 0.013402710902 0.0093211244093 0.0071729511255 
0.0088975981344 0.014217136893 0.018519078847 0.021936276928 0.024776009843 0.024718302302 0.0229449342 0.019833375234 0.014775240095 
0.011003618594 0.011054959148 0.012484524865 0.012909024023 0.010266380734 0.006188084546 0.0046919935849 0.0039809390491 0.0038829816931 
0.0087161856027 0.018717944389 0.032299736515 0.044274425134 0.049895963632 0.044360819273 0.03327588411 0.029275428969 0.02716852678 
0.0042717855104 -0.0016488316905 0.0088433458004 0.010928461561 0.011731445557 0.01374960877 0.017099335324 0.018098592293 0.017033887096 
0.016947754193 0.018271517474 0.022082308773 0.027168418746 0.029385815375 0.027396257035 0.022484732326 0.0171151869 0.012739075813 
0.0096645371523 0.0089382159058 0.0096044439124 0.0057938323007 0.0057261284674 0.0057714586146 0.0040047914663 0.00082607132936 -0.0024449475532 
-0.0044718704303 -0.0036598601873 -0.00043561881466 0.0038067682763 0.0088870857726 0.015137502924 0.020866556559 0.025525362696 0.030438121408 
0.036091424059 0.04230515752 0.047447194345 0.048838770948 0.045403798111 0.039518461563 0.033165444154 0.0163768169 0.020262084901 
0.015992325498 0.018072431907 0.020888265222 0.023134249728 0.024648342747 0.025549066253 0.022532621166 0.014619519701 0.0043418426649 
-0.0043216241174 -0.0060954710352 0.0069701210596 0.010238145362 0.02435925277 0.026639847085 0.015135644702 0.0159097258 0.011691906024 
0.005559402809 -0.0003373643267 -0.0036429439424 -0.0033643447314 0.0014521672856 0.0087947134161 0.012636901578 0.012684124522 0.012955777347 
0.013280523475 0.012897650711 0.013203531969 0.014919101726 0.01818242874 0.024105382152 0.027369708754 0.028658810537 0.026913216803 
0.019961689366 0.012943530688 0.01386822015 0.019204193261 0.022642420605 0.022207168862 0.018420519773 0.014727437403 0.012497188058 
0.013180308975 0.016648809891 0.01974839624 0.022560231853 0.023997220676 0.022633947432 0.020295579452 0.017027853755 0.012828174047 
0.010325340088 0.010943776695 0.01319504017 0.014431682182 0.012634826591 0.010600596666 0.010610287543 0.010337801883 0.011325042695 
0.016985408729 0.026595151983 0.036405819003 0.040156498551 0.035596972331 0.027925373521 0.023578118533 0.023225903977 0.022057891358 
0.018292581895 0.017395867733 0.019871977624 0.013384510064 0.010884966236 0.012944358634 0.018161110813 0.023321305867 0.026349603664 
0.02686616173 0.026769720949 0.026549772825 0.024094949244 0.014188012248 0.00039017561357 -0.0014195309486 0.0028612110764 0.0073204629007 
0.011132879881 0.012879577931 0.012879152782 0.013390924782 0.014486417174 0.0148220798 0.014757951256 0.015441153664 0.017461670795 
0.021477582864 0.027445867658 0.03173881676 0.031536167488 0.028142183553 0.023759924341 0.020146999741 0.017185832839 0.015224038623 
0.014887130121 0.014366538264 0.010183121543 0.013136240188 0.0074281378184 0.0045592407114 0.0028769578203 0.002859738539 0.0024411176273 
0.00082218093621 -0.00094587904141 -0.0010162899634 0.0017110521876 0.0064935923874 0.012033179752 0.017786308192 0.023293029983 0.028013614006 
0.033367703203 0.038908463903 0.043112656102 0.046700846404 0.049205044284 0.048841495067 0.045019631274 0.039341945201 0.033749171533 
0.027617088053 0.020408924203 0.012502973434 0.013319856254 0.012171539478 0.014356851811 0.015616856515 0.011249083909 0.0080602967646 
0.0064313927214 0.006542454219 0.0092352093197 0.014897363726 0.018208639231 0.017157152994 0.015819552587 0.014704333385 0.012379309628 
0.010624249699 0.010496444767 0.011256984435 0.024671130348 0.020867249463 0.027271226514 0.027315225452 0.022521144245 0.017335992772 
0.018371753395 0.022436408792 0.025243631564 0.025291668251 0.02272033412 0.019920794293 0.01817361475 0.018595916452 0.020540512167 
0.021715697367 0.02230287157 0.021272540558 0.019041329157 0.017344834981 0.014759705635 0.012031238759 0.011053129099 0.012152605923 
0.014544126345 0.016099303495 0.015664642211 0.015844456386 0.017046095338 0.017410374014 0.018843699247 0.02401215164 0.03212164389 
0.037346384488 0.035093970131 0.027010456193 0.018720124615 0.016473654192 0.018202074571 0.017861668719 0.015578449471 0.014976365492 
0.0164576557 0.01213396946 0.0088345480617 0.0078354690922 0.011067528394 0.017541075824 0.024328032974 0.028290301561 0.028781454079 
0.0280204718 0.027956309263 0.029331462923 0.027941227425 0.0036978695425 0.0036079008714 0.00680386764 0.0096817227313 0.013069686946 
0.014539036667 0.01416253834 0.01359330141 0.013062296668 0.012730093859 0.012688791612 0.013214384671 0.015691707842 0.020066022873 
0.025509728584 0.031131364405 0.033753956668 0.032408241183 0.0293482434 0.02460553078 0.021154615097 0.018597569317 0.018721282482 
0.018185903318 0.016457697377 0.011101504788 0.014132068958 0.0080470219254 0.0049654311151 0.0026160143316 0.0012585434306 0.0020072455227 
0.002021056338 0.000925085787 0.00090497165684 0.002937477977 0.007139503723 0.013035545824 0.019697219832 0.025897425134 0.030054346193 
0.032753128558 0.037644130178 0.04344199039 0.046577219851 0.047849943861 0.047657531686 0.04548468627 0.042114937678 0.03892221426 
0.034471080638 0.028076635674 0.020786872599 0.014145037392 0.0080835066037 0.0089604897657 0.0074696985539 0.01110256603 0.023047687253 
0.014941066969 0.012275396613 0.018987114076 0.02217450086 0.024944572244 0.026297343429 0.023906285875 0.02109716041 0.022576873191 
0.02554342756 0.027512502391 0.027632282581 0.02600636892 0.024545448367 0.02472072728 0.023832411971 0.023978589103 0.022928759921 
0.020704917144 0.017562771216 0.015870870324 0.015059737023 0.013084088219 0.01197731751 0.012232926907 0.013630460715 0.016133658821 
0.018381348811 0.01972518675 0.021783134434 0.024096810725 0.025241764728 0.026605248917 0.030171747319 0.035543505102 0.037518721074 
0.032786697615 0.024047768675 0.015337717719 0.012294310611 0.014042642433 0.014164090622 0.01275088382 0.013564295135 0.015287152724 
0.015581694664 0.015200761845 0.015161598334 0.015936044278 0.016699878499 0.017820976209 0.020000691991 0.021316358354 0.019818643108 
0.017524772324 0.015396475792 0.012499923119 0.010041571222 0.0087456784677 0.008725295309 0.0095353310462 0.011089100968 0.013014584081 
0.012749727117 0.014216049574 0.0064310233574 0.0093896680046 0.016003072029 0.023377120495 0.02860343596 0.030346849002 0.029673837591 
0.029143404216 0.030397022609 0.032124205958 0.030618720688 0.021435490111 0.028384612408 0.012314134743 0.0080516780727 0.0087811853737 
0.010470813373 0.012770166621 0.014711075462 0.015545088798 0.015371913323 0.014451732161 0.013168115169 0.01267209975 0.011560570914 
0.011516156606 0.013970376225 0.019285468152 0.023859333868 0.027650778368 0.033503746148 0.034504165873 0.033784171566 0.022152286023 
0.025825585704 0.012319767848 0.012845616322 0.02980201086 0.032942961901 0.019429758191 0.021569584031 0.016734931385 0.011764992028 
0.014932116726 0.0083253257908 0.0049589038535 0.0021368524176 0.0020999219851 0.0013955059461 0.0015977739677 0.0038450156135 0.0073854791117 
0.012301359326 0.018616274698 0.025820923503 0.031854588538 0.034322369844 0.035235008225 0.03909208253 0.044405019842 0.046694064513 
0.046239840798 0.04385983292 0.038225002587 0.03605018463 0.028738965746 0.021643605083 0.015365128871 0.01029183506 0.0063529835315 
0.0077908271924 0.0058244012762 0.01715142699 0.019995825365 0.022723330185 0.024913867936 0.02437076997 0.023708994966 0.025944381487 
0.028037781827 0.028877914883 0.028930475935 0.028095236514 0.027850966435 0.028931027744 0.025655613746 0.027501746081 0.022481752094 
0.018159106839 0.014527092455 0.013558404054 0.01308168238 0.011958834715 0.012183027808 0.013221529778 0.01486777328 0.018693540804 
0.022190631367 0.025158070493 0.028421923518 0.031181474216 0.032563736197 0.033471608069 0.03507208731 0.038488636911 0.037706315517 
0.031932290178 0.022720162757 0.013859295286 0.009720071801 0.010187019245 0.010429956601 0.0098423011368 0.011900951387 0.014809094835 
0.016450258438 0.017639376689 0.0195196555 0.021888571791 0.023395124357 0.02392276004 0.023977138102 0.023383533116 0.02118915366 
0.018486537039 0.016048687976 0.013410767075 0.010975821875 0.0088396937354 0.0086783504812 0.009551806841 0.010278103873 0.011936778203 
0.014237406431 0.013390373671 0.015291332034 0.02912610257 0.030989768915 0.0030294300814 0.0018249561253 0.0074614634505 0.0042230359977 
0.011594074662 0.016856394242 0.023141376674 0.030227087438 0.035562730394 0.037605008483 0.037635883316 0.040223426186 0.043905154802 
0.045312873088 0.043869327754 0.040342417546 0.035275744274 0.029243757017 0.029366622213 0.0081128847087 0.014352774946 0.021802127827 
0.028262017295 0.031397966202 0.031631759182 0.030672254041 0.030790757388 0.031354644801 0.030912848655 0.029785348568 0.028880387079 
0.029527420178 0.023406433873 0.016035145381 0.012845132733 0.013185726479 0.014492947608 0.015677261166 0.016473316588 0.01568156993 
0.014319445705 0.01338424813 0.013129023137 0.012923877919 0.01277570962 0.012054085266 0.010842369637 0.011337879347 0.013689875603 
0.019527708879 0.021151616238 0.024575059116 0.018653566949 0.0098502219655 0.014420076506 0.005550935457 0.0180076994 0.020668579265 
0.023025120609 0.023763631471 0.024806961417 0.028024297208 0.029884904623 0.028764145914 0.028918629978 0.029871536884 0.030989745166 
0.025509628002 0.029000453185 0.020744812209 0.015915962867 0.012843838427 0.01168269245 0.011042532511 0.010815285845 0.012141020503 
0.014171555405 0.01552554282 0.018025659025 0.031353432685 0.027778965887 0.034792393446 0.037321192212 0.038458286785 0.038625862449 
0.038842309266 0.04007903859 0.029951237608 0.036841060966 0.020694348961 0.012388462434 0.0085045498563 0.0070569341187 0.0061032832018 
0.0066614608513 0.024742663372 0.023047326133 0.0017740606854 0.0015062162711 0.040865989402 0.041855208576 0.016961694229 0.01894792309 
0.021274158265 0.024167449679 0.026598030701 0.027662599925 0.027297087945 0.025619497523 0.022651769221 0.019499467686 0.016673781909 
0.014045873191 0.011930048699 0.009460551315 0.0086013328594 0.009555204073 0.0106064477 0.011830687756 0.014127122704 0.032036646735 
0.026787630282 0.034504265835 0.03411912173 0.033040762879 0.030967303086 0.030726518482 0.028685706202 0.014534180751 0.018747323193 
0.012141184416 0.010148152709 0.0088757746853 0.0093977767974 0.011562589323 0.016262240335 0.02240276942 0.028138417751 0.024114783853 
0.020215671044 0.016895858571 0.014160229824 0.012115336489 0.010103557957 0.010789654404 0.01184921735 0.010934026446 0.011014209827 
0.012329452438 0.014624780742 0.019940439612 0.016011284851 0.018777675461 0.021072631702 0.022082082462 0.024300959427 0.028226887807 
0.029801897239 0.017361828126 0.017280380242 0.015761463903 0.014686312294 0.025396600366 0.019558081636 0.016910418868 0.017149098916 
0.01042964682 0.011775923893 0.01350211422 0.015733663458 0.020157031715 0.02577737486 0.030892891344 0.029898331035 0.028848312795 
0.029510649852 0.030724071898 0.031413019169 0.031176159624 0.032326431014 0.0082160259597 0.013616746524 0.020678420365 0.027999585494 
0.031577798072 0.023862190545 0.031624508401 0.030483684968 0.033393501304 0.037014243193 0.039914021268 0.041696994565 0.042142517865 
0.041609633714 0.04130184371 0.041468109936 0.0411904715 0.041941849515 0.040486521088 0.039623568766 0.034158021677 0.027022833005 
0.018866875442 0.010965609364 0.0068689986365 0.0040288493037 0.0029858962516 0.0037584070815 0.0022977883928 0.0043955855654 0.0072382676881 
0.010365937953 0.015029086266 0.02068533795 0.026942728553 0.033355344087 0.040565658361 0.040671364404 0.041559144855 0.043278781697 
0.043303634226 0.041149972938 0.037399806082 0.034235347062 0.007420128095 0.04334637026 0.043140861206 0.042278942652 0.041985730641 
0.042206606517 0.023998593446 0.030518469866 0.017434923211 0.012547643545 0.026285711055 0.022453563754 0.017153084278 0.019094070047 
0.015698331719 0.025090748444 0.020319251344 0.016640381655 0.01405260805 0.012061798247 0.038347943686 0.040029440075 0.036382377148 
0.031222778683 0.028630559798 0.017157461494 0.01380459778 0.010613646242 0.0087243071757 0.01987912925 0.016956072922 0.031908177771 

Stress_Y_Pt 1 1116 double
-0.024050358683 -0.018488877919 -0.00074543175288 -0.0028491308913 -0.0094414490741 0.002997071133 -0.0034852014505 0.005827652727 0.00060454342747 
0.0083629880392 0.0053175705252 0.012258226925 0.010245603044 0.016914144857 0.015802627895 0.024521389278 0.025572359562 0.035664591938 
0.033518873155 0.043094048277 0.032463808544 0.042725844774 0.025415592827 0.037127259653 0.018501880579 0.030799936038 0.014281021431 
0.025955922902 0.009728530189 0.021860363777 0.0050375263672 0.019489074475 0.0040718808305 0.020538436598 0.0071000673342 0.023284880095 
0.010817739181 0.025449324865 0.014096665662 0.027039847104 0.017711470835 0.02885781927 0.02093523927 0.030416458845 0.022769433446 
0.029293946456 0.023964952677 0.026410914958 0.024720678106 0.023370942101 0.025401161052 0.021876430139 0.024889312685 0.021512411069 
0.017646166962 0.016900242772 0.0062460481422 0.0095728298766 -0.002968564746 0.0043770579505 -0.0093338431325 0.0016504205996 -0.011854005046 
0.0013203180861 -0.012582600582 0.0018708214629 -0.016251773108 0.0011492457706 -0.01882535778 0.00095823360607 -0.015848332085 0.0028659976088 
-0.013247156981 0.0052026214544 -0.012458032463 0.0082112553064 -0.0098103983328 0.013093004469 -0.0039313629823 0.019591671014 0.0069793678267 
0.028430407467 0.020302624442 0.038652979303 0.034035235643 0.048155520111 0.049327902496 0.057250363752 0.064264088869 0.065716883168 
0.0735610798 0.071565268561 0.072706010193 0.072295209393 0.060943363234 0.066278296523 0.043739570305 0.054500219412 0.02991669625 
0.041853435338 0.020523197018 0.031271827873 0.013190178666 0.022381248651 0.0076972367242 0.015661674086 0.0024432233186 0.010382956854 
-0.0045706899255 0.0057952399657 -0.01649024291 0.00033659185283 0.020208774135 0.017276251223 0.016791704809 0.016838507494 0.012765497435 
0.016111728037 0.0095895412378 0.016696508275 0.0050376941217 0.015192707942 0.0023159866687 0.013423125609 0.00034364697058 0.012211624125 
-0.0018224153901 0.011518263433 -0.0022245993605 0.013166373421 0.00075605581515 0.018455289654 0.006632842822 0.026642977609 0.01344336383 
0.034913582727 0.020287194289 0.04029248422 0.026762742549 0.043702302501 0.033869800158 0.047712817322 0.041709695011 0.052214388736 
0.050972649828 0.055913711898 0.05710764043 0.055274683051 0.05096472241 0.046671777032 0.03188998159 0.031540817115 0.013601238839 
0.018389785662 0.0019505274249 0.010558734124 -0.0088321497897 0.0039481554995 -0.016958973836 -0.0012777869124 -0.019034889527 -0.0031244466081 
-0.01539865369 -0.0013538706116 -0.010558683891 0.0014368728735 -0.00830587768 0.003616248141 -0.010181265185 0.0039779356448 -0.018189083785 
0.00096187042072 -0.025676066056 -0.0028301025741 -0.025188714266 -0.0035480256192 -0.010258231312 0.0031219990924 -0.00063350994606 0.010100124346 
0.0035939601948 0.015860463667 0.018822034355 0.026812365511 0.034010264091 0.038426646497 0.043265769258 0.045992795378 0.043678482994 
0.048136914149 0.03849259764 0.046668382362 0.034928163514 0.044841934927 0.034387456253 0.044358581305 0.032292721793 0.044089150615 
0.028266713023 0.042553642765 0.02245702967 0.038656138815 0.015441913623 0.032249059761 0.0090792255942 0.025124362786 0.0034660610545 
0.019744298756 0.00069224112667 0.016682285001 1.3521697838e-05 0.014225297986 -0.00050603384443 0.011974018205 0.00162600576 0.010806488986 
0.0051412425237 0.010319537309 0.0072760949843 0.0086210297886 0.013589568436 0.01010094618 0.019481571391 0.012584679527 0.017143450212 
0.009964951576 0.017174195964 0.011647676496 0.015375173418 0.015240630601 0.016086440301 0.017860182328 0.021475824527 0.02678942401 
0.036436278373 0.048033094034 0.05498437956 0.056245492771 0.053800077178 0.049681669101 0.046235837042 0.044599115849 0.044899106957 
0.045937248506 0.045766548254 0.04468195606 0.043489621952 0.042734831572 0.041486928239 0.03542181775 0.028636800125 0.023406453896 
0.020106557291 0.018101668917 0.014904873213 0.011743948795 0.01075185393 0.011794295628 0.013954914641 0.016287191771 0.018942538183 
0.022474822123 0.025837462395 0.029067975003 0.033660666551 0.040005497634 0.047070462257 0.053797190078 0.059825175442 0.063559444621 
0.064670074731 0.064762676507 0.069994773716 0.072834627703 0.072307953611 0.065925477073 0.05484847445 0.042598565109 0.031448136549 
0.023184497841 0.017350576352 0.014696385944 0.014790210407 0.015327861533 0.019025909714 0.015634431969 0.02326943446 0.024697907735 
0.024094883353 0.023749558255 0.025059127714 0.030316220596 0.040465093218 0.053024356253 0.062998156063 0.066460571252 0.066196745262 
0.065437446348 0.063633553684 0.059077044018 0.050893635489 0.041028071195 0.031251315959 0.023565655109 0.018980145454 0.015894666081 
0.012858110014 0.010501409881 0.010411227588 0.011472671526 0.013374233851 0.016017896589 0.018159382278 0.019055389334 0.018936185166 
0.020036645699 0.02536357427 0.03233779734 0.03913242789 0.045919903554 0.050771025941 0.054932096042 0.058763879351 0.061175148934 
0.062581685372 0.064496288076 0.06615566276 0.064906983636 0.058732153848 0.049612860195 0.041960811242 0.035346223973 0.028779723682 
0.023637341801 0.018884734949 0.014330362668 0.008964208886 0.0065972992452 0.008619991364 0.0073731222947 0.0081968455634 0.013095539296 
0.018660041038 0.016396640101 0.021296969615 0.025213869754 0.031354730483 0.040786560625 0.051235211082 0.057854371145 0.060121998191 
0.06011119578 0.059326295741 0.059857347049 0.061645509675 0.061957281083 0.059416320175 0.055537463166 0.052574591711 0.050449145027 
0.048161840998 0.044617472216 0.039071339183 0.022882376332 0.025997219142 0.020082191098 0.016572711989 0.012560912641 0.01002671686 
0.0097065861337 0.011537966086 0.014606867218 0.018007136881 0.021920031402 0.027533212211 0.034246698022 0.040007942356 0.04451352451 
0.049104805104 0.054569441825 0.060295068659 0.064428945072 0.065031003207 0.062583517283 0.058851425536 0.069317324087 0.065571281128 
0.068774884567 0.063338335603 0.054036788642 0.042645385489 0.031524104998 0.022714104038 0.016091588419 0.013251448283 0.012778274715 
0.012274272507 0.013710384956 0.029199362267 0.032974168658 0.059468260966 0.055644582957 0.021836119704 0.01797954808 0.023191441782 
0.023306957912 0.024003806524 0.027129536495 0.034796157386 0.047602568753 0.063330634497 0.074179498479 0.075355697423 0.071958981454 
0.067828355357 0.06203611102 0.054470626637 0.046277908608 0.037010801211 0.029561408795 0.023492466193 0.018842804246 0.015378656331 
0.011630992172 0.0086063183844 0.0085169251543 0.0096578043886 0.011472463142 0.014162658481 0.016201080987 0.018167588394 0.020464511123 
0.024952067528 0.031462367624 0.037616557442 0.044043183327 0.049454261549 0.053521373309 0.058530624025 0.064204514958 0.06943574734 
0.073635643348 0.077064771205 0.080037610605 0.079818459228 0.073412204161 0.063243465498 0.052615273744 0.041743551381 0.031946456991 
0.024816611316 0.019331136486 0.013826716691 0.008017168846 0.0065198023804 0.011400740361 0.012492281152 0.01036466565 0.011681006756 
0.014106761664 0.054916472174 0.054691310041 0.057163791731 0.058621129021 0.05708056502 0.052659738809 0.04645479843 0.03866626136 
0.02978819795 0.022019866854 0.015746674966 0.012640002649 0.011488450505 0.011962487362 0.014225546503 0.017935680225 0.020686396863 
0.023574029095 0.027510797605 0.033373304177 0.042121828534 0.05111345835 0.056583547965 0.059136437252 0.060609957203 0.062480319291 
0.065768718719 0.069135366008 0.06912904419 0.065323724411 0.060987489298 0.058202113025 0.055775013752 0.052113652229 0.047371853143 
0.042403127998 0.037009862252 0.027713953052 0.031267187558 0.02426068997 0.02112206351 0.018873038702 0.017119728727 0.014729202259 
0.011542100459 0.0094567940105 0.00985784363 0.012491306523 0.016425223788 0.021043085959 0.026316266507 0.032554436941 0.039800245315 
0.04734500777 0.053117798641 0.056653469801 0.059769432992 0.063240541145 0.065587613732 0.064629809931 0.060702657327 0.057196419686 
0.055786228739 0.056317606941 0.055069220252 0.05744149629 0.053855641435 0.022020833101 0.02039173292 0.023561666254 0.026684650686 
0.03240072215 0.041556213982 0.054309385829 0.06985385064 0.080361338332 0.079098958522 0.072080643848 0.065175810829 0.058128881268 
0.051390230656 0.0446928991 0.038819480687 0.023200140335 0.02779861819 0.019330921583 0.016188179143 0.012619873043 0.0098103517666 
0.0094328653067 0.0099025429226 0.011478014058 0.013936689589 0.015750739491 0.017795366701 0.020816903096 0.026266454253 0.032650887966 
0.037758148275 0.043668468483 0.04954019282 0.054395780899 0.059744523838 0.065334962681 0.071025405079 0.076581068337 0.081374296919 
0.085156103596 0.085549455136 0.079749066383 0.070421310142 0.060053634457 0.048476906493 0.037475755438 0.02845844673 0.021682181861 
0.014946700772 0.0081408340484 0.0065551442094 0.010762849124 0.012664516922 0.010765502462 0.010498614516 0.012839290081 0.016895561013 
0.032018949743 0.035677071661 0.053249051794 0.051175539382 0.046855544671 0.041166010313 0.036411930807 0.031869654544 0.026101770811 
0.020694145001 0.01595328236 0.01266936562 0.010466487845 0.015225562034 0.012418715283 0.018529034685 0.021069946699 0.024324825499 
0.028308623936 0.033694778569 0.04112287052 0.047991828993 0.05077297464 0.054450733587 0.057211073115 0.060816231184 0.064953361638 
0.068373898044 0.068921616301 0.066539915279 0.06403019838 0.062891483307 0.058065761812 0.052912679501 0.048928019901 0.045968281105 
0.041232373565 0.035442704801 0.025795008522 0.029550039209 0.02258222457 0.019997677766 0.018055136626 0.016399510903 0.015483236406 
0.013757746667 0.010810937732 0.0091912779026 0.010373663623 0.013457280118 0.017861723667 0.023313226178 0.029720566701 0.035917773843 
0.041657661088 0.048756291158 0.055314903148 0.059112362564 0.061709613539 0.063843481243 0.064446941018 0.06295929011 0.060504373163 
0.058891585097 0.05879214406 0.059472745284 0.059390229173 0.056805954315 0.05718051549 0.054671164602 0.010046791984 0.0082395280479 
0.030289059039 0.033717230894 0.027703422587 0.024149869569 0.020845054649 0.017852521734 0.014199849218 0.011306842789 0.010460288264 
0.010123012587 0.011190627934 0.013442396186 0.015037799021 0.016583589604 0.019787541777 0.025498315692 0.030795261264 0.035615849309 
0.04198032245 0.04870140925 0.054203831591 0.05902935192 0.063687162474 0.069307237864 0.075245402753 0.079669374973 0.082810901105 
0.083669727668 0.079516444355 0.072279121727 0.063769092783 0.053528666496 0.042939581908 0.032625620253 0.023974427022 0.01639471692 
0.0095813868102 0.0082393805496 0.011011404451 0.0120848238 0.011107822414 0.010661370587 0.01245910977 0.016417587176 0.019916693214 
0.022438074928 0.026168464217 0.032179545145 0.040687404573 0.051219713874 0.063247726299 0.075673896819 0.083299560472 0.080846002325 
0.072760198265 0.064659552649 0.057344673201 0.051272011362 0.045862663537 0.041995146312 0.04029318504 0.03881163802 0.032449142542 
0.035917792469 0.029815619191 0.051831912249 0.045617772266 0.03761159163 0.031366207637 0.027613360435 0.023783463053 0.019735607319 
0.016342236428 0.013726618839 0.012275440618 0.0099236509996 0.0089360462734 0.008238667273 0.011766766664 0.01410226943 0.016710390104 
0.019254466053 0.022304865997 0.025078068798 0.027873628773 0.032592720352 0.038779396564 0.043578414246 0.044201963581 0.051437681541 
0.047836102545 0.056453240104 0.061757303774 0.065499948959 0.065714266896 0.066786937416 0.066555202007 0.068274881691 0.050723403692 
0.057396399789 0.044913535938 0.041236963123 0.065057555214 0.072050474584 0.039200741798 0.046145327389 0.032258854248 0.024333754554 
0.027624686714 0.021204952616 0.018463974819 0.016633298481 0.015506776283 0.012087284774 0.0092831684742 0.0086873308755 0.010924247792 
0.014454923104 0.019270753022 0.025207543746 0.031724575441 0.037617914379 0.042203841731 0.047753188759 0.05416129902 0.058617773466 
0.061721638776 0.063976395875 0.064517466724 0.062174951658 0.063012496568 0.063764537685 0.062407517806 0.058290967718 0.053323457949 
0.053665105253 0.053510523401 0.02882641647 0.026030564215 0.023053970654 0.020114320796 0.016161757987 0.012932252372 0.011680005584 
0.010561972391 0.010856468696 0.013004165376 0.014212559676 0.015189034399 0.017186739715 0.028828059789 0.02471757168 0.033955048304 
0.041072553955 0.047946481034 0.052857779898 0.056981267408 0.061147307977 0.066495831124 0.072176575661 0.07557900995 0.075971151888 
0.077554866672 0.075365755707 0.070484083146 0.063777375035 0.055419135839 0.046593772247 0.037474039476 0.028002702445 0.018054205924 
0.012102199253 0.010784240207 0.012425637804 0.012772916583 0.011890410911 0.011064870283 0.012487094849 0.016780991573 0.021062136162 
0.02509997692 0.030494341627 0.038246783894 0.048120521009 0.058975018561 0.069569949061 0.078952487558 0.084247628227 0.081714628264 
0.074472563341 0.06692590192 0.059817842208 0.053598540835 0.04893225152 0.046700038947 0.045468348078 0.042759392411 0.038180386648 
0.032783554867 0.034455242567 0.031002386007 0.021581157576 0.01965079736 0.015737700742 0.012138196733 0.0089780602138 0.0089370256756 
0.011353120673 0.015028811758 0.019957726821 0.026108329184 0.032098200638 0.038226810098 0.042928381823 0.047524581663 0.053035975434 
0.057994835079 0.061708239838 0.064124232158 0.065311826766 0.065676109865 0.06671484746 0.047202447429 0.038557735272 0.03088367451 
0.026582439896 0.023368403781 0.019710135087 0.016409570817 0.014496156946 0.013771683211 0.012375243008 0.010366910137 0.009936156217 
0.010156429745 0.011969916988 0.014139482286 0.015980413416 0.018919635098 0.022357538808 0.025804916397 0.03066483466 0.035976038314 
0.039320053533 0.0391623592 0.037240511738 0.039522369392 0.036733337678 0.041738065891 0.044042496011 0.048356383108 0.054211539216 
0.060213235207 0.041251770221 0.052379313111 0.033944736701 0.018686972745 0.023985282984 0.016607164405 0.028409827966 0.025891243946 
0.022832782939 0.018499404425 0.014674637234 0.013132625725 0.011547493516 0.011622346938 0.01284093922 0.014232041081 0.01614811155 
0.028790593613 0.025369733572 0.033706130926 0.040752760135 0.047246353701 0.051233791746 0.054597139359 0.058553292416 0.064031729475 
0.06982823275 0.072895822426 0.071663025767 0.07056343928 0.071896499023 0.06693572551 0.061404210515 0.054842032492 0.048269195482 
0.042016210966 0.036845917348 0.013973019319 0.019378770143 0.011971286964 0.012609453872 0.013464860385 0.012495603878 0.011246682378 
0.013023735955 0.070896130055 0.069078531116 0.0094664716162 0.0099423539359 0.026543403976 0.033824774902 0.028483122587 0.033704774454 
0.041316558607 0.051253932528 0.062119811773 0.071947801858 0.079519096762 0.083359939978 0.081537347287 0.076068419963 0.069712042809 
0.063339711167 0.057568537071 0.052789904177 0.050178006291 0.049475997686 0.045434572734 0.03994082287 0.033988521434 0.069181343541 
0.067259393632 0.069157193104 0.072211055085 0.076788669452 0.07360492833 0.079591359943 0.064444438554 0.040421997197 0.034109012224 
0.046393607743 0.049706417136 0.051896187477 0.055620472878 0.061147920787 0.06731852591 0.06721086055 0.081797271967 0.080185007304 
0.075972912833 0.070351265371 0.064336436801 0.05850651022 0.053373511881 0.048297984898 0.041509058326 0.043190490454 0.046187531203 
0.051106158644 0.057053521276 0.062830131501 0.031163735315 0.029003832489 0.0257765688 0.020498141181 0.01631252002 0.014850367559 
0.012988252332 0.027546786703 0.032603384927 0.035593423992 0.03536345996 0.014376910869 0.015639619436 0.018291655928 0.022944581695 
0.046453961482 0.05069101695 0.056380756199 0.062425381504 0.068254074082 0.072228802368 0.07364003174 0.078421361744 0.011358130102 
0.01249154564 0.013894629199 0.015243733767 0.023087794892 0.021670617629 0.046926914155 0.039260836318 0.03161801137 0.026456005871 
0.023731055204 0.029428795911 0.016500734103 0.067654037848 0.067958930507 0.066446861252 0.063166134991 0.059103501029 0.054351926781 
0.049469284713 0.045427147299 0.042323217727 0.03947596997 0.032374575268 0.036128947511 0.026438517496 0.020171560347 0.015162857249 
0.012299917173 0.011215366796 0.011647715699 0.010733798379 0.010961924447 0.012844409794 0.0096061298003 0.010026069125 0.0098054453265 
0.0097335181199 0.011805119691 0.0153534438 0.020041196607 0.02590480214 0.045225556009 0.042545016855 0.048658516258 0.052539718337 
0.058449748904 0.063256760128 0.065347304568 0.066039271653 0.049517897889 0.056777161856 0.0533185862 0.049654437229 0.04675569851 
0.044810827821 0.015568111092 0.020172159653 0.012244323269 0.010384497543 0.015814545564 0.016795990057 0.032099181786 0.027629758045 
0.032902362446 0.077018478885 0.073115773499 0.067572250031 0.061361674219 0.055228385143 0.031701568048 0.030821091185 0.026022105478 
0.024219311153 0.026277043391 0.035088376453 0.039882961661 0.045059905387 0.047851366301 0.020440761 0.030166110024 0.018055368681 

Stress_Z_Pt 1 1116 double
0.0066004185937 0.0051125991158 0.025936718797 0.028985123849 0.0033085817704 0.021393742703 0.0022889032261 0.018348615209 0.003124307259 
0.017160675197 0.0050791102694 0.017591375916 0.0087493313476 0.019162116107 0.014432969503 0.02276395075 0.020073230378 0.026576770935 
0.019244562835 0.023677863646 0.012422268745 0.016063972143 0.0066030905582 0.010722158942 0.0028982129879 0.0078267606441 0.0032016837504 
0.0071882331977 0.0031712891068 0.0068051818525 -0.0029484820552 0.0047706614714 -0.0094509553164 0.0032946984284 -0.012543123681 0.0029461400118 
-0.013359054457 0.0030900363345 -0.01052469993 0.0047315245029 -0.0022387248464 0.0098483248148 0.0099584311247 0.018903004006 0.025716175325 
0.030508337077 0.04466840066 0.044826042838 0.059758786112 0.058675765991 0.064191475511 0.065734012052 0.054778857157 0.061452210881 
0.037723620422 0.049189535435 0.02326336503 0.037837239914 0.012489563785 0.030077615287 0.0033819109085 0.024065610574 -0.0039345617988 
0.018699966575 -0.011440566508 0.013448413112 -0.015932592563 0.010401675943 -0.012473338284 0.010901392903 -0.0084890853614 0.010545001365 
-0.0070613315329 0.0087434519082 -0.0048504153965 0.0081984615535 -0.0016330296203 0.0087910382063 0.0023717055301 0.0091751895015 0.0074326812755 
0.0098071234534 0.011957185343 0.011042241007 0.014063429553 0.011338642682 0.015297192615 0.012253347435 0.01927036792 0.016548422165 
0.025688798167 0.022006876767 0.031926285475 0.026260032784 0.034412652254 0.028739252593 0.031702561304 0.02906997269 0.028314817697 
0.02981501352 0.026408129372 0.032149928156 0.024697083049 0.034304691013 0.021923093125 0.034291015938 0.017730438616 0.031808180502 
0.013536840212 0.029378239764 0.0096117991488 0.029076891369 0.063352225348 0.046527070925 0.0521251522 0.063392494805 0.024918099865 
0.037308547646 0.012079661246 0.02654050081 0.0038919809158 0.018148501724 -0.0032057907083 0.011273930053 -0.0091123247985 0.0068432529224 
-0.012657472864 0.0047870362177 -0.0145569616 0.0042526789475 -0.014610588085 0.0042159894947 -0.012052569073 0.0048042887356 -0.0066002454842 
0.0063607592019 -0.00034302612767 0.0074493056163 0.0042553871172 0.0078261916642 0.0073037277907 0.0083014518023 0.011269601993 0.010742669459 
0.018211660907 0.0159490183 0.028582742438 0.023520854767 0.037815820426 0.030849727336 0.038724008948 0.033756254241 0.034847946838 
0.034339868464 0.030568459071 0.03462322196 0.023256479762 0.03269527806 0.014517223928 0.02874820889 0.0090842093341 0.025536674773 
0.0074138008058 0.02511006128 0.0077347774059 0.027399661951 0.0097302221693 0.031076823594 0.01231261529 0.032941939309 0.013302555773 
0.032045779983 0.013553731143 0.030488488264 0.015540380962 0.030184428673 0.019519429654 0.031016476452 0.023558291607 0.03124739835 
0.029304539785 0.03127268143 0.03515858762 0.031809384469 0.037442374974 0.032289929688 0.037216925994 0.032326137647 0.036960491911 
0.032470637467 0.03393216338 0.029729712754 0.026194484904 0.022212186363 0.020155824721 0.016230028355 0.017518287525 0.014938566135 
0.015951586422 0.015595580684 0.012787868269 0.015769907273 0.0075103100389 0.01380165806 0.0033332590247 0.011371619359 -0.00031591788866 
0.010470225825 -0.0075122172711 0.0088257315219 -0.014348098543 0.0066603037994 -0.015139115974 0.007072116714 -0.0092910029925 0.011545469286 
0.0021541351452 0.021361481864 0.020675751846 0.037274339935 0.04929404147 0.059310406446 0.07072070986 0.074323248118 0.069770928472 
0.07211201638 0.065484751016 0.066773585975 0.046599826775 0.054057802074 0.041503801942 0.038420952857 0.036548572127 0.034692795016 
0.034175825771 0.033831813373 0.028183943592 0.019629544811 0.013802448986 0.010462214123 0.0090566019062 0.0091586367926 0.011112971697 
0.01423573494 0.01658798242 0.018435753882 0.020133231767 0.023010728881 0.029134711716 0.038497974724 0.048878350295 0.060830350965 
0.069712547585 0.070508230478 0.064752983861 0.058716486208 0.055686935782 0.054152891971 0.051714506932 0.048342275433 0.04488429334 
0.040774756111 0.034904427826 0.027794825844 0.022068692837 0.018370162463 0.014948207187 0.011653563008 0.0099425758235 0.0094041890698 
0.010287248413 0.014222912863 0.019153418019 0.021971161477 0.024584123865 0.028186141048 0.034387490712 0.042307518423 0.049620885402 
0.053399014287 0.05276409816 0.05286057014 0.056740898639 0.059009539895 0.053217982873 0.059584708884 0.045475118794 0.036621694453 
0.028895361815 0.024396392982 0.022760844789 0.022984161507 0.022805666551 0.020557803102 0.016957279295 0.012841449352 0.0095520273317 
0.0078623049194 0.009028970846 0.013277781662 0.019183719996 0.025213677902 0.030804366805 0.036883627996 0.042288606986 0.046157868579 
0.04718239978 0.04668817576 0.04971359577 0.056803860702 0.062802791595 0.062955639325 0.058568350039 0.053794837557 0.050182097591 
0.047412654385 0.043184127659 0.036265841685 0.030085059348 0.02704139892 0.02649847744 0.026571057737 0.023876907304 0.017327669775 
0.012104518712 0.01187899569 0.014745788882 0.018381262198 0.020156672224 0.020794220269 0.023186129984 0.026608613785 0.02944444865 
0.032266546506 0.036253510509 0.043471616693 0.053981173784 0.067583837546 0.077650921419 0.075730517507 0.068846793845 0.064208945259 
0.052303918637 0.056842966937 0.049621583894 0.046779962257 0.043141412549 0.039666512981 0.035927914083 0.028951791115 0.020138326334 
0.013305625645 0.0086704413407 0.0070125071798 0.0080827320926 0.01013751491 0.0123704297 0.014714754419 0.017765993252 0.021551073994 
0.025966609363 0.031548508443 0.036996711046 0.063029694371 0.053445622325 0.070250241086 0.07231534645 0.070297235623 0.068253412843 
0.06822325103 0.069566698745 0.069599513896 0.066583555192 0.061015431769 0.054397194646 0.046598553658 0.036981930491 0.027577303816 
0.020371885737 0.015597550664 0.01265304815 0.011138491565 0.01073130779 0.011136496905 0.011744597694 0.021958929021 0.018191693351 
0.026061705314 0.03157080384 0.039715391584 0.049173953943 0.057849706151 0.06307554245 0.064414309338 0.066476879641 0.069858609699 
0.06966785714 0.063938154839 0.045002299361 0.040599684231 0.014477477409 0.011481038062 0.053748031147 0.060164137743 0.045171192847 
0.036255525891 0.029342104215 0.025660784449 0.024301698431 0.023235813715 0.020773801953 0.016050175065 0.010776566574 0.0074542335933 
0.0064662453951 0.0079295889009 0.012486572377 0.018453248311 0.02540885061 0.033979644533 0.041653843597 0.04818147514 0.052834664471 
0.054409253411 0.055748841725 0.062452245504 0.072839266621 0.079726863652 0.078909453005 0.072523765266 0.065433673561 0.060119846836 
0.055958948098 0.049701752141 0.040784650482 0.033013680018 0.028279894963 0.026055665221 0.024499774445 0.020653279033 0.014918805566 
0.01112615387 0.010908093536 0.013725480763 0.017513426719 0.020157758147 0.023189288564 0.026817199308 0.029785856139 0.033379637171 
0.038626977243 0.045112390071 0.052302085795 0.059823204763 0.069465527311 0.077826067805 0.077394006774 0.071951042861 0.067960668355 
0.064620745368 0.012616898865 0.010686224326 0.015536603285 0.020626670215 0.027508620173 0.035145103466 0.043906470761 0.053212104365 
0.061320068315 0.067536985502 0.072361307219 0.076401123777 0.077153372765 0.072254585102 0.066474853083 0.06012008246 0.056368886493 
0.055042172782 0.053057784215 0.049187975936 0.044291981496 0.038154263981 0.030046848115 0.021571431309 0.014730865369 0.010018303641 
0.0077105988748 0.0082983426983 0.010084521724 0.011585351778 0.014149326365 0.018271042034 0.023287797347 0.028254502453 0.032485560048 
0.03625319805 0.039279029705 0.043542594649 0.042059197091 0.046950327232 0.052725278772 0.059599672444 0.066058371216 0.070725360885 
0.072583083063 0.072994222865 0.074482223019 0.077702600509 0.080253697932 0.079287447035 0.073953028768 0.065793327987 0.056502544321 
0.046549028717 0.036277770996 0.026819980703 0.019796959823 0.015692566754 0.013566701673 0.012107201386 0.011046483181 0.010558333248 
0.0098492512479 0.0094091740903 0.011243597837 0.010919517372 0.011846403281 0.051464853808 0.05913845636 0.043191298842 0.035772235133 
0.030533365905 0.026916580275 0.023794745561 0.021149447188 0.017036224715 0.011226475937 0.0072816531174 0.0065382955363 0.0078383932123 
0.011462938972 0.015556911705 0.019442227436 0.044846421108 0.037021512631 0.052190714516 0.057637316175 0.06040625181 0.063899111003 
0.072516759858 0.08362589404 0.090476673096 0.089178949594 0.082250291482 0.074097875506 0.067221138626 0.061089524068 0.052808963694 
0.04280997999 0.034785704687 0.029984910041 0.02671403531 0.022985927761 0.017584091285 0.0125664589 0.010168028995 0.010310593992 
0.013051158749 0.016707100207 0.019965758547 0.024713267107 0.029861971736 0.033752336167 0.038360981271 0.045512750745 0.054668477736 
0.063678028062 0.070623827167 0.075753457844 0.078044014052 0.077317073941 0.076123170555 0.074189940467 0.070512015373 0.06544736959 
0.029783861246 0.02400684962 0.014767374378 0.021714870352 0.030405134894 0.03844629135 0.046452901326 0.05479255598 0.062722665258 
0.069900298491 0.076829155907 0.083139952272 0.085497500375 0.06571178697 0.071662893519 0.059868282638 0.057117756456 0.057050052099 
0.056394363753 0.053415603004 0.048138606362 0.040897204541 0.031313627958 0.022287719417 0.01594890072 0.011419332121 0.0088874914218 
0.0082011022605 0.0088104349561 0.010113528231 0.013471438317 0.019576880336 0.025239366107 0.029572226573 0.032273489982 0.034886809066 
0.038261397742 0.041263745166 0.045514781959 0.044733534567 0.046495898627 0.048922141083 0.051497412225 0.055633075535 0.061632083729 
0.067391628399 0.071508748457 0.073696754873 0.076008150354 0.07999394834 0.08422308974 0.085477752611 0.081352239475 0.072377456352 
0.061123592779 0.050932395272 0.041985332966 0.032772374339 0.024573373608 0.01860871166 0.014981947374 0.012804060942 0.011356476694 
0.0105818843 0.0095782447606 0.0089936270379 0.010121413041 0.015007153386 0.013029551832 0.015353337629 0.076821943745 0.084840539843 
0.032435442321 0.028053788934 0.039355998859 0.047208981588 0.055231153034 0.061800300144 0.065750404261 0.070254063234 0.079553740099 
0.090783985332 0.097321039066 0.095768140629 0.088784717023 0.080396477133 0.071272410452 0.061964649707 0.052940299734 0.043326270767 
0.035634951666 0.030513770413 0.026535107754 0.021207291167 0.015156908892 0.011319377925 0.0098242650274 0.010033751139 0.012477190932 
0.016012926819 0.020216114819 0.026441834401 0.033125820104 0.038767308928 0.044555487111 0.05261698924 0.062958204187 0.072884352878 
0.078802837059 0.079526036978 0.07641912438 0.074229774997 0.076140835881 0.077063808218 0.073106082156 0.066687682644 0.060006810352 
0.053187237121 0.046509970911 0.040322944522 0.035068787169 0.030217119493 0.025154493749 0.020546896383 0.016185880639 0.011251563905 
0.0076991840033 0.0068631368922 0.0079182018526 0.010426077992 0.013268123148 0.016875688219 0.021164106671 0.025749084074 0.032510359306 
0.030406568665 0.034018882861 0.022891992703 0.031849885359 0.039700869471 0.046515988186 0.054534218274 0.063407824375 0.071505742148 
0.078929601237 0.086045892909 0.091695938259 0.093759061769 0.087392643094 0.095265576616 0.078500807285 0.071266124025 0.064748789184 
0.059914903715 0.058135763742 0.057931634287 0.057570665143 0.055521964096 0.05094506871 0.043982282281 0.036657380871 0.015615533805 
0.020673223305 0.011595715303 0.0095663964748 0.0085988100618 0.0084670960903 0.0094601665623 0.012857215479 0.016975099919 0.032649219502 
0.029386262875 0.026243030559 0.030904815067 0.025519136805 0.021468742285 0.039971853606 0.036734738387 0.042996250093 0.049748003483 
0.04747882206 0.050305698998 0.050297487527 0.052366651595 0.057391947135 0.061867622286 0.067452661693 0.070932973176 0.074670670554 
0.079279694706 0.084420930594 0.087411919609 0.084251146764 0.074092619121 0.060986148193 0.050642242655 0.04324381426 0.035550117958 
0.027799902484 0.021111765411 0.015407520346 0.012019111542 0.01057063858 0.0094591067173 0.0096205607988 0.011338321492 0.018528507324 
0.015531604877 0.021645401139 0.039729234762 0.047775221057 0.056754009798 0.064855874516 0.069934166968 0.075178867206 0.08484364301 
0.095323663205 0.10089313053 0.099787693471 0.093568433076 0.085666447878 0.078931836411 0.05106715858 0.059678114019 0.04291551467 
0.036185817793 0.030796041247 0.025550337043 0.019503169227 0.014023945434 0.010945421411 0.0096149099991 0.0097150739748 0.012406003661 
0.016655163141 0.02188372612 0.029099541716 0.036425489001 0.042902898975 0.04947081767 0.057747657411 0.069390207529 0.078527187929 
0.082478730008 0.079752411693 0.073866447434 0.070752009749 0.072859728709 0.074410138652 0.069925308228 0.062934570014 0.057040118612 
0.051644521765 0.046314436011 0.041476972401 0.037171466276 0.03245386295 0.026514496654 0.020505583845 0.015411339002 0.010993520962 
0.0082770322915 0.0078798749018 0.0091457641684 0.011297815014 0.013429540442 0.016734216129 0.020554045681 0.023679435719 0.027260001749 
0.03525029961 0.03175407555 0.038316499442 0.067324193195 0.073943128809 0.05454106722 0.058289667591 0.068590067327 0.064925899729 
0.072892855853 0.077665546909 0.082774467766 0.086258307099 0.083487449214 0.072195288539 0.058965619653 0.048960209824 0.041853889823 
0.035512827337 0.029034992214 0.022818754427 0.017875420861 0.012449515518 0.014701311011 0.030309018679 0.038078220561 0.045015489683 
0.053748636506 0.063423686661 0.073150363564 0.080484284088 0.086758056656 0.092851417139 0.096916710958 0.098734149709 0.099169474095 
0.10113703907 0.091780552641 0.080755872652 0.071090444922 0.064875463955 0.06106224563 0.05876463186 0.057322271168 0.05314511992 
0.04646038916 0.039479671046 0.033900891896 0.026649659965 0.028937320225 0.022843468003 0.018397976179 0.01464269706 0.011002621381 
0.0091204345226 0.039025396109 0.034540667385 0.042451087385 0.057515714318 0.052525796928 0.055923961103 0.046206018887 0.056224796921 
0.066042400897 0.072955522686 0.079190751538 0.089368889108 0.098980495706 0.099406808615 0.095246098936 0.08961025998 0.084370948374 
0.049412073568 0.057130032219 0.042196695693 0.036232014187 0.030724526849 0.024726875126 0.01885884814 0.013937511016 0.011079651769 
0.0098790999036 0.0096141180644 0.010757875629 0.024616825394 0.019083906896 0.031552993227 0.038413443603 0.044979535975 0.051801223308 
0.059359734878 0.066784946248 0.082678137347 0.081788904965 0.077954860404 0.071859216318 0.069528928027 0.07014487125 0.069886086509 
0.065822029486 0.015148524893 0.012593351537 0.061958978884 0.062072969042 0.077783878893 0.073453821242 0.048615369014 0.044211296365 
0.040059831925 0.03630522918 0.031845568679 0.026139254682 0.020132719539 0.014838207047 0.010732034454 0.0087910762522 0.0090547634754 
0.010793634458 0.01338154776 0.015250358032 0.016861455825 0.019000560511 0.02147329459 0.024661574047 0.036908162758 0.010124307824 
0.0087373245042 0.012240992238 0.014192052651 0.017055899603 0.024990357459 0.019428532105 0.029817581642 0.036002265289 0.041380315088 
0.030550289433 0.024433154147 0.018841478042 0.014155749697 0.01098733861 0.010164425522 0.010865125805 0.01427818276 0.010490687331 
0.0090346490033 0.009632184403 0.011585173663 0.014414635953 0.016778526362 0.018229964003 0.022213608492 0.019584840164 0.017169902101 
0.013947891071 0.010469103232 0.0087292979006 0.042949611694 0.054439523257 0.065481430851 0.074254911393 0.081848500296 0.091938024387 
0.09960860014 0.060743472539 0.056396515109 0.049277002923 0.042480687611 0.092523209751 0.081051839516 0.071609549224 0.065334392712 
0.017336653545 0.015963331796 0.012885422911 0.0099283272866 0.0088522408623 0.0093935953919 0.011335367803 0.012936060317 0.098366501431 
0.095845352858 0.091712919995 0.086903272197 0.064029354602 0.069240126759 0.026689689234 0.035979814827 0.043997831643 0.053593626246 
0.06244787015 0.047720400617 0.082253644864 0.017520637717 0.021695977543 0.027168415952 0.033227280248 0.039382699877 0.04558841791 
0.05206478294 0.058514139615 0.064474585466 0.070077234879 0.07945119217 0.07637141645 0.08192999661 0.082750728354 0.081075565889 
0.075939647853 0.069635920227 0.067328695208 0.066379664466 0.065562846139 0.061864894815 0.063893047472 0.064373210073 0.065831093118 
0.068479666486 0.072455810383 0.077032702044 0.081397153437 0.084123594686 0.058000028133 0.065922441892 0.048977651633 0.041650814004 
0.03539355956 0.028787555173 0.023166671395 0.019359660024 0.020350941457 0.03952534621 0.043938621879 0.050585425459 0.057711556554 
0.063022861878 0.078485693783 0.081689773127 0.07375809364 0.069808433453 0.090305397908 0.081919338554 0.052116136067 0.062988488376 
0.045321799815 0.010013216641 0.0088995399419 0.0097319660708 0.011955528986 0.014911875594 0.082349073142 0.082783771058 0.083240229636 
0.06104409198 0.055116556585 0.040201603125 0.035646031611 0.029162036721 0.024062228079 0.07320664078 0.045820087194 0.079279910773 

Stress_XY_Pt 1 1116 double
0.025078196079 0.02057604678 0.012180119928 0.014773072442 0.01345211966 0.0078694522963 0.0092902095057 0.0049964197897 0.0070248637348 
0.0035092496182 0.0057468097657 0.0027031705977 0.0041158789536 0.0013830246899 0.0018677584885 -7.0634749136e-05 0.0033564134792 0.00096991223108 
0.0071642482653 0.0023925354471 0.0083700097166 0.0013074327726 0.0064543525223 -0.001427292591 0.0039644396165 -0.0038748450461 0.0033336784691 
-0.0047914823517 0.0019955105672 -0.0062514167948 -0.0011876884091 -0.0090569754684 -0.003892227076 -0.011326605454 -0.0062154820189 -0.013000080362 
-0.0088000341784 -0.013946320745 -0.0096834884025 -0.012794794282 -0.0083075778093 -0.0096187716117 -0.0058399466798 -0.0052796203527 -0.0032257457497 
-0.0014043290867 -0.00028609286528 0.0017292034463 0.0030173100531 0.004539545509 0.0046726751607 0.0059255008819 0.0038354381686 0.0054412866593 
0.00010191241745 0.0023902464309 -0.0054514859803 -0.0025110824208 -0.0095945312642 -0.0065259821422 -0.010983730666 -0.0084090429591 -0.010581103619 
-0.0088836234063 -0.011059609707 -0.0096006777603 -0.01175801456 -0.010365139227 -0.0101688453 -0.010066436371 -0.0090464474633 -0.0104798947 
-0.010692185722 -0.012967975112 -0.013893824536 -0.016696309438 -0.018045972101 -0.021249056794 -0.022808004171 -0.026582390536 -0.028945866972 
-0.032604780048 -0.035057408735 -0.037226907909 -0.036243326962 -0.037329757586 -0.033407567069 -0.033937063068 -0.03039766755 -0.02925356105 
-0.02497257106 -0.021803706419 -0.015800403897 -0.011508829804 -0.006143534556 -0.0017066560977 0.0025595284533 0.0057775832247 0.0098523630295 
0.011112862383 0.014514993876 0.014355004532 0.016229473054 0.015112329973 0.015427124687 0.013133571018 0.014847301878 0.010802833363 
0.017191863619 0.011100043892 0.022227887064 0.0135190211 0.00010503202793 -0.00022158902721 -0.0026491974859 -0.00014064747666 7.4791314546e-05 
-0.0041029581043 0.003181291162 -0.002903348126 0.005676179193 -0.0013887137175 0.0063986941241 -0.00067058391869 0.0060839317739 -0.00071926868986 
0.0046380114509 -0.0016157759237 0.0026399031631 -0.0027130591043 0.0027515866677 -0.0017789486155 0.0057625385234 0.0020051668107 0.01018950413 
0.0066874634067 0.012183801271 0.0086056459695 0.0093627066817 0.0066054630443 0.0041988923913 0.002663150648 -0.0018728751456 -0.0020370651182 
-0.006049835356 -0.005986650649 -0.0083660075907 -0.0096497348277 -0.0090858601034 -0.012373787351 -0.0076681300998 -0.012096940773 -0.0064052897505 
-0.0099545503035 -0.0058007044718 -0.0080121930223 -0.0074181025848 -0.0079071699874 -0.010851951316 -0.0094376482302 -0.012225141283 -0.010104351328 
-0.010508580133 -0.0080661029788 -0.0072415852919 -0.0043338226678 -0.0050983869005 -0.0019762192096 -0.0062184040435 -0.0029993511562 -0.0098556599114 
-0.0068496759923 -0.013820475899 -0.011127020814 -0.013065456878 -0.01235062792 -0.011050549336 -0.011667113751 -0.010104693472 -0.010336114559 
-0.0058324665297 -0.0072434524773 -0.00037268537562 -0.0035007678089 0.0028151312144 -0.00094841985265 0.0023211117368 -0.00081665290054 -0.00075187114999 
-0.0027256157482 -0.0053426078521 -0.005698645371 -0.0069466673303 -0.0068318422418 -0.0038439665223 -0.0047755038249 -0.00067757444049 -0.0022238199672 
0.00026958790113 -0.0013310112736 -0.00042531853978 -0.0021633167307 -0.0019460760523 -0.0039425751893 -0.0014725834117 -0.0043724027455 0.0018417035244 
-0.0031118326115 0.004754656693 -0.0023351073032 0.0056114830077 -0.0024436630774 0.0050758363213 -0.0030673289439 0.0038023293018 -0.0041289725341 
0.001578434094 -0.005163213842 -7.6909345808e-05 -0.004472285058 0.0012569824612 0.00064538740116 0.00067250442225 0.0046485469793 -0.0029344931245 
0.0025676349178 -0.0023943417473 0.00060461371322 0.0013369452136 0.00297004616 -7.0784662967e-05 -0.00061210376589 -0.00084794194845 -0.0016756186815 
-0.0022592103342 -0.0025005037314 -0.0049744585995 -0.0093890742864 -0.01323226036 -0.015886878595 -0.017501632217 -0.018929371843 -0.020401023328 
-0.021450143773 -0.021914989688 -0.020487057511 -0.016518130666 -0.010807091603 -0.0044419673213 0.0011644670041 0.0040920795873 0.00524535554 
0.0058126410004 0.0062965046382 0.0054082561983 0.0022827537323 -0.0012508776563 -0.0036466716556 -0.0051111702342 -0.0064800127293 -0.008117471938 
-0.010063222609 -0.012832385721 -0.016799343983 -0.02165846061 -0.026959361043 -0.032335860189 -0.037111714482 -0.03957126569 -0.038426031359 
-0.034509445541 -0.027590832487 -0.018681026995 -0.0078596644744 0.0027911401412 0.010278207134 0.014214675175 0.015773622552 0.015062269988 
0.011618026067 0.007209675503 0.0047214196529 0.0041104699485 0.0038535522181 -0.0078906753333 -0.0048525316524 -0.0091824089177 -0.0094487760216 
-0.0091544408351 -0.0087674228707 -0.0084102415713 -0.0076651313575 -0.0056047096732 -0.0013852393604 0.0028463822091 0.0040904218331 0.0028502447385 
0.00042646750808 -0.0028789397766 -0.0070796551299 -0.01199137629 -0.015761441551 -0.01603635191 -0.013146876357 -0.0098709824961 -0.0075945496792 
-0.006418688572 -0.005843993451 -0.0037337322356 -0.00014890159218 0.0020438661741 0.0012147452799 -0.0021779849194 -0.0061378597748 -0.0091524285963 
-0.010660093743 -0.010758385761 -0.0099841561168 -0.0082763422979 -0.0062484919326 -0.0050717135891 -0.0052083097398 -0.0058435286628 -0.0061275884509 
-0.0057389538269 -0.0048703779466 -0.0044354985002 -0.0050403375644 -0.0065876811277 -0.0081441309303 -0.009448547964 -0.010875015054 -0.011874362826 
-0.012398386374 -0.012780729914 -0.012047222583 -0.0085692362627 -0.001044928882 0.005500965548 0.0056185996509 0.0025216379795 -0.00091737400408 
-0.0010454536023 0.00020648049394 -0.0015293306787 -0.0016640247777 -0.0022396696731 -0.0030230289558 -0.0045792561723 -0.0084828636609 -0.013631382026 
-0.017902588006 -0.02122463705 -0.023869585712 -0.025651182048 -0.026212244295 -0.026111458428 -0.025297706947 -0.022441438399 -0.017226727679 
-0.010637964704 -0.0045671650732 -0.00069426871778 0.0035298804869 0.0040373463416 0.0030478271947 0.004170929984 0.0055331997573 0.0045957225375 
0.0018907333433 -0.00062579420046 -0.0024892421789 -0.00466482708 -0.007741736481 -0.011400775751 -0.015356554184 -0.019727943931 -0.024733557831 
-0.029974696226 -0.034457777627 -0.037584654987 -0.038734591566 -0.037043460645 -0.032821248285 -0.027469316032 -0.0068168639264 -0.016552299028 
0.0041390343977 0.012621954782 0.016943522962 0.017867001239 0.016336146276 0.012696898775 0.0080991539871 0.0046832393273 0.0031448869267 
0.0026195427636 0.0017269083764 0.003143800539 0.0010381482134 -0.021830336656 -0.021617591381 -0.0093413379509 -0.0071577950148 -0.010824801866 
-0.011417774251 -0.011022956576 -0.0094737501349 -0.0069340075133 -0.0037972332211 -0.00030559976585 0.0021222312935 0.0022547578264 0.00090960157104 
-0.0012527124491 -0.0045718659821 -0.0085751365405 -0.012250768254 -0.014205992781 -0.014161818428 -0.011724079261 -0.0085748650599 -0.0057345245732 
-0.0036200266622 -0.0024237256875 -0.00073606716614 0.0017318404352 0.0031123373192 0.0025379746512 0.00028553642915 -0.0027119222796 -0.0055075138807 
-0.0084254030371 -0.011086473241 -0.01187685132 -0.01045703399 -0.0081140294205 -0.006484957994 -0.0059625753202 -0.0056524601532 -0.005378858652 
-0.0056314690737 -0.0060710165417 -0.0063252317486 -0.0065953803714 -0.0074338387931 -0.0090170649346 -0.010855206288 -0.012573790969 -0.013801365159 
-0.014298517257 -0.013892242219 -0.01196577074 -0.0077456462895 -0.0020982356655 0.0018765192217 0.0028518975596 0.0015434815791 -0.0010878290855 
-0.0042180239107 -0.016372122802 -0.015923522413 -0.012399551575 -0.0040666846908 0.0054203045438 0.012995613506 0.016979286447 0.017657220364 
0.016052851686 0.012904361589 0.008983572945 0.0055781903793 0.0034034483135 0.0021959152073 0.0015573865385 0.00034300073821 -0.0010508974483 
-0.001813872921 -0.0020937913214 -0.0026993097272 -0.0037994935992 -0.0056861294433 -0.009138043155 -0.013809437864 -0.018487997819 -0.022593499161 
-0.02616318129 -0.028721185867 -0.029490681831 -0.028876136057 -0.026753734797 -0.022354246117 -0.016299514333 -0.010233943118 -0.005589355831 
-0.0027047741605 -0.0011853462493 0.0012109497693 -0.00066037452052 0.0025218276714 0.0028434623964 0.0018318427065 0.00084128762319 0.0019123947859 
0.0042424682761 0.0047649058979 0.0028449197125 0.00035424313683 -0.0019689019973 -0.0048652167316 -0.0089081296464 -0.013707768871 -0.018272664398 
-0.022084294353 -0.025731718168 -0.029603165109 -0.033092263155 -0.035354484804 -0.035615379922 -0.033474250231 -0.029249448795 -0.024108614307 
-0.018920696573 -0.01418041368 -0.011493463768 -0.010742306011 -0.012513948604 -0.011053455761 -0.0090672959341 -0.012309331913 -0.012123381719 
-0.010072188452 -0.0067761258688 -0.0029831453867 -0.00012254528656 0.00049743740283 -0.00046959010069 -0.0019980815559 -0.0040440873272 -0.0068086496321 
-0.0093484311365 -0.011395196198 -0.01247708709 -0.0094769331627 -0.01173996483 -0.0064824477304 -0.003565902065 -0.0014644249095 -0.00036935770913 
0.00093393608404 0.0026688813523 0.0035445207614 0.0031848020735 0.0016957253101 -0.00061961333267 -0.0034978765761 -0.0072348222602 -0.01083785505 
-0.012144111563 -0.010658282321 -0.0081864023814 -0.0069097094238 -0.0065521005308 -0.0058456725674 -0.0053247943288 -0.0056392215192 -0.0062404362252 
-0.0065539213829 -0.0068091717549 -0.0075118116802 -0.0088787660934 -0.010655057849 -0.012438844889 -0.013886696193 -0.014802167891 -0.014135858743 
-0.011113583576 -0.0063361811335 -0.0014210898225 0.0014641294401 0.0020821148064 0.0012391834389 -0.00074174089968 -0.0036436023365 -0.0066323474748 
-0.012517085066 -0.01225267374 -0.0095276123611 -0.0039513179509 0.00290918877 0.0089995801682 0.012988079339 0.014521506149 0.013988000108 
0.012123670196 0.0094848296139 0.0066618536366 0.0048435342615 0.0019185244455 0.0023629707866 0.00063483419217 -0.00081347957166 -0.0016316720867 
-0.0020466513233 -0.0027433804935 -0.0038533233455 -0.0054647198413 -0.0087084287778 -0.013570013689 -0.018428202718 -0.023142355494 -0.026984845288 
-0.029380739201 -0.030153998174 -0.029349023011 -0.026426892262 -0.019827351905 -0.01348038041 -0.0088899907423 -0.006304391815 -0.0046540970798 
-0.0032322633197 -0.0027379712556 -0.0010511771907 -0.0029022729141 0.00024617146846 0.0010714663367 0.0016069215296 0.00070080100704 -8.7243861344e-06 
0.00077841048551 0.0029352668498 0.0037942883209 0.0023713630799 0.00016347011842 -0.0023272532417 -0.0056904776138 -0.010358253494 -0.015418401221 
-0.019738188945 -0.022677868139 -0.024830228649 -0.02707962459 -0.02916058246 -0.030332523398 -0.029869951773 -0.0280988249 -0.026397174224 
-0.022195355967 -0.017169530038 -0.012805530336 -0.009958964074 -0.0087561697001 -0.0080276072258 -0.0088224657811 0.0027902353322 0.0038224388263 
-0.010969496565 -0.011722722324 -0.0098721582908 -0.0074997289339 -0.0045499347616 -0.0016587566352 0.00021838068642 0.00094131389778 0.0018194266013 
0.0032435996109 0.0041191690834 0.0039105431642 0.0029414562741 0.0013433371496 -0.0011824359186 -0.0059239163529 -0.0094033924397 -0.010563267628 
-0.0096647089813 -0.0082608064404 -0.0076138138538 -0.0071683368878 -0.0061657968909 -0.0054970846977 -0.0056142043322 -0.0058754589409 -0.0057008906733 
-0.0059458529577 -0.0071435059654 -0.0087128363084 -0.010379232001 -0.011795761297 -0.012977098348 -0.014128517825 -0.013423383702 -0.010025771218 
-0.0052830002387 -0.00065005838405 0.0016649894242 0.001457674909 0.0004106898341 -0.00102675995 -0.0035738806764 -0.0064219514607 -0.0086413674289 
-0.010503590573 -0.011789139593 -0.011756298365 -0.010225281352 -0.0078442699742 -0.0050849127874 -0.0031805071917 -0.0032250682702 -0.004500063078 
-0.0060728103272 -0.0077936234884 -0.0095396650722 -0.010831298307 -0.012064132374 -0.012747987173 -0.01321257255 -0.013617916731 -0.010779418517 
-0.0124757702 -0.0099657162403 -0.0058390011545 -0.0015046587214 0.002957363904 0.0069764842629 0.0096847851528 0.010675144149 0.010458867066 
0.0092907538638 0.0073948932113 0.0058511183597 0.0048146549379 0.0030060118879 0.0039135753759 0.0025273255887 0.0025903971982 0.0019050086266 
0.00037696793515 -0.00086326158998 -0.0013961793544 -0.0016886375088 -0.0023045939743 -0.0032209138153 -0.0045062442077 -0.0063904531999 -0.019491018727 
-0.015266973292 -0.02374979388 -0.027309417725 -0.029091654966 -0.02873338908 -0.02796646161 -0.025289560203 -0.021136976779 -0.0069628352067 
-0.010113939294 -0.011870190268 -0.0097022330156 -0.013842932414 -0.016680710949 -0.0046585123055 -0.0053905726527 -0.0047019639169 -0.0033538974822 
-0.0051990987267 -0.0016125319235 -0.00059477696777 -2.6942139812e-05 -0.00025035151702 0.00017534914077 0.0017804830131 0.0024087324273 0.0013791519968 
-0.00069181834169 -0.003175400052 -0.0064936303534 -0.011230502278 -0.015826366842 -0.019204182085 -0.021330735181 -0.022488966119 -0.023631548975 
-0.024616532493 -0.024602612015 -0.022090312093 -0.022023310419 -0.016426890856 -0.011720357928 -0.0084930633893 -0.0066679922165 -0.0068106679246 
-0.0063754405128 -0.0068308814662 -0.0086424750043 -0.0060726474039 -0.0029251498418 -4.5691624109e-05 0.0015752768959 0.0018493896641 0.0023263905896 
0.003595371556 0.0044001290808 0.0045803954126 0.0043147220276 0.0034527478565 0.0027410283219 -0.0069124547299 -0.004071232077 -0.0081075555645 
-0.0083862361498 -0.0087038206402 -0.0085517310072 -0.0075391468126 -0.0062750199577 -0.0053888598923 -0.0051186346682 -0.0051901714178 -0.0054946359247 
-0.0058722349349 -0.0074847603682 -0.009200362023 -0.010556018911 -0.011553270509 -0.012281551259 -0.012648059521 -0.012154185958 -0.0092921718024 
-0.0050386131625 -0.00067715984187 0.0014751164708 0.00096803887845 -0.00037859436725 -0.001615005167 -0.0033992295503 -0.0056909304112 -0.0078047778225 
-0.0094430947211 -0.010369586991 -0.010465866653 -0.0099070975557 -0.009071723558 -0.0081064436818 -0.0075133736245 -0.0078452137532 -0.0090185120935 
-0.010609223158 -0.01221234235 -0.013346022926 -0.013907888439 -0.014540479518 -0.014971895842 -0.015649545006 -0.016083543887 -0.014370051213 
-0.0095137199387 -0.010717617813 -0.0086185027612 -0.00038072740426 0.0032781045593 -0.00062417819208 -0.00064846215173 0.0014932902704 0.0012618756591 
0.00050201558861 -0.0015983235417 -0.004136770498 -0.0069976666709 -0.010930742836 -0.015297608823 -0.018366287928 -0.019589732401 -0.01989978319 
-0.020204088651 -0.020511629991 -0.01998494938 -0.017830536701 -0.01557275001 -0.013925489271 -0.0043104314245 -0.0012157804449 0.0023046453134 
0.0054664536146 0.0075214380631 0.0079412353225 0.0083903024206 0.0074855411658 0.0064991178224 0.0056536111515 0.0049784026924 0.0032687815255 
0.0042652144097 0.0030720080249 0.0032804182265 0.0029282774776 0.0015739622104 -1.6439371393e-06 -0.0011057371739 -0.0015424019512 -0.0022198388469 
-0.0032866311667 -0.0050779253361 -0.00808238436 -0.014348448021 -0.012399701867 -0.0164435755 -0.018887144281 -0.021679112222 -0.024458230473 
-0.026925627142 -0.0064317989163 -0.0077810855582 -0.0065582370153 -0.0039674383122 -0.0063537898241 -0.0017344985972 -0.005297014839 -0.0016924694428 
0.00135158997 0.0028570205031 0.0025985434186 0.0024346564896 0.0032675187686 0.0053488519043 0.0055125022773 0.0051842075773 0.0051669511013 
-0.0043441047892 -0.0019389545414 -0.0060839320067 -0.0074573948514 -0.0087547251023 -0.0088481658604 -0.0075318880845 -0.0060890112072 -0.0051064444706 
-0.0048756968463 -0.0050398547513 -0.0062142872484 -0.009740343201 -0.0084637531545 -0.01088107028 -0.011575235752 -0.012206556043 -0.012610116508 
-0.012157474412 -0.012388338102 -0.0046331427293 -0.008554852684 -0.00084668028285 0.00093614291109 0.0003205125422 -0.0010050819665 -0.0018233812589 
-0.0026532480551 -0.0082692224532 -0.0094167931238 0.0002944682783 -0.00049130836851 -0.011425823905 -0.012987038819 -0.0079574824777 -0.0085410205647 
-0.0084651864599 -0.0087728811195 -0.0096042782534 -0.010328848846 -0.010935228085 -0.012012621621 -0.013735970249 -0.015618697507 -0.017106951447 
-0.017767996527 -0.017708537634 -0.017499167938 -0.017067289601 -0.018020957708 -0.018508047331 -0.016562532634 -0.0067423476139 -0.025673188269 
-0.026410449296 -0.024438733235 -0.021895240061 -0.018285111524 -0.012921551475 -0.01446876768 -0.010706355795 -0.0069261408644 -0.004732251633 
-0.0084937801585 -0.0084013984306 -0.0071345553733 -0.0059775019763 -0.0053904963424 -0.0065896668471 -0.01070078765 -0.016056503635 -0.018030061154 
-0.019869045354 -0.020952400751 -0.021094474476 -0.020628774073 -0.019731848035 -0.02098104246 -0.018733538222 -0.020765084308 -0.022220363375 
-0.023559437599 -0.024915816728 -0.02592800511 -0.0048520315439 -0.0010051997524 0.0018941234885 0.0035459949286 0.0031227883301 0.0025001051836 
0.0027777140494 -0.00031419561856 -0.00087071460439 -0.0020256207354 -0.003871455614 0.0034091982525 0.0039977315464 0.0031840491574 0.001439028194 
-0.022366221994 -0.023142614868 -0.024053229485 -0.024562820792 -0.02455739351 -0.0240460895 -0.022962607909 -0.019776338246 0.0058099611973 
0.0060132570798 0.0062403458869 0.0066624801839 0.0010856525405 0.0045926279854 -0.0058871993795 -0.0038600850385 -0.0011755218642 0.0024917120572 
0.004533684405 -0.0023223176722 0.0072337149953 -0.012502407888 -0.012526693987 -0.013229951495 -0.013559229439 -0.013595527736 -0.013839788735 
-0.014081544243 -0.013701537158 -0.013802541653 -0.014358468819 -0.0119079859 -0.013212575344 -0.010068373289 -0.0072234902764 -0.0037961044582 
-0.00091937179604 0.00084129644383 0.00025738011755 -0.00077448261436 -0.0011747015378 -0.0014708232047 -0.00010925521686 0.0005694351421 0.0013718042755 
0.001169951116 -0.00022372126841 -0.0022986760741 -0.0048875021166 -0.0073605462676 -0.017754704226 -0.016350343358 -0.017981247976 -0.017644720618 
-0.01672296077 -0.016790702241 -0.016257957323 -0.015573645321 -0.0066528841853 -0.015320912004 -0.015729273902 -0.016064364696 -0.01600662875 
-0.01572248588 -0.0029496130592 -0.0057742795907 -0.0007703948977 0.00066251718575 0.0031877989726 0.0037166210823 -0.001034266199 0.0012364148977 
-0.0027225563924 -0.021386713721 -0.022661845665 -0.023291900288 -0.023094818462 -0.022310921457 -0.010245529935 -0.010142694538 -0.0083839196013 
0.002070326523 0.00019090659407 -0.0041672196239 -0.0058859126875 -0.007155385334 -0.0073266381708 0.0034736047382 -0.0066614040794 0.006072103628 

Stress_YZ_Pt 1 1116 double
-8.9752429631e-05 0.0022570294677 0.00037277452066 0.00025956195896 0.0027042045258 -0.00061937439023 0.0016963518574 -0.0027938757848 0.00016109808348 
-0.0054102275753 -0.0024623895879 -0.0086050877289 -0.0057525804732 -0.012313066167 -0.0090223096777 -0.015765527845 -0.014003723394 -0.019190700026 
-0.019225123338 -0.021393212955 -0.019343927503 -0.019245691132 -0.014058929402 -0.013604660751 -0.0079433263745 -0.0082167960936 -0.0031773193623 
-0.0041300916055 0.0018379446701 0.00038980081445 0.0060870982707 0.0046969078539 0.0085668531246 0.0079973114189 0.010890943464 0.011407691287 
0.013927728403 0.015070516849 0.016815729439 0.018182582688 0.018543806858 0.020262807608 0.019462842494 0.021798284724 0.018742931075 
0.022182974033 0.013718360104 0.018967799842 0.0039128443459 0.011385649501 -0.0069926519645 0.0013463412761 -0.013028196059 -0.0061911450466 
-0.013879246078 -0.0090880632633 -0.015024046879 -0.010764340754 -0.017025331967 -0.012574054999 -0.017121627927 -0.013511897996 -0.014622941613 
-0.012845728314 -0.012296253815 -0.011630769819 -0.010072367266 -0.010147887515 -0.005073860113 -0.0074076961318 -0.00016961671645 -0.0048454122443 
0.00086306282901 -0.0041966281569 -0.00072581195855 -0.0048087102623 -0.0028676388902 -0.0055487514765 -0.0053314471152 -0.0059493263252 -0.0075641907752 
-0.005491227319 -0.0088776471093 -0.0037159451167 -0.0066987455357 0.00050760095473 -0.00041886826511 0.0071600149968 0.0080732906936 0.014527623018 
0.017622566782 0.021611887496 0.025016966276 0.027104867622 0.026599231176 0.029583770316 0.023132042959 0.029250186868 0.018262531608 
0.026721560396 0.013786648866 0.022963497555 0.0099606881849 0.018530651694 0.0062247023452 0.013093593647 0.0032415381866 0.007963043463 
0.0013443879434 0.0041944738769 -0.00052226678235 0.0013764277974 0.012048559729 0.012427677866 0.014154270291 0.013136907481 0.011265450623 
0.014179080958 0.0084240932483 0.012139289756 0.0048412540928 0.0090282678138 0.0021158457384 0.0061399755359 0.00077938716277 0.0041886908439 
-0.00013028067769 0.0032891967276 -0.0010557376954 0.0033709221898 -0.0015318890801 0.0041876691976 0.00048432755284 0.0056574287592 0.0046648504212 
0.0065272705397 0.0065225493163 0.0049717656948 0.0054924038704 0.0018264626997 0.0029461069498 -0.001839522738 -0.00085867813323 -0.0062981485971 
-0.0064186091768 -0.011719807808 -0.013528975192 -0.017134699272 -0.017457331531 -0.019839749672 -0.01482140692 -0.018207609886 -0.0076379721286 
-0.012891304272 -0.00017372262664 -0.0066484207055 0.0040531296981 -0.0021892598015 0.004880761262 0.00012157479068 0.0063342191279 0.0018653027946 
0.0077115599997 0.0032770618272 0.0060104224831 0.0038731888344 0.0042606780771 0.0050477453624 0.003117706161 0.0065390574746 0.0019548796117 
0.0073109446093 0.0027331766905 0.0078990818583 0.0020145058588 0.0079384607707 0.0041114160049 0.0098632445188 0.0096327383071 0.013990713749 
0.011763173621 0.016988463001 0.013541716617 0.018878482981 0.014399855863 0.018776574871 0.012048729695 0.016294020228 0.0080670870375 
0.013150927029 0.0059879124165 0.011149021564 0.0048474143259 0.0086484681815 0.001270026376 0.0036752710876 -0.0035367457313 -0.0021885614551 
-0.0070889159106 -0.0072257065913 -0.008561048191 -0.010456251679 -0.0088997567073 -0.01197881531 -0.0091982861049 -0.012554996414 -0.0093124941923 
-0.012365333503 -0.0082980864681 -0.011089188978 -0.0064991766121 -0.0091039534891 -0.0047162112314 -0.0070900026476 -0.0035832236754 -0.005819690472 
-0.0036274084123 -0.005621336808 -0.0045219182502 -0.0057940937113 -0.0054576392286 -0.0049420353025 -0.0053106821142 -0.0025766137987 -0.00058964081109 
0.0028761641588 0.0076032604557 0.0097971725045 -0.007610624365 -0.0044700037688 -0.011057429481 -0.015254268423 -0.019514635438 -0.02365443483 
-0.02675161371 -0.027715586126 -0.026329169516 -0.02215033723 -0.016520654783 -0.011658036616 -0.0075521365507 -0.002932131436 0.0023497057555 
0.0078943060944 0.013316271827 0.017943359446 0.021354725584 0.023866230622 0.026043466292 0.027326007932 0.025595726445 0.020902911434 
0.012815149385 0.0043582019862 -0.0015212130384 -0.0052718854859 -0.0079900019336 -0.010784959653 -0.013360213721 -0.015050572343 -0.016108725918 
-0.016969680088 -0.017408089247 -0.016746321227 -0.015228084754 -0.013448946294 -0.011035168427 -0.0072907481226 -0.0020527275628 0.0041151897749 
0.010431076516 0.016348971426 0.025224551093 0.030134171247 0.033800611272 0.036241280846 0.036091668531 0.03329478018 0.028148808517 
0.020801738836 0.01353051234 0.0077618556097 0.0032490548037 -0.00075497760554 0.019487061072 0.018011551583 0.01888026949 0.016902492149 
0.01444404386 0.01225563488 0.011641373392 0.013119686395 0.015329341171 0.015493683983 0.011811114498 0.0057933649659 -0.00027800117095 
-0.0059733319795 -0.011629716028 -0.016636007 -0.019768348429 -0.021473891102 -0.021885261871 -0.019388240762 -0.015103144338 -0.010886276606 
-0.0069224007311 -0.0042370537994 -0.002169974352 0.0015930055233 0.0070400717086 0.012158980826 0.015364206862 0.016599806957 0.018019601004 
0.020379707683 0.023269982543 0.026292021852 0.026995837688 0.024658633396 0.0216463916 0.019716128707 0.017956412164 0.013749467442 
0.0069018272334 -0.00064697657945 -0.0080287839519 -0.014257846633 -0.01850353647 -0.020538935903 -0.020520920865 -0.019171672175 -0.016945768381 
-0.014461069601 -0.012545495294 -0.011134287925 -0.0096517625498 -0.0062780188164 -0.00072474818444 0.0066653612885 0.013245232869 0.016097966814 
-0.016446915688 -0.01302227797 -0.021172215696 -0.026025002822 -0.030138277914 -0.032571433578 -0.032445371617 -0.030109365471 -0.026158349589 
-0.021424306557 -0.016758736921 -0.011780033936 -0.0058423932642 0.0011823731475 0.0086007673526 0.015329241753 0.020496873185 0.024105825461 
0.026827484369 0.028616741765 0.028815486934 0.022418487351 0.0256800754 0.016535489587 0.0093936617486 0.0023881987036 -0.0035860183816 
-0.0081804471556 -0.012656281004 -0.01744898688 -0.02193567669 -0.025593576487 -0.028256807476 -0.029663588852 -0.02874421142 -0.02569233859 
-0.021967496723 -0.018074988155 -0.013527599163 -0.0079198466847 -0.0019552822923 0.0028956913156 0.0052808643377 0.029143215623 0.022606167942 
0.033473386895 0.035545856692 0.035386025906 0.03303446481 0.028088130523 0.021062965505 0.01391959656 0.0073825579602 0.0013144238328 
-0.0044862770301 -0.0095900843153 0.026819910854 0.027381599415 0.013870943571 0.0054419376247 0.023031520192 0.022803619038 0.022298088763 
0.021186873317 0.019983295817 0.019690575078 0.021097524092 0.02300645737 0.022359000985 0.017339973012 0.0098814947996 0.0027133404365 
-0.0038329397939 -0.0098819945706 -0.014757288387 -0.017686314182 -0.020150478184 -0.02209760109 -0.020952947438 -0.017888729926 -0.014446470886 
-0.010475421674 -0.0068836561404 -0.0035134577774 0.0016293548397 0.0083753074287 0.014328185469 0.018359682523 0.02118105581 0.023895387072 
0.027240340598 0.030340755358 0.031901830807 0.030647531617 0.027035086416 0.023768692277 0.021926331799 0.019641262945 0.0146485921 
0.0073340648669 -0.00078911957098 -0.0092054846464 -0.017207364552 -0.0236856048 -0.027443909552 -0.02817092929 -0.026949651074 -0.024590877816 
-0.021994204726 -0.019562700298 -0.016681668116 -0.013138971757 -0.0076720737852 -0.00071992573794 0.0067674034508 0.013660126133 0.017975856084 
0.020889469888 0.011942189187 0.0062767233467 0.019009762211 0.025464847218 0.030110223219 0.031952561345 0.03170657577 0.029728711583 
0.025473582093 0.019603259396 0.013056044932 0.0059998641373 -0.0023386301007 -0.0091330260038 -0.013465392636 -0.016181669431 -0.019246890675 
-0.023416435812 -0.028150334954 -0.032239384018 -0.034483597614 -0.033839387819 -0.030839668587 -0.027138769161 -0.023388010915 -0.019153424073 
-0.013685126789 -0.0067672032164 0.001177633414 0.0090451970464 0.016210413072 0.022099188529 0.026098114438 0.028522644658 0.029554028064 
0.029379815795 0.028314138297 0.02535034623 0.026789844036 0.024226154201 0.023211350199 0.020922665019 0.016665465198 0.010623669601 
0.0033671722958 -0.003538971443 -0.0094313481823 -0.015035029501 -0.02116783103 -0.0273121926 -0.032224044204 -0.03536236845 -0.036820515059 
-0.036007740535 -0.032812686637 -0.028307319153 -0.023452796042 -0.018383763963 -0.012691526324 -0.0070039011771 -0.0031014076667 -0.0014997730323 
-0.00025233713677 0.0028347518237 0.010068924283 0.0082094526151 0.012209413573 0.025074698031 0.024796535727 0.025450294372 0.025599992368 
0.025711681228 0.026363539044 0.02693868801 0.025631787255 0.020595701411 0.012756254524 0.0051033933269 -0.0014243845508 -0.0071560075739 
-0.012032096274 -0.015506942756 -0.018085076008 -0.021828688215 -0.022451373283 -0.019698475022 -0.016760486411 -0.012965310365 -0.0089246537536 
-0.0045403663535 0.0012647047406 0.007989232312 0.013926255517 0.018562991172 0.022447556257 0.026067151222 0.0297839907 0.032645012252 
0.033208896406 0.031320983078 0.028225346003 0.025154191069 0.022471258882 0.019025369547 0.013472345425 0.0063592157094 -0.001410677447 
-0.0099186422303 -0.018634260166 -0.026081059128 -0.030879712664 -0.03258495545 -0.031812946312 -0.029465748928 -0.026929528452 -0.024466523901 
-0.020612411201 -0.014806753024 -0.0069242603204 0.00080362838344 0.0065984358662 0.012259026524 0.017783091636 0.022039860021 0.024240719154 
-0.021569746081 -0.020299962256 0.017165059457 0.023577560671 0.028166817967 0.029538347386 0.028788362164 0.02673666412 0.023303478956 
0.01871944638 0.013320609229 0.0072362620267 0.001136227067 -0.016913959058 -0.013380672783 -0.01918382803 -0.021452694666 -0.024424410425 
-0.028346674982 -0.032111573499 -0.034274443053 -0.033452047966 -0.029558680207 -0.026174241677 -0.022995010484 -0.018840448931 -0.013121366501 
-0.0061897706473 0.0015074023977 0.0093517863424 0.016895652283 0.024318639562 0.028281209525 0.029610539321 0.029926290736 0.029929513577 
0.029337540735 0.028328251094 0.02522928454 0.027276078239 0.023395360913 0.022391252685 0.021955174084 0.019981594756 0.016060053371 
0.010375854908 0.0029821295029 -0.004517134701 -0.011237662286 -0.017578899162 -0.024497551378 -0.0315675335 -0.03722627461 -0.040277848952 
-0.040824774653 -0.039667424746 -0.036988520995 -0.032938555814 -0.028124899138 -0.022724615876 -0.016795225209 -0.011033465271 -0.0071079468665 
-0.0065656308434 -0.0044691679941 -0.00027213536669 0.0058104051568 0.015131103108 0.012617775938 0.016412036261 -0.0087564003188 -0.0042957291371 
-0.022807177622 -0.022163342219 -0.023218529765 -0.023138583172 -0.021849804092 -0.019308173098 -0.015467428602 -0.011091983877 -0.0063738685567 
-0.00047576727229 0.0064285162662 0.012761345599 0.017750722123 0.021876787767 0.025816285238 0.029675352853 0.031858506612 0.03207085887 
0.030507799704 0.028101564385 0.025048929732 0.021708418615 0.017685924191 0.012086650822 0.0052969863464 -0.0021026163304 -0.010463737766 
-0.019412340596 -0.027302926406 -0.032908872236 -0.035826421343 -0.036130260676 -0.03437388828 -0.031944803894 -0.029136287514 -0.024238929152 
-0.016648929566 -0.0073010816413 0.00089091391419 0.0061888536438 0.011186730815 0.017263573129 0.022399442736 0.024880217388 0.025903528556 
0.026925494429 0.028353908099 0.029634914827 0.030406063423 0.030681889039 0.029716634192 0.026967724785 0.021544926334 0.013904536609 
0.0063473820337 -9.9242199212e-05 -0.0054841966485 -0.0099662640132 -0.013608260313 -0.016604263801 -0.019346716348 -0.021604685578 -0.023749027401 
-0.023271577898 -0.023659758891 0.023211000487 0.027871075086 0.0292876889 0.028011046816 0.025608571246 0.02283137152 0.019304176327 
0.015017414466 0.01031974738 0.0055061446837 0.00096890722489 -0.0093888895353 -0.0035188242327 -0.013706668513 -0.017432936234 -0.020464344416 
-0.022385244258 -0.023938068654 -0.025286598752 -0.027914246079 -0.031078957487 -0.033090086654 -0.032427785452 -0.02962447796 -0.020692810882 
-0.023696484044 -0.016372276237 -0.010714616743 -0.0057932713535 0.00083014827687 0.0100088279 0.016872960841 0.022083698306 0.03033479536 
0.030235192273 -0.025793335401 -0.026673371904 0.028854090255 0.025850097183 0.029401536565 0.030255221296 0.028587131295 0.026081649121 
0.028064668644 0.023557620589 0.021538500208 0.020394525025 0.016975306673 0.010220090672 0.0018808989844 -0.0055548028031 -0.012584091863 
-0.019308510469 -0.026651029941 -0.034194258973 -0.040162459947 -0.042836000212 -0.042274132371 -0.040480388328 -0.038265532814 -0.035081472248 
-0.030856711324 -0.025638822932 -0.018576790392 -0.011645552237 -0.0089186554542 -0.0040616808401 0.002627799433 0.0098420094 0.018940875307 
0.016196168959 0.02180579491 -0.024154118728 -0.024574213661 -0.023934221361 -0.021813843399 -0.018087066244 -0.013642691541 -0.009022340877 
-0.003240419348 0.0039470545889 0.010517421761 0.015567948576 0.019784674514 0.022718240507 0.030103761703 0.028649149463 0.030325093307 
0.029420127161 0.027349676471 0.02422653744 0.020717962645 0.016566849547 0.011074830429 0.0044814926223 -0.0025509946863 -0.012099982891 
-0.021438767901 -0.028886802029 -0.034486951306 -0.037904409692 -0.03909035027 -0.038390501402 -0.036593368277 -0.034326968715 -0.027172210161 
-0.018544937484 -0.0090041513904 -0.0010949701245 0.0044168878521 0.0097112192307 0.01583378599 0.021306985058 0.024798163678 0.02685224684 
0.028284056578 0.029761245009 0.031297314446 0.03239652887 0.032377712429 0.030431626365 0.026573128998 0.020687606186 0.013508263044 
0.0065396734281 0.00031397904968 -0.0049437406124 -0.0092636105837 -0.0129641518 -0.015769971069 -0.018453144468 -0.021094026975 -0.022762374021 
-0.024591038935 -0.024204502348 -0.024799207225 0.026578900404 0.024156479165 0.018629867118 0.014115089551 -0.0064666409744 0.00021301547531 
-0.013189765858 -0.020109781064 -0.027679187246 -0.035410468467 -0.041361125186 -0.043845146149 -0.04252764117 -0.040388058871 -0.038296603598 
-0.03578823898 -0.032154650893 -0.027440612204 -0.022600211203 -0.013901522616 -0.01838716655 0.026654353831 0.028800929897 0.028044289909 
0.025950612966 0.023710917216 0.02126262933 0.01718348451 0.013530020369 0.0097707331879 0.0062919165939 0.0030697121983 -0.0079042440047 
0.0002427702304 -0.013707471313 -0.018104337854 -0.021747508552 -0.024374233559 -0.026074679103 -0.027215902694 -0.030401261058 -0.032075316645 
-0.031254428905 -0.028826870956 -0.026395971887 -0.024027669337 -0.024229418021 -0.022822325584 -0.020781066269 -0.017486196943 -0.012590804836 
-0.0064649954729 0.030089274514 0.03120062016 0.029250925407 0.024080372974 0.027585355565 0.020678172354 -0.025636203587 -0.025933988858 
-0.024566784035 -0.021064546891 -0.016697552986 -0.012403832749 -0.0071182466927 0.0080953777069 0.012725318084 0.016952903941 0.019914381672 
0.028753687162 0.027792254463 0.029069615528 0.028606947977 0.02670599753 0.023707083892 0.020185493398 0.015766066499 0.0099871238926 
0.0031402553432 -0.0022503727426 -0.0075841623766 -0.030782671645 -0.024703271221 -0.035556119867 -0.038731117733 -0.040509988554 -0.040933073498 
-0.040184251033 -0.039929117076 -0.019746002275 -0.028814816382 -0.010569256614 -0.0030963477257 0.0025933244688 0.0076739584329 0.013137926813 
0.018850900698 -0.018782355357 -0.013950728113 0.0062354779802 0.010065533919 -0.036028687842 -0.040892821737 0.028941406403 0.029798276722 
0.030949092004 0.032169550657 0.032004306093 0.029605653137 0.025263587479 0.019245583564 0.012399463449 0.0056741116277 -0.00055755386711 
-0.005913466448 -0.010259540868 -0.013871810632 -0.015836638709 -0.017373482697 -0.019666794222 -0.022042978555 -0.026034545619 0.011428208207 
0.0047307407658 0.015963953299 0.018416913692 0.021267708391 0.028374460991 0.023639176972 0.031020773109 0.028112541419 0.028439280577 
0.026233581826 0.023585719056 0.020163366571 0.015267918119 0.0089313030476 -0.00063761814963 -0.0089768117759 0.017500234768 0.010666885995 
0.003795227356 -0.002519549249 -0.0078161197016 -0.012027101126 -0.015380128752 -0.017444765754 -0.021019823849 -0.020036879461 -0.018007343868 
-0.014173256233 -0.0088866760489 -0.002373411 -0.026375158504 -0.027915006038 -0.027603468392 -0.024307068437 -0.019831779413 -0.015992905013 
-0.012061589747 -0.029718691483 -0.031380787492 -0.030420229305 -0.028215359896 -0.016715805046 -0.021090680268 -0.02533283364 -0.028213920537 
-0.017797449604 -0.015511023114 -0.011525505688 -0.0062851849361 7.5463263784e-05 0.0069503097329 0.013314621523 0.015437634429 0.0072096576914 
0.0099953257013 0.013587630354 0.016821843106 0.026369127911 0.024482886307 0.024412801489 0.028044053819 0.028048213571 0.026561072096 
0.025096026715 0.027969308197 0.018771137421 -0.022488358896 -0.027238495182 -0.032123284414 -0.035966004245 -0.038695408031 -0.040825361386 
-0.042110810056 -0.042396307923 -0.04265252687 -0.043578438461 -0.041245407425 -0.043714718893 -0.036268228665 -0.029011624865 -0.020251773996 
-0.011687670951 -0.0039772835735 0.0026611174471 0.0069822741207 0.01137004979 0.016261471203 0.0074968038437 0.0042382498505 -0.0012864515302 
-0.0072223505122 -0.013367700391 -0.020466281567 -0.028126954567 -0.035587132908 -0.042813880369 -0.044008513913 -0.040860113688 -0.038707243279 
-0.036406957358 -0.032588007394 -0.028159290086 -0.024554076294 0.021093816496 -0.038398001343 -0.039960564114 -0.04182733316 -0.043065126054 
-0.043618412067 -0.020486924797 -0.028533534147 -0.012842351804 -0.0078832856379 -0.01842042245 -0.021743531805 -0.029479066376 -0.029822679237 
-0.027998979514 0.0087531945901 0.00183812459 -0.0044508702122 -0.009628599626 -0.01367069222 -0.041184832342 -0.040277827531 -0.035760031082 
0.026163540781 0.027103856672 0.028421233719 0.027935870923 0.025726318359 0.023653843751 -0.026299396064 0.028965891028 0.021261396352 

Stress_XZ_Pt 1 1116 double
0.0062672017375 0.0012749016423 -3.7030420572e-05 0.0062510496064 -0.0010499211821 -0.0027288841829 -0.0023156777024 -0.0039234788856 -0.0026927846484 
-0.004451214103 -0.0031466291985 -0.0047001101193 -0.0025400760933 -0.0040285701107 -0.00078279473018 -0.0028619082605 -0.00075282674879 -0.0023251738476 
9.4311544672e-05 -0.00084549197345 0.002558146196 0.0011024575606 0.0040193472523 0.0018665182242 0.0048259003088 0.0020078407979 0.0037509775721 
0.0011515557126 0.001802751387 -0.00035529211164 0.0026293818955 -0.00029845003155 0.0052960286848 0.0014057644003 0.0074163305108 0.0033089514036 
0.0085818520747 0.0050160147803 0.0083629507571 0.0060194322723 0.0066227701027 0.0056138823275 0.0041150338948 0.0041246131877 0.00095784285804 
0.0019548146229 -0.0026708315709 -0.0013553670433 -0.005133284023 -0.0044918256463 -0.0051761339419 -0.0054883055855 -0.0022405215313 -0.0040766228576 
4.5645105274e-05 -0.0022162000259 -0.0019819757581 -0.002754543857 -0.0071159857325 -0.0057996743126 -0.012141595129 -0.0087922149105 -0.014526879415 
-0.0096962633543 -0.014259222429 -0.0082583890471 -0.013285057619 -0.0054815985204 -0.01107839914 -0.0019893264398 -0.0076987540815 0.0013133351458 
-0.005903721787 0.0030370892491 -0.0052218060009 0.0037433982361 -0.0039249567781 0.0044567344012 -0.0017123637808 0.0051579917272 -0.0001540537196 
0.0044359721142 9.3631262644e-05 0.0014956888726 -0.00032670339897 -0.0021171715389 -0.0014473654737 -0.0052835168754 -0.003090934013 -0.0078711934038 
-0.0041906589177 -0.0089450649684 -0.003865538165 -0.0073243270162 -0.0021519001457 -0.0033220948535 0.0015796016087 0.0020155414823 0.0070584153291 
0.0077190911397 0.012182314415 0.012833454413 0.015463630669 0.016818142962 0.015915255528 0.018329433864 0.01426170161 0.017259599408 
0.011864730157 0.014886259567 0.010174459778 0.012057797052 -0.012721524574 -0.011384433601 -0.014363064198 -0.014061087044 -0.010904059745 
-0.01288378099 -0.010928630829 -0.010921386536 -0.010288360063 -0.008864747826 -0.011648809537 -0.0087124388665 -0.015381166711 -0.010698336759 
-0.018473560922 -0.012716122903 -0.01836860273 -0.012649527169 -0.015541913453 -0.010089580261 -0.013325531036 -0.0073329999577 -0.01228605723 
-0.0056520607905 -0.010046520736 -0.0038694123505 -0.0072702199686 -0.0019064233638 -0.0037920427858 0.0003824273881 0.0012681494118 0.003415922547 
0.0073159525637 0.0068909128895 0.013950314373 0.01104437001 0.01907764934 0.016378486296 0.020853880793 0.021295528859 0.020089755766 
0.02300579194 0.016792294569 0.021264889743 0.012317582034 0.017908947542 0.0086006014608 0.013796808431 0.0050054172752 0.0097479419201 
0.0032765817596 0.0073556543211 0.0041577054653 0.0060394175816 0.0024460783716 0.0030536428803 -0.0010329440447 -0.00065904982512 -0.0018763596308 
-0.0028013554693 -0.003723739821 -0.0050613272178 -0.0045724014053 -0.0070965445484 -0.0070241150679 -0.010324076109 -0.010530138388 -0.013166164514 
-0.008421509061 -0.011739775073 -0.0052966668736 -0.0089975096053 -0.0050289840437 -0.0080293195788 -0.0075215317775 -0.0091377372155 -0.010464766063 
-0.010822164826 -0.012361283414 -0.011879838072 -0.011648366693 -0.011165979551 -0.0091188841034 -0.0091303874506 -0.0068516409956 -0.0072108908789 
-0.0048844600096 -0.005538272555 -0.0018360074391 -0.002909486695 0.0032881351872 0.0016018615097 0.0089358086698 0.0069374467712 0.013757199515 
0.011810210417 0.016749065369 0.015517684864 0.017927468754 0.017934327014 0.01834696997 0.019653522875 0.017055884935 0.020443601999 
0.015149743762 0.021093000425 0.014589944854 0.023048978299 0.015299903695 0.022854549577 0.013782556634 0.014473677729 0.0047305927146 
0.0014195073163 -0.0075774744619 -0.0088829118758 -0.0024610171095 0.0004443503567 -0.004121652426 -0.0054294595029 -0.0058482518652 -0.0054173547542 
-0.0047497145133 -0.0028807335584 -0.00011197763888 0.0010153058784 0.00019439885637 -0.001108369077 -0.0021652998694 -0.0032377238094 -0.0040522335912 
-0.0039359337825 -0.0030605135107 -0.0017501452385 -0.00018277828349 0.0011455031636 0.0020943174604 0.0029547021957 0.0022882958874 -0.00023281440372 
-0.0026064335834 -0.0039449348114 -0.0037101422786 -0.0029794111615 -0.0030697968323 -0.0029603306684 -0.0013528546915 0.0019949187117 0.0064653038571 
0.010468753288 0.012943539768 0.014068858 0.014380003791 0.013965206454 0.012283069082 0.0085751607548 0.0026584678562 -0.0034509222023 
-0.0079329385189 -0.010523333587 -0.01159232296 -0.0085502183065 -0.0028629133885 0.0031876471185 0.0083611652954 0.012815440074 0.016894767992 
0.019500854425 0.019399870653 0.016852573259 0.012590263272 0.0062883826613 -0.01455582981 -0.015155030647 -0.01200420293 -0.0089840616565 
-0.0068092492875 -0.0059577889042 -0.0058925624471 -0.0054814946488 -0.0038905746187 -0.0016384333721 8.2045706222e-05 0.001305857586 0.002541637863 
0.003700590576 0.0048828392173 0.0063288138481 0.0086087400559 0.013660343364 0.020894680638 0.025254094973 0.025563649368 0.023673804943 
0.01970681455 0.015459083254 0.011884432286 0.0077868062072 0.0032784320501 -0.00084310457169 -0.0043129490223 -0.0070720311487 -0.010231759981 
-0.01422753348 -0.016674033832 -0.016262413235 -0.014361644164 -0.012666313676 -0.011707024882 -0.010959410341 -0.010093890363 -0.0090782722691 
-0.0078022051603 -0.0064562814077 -0.0051745368401 -0.0034056449076 -0.00022039868054 0.0044067764829 0.0094251795672 0.014107778668 0.018055173103 
0.021281524096 0.024417321198 0.027750862762 0.030805543531 0.028818781953 0.016866905265 0.0024849940237 -0.0064698618226 -0.012218029588 
-0.0017244034643 0.00051015676945 -0.0035574043868 -0.00444674358 -0.0043046857463 -0.0031918407767 -0.00033003963108 0.0027146318062 0.0030132800457 
0.0011043224222 -0.0010266559111 -0.0026364555815 -0.0038308324292 -0.0048907154705 -0.0056731577497 -0.0062208339805 -0.0064617041498 -0.0057668073568 
-0.0040554986044 -0.0017752638669 0.00023484113626 0.0043969552498 0.0054537227843 0.0016819731682 -0.00073853392132 -0.0014153029933 -0.00086794395611 
2.1091982489e-05 0.0015501608941 0.0044688233975 0.008635459817 0.012927285861 0.015970013104 0.017354004551 0.017493329011 0.017034052871 
0.015854500234 0.013171909843 0.0086659083609 0.0029346121519 -0.0022246906374 -0.0055071852985 -0.0067542354809 -0.0045309430789 -0.0079726966796 
0.00045356972987 0.0050904412055 0.0087291493546 0.011624068953 0.014116276987 0.016206818633 0.016766019166 0.014552506851 0.010477307253 
0.0063975390512 0.0030954002577 0.004260466143 0.0013596235476 -0.0084067028947 -0.0060148975463 -0.012998944148 -0.012893138919 -0.011348027037 
-0.0089928053785 -0.0066641585436 -0.0047702682787 -0.003305539547 -0.0022505788656 -0.0017037240614 -0.0012493526447 -0.00028357451811 0.0010064140879 
0.0023189584317 0.0038241476286 0.0056478638435 0.0081456206972 0.012250720151 0.018779029837 0.022965627257 0.024180703796 0.023198298179 
0.020315948408 0.016219628276 0.011500295484 0.0067336374195 0.0023898059708 -0.0013652163934 -0.0044770630193 -0.007370321895 -0.010712224757 
-0.014772751136 -0.01762520615 -0.017833012156 -0.016498874407 -0.014765389264 -0.012740271166 -0.010034350911 -0.0074502491625 -0.0059428659733 
-0.00509524066 -0.004059355997 -0.0027144058549 -0.0014887289472 0.00046376985483 0.0040132836148 0.0085008337628 0.013337239856 0.018026422011 
0.021925477311 0.025311843026 0.02779488638 0.028094307519 0.025663049892 0.019506221404 0.010093036821 0.0013164187694 -0.0052867896156 
-0.010280529968 -0.0056199587416 -0.0041261897422 -0.0048010892351 -0.0016421433756 0.002546611744 0.0060746484669 0.0083834552206 0.0098251118325 
0.010721300496 0.011653840309 0.012403862784 0.011456150329 0.0093084553257 0.0067703577224 0.0040268101147 0.0017170263491 -3.9005306462e-05 
-0.0014197901837 -0.0022814116965 -0.0019282176654 -0.00025611209276 0.0024610138498 0.0043941606418 0.0037798333797 0.0017452574248 -0.00017653474788 
-0.0017550926495 -0.0029729590169 -0.0043251898605 -0.0059653022327 -0.0076330695301 -0.0088191977702 -0.008377842023 -0.0066104169236 -0.0047171043698 
-0.0030772160098 -0.0017884502486 0.0019194397137 -0.00092473438781 0.0047985382844 0.0061482777819 0.0055999764008 0.004062923661 0.0026331122408 
0.0021802541869 0.0024185353759 0.0032827104151 0.0050994827761 0.0082363116089 0.012456650846 0.016580166994 0.019187155645 0.019890562166 
0.019258363638 0.018174231518 0.016660962254 0.013974998845 0.0095720855752 0.0040832529558 -0.00045854155178 -0.0028605089756 -0.0034031166288 
-0.0028148134006 -0.002001226967 -0.0027793581248 -0.0018694140308 -0.0035705845803 -0.012453358388 -0.012462706771 -0.011025770567 -0.0086489168461 
-0.0060657349532 -0.0038986763684 -0.0025104062224 -0.002349360584 -0.0025406859058 -0.0015645080784 0.00017851878511 0.0017880773521 0.0032466012635 
0.0047431597486 0.0066462967079 0.0085411098553 0.019761108793 0.016793582821 0.021331699099 0.021295634098 0.019269019365 0.01512653497 
0.0097979904385 0.0050152214826 0.0014061753582 -0.0012769324412 -0.0035843135556 -0.0063230181113 -0.0099502531812 -0.01421671873 -0.017269464675 
-0.017897287849 -0.016832070891 -0.014786805026 -0.011793239973 -0.00814611034 -0.0050475830212 -0.0034099314362 -0.0027919878194 -0.0017962806505 
-0.0001473537759 0.0010107979433 0.002247622233 0.0046716619981 0.0081253972603 0.012799423886 0.018301314441 0.023058712482 0.026338836178 
0.027544642333 0.026317173149 0.024385559838 0.021321264561 0.015115021961 0.0076396102086 0.00050214905059 -0.0060056375223 -0.010476679425 
0.012866886333 0.0097412061878 -0.0027544836048 -0.00078747167436 0.0018607919424 0.0041826609231 0.0057566274772 0.0064839905826 0.0066491201287 
0.0068942224607 0.007463991642 0.0077438505832 0.0083332551876 0.0038281632005 0.0063664406771 0.0021681028593 0.0011394898102 0.00018041664589 
-0.00014926030417 0.00066584967135 0.0024611167464 0.0045360621298 0.0054528616369 0.0040879412554 0.002370841481 0.0009407992693 -8.8324515673e-05 
-0.0012011278595 -0.0030465582968 -0.0056964107207 -0.008316042251 -0.010388619825 -0.0097448145971 -0.0078672658419 -0.0062792861524 -0.0056354824919 
-0.0044293433311 -0.0034581280197 -0.00068983640813 -0.0033193566487 0.0021480289142 0.0050169073511 0.0062350056445 0.0062741282163 0.0064519664738 
0.0062343623722 0.005569090019 0.0056227603927 0.0065539716743 0.008286519791 0.011123958509 0.014964049216 0.018720532767 0.020787100308 
0.020630253945 0.019277662504 0.017815965693 0.016251087422 0.013864564942 0.0099694461096 0.005143972463 0.0012057594286 -0.00083410314983 
-0.00060001936799 -0.00027719890932 -0.00036706218089 -0.0012086758652 -0.0023969733738 -0.0023467982828 -0.0023843288072 0.0086595409084 0.0093866984826 
0.012563551078 0.010272181593 0.015061909566 0.016894292086 0.018295605667 0.018614585977 0.017029744573 0.01324687805 0.0083691076143 
0.0040867342614 0.0011049421446 -0.00087632250506 -0.0025845593482 -0.0047345194034 -0.0080070240423 -0.013038178207 -0.015921753133 -0.016571982065 
-0.015682495199 -0.013525314163 -0.01000584627 -0.006219993229 -0.0034764644806 -0.0019915662415 -0.0013556294289 -0.00025410969647 0.0016260411012 
0.00307173701 0.0042341955123 0.0061131133698 0.0091036646627 0.013561330736 0.019065305125 0.023868171964 0.027232898865 0.028562237974 
0.027413580567 0.025387333706 0.022778526414 0.017891076161 0.011200134642 0.0039159115113 -0.0032621330174 -0.0086994509911 -0.011703091674 
-0.01267864299 -0.0120739704 -0.010309184203 -0.008173376089 -0.0062371798558 -0.004678538302 -0.0038992149057 -0.0036106279003 -0.0023186836625 
-5.3416850278e-05 0.001949924248 0.0032561920816 0.0044516245252 0.0059887727257 0.0073154582642 0.0084307228681 0.0092801782303 0.01048720954 
0.0096797470469 0.011728020695 -0.0016251687107 -0.00045520427238 0.00086362476259 0.0020708367197 0.002419612676 0.0023822966614 0.0025981134095 
0.0034327301109 0.004744926584 0.0062746827025 0.0079631584231 0.0090209438931 0.0083645129343 0.0070823236601 0.0048085403396 0.0035433619632 
0.0025905254879 0.001737213548 0.0010372096052 0.0013811690733 0.0024604203354 0.0040859300643 0.0056041458156 0.0065014180727 0.0036243008799 
0.0047911218135 0.0024667714024 0.00152874997 0.00038429718309 -0.0012520206103 -0.0052389625926 -0.0082299301866 -0.010471435729 -0.0079450486228 
-0.0101008208 0.0060241533211 0.0070856078528 -0.011387670878 -0.011384388432 -0.0058684496908 -0.0068651346955 -0.0057353442535 -0.0035474540782 
-0.0064049457433 -0.00018931298109 0.0032091397879 0.0057985608582 0.0071645170683 0.007977870293 0.0081230201758 0.0088954931125 0.01007213979 
0.011666397331 0.013938101707 0.016837168718 0.019422404934 0.020558011718 0.019929933827 0.018394296058 0.016795608681 0.015127800871 
0.012882770272 0.0096421845956 0.0054019048344 0.0019228359015 0.0018354689819 0.0011431984167 -0.00026401050854 -0.0020228737703 -0.0035288704676 
-0.0036499054986 -0.0028304513835 0.012789195869 0.014048556564 0.015008067479 0.015253854915 0.014089041622 0.011214303086 0.007639881107 
0.0045090084313 0.0020154468948 0.00024507298076 -0.0010723777523 -0.0025521595526 -0.0039391933242 -0.013878151309 -0.011606836691 -0.014296045993 
-0.013311015675 -0.011359048309 -0.0084542460972 -0.0053189157043 -0.0030282953521 -0.0015321300743 -0.00052910805971 0.00057012611069 0.0029871246312 
0.0048115924001 0.0062726223841 0.0082012597704 0.011048235232 0.01491585956 0.019314725883 0.023527753539 0.026604067907 0.028857971542 
0.028111749329 0.02547401702 0.0222862917 0.018338256516 0.013373450609 0.0067578386806 -0.00077341913129 -0.0066164315213 -0.010234195041 
-0.01181475725 -0.011641229969 -0.010435910895 -0.0091636863071 -0.008106770576 -0.0068861754844 -0.0055775914807 -0.0042711816495 -0.0024327903811 
1.2555043213e-05 0.0022872102272 0.0037748299656 0.0048350983416 0.0060324344086 0.0070403676946 0.0079653033754 0.0087897633202 0.0090740139131 
0.0096310286317 0.0087618501857 0.010854072403 -0.0081791777629 -0.0048118053237 0.0050420379266 0.0068822968751 0.012432179879 0.011120852549 
0.013484978816 0.014753780793 0.016424930887 0.018226779532 0.019154381473 0.019146913663 0.018753614277 0.017923581414 0.016227493761 
0.014082674868 0.011719641276 0.0090575255454 0.0066038970836 0.0036749491119 0.00510527601 -0.0028051358531 -0.002138288753 -0.0014137479043 
-0.0012826616148 -0.00139349245 -0.0013843815774 0.0007565611304 0.0024506944756 0.00376378285 0.0052292360924 0.0057269382523 0.007378269569 
0.004488551477 0.0074105680687 0.0052049855585 0.0036532583763 0.0034448061488 0.0029515682836 0.0022147353156 0.003248881083 0.0046810905333 
0.0060088384198 0.0069004105171 0.0075697108405 0.0076636464801 0.0082563871983 0.0067744661355 0.005912420922 0.0049687533174 0.0036510715145 
0.001911204723 -0.0080580938375 -0.0092249402776 -0.0079771756427 -0.0031697252532 -0.0080046094954 0.0016778738063 0.011226383271 0.011241001775 
0.01102938666 0.010381241096 0.0089298872044 0.007048602798 0.0055780158145 0.0019801249291 0.00075151538476 -0.00038614642108 -0.0015896367113 
-0.011391437845 -0.0099445160013 -0.011554129887 -0.010555456858 -0.0090309986845 -0.0072753487621 -0.0052221900551 -0.0033156809513 -0.0014961680499 
6.7316672357e-05 0.00086825437999 0.0022713930957 0.0081661147997 0.0063405232504 0.01037571975 0.013000146719 0.016060692258 0.019159764517 
0.022354418878 0.024072871078 0.026687545236 0.027525389101 0.023529497907 0.019963345025 0.016791024478 0.013424677076 0.008449031855 
0.0023995213269 0.0051394333132 0.0040356960963 0.010179122211 0.0094320126809 0.025830274448 0.023348030169 -0.0099281787407 -0.010059224209 
-0.0095750261098 -0.0094029908068 -0.0095290092286 -0.00901151984 -0.0074380890001 -0.0052159186453 -0.0025441715261 0.00024652076536 0.002651970397 
0.0043353090296 0.0054451290052 0.0063674403355 0.0070166134586 0.0075873574242 0.00835101353 0.0086466295179 0.0079506627517 -0.0053264672752 
-0.0018300056472 -0.0077153046926 -0.008858657442 -0.0095703187399 -0.010650773067 -0.008974381024 -0.010732565308 -0.0082446219167 -0.0087107168511 
-0.0073641294148 -0.0065784886247 -0.0052754769567 -0.0036157509312 -0.0016242863421 0.00083181238151 0.0026549130562 -0.0060249846429 -0.0026395088498 
0.00057858311629 0.0031552533619 0.0049984746729 0.0062725150492 0.0070748998551 0.00799842095 0.0081815664889 0.0077636346687 0.0070852545323 
0.0058747839648 0.0041544761625 0.0015635007512 0.0087413183413 0.008055116632 0.00710533245 0.0065697854152 0.006323473528 0.0059904999798 
0.006317028543 0.0035702394671 0.0048057492822 0.0062053032452 0.0071268880274 0.0057742041536 0.0041358763119 0.0032278227736 0.0034306127345 
0.0082237757742 0.007612769492 0.0062843954656 0.0042915223748 0.0012732584873 -0.0023535348446 -0.0059043649817 -0.006276153028 0.003477324654 
0.0027121296735 0.0014808005217 0.00025160492805 -0.0076639973558 -0.0048930268968 -0.004437674908 -0.0042960895225 -0.0050744353328 -0.0046028480865 
-0.0045821217936 -0.0083643773105 -0.0006204303354 0.0062036754098 0.007570895832 0.0097583299503 0.012217502575 0.014368804405 0.016649901634 
0.018941299524 0.020934846252 0.022026132792 0.02116309246 0.022150947712 0.019937532023 0.024111043662 0.024871705566 0.023964230902 
0.021308693569 0.017534464784 0.014498487115 0.011762994342 0.0087457305053 0.0050279131683 0.011212523095 0.012568068225 0.014255067566 
0.015486973571 0.01639450388 0.017546720337 0.018706649542 0.019743700977 0.018756990787 0.019487411249 0.017964425497 0.016036791261 
0.013657243177 0.010865753284 0.0084720409941 0.0069670008185 -0.0051275193691 0.014831822986 0.016325370409 0.018392848782 0.019795171916 
0.020518278703 0.020732483361 0.021567859221 0.019063769374 0.017530157541 0.005029141282 0.0043633521418 0.0064961077878 0.0047323601786 
0.0072815531554 -0.0026200998545 0.00094698202156 0.0038471138105 0.0058516646968 0.0071803135797 0.019935766235 0.021471646304 0.021826539654 
-0.0068372196207 -0.0076267536497 -0.0068283785755 -0.0061940732412 -0.0058504735352 -0.0060766803411 0.0039716358297 -0.0082099304224 -0.0022763774905 

Disp_X 1 1116 double
0 0 -0.033665291965 -0.044278245419 0 -0.027385361493 0 -0.016625870019 0 
-0.0070533766411 0 -0.00047023588559 0 0.0059616332874 0 0.010166483931 0 0.0092666186392 
0 0.01274082344 0 0.016107216477 0 0.021075770259 0 0.021232189611 0 
0.022124050185 0 0.022125078365 0 0.021913578734 0 0.018496634439 0 0.013110052794 
0 0.008187959902 0 0.008953243494 0 0.011716214009 0 0.013654479757 0 
0.017579231411 0 0.018533147871 0 0.020567266271 0 0.023263493553 0 0.022406950593 
0 0.024203449488 0 0.023595618084 0 0.022764960304 0 0.021782139316 0 
0.019375678152 0 0.0129392948 0 0.0088494326919 0 0.0032917945646 0 0.001199530554 
0 -0.0020288163796 0 -0.008146985434 0 -0.012227332219 0 -0.013311423361 0 
-0.015128193423 0 -0.013370529748 0 -0.010013006628 0 -0.0085245799273 0 -0.0057403948158 
0 0.00086188752903 0 0.0022241852712 0 -0.0029960994143 0 -0.010357472114 0 
-0.016887843609 0 -0.018828144297 0 -0.018330384046 0 -0.02216643095 0 -0.031067755073 
0 -0.039355617017 0 -0.043307553977 0 0 0.0043691475876 -0.0014800070785 0 
0.010418410413 0 0.02030470036 0 0.026570614427 0 0.033868703991 0 0.036619417369 
0 0.039008021355 0 0.034144442528 0 0.032390259206 0 0.021351767704 0 
0.01533326786 0 0.0089731067419 0 0.0039910594933 0 -0.0017422778765 0 -0.0090506775305 
0 -0.011375268921 0 -0.013637199067 0 -0.0097798891366 0 -0.0094098523259 0 
-0.010675555095 0 -0.0078813284636 0 -0.013468581252 0 -0.014516212046 0 -0.0124164382 
0 -0.019709916785 0 -0.031881324947 0 -0.037029758096 0 -0.034740976989 0 
-0.030982458964 0 -0.026106590405 0 -0.033808182925 -0.018408752978 -0.036416009068 0 -0.039938740432 
0 -0.038553547114 0 -0.037071488798 0 -0.032827887684 0 -0.030703015625 0 
-0.029189430177 0 -0.029439063743 0 -0.034038282931 0 -0.0342801027 0 -0.032656960189 
0 -0.028783958405 0 -0.023850193247 0 -0.015791293234 0 -0.0068728015758 0 
0.0055160061456 0 0.014659131877 0 0.023900002241 0 0.032862797379 0 0.031100166962 
0 0.027029000223 0 0.014505041763 0 0.0042784810066 0 -0.0061164214276 0 
-0.011075763963 0 -0.0080997645855 -0.048504270613 -0.05969697237 -0.033640872687 -0.01746901311 -0.0039322329685 0.0066818306223 
0.014443404973 0.018282607198 0.02332216315 0.028012996539 0.03162420541 0.033796880394 0.035915832967 0.034883175045 0.032261934131 
0.023972449824 0.020038258284 0.015649208799 0.018974553794 0.021823087707 0.022967088968 0.021898405626 0.02291675657 0.025385916233 
0.029654178768 0.032650221139 0.03717129305 0.040297236294 0.04174888134 0.040577918291 0.036224499345 0.027355091646 0.019442843273 
0.0094488970935 0.0043052081019 -0.00035812673741 -0.0077740820125 -0.016961883754 -0.02338652499 -0.025595959276 -0.023772569373 -0.022087069228 
-0.020982522517 -0.015797885135 -0.0032871747389 -0.00037469473318 -0.0069107236341 -0.019370539114 -0.030838059261 -0.037334892899 -0.038720190525 
-0.043552033603 -0.05180869624 -0.059501484036 -0.064621210098 -0.064539410174 0.013316050172 0.0033790392336 0.025892056525 0.037856701761 
0.047488290817 0.053195431828 0.055401202291 0.049498818815 0.04198230058 0.029732635245 0.021795779467 0.013702728786 0.0063127018511 
-0.0032895361073 -0.011084006168 -0.014674871229 -0.014386958443 -0.010161998682 -0.010002191179 -0.011162672192 -0.010729875416 -0.017166389152 
-0.020941579714 -0.027089023963 -0.037162553519 -0.046267002821 -0.052511714399 -0.053468789905 -0.051592554897 -0.04976323247 -0.051483422518 
-0.055193565786 -0.059253264219 -0.059111006558 -0.055444072932 -0.049339469522 -0.04521599412 -0.042851760983 -0.04400189966 -0.048397552222 
-0.050117384642 -0.047741729766 -0.04280423373 -0.035388763994 -0.026245212182 -0.01405614242 0.0018271590816 0.016641721129 0.031193178147 
0.043525677174 0.045130163431 0.041126247495 0.030211895704 0.012892620638 -0.0099093709141 -0.019516628236 -0.014420500025 -0.0065575088374 
-0.046242125332 -0.06032429263 -0.02722613886 -0.010397209786 0.0034959532786 0.014581101947 0.022065963596 0.027684239671 0.032592900097 
0.036813989282 0.040129166096 0.04218744114 0.04062313959 0.033965658396 0.025852711871 0.023506546393 0.023632101715 0.026026897132 
0.026663528755 0.025149405003 0.0209710747 0.019570278004 0.016314124689 0.025956695899 0.034411992878 0.042753577232 0.048494957387 
0.050877280533 0.050511606038 0.046391993761 0.03861098364 0.029074177146 0.015907216817 0.0058893612586 -0.0021645410452 -0.010891344398 
-0.019270565361 -0.026398416609 -0.030187234282 -0.02914798446 -0.027681197971 -0.027164909989 -0.024013210088 -0.0032982286066 -0.0055435611866 
-0.011790558696 -0.028178432956 -0.044140152633 -0.054019961506 -0.058652479202 -0.064720563591 -0.068975351751 -0.074828483164 -0.08043769747 
-0.077943079174 -0.074679374695 0.01394584123 0.01617927663 -0.014358898625 -0.02034826763 0.030305042863 0.014824398793 0.043780766428 
0.054732557386 0.059930928051 0.061291560531 0.055327914655 0.048473976552 0.039343316108 0.027500260621 0.017927736044 0.0070520616136 
-0.004400646314 -0.01317796763 -0.016085153446 -0.013081829995 -0.0068421806209 -0.0078500583768 -0.011208686978 -0.0144976601 -0.023569945246 
-0.032808262855 -0.045220691711 -0.055848442018 -0.062573172152 -0.065389730036 -0.06613791734 -0.067004747689 -0.067163512111 -0.06798838079 
-0.069882310927 -0.070593908429 -0.067093960941 -0.063341528177 -0.058363821357 -0.054626811296 -0.051522072405 -0.051465954632 -0.052180252969 
-0.051802296191 -0.049021929502 -0.043607342988 -0.036679264158 -0.028337288648 -0.016467351466 -0.00021309487056 0.01717880182 0.034222058952 
0.048551291227 0.053984757513 0.052861984819 0.041698347777 0.021076133475 -0.0033151381649 -0.020942134783 -0.020120859146 -0.011242235079 
0.0012006466277 -0.01244666893 -0.015951862559 -0.0074697858654 -0.0070442524739 -0.017782034352 -0.0373926498 -0.055688221008 -0.068741925061 
-0.076515220106 -0.081432968378 -0.082467623055 -0.08563387394 -0.094793729484 -0.090404130518 -0.079430527985 -0.068722344935 -0.054422926158 
-0.035979218781 -0.017245328054 -0.001452431432 0.011043087579 0.020299347118 0.027599358931 0.034263689071 0.039353735745 0.042434398085 
0.043179139495 0.039316609502 0.031872022897 0.026373259723 0.027458066121 0.030623512343 0.032464373857 0.030135672539 0.027962980792 
0.023681357503 0.020366895944 0.010647850111 0.016044689342 0.0091486014426 0.010040163994 0.012771882117 0.020093822852 0.031721454114 
0.043849710375 0.052385445684 0.05632821098 0.056513849646 0.053201168776 0.046545475721 0.034608103335 0.018768297508 0.0052788620815 
-0.0067034205422 -0.015722466633 -0.020950004458 -0.026108773425 -0.029066517949 -0.030060634017 -0.028632232919 -0.026984443888 -0.024676229805 
-0.020592262968 -0.017375355586 -0.013285850175 -0.015744408593 -0.01138518285 0.047272857279 0.031925011426 0.058684036136 0.063657097518 
0.064345143735 0.059631612152 0.051998361945 0.041864003986 0.029600927606 0.016719918698 0.0035901474766 -0.0082402843982 -0.016492046416 
-0.01750491932 -0.013444378041 -0.0077800578438 -0.012289232574 -0.0072247325443 -0.019137782976 -0.030921444297 -0.044419392943 -0.058508943766 
-0.069288678467 -0.075282596052 -0.078138098121 -0.076549343765 -0.078380525112 -0.081036187708 -0.08189675957 -0.080111764371 -0.07655736804 
-0.071143627167 -0.066532075405 -0.062400650233 -0.058941982687 -0.055528119206 -0.053166452795 -0.050717134029 -0.047920949757 -0.043826643378 
-0.038363512605 -0.031685534865 -0.024220187217 -0.013222848997 0.0011591248913 0.017166627571 0.034966368228 0.049764998257 0.057770624757 
0.056813601404 0.046224214137 0.028799658641 0.0078498516232 -0.012674353085 -0.01911573112 -0.013391638175 -0.00065417424776 0.014857338741 
-0.0042750067078 -0.0027905055322 -0.0089673064649 -0.010347881354 -0.022378109396 -0.042796637863 -0.063373103738 -0.079354412854 -0.089108482003 
-0.094018489122 -0.092972420156 -0.092242345214 -0.097431048751 -0.082622416317 -0.093553230166 -0.072091154754 -0.055170577019 -0.039279483259 
-0.024007864296 -0.0086220623925 0.0044415853918 0.014557434246 0.023843282834 0.033404957503 0.038615804166 0.040595900267 0.039167325944 
0.034015830606 0.026635056362 0.024102509022 0.028605887666 0.038356781006 0.038565948606 0.033932857215 0.030502861366 0.029469039291 
0.025884797797 0.022963518277 0.011538121849 0.019529500976 0.0067317760549 0.0056868316606 0.0065947817639 0.0077452738769 0.013726004399 
0.026642454788 0.042081329972 0.053656741977 0.059536326677 0.060748625547 0.058048117906 0.051405485719 0.039405208081 0.02271881327 
0.0059183351696 -0.0090796165168 -0.018111450598 -0.022396057844 -0.025350051001 -0.026569541544 -0.027020415291 -0.026539925486 -0.025321545079 
-0.023130027577 -0.019197676331 -0.017139002681 -0.018412234262 -0.01736856252 -0.02262308076 -0.01195104979 -0.10119051486 -0.10097658634 
-0.0024868145119 -5.2482562751e-05 -0.0074529089034 -0.014923030511 -0.025883622468 -0.039248693734 -0.054532401264 -0.069515220821 -0.079980507493 
-0.085236229002 -0.085969597101 -0.085224725306 -0.087842673063 -0.092069782317 -0.094814568758 -0.087289437652 -0.079153582454 -0.072385616601 
-0.067234806716 -0.063505038619 -0.06020257622 -0.055766150355 -0.051203154027 -0.046379819512 -0.041652150452 -0.036453004926 -0.02949991636 
-0.023330813274 -0.017426492646 -0.0084275892004 0.0038656655233 0.018788591027 0.035505380481 0.049210373312 0.057733956724 0.056676033884 
0.047821376473 0.035108786076 0.019970271736 -0.00011441965762 -0.011529535055 -0.011263992637 -0.00090011034627 0.014244587161 0.031122870743 
0.046269081533 0.056984715164 0.061657194048 0.061923980713 0.058262586594 0.051246348768 0.04103467986 0.02808689326 0.013768305071 
-0.00016722257715 -0.010885152966 -0.018078852445 -0.017385415733 -0.013577186503 -0.0076734945178 -0.0018935282715 0.0021899568383 -4.6891182137e-05 
0.0039067901671 -0.0028349554632 -0.014761500992 -0.025038318709 -0.043960619718 -0.06596146524 -0.083798445761 -0.095830075443 -0.10120654106 
-0.09981970489 -0.096695549786 -0.094946168363 -0.095455691218 -0.10069321096 -0.096412286162 -0.10015244037 -0.092783294618 -0.081546582282 
-0.067039944232 -0.051930319518 -0.041114713997 -0.031705301255 -0.01819114387 -0.0049852482043 0.0051039848477 0.012885118835 0.035331640393 
0.032119311392 0.035210229456 0.03237876296 0.028934566304 0.020171856508 0.019992982969 0.02550322935 0.0327093862 0.035666193813 
0.041119810194 0.025728413835 0.017771035433 0.043105728924 0.037876781076 0.030656095594 0.034076832235 0.028873706236 0.016338372603 
0.026741819456 0.0070463730954 0.0026382494252 0.0032535030041 0.0066138003021 0.019440099597 0.041875656694 0.054397881031 0.061548706144 
0.063576892018 0.061483718455 0.055363293737 0.043883569539 0.028034416959 0.01081580855 -0.0052294805646 -0.015911564231 -0.01987211965 
-0.022275039926 -0.023047735915 -0.021655445918 -0.022357238457 -0.017817411572 -0.016266779974 -0.020031234249 -0.026816423982 -0.028407007456 
-0.033766627312 -0.02127841115 -0.0074212145992 -0.015730166808 -0.029188927263 -0.044598329812 -0.061656065285 -0.077096253633 -0.087641313672 
-0.091286547482 -0.090625829995 -0.090532422066 -0.093479394913 -0.098080381751 -0.10233880579 -0.080418780446 -0.0893824175 -0.072461858392 
-0.066437698901 -0.062112867832 -0.058360777795 -0.053180035204 -0.047544308007 -0.041320547462 -0.035399466753 -0.029424672946 -0.01983160153 
-0.015151254833 -0.010411234573 -0.0032829036936 0.0064904685132 0.018674125895 0.033257760108 0.046257395297 0.056961849332 0.057566657662 
0.050402563065 0.04113984108 0.030056528747 0.011066108942 -0.0024867334869 -0.0070278733037 -0.0010309063364 0.01251000911 0.028978008777 
0.042686596513 0.051732107997 0.056092873216 0.056635573506 0.054010044783 0.047624249011 0.037992462516 0.025098141283 0.011554121971 
-0.0019210347673 -0.010601299815 -0.015984486789 -0.014795262367 -0.011502760462 -0.0063368720002 0.00010497510084 0.0060843601823 0.0089340992272 
0.00087714457186 0.0074178171344 -0.0045852749608 -0.098039276898 -0.10422770679 0.0019888565876 0.0062015443109 0.055836826563 0.043496709317 
0.062804043293 0.065592855215 0.063795685768 0.058927349746 0.050421699882 0.037216469646 0.018052428961 0.0020748919342 -0.0095266140997 
-0.014735463075 -0.017479293048 -0.018275879323 -0.017306126654 -0.0163601432 -0.015113836154 -0.030091622844 -0.045806694776 -0.06624007225 
-0.084988377988 -0.097611024976 -0.10463453084 -0.10288464278 -0.099250122905 -0.095392346382 -0.093013860285 -0.09306076169 -0.096104748547 
-0.093033567071 -0.098638340831 -0.095746010542 -0.086668394506 -0.072785638273 -0.05643896386 -0.042778361589 -0.029405297711 -0.016077656299 
-0.0050966534764 0.0034256039653 0.009733621031 0.020302189514 0.013827397488 0.025582030416 0.02947050333 0.030158855021 0.027610698715 
0.023789148778 0.039901975542 0.042946983129 0.03747048229 0.0095427939668 0.026272794232 0.001846114872 -0.013770602643 -0.028377454728 
-0.045436680317 -0.064524926245 -0.080878376961 -0.091524541378 -0.094884559512 -0.091730713844 -0.094493694603 -0.099121086299 -0.10337526351 
-0.07970225811 -0.088881194592 -0.070888794959 -0.063822768629 -0.058556392789 -0.054401639849 -0.049341775477 -0.043213441968 -0.03630169481 
-0.029469992965 -0.025283915922 -0.018846273422 -0.006553301122 -0.010554055683 -0.00046013490646 0.0073619326577 0.016965771094 0.028790434822 
0.040359903127 0.049967881292 0.054630186409 0.057915262878 0.047965269536 0.038205582649 0.020446388051 0.0060539580882 -0.0021776116919 
-0.0020363838412 -0.01351066865 -0.014781545848 0.027874432504 0.014384978451 0.059174925089 0.054909583181 0.038176629692 0.045036867261 
0.049135457724 0.050198346376 0.049300163984 0.043044101447 0.033658400178 0.021408215165 0.0090655675158 -0.0019287305186 -0.0082084564492 
-0.011068319902 -0.009170755744 -0.0063247629441 -0.0036607764196 0.0019704038277 0.009263580665 0.01406296622 0.0014801116195 0.017654951662 
0.014011999592 0.022768035531 0.025692636147 0.028510889038 0.039715651423 0.030286220834 0.045288905501 -0.059275634587 -0.067038021982 
-0.053577896208 -0.04953167215 -0.044399697334 -0.03839013353 -0.030988669023 -0.021583553404 -0.015563259833 0.01889789477 0.008597292006 
0.00030344526749 -0.0029708745424 -0.0038356117439 -0.0010280873394 0.0012789027533 0.011847695336 0.01813785173 0.022022318095 0.023823712021 
0.022381728515 0.018746610731 0.015619593672 -0.0091311167926 -0.025662913918 -0.044090941548 -0.065583512187 -0.082277998328 -0.091719433665 
-0.095616802573 -0.042746189982 -0.028521789238 -0.014904228039 -0.0052911737002 -0.094491153955 -0.089203871787 -0.077115915716 -0.0592154935 
0.01733683981 0.016101313755 0.013210887089 0.010455464944 0.0090154409409 0.011379667558 0.01817015186 0.018011217937 -0.092347323895 
-0.093741297722 -0.097299441695 -0.10115399957 -0.096796773374 -0.10226402432 -0.037533566356 -0.049454998225 -0.067857705057 -0.084373138845 
-0.095728836954 -0.076274231076 -0.10331142694 -0.013222210109 -0.010579610243 -0.0070459898561 -0.000856652332 0.0059995432384 0.013957314193 
0.023679316044 0.033801067621 0.042052291334 0.04638004303 0.056918818504 0.05099343881 0.059575289488 0.059601377696 0.058876089752 
0.054138302803 0.045960988849 0.028623059392 0.014083469287 0.0048135328107 0.00060324685182 0.019691292197 0.031345240772 0.045213609934 
0.05637281388 0.062236443162 0.065638355911 0.064358308911 0.060908030719 0.023119524121 0.035478089005 0.01081692148 0.00029598851688 
-0.0053680008277 -0.011531866156 -0.013522410765 -0.014727098867 -0.040201053023 0.0037704952992 0.0095760636032 0.018175056204 0.02755644545 
0.034970358014 0.06293862313 0.062496997416 0.059538137168 0.054989926517 -0.090234942734 -0.083343729377 -0.023226674646 -0.043394997716 
-0.012157545425 0.0092077041045 0.0038347654045 0.0032396211755 0.0046241795644 0.0078462641686 0.056292470545 0.058361038566 0.060515921563 
-0.093281082809 -0.08590260148 -0.06216776371 -0.054334700108 -0.047618489712 -0.045228809118 -0.068395465612 0.034408010542 -0.10508471727 

Disp_Y 1 1116 double
0 0 0.075598992407 0.079116210341 0 0.071441426873 0 0.06850554049 0 
0.064906731248 0 0.060617335141 0 0.056273732334 0 0.049155142158 0 0.044031944126 
0 0.048538222909 0 0.049722090364 0 0.045983895659 0 0.037283115089 0 
0.026849448681 0 0.017156720161 0 0.0075697838329 0 -0.0036541731097 0 -0.014824310318 
0 -0.024725068361 0 -0.031318444759 0 -0.036758009344 0 -0.040452230722 0 
-0.039297986776 0 -0.031008411199 0 -0.019191851839 0 -0.012309624813 0 -0.016607915983 
0 -0.032002378255 0 -0.050217922777 0 -0.065618351102 0 -0.0761808604 0 
-0.083027236164 0 -0.08765579015 0 -0.093054994941 0 -0.095836304128 0 -0.094709731638 
0 -0.094467274845 0 -0.089904218912 0 -0.081177614629 0 -0.069851256907 0 
-0.056474182755 0 -0.045768253505 0 -0.034583713859 0 -0.020778002217 0 -0.0079127298668 
0 -3.8355192373e-05 0 0.0059093553573 0 0.016035566106 0 0.033741753548 0 
0.054364666343 0 0.070042014122 0 0.077473245561 0 0.078132905066 0 0.078297950327 
0 0.08023930341 0 0.08049531281 0 0 -0.052028641105 -0.047754582018 0 
-0.058443948627 0 -0.063813135028 0 -0.068911351264 0 -0.069099843502 0 -0.066687352955 
0 -0.058742254972 0 -0.049208518118 0 -0.037606976926 0 -0.031465213746 0 
-0.026685509831 0 -0.02051791735 0 -0.010021405295 0 0.0014476720244 0 0.010274244472 
0 0.016049232334 0 0.016160719097 0 0.01562861912 0 0.024414943531 0 
0.04161933437 0 0.057567715645 0 0.077098362148 0 0.094676606357 0 0.10745606571 
0 0.11467689276 0 0.11448076367 0 0.10922094434 0 0.10746122152 0 
0.10973022878 0 0.11054930836 0 0.10869463533 0.029861930758 0.09504314512 0 0.084922850132 
0 0.064029954374 0 0.041194416583 0 0.02105858922 0 0.0093535743654 0 
0.0040878541768 0 0.0036022267304 0 0.0016772652743 0 -0.0043226182461 0 -0.011478533968 
0 -0.016111956909 0 -0.018806679174 0 -0.022504525259 0 -0.032691922039 0 
-0.047320120037 0 -0.066596858203 0 -0.083581916988 0 -0.09791611135 0 -0.10806695372 
0 -0.10896543413 0 -0.10274666548 0 -0.085177019238 0 -0.063614293933 0 
-0.053113747388 0 -0.048435285687 0.1224989295 0.13279297948 0.11110390723 0.10191945732 0.094675265253 0.086931988597 
0.077056691051 0.07151286304 0.075053423643 0.074750684202 0.067989893258 0.056647051126 0.042477216572 0.027743844315 0.011700692587 
-0.0065657421947 -0.02505819127 -0.044109046459 -0.057221844792 -0.068631567061 -0.076733022928 -0.079068362713 -0.052850492299 -0.032746396959 
-0.021800439805 -0.029674237594 -0.054288562387 -0.082861997187 -0.10717236996 -0.12580303848 -0.13971464336 -0.15132296085 -0.15923957527 
-0.16463664174 -0.16631492972 -0.16314207017 -0.15216237307 -0.13393989205 -0.11105510592 -0.086623936892 -0.063570432365 -0.043028503656 
-0.022882033139 -0.0052363206632 0.0039746803232 0.010313650593 0.02232911624 0.044709406793 0.073654793203 0.0974797979 0.11386540532 
0.12242952734 0.13300706446 0.14395925403 0.14601938426 0.14165207744 -0.09408070147 -0.083911158144 -0.10478150845 -0.11479951441 
-0.11892063171 -0.11554093659 -0.10460921377 -0.08902194351 -0.071538217366 -0.056681156158 -0.041276097298 -0.024865161628 -0.0043451809324 
0.012068673037 0.024451768026 0.028127834201 0.025841064751 0.028330693021 0.042402051389 0.0665409863 0.094569779932 0.12607714534 
0.1571252048 0.18097256124 0.1915038079 0.18806605041 0.17848554254 0.17423509061 0.17630195618 0.17817610502 0.17170760036 
0.15526539087 0.12854032218 0.095884904265 0.060821440071 0.032220385969 0.014122124761 0.0052941883914 0.0039047517348 0.0019947236869 
-0.0068482826464 -0.017712824047 -0.024803588167 -0.02777646482 -0.035282105207 -0.055674664676 -0.084474109113 -0.11753302068 -0.15109741688 
-0.176578179 -0.19042980671 -0.18722136319 -0.16610349715 -0.12842565775 -0.087907165289 -0.071591883898 -0.070287927985 -0.074757106602 
0.14599634707 0.16893605888 0.12916474044 0.11602251977 0.1052133441 0.09435813874 0.087664403021 0.087243415415 0.083643004298 
0.076452121139 0.06583879143 0.051712907851 0.0368363671 0.018899364397 -0.0046998024918 -0.03314005211 -0.061388652772 -0.083470538259 
-0.098536044359 -0.10877830535 -0.11691865325 -0.040880836546 -0.064860351384 -0.029044814408 -0.038889866322 -0.06867402792 -0.10520166159 
-0.13843999803 -0.16510015726 -0.18631136417 -0.20358522236 -0.21610508859 -0.2233966887 -0.2243296057 -0.21752116084 -0.20090612769 
-0.17503203452 -0.14228063822 -0.10793299973 -0.077004790306 -0.05109700188 -0.029482299462 -0.013372834772 0.010602728464 0.0054813446477 
0.022971510887 0.048367366195 0.082447491586 0.1134826839 0.13714417815 0.15343011916 0.17584744096 0.19729444385 0.21056959033 
0.20446388423 0.18773582578 -0.095538638532 -0.12453240901 0.0027301509399 -0.0011451668106 -0.13301478326 -0.11636493355 -0.14798514545 
-0.15603759885 -0.15413433313 -0.14241968095 -0.12403606623 -0.098917499185 -0.072724767029 -0.050188329071 -0.022872600704 0.0047084316611 
0.025911634788 0.036392107606 0.036791183054 0.031214347109 0.034673325717 0.054991818964 0.085517250001 0.12190259248 0.16404688358 
0.2059545368 0.23710335791 0.24970982969 0.24363617599 0.23011346161 0.22309717536 0.22605824471 0.22866487503 0.21984286606 
0.19563427567 0.15739923716 0.11045585573 0.066947050393 0.033947315067 0.015134916641 0.006573272869 0.0055645322427 0.0015739977825 
-0.0080958288163 -0.019522648305 -0.027653761208 -0.031716044992 -0.045822452754 -0.077304460108 -0.11718287319 -0.16383479536 -0.21046417952 
-0.24421808124 -0.25793117285 -0.24547748268 -0.20824916661 -0.15044696629 -0.093416817486 -0.068554185331 -0.072284594178 -0.084870845079 
-0.10060752183 0.0062328600325 0.0053851199336 0.0066707255319 0.008183836937 0.019510367885 0.04822345823 0.088938355446 0.12539726496 
0.15456938744 0.1773724407 0.20358748734 0.23383460939 0.27410534024 0.26076507568 0.23436024785 0.20283618569 0.17221716046 
0.14872351289 0.13152912259 0.11774270236 0.10435949266 0.094107322395 0.087832733989 0.081918530166 0.075691580772 0.068031154573 
0.057351879776 0.045891501009 0.028306527063 -0.00068849651143 -0.037942349911 -0.077893339097 -0.10687664896 -0.12309513241 -0.13153016567 
-0.14221899211 -0.14810846746 -0.12518103421 -0.1499184221 -0.097249254584 -0.070712521672 -0.049221415073 -0.037459619343 -0.046193607152 
-0.076943479478 -0.11835075915 -0.15862363577 -0.19229534268 -0.22023716569 -0.24343401194 -0.26156204939 -0.27253997326 -0.27143168449 
-0.25746154785 -0.23324942589 -0.20037323236 -0.16053424776 -0.11950078607 -0.081562772393 -0.053759045899 -0.034549035132 -0.017365049571 
-0.0057861283422 0.0040799207054 0.0070232665166 0.0064767142758 0.0067478828132 -0.16925247014 -0.15085729957 -0.17942544818 -0.17824059725 
-0.16634520888 -0.14581982791 -0.11700233817 -0.082571536303 -0.050249390304 -0.017904588953 0.014192627743 0.035836528987 0.04625730589 
0.043438833207 0.037153057754 0.03539827466 0.10041757673 0.069526337087 0.14167846739 0.18953898549 0.2378295511 0.27389493585 
0.28874588013 0.28214558959 0.26600888371 0.25590121746 0.25834229589 0.26174610853 0.25173962116 0.21946676075 0.17122960091 
0.11564032733 0.066031463444 0.030587015674 0.013487696648 0.0083006722853 0.00744296005 0.00043432952953 -0.0097571918741 -0.018918797374 
-0.027774976566 -0.034583713859 -0.055648308247 -0.09493945539 -0.1431825757 -0.20084732771 -0.25634026527 -0.29616302252 -0.30812111497 
-0.28492683172 -0.23195552826 -0.16060888767 -0.098214551806 -0.065858945251 -0.066959045827 -0.084651723504 -0.10684134811 -0.1287599355 
0.048933889717 0.040899265558 0.0059466203675 0.0055852276273 0.015089175664 0.048578891903 0.093788512051 0.13645817339 0.17224510014 
0.19875307381 0.22306279838 0.2497074604 0.28626748919 0.26313060522 0.29871767759 0.22473552823 0.19221790135 0.16466383636 
0.14671356976 0.12982283533 0.1131927371 0.0975644961 0.08249322325 0.074729368091 0.070682413876 0.066630132496 0.060784421861 
0.052803017199 0.038090996444 0.0068504712544 -0.035754520446 -0.091340824962 -0.12848573923 -0.14206065238 -0.14456440508 -0.15671817958 
-0.16709432006 -0.16980180144 -0.14227797091 -0.16477203369 -0.1163861379 -0.091385483742 -0.074193462729 -0.059676524252 -0.046111822128 
-0.05240753293 -0.082305520773 -0.12662559748 -0.17042696476 -0.20946696401 -0.24356083572 -0.27362856269 -0.2985201478 -0.31438651681 
-0.31156033278 -0.28897678852 -0.2542424202 -0.21213300526 -0.1647747308 -0.11880782992 -0.07776825875 -0.049658041447 -0.035641949624 
-0.022294627503 -0.0084164692089 3.0877952668e-05 0.0062005827203 0.0046838535927 0.0046591940336 0.0054546999745 0.32026967406 0.32371488214 
0.060716621578 0.050947640091 0.081302396953 0.11257473379 0.15513169765 0.20430754125 0.25573664904 0.29563865066 0.31365567446 
0.3086232245 0.29075565934 0.27728542686 0.27733960748 0.28075924516 0.27003714442 0.22663938999 0.16990330815 0.11019887775 
0.059462916106 0.025114212185 0.013490719721 0.010511761531 0.0079757804051 -0.0010616020299 -0.010302180424 -0.016007076949 -0.023931138217 
-0.036358904094 -0.065961800516 -0.11161714792 -0.16377355158 -0.22699470818 -0.2888341248 -0.33344313502 -0.34302279353 -0.30842661858 
-0.2417973876 -0.16477300227 -0.10379831493 -0.067073822021 -0.061904806644 -0.079705007374 -0.1063754037 -0.13440434635 -0.16100300848 
-0.18104858696 -0.19174392521 -0.19017054141 -0.17758521438 -0.15448881686 -0.12177526951 -0.084058575332 -0.047256108373 -0.011716004461 
0.019472947344 0.039940968156 0.051155928522 0.047572419047 0.04219058156 0.037789758295 0.0391529724 0.047073755413 0.064553506672 
0.059704419225 0.07025167346 0.0035118360538 0.011240484193 0.044069256634 0.091889306903 0.14294378459 0.1862718612 0.21810720861 
0.24012158811 0.25831979513 0.28165894747 0.31086778641 0.34710592031 0.33405053616 0.34042167664 0.31225663424 0.27332484722 
0.23241180182 0.1977224201 0.17432512343 0.16154477 0.14387944341 0.12391876429 0.10535754263 0.087687492371 0.065730266273 
0.066525287926 0.06544534862 0.061705630273 0.055256348103 0.048439331353 0.014940500259 -0.022768296301 -0.058397702873 -0.1603705287 
-0.15134857595 0.069252096117 0.072564579546 -0.12267538905 -0.085297718644 -0.18370509148 -0.17699830234 -0.17997480929 -0.15129053593 
-0.17332997918 -0.12575736642 -0.10019788146 -0.076088272035 -0.057822667062 -0.054869674146 -0.088752523065 -0.13333915174 -0.17862102389 
-0.22014252841 -0.25853163004 -0.29488489032 -0.32830515504 -0.34967112541 -0.34424251318 -0.31326499581 -0.26797220111 -0.21701452136 
-0.16269154847 -0.11024872214 -0.058874819428 -0.0340555273 -0.016581041738 -0.0042709214613 0.0017439615913 0.0050489706919 0.0020746134687 
0.0038088746369 0.0014714596327 0.088273435831 0.11774976552 0.15974923968 0.20872034132 0.26228815317 0.30563810468 0.32782289386 
0.32652527094 0.30858778954 0.29048809409 0.28568142653 0.28646287322 0.27983281016 0.15463370085 0.20694690943 0.097085088491 
0.050125729293 0.019065640867 0.012340540998 0.010488736443 0.0069259195589 -0.001822653343 -0.0089527377859 -0.012228665873 -0.016826614738 
-0.041175093502 -0.079865351319 -0.12788815796 -0.18099328876 -0.24735963345 -0.30984389782 -0.35835596919 -0.37206330895 -0.31610277295 
-0.241081357 -0.16632992029 -0.10944711417 -0.071720398962 -0.060273855925 -0.073522977531 -0.10125255585 -0.13615165651 -0.16615188122 
-0.18647322059 -0.19656872749 -0.19431686401 -0.18098710477 -0.15568554401 -0.12121805549 -0.082501791418 -0.043464682996 -0.0093832844868 
0.021175058559 0.038891982287 0.049681644887 0.047250315547 0.044049367309 0.040326636285 0.040200855583 0.044963032007 0.055252090096 
0.079330071807 0.069997303188 0.085956901312 0.24572858214 0.26083409786 -0.077642180026 -0.06142584607 -0.14136119187 -0.10084237903 
-0.18422454596 -0.22692416608 -0.26781716943 -0.30792331696 -0.34781625867 -0.37888148427 -0.36456573009 -0.3267160058 -0.27490949631 
-0.21567553282 -0.156405285 -0.1069354862 -0.067146144807 -0.025432208553 -0.036847941577 0.0064440444112 0.034544602036 0.084830746055 
0.14389000833 0.19392381608 0.23870658875 0.25488972664 0.26766696572 0.28113937378 0.29716259241 0.31424564123 0.34595304728 
0.32392719388 0.35287895799 0.33972892165 0.30718797445 0.26482483745 0.22331993282 0.18706479669 0.1679199934 0.14217789471 
0.11860776693 0.097473278642 0.07903175801 0.0598439686 0.06339892745 0.060238040984 0.060481432825 0.061814814806 0.064011834562 
0.05937396735 -0.19122155011 -0.17665365338 -0.1903771162 -0.13242813945 -0.16881336272 -0.10142429918 0.11646720767 0.15785565972 
0.20632965863 0.26141804457 0.30771368742 0.33395069838 0.33905044198 0.29770997167 0.28811249137 0.28473061323 0.27803635597 
0.13073578477 0.17908409238 0.081282250583 0.040230181068 0.016090238467 0.010797724128 0.0088370451704 0.0057355500758 -0.0010237696115 
-0.0062906523235 -0.0090023931116 -0.0096618561074 -0.10171815008 -0.060804527253 -0.15031918883 -0.20108526945 -0.26229506731 -0.32166701555 
-0.36661028862 -0.38712856174 -0.23501817882 -0.30226302147 -0.16899655759 -0.11557795107 -0.077622339129 -0.061515603215 -0.066980086267 
-0.09142870456 -0.032734185457 -0.017182033509 -0.070489808917 -0.059875603765 -0.35815900564 -0.38607043028 -0.18689961731 -0.1958809495 
-0.19410325587 -0.17970104516 -0.15242955089 -0.11542829126 -0.076157681644 -0.03648410365 -0.0034801871516 0.023116547614 0.038558922708 
0.046614002436 0.045483678579 0.04364105314 0.041853565723 0.042343020439 0.045347157866 0.051722798496 0.090202763677 0.013827292249 
0.040371097624 -0.011660868302 -0.028391899541 -0.046579368412 -0.10361423343 -0.062866993248 -0.14288587868 0.033653788269 0.067388251424 
0.014059542678 0.0085441786796 0.0063774017617 0.0047899121419 0.0019679593388 -0.0034489573445 -0.011104717851 -0.025689858943 0.0043053310364 
0.027345830575 0.039274007082 0.04606289044 0.045194774866 0.044259987772 0.046986375004 0.051925420761 0.054015666246 0.05546753481 
0.058052740991 0.059301394969 0.053809858859 0.1110310778 0.15472188592 0.20422080159 0.26245716214 0.30829653144 0.33424338698 
0.34641185403 0.19927313924 0.16867543757 0.13552065194 0.11114065349 0.34455400705 0.32704505324 0.29103791714 0.24210065603 
0.050329357386 0.051449593157 0.053661163896 0.051932837814 0.044777467847 0.028302740306 0.0013825189089 -0.01151346229 0.29979008436 
0.29044505954 0.28246092796 0.27446252108 0.21500842273 0.23199434578 0.0037699437235 0.028079438955 0.081766679883 0.14571413398 
0.1934671551 0.10783871263 0.2653478384 -0.055555079132 -0.085138753057 -0.12656117976 -0.17522706091 -0.22030301392 -0.27354034781 
-0.32726207376 -0.36750641465 -0.38889753819 -0.39343756437 -0.36908099055 -0.38089957833 -0.3366368711 -0.2869951129 -0.23026813567 
-0.17533829808 -0.12352946401 -0.081791944802 -0.063419319689 -0.061613216996 -0.074983492494 -0.066354691982 -0.080588191748 -0.11175969988 
-0.14852128923 -0.18772040308 -0.23014177382 -0.27283471823 -0.31420361996 -0.36864984035 -0.38754957914 -0.33133018017 -0.27801701427 
-0.21168634295 -0.14673094451 -0.10292435437 -0.073408104479 0.0036564564798 -0.23646505177 -0.28158521652 -0.330147475 -0.36618840694 
-0.38347262144 -0.23083803058 -0.27725851536 -0.18670679629 -0.15338937938 0.33200708032 0.31221911311 0.15287931263 0.20518617332 
0.12386219203 0.016201337799 0.035475704819 0.044419638813 0.048489205539 0.0480732508 -0.35217103362 -0.34852734208 -0.31953150034 
0.18906679749 0.15527953207 0.057518702 0.029018284753 0.011233787052 0.0071908868849 0.27100178599 -0.18465183675 0.26382318139 

Disp_Z 1 1116 double
0 0 0.013959521428 0.0090846531093 0 0.020823325962 0 0.027387490496 0 
0.03205017373 0 0.035805959255 0 0.03873546049 0 0.040166269988 0 0.038970500231 
0 0.04068307206 0 0.049121294171 0 0.059780467302 0 0.069593094289 0 
0.07580562681 0 0.078092694283 0 0.079920753837 0 0.078379392624 0 0.07567294687 
0 0.071902915835 0 0.065476119518 0 0.054895810783 0 0.041096437722 0 
0.02286619693 0 0.00086122262292 0 -0.011812995188 0 -0.013870372437 0 -0.0058487555943 
0 -0.0047099161893 0 -0.013427321799 0 -0.026593338698 0 -0.0393467471 0 
-0.050012782216 0 -0.057607464492 0 -0.068894952536 0 -0.077794663608 0 -0.086016833782 
0 -0.097483336926 0 -0.10611082613 0 -0.11057317257 0 -0.10992065817 0 
-0.10329144448 0 -0.093411356211 0 -0.081001706421 0 -0.067769311368 0 -0.051838673651 
0 -0.036575842649 0 -0.032467987388 0 -0.035743076354 0 -0.040724091232 0 
-0.03948803246 0 -0.032776270062 0 -0.024702575058 0 -0.018560919911 0 -0.013474619016 
0 -0.0055094668642 0 0.0028374011163 0 0 0.017314845696 0.015291103162 0 
0.027502708137 0 0.036477651447 0 0.048207577318 0 0.061632618308 0 0.077088922262 
0 0.088355325162 0 0.095963813365 0 0.09751380235 0 0.09695354104 0 
0.093407213688 0 0.08788639307 0 0.079868808389 0 0.066869802773 0 0.050830595195 
0 0.032927639782 0 0.021328216419 0 0.019007941708 0 0.026198603213 0 
0.029053388163 0 0.030135890469 0 0.030281435698 0 0.026455653831 0 0.016406174749 
0 0.0036255752202 0 -0.0055091953836 0 -0.010250004008 0 -0.012021049857 0 
-0.015485129319 0 -0.023503344506 0 -0.032393511385 0.0020641635638 -0.042259756476 0 -0.047296952456 
0 -0.048485331237 0 -0.045206788927 0 -0.037624422461 0 -0.028153173625 0 
-0.021535292268 0 -0.019262066111 0 -0.022227156907 0 -0.028384484351 0 -0.03337610513 
0 -0.038048226386 0 -0.044925834984 0 -0.056673415005 0 -0.070123136044 0 
-0.083155162632 0 -0.093479767442 0 -0.095789417624 0 -0.089457191527 0 -0.073937118053 
0 -0.05391934514 0 -0.032532442361 0 -0.010074950755 0 -0.0019297939725 0 
0.00084919808432 0 0.011223055422 0.039080318063 0.026223031804 0.048440530896 0.053594592959 0.05631602183 0.058417279273 
0.059300765395 0.056855302304 0.058711223304 0.070929154754 0.086885012686 0.10148934275 0.1122456938 0.11865572631 0.12273862213 
0.12540538609 0.12771832943 0.1257429868 0.11718735099 0.10043466091 0.077540747821 0.04511776194 0.0038036401384 -0.014785626903 
-0.014310632832 -0.0026437996421 -0.0017045176355 -0.016191801056 -0.037757840008 -0.059358775616 -0.078344076872 -0.094557344913 -0.11230129749 
-0.12867282331 -0.14571212232 -0.16463319957 -0.18055067956 -0.18743267655 -0.18407209218 -0.17190520465 -0.15309807658 -0.13045348227 
-0.10608507693 -0.078958645463 -0.052233196795 -0.047633010894 -0.052794471383 -0.059522625059 -0.05887388438 -0.05126253888 -0.040906332433 
-0.034474216402 -0.027960808948 -0.013962243684 0.0023892091122 0.014758368954 0.043130751699 0.027930775657 0.057606507093 0.077141612768 
0.10224300623 0.12784312665 0.148807019 0.16283880174 0.16666318476 0.16263090074 0.15449543297 0.14295370877 0.12598700821 
0.10251880437 0.074881963432 0.0497658737 0.035997852683 0.036671102047 0.045460216701 0.05360583961 0.059593334794 0.059709433466 
0.052613414824 0.034578528255 0.011346844025 -0.0080318618566 -0.017715476453 -0.020890604705 -0.02846300602 -0.041898936033 -0.058358531445 
-0.073100663722 -0.081977769732 -0.083222992718 -0.077463313937 -0.064788922668 -0.049734003842 -0.037879906595 -0.032645333558 -0.035321772099 
-0.043307296932 -0.050621755421 -0.058138012886 -0.072210796177 -0.096050657332 -0.12362253666 -0.14774002135 -0.1637314409 -0.16559579968 
-0.15227720141 -0.12518182397 -0.087443895638 -0.04571583122 -0.0039781900123 0.01357915625 0.0064885988832 0.010212361813 0.01707293652 
0.068779490888 0.057459719479 0.071807295084 0.071806304157 0.070517115295 0.068021997809 0.063552394509 0.064255483449 0.075208999217 
0.090670444071 0.10699483752 0.12115326524 0.13327877223 0.14652039111 0.16081228852 0.172484532 0.17358542979 0.16269512475 
0.14002820849 0.11327385902 0.085826523602 -0.015635736287 -0.00074618525105 -0.012536663562 0.00038425432285 0.0020441913512 -0.013930701651 
-0.039775218815 -0.069484330714 -0.096942327917 -0.12253573537 -0.14898349345 -0.17312082648 -0.19653292 -0.21955755353 -0.23783515394 
-0.24567167461 -0.23999455571 -0.2214846015 -0.19405828416 -0.16312515736 -0.13525593281 -0.1103714034 -0.048303637654 -0.051183715463 
-0.056713365018 -0.067014046013 -0.069320879877 -0.063500225544 -0.053225886077 -0.047545596957 -0.041400324553 -0.026105837896 -0.003807769157 
0.019538411871 0.041227020323 0.027515593916 0.06303653121 -0.067859791219 -0.089580573142 0.071508899331 0.052407458425 0.099527150393 
0.13284011185 0.16790497303 0.19630859792 0.21567223966 0.2219606638 0.21543085575 0.20071408153 0.18084797263 0.15428890288 
0.12104710937 0.08582868427 0.057175710797 0.040792539716 0.045339699835 0.059008587152 0.072170235217 0.082407489419 0.083932951093 
0.074671708047 0.050209026784 0.018747422844 -0.0073786173016 -0.0220050551 -0.027066584677 -0.036389835179 -0.055226832628 -0.077401541173 
-0.096523694694 -0.10675412416 -0.1079410091 -0.097075633705 -0.079850271344 -0.060205150396 -0.045443337411 -0.039313301444 -0.042155198753 
-0.050004888326 -0.05899015069 -0.07109374553 -0.093986600637 -0.12955233455 -0.16795007885 -0.20186856389 -0.22309429944 -0.22421257198 
-0.20364864171 -0.16344112158 -0.10804209858 -0.048164773732 0.0043180603534 0.025968093425 0.012165854685 0.0088267875835 0.016345471144 
0.032509207726 -0.057766214013 -0.069958604872 -0.046839568764 -0.04689919576 -0.059487503022 -0.073527537286 -0.07798024267 -0.07430396229 
-0.06573561579 -0.058865595609 -0.052222371101 -0.042444702238 -0.016496362165 0.027953928337 0.057675816119 0.077068418264 0.086138956249 
0.087887682021 0.08428286016 0.079056188464 0.073007553816 0.06535577029 0.063247635961 0.070380076766 0.08327960223 0.098112344742 
0.11437211186 0.132038638 0.15564130247 0.18303836882 0.2044082433 0.21149717271 0.19601263106 0.16827739775 0.14186502993 
0.11922100931 0.098346963525 0.040573202074 0.073895953596 0.014606205747 -0.0043289749883 -0.013364346698 -0.0090637858957 0.0023738660384 
0.0049976003356 -0.01110347826 -0.038934547454 -0.072797425091 -0.10638698936 -0.14048939943 -0.17436467111 -0.20666240156 -0.23791304231 
-0.2642480135 -0.28063520789 -0.28588438034 -0.27654489875 -0.25278428197 -0.21860928833 -0.18379695714 -0.15489216149 -0.1315189451 
-0.10753687471 -0.08183683455 -0.053099751472 -0.056989125907 -0.05054172501 0.11362295598 0.080318979919 0.15251109004 0.19344286621 
0.22656439245 0.24896025658 0.25733193755 0.24969652295 0.22924265265 0.20222626626 0.16904266179 0.1299610436 0.090777985752 
0.061118554324 0.044683970511 0.042841665447 0.086921103299 0.073102496564 0.09981443733 0.10270898789 0.09177403897 0.063444845378 
0.026988983154 -0.0041828560643 -0.022879241034 -0.030438829213 -0.040180254728 -0.061625149101 -0.089545786381 -0.11225524545 -0.1232118085 
-0.12182570994 -0.10719447583 -0.086146555841 -0.062420252711 -0.046546578407 -0.042232383043 -0.046712450683 -0.054421536624 -0.065328545868 
-0.083380766213 -0.11522794515 -0.16000650823 -0.20623834431 -0.24640011787 -0.27026382089 -0.27081868052 -0.24354323745 -0.19078183174 
-0.12068099529 -0.048797920346 0.0080262776464 0.029388953 0.017264377326 0.0089183859527 0.013965511695 0.032628696412 0.056759592146 
0.059436582029 0.049838073552 -0.043326001614 -0.044283811003 -0.061810083687 -0.079202242196 -0.088006190956 -0.087185010314 -0.078821405768 
-0.069264657795 -0.059780102223 -0.053008973598 -0.046454112977 0.077957451344 0.048668973148 0.093855731189 0.09848959744 0.099405288696 
0.095395095646 0.0880818367 0.078431859612 0.068469829857 0.059860602021 0.062985412776 0.072730235755 0.086494661868 0.10429885238 
0.12530331314 0.15464395285 0.19158449769 0.22325217724 0.24328878522 0.21853521466 0.1863899529 0.16052621603 0.15114124119 
0.13271379471 0.11055848747 0.049262903631 0.084381565452 0.022929385304 0.0046176812612 -0.0056205461733 -0.010800821707 -0.0067385430448 
0.004130423069 0.0079881493002 -0.0080526443198 -0.036082543433 -0.071797959507 -0.10853165388 -0.14773647487 -0.19023519754 -0.23220056295 
-0.2723223567 -0.30302336812 -0.31674197316 -0.31518989801 -0.29894372821 -0.26843887568 -0.22881014645 -0.19027811289 -0.16534592211 
-0.14910939336 -0.1228825748 -0.092751115561 -0.063104532659 -0.038700331002 -0.040872957557 -0.040143560618 0.0090890545398 -0.026875918731 
0.069985456765 0.060420047492 0.08225248754 0.096553854644 0.10864388198 0.11438727379 0.10452895612 0.074900530279 0.036148797721 
0.00059955712641 -0.022673303261 -0.031511228532 -0.041035316885 -0.062759444118 -0.097685277462 -0.12310642749 -0.13396815956 -0.12993295491 
-0.1103028208 -0.085929013789 -0.058572750539 -0.0445766747 -0.043654933572 -0.049560818821 -0.057588133961 -0.071086257696 -0.098224937916 
-0.13947057724 -0.18981227279 -0.23957136273 -0.28249078989 -0.30856212974 -0.3085385263 -0.27670863271 -0.21262958646 -0.13045421243 
-0.053458366543 0.002080850536 0.025890238583 0.019305931404 0.010500033386 0.011770825833 0.029352329671 0.055688969791 0.084157153964 
0.12327837944 0.16564266384 0.20839472115 0.2424248457 0.26552733779 0.27416789532 0.2661318481 0.24325820804 0.21139417589 
0.17392680049 0.13250745833 0.092751771212 0.063251085579 0.045364163816 0.04091020301 0.043820947409 0.051317665726 0.071071058512 
0.062918648124 0.076519042253 -0.039260715246 -0.057203542441 -0.082340404391 -0.10007571429 -0.10230195522 -0.094195492566 -0.080657370389 
-0.06557854265 -0.05619963631 -0.052777085453 -0.044703591615 0.001461334643 -0.026128262281 0.038079701364 0.073774218559 0.097586363554 
0.10710305721 0.10945470631 0.10621733963 0.10586890578 0.099713623524 0.088864684105 0.076902583241 0.066572032869 0.064128689468 
0.056278020144 0.077784627676 0.097757406533 0.11962266266 0.14198052883 0.19078886509 0.22460891306 0.24741798639 0.18686933815 
0.22492942214 0.054736126214 0.059030953795 0.25330969691 0.26102793217 0.14677675068 0.17331248522 0.12093874812 0.061326954514 
0.097805023193 0.028363125399 0.0062605817802 -0.006229205057 -0.0052303159609 0.0084424056113 0.014248557389 -0.0038118795492 -0.032960183918 
-0.067844435573 -0.10612685233 -0.14798384905 -0.19526097178 -0.2515732944 -0.30130961537 -0.33519861102 -0.34572014213 -0.33627250791 
-0.31194788218 -0.27346858382 -0.21829849482 -0.17466974258 -0.14180521667 -0.10433203727 -0.07051320374 -0.045098226517 -0.031912315637 
-0.034570030868 -0.034038294107 0.086286135018 0.10083032399 0.11379317939 0.12189233303 0.11397292465 0.085611492395 0.045663226396 
0.0073443781585 -0.021108800545 -0.033107865602 -0.040830805898 -0.057363405824 -0.080247104168 -0.13791558146 -0.13226601481 -0.12994788587 
-0.10650767386 -0.078253395855 -0.052920136601 -0.042150247842 -0.043680787086 -0.051004070789 -0.06042316556 -0.076404608786 -0.11764339358 
-0.17097817361 -0.22325855494 -0.27113860846 -0.31252741814 -0.33660486341 -0.33694505692 -0.30440795422 -0.23081281781 -0.12874896824 
-0.05614393577 -0.0072132665664 0.01916314289 0.019131924957 0.013030360453 0.010414801538 0.022863162681 0.048220284283 0.085677735507 
0.12742748857 0.1685873121 0.21075850725 0.24484112859 0.26884239912 0.27798828483 0.26995751262 0.24615234137 0.21138434112 
0.17195247114 0.12987756729 0.092651322484 0.063645705581 0.046530202031 0.039711304009 0.039795227349 0.044912397861 0.054729901254 
0.078097559512 0.067885614932 0.083606943488 -0.11637401581 -0.099464841187 -0.00013140901865 0.0029552704655 -0.0023249157239 0.014051906765 
-0.028779732063 -0.061707772315 -0.10065618157 -0.14228902757 -0.19421450794 -0.26889452338 -0.32734510303 -0.35832428932 -0.36563053727 
-0.34978121519 -0.31775537133 -0.27617028356 -0.23138310015 -0.16586792469 -0.18774171174 -0.051391035318 -0.083866521716 -0.10997419804 
-0.11704412848 -0.10968095064 -0.092937007546 -0.070641696453 -0.058111544698 -0.049750741571 -0.045677255839 -0.036921724677 0.00079478597036 
-0.021801352501 0.030016666278 0.065018542111 0.095770716667 0.11376384646 0.11706820875 0.11361793429 0.10946561396 0.10152815282 
0.088809125125 0.078126452863 0.068658940494 0.050892680883 0.058192037046 0.048436257988 0.050572007895 0.058835778385 0.075328558683 
0.10187767446 0.18169809878 0.22135473788 0.14866004884 0.038545310497 0.086135752499 0.011743360199 0.099835008383 0.1152074188 
0.12645918131 0.12097171694 0.094594188035 0.056439690292 0.016560202464 -0.037527579814 -0.041868250817 -0.052196078002 -0.068417340517 
-0.13665160537 -0.13596454263 -0.12477744371 -0.10042338073 -0.070422597229 -0.048017706722 -0.039624556899 -0.041923243552 -0.051019143313 
-0.064113043249 -0.079041056335 -0.10244786739 -0.25685673952 -0.21140818298 -0.30049878359 -0.33556750417 -0.3562579751 -0.3553969264 
-0.33067294955 -0.28464233875 -0.053756557405 -0.11267189682 -0.013292280026 0.013056161813 0.018242161721 0.01535156928 0.010252240114 
0.01259274222 -0.16901484132 -0.14128227532 0.01730194129 0.011933842674 -0.17756544054 -0.23468177021 0.12640859187 0.1627393961 
0.20254853368 0.23886068165 0.26603370905 0.27590075135 0.26711523533 0.24171608686 0.20474210382 0.16319395602 0.1216674149 
0.086242094636 0.060404215008 0.045591641217 0.040252644569 0.038100797683 0.039758782834 0.047624409199 0.080859184265 0.19244357944 
0.15108658373 0.21832686663 0.23339872062 0.24738390744 0.26966458559 0.25866803527 0.25972011685 -0.091234438121 -0.1151919812 
-0.064082801342 -0.045389857143 -0.037260819227 -0.038616012782 -0.049600575119 -0.076506897807 -0.11945231259 0.23142427206 0.19256548584 
0.14985962212 0.10971161723 0.076435029507 0.053840752691 0.041344042867 0.038592796773 0.042805258185 0.043592516333 0.047391436994 
0.0574901402 0.078100524843 0.10909121484 0.094251349568 0.11234451085 0.12608385086 0.12256321311 0.098432742059 0.067333415151 
0.034571934491 0.11986003816 0.11254370958 0.10217168182 0.089354351163 0.057122454047 0.084856726229 0.10993579775 0.12293615937 
0.042433656752 0.047043114901 0.060555666685 0.08578774333 0.12055782229 0.16312867403 0.20361073315 0.21797113121 -0.039983745664 
-0.043545905501 -0.050171792507 -0.060881890357 -0.12581184506 -0.11135840416 -0.044973053038 -0.083595082164 -0.11684044451 -0.12616425753 
-0.12118761986 -0.13071806729 -0.071667410433 -0.20993022621 -0.2465685904 -0.28900286555 -0.32750082016 -0.35303300619 -0.36861005425 
-0.36702874303 -0.34634783864 -0.31179454923 -0.27370482683 -0.19306577742 -0.22778220475 -0.14722952247 -0.10010095686 -0.053761020303 
-0.019997376949 0.0081194834784 0.018746538088 0.016352433711 0.010786477476 0.005517996382 0.016747651622 0.0184255559 0.011680507101 
-0.0025085501838 -0.027706911787 -0.056779168546 -0.094809502363 -0.13469791412 -0.3452770412 -0.30810931325 -0.36966276169 -0.37382882833 
-0.35297903419 -0.31199410558 -0.26989617944 -0.23782627285 -0.036829415709 -0.36343917251 -0.37488368154 -0.37164151669 -0.35202878714 
-0.32605755329 -0.055968213826 -0.093774206936 -0.026899667457 -0.0060272295959 0.075208209455 0.097166635096 0.11005634815 0.12467022985 
0.099211201072 0.17772769928 0.1347900629 0.096794746816 0.066990219057 0.047830250114 -0.17809991539 -0.16609980166 -0.13343718648 
-0.12850219011 -0.13339944184 -0.10551556945 -0.084780961275 -0.058807510883 -0.044909290969 0.11939226091 0.12517683208 -0.083823241293 

Disp_FEB 3 1116 double
0 0 0 0 0 0 -0.033665291965 0.075598992407 0.013959521428 
-0.044278245419 0.079116210341 0.0090846531093 0 0 0 -0.027385361493 0.071441426873 0.020823325962 
0 0 0 -0.016625870019 0.06850554049 0.027387490496 0 0 0 
-0.0070533766411 0.064906731248 0.03205017373 0 0 0 -0.00047023588559 0.060617335141 0.035805959255 
0 0 0 0.0059616332874 0.056273732334 0.03873546049 0 0 0 
0.010166483931 0.049155142158 0.040166269988 0 0 0 0.0092666186392 0.044031944126 0.038970500231 
0 0 0 0.01274082344 0.048538222909 0.04068307206 0 0 0 
0.016107216477 0.049722090364 0.049121294171 0 0 0 0.021075770259 0.045983895659 0.059780467302 
0 0 0 0.021232189611 0.037283115089 0.069593094289 0 0 0 
0.022124050185 0.026849448681 0.07580562681 0 0 0 0.022125078365 0.017156720161 0.078092694283 
0 0 0 0.021913578734 0.0075697838329 0.079920753837 0 0 0 
0.018496634439 -0.0036541731097 0.078379392624 0 0 0 0.013110052794 -0.014824310318 0.07567294687 
0 0 0 0.008187959902 -0.024725068361 0.071902915835 0 0 0 
0.008953243494 -0.031318444759 0.065476119518 0 0 0 0.011716214009 -0.036758009344 0.054895810783 
0 0 0 0.013654479757 -0.040452230722 0.041096437722 0 0 0 
0.017579231411 -0.039297986776 0.02286619693 0 0 0 0.018533147871 -0.031008411199 0.00086122262292 
0 0 0 0.020567266271 -0.019191851839 -0.011812995188 0 0 0 
0.023263493553 -0.012309624813 -0.013870372437 0 0 0 0.022406950593 -0.016607915983 -0.0058487555943 
0 0 0 0.024203449488 -0.032002378255 -0.0047099161893 0 0 0 
0.023595618084 -0.050217922777 -0.013427321799 0 0 0 0.022764960304 -0.065618351102 -0.026593338698 
0 0 0 0.021782139316 -0.0761808604 -0.0393467471 0 0 0 
0.019375678152 -0.083027236164 -0.050012782216 0 0 0 0.0129392948 -0.08765579015 -0.057607464492 
0 0 0 0.0088494326919 -0.093054994941 -0.068894952536 0 0 0 
0.0032917945646 -0.095836304128 -0.077794663608 0 0 0 0.001199530554 -0.094709731638 -0.086016833782 
0 0 0 -0.0020288163796 -0.094467274845 -0.097483336926 0 0 0 
-0.008146985434 -0.089904218912 -0.10611082613 0 0 0 -0.012227332219 -0.081177614629 -0.11057317257 
0 0 0 -0.013311423361 -0.069851256907 -0.10992065817 0 0 0 
-0.015128193423 -0.056474182755 -0.10329144448 0 0 0 -0.013370529748 -0.045768253505 -0.093411356211 
0 0 0 -0.010013006628 -0.034583713859 -0.081001706421 0 0 0 
-0.0085245799273 -0.020778002217 -0.067769311368 0 0 0 -0.0057403948158 -0.0079127298668 -0.051838673651 
0 0 0 0.00086188752903 -3.8355192373e-05 -0.036575842649 0 0 0 
0.0022241852712 0.0059093553573 -0.032467987388 0 0 0 -0.0029960994143 0.016035566106 -0.035743076354 
0 0 0 -0.010357472114 0.033741753548 -0.040724091232 0 0 0 
-0.016887843609 0.054364666343 -0.03948803246 0 0 0 -0.018828144297 0.070042014122 -0.032776270062 
0 0 0 -0.018330384046 0.077473245561 -0.024702575058 0 0 0 
-0.02216643095 0.078132905066 -0.018560919911 0 0 0 -0.031067755073 0.078297950327 -0.013474619016 
0 0 0 -0.039355617017 0.08023930341 -0.0055094668642 0 0 0 
-0.043307553977 0.08049531281 0.0028374011163 0 0 0 0 0 0 
0.0043691475876 -0.052028641105 0.017314845696 -0.0014800070785 -0.047754582018 0.015291103162 0 0 0 
0.010418410413 -0.058443948627 0.027502708137 0 0 0 0.02030470036 -0.063813135028 0.036477651447 
0 0 0 0.026570614427 -0.068911351264 0.048207577318 0 0 0 
0.033868703991 -0.069099843502 0.061632618308 0 0 0 0.036619417369 -0.066687352955 0.077088922262 
0 0 0 0.039008021355 -0.058742254972 0.088355325162 0 0 0 
0.034144442528 -0.049208518118 0.095963813365 0 0 0 0.032390259206 -0.037606976926 0.09751380235 
0 0 0 0.021351767704 -0.031465213746 0.09695354104 0 0 0 
0.01533326786 -0.026685509831 0.093407213688 0 0 0 0.0089731067419 -0.02051791735 0.08788639307 
0 0 0 0.0039910594933 -0.010021405295 0.079868808389 0 0 0 
-0.0017422778765 0.0014476720244 0.066869802773 0 0 0 -0.0090506775305 0.010274244472 0.050830595195 
0 0 0 -0.011375268921 0.016049232334 0.032927639782 0 0 0 
-0.013637199067 0.016160719097 0.021328216419 0 0 0 -0.0097798891366 0.01562861912 0.019007941708 
0 0 0 -0.0094098523259 0.024414943531 0.026198603213 0 0 0 
-0.010675555095 0.04161933437 0.029053388163 0 0 0 -0.0078813284636 0.057567715645 0.030135890469 
0 0 0 -0.013468581252 0.077098362148 0.030281435698 0 0 0 
-0.014516212046 0.094676606357 0.026455653831 0 0 0 -0.0124164382 0.10745606571 0.016406174749 
0 0 0 -0.019709916785 0.11467689276 0.0036255752202 0 0 0 
-0.031881324947 0.11448076367 -0.0055091953836 0 0 0 -0.037029758096 0.10922094434 -0.010250004008 
0 0 0 -0.034740976989 0.10746122152 -0.012021049857 0 0 0 
-0.030982458964 0.10973022878 -0.015485129319 0 0 0 -0.026106590405 0.11054930836 -0.023503344506 
0 0 0 -0.033808182925 0.10869463533 -0.032393511385 -0.018408752978 0.029861930758 0.0020641635638 
-0.036416009068 0.09504314512 -0.042259756476 0 0 0 -0.039938740432 0.084922850132 -0.047296952456 
0 0 0 -0.038553547114 0.064029954374 -0.048485331237 0 0 0 
-0.037071488798 0.041194416583 -0.045206788927 0 0 0 -0.032827887684 0.02105858922 -0.037624422461 
0 0 0 -0.030703015625 0.0093535743654 -0.028153173625 0 0 0 
-0.029189430177 0.0040878541768 -0.021535292268 0 0 0 -0.029439063743 0.0036022267304 -0.019262066111 
0 0 0 -0.034038282931 0.0016772652743 -0.022227156907 0 0 0 
-0.0342801027 -0.0043226182461 -0.028384484351 0 0 0 -0.032656960189 -0.011478533968 -0.03337610513 
0 0 0 -0.028783958405 -0.016111956909 -0.038048226386 0 0 0 
-0.023850193247 -0.018806679174 -0.044925834984 0 0 0 -0.015791293234 -0.022504525259 -0.056673415005 
0 0 0 -0.0068728015758 -0.032691922039 -0.070123136044 0 0 0 
0.0055160061456 -0.047320120037 -0.083155162632 0 0 0 0.014659131877 -0.066596858203 -0.093479767442 
0 0 0 0.023900002241 -0.083581916988 -0.095789417624 0 0 0 
0.032862797379 -0.09791611135 -0.089457191527 0 0 0 0.031100166962 -0.10806695372 -0.073937118053 
0 0 0 0.027029000223 -0.10896543413 -0.05391934514 0 0 0 
0.014505041763 -0.10274666548 -0.032532442361 0 0 0 0.0042784810066 -0.085177019238 -0.010074950755 
0 0 0 -0.0061164214276 -0.063614293933 -0.0019297939725 0 0 0 
-0.011075763963 -0.053113747388 0.00084919808432 0 0 0 -0.0080997645855 -0.048435285687 0.011223055422 
-0.048504270613 0.1224989295 0.039080318063 -0.05969697237 0.13279297948 0.026223031804 -0.033640872687 0.11110390723 0.048440530896 
-0.01746901311 0.10191945732 0.053594592959 -0.0039322329685 0.094675265253 0.05631602183 0.0066818306223 0.086931988597 0.058417279273 
0.014443404973 0.077056691051 0.059300765395 0.018282607198 0.07151286304 0.056855302304 0.02332216315 0.075053423643 0.058711223304 
0.028012996539 0.074750684202 0.070929154754 0.03162420541 0.067989893258 0.086885012686 0.033796880394 0.056647051126 0.10148934275 
0.035915832967 0.042477216572 0.1122456938 0.034883175045 0.027743844315 0.11865572631 0.032261934131 0.011700692587 0.12273862213 
0.023972449824 -0.0065657421947 0.12540538609 0.020038258284 -0.02505819127 0.12771832943 0.015649208799 -0.044109046459 0.1257429868 
0.018974553794 -0.057221844792 0.11718735099 0.021823087707 -0.068631567061 0.10043466091 0.022967088968 -0.076733022928 0.077540747821 
0.021898405626 -0.079068362713 0.04511776194 0.02291675657 -0.052850492299 0.0038036401384 0.025385916233 -0.032746396959 -0.014785626903 
0.029654178768 -0.021800439805 -0.014310632832 0.032650221139 -0.029674237594 -0.0026437996421 0.03717129305 -0.054288562387 -0.0017045176355 
0.040297236294 -0.082861997187 -0.016191801056 0.04174888134 -0.10717236996 -0.037757840008 0.040577918291 -0.12580303848 -0.059358775616 
0.036224499345 -0.13971464336 -0.078344076872 0.027355091646 -0.15132296085 -0.094557344913 0.019442843273 -0.15923957527 -0.11230129749 
0.0094488970935 -0.16463664174 -0.12867282331 0.0043052081019 -0.16631492972 -0.14571212232 -0.00035812673741 -0.16314207017 -0.16463319957 
-0.0077740820125 -0.15216237307 -0.18055067956 -0.016961883754 -0.13393989205 -0.18743267655 -0.02338652499 -0.11105510592 -0.18407209218 
-0.025595959276 -0.086623936892 -0.17190520465 -0.023772569373 -0.063570432365 -0.15309807658 -0.022087069228 -0.043028503656 -0.13045348227 
-0.020982522517 -0.022882033139 -0.10608507693 -0.015797885135 -0.0052363206632 -0.078958645463 -0.0032871747389 0.0039746803232 -0.052233196795 
-0.00037469473318 0.010313650593 -0.047633010894 -0.0069107236341 0.02232911624 -0.052794471383 -0.019370539114 0.044709406793 -0.059522625059 
-0.030838059261 0.073654793203 -0.05887388438 -0.037334892899 0.0974797979 -0.05126253888 -0.038720190525 0.11386540532 -0.040906332433 
-0.043552033603 0.12242952734 -0.034474216402 -0.05180869624 0.13300706446 -0.027960808948 -0.059501484036 0.14395925403 -0.013962243684 
-0.064621210098 0.14601938426 0.0023892091122 -0.064539410174 0.14165207744 0.014758368954 0.013316050172 -0.09408070147 0.043130751699 
0.0033790392336 -0.083911158144 0.027930775657 0.025892056525 -0.10478150845 0.057606507093 0.037856701761 -0.11479951441 0.077141612768 
0.047488290817 -0.11892063171 0.10224300623 0.053195431828 -0.11554093659 0.12784312665 0.055401202291 -0.10460921377 0.148807019 
0.049498818815 -0.08902194351 0.16283880174 0.04198230058 -0.071538217366 0.16666318476 0.029732635245 -0.056681156158 0.16263090074 
0.021795779467 -0.041276097298 0.15449543297 0.013702728786 -0.024865161628 0.14295370877 0.0063127018511 -0.0043451809324 0.12598700821 
-0.0032895361073 0.012068673037 0.10251880437 -0.011084006168 0.024451768026 0.074881963432 -0.014674871229 0.028127834201 0.0497658737 
-0.014386958443 0.025841064751 0.035997852683 -0.010161998682 0.028330693021 0.036671102047 -0.010002191179 0.042402051389 0.045460216701 
-0.011162672192 0.0665409863 0.05360583961 -0.010729875416 0.094569779932 0.059593334794 -0.017166389152 0.12607714534 0.059709433466 
-0.020941579714 0.1571252048 0.052613414824 -0.027089023963 0.18097256124 0.034578528255 -0.037162553519 0.1915038079 0.011346844025 
-0.046267002821 0.18806605041 -0.0080318618566 -0.052511714399 0.17848554254 -0.017715476453 -0.053468789905 0.17423509061 -0.020890604705 
-0.051592554897 0.17630195618 -0.02846300602 -0.04976323247 0.17817610502 -0.041898936033 -0.051483422518 0.17170760036 -0.058358531445 
-0.055193565786 0.15526539087 -0.073100663722 -0.059253264219 0.12854032218 -0.081977769732 -0.059111006558 0.095884904265 -0.083222992718 
-0.055444072932 0.060821440071 -0.077463313937 -0.049339469522 0.032220385969 -0.064788922668 -0.04521599412 0.014122124761 -0.049734003842 
-0.042851760983 0.0052941883914 -0.037879906595 -0.04400189966 0.0039047517348 -0.032645333558 -0.048397552222 0.0019947236869 -0.035321772099 
-0.050117384642 -0.0068482826464 -0.043307296932 -0.047741729766 -0.017712824047 -0.050621755421 -0.04280423373 -0.024803588167 -0.058138012886 
-0.035388763994 -0.02777646482 -0.072210796177 -0.026245212182 -0.035282105207 -0.096050657332 -0.01405614242 -0.055674664676 -0.12362253666 
0.0018271590816 -0.084474109113 -0.14774002135 0.016641721129 -0.11753302068 -0.1637314409 0.031193178147 -0.15109741688 -0.16559579968 
0.043525677174 -0.176578179 -0.15227720141 0.045130163431 -0.19042980671 -0.12518182397 0.041126247495 -0.18722136319 -0.087443895638 
0.030211895704 -0.16610349715 -0.04571583122 0.012892620638 -0.12842565775 -0.0039781900123 -0.0099093709141 -0.087907165289 0.01357915625 
-0.019516628236 -0.071591883898 0.0064885988832 -0.014420500025 -0.070287927985 0.010212361813 -0.0065575088374 -0.074757106602 0.01707293652 
-0.046242125332 0.14599634707 0.068779490888 -0.06032429263 0.16893605888 0.057459719479 -0.02722613886 0.12916474044 0.071807295084 
-0.010397209786 0.11602251977 0.071806304157 0.0034959532786 0.1052133441 0.070517115295 0.014581101947 0.09435813874 0.068021997809 
0.022065963596 0.087664403021 0.063552394509 0.027684239671 0.087243415415 0.064255483449 0.032592900097 0.083643004298 0.075208999217 
0.036813989282 0.076452121139 0.090670444071 0.040129166096 0.06583879143 0.10699483752 0.04218744114 0.051712907851 0.12115326524 
0.04062313959 0.0368363671 0.13327877223 0.033965658396 0.018899364397 0.14652039111 0.025852711871 -0.0046998024918 0.16081228852 
0.023506546393 -0.03314005211 0.172484532 0.023632101715 -0.061388652772 0.17358542979 0.026026897132 -0.083470538259 0.16269512475 
0.026663528755 -0.098536044359 0.14002820849 0.025149405003 -0.10877830535 0.11327385902 0.0209710747 -0.11691865325 0.085826523602 
0.019570278004 -0.040880836546 -0.015635736287 0.016314124689 -0.064860351384 -0.00074618525105 0.025956695899 -0.029044814408 -0.012536663562 
0.034411992878 -0.038889866322 0.00038425432285 0.042753577232 -0.06867402792 0.0020441913512 0.048494957387 -0.10520166159 -0.013930701651 
0.050877280533 -0.13843999803 -0.039775218815 0.050511606038 -0.16510015726 -0.069484330714 0.046391993761 -0.18631136417 -0.096942327917 
0.03861098364 -0.20358522236 -0.12253573537 0.029074177146 -0.21610508859 -0.14898349345 0.015907216817 -0.2233966887 -0.17312082648 
0.0058893612586 -0.2243296057 -0.19653292 -0.0021645410452 -0.21752116084 -0.21955755353 -0.010891344398 -0.20090612769 -0.23783515394 
-0.019270565361 -0.17503203452 -0.24567167461 -0.026398416609 -0.14228063822 -0.23999455571 -0.030187234282 -0.10793299973 -0.2214846015 
-0.02914798446 -0.077004790306 -0.19405828416 -0.027681197971 -0.05109700188 -0.16312515736 -0.027164909989 -0.029482299462 -0.13525593281 
-0.024013210088 -0.013372834772 -0.1103714034 -0.0032982286066 0.010602728464 -0.048303637654 -0.0055435611866 0.0054813446477 -0.051183715463 
-0.011790558696 0.022971510887 -0.056713365018 -0.028178432956 0.048367366195 -0.067014046013 -0.044140152633 0.082447491586 -0.069320879877 
-0.054019961506 0.1134826839 -0.063500225544 -0.058652479202 0.13714417815 -0.053225886077 -0.064720563591 0.15343011916 -0.047545596957 
-0.068975351751 0.17584744096 -0.041400324553 -0.074828483164 0.19729444385 -0.026105837896 -0.08043769747 0.21056959033 -0.003807769157 
-0.077943079174 0.20446388423 0.019538411871 -0.074679374695 0.18773582578 0.041227020323 0.01394584123 -0.095538638532 0.027515593916 
0.01617927663 -0.12453240901 0.06303653121 -0.014358898625 0.0027301509399 -0.067859791219 -0.02034826763 -0.0011451668106 -0.089580573142 
0.030305042863 -0.13301478326 0.071508899331 0.014824398793 -0.11636493355 0.052407458425 0.043780766428 -0.14798514545 0.099527150393 
0.054732557386 -0.15603759885 0.13284011185 0.059930928051 -0.15413433313 0.16790497303 0.061291560531 -0.14241968095 0.19630859792 
0.055327914655 -0.12403606623 0.21567223966 0.048473976552 -0.098917499185 0.2219606638 0.039343316108 -0.072724767029 0.21543085575 
0.027500260621 -0.050188329071 0.20071408153 0.017927736044 -0.022872600704 0.18084797263 0.0070520616136 0.0047084316611 0.15428890288 
-0.004400646314 0.025911634788 0.12104710937 -0.01317796763 0.036392107606 0.08582868427 -0.016085153446 0.036791183054 0.057175710797 
-0.013081829995 0.031214347109 0.040792539716 -0.0068421806209 0.034673325717 0.045339699835 -0.0078500583768 0.054991818964 0.059008587152 
-0.011208686978 0.085517250001 0.072170235217 -0.0144976601 0.12190259248 0.082407489419 -0.023569945246 0.16404688358 0.083932951093 
-0.032808262855 0.2059545368 0.074671708047 -0.045220691711 0.23710335791 0.050209026784 -0.055848442018 0.24970982969 0.018747422844 
-0.062573172152 0.24363617599 -0.0073786173016 -0.065389730036 0.23011346161 -0.0220050551 -0.06613791734 0.22309717536 -0.027066584677 
-0.067004747689 0.22605824471 -0.036389835179 -0.067163512111 0.22866487503 -0.055226832628 -0.06798838079 0.21984286606 -0.077401541173 
-0.069882310927 0.19563427567 -0.096523694694 -0.070593908429 0.15739923716 -0.10675412416 -0.067093960941 0.11045585573 -0.1079410091 
-0.063341528177 0.066947050393 -0.097075633705 -0.058363821357 0.033947315067 -0.079850271344 -0.054626811296 0.015134916641 -0.060205150396 
-0.051522072405 0.006573272869 -0.045443337411 -0.051465954632 0.0055645322427 -0.039313301444 -0.052180252969 0.0015739977825 -0.042155198753 
-0.051802296191 -0.0080958288163 -0.050004888326 -0.049021929502 -0.019522648305 -0.05899015069 -0.043607342988 -0.027653761208 -0.07109374553 
-0.036679264158 -0.031716044992 -0.093986600637 -0.028337288648 -0.045822452754 -0.12955233455 -0.016467351466 -0.077304460108 -0.16795007885 
-0.00021309487056 -0.11718287319 -0.20186856389 0.01717880182 -0.16383479536 -0.22309429944 0.034222058952 -0.21046417952 -0.22421257198 
0.048551291227 -0.24421808124 -0.20364864171 0.053984757513 -0.25793117285 -0.16344112158 0.052861984819 -0.24547748268 -0.10804209858 
0.041698347777 -0.20824916661 -0.048164773732 0.021076133475 -0.15044696629 0.0043180603534 -0.0033151381649 -0.093416817486 0.025968093425 
-0.020942134783 -0.068554185331 0.012165854685 -0.020120859146 -0.072284594178 0.0088267875835 -0.011242235079 -0.084870845079 0.016345471144 
0.0012006466277 -0.10060752183 0.032509207726 -0.01244666893 0.0062328600325 -0.057766214013 -0.015951862559 0.0053851199336 -0.069958604872 
-0.0074697858654 0.0066707255319 -0.046839568764 -0.0070442524739 0.008183836937 -0.04689919576 -0.017782034352 0.019510367885 -0.059487503022 
-0.0373926498 0.04822345823 -0.073527537286 -0.055688221008 0.088938355446 -0.07798024267 -0.068741925061 0.12539726496 -0.07430396229 
-0.076515220106 0.15456938744 -0.06573561579 -0.081432968378 0.1773724407 -0.058865595609 -0.082467623055 0.20358748734 -0.052222371101 
-0.08563387394 0.23383460939 -0.042444702238 -0.094793729484 0.27410534024 -0.016496362165 -0.090404130518 0.26076507568 0.027953928337 
-0.079430527985 0.23436024785 0.057675816119 -0.068722344935 0.20283618569 0.077068418264 -0.054422926158 0.17221716046 0.086138956249 
-0.035979218781 0.14872351289 0.087887682021 -0.017245328054 0.13152912259 0.08428286016 -0.001452431432 0.11774270236 0.079056188464 
0.011043087579 0.10435949266 0.073007553816 0.020299347118 0.094107322395 0.06535577029 0.027599358931 0.087832733989 0.063247635961 
0.034263689071 0.081918530166 0.070380076766 0.039353735745 0.075691580772 0.08327960223 0.042434398085 0.068031154573 0.098112344742 
0.043179139495 0.057351879776 0.11437211186 0.039316609502 0.045891501009 0.132038638 0.031872022897 0.028306527063 0.15564130247 
0.026373259723 -0.00068849651143 0.18303836882 0.027458066121 -0.037942349911 0.2044082433 0.030623512343 -0.077893339097 0.21149717271 
0.032464373857 -0.10687664896 0.19601263106 0.030135672539 -0.12309513241 0.16827739775 0.027962980792 -0.13153016567 0.14186502993 
0.023681357503 -0.14221899211 0.11922100931 0.020366895944 -0.14810846746 0.098346963525 0.010647850111 -0.12518103421 0.040573202074 
0.016044689342 -0.1499184221 0.073895953596 0.0091486014426 -0.097249254584 0.014606205747 0.010040163994 -0.070712521672 -0.0043289749883 
0.012771882117 -0.049221415073 -0.013364346698 0.020093822852 -0.037459619343 -0.0090637858957 0.031721454114 -0.046193607152 0.0023738660384 
0.043849710375 -0.076943479478 0.0049976003356 0.052385445684 -0.11835075915 -0.01110347826 0.05632821098 -0.15862363577 -0.038934547454 
0.056513849646 -0.19229534268 -0.072797425091 0.053201168776 -0.22023716569 -0.10638698936 0.046545475721 -0.24343401194 -0.14048939943 
0.034608103335 -0.26156204939 -0.17436467111 0.018768297508 -0.27253997326 -0.20666240156 0.0052788620815 -0.27143168449 -0.23791304231 
-0.0067034205422 -0.25746154785 -0.2642480135 -0.015722466633 -0.23324942589 -0.28063520789 -0.020950004458 -0.20037323236 -0.28588438034 
-0.026108773425 -0.16053424776 -0.27654489875 -0.029066517949 -0.11950078607 -0.25278428197 -0.030060634017 -0.081562772393 -0.21860928833 
-0.028632232919 -0.053759045899 -0.18379695714 -0.026984443888 -0.034549035132 -0.15489216149 -0.024676229805 -0.017365049571 -0.1315189451 
-0.020592262968 -0.0057861283422 -0.10753687471 -0.017375355586 0.0040799207054 -0.08183683455 -0.013285850175 0.0070232665166 -0.053099751472 
-0.015744408593 0.0064767142758 -0.056989125907 -0.01138518285 0.0067478828132 -0.05054172501 0.047272857279 -0.16925247014 0.11362295598 
0.031925011426 -0.15085729957 0.080318979919 0.058684036136 -0.17942544818 0.15251109004 0.063657097518 -0.17824059725 0.19344286621 
0.064345143735 -0.16634520888 0.22656439245 0.059631612152 -0.14581982791 0.24896025658 0.051998361945 -0.11700233817 0.25733193755 
0.041864003986 -0.082571536303 0.24969652295 0.029600927606 -0.050249390304 0.22924265265 0.016719918698 -0.017904588953 0.20222626626 
0.0035901474766 0.014192627743 0.16904266179 -0.0082402843982 0.035836528987 0.1299610436 -0.016492046416 0.04625730589 0.090777985752 
-0.01750491932 0.043438833207 0.061118554324 -0.013444378041 0.037153057754 0.044683970511 -0.0077800578438 0.03539827466 0.042841665447 
-0.012289232574 0.10041757673 0.086921103299 -0.0072247325443 0.069526337087 0.073102496564 -0.019137782976 0.14167846739 0.09981443733 
-0.030921444297 0.18953898549 0.10270898789 -0.044419392943 0.2378295511 0.09177403897 -0.058508943766 0.27389493585 0.063444845378 
-0.069288678467 0.28874588013 0.026988983154 -0.075282596052 0.28214558959 -0.0041828560643 -0.078138098121 0.26600888371 -0.022879241034 
-0.076549343765 0.25590121746 -0.030438829213 -0.078380525112 0.25834229589 -0.040180254728 -0.081036187708 0.26174610853 -0.061625149101 
-0.08189675957 0.25173962116 -0.089545786381 -0.080111764371 0.21946676075 -0.11225524545 -0.07655736804 0.17122960091 -0.1232118085 
-0.071143627167 0.11564032733 -0.12182570994 -0.066532075405 0.066031463444 -0.10719447583 -0.062400650233 0.030587015674 -0.086146555841 
-0.058941982687 0.013487696648 -0.062420252711 -0.055528119206 0.0083006722853 -0.046546578407 -0.053166452795 0.00744296005 -0.042232383043 
-0.050717134029 0.00043432952953 -0.046712450683 -0.047920949757 -0.0097571918741 -0.054421536624 -0.043826643378 -0.018918797374 -0.065328545868 
-0.038363512605 -0.027774976566 -0.083380766213 -0.031685534865 -0.034583713859 -0.11522794515 -0.024220187217 -0.055648308247 -0.16000650823 
-0.013222848997 -0.09493945539 -0.20623834431 0.0011591248913 -0.1431825757 -0.24640011787 0.017166627571 -0.20084732771 -0.27026382089 
0.034966368228 -0.25634026527 -0.27081868052 0.049764998257 -0.29616302252 -0.24354323745 0.057770624757 -0.30812111497 -0.19078183174 
0.056813601404 -0.28492683172 -0.12068099529 0.046224214137 -0.23195552826 -0.048797920346 0.028799658641 -0.16060888767 0.0080262776464 
0.0078498516232 -0.098214551806 0.029388953 -0.012674353085 -0.065858945251 0.017264377326 -0.01911573112 -0.066959045827 0.0089183859527 
-0.013391638175 -0.084651723504 0.013965511695 -0.00065417424776 -0.10684134811 0.032628696412 0.014857338741 -0.1287599355 0.056759592146 
-0.0042750067078 0.048933889717 0.059436582029 -0.0027905055322 0.040899265558 0.049838073552 -0.0089673064649 0.0059466203675 -0.043326001614 
-0.010347881354 0.0055852276273 -0.044283811003 -0.022378109396 0.015089175664 -0.061810083687 -0.042796637863 0.048578891903 -0.079202242196 
-0.063373103738 0.093788512051 -0.088006190956 -0.079354412854 0.13645817339 -0.087185010314 -0.089108482003 0.17224510014 -0.078821405768 
-0.094018489122 0.19875307381 -0.069264657795 -0.092972420156 0.22306279838 -0.059780102223 -0.092242345214 0.2497074604 -0.053008973598 
-0.097431048751 0.28626748919 -0.046454112977 -0.082622416317 0.26313060522 0.077957451344 -0.093553230166 0.29871767759 0.048668973148 
-0.072091154754 0.22473552823 0.093855731189 -0.055170577019 0.19221790135 0.09848959744 -0.039279483259 0.16466383636 0.099405288696 
-0.024007864296 0.14671356976 0.095395095646 -0.0086220623925 0.12982283533 0.0880818367 0.0044415853918 0.1131927371 0.078431859612 
0.014557434246 0.0975644961 0.068469829857 0.023843282834 0.08249322325 0.059860602021 0.033404957503 0.074729368091 0.062985412776 
0.038615804166 0.070682413876 0.072730235755 0.040595900267 0.066630132496 0.086494661868 0.039167325944 0.060784421861 0.10429885238 
0.034015830606 0.052803017199 0.12530331314 0.026635056362 0.038090996444 0.15464395285 0.024102509022 0.0068504712544 0.19158449769 
0.028605887666 -0.035754520446 0.22325217724 0.038356781006 -0.091340824962 0.24328878522 0.038565948606 -0.12848573923 0.21853521466 
0.033932857215 -0.14206065238 0.1863899529 0.030502861366 -0.14456440508 0.16052621603 0.029469039291 -0.15671817958 0.15114124119 
0.025884797797 -0.16709432006 0.13271379471 0.022963518277 -0.16980180144 0.11055848747 0.011538121849 -0.14227797091 0.049262903631 
0.019529500976 -0.16477203369 0.084381565452 0.0067317760549 -0.1163861379 0.022929385304 0.0056868316606 -0.091385483742 0.0046176812612 
0.0065947817639 -0.074193462729 -0.0056205461733 0.0077452738769 -0.059676524252 -0.010800821707 0.013726004399 -0.046111822128 -0.0067385430448 
0.026642454788 -0.05240753293 0.004130423069 0.042081329972 -0.082305520773 0.0079881493002 0.053656741977 -0.12662559748 -0.0080526443198 
0.059536326677 -0.17042696476 -0.036082543433 0.060748625547 -0.20946696401 -0.071797959507 0.058048117906 -0.24356083572 -0.10853165388 
0.051405485719 -0.27362856269 -0.14773647487 0.039405208081 -0.2985201478 -0.19023519754 0.02271881327 -0.31438651681 -0.23220056295 
0.0059183351696 -0.31156033278 -0.2723223567 -0.0090796165168 -0.28897678852 -0.30302336812 -0.018111450598 -0.2542424202 -0.31674197316 
-0.022396057844 -0.21213300526 -0.31518989801 -0.025350051001 -0.1647747308 -0.29894372821 -0.026569541544 -0.11880782992 -0.26843887568 
-0.027020415291 -0.07776825875 -0.22881014645 -0.026539925486 -0.049658041447 -0.19027811289 -0.025321545079 -0.035641949624 -0.16534592211 
-0.023130027577 -0.022294627503 -0.14910939336 -0.019197676331 -0.0084164692089 -0.1228825748 -0.017139002681 3.0877952668e-05 -0.092751115561 
-0.018412234262 0.0062005827203 -0.063104532659 -0.01736856252 0.0046838535927 -0.038700331002 -0.02262308076 0.0046591940336 -0.040872957557 
-0.01195104979 0.0054546999745 -0.040143560618 -0.10119051486 0.32026967406 0.0090890545398 -0.10097658634 0.32371488214 -0.026875918731 
-0.0024868145119 0.060716621578 0.069985456765 -5.2482562751e-05 0.050947640091 0.060420047492 -0.0074529089034 0.081302396953 0.08225248754 
-0.014923030511 0.11257473379 0.096553854644 -0.025883622468 0.15513169765 0.10864388198 -0.039248693734 0.20430754125 0.11438727379 
-0.054532401264 0.25573664904 0.10452895612 -0.069515220821 0.29563865066 0.074900530279 -0.079980507493 0.31365567446 0.036148797721 
-0.085236229002 0.3086232245 0.00059955712641 -0.085969597101 0.29075565934 -0.022673303261 -0.085224725306 0.27728542686 -0.031511228532 
-0.087842673063 0.27733960748 -0.041035316885 -0.092069782317 0.28075924516 -0.062759444118 -0.094814568758 0.27003714442 -0.097685277462 
-0.087289437652 0.22663938999 -0.12310642749 -0.079153582454 0.16990330815 -0.13396815956 -0.072385616601 0.11019887775 -0.12993295491 
-0.067234806716 0.059462916106 -0.1103028208 -0.063505038619 0.025114212185 -0.085929013789 -0.06020257622 0.013490719721 -0.058572750539 
-0.055766150355 0.010511761531 -0.0445766747 -0.051203154027 0.0079757804051 -0.043654933572 -0.046379819512 -0.0010616020299 -0.049560818821 
-0.041652150452 -0.010302180424 -0.057588133961 -0.036453004926 -0.016007076949 -0.071086257696 -0.02949991636 -0.023931138217 -0.098224937916 
-0.023330813274 -0.036358904094 -0.13947057724 -0.017426492646 -0.065961800516 -0.18981227279 -0.0084275892004 -0.11161714792 -0.23957136273 
0.0038656655233 -0.16377355158 -0.28249078989 0.018788591027 -0.22699470818 -0.30856212974 0.035505380481 -0.2888341248 -0.3085385263 
0.049210373312 -0.33344313502 -0.27670863271 0.057733956724 -0.34302279353 -0.21262958646 0.056676033884 -0.30842661858 -0.13045421243 
0.047821376473 -0.2417973876 -0.053458366543 0.035108786076 -0.16477300227 0.002080850536 0.019970271736 -0.10379831493 0.025890238583 
-0.00011441965762 -0.067073822021 0.019305931404 -0.011529535055 -0.061904806644 0.010500033386 -0.011263992637 -0.079705007374 0.011770825833 
-0.00090011034627 -0.1063754037 0.029352329671 0.014244587161 -0.13440434635 0.055688969791 0.031122870743 -0.16100300848 0.084157153964 
0.046269081533 -0.18104858696 0.12327837944 0.056984715164 -0.19174392521 0.16564266384 0.061657194048 -0.19017054141 0.20839472115 
0.061923980713 -0.17758521438 0.2424248457 0.058262586594 -0.15448881686 0.26552733779 0.051246348768 -0.12177526951 0.27416789532 
0.04103467986 -0.084058575332 0.2661318481 0.02808689326 -0.047256108373 0.24325820804 0.013768305071 -0.011716004461 0.21139417589 
-0.00016722257715 0.019472947344 0.17392680049 -0.010885152966 0.039940968156 0.13250745833 -0.018078852445 0.051155928522 0.092751771212 
-0.017385415733 0.047572419047 0.063251085579 -0.013577186503 0.04219058156 0.045364163816 -0.0076734945178 0.037789758295 0.04091020301 
-0.0018935282715 0.0391529724 0.043820947409 0.0021899568383 0.047073755413 0.051317665726 -4.6891182137e-05 0.064553506672 0.071071058512 
0.0039067901671 0.059704419225 0.062918648124 -0.0028349554632 0.07025167346 0.076519042253 -0.014761500992 0.0035118360538 -0.039260715246 
-0.025038318709 0.011240484193 -0.057203542441 -0.043960619718 0.044069256634 -0.082340404391 -0.06596146524 0.091889306903 -0.10007571429 
-0.083798445761 0.14294378459 -0.10230195522 -0.095830075443 0.1862718612 -0.094195492566 -0.10120654106 0.21810720861 -0.080657370389 
-0.09981970489 0.24012158811 -0.06557854265 -0.096695549786 0.25831979513 -0.05619963631 -0.094946168363 0.28165894747 -0.052777085453 
-0.095455691218 0.31086778641 -0.044703591615 -0.10069321096 0.34710592031 0.001461334643 -0.096412286162 0.33405053616 -0.026128262281 
-0.10015244037 0.34042167664 0.038079701364 -0.092783294618 0.31225663424 0.073774218559 -0.081546582282 0.27332484722 0.097586363554 
-0.067039944232 0.23241180182 0.10710305721 -0.051930319518 0.1977224201 0.10945470631 -0.041114713997 0.17432512343 0.10621733963 
-0.031705301255 0.16154477 0.10586890578 -0.01819114387 0.14387944341 0.099713623524 -0.0049852482043 0.12391876429 0.088864684105 
0.0051039848477 0.10535754263 0.076902583241 0.012885118835 0.087687492371 0.066572032869 0.035331640393 0.065730266273 0.064128689468 
0.032119311392 0.066525287926 0.056278020144 0.035210229456 0.06544534862 0.077784627676 0.03237876296 0.061705630273 0.097757406533 
0.028934566304 0.055256348103 0.11962266266 0.020171856508 0.048439331353 0.14198052883 0.019992982969 0.014940500259 0.19078886509 
0.02550322935 -0.022768296301 0.22460891306 0.0327093862 -0.058397702873 0.24741798639 0.035666193813 -0.1603705287 0.18686933815 
0.041119810194 -0.15134857595 0.22492942214 0.025728413835 0.069252096117 0.054736126214 0.017771035433 0.072564579546 0.059030953795 
0.043105728924 -0.12267538905 0.25330969691 0.037876781076 -0.085297718644 0.26102793217 0.030656095594 -0.18370509148 0.14677675068 
0.034076832235 -0.17699830234 0.17331248522 0.028873706236 -0.17997480929 0.12093874812 0.016338372603 -0.15129053593 0.061326954514 
0.026741819456 -0.17332997918 0.097805023193 0.0070463730954 -0.12575736642 0.028363125399 0.0026382494252 -0.10019788146 0.0062605817802 
0.0032535030041 -0.076088272035 -0.006229205057 0.0066138003021 -0.057822667062 -0.0052303159609 0.019440099597 -0.054869674146 0.0084424056113 
0.041875656694 -0.088752523065 0.014248557389 0.054397881031 -0.13333915174 -0.0038118795492 0.061548706144 -0.17862102389 -0.032960183918 
0.063576892018 -0.22014252841 -0.067844435573 0.061483718455 -0.25853163004 -0.10612685233 0.055363293737 -0.29488489032 -0.14798384905 
0.043883569539 -0.32830515504 -0.19526097178 0.028034416959 -0.34967112541 -0.2515732944 0.01081580855 -0.34424251318 -0.30130961537 
-0.0052294805646 -0.31326499581 -0.33519861102 -0.015911564231 -0.26797220111 -0.34572014213 -0.01987211965 -0.21701452136 -0.33627250791 
-0.022275039926 -0.16269154847 -0.31194788218 -0.023047735915 -0.11024872214 -0.27346858382 -0.021655445918 -0.058874819428 -0.21829849482 
-0.022357238457 -0.0340555273 -0.17466974258 -0.017817411572 -0.016581041738 -0.14180521667 -0.016266779974 -0.0042709214613 -0.10433203727 
-0.020031234249 0.0017439615913 -0.07051320374 -0.026816423982 0.0050489706919 -0.045098226517 -0.028407007456 0.0020746134687 -0.031912315637 
-0.033766627312 0.0038088746369 -0.034570030868 -0.02127841115 0.0014714596327 -0.034038294107 -0.0074212145992 0.088273435831 0.086286135018 
-0.015730166808 0.11774976552 0.10083032399 -0.029188927263 0.15974923968 0.11379317939 -0.044598329812 0.20872034132 0.12189233303 
-0.061656065285 0.26228815317 0.11397292465 -0.077096253633 0.30563810468 0.085611492395 -0.087641313672 0.32782289386 0.045663226396 
-0.091286547482 0.32652527094 0.0073443781585 -0.090625829995 0.30858778954 -0.021108800545 -0.090532422066 0.29048809409 -0.033107865602 
-0.093479394913 0.28568142653 -0.040830805898 -0.098080381751 0.28646287322 -0.057363405824 -0.10233880579 0.27983281016 -0.080247104168 
-0.080418780446 0.15463370085 -0.13791558146 -0.0893824175 0.20694690943 -0.13226601481 -0.072461858392 0.097085088491 -0.12994788587 
-0.066437698901 0.050125729293 -0.10650767386 -0.062112867832 0.019065640867 -0.078253395855 -0.058360777795 0.012340540998 -0.052920136601 
-0.053180035204 0.010488736443 -0.042150247842 -0.047544308007 0.0069259195589 -0.043680787086 -0.041320547462 -0.001822653343 -0.051004070789 
-0.035399466753 -0.0089527377859 -0.06042316556 -0.029424672946 -0.012228665873 -0.076404608786 -0.01983160153 -0.016826614738 -0.11764339358 
-0.015151254833 -0.041175093502 -0.17097817361 -0.010411234573 -0.079865351319 -0.22325855494 -0.0032829036936 -0.12788815796 -0.27113860846 
0.0064904685132 -0.18099328876 -0.31252741814 0.018674125895 -0.24735963345 -0.33660486341 0.033257760108 -0.30984389782 -0.33694505692 
0.046257395297 -0.35835596919 -0.30440795422 0.056961849332 -0.37206330895 -0.23081281781 0.057566657662 -0.31610277295 -0.12874896824 
0.050402563065 -0.241081357 -0.05614393577 0.04113984108 -0.16632992029 -0.0072132665664 0.030056528747 -0.10944711417 0.01916314289 
0.011066108942 -0.071720398962 0.019131924957 -0.0024867334869 -0.060273855925 0.013030360453 -0.0070278733037 -0.073522977531 0.010414801538 
-0.0010309063364 -0.10125255585 0.022863162681 0.01251000911 -0.13615165651 0.048220284283 0.028978008777 -0.16615188122 0.085677735507 
0.042686596513 -0.18647322059 0.12742748857 0.051732107997 -0.19656872749 0.1685873121 0.056092873216 -0.19431686401 0.21075850725 
0.056635573506 -0.18098710477 0.24484112859 0.054010044783 -0.15568554401 0.26884239912 0.047624249011 -0.12121805549 0.27798828483 
0.037992462516 -0.082501791418 0.26995751262 0.025098141283 -0.043464682996 0.24615234137 0.011554121971 -0.0093832844868 0.21138434112 
-0.0019210347673 0.021175058559 0.17195247114 -0.010601299815 0.038891982287 0.12987756729 -0.015984486789 0.049681644887 0.092651322484 
-0.014795262367 0.047250315547 0.063645705581 -0.011502760462 0.044049367309 0.046530202031 -0.0063368720002 0.040326636285 0.039711304009 
0.00010497510084 0.040200855583 0.039795227349 0.0060843601823 0.044963032007 0.044912397861 0.0089340992272 0.055252090096 0.054729901254 
0.00087714457186 0.079330071807 0.078097559512 0.0074178171344 0.069997303188 0.067885614932 -0.0045852749608 0.085956901312 0.083606943488 
-0.098039276898 0.24572858214 -0.11637401581 -0.10422770679 0.26083409786 -0.099464841187 0.0019888565876 -0.077642180026 -0.00013140901865 
0.0062015443109 -0.06142584607 0.0029552704655 0.055836826563 -0.14136119187 -0.0023249157239 0.043496709317 -0.10084237903 0.014051906765 
0.062804043293 -0.18422454596 -0.028779732063 0.065592855215 -0.22692416608 -0.061707772315 0.063795685768 -0.26781716943 -0.10065618157 
0.058927349746 -0.30792331696 -0.14228902757 0.050421699882 -0.34781625867 -0.19421450794 0.037216469646 -0.37888148427 -0.26889452338 
0.018052428961 -0.36456573009 -0.32734510303 0.0020748919342 -0.3267160058 -0.35832428932 -0.0095266140997 -0.27490949631 -0.36563053727 
-0.014735463075 -0.21567553282 -0.34978121519 -0.017479293048 -0.156405285 -0.31775537133 -0.018275879323 -0.1069354862 -0.27617028356 
-0.017306126654 -0.067146144807 -0.23138310015 -0.0163601432 -0.025432208553 -0.16586792469 -0.015113836154 -0.036847941577 -0.18774171174 
-0.030091622844 0.0064440444112 -0.051391035318 -0.045806694776 0.034544602036 -0.083866521716 -0.06624007225 0.084830746055 -0.10997419804 
-0.084988377988 0.14389000833 -0.11704412848 -0.097611024976 0.19392381608 -0.10968095064 -0.10463453084 0.23870658875 -0.092937007546 
-0.10288464278 0.25488972664 -0.070641696453 -0.099250122905 0.26766696572 -0.058111544698 -0.095392346382 0.28113937378 -0.049750741571 
-0.093013860285 0.29716259241 -0.045677255839 -0.09306076169 0.31424564123 -0.036921724677 -0.096104748547 0.34595304728 0.00079478597036 
-0.093033567071 0.32392719388 -0.021801352501 -0.098638340831 0.35287895799 0.030016666278 -0.095746010542 0.33972892165 0.065018542111 
-0.086668394506 0.30718797445 0.095770716667 -0.072785638273 0.26482483745 0.11376384646 -0.05643896386 0.22331993282 0.11706820875 
-0.042778361589 0.18706479669 0.11361793429 -0.029405297711 0.1679199934 0.10946561396 -0.016077656299 0.14217789471 0.10152815282 
-0.0050966534764 0.11860776693 0.088809125125 0.0034256039653 0.097473278642 0.078126452863 0.009733621031 0.07903175801 0.068658940494 
0.020302189514 0.0598439686 0.050892680883 0.013827397488 0.06339892745 0.058192037046 0.025582030416 0.060238040984 0.048436257988 
0.02947050333 0.060481432825 0.050572007895 0.030158855021 0.061814814806 0.058835778385 0.027610698715 0.064011834562 0.075328558683 
0.023789148778 0.05937396735 0.10187767446 0.039901975542 -0.19122155011 0.18169809878 0.042946983129 -0.17665365338 0.22135473788 
0.03747048229 -0.1903771162 0.14866004884 0.0095427939668 -0.13242813945 0.038545310497 0.026272794232 -0.16881336272 0.086135752499 
0.001846114872 -0.10142429918 0.011743360199 -0.013770602643 0.11646720767 0.099835008383 -0.028377454728 0.15785565972 0.1152074188 
-0.045436680317 0.20632965863 0.12645918131 -0.064524926245 0.26141804457 0.12097171694 -0.080878376961 0.30771368742 0.094594188035 
-0.091524541378 0.33395069838 0.056439690292 -0.094884559512 0.33905044198 0.016560202464 -0.091730713844 0.29770997167 -0.037527579814 
-0.094493694603 0.28811249137 -0.041868250817 -0.099121086299 0.28473061323 -0.052196078002 -0.10337526351 0.27803635597 -0.068417340517 
-0.07970225811 0.13073578477 -0.13665160537 -0.088881194592 0.17908409238 -0.13596454263 -0.070888794959 0.081282250583 -0.12477744371 
-0.063822768629 0.040230181068 -0.10042338073 -0.058556392789 0.016090238467 -0.070422597229 -0.054401639849 0.010797724128 -0.048017706722 
-0.049341775477 0.0088370451704 -0.039624556899 -0.043213441968 0.0057355500758 -0.041923243552 -0.03630169481 -0.0010237696115 -0.051019143313 
-0.029469992965 -0.0062906523235 -0.064113043249 -0.025283915922 -0.0090023931116 -0.079041056335 -0.018846273422 -0.0096618561074 -0.10244786739 
-0.006553301122 -0.10171815008 -0.25685673952 -0.010554055683 -0.060804527253 -0.21140818298 -0.00046013490646 -0.15031918883 -0.30049878359 
0.0073619326577 -0.20108526945 -0.33556750417 0.016965771094 -0.26229506731 -0.3562579751 0.028790434822 -0.32166701555 -0.3553969264 
0.040359903127 -0.36661028862 -0.33067294955 0.049967881292 -0.38712856174 -0.28464233875 0.054630186409 -0.23501817882 -0.053756557405 
0.057915262878 -0.30226302147 -0.11267189682 0.047965269536 -0.16899655759 -0.013292280026 0.038205582649 -0.11557795107 0.013056161813 
0.020446388051 -0.077622339129 0.018242161721 0.0060539580882 -0.061515603215 0.01535156928 -0.0021776116919 -0.066980086267 0.010252240114 
-0.0020363838412 -0.09142870456 0.01259274222 -0.01351066865 -0.032734185457 -0.16901484132 -0.014781545848 -0.017182033509 -0.14128227532 
0.027874432504 -0.070489808917 0.01730194129 0.014384978451 -0.059875603765 0.011933842674 0.059174925089 -0.35815900564 -0.17756544054 
0.054909583181 -0.38607043028 -0.23468177021 0.038176629692 -0.18689961731 0.12640859187 0.045036867261 -0.1958809495 0.1627393961 
0.049135457724 -0.19410325587 0.20254853368 0.050198346376 -0.17970104516 0.23886068165 0.049300163984 -0.15242955089 0.26603370905 
0.043044101447 -0.11542829126 0.27590075135 0.033658400178 -0.076157681644 0.26711523533 0.021408215165 -0.03648410365 0.24171608686 
0.0090655675158 -0.0034801871516 0.20474210382 -0.0019287305186 0.023116547614 0.16319395602 -0.0082084564492 0.038558922708 0.1216674149 
-0.011068319902 0.046614002436 0.086242094636 -0.009170755744 0.045483678579 0.060404215008 -0.0063247629441 0.04364105314 0.045591641217 
-0.0036607764196 0.041853565723 0.040252644569 0.0019704038277 0.042343020439 0.038100797683 0.009263580665 0.045347157866 0.039758782834 
0.01406296622 0.051722798496 0.047624409199 0.0014801116195 0.090202763677 0.080859184265 0.017654951662 0.013827292249 0.19244357944 
0.014011999592 0.040371097624 0.15108658373 0.022768035531 -0.011660868302 0.21832686663 0.025692636147 -0.028391899541 0.23339872062 
0.028510889038 -0.046579368412 0.24738390744 0.039715651423 -0.10361423343 0.26966458559 0.030286220834 -0.062866993248 0.25866803527 
0.045288905501 -0.14288587868 0.25972011685 -0.059275634587 0.033653788269 -0.091234438121 -0.067038021982 0.067388251424 -0.1151919812 
-0.053577896208 0.014059542678 -0.064082801342 -0.04953167215 0.0085441786796 -0.045389857143 -0.044399697334 0.0063774017617 -0.037260819227 
-0.03839013353 0.0047899121419 -0.038616012782 -0.030988669023 0.0019679593388 -0.049600575119 -0.021583553404 -0.0034489573445 -0.076506897807 
-0.015563259833 -0.011104717851 -0.11945231259 0.01889789477 -0.025689858943 0.23142427206 0.008597292006 0.0043053310364 0.19256548584 
0.00030344526749 0.027345830575 0.14985962212 -0.0029708745424 0.039274007082 0.10971161723 -0.0038356117439 0.04606289044 0.076435029507 
-0.0010280873394 0.045194774866 0.053840752691 0.0012789027533 0.044259987772 0.041344042867 0.011847695336 0.046986375004 0.038592796773 
0.01813785173 0.051925420761 0.042805258185 0.022022318095 0.054015666246 0.043592516333 0.023823712021 0.05546753481 0.047391436994 
0.022381728515 0.058052740991 0.0574901402 0.018746610731 0.059301394969 0.078100524843 0.015619593672 0.053809858859 0.10909121484 
-0.0091311167926 0.1110310778 0.094251349568 -0.025662913918 0.15472188592 0.11234451085 -0.044090941548 0.20422080159 0.12608385086 
-0.065583512187 0.26245716214 0.12256321311 -0.082277998328 0.30829653144 0.098432742059 -0.091719433665 0.33424338698 0.067333415151 
-0.095616802573 0.34641185403 0.034571934491 -0.042746189982 0.19927313924 0.11986003816 -0.028521789238 0.16867543757 0.11254370958 
-0.014904228039 0.13552065194 0.10217168182 -0.0052911737002 0.11114065349 0.089354351163 -0.094491153955 0.34455400705 0.057122454047 
-0.089203871787 0.32704505324 0.084856726229 -0.077115915716 0.29103791714 0.10993579775 -0.0592154935 0.24210065603 0.12293615937 
0.01733683981 0.050329357386 0.042433656752 0.016101313755 0.051449593157 0.047043114901 0.013210887089 0.053661163896 0.060555666685 
0.010455464944 0.051932837814 0.08578774333 0.0090154409409 0.044777467847 0.12055782229 0.011379667558 0.028302740306 0.16312867403 
0.01817015186 0.0013825189089 0.20361073315 0.018011217937 -0.01151346229 0.21797113121 -0.092347323895 0.29979008436 -0.039983745664 
-0.093741297722 0.29044505954 -0.043545905501 -0.097299441695 0.28246092796 -0.050171792507 -0.10115399957 0.27446252108 -0.060881890357 
-0.096796773374 0.21500842273 -0.12581184506 -0.10226402432 0.23199434578 -0.11135840416 -0.037533566356 0.0037699437235 -0.044973053038 
-0.049454998225 0.028079438955 -0.083595082164 -0.067857705057 0.081766679883 -0.11684044451 -0.084373138845 0.14571413398 -0.12616425753 
-0.095728836954 0.1934671551 -0.12118761986 -0.076274231076 0.10783871263 -0.13071806729 -0.10331142694 0.2653478384 -0.071667410433 
-0.013222210109 -0.055555079132 -0.20993022621 -0.010579610243 -0.085138753057 -0.2465685904 -0.0070459898561 -0.12656117976 -0.28900286555 
-0.000856652332 -0.17522706091 -0.32750082016 0.0059995432384 -0.22030301392 -0.35303300619 0.013957314193 -0.27354034781 -0.36861005425 
0.023679316044 -0.32726207376 -0.36702874303 0.033801067621 -0.36750641465 -0.34634783864 0.042052291334 -0.38889753819 -0.31179454923 
0.04638004303 -0.39343756437 -0.27370482683 0.056918818504 -0.36908099055 -0.19306577742 0.05099343881 -0.38089957833 -0.22778220475 
0.059575289488 -0.3366368711 -0.14722952247 0.059601377696 -0.2869951129 -0.10010095686 0.058876089752 -0.23026813567 -0.053761020303 
0.054138302803 -0.17533829808 -0.019997376949 0.045960988849 -0.12352946401 0.0081194834784 0.028623059392 -0.081791944802 0.018746538088 
0.014083469287 -0.063419319689 0.016352433711 0.0048135328107 -0.061613216996 0.010786477476 0.00060324685182 -0.074983492494 0.005517996382 
0.019691292197 -0.066354691982 0.016747651622 0.031345240772 -0.080588191748 0.0184255559 0.045213609934 -0.11175969988 0.011680507101 
0.05637281388 -0.14852128923 -0.0025085501838 0.062236443162 -0.18772040308 -0.027706911787 0.065638355911 -0.23014177382 -0.056779168546 
0.064358308911 -0.27283471823 -0.094809502363 0.060908030719 -0.31420361996 -0.13469791412 0.023119524121 -0.36864984035 -0.3452770412 
0.035478089005 -0.38754957914 -0.30810931325 0.01081692148 -0.33133018017 -0.36966276169 0.00029598851688 -0.27801701427 -0.37382882833 
-0.0053680008277 -0.21168634295 -0.35297903419 -0.011531866156 -0.14673094451 -0.31199410558 -0.013522410765 -0.10292435437 -0.26989617944 
-0.014727098867 -0.073408104479 -0.23782627285 -0.040201053023 0.0036564564798 -0.036829415709 0.0037704952992 -0.23646505177 -0.36343917251 
0.0095760636032 -0.28158521652 -0.37488368154 0.018175056204 -0.330147475 -0.37164151669 0.02755644545 -0.36618840694 -0.35202878714 
0.034970358014 -0.38347262144 -0.32605755329 0.06293862313 -0.23083803058 -0.055968213826 0.062496997416 -0.27725851536 -0.093774206936 
0.059538137168 -0.18670679629 -0.026899667457 0.054989926517 -0.15338937938 -0.0060272295959 -0.090234942734 0.33200708032 0.075208209455 
-0.083343729377 0.31221911311 0.097166635096 -0.023226674646 0.15287931263 0.11005634815 -0.043394997716 0.20518617332 0.12467022985 
-0.012157545425 0.12386219203 0.099211201072 0.0092077041045 0.016201337799 0.17772769928 0.0038347654045 0.035475704819 0.1347900629 
0.0032396211755 0.044419638813 0.096794746816 0.0046241795644 0.048489205539 0.066990219057 0.0078462641686 0.0480732508 0.047830250114 
0.056292470545 -0.35217103362 -0.17809991539 0.058361038566 -0.34852734208 -0.16609980166 0.060515921563 -0.31953150034 -0.13343718648 
-0.093281082809 0.18906679749 -0.12850219011 -0.08590260148 0.15527953207 -0.13339944184 -0.06216776371 0.057518702 -0.10551556945 
-0.054334700108 0.029018284753 -0.084780961275 -0.047618489712 0.011233787052 -0.058807510883 -0.045228809118 0.0071908868849 -0.044909290969 
-0.068395465612 0.27100178599 0.11939226091 0.034408010542 -0.18465183675 0.12517683208 -0.10508471727 0.26382318139 -0.083823241293 

