# vtk DataFile Version 5.1
vtk output
ASCII
DATASET POLYDATA
POINTS 1114 double
77.883888245 63.633712769 45.870170593 76.773333956 63.759042593 46.914537704 76.65212859 64.925041763 46.544442598 
77.750616978 64.853534064 45.520242658 76.052685314 63.742539141 48.241610567 75.810015367 64.991351171 47.801084573 
75.645244427 63.810728703 49.69871468 75.341683762 65.173899728 49.25141003 75.554734073 63.972231077 51.204890887 
75.231742779 65.431409692 50.880525284 75.706403021 64.097291744 52.717641114 75.485983432 65.513694014 52.587317628 
75.937207929 64.015878561 54.227555696 75.712302452 65.432651943 54.206497634 76.507160437 63.921378574 55.643157781 
76.145280917 65.379340445 55.706058979 77.041176383 63.9893319 57.069868407 76.705912183 65.392521195 57.187980011 
77.687672929 64.077753906 58.441439573 77.367284422 65.42255396 58.615012059 78.537834663 64.115911402 59.709814494 
78.248686271 65.474482877 59.914146521 79.524997629 64.209041705 60.864075682 79.318322358 65.553100232 61.055360895 
80.773618795 64.217482177 61.729630471 80.594578142 65.628149907 61.952220788 82.194266183 64.296340511 62.290326254 
82.012955141 65.720117846 62.623539679 83.653443003 64.357193878 62.714732344 83.532643835 65.819816915 63.000326814 
85.172110587 64.424088021 62.851153267 85.093141173 65.862822575 63.165600804 86.70059268 64.422940754 62.904962665 
86.656871273 65.867144347 63.157350616 88.211586248 64.415493907 62.757999455 88.193521347 65.851372633 63.013348193 
89.689888952 64.461040356 62.375866788 89.672089876 65.894598653 62.610206704 91.168900575 64.551039963 62.005494507 
91.109015759 65.960460809 62.073582645 92.647833129 64.648399989 61.675763489 92.519402883 65.981814457 61.547005488 
93.883115126 64.710640095 60.775793704 93.786653043 66.021718042 60.681104249 94.978504605 64.635316943 59.71793585 
94.949959109 66.034413065 59.667254115 95.836845387 64.56474155 58.477284646 95.917327042 66.040072778 58.480653399 
96.426778912 64.53703061 57.073815221 96.661894883 66.072471309 56.999695286 96.770356718 64.521312615 55.588570604 
96.982414397 65.85616885 55.398109559 96.496693872 64.095107748 54.145241427 96.732822345 65.560132277 53.906334131 
96.110096576 63.780277154 52.701914084 96.232427276 65.276762206 52.462420262 95.549691724 63.539747892 51.306576541 
95.609595645 65.033892715 51.08194464 94.839226187 63.344262843 49.966942103 94.900930259 64.829148722 49.754906524 
94.05979962 63.177045951 48.661964402 94.107462054 64.661523374 48.476557592 93.143121763 63.095765823 47.440147598 
93.197399297 64.54305482 47.2865555 92.012151216 62.974508533 46.431543568 92.101996849 64.456663967 46.256464261 
90.744721026 62.917566069 45.590515886 90.882290181 64.419059012 45.362068548 89.38377626 62.946203916 44.898867815 
89.520126742 64.452150618 44.684751151 87.94505292 62.988807811 44.381179575 88.097427226 64.520031886 44.123551683 
86.466563396 63.125891989 44.015371083 86.585970722 64.652934878 43.775711201 84.955811085 63.193054034 43.800198767 
85.022238181 64.792976535 43.621483729 83.433736043 63.293541137 43.753079774 83.441753264 64.896633486 43.557304403 
81.925030236 63.429659877 43.917356593 81.876662934 64.91406318 43.733751396 80.452650087 63.504456898 44.298166224 
80.364026307 64.871654069 44.088578666 79.066386115 63.503596276 44.908656401 78.945554258 64.80846025 44.621823514 
78.394554138 88.998214722 37.739414215 79.94793385 88.9803362 37.552772427 79.93683386 87.391216754 37.798728005 
78.378033372 87.376742982 37.890331196 81.499705556 88.957122121 37.472893773 81.492521525 87.399654179 37.770712126 
83.046802354 88.918396133 37.703404341 83.048531069 87.398229795 37.930358527 84.598482841 88.887464742 37.899217477 
84.596005959 87.386212122 38.12625265 86.154197192 88.863392968 38.064495226 86.132935466 87.367841789 38.374761404 
87.659142973 88.889521145 38.487304216 87.628010689 87.397589971 38.824282009 89.13084009 88.953344403 39.002014441 
89.089795361 87.456083435 39.359328831 90.553534205 89.073357615 39.642078197 90.501835643 87.543835453 40.00322593 
91.847936713 89.200396762 40.505951903 91.807970315 87.65833603 40.831342758 92.993838164 89.314410758 41.539355885 
93.053864495 87.779943534 41.731569364 93.94075645 89.406624836 42.78152562 94.153901548 87.891229022 42.809156594 
94.911466589 89.538733994 44.001449174 95.282776231 88.055291617 43.877682446 95.882878038 89.670725915 45.220903809 
96.312516412 88.199727671 45.051558738 96.827620898 89.79258893 46.457099595 97.236830064 88.301940299 46.333710537 
97.433851849 89.819700779 47.89928277 97.881067093 88.279785779 47.801202189 97.97745738 89.844231133 49.365391634 
98.476685562 88.304725145 49.318527316 98.43575501 89.880436479 50.856251488 98.972268442 88.45833592 50.849345196 
98.640201475 89.983774837 52.404045452 99.249977984 88.641826222 52.421109067 98.50148612 90.036561189 53.942683816 
99.151258461 88.738212344 54.017414316 98.143919913 90.062885822 55.460298182 98.719484761 88.748709464 55.525721439 
97.497419331 90.079046687 56.885050494 97.981148515 88.697403745 56.925272763 96.705091192 90.087544397 58.228603793 
97.137576864 88.64275814 58.264733832 95.8219156 90.096302196 59.519602595 96.194393462 88.484748734 59.572367159 
94.867565778 90.131937054 60.758993535 95.08258554 88.088521917 61.115981215 93.844097239 90.154501761 61.94015879 
93.893906617 88.695222605 62.251838644 92.769338267 90.167209308 63.074295007 92.888601427 88.738698322 63.275638183 
91.432639641 90.1261911 63.886512722 91.654858393 88.650289832 64.137114015 90.023403954 90.103145525 64.527880445 
90.307700848 88.631019159 64.891226357 88.509215585 90.10610426 64.922048122 88.851918683 88.66516433 65.516052982 
87.004487728 90.097138083 65.350343373 87.318964723 88.66168273 66.011006947 85.495272886 90.084592833 65.752417426 
85.731497985 88.654466435 66.416140644 83.940568464 90.072104894 65.928148866 84.103053848 88.663609394 66.703120512 
82.3812759 90.087486744 66.009991594 82.372202926 88.648919703 66.798416993 80.817298624 90.131324969 65.995969501 
80.681676978 88.826932573 66.64816197 79.473562931 90.09424758 65.259278453 79.308635127 88.728552117 65.780009492 
78.18652372 90.049858013 64.373636125 78.028483036 88.646492346 64.79800104 76.994954399 90.037799779 63.359653641 
76.820470602 88.564941335 63.754470631 75.789318922 89.983838333 62.364759111 75.653542344 88.465148217 62.687151724 
74.572542007 89.896257411 61.385008004 74.509136634 88.352708412 61.609631965 73.398589531 89.806672181 60.354496773 
73.371378301 88.257345178 60.526881456 72.344136051 89.673558394 59.224268978 72.361762278 88.121854922 59.357260888 
71.477897921 89.471885515 57.936983897 71.493700138 87.954851419 58.065800372 70.797122026 89.232386503 56.554993075 
70.787599554 87.765016239 56.678593243 70.192267869 88.999583484 55.133968582 70.128973528 87.636080135 55.247022388 
69.656665451 89.160854386 53.672713959 69.492980726 87.66014655 53.790483079 69.165587257 89.254693077 52.195101872 
68.898422237 87.709963769 52.31299437 68.771733841 89.201284246 50.681771005 68.477579838 87.714017506 50.790849702 
68.749895201 89.160779409 49.154829971 68.445310657 87.669826647 49.194139672 69.034997634 89.130921371 47.61665949 
68.701656235 87.63491525 47.62403707 69.549654092 89.075712353 46.145090127 69.241821252 87.573167709 46.116061538 
70.140680504 89.014648987 44.701212275 69.861736726 87.54070961 44.636691579 71.154967877 88.967733225 43.510765568 
70.830814017 87.479851127 43.380977572 72.171076557 88.934675772 42.3216402 71.839202013 87.448092684 42.149694099 
73.192309079 88.940605587 41.136232127 72.9343738 87.427924113 41.001319396 74.348433058 88.955000908 40.102087804 
74.142619329 87.407062119 39.976963694 75.641778882 88.978007986 39.221820469 75.428599233 87.387066255 39.051954562 
77.004904788 88.990172068 38.458408879 76.887398468 87.361799803 38.407924834 75.435751065 66.176655084 47.174325003 
76.378247219 66.108200983 46.024850702 74.796539096 66.439424871 48.622525469 74.496100352 67.030426398 50.478796313 
74.834863751 66.873000871 52.608130079 75.178929201 66.788333766 54.309327107 75.680880093 66.767824715 55.876226186 
76.260581904 66.769309041 57.379412864 76.95859206 66.783492926 58.841803949 77.82884098 66.81603248 60.224537764 
78.964610244 66.906118733 61.405251763 80.299423519 67.021144998 62.337570685 81.788863205 67.1740038 63.025382947 
83.371427564 67.280587318 63.50414152 85.014550649 67.278624395 63.719126144 86.656056158 67.234205058 63.745627814 
88.267311957 67.181497069 63.624377493 89.81424376 67.192784631 63.252377052 91.297046624 67.248252802 62.699333398 
92.717756345 67.308514498 62.022949403 94.043221235 67.372873763 61.149758492 95.28480745 67.405442887 60.15441689 
96.505741609 67.452957121 58.96254627 97.597929161 67.787367179 57.099703138 97.512645137 67.318294588 55.093676348 
97.089673855 66.992209272 53.520406129 96.522870586 66.711644826 52.101546479 95.855943586 66.462921243 50.738915184 
95.106577456 66.257922193 49.438555522 94.27731293 66.098206851 48.197676584 93.376835437 65.968472583 47.011593387 
92.276058001 65.903225809 45.99349026 91.058029994 65.886351163 45.101157836 89.725342389 65.925668953 44.360804726 
88.294103062 66.015951659 43.770945973 86.74854785 66.175790701 43.406507992 85.145536447 66.36343167 43.272796003 
83.421856813 66.508983667 43.206299504 81.774299431 66.429529909 43.502797961 80.159727312 66.257237329 43.8879456 
78.746305353 66.08177523 44.285866037 77.467798401 66.010564012 45.004260125 81.515993739 85.844428145 37.70624468 
79.920270411 85.805918985 37.672731253 83.088052212 85.861916271 37.884098556 84.62812864 85.857598473 38.195814745 
86.139215284 85.85563672 38.603221693 87.6365168 85.877201766 39.067792176 89.104144648 85.921661132 39.604848736 
90.537381907 85.997525546 40.227489592 91.880918596 86.109424609 41.010012136 93.233684154 86.252055856 41.786757038 
94.572393805 86.449171831 42.585506185 95.808105064 86.653463785 43.573102996 96.980619549 86.867373584 44.684480931 
97.947674292 86.964263695 45.997173035 98.685829264 86.939260494 47.501790326 99.358246628 86.91008728 49.145472243 
99.848509844 87.153771838 50.831659979 100.03160497 87.334635527 52.482999138 99.859767408 87.420576522 54.138265533 
99.384707381 87.427246761 55.661169324 98.660587043 87.393056686 57.069536908 97.822425397 87.32636264 58.373216601 
96.862067167 87.006307422 59.491401258 95.948393216 86.406182044 60.687286244 93.11303403 87.390516799 63.515926839 
93.826919626 87.608292224 62.683732191 92.013163231 87.225945116 64.460617783 90.742442008 87.209621406 65.450245821 
89.301253025 87.304213837 66.25728391 87.753992846 87.42285629 66.935545804 86.146969313 87.478362709 67.422712858 
84.418780719 87.453601974 67.815019241 82.302858015 87.206428858 68.152408453 80.278666102 87.531278757 67.442062104 
78.852450645 87.473600776 66.471423183 77.587739484 87.370664964 65.461877688 76.410344963 87.210318312 64.358843837 
75.240614702 87.091067854 63.266879341 74.146894236 86.937023137 62.108912281 73.022947388 86.827531801 60.980192024 
72.046850611 86.666937886 59.734504362 71.21146411 86.482946922 58.387644753 70.557716602 86.300190625 56.92526383 
69.955919581 86.174818498 55.424600876 69.246458027 86.152728128 53.957015258 68.600099355 86.164402559 52.444615072 
68.015835773 86.210897837 50.933853766 67.889808732 86.190874927 49.213630402 68.176262582 86.146985755 47.591614085 
68.787018707 86.076025353 46.035998503 69.508013155 86.03161325 44.546145451 70.445350322 85.980046462 43.216799746 
71.433442515 85.958032348 41.921446731 72.526217166 85.932382899 40.719216251 73.803246213 85.86248424 39.682942288 
75.16979675 85.791867846 38.778837908 76.721056567 85.715295783 38.176715941 78.314758651 85.764435549 37.736559959 
94.495517972 86.755767535 62.288546761 95.257097105 85.487468809 61.88795745 74.250054459 68.23276426 52.947425432 
73.88058536 68.461357559 51.313574624 74.653224425 68.160835668 54.546813104 75.15677853 68.139734641 56.098016228 
75.826813426 68.163231093 57.580886347 76.6092314 68.207005103 59.017580022 77.488141337 68.251111371 60.4206575 
78.603320487 68.325333558 61.680803625 79.911991293 68.447141833 62.701200782 81.432075204 68.629463255 63.484817789 
83.167072634 68.793356328 64.140764279 84.999372392 68.687031905 64.431579947 86.706131314 68.585792718 64.470682963 
88.39245531 68.493441685 64.350597941 90.005583579 68.466525999 64.011583373 91.548132993 68.499654263 63.457136774 
93.027306131 68.53309537 62.776949386 94.430682051 68.57678445 61.929777671 95.740428094 68.645091455 60.934423351 
96.987276579 68.791485719 59.877310734 98.033375707 69.356070496 58.4907846 97.465211776 68.412070258 53.016867171 
97.966471469 68.798882693 54.439062683 96.84844123 68.104138055 51.636998052 96.142551061 67.853681428 50.323411205 
95.351155271 67.656203769 49.072621536 94.509204683 67.499055217 47.859551035 93.59192908 67.377890908 46.698468697 
92.530132263 67.311928665 45.649306924 91.330923322 67.309205721 44.733843093 90.009638465 67.365507352 43.95809402 
88.579518325 67.4749349 43.333706613 87.06112104 67.631491059 42.87989216 85.39436827 67.870097999 42.566077341 
83.338434179 68.244476837 42.184679214 81.33780429 67.808354084 42.635790752 79.669992607 67.330103812 42.951958227 
78.21628546 67.048388056 43.45165452 76.939725712 66.92856516 44.197140545 75.914631262 67.144184435 45.261244242 
74.993246752 67.326374243 46.425356185 98.413044475 69.38652702 55.934948984 98.815274455 70.341108016 57.251206012 
93.650170104 86.07885945 63.428166407 94.360468674 84.58307051 63.089155897 92.552414414 85.649984321 64.713288003 
91.215823886 85.700592579 65.986291684 89.779187797 85.863777348 67.004243017 88.235167042 86.106051692 67.842170432 
86.633567717 86.255881891 68.395788938 85.03774367 86.264017453 68.834365777 83.497606519 85.949610879 69.307139486 
78.235930518 86.293254561 67.23207131 79.544509675 86.283835958 68.179435676 76.965530114 86.19986943 66.225497741 
75.743470213 86.087639121 65.167858501 74.685641004 85.819999627 63.960384519 73.634946211 85.602570518 62.736821162 
72.583652478 85.429810296 61.509250168 71.667716145 85.21539565 60.168777103 70.921636346 84.977157253 58.742892487 
70.455171929 84.749398511 57.14445741 69.915425468 84.632365487 55.558856831 69.210269299 84.592157097 54.037081776 
68.461301176 84.576355358 52.530750494 67.694045646 84.564347339 51.056783112 67.540696055 84.541658324 49.255538028 
67.802157492 84.518942829 47.5778403 68.440391483 84.506807845 45.981853901 69.164594187 84.481752991 44.45893977 
70.035658801 84.457570094 43.048410234 71.043097469 84.435467536 41.729379672 72.146383574 84.396185644 40.490774343 
73.449605446 84.290417541 39.411014867 74.838678525 84.172961517 38.445756819 76.536976714 84.019021921 37.797257495 
78.312895785 84.148416077 37.394645252 79.958061323 84.247621969 37.377733983 81.589515827 84.315651828 37.482495933 
83.175625996 84.341088719 37.732684965 84.721873204 84.337462241 38.083030397 86.23490258 84.323425711 38.541992256 
87.747055634 84.333212357 39.026028346 89.241310359 84.36760221 39.557447841 90.711304216 84.432299696 40.18038788 
92.181866871 84.565922777 40.814535025 93.624044582 84.752357213 41.516709144 95.046019019 85.006210682 42.253576822 
96.386197698 85.261260131 43.191480007 97.648296235 85.518969914 44.261159208 98.655266234 85.631790172 45.561324188 
99.50427343 85.561655523 47.102556441 100.38232508 85.194613549 48.972765671 100.74275098 85.745085388 50.950236902 
100.70417646 85.935787956 52.704009177 100.5243592 86.038926935 54.347517116 100.06947971 86.077848107 55.881679372 
99.297966259 86.058004537 57.262657125 98.494119892 86.056521721 58.502155468 97.54810832 85.795748057 59.411299041 
96.812519679 85.127246227 60.330109573 96.101253214 84.219878538 61.292428803 95.215658435 83.20596096 62.304135156 
93.05308467 83.543861109 64.664652549 94.261953981 82.047953385 63.375333046 81.004987503 85.934784403 69.059924223 
82.236280418 85.057511557 69.754165361 98.964660534 70.662662792 55.004631411 99.441744759 71.392545605 56.218149066 
98.531233033 70.109678147 53.670350214 97.935914431 69.74962189 52.366212152 97.291961929 69.416250147 51.064914969 
96.554745801 69.16400904 49.803445697 95.744311984 68.97313668 48.59919195 94.838399525 68.847311301 47.448691114 
93.894425148 68.744354376 46.320394568 92.84401309 68.697148471 45.275066732 91.649066309 68.724207635 44.365437631 
90.385366275 68.773444441 43.502342896 88.98611052 68.888900689 42.815653142 87.506761804 69.013591564 42.236413855 
86.025460422 69.17363413 41.693335339 84.531202617 69.452345723 41.042396478 78.965301536 67.981486975 41.779871062 
80.502321398 68.60947661 41.345649156 77.476640914 67.507952375 42.318979036 76.179566558 67.546560833 43.169611518 
75.143081207 67.896904367 44.291611352 74.276881831 68.226102227 45.496507802 73.865522002 69.602283976 53.244027425 
73.468017844 69.718285095 51.790743549 74.301783895 69.573685833 54.737571015 74.81139907 69.583528902 56.25136618 
75.487036817 69.625231138 57.704766736 76.321119596 69.675094789 59.099449835 77.254756797 69.720656081 60.457447418 
78.283771509 69.78293074 61.733309181 79.503541496 69.912599889 62.896531973 80.944947154 70.156040299 63.89536731 
82.872066308 70.569362146 65.001302024 85.102010086 70.130768171 65.271879268 86.922281177 69.928449784 65.281271842 
88.614107307 69.807516698 65.144955162 90.249158735 69.7724744 64.782678449 91.821442557 69.798965331 64.219613369 
93.322978128 69.830425952 63.521139954 94.764608196 69.868885095 62.703781922 96.047924227 69.957458445 61.718553422 
97.239549654 70.171912424 60.637066714 98.301204876 70.696282237 59.456591199 99.044237791 71.459718737 58.302618732 
99.757398248 72.327015546 57.293532513 100.20891115 72.252392518 55.331734231 100.47469628 73.136082358 56.339771581 
99.798990495 71.666164864 54.135453732 73.425088974 68.979560721 49.971576806 73.108527926 69.950738121 50.541017185 
72.90531685 69.587461711 49.046962174 72.7473162 70.079749643 49.737471209 82.072429481 69.104862292 40.783329564 
83.326558174 69.966814466 40.11231901 91.431353081 83.917911664 66.402248272 89.974871456 84.271684854 67.61000376 
88.53443908 84.635421631 68.573039375 87.0230716 84.943133377 69.189107432 85.505898346 85.033701848 69.591977448 
84.224598047 84.808674742 69.836992749 83.212013645 84.067552564 70.241680841 81.250589458 83.983073284 70.084540867 
82.299937869 83.07542044 70.439381534 80.058616649 84.767424443 69.612062026 78.818661949 85.087865591 68.834782155 
77.544899918 85.154187192 68.001655177 76.334133224 85.000523203 66.989892111 75.117226847 84.839325496 65.920000989 
74.095343847 84.543637904 64.685145257 73.080685918 84.279242523 63.410794218 72.063004495 84.052830923 62.118593378 
71.315540142 83.717551738 60.617688746 70.740473137 83.394634551 59.047094979 70.342123616 83.133181741 57.375708622 
69.914404016 83.043259026 55.688358036 69.244700954 83.010004857 54.09455393 68.503002475 82.980483723 52.541328955 
67.712866401 82.947100205 51.058958435 67.513703251 82.929428249 49.277193857 67.613282303 82.913827278 47.56784833 
68.199195891 82.902484172 45.934393423 68.867961719 82.895956062 44.380600108 69.671420167 82.900401649 42.918217572 
70.602912541 82.905133599 41.531375541 71.684501231 82.868397893 40.253810771 72.948464045 82.731310369 39.146751066 
74.374614994 82.514986217 38.075876368 76.338082206 81.979941997 37.0687633 78.478539559 82.472109983 36.90036939 
80.170025933 82.736798371 36.88937412 81.772988985 82.832267855 37.089548008 83.339758458 82.853513373 37.41988745 
84.874001936 82.83437709 37.826524616 86.401503419 82.811235472 38.265904221 87.92267997 82.801217206 38.761941266 
89.455258299 82.821793448 39.291418584 90.989748952 82.874221447 39.885626043 92.563674316 83.027326926 40.42362873 
94.096978197 83.2769652 41.071373723 95.588760449 83.576211104 41.802211273 96.985135646 83.855312449 42.734484228 
98.318311807 84.15324856 43.792483565 99.227317481 84.225165728 45.149233226 100.07633345 84.196764992 46.521587941 
100.71641807 83.794490504 47.804300436 101.34874761 84.527748614 53.015148211 101.52016628 84.310454872 51.459763476 
101.052634 84.564459123 54.618226506 100.55633734 84.577128602 56.155174659 99.729256986 84.653087543 57.56908887 
98.865946376 84.812778516 58.703286491 98.063345407 84.929886494 59.377176649 97.67322265 84.131037865 59.89243754 
97.024444608 83.112346585 60.583661296 96.190600807 82.007137836 61.431405084 95.259836264 80.858586355 62.30306188 
93.45012372 80.589805567 64.261807366 94.373659516 79.602925112 63.127287884 92.425475018 81.546568604 65.552800424 
91.207657416 82.106197538 67.010606661 89.895715478 82.532777092 68.159459919 88.465727422 83.001627596 69.082271111 
87.028332636 83.467183907 69.726890958 85.669044846 83.791359574 70.077239225 97.313973098 80.933569769 60.620110145 
98.269002716 82.172955564 59.852047453 96.338597833 79.770175889 61.434277667 95.390339739 78.555492578 62.199946191 
93.544464147 78.262076335 63.766855737 94.430059014 77.284615317 62.772772145 92.709919434 79.120986513 64.952522612 
91.851548389 79.858053323 66.242976485 90.776212374 80.382771208 67.535342892 89.626597192 80.797168269 68.781611982 
88.135020772 81.383630427 69.590142623 86.726908764 81.987393854 70.187229844 85.292637751 82.580532613 70.399021217 
101.41302186 83.697338123 49.913703495 101.36630121 82.78278695 48.635042997 99.34092008 71.156469251 52.868874508 
98.697637794 70.833147733 51.605107268 97.98312897 70.543347781 50.361862409 97.181174945 70.317472344 49.164443613 
96.289126782 70.172536545 48.027124514 95.345189132 70.078709618 46.916932463 94.321475833 70.043926866 45.855344729 
93.24979752 70.037504583 44.827778987 92.093897481 70.066040997 43.854272068 90.850681164 70.135095571 42.950704451 
89.482977216 70.252591134 42.19289279 88.055431956 70.347138741 41.541179635 86.658637833 70.444034072 40.909233493 
85.360942112 70.570430986 40.254382334 84.306740577 70.868292113 39.521539017 82.421130633 70.589504671 39.062793208 
83.559442123 71.507954747 38.683805205 81.147887448 69.71146977 39.524867534 79.728453876 68.995340284 39.963994178 
78.183634005 68.592211796 40.559454398 76.638205411 68.211426957 41.220519389 75.365685638 68.37258788 42.178100279 
74.262009514 68.707629509 43.316103123 73.377129108 69.076470667 44.602533131 73.574221204 68.514296704 46.761334136 
72.696171937 69.3963721 45.97277001 73.198982342 69.027413082 48.013487426 72.308370976 69.827549367 47.299277303 
72.158182272 70.326174295 48.520056005 72.171620922 70.724559933 49.632138995 72.537276996 70.894046737 50.738147306 
73.00774125 70.937040452 52.025312016 73.436314265 70.940168639 53.418728772 73.925113772 70.972481186 54.874497022 
74.475431181 71.027055638 56.339845576 75.140836669 71.091589187 57.783561912 75.98530215 71.14019557 59.149968779 
76.900687348 71.156757799 60.501289597 77.857543765 71.195457469 61.82864988 78.872453791 71.279046249 63.092705581 
80.055279334 71.538029957 64.235741324 81.31574466 71.939265794 65.434725496 87.237590783 71.288099664 66.051388617 
85.584278566 71.496326691 66.161520702 88.904524949 71.20802355 65.82689347 90.497868966 71.22742085 65.378926499 
92.034464948 71.241847895 64.778448009 93.512562035 71.271873702 64.043395595 94.937883129 71.329240055 63.227670931 
96.129360588 71.385580378 62.220062354 97.225273727 71.578130526 61.187589253 98.150740343 72.095016989 60.132921064 
98.896181058 72.796882215 59.049748901 99.770710885 73.545663094 58.131430126 100.57901877 74.275963599 57.162475103 
101.20907778 73.786802126 55.511794894 101.30882505 74.864568577 56.124016079 100.95843899 73.149231455 54.522793366 
100.67766355 72.605157513 53.351091793 83.875495512 71.941000738 66.254041715 82.35877299 72.692469826 66.61498081 
83.401147416 82.148859589 70.691302645 84.13035887 83.181037641 70.422766243 81.395028819 82.015423204 70.568116164 
82.48219165 81.018588219 70.710629069 80.402585081 82.932596465 70.27443536 79.465633779 83.594102203 69.755433936 
78.340450471 83.81199764 69.245612113 76.991163995 83.890885638 68.668402866 75.83110257 83.706027962 67.714935022 
74.611350885 83.504625237 66.653626283 73.596036084 83.195151286 65.401582615 72.579685144 82.910239881 64.094558085 
71.661347267 82.590916045 62.689426174 70.965651878 82.196105029 61.085026279 70.577821648 81.775046081 59.419840599 
70.374726496 81.430163333 57.590425881 69.993118713 81.423240262 55.734569237 69.335931351 81.426606516 54.113381142 
68.562570544 81.384617512 52.545440366 67.750065244 81.318572399 51.056225076 67.628025405 81.292124715 49.265133096 
67.595998814 81.273577896 47.509831749 68.091300309 81.264670601 45.899207187 68.589744478 81.290493388 44.292731728 
69.314992243 81.31169168 42.805504489 70.149978994 81.350012637 41.366664084 71.146894762 81.350228405 40.055666051 
72.306236583 81.250004289 38.851389063 73.517482823 80.990459711 37.739065272 74.957641308 80.359477258 36.81921744 
80.550832802 81.238091229 36.447510712 79.002542125 80.938579254 36.329676515 82.038058526 81.354134938 36.769709305 
83.549554883 81.381276277 37.112390254 85.047845716 81.340796682 37.527679265 86.54358707 81.275949514 38.008427955 
88.074884879 81.249424501 38.494953119 89.654113178 81.262101179 38.97079209 91.245117165 81.328505045 39.448553252 
92.954141213 81.463830399 39.943497566 94.637721847 81.793004778 40.596756999 96.118994706 82.093809196 41.41399387 
97.520233679 82.353746678 42.424397361 98.795212096 82.61873163 43.495907115 99.713162142 82.787670293 44.89050498 
100.46273808 82.920629177 46.153762298 100.81681454 82.916276207 47.154088292 101.21546147 82.014771081 47.521562563 
101.9320825 81.55505933 49.350171018 101.62292686 80.733663315 48.064243471 102.04166088 82.396846216 50.605473719 
102.02900229 83.01052837 51.895407082 101.86354072 83.122503944 53.275866863 101.53146476 83.121554404 54.812549411 
100.85288767 83.056273489 56.39701654 99.856735148 83.119866063 57.953115728 98.761459055 83.559149913 59.217997314 
77.49578858 80.284141607 36.139399512 76.183601358 79.234634416 36.110659827 84.634272954 81.319002517 70.622614013 
83.727959005 80.094436351 70.751758358 81.397346373 79.949273818 70.685377999 82.624599166 78.952230717 70.647955768 
80.368428927 81.062892985 70.597474719 79.548208772 82.051839558 70.278258912 79.015499951 82.787885784 69.97563265 
78.081531836 82.670095512 69.736127727 76.810966194 82.491998925 69.225258128 75.686767452 82.219108085 68.282419762 
74.497355017 81.920421334 67.224616262 73.449346089 81.621598888 65.978600871 72.41748565 81.325450891 64.637827231 
71.660612408 80.998840759 63.135511407 71.016461328 80.56783549 61.557038654 70.665654583 80.068358016 59.858168366 
70.503407289 79.368346076 57.777870302 70.065923521 79.775418132 55.685636386 69.524882674 79.873492202 53.983137004 
68.706667938 79.810480766 52.46093168 67.877027439 79.674740955 50.914192614 67.655468673 79.634158621 49.220393264 
67.599361145 79.619154329 47.487214506 67.958176713 79.611576786 45.857248795 68.394929243 79.634790961 44.24631894 
68.980549315 79.682816048 42.711837105 69.723597616 79.764519947 41.244692597 70.600492424 79.828596509 39.887950541 
71.640894799 79.764542572 38.646394039 72.723774164 79.489902966 37.525647396 74.028622794 78.846300883 36.668177672 
75.197468991 78.028446499 36.119497136 77.239847617 78.042536383 35.704597491 76.210827857 77.051284659 35.791882194 
78.354144295 78.938201017 35.845278367 79.618038002 79.507819797 36.025283542 80.969942834 79.797491267 36.220519715 
82.340091543 79.880852718 36.579563632 83.743926071 79.915454123 36.915450745 85.154394464 79.827565914 37.361215599 
86.611599453 79.713791747 37.829970087 88.132024086 79.667397054 38.298848483 89.67246168 79.635499576 38.801985888 
91.29651187 79.626787079 39.315041335 93.230641181 79.462149016 39.801159411 95.124544432 80.141954239 40.487930046 
96.600655415 80.486172305 41.376389297 97.92936256 80.747946279 42.453558675 99.200816388 80.992664704 43.589887798 
100.10011369 81.283008804 44.934020039 100.85019348 81.623578989 46.280707839 101.06228716 80.179245229 46.716416112 
101.95738638 79.34202242 48.728317323 101.23935067 78.688062449 47.319268554 102.36960363 80.206736936 50.19241206 
102.55049612 81.292446131 51.34046954 102.29410166 82.009563099 52.177163721 102.21294154 81.77429203 53.265122694 
101.92811062 81.590362184 54.800133687 101.14334521 81.399292958 56.425878027 99.754806343 81.162422378 58.42475872 
100.21253564 72.166751354 52.078958199 99.569922398 71.82745751 50.819316116 98.767862834 71.582602099 49.613554442 
97.915955164 71.35551368 48.456152527 96.964952025 71.235597551 47.363984743 96.000204174 71.174001112 46.276120689 
94.943065716 71.202700386 45.245559941 93.841275064 71.243767141 44.226015757 92.678290247 71.305489775 43.219199546 
91.390907245 71.466412852 42.330076487 90.013129437 71.627586953 41.523040445 88.567363396 71.712428321 40.829917431 
87.152933987 71.737747933 40.205729622 85.885767594 71.689845902 39.624162505 84.954645745 71.631857851 39.209879057 
84.648651018 72.324576779 38.521479585 82.811606698 72.299160264 37.783611966 84.057687537 73.353734559 37.674562813 
81.595909117 71.322429163 38.083857469 80.282678289 70.519746196 38.50146696 78.891477824 69.795528493 38.824180692 
77.355202151 69.380041665 39.379508318 75.815289362 69.120497253 40.157469292 74.500896987 69.232703818 41.164809107 
73.318560787 69.527673506 42.34532682 72.232205185 69.905753715 43.671794498 71.591881351 70.292606845 45.220724314 
71.262715876 70.704249433 46.780771996 71.229756108 71.192302572 48.163315438 71.400941985 71.59771821 49.501954834 
71.823673007 71.920672617 50.771886362 72.331800423 72.100125633 52.119655654 72.839979538 72.222468954 53.53186735 
73.351036585 72.313143572 54.996558083 73.843419485 72.389753111 56.49755646 74.452697444 72.454090834 57.987844016 
75.263775219 72.470993348 59.392074078 76.145891477 72.474150342 60.772487681 77.038702798 72.461340793 62.13618933 
77.963357661 72.471416652 63.47496494 78.996057677 72.624880753 64.716076526 80.030618985 72.956410285 65.944233942 
81.035845299 73.485111235 67.113410213 83.263924791 73.568850877 67.660369798 81.971452774 74.255650504 68.137013875 
84.617627358 73.030898434 67.233401331 86.100629421 72.791182766 66.944717741 87.623152028 72.697508514 66.682820931 
89.17989743 72.704683155 66.301438514 90.66442967 72.777338974 65.660372524 92.111156034 72.795874116 64.95999724 
93.486723993 72.839402918 64.167095358 94.81577649 72.966772632 63.285406299 96.015649399 72.879023163 62.305452462 
96.979791045 72.916724433 61.427523175 97.80436408 73.413589601 60.548944415 98.631494429 74.104966219 59.665694826 
99.522678661 74.861978339 58.769417326 100.43922099 75.603662913 57.801853545 101.23914968 76.215784834 56.601063869 
101.99844185 75.20767536 55.098942074 102.01779473 76.568567922 55.328174636 101.71908122 74.28605897 54.853714163 
101.67684663 73.998966441 53.946044799 101.584383 73.562559491 52.728784237 78.444707665 81.481072584 70.040768878 
77.038708293 81.060595923 69.670640932 75.933781585 80.66147743 68.662355634 74.770073527 80.34067277 67.573293236 
73.702610853 80.035814476 66.328486312 72.620036842 79.719580331 65.039211324 71.867077944 79.400044329 63.588372865 
71.210246669 78.997956715 62.052228243 71.022823997 78.462444521 60.537287916 71.018624643 77.672820884 59.029521981 
69.763829073 78.402252358 53.767710303 70.266331014 78.286980467 55.29037569 68.976655679 78.296859072 52.341832383 
68.326674723 78.161232834 50.805735822 67.91694434 78.05368118 49.182992571 67.662411622 77.975218439 47.470407834 
68.003027879 77.949044871 45.859041352 68.380880679 77.959600328 44.253635413 68.82958834 78.017219666 42.691192327 
69.423432833 78.127359036 41.176706241 70.250474567 78.261583578 39.856425389 71.192371425 78.242549543 38.616643679 
72.272713267 77.914447532 37.612338918 73.391509642 77.451391243 36.744656749 74.51202589 76.811543548 36.386155976 
75.474448619 75.983037203 36.155634626 77.201907317 76.023509933 35.78516917 76.361947926 75.035018907 36.037252434 
78.121265016 76.962123421 35.804636439 79.094369618 77.751996051 35.882601036 80.107168261 78.315361817 35.906908091 
81.264288485 78.460756863 36.119950328 82.587189018 78.432020932 36.438955735 83.873407499 78.533828376 36.772206181 
85.13458836 78.35428901 37.199710655 86.534081761 78.149505951 37.705832983 88.002403789 78.04060206 38.368464863 
89.502169238 78.030441201 38.972389795 90.986913269 78.012125481 39.423140721 92.345578865 77.814052501 39.840501334 
96.875453989 78.966330783 41.701152621 95.539476243 78.691405841 40.90205211 98.139528674 79.15595967 42.769516463 
99.382337093 79.35987722 43.944226134 100.30330032 79.730550382 45.31981507 70.704250307 77.856802975 56.701434808 
71.251011519 76.722761978 57.669246494 100.38601789 78.163869962 45.863887213 101.37096759 77.174120124 47.964387313 
100.502759 76.582735383 46.475904887 102.10712539 77.807110917 49.557525592 102.75580391 78.658996711 51.536708629 
102.57669964 80.45787433 52.685879713 101.08035599 73.251778123 51.351112991 100.40871616 72.888882508 50.030169078 
99.517984107 72.655767282 48.859033495 98.607867404 72.414384925 47.734652283 97.643820369 72.268711383 46.706003692 
96.702665528 72.241099806 45.639372847 95.658431141 72.303422806 44.615544985 94.530832837 72.39643982 43.606661882 
93.322405474 72.544241268 42.622888864 92.027926698 72.797022168 41.726023207 90.549047362 73.086074476 40.866830812 
88.971004235 73.171720561 40.157009785 87.440935796 73.084018908 39.434067831 85.943334287 72.873513943 38.832145885 
85.640186918 74.587446882 37.93312365 83.015702412 74.37813155 37.052331525 84.085720717 75.635226377 37.079725481 
81.931894144 73.225907394 37.024978795 80.746103624 72.16610686 37.191983796 79.480427741 71.385519179 37.567512707 
78.11167218 70.756735341 37.879140244 76.584537287 70.434333885 38.373233876 75.002480042 70.151767559 39.109506251 
73.685111694 70.23101649 40.121308304 72.412493902 70.511796505 41.285293295 70.953221235 71.212004463 42.58432819 
70.432840589 71.473894466 44.646843608 70.213579882 71.804138404 46.390181448 70.214951839 72.183558747 47.925595992 
70.43847708 72.560445725 49.401706192 70.91874875 72.907965392 50.805811674 71.481421688 73.169874407 52.204439689 
72.083437243 73.396530183 53.608281024 72.562172477 73.527623602 55.113664808 72.978153 73.636009038 56.636341258 
73.53646572 73.758461636 58.246633589 74.374351377 73.657509714 59.75910637 75.204295087 73.573663821 61.162121161 
76.007483594 73.47247263 62.576685762 76.885279503 73.477046917 63.937021252 77.827848019 73.580406622 65.239186509 
78.815566781 73.852684946 66.462259099 79.79921846 74.339678009 67.617455014 80.744635309 75.059160158 68.597236373 
82.911129977 75.163414998 68.97124074 81.663005331 75.945457207 69.467102219 84.130928618 74.46704334 68.515623435 
85.249112387 74.017870598 68.018220092 86.486797891 73.915139904 67.767770788 87.908644472 74.069926396 67.319961299 
89.40485926 74.233794239 66.715821568 90.81878814 74.354928468 65.879690108 92.131471865 74.280333767 64.961190978 
93.313402729 74.279125655 64.076981498 94.644924208 74.77557418 63.017905007 95.989840556 74.246638876 62.10518537 
96.792493848 73.904036604 61.522699483 97.327282737 74.543480916 60.953743058 98.192307435 75.337435206 60.291085641 
99.090325251 76.183666209 59.398531992 99.992736667 76.975712425 58.334725896 100.95610257 77.674064448 57.083184484 
101.8186939 78.1001444 55.628420135 102.49087206 76.670107761 53.704800772 102.5006641 78.388968646 53.876273097 
102.22183778 75.163564867 53.735594793 98.530390306 79.791112622 59.809942852 97.407835512 78.627786583 60.689769383 
96.396265017 77.490218926 61.447984815 95.492019362 76.265365583 62.183208613 93.689206105 76.136768598 63.502064022 
92.728035956 76.958363261 64.259292979 91.866689888 77.66681457 65.444510143 91.121743597 78.406937215 66.601320189 
90.200027379 78.750284355 67.833620476 88.967003922 79.031370295 69.171769263 87.466952068 79.784874063 70.021180487 
86.015539633 80.563723338 70.486304307 85.03252819 79.219392339 70.547356917 83.937110849 78.026949746 70.461883698 
81.461632695 77.888904446 70.409452876 82.754360322 76.955512397 70.081838731 80.13920773 78.924093573 70.494241208 
79.152438866 80.238330046 70.347376173 101.07638673 74.186945488 49.287054047 101.77089435 74.530202811 50.705294326 
100.08848966 73.882429703 48.121731179 99.13454113 73.541168175 47.03413982 98.215092017 73.294149003 46.137745154 
97.399052422 73.341930883 45.125640879 96.391786601 73.4678165 44.111143948 95.257225528 73.583041443 43.103033358 
94.069401037 73.79301675 42.149017454 92.776985725 74.160061183 41.213286237 91.230189143 74.883554083 40.255543075 
89.272001795 74.749027325 39.507730147 87.612766449 74.686055109 38.748272212 82.729630511 76.791872849 36.622391535 
83.839089384 77.416522705 36.841991861 84.848945783 76.962403699 37.238495725 81.880902353 75.358213852 36.547425714 
80.943115206 74.1973009 36.48884001 79.884046015 73.178728897 36.62854665 78.758977776 72.337757872 36.83978233 
77.524027525 71.795783106 37.122356686 75.908040172 71.963435073 37.385537522 74.311760061 71.45964534 38.264059333 
73.106600625 71.438419986 39.266988974 71.923867492 71.651022604 40.19981048 70.954271593 72.270924353 41.036464875 
69.275986522 73.192181231 46.146280362 69.471756385 73.033655682 44.459238272 69.250282122 73.420054341 47.738176409 
69.502477619 73.689286576 49.347162533 70.017885496 74.002095382 50.819266533 70.599412613 74.259610692 52.265910935 
71.271844474 74.537664446 53.650952822 71.756029754 74.727133311 55.101522399 72.093824087 74.925094911 56.651188584 
72.328044084 75.248716986 58.576310486 74.221557315 74.57196242 61.662863574 73.399459192 74.762552624 60.248333849 
74.990230311 74.474221776 63.051981852 75.835393165 74.511749681 64.403557411 76.686340626 74.570254805 65.736722158 
77.690158691 74.859966224 66.935715857 78.657563671 75.21770577 68.106403563 79.584024582 75.914283617 68.973987418 
80.329447771 76.833945095 69.819187752 69.740677258 73.04959994 42.768600569 70.174690614 73.485882625 41.271611059 
94.322730446 78.130985869 40.278073909 93.416902735 77.112180337 40.266484266 102.38113673 80.078919824 54.390239745 
101.51468535 79.723658013 56.041894324 100.47305414 79.278418915 57.651425122 99.358967319 78.386646074 58.973058499 
98.355136361 77.442453882 60.010842995 97.368609003 76.43232394 60.825706609 96.590264503 75.39171725 61.582160263 
77.750529496 79.540341868 69.949025207 76.367152772 79.083781224 68.964209932 75.17513199 78.747195253 67.85633508 
74.125769207 78.470878584 66.569959442 73.153160842 78.201295233 65.269419759 72.400007087 77.957023081 63.858459217 
71.791253904 77.606059996 62.48357661 71.627336911 77.236652365 61.1285488 71.763888605 76.427884983 59.932973465 
71.319271512 76.117721276 56.347812215 70.83972938 77.006309162 56.017572335 70.53279878 77.059337042 54.992762127 
70.048064529 77.01350233 53.655263467 69.285044548 76.831021865 52.31160617 68.588954502 76.613750244 50.828303818 
68.150273982 76.445371026 49.237911647 67.884222748 76.293629124 47.513045514 68.204341553 76.276151441 45.899969461 
68.545728932 76.272298728 44.296500312 68.965790669 76.369217724 42.7456038 69.498959042 76.511078307 41.273685768 
70.265388132 76.68089531 40.012406846 71.113480227 76.663867573 38.832400397 72.10283708 76.51559934 37.909932139 
73.02888344 76.198487093 37.092953616 74.01208408 75.805634052 36.67191327 74.797686105 75.049567694 36.524649701 
75.596284268 74.123642682 36.496592642 78.097024639 75.070621317 35.989054605 77.28006607 74.104114723 36.067296014 
78.958990185 76.010545309 35.983867853 79.788011326 76.824022861 35.999332077 80.397958802 77.451656733 36.013638837 
81.29108477 77.22506542 36.232130446 86.432776112 78.215891122 70.175578224 85.138610266 77.069799051 69.97016749 
83.982753385 76.05682602 69.676820821 84.971846267 75.359521662 69.028560389 85.616631302 74.795317008 68.517076746 
86.629529273 75.005854249 68.508082239 88.077499238 75.438906083 68.104759065 89.579326225 75.747835264 67.230416667 
90.977527659 76.128321126 65.975209049 92.171247157 75.691734932 64.761654097 93.033570326 75.374119839 64.093113032 
86.25823692 76.523271283 37.775539403 87.825879652 76.411949141 38.478602318 89.354392976 76.435896053 39.168763921 
90.828919074 76.533847834 39.65394938 91.911350423 76.786856035 39.955843321 92.6161317 76.010287468 40.331638404 
94.430052353 76.45717626 40.733149856 93.692374525 75.360127493 40.914690991 94.826031435 77.350906235 40.77017194 
95.693854293 77.44708726 41.318020462 96.872768156 77.521037189 42.099335162 98.074504665 77.606216862 43.151891548 
99.33567019 77.756775646 44.463220401 99.15457049 75.883741103 45.007144712 100.42376758 75.161102266 47.342349362 
99.421556113 74.690273177 46.288480184 101.36810577 75.645880071 48.639750656 102.08743098 76.115323181 50.143981248 
90.585693869 77.25407318 66.812999871 89.712891188 77.203301905 67.798756264 87.947659631 77.155248933 69.035993102 
78.737153899 77.844742256 69.865721201 71.052740397 75.908226421 55.019967384 70.553582779 75.732775425 53.651530573 
69.841794005 75.476611232 52.302878805 69.181809779 75.212214628 50.852316524 68.670290352 74.966787763 49.318310588 
68.398173596 74.747748363 47.617154985 68.584894658 74.683407263 45.980261499 68.872685661 74.654975706 44.362953988 
69.209591309 74.718494217 42.776385364 69.739581539 74.951044356 41.324396516 70.41293755 75.169467573 40.136836781 
71.152671647 75.256815882 39.027420097 74.097570425 74.306172209 36.904252509 73.653461043 75.062177209 36.888874626 
79.943218466 75.099813576 36.183908766 79.015887024 74.147451309 36.2503323 80.743742242 76.130768973 36.177484466 
77.04146949 77.53157795 68.90950495 75.845818103 77.23836886 67.768659497 74.795861442 76.987836415 66.513208807 
73.873205814 76.768312663 65.227756835 73.15180002 76.6461785 63.814988482 72.556519027 76.498836627 62.562144838 
72.175250683 76.407972744 61.577133133 72.617760112 75.705509686 60.965258549 73.302542677 75.508708312 62.189541504 
74.000235983 75.478849437 63.516912863 74.789150957 75.538922837 64.87543625 75.668209276 75.679635532 66.184077777 
76.666942988 75.92131701 67.412166353 77.676858544 76.228711672 68.493075438 78.629406897 76.601752271 69.237549272 
95.423590569 76.219473125 41.507723393 96.588350731 76.106978667 42.370100419 97.806777375 76.040734198 43.476641844 
78.099790399 73.278738976 36.392117828 77.334980669 72.684320009 36.56331626 76.479902587 73.21121081 36.529073653 
72.640898937 72.670907742 38.657220626 73.649778846 72.750104215 37.763567681 71.69969511 72.720290195 39.484244327 
71.095071699 72.9382952 40.221493276 70.715671947 73.867702713 40.196747199 94.822501245 74.989420504 41.774055818 
98.61808759 74.153023604 45.716300667 98.118540869 74.463152376 44.771291354 97.102501991 74.668070077 43.720098996 
86.147947533 76.038699762 69.309172736 95.988215808 74.802010622 42.689186577 72.299130697 73.934760591 38.368843101 
73.187693927 74.004266836 37.542617109 71.393217045 73.91558466 39.185922404 74.195633446 67.525835694 47.682936984 
73.792237341 68.112696075 48.987736763 84.679269406 83.938041631 70.129841789 102.3191696 74.825611261 52.171210413 
102.67258447 76.509615684 51.809117766 72.95697152 75.114559043 37.40256792 72.10608234 75.200200012 38.162588965 
74.766491818 73.215222601 36.991834773 
POLYGONS 1065 4256
OFFSETS vtktypeint64
0 4 8 12 16 20 24 28 32 
36 40 44 48 52 56 60 64 68 
72 76 80 84 88 92 96 100 104 
108 112 116 120 124 128 132 136 140 
144 148 152 156 160 164 168 172 176 
180 184 188 192 196 200 204 208 212 
216 220 224 228 232 236 240 244 248 
252 256 260 264 268 272 276 280 284 
288 292 296 300 304 308 312 316 320 
324 328 332 336 340 344 348 352 356 
360 364 368 372 376 380 384 388 392 
396 400 404 408 412 416 420 424 428 
432 436 440 444 448 452 456 460 464 
468 472 476 480 484 488 492 496 500 
504 508 512 516 520 524 528 532 536 
540 544 548 552 556 560 564 568 572 
576 580 584 588 592 596 600 604 608 
612 616 620 624 628 632 636 640 644 
648 652 656 660 664 668 672 676 680 
684 688 692 696 700 704 708 712 716 
720 724 728 732 736 740 744 748 752 
756 760 764 768 772 776 780 784 788 
792 796 800 804 808 812 816 820 824 
828 832 836 840 844 848 852 856 860 
864 868 872 876 880 884 888 892 896 
900 904 908 912 916 920 924 928 932 
936 940 944 948 952 956 960 964 968 
972 976 980 984 988 992 996 1000 1004 
1008 1012 1016 1020 1024 1028 1032 1036 1040 
1044 1048 1052 1056 1060 1064 1068 1072 1076 
1080 1084 1088 1092 1096 1100 1104 1108 1112 
1116 1120 1124 1128 1132 1136 1140 1144 1148 
1152 1156 1160 1164 1168 1172 1176 1180 1184 
1188 1192 1196 1200 1204 1208 1212 1216 1220 
1224 1228 1232 1236 1240 1244 1248 1252 1256 
1260 1264 1268 1272 1276 1280 1284 1288 1292 
1296 1300 1304 1308 1312 1316 1320 1324 1328 
1332 1336 1340 1344 1348 1352 1356 1360 1364 
1368 1372 1376 1380 1384 1388 1392 1396 1400 
1404 1408 1412 1416 1420 1424 1428 1432 1436 
1440 1444 1448 1452 1456 1460 1464 1468 1472 
1476 1480 1484 1488 1492 1496 1500 1504 1508 
1512 1516 1520 1524 1528 1532 1536 1540 1544 
1548 1552 1556 1560 1564 1568 1572 1576 1580 
1584 1588 1592 1596 1600 1604 1608 1612 1616 
1620 1624 1628 1632 1636 1640 1644 1648 1652 
1656 1660 1664 1668 1672 1676 1680 1684 1688 
1692 1696 1700 1704 1708 1712 1716 1720 1724 
1728 1732 1736 1740 1744 1748 1752 1756 1760 
1764 1768 1772 1776 1780 1784 1788 1792 1796 
1800 1804 1808 1812 1816 1820 1824 1828 1832 
1836 1840 1844 1848 1852 1856 1860 1864 1868 
1872 1876 1880 1884 1888 1892 1896 1900 1904 
1908 1912 1916 1920 1924 1928 1932 1936 1940 
1944 1948 1952 1956 1960 1964 1968 1972 1976 
1980 1984 1988 1992 1996 2000 2004 2008 2012 
2016 2020 2024 2028 2032 2036 2040 2044 2048 
2052 2056 2060 2064 2068 2072 2076 2080 2084 
2088 2092 2096 2100 2104 2108 2112 2116 2120 
2124 2128 2132 2136 2140 2144 2148 2152 2156 
2160 2164 2168 2172 2176 2180 2184 2188 2192 
2196 2200 2204 2208 2212 2216 2220 2224 2228 
2232 2236 2240 2244 2248 2252 2256 2260 2264 
2268 2272 2276 2280 2284 2288 2292 2296 2300 
2304 2308 2312 2316 2320 2324 2328 2332 2336 
2340 2344 2348 2352 2356 2360 2364 2368 2372 
2376 2380 2384 2388 2392 2396 2400 2404 2408 
2412 2416 2420 2424 2428 2432 2436 2440 2444 
2448 2452 2456 2460 2464 2468 2472 2476 2480 
2484 2488 2492 2496 2500 2504 2508 2512 2516 
2520 2524 2528 2532 2536 2540 2544 2548 2552 
2556 2560 2564 2568 2572 2576 2580 2584 2588 
2592 2596 2600 2604 2608 2612 2616 2620 2624 
2628 2632 2636 2640 2644 2648 2652 2656 2660 
2664 2668 2672 2676 2680 2684 2688 2692 2696 
2700 2704 2708 2712 2716 2720 2724 2728 2732 
2736 2740 2744 2748 2752 2756 2760 2764 2768 
2772 2776 2780 2784 2788 2792 2796 2800 2804 
2808 2812 2816 2820 2824 2828 2832 2836 2840 
2844 2848 2852 2856 2860 2864 2868 2872 2876 
2880 2884 2888 2892 2896 2900 2904 2908 2912 
2916 2920 2924 2928 2932 2936 2940 2944 2948 
2952 2956 2960 2964 2968 2972 2976 2980 2984 
2988 2992 2996 3000 3004 3008 3012 3016 3020 
3024 3028 3032 3036 3040 3044 3048 3052 3056 
3060 3064 3068 3072 3076 3080 3084 3088 3092 
3096 3100 3104 3108 3112 3116 3120 3124 3128 
3132 3136 3140 3144 3148 3152 3156 3160 3164 
3168 3172 3176 3180 3184 3188 3192 3196 3200 
3204 3208 3212 3216 3220 3224 3228 3232 3236 
3240 3244 3248 3252 3256 3260 3264 3268 3272 
3276 3280 3284 3288 3292 3296 3300 3304 3308 
3312 3316 3320 3324 3328 3332 3336 3340 3344 
3348 3352 3356 3360 3364 3368 3372 3376 3380 
3384 3388 3392 3396 3400 3404 3408 3412 3416 
3420 3424 3428 3432 3436 3440 3444 3448 3452 
3456 3460 3464 3468 3472 3476 3480 3484 3488 
3492 3496 3500 3504 3508 3512 3516 3520 3524 
3528 3532 3536 3540 3544 3548 3552 3556 3560 
3564 3568 3572 3576 3580 3584 3588 3592 3596 
3600 3604 3608 3612 3616 3620 3624 3628 3632 
3636 3640 3644 3648 3652 3656 3660 3664 3668 
3672 3676 3680 3684 3688 3692 3696 3700 3704 
3708 3712 3716 3720 3724 3728 3732 3736 3740 
3744 3748 3752 3756 3760 3764 3768 3772 3776 
3780 3784 3788 3792 3796 3800 3804 3808 3812 
3816 3820 3824 3828 3832 3836 3840 3844 3848 
3852 3856 3860 3864 3868 3872 3876 3880 3884 
3888 3892 3896 3900 3904 3908 3912 3916 3920 
3924 3928 3932 3936 3940 3944 3948 3952 3956 
3960 3964 3968 3972 3976 3980 3984 3988 3992 
3996 4000 4004 4008 4012 4016 4020 4024 4028 
4032 4036 4040 4044 4048 4052 4056 4060 4064 
4068 4072 4076 4080 4084 4088 4092 4096 4100 
4104 4108 4112 4116 4120 4124 4128 4132 4136 
4140 4144 4148 4152 4156 4160 4164 4168 4172 
4176 4180 4184 4188 4192 4196 4200 4204 4208 
4212 4216 4220 4224 4228 4232 4236 4240 4244 
4248 4252 4256 
CONNECTIVITY vtktypeint64
0 1 2 3 1 4 5 2 4 
6 7 5 6 8 9 7 8 10 
11 9 10 12 13 11 12 14 15 
13 14 16 17 15 16 18 19 17 
18 20 21 19 20 22 23 21 22 
24 25 23 24 26 27 25 26 28 
29 27 28 30 31 29 30 32 33 
31 32 34 35 33 34 36 37 35 
36 38 39 37 38 40 41 39 40 
42 43 41 42 44 45 43 44 46 
47 45 46 48 49 47 48 50 51 
49 50 52 53 51 52 54 55 53 
54 56 57 55 56 58 59 57 58 
60 61 59 60 62 63 61 62 64 
65 63 64 66 67 65 66 68 69 
67 68 70 71 69 70 72 73 71 
72 74 75 73 74 76 77 75 76 
78 79 77 78 80 81 79 80 82 
83 81 82 0 3 83 84 85 86 
87 85 88 89 86 88 90 91 89 
90 92 93 91 92 94 95 93 94 
96 97 95 96 98 99 97 98 100 
101 99 100 102 103 101 102 104 105 
103 104 106 107 105 106 108 109 107 
108 110 111 109 110 112 113 111 112 
114 115 113 114 116 117 115 116 118 
119 117 118 120 121 119 120 122 123 
121 122 124 125 123 124 126 127 125 
126 128 129 127 128 130 131 129 130 
132 133 131 132 134 135 133 134 136 
137 135 136 138 139 137 138 140 141 
139 140 142 143 141 142 144 145 143 
144 146 147 145 146 148 149 147 148 
150 151 149 150 152 153 151 152 154 
155 153 154 156 157 155 156 158 159 
157 158 160 161 159 160 162 163 161 
162 164 165 163 164 166 167 165 166 
168 169 167 168 170 171 169 170 172 
173 171 172 174 175 173 174 176 177 
175 176 178 179 177 178 180 181 179 
180 182 183 181 182 184 185 183 184 
186 187 185 186 188 189 187 188 190 
191 189 190 192 193 191 192 194 195 
193 194 196 197 195 196 198 199 197 
198 84 87 199 2 5 200 201 5 
7 202 200 7 9 203 202 9 11 
204 203 11 13 205 204 13 15 206 
205 15 17 207 206 17 19 208 207 
19 21 209 208 21 23 210 209 23 
25 211 210 25 27 212 211 27 29 
213 212 29 31 214 213 31 33 215 
214 33 35 216 215 35 37 217 216 
37 39 218 217 39 41 219 218 41 
43 220 219 43 45 221 220 45 47 
222 221 47 49 223 222 49 51 224 
223 51 53 225 224 53 55 226 225 
55 57 227 226 57 59 228 227 59 
61 229 228 61 63 230 229 63 65 
231 230 65 67 232 231 67 69 233 
232 69 71 234 233 71 73 235 234 
73 75 236 235 75 77 237 236 77 
79 238 237 79 81 239 238 81 83 
240 239 83 3 241 240 3 2 201 
241 86 89 242 243 89 91 244 242 
91 93 245 244 93 95 246 245 95 
97 247 246 97 99 248 247 99 101 
249 248 101 103 250 249 103 105 251 
250 105 107 252 251 107 109 253 252 
109 111 254 253 111 113 255 254 113 
115 256 255 115 117 257 256 117 119 
258 257 119 121 259 258 121 123 260 
259 123 125 261 260 125 127 262 261 
127 129 263 262 129 131 264 263 131 
133 265 264 135 137 266 267 137 139 
268 266 139 141 269 268 141 143 270 
269 143 145 271 270 145 147 272 271 
147 149 273 272 149 151 274 273 151 
153 275 274 153 155 276 275 155 157 
277 276 157 159 278 277 159 161 279 
278 161 163 280 279 163 165 281 280 
165 167 282 281 167 169 283 282 169 
171 284 283 171 173 285 284 173 175 
286 285 175 177 287 286 177 179 288 
287 179 181 289 288 181 183 290 289 
183 185 291 290 185 187 292 291 187 
189 293 292 189 191 294 293 191 193 
295 294 193 195 296 295 195 197 297 
296 197 199 298 297 199 87 299 298 
87 86 243 299 133 135 267 300 265 
133 300 301 203 204 302 303 204 205 
304 302 205 206 305 304 206 207 306 
305 207 208 307 306 208 209 308 307 
209 210 309 308 210 211 310 309 211 
212 311 310 212 213 312 311 213 214 
313 312 214 215 314 313 215 216 315 
314 216 217 316 315 217 218 317 316 
218 219 318 317 219 220 319 318 220 
221 320 319 221 222 321 320 222 223 
322 321 224 225 323 324 225 226 325 
323 226 227 326 325 227 228 327 326 
228 229 328 327 229 230 329 328 230 
231 330 329 231 232 331 330 232 233 
332 331 233 234 333 332 234 235 334 
333 235 236 335 334 236 237 336 335 
237 238 337 336 238 239 338 337 239 
240 339 338 240 241 340 339 241 201 
341 340 201 200 342 341 223 224 324 
343 322 223 343 344 301 300 345 346 
300 267 266 345 266 268 347 345 268 
269 348 347 269 270 349 348 270 271 
350 349 271 272 351 350 272 273 352 
351 273 274 353 352 275 276 354 355 
276 277 356 354 277 278 357 356 278 
279 358 357 279 280 359 358 280 281 
360 359 281 282 361 360 282 283 362 
361 283 284 363 362 284 285 364 363 
285 286 365 364 286 287 366 365 287 
288 367 366 288 289 368 367 289 290 
369 368 290 291 370 369 291 292 371 
370 292 293 372 371 293 294 373 372 
294 295 374 373 295 296 375 374 296 
297 376 375 297 298 377 376 298 299 
378 377 299 243 379 378 243 242 380 
379 242 244 381 380 244 245 382 381 
245 246 383 382 246 247 384 383 247 
248 385 384 248 249 386 385 249 250 
387 386 250 251 388 387 251 252 389 
388 252 253 390 389 253 254 391 390 
254 255 392 391 255 256 393 392 256 
257 394 393 257 258 395 394 258 259 
396 395 259 260 397 396 260 261 398 
397 261 262 399 398 262 263 400 399 
263 264 401 400 264 265 402 401 265 
301 403 402 301 346 404 403 346 405 
406 404 346 345 347 405 274 275 355 
407 353 274 407 408 344 343 409 410 
343 324 411 409 324 323 412 411 323 
325 413 412 325 326 414 413 326 327 
415 414 327 328 416 415 328 329 417 
416 329 330 418 417 330 331 419 418 
331 332 420 419 332 333 421 420 333 
334 422 421 334 335 423 422 335 336 
424 423 337 338 425 426 338 339 427 
425 339 340 428 427 340 341 429 428 
341 342 430 429 303 302 431 432 302 
304 433 431 304 305 434 433 305 306 
435 434 306 307 436 435 307 308 437 
436 308 309 438 437 309 310 439 438 
310 311 440 439 311 312 441 440 312 
313 442 441 313 314 443 442 314 315 
444 443 315 316 445 444 316 317 446 
445 317 318 447 446 318 319 448 447 
319 320 449 448 320 321 450 449 321 
322 451 450 322 344 452 451 344 410 
453 452 410 454 455 453 410 409 456 
454 457 303 432 458 459 457 458 460 
336 337 426 461 424 336 461 462 347 
348 463 405 348 349 464 463 349 350 
465 464 350 351 466 465 351 352 467 
466 352 353 468 467 353 408 469 468 
408 470 471 469 408 407 472 470 407 
355 473 472 355 354 474 473 354 356 
475 474 356 357 476 475 357 358 477 
476 358 359 478 477 359 360 479 478 
360 361 480 479 361 362 481 480 362 
363 482 481 363 364 483 482 364 365 
484 483 365 366 485 484 366 367 486 
485 367 368 487 486 368 369 488 487 
369 370 489 488 370 371 490 489 371 
372 491 490 372 373 492 491 373 374 
493 492 374 375 494 493 375 376 495 
494 376 377 496 495 377 378 497 496 
378 379 498 497 379 380 499 498 380 
381 500 499 381 382 501 500 382 383 
502 501 383 384 503 502 384 385 504 
503 385 386 505 504 386 387 506 505 
387 388 507 506 388 389 508 507 389 
390 509 508 390 391 510 509 391 392 
511 510 392 393 512 511 393 394 513 
512 395 396 514 515 396 397 516 514 
397 398 517 516 398 399 518 517 399 
400 519 518 400 401 520 519 401 402 
521 520 402 403 522 521 403 404 523 
522 404 406 524 523 406 525 526 524 
406 405 527 525 405 463 528 527 463 
464 529 528 464 465 530 529 465 466 
531 530 466 467 532 531 522 523 533 
534 523 524 535 533 524 526 536 535 
526 537 538 536 526 525 539 537 525 
527 540 539 527 528 541 540 528 529 
542 541 529 530 543 542 530 531 544 
543 531 532 545 544 394 395 515 546 
513 394 546 547 409 411 548 456 411 
412 549 548 412 413 550 549 413 414 
551 550 414 415 552 551 415 416 553 
552 416 417 554 553 417 418 555 554 
418 419 556 555 419 420 557 556 420 
421 558 557 421 422 559 558 422 423 
560 559 423 424 561 560 424 462 562 
561 462 563 564 562 462 461 565 563 
461 426 566 565 426 425 567 566 425 
427 568 567 427 428 569 568 428 429 
570 569 429 430 571 570 430 572 573 
571 572 574 575 573 574 459 576 575 
459 460 577 576 460 458 578 577 458 
432 579 578 432 431 580 579 431 433 
581 580 433 434 582 581 434 435 583 
582 435 436 584 583 436 437 585 584 
437 438 586 585 438 439 587 586 439 
440 588 587 440 441 589 588 442 443 
590 591 443 444 592 590 444 445 593 
592 445 446 594 593 446 447 595 594 
447 448 596 595 448 449 597 596 449 
450 598 597 450 451 599 598 451 452 
600 599 452 453 601 600 453 455 602 
601 455 603 604 602 455 454 605 603 
454 456 606 605 441 442 591 607 589 
441 607 608 469 471 609 610 471 611 
612 609 471 470 613 611 470 472 614 
613 472 473 615 614 473 474 616 615 
474 475 617 616 475 476 618 617 476 
477 619 618 477 478 620 619 478 479 
621 620 479 480 622 621 480 481 623 
622 481 482 624 623 482 483 625 624 
483 484 626 625 484 485 627 626 485 
486 628 627 486 487 629 628 487 488 
630 629 488 489 631 630 489 490 632 
631 490 491 633 632 491 492 634 633 
492 493 635 634 493 494 636 635 494 
495 637 636 495 496 638 637 497 498 
639 640 498 499 641 639 499 500 642 
641 500 501 643 642 501 502 644 643 
502 503 645 644 503 504 646 645 504 
505 647 646 505 506 648 647 506 507 
649 648 507 508 650 649 508 509 651 
650 509 510 652 651 510 511 653 652 
511 512 654 653 512 513 655 654 513 
547 656 655 547 657 658 656 547 546 
659 657 546 515 660 659 515 514 661 
660 514 516 662 661 516 517 663 662 
517 518 664 663 518 519 665 664 519 
520 521 665 496 497 640 666 638 496 
666 667 610 609 668 545 609 612 669 
668 612 670 671 669 612 611 672 670 
611 613 673 672 613 614 674 673 614 
615 675 674 615 616 676 675 616 617 
677 676 617 618 678 677 618 619 679 
678 619 620 680 679 620 621 681 680 
621 622 682 681 622 623 683 682 623 
624 684 683 624 625 685 684 625 626 
686 685 626 627 687 686 627 628 688 
687 628 629 689 688 629 630 690 689 
630 631 691 690 631 632 692 691 632 
633 693 692 633 634 694 693 634 635 
695 694 635 636 696 695 636 637 697 
696 637 638 698 697 638 667 699 698 
667 700 701 699 667 666 702 700 666 
640 703 702 640 639 704 703 639 641 
705 704 641 642 706 705 642 643 707 
706 643 644 708 707 644 645 709 708 
645 646 710 709 646 647 711 710 647 
648 712 711 648 649 713 712 649 650 
714 713 650 651 715 714 651 652 716 
715 652 653 717 716 653 654 718 717 
654 655 656 718 656 658 719 718 658 
720 721 719 658 657 722 720 657 659 
723 722 659 660 724 723 660 661 725 
724 661 662 726 725 662 663 727 726 
663 664 728 727 664 665 534 728 665 
521 522 534 456 548 729 606 548 549 
730 729 549 550 731 730 550 551 732 
731 551 552 733 732 552 553 734 733 
553 554 735 734 554 555 736 735 555 
556 737 736 556 557 738 737 557 558 
739 738 558 559 740 739 559 560 741 
740 560 561 742 741 561 562 743 742 
562 564 744 743 564 745 746 744 564 
563 747 745 563 565 748 747 565 566 
749 748 566 567 750 749 567 568 751 
750 568 569 752 751 569 570 753 752 
570 571 754 753 571 573 755 754 573 
575 756 755 575 576 757 756 576 577 
758 757 577 578 759 758 578 579 760 
759 579 580 761 760 580 581 762 761 
581 582 763 762 582 583 764 763 583 
584 765 764 584 585 766 765 585 586 
767 766 586 587 768 767 587 588 769 
768 588 589 770 769 589 608 771 770 
608 772 773 771 608 607 774 772 607 
591 775 774 591 590 776 775 590 592 
777 776 592 593 778 777 593 594 779 
778 594 595 780 779 595 596 781 780 
596 597 782 781 597 598 783 782 598 
599 784 783 599 600 785 784 600 601 
786 785 601 602 787 786 602 604 788 
787 604 789 790 788 604 603 791 789 
603 605 792 791 605 606 793 792 674 
675 794 673 675 676 795 794 676 677 
796 795 677 678 797 796 678 679 798 
797 679 680 799 798 680 681 800 799 
681 682 801 800 682 683 802 801 683 
684 803 802 685 686 804 805 686 687 
806 804 687 688 807 806 688 689 808 
807 689 690 809 808 690 691 810 809 
691 692 811 810 692 693 812 811 693 
694 813 812 694 695 814 813 695 696 
815 814 696 697 816 815 697 698 817 
816 698 699 818 817 699 701 819 818 
701 820 821 819 701 700 822 820 700 
702 823 822 702 703 824 823 703 704 
825 824 704 705 826 825 705 706 827 
826 706 707 828 827 707 708 829 828 
708 709 830 829 709 710 831 830 710 
711 832 831 711 712 833 832 713 714 
834 835 714 715 836 834 715 716 837 
836 716 717 838 837 717 718 719 838 
684 685 805 839 803 684 839 840 719 
721 841 838 721 842 843 841 721 720 
844 842 720 722 845 844 722 723 846 
845 723 724 725 846 606 729 847 793 
729 730 848 847 730 731 849 848 731 
732 850 849 732 733 851 850 733 734 
852 851 734 735 853 852 735 736 854 
853 736 737 855 854 737 738 856 855 
738 739 857 856 739 740 858 857 740 
741 859 858 741 742 860 859 744 746 
861 860 746 862 863 861 746 745 864 
862 745 747 865 864 747 748 866 865 
748 749 867 866 749 750 868 867 750 
751 869 868 751 752 870 869 752 753 
871 870 753 754 872 871 754 755 873 
872 755 756 874 873 756 757 875 874 
757 758 876 875 758 759 877 876 759 
760 878 877 760 761 879 878 761 762 
880 879 762 763 881 880 763 764 882 
881 764 765 883 882 765 766 884 883 
766 767 885 884 767 768 886 885 768 
769 887 886 769 770 888 887 770 771 
889 888 771 773 890 889 773 891 892 
890 773 772 893 891 772 774 894 893 
774 775 895 894 775 776 896 895 776 
777 897 896 777 778 898 897 778 779 
899 898 779 780 900 899 780 781 901 
900 781 782 902 901 782 783 903 902 
783 784 904 903 784 785 905 904 785 
786 906 905 786 787 907 906 787 788 
908 907 788 790 909 908 790 910 911 
909 791 792 912 789 534 533 913 728 
533 535 914 913 535 536 915 914 536 
538 916 915 538 917 901 916 538 537 
918 917 537 539 919 918 539 540 920 
919 540 541 921 920 541 542 922 921 
542 543 923 922 543 544 924 923 544 
545 668 924 668 669 925 924 669 671 
926 925 671 927 928 926 671 670 929 
927 670 672 930 929 672 673 794 930 
847 848 931 932 848 849 933 931 849 
850 934 933 850 851 935 934 851 852 
936 935 852 853 937 936 853 854 938 
937 854 855 939 938 855 856 940 939 
856 857 941 940 857 858 942 941 858 
859 943 942 859 860 861 943 863 944 
945 946 863 862 947 944 862 864 948 
947 864 865 949 948 865 866 950 949 
866 867 951 950 867 868 952 951 868 
869 953 952 869 870 954 953 870 871 
955 954 871 872 956 955 873 874 957 
958 874 875 959 957 875 876 960 959 
876 877 961 960 877 878 962 961 878 
879 963 962 879 880 964 963 880 881 
965 964 881 882 966 965 883 884 967 
968 884 885 969 967 885 886 970 969 
886 887 971 970 887 888 972 971 888 
889 973 972 889 890 974 973 890 892 
975 974 892 928 927 975 882 883 968 
966 872 873 958 976 956 872 976 977 
712 713 835 978 833 712 978 979 725 
726 980 846 726 727 981 980 727 728 
982 981 728 913 983 982 913 914 984 
983 914 915 985 984 915 916 986 985 
916 901 902 986 794 795 987 930 795 
796 988 987 796 797 989 988 797 798 
990 989 798 799 991 990 799 800 992 
991 800 801 993 992 801 802 994 993 
802 803 995 994 803 840 966 995 966 
840 996 965 840 839 997 996 839 805 
998 997 805 804 999 998 804 806 1000 
999 806 807 1001 1000 807 808 1002 1001 
808 809 1003 1002 809 810 1004 1003 810 
811 1005 1004 811 812 1006 1005 812 813 
1007 1006 813 814 1008 1007 814 815 1009 
1008 815 816 1010 1009 816 817 1011 1010 
817 818 1012 1011 818 819 1013 1012 819 
821 1014 1013 821 820 1015 1016 820 822 
1017 1015 822 823 1018 1017 823 824 1019 
1018 824 825 1020 1019 825 826 944 1020 
826 827 945 944 827 828 946 945 902 
903 904 986 924 925 1021 923 925 926 
1022 1021 926 928 1023 1022 928 892 891 
1023 891 893 1024 1023 893 894 1025 1024 
894 895 1026 1025 895 896 1027 1026 896 
897 1028 1027 897 898 1029 1028 898 899 
1030 1029 899 900 1031 1030 900 901 917 
1031 828 829 1032 946 829 830 1033 1032 
830 831 1034 1033 831 832 1035 1034 832 
833 1036 1035 833 979 1037 1036 979 1038 
1039 1037 979 978 1040 1038 978 835 1041 
1040 835 834 1042 1041 834 836 1043 1042 
836 837 1044 1043 837 838 841 1044 904 
905 985 986 917 918 1030 1031 841 843 
1045 1044 843 1046 1047 1045 843 842 1048 
1046 842 844 1049 1048 845 846 980 911 
980 981 909 911 981 982 908 909 982 
983 907 908 984 985 905 906 906 907 
983 984 918 919 1029 1030 919 920 1050 
1029 920 921 1051 1050 921 922 1052 1051 
922 923 1021 1052 927 929 1053 975 929 
930 987 1053 965 996 1054 964 998 999 
1055 1054 999 1000 1056 1055 1000 1001 1057 
1056 1001 1002 1058 1057 1002 1003 1059 1058 
1003 1004 1060 1059 1004 1005 1061 1060 1005 
1006 1062 1061 1006 1007 1063 1062 1007 1008 
1064 1063 1008 1009 1065 1064 1012 1013 1066 
1067 1015 1017 1068 1069 1017 1018 1070 1068 
1018 1019 1020 1070 1020 944 947 1070 987 
988 1071 1053 988 989 1072 1071 989 990 
1073 1072 990 991 1074 1073 991 992 1075 
1074 992 993 1076 1075 993 994 1077 1076 
994 995 1078 1077 995 966 968 1078 947 
948 1068 1070 968 967 1079 1078 967 969 
1080 1079 969 970 1081 1080 970 971 1082 
1081 971 972 1083 1082 972 973 1084 1083 
973 974 1085 1084 974 975 1053 1085 948 
949 1069 1068 1040 1041 1086 1038 1041 1042 
1087 1086 1042 1043 1088 1087 1043 1044 1045 
1088 949 950 1089 1069 950 951 1090 1089 
951 952 1091 1090 953 954 1092 1093 954 
955 1094 1092 955 956 1095 1094 956 977 
1096 1095 977 1063 1064 1096 977 976 1062 
1063 976 958 1061 1062 958 957 1060 1061 
957 959 1059 1060 959 960 1058 1059 960 
961 1057 1058 1032 1033 943 861 1033 1034 
942 943 1034 1035 941 942 1035 1036 1037 
941 1037 1039 940 941 789 912 910 790 
932 931 1048 1049 931 933 1046 1048 940 
1039 1097 939 1039 1038 1086 1097 961 962 
1056 1057 933 934 1047 1046 1045 1047 1098 
1099 1047 934 935 1098 935 936 1099 1098 
962 963 1055 1056 936 937 1100 1099 1023 
1024 1101 1022 1024 1025 1026 1101 1026 1027 
1052 1101 1027 1028 1051 1052 1028 1029 1050 
1051 937 938 1102 1100 939 1097 1102 938 
1086 1087 1102 1097 1021 1022 1101 1052 1053 
1071 1084 1085 1071 1072 1083 1084 1089 1090 
1091 1016 1093 1092 1103 1104 1092 1094 1105 
1103 1094 1095 1096 1105 1064 1065 1105 1096 
1072 1073 1082 1083 1073 1074 1081 1082 1074 
1075 1080 1081 1079 1080 1075 1076 1076 1077 
1078 1079 342 1106 572 430 1106 1107 574 
572 1107 457 459 574 1106 342 200 202 
1107 1106 202 203 457 1107 203 303 467 
468 1108 532 468 469 610 1108 1108 610 
545 532 743 744 860 742 861 863 946 
1032 792 793 1109 912 793 847 932 1109 
1109 932 1049 1110 912 1109 1110 910 910 
1110 845 911 1110 1049 844 845 1016 1015 
1069 1089 1016 1091 1014 821 1067 1111 1011 
1012 1111 1112 1010 1011 1112 1065 1009 1010 
1065 1112 1103 1105 1102 1087 1088 1100 1100 
1088 1045 1099 1054 1055 963 964 1054 996 
997 998 1104 1066 1113 1093 1066 1013 1014 
1113 1113 1014 1091 952 1093 1113 952 953 
1104 1103 1112 1111 1111 1067 1066 1104 
CELL_DATA 1064
FIELD FieldData 6
Stress_X 1 1064 double
0.02247435227 0.012812074274 0.0064481077716 0.0033745453693 -0.0016053083818 0.0045305998065 5.2004910685e-05 -0.00029497678042 0.0014571617357 
0.0034846004564 0.0051957024261 0.005455548875 0.0070955166593 0.0080899000168 0.0092055471614 0.0098653286695 0.0098706316203 0.0092544667423 
0.0079933758825 0.0066328020766 0.0065792691894 0.0076202759519 0.0087239807472 0.0092639615759 0.0097066061571 0.0071246256121 0.0031765913591 
0.0012592622079 0.00029916889616 -2.2310958229e-05 -0.00091888633324 -0.0021238788031 -0.0021825837903 -0.0019121805672 -0.0012723497348 0.00021068869682 
0.0021256168839 0.0053487676196 0.010234401561 0.015598214231 0.018984893337 0.020377919078 0.0097902901471 0.005892583169 0.0028830522206 
0.00093978340738 -0.00073960929876 -0.0013474175939 -0.0008919473039 -0.00029377260944 0.00033832812915 0.0015946890926 0.004184294492 0.0088604688644 
0.011285849847 0.011388349347 0.01013270393 0.0089141754434 0.0091268811375 0.010372827761 0.01144424174 0.012334682979 0.010951704346 
0.008464702405 0.0057210577652 0.0030536267441 0.00073253846494 -0.00056919443887 0.001887267339 0.0058799190447 0.011214151047 0.016845751554 
0.021674457937 0.026805248111 0.031049646437 0.033763628453 0.026336902753 0.017159687355 0.0086828283966 0.0020822340157 -0.007311295718 
-0.0052955732681 -0.0053277001716 -0.004900988657 -0.0037674671039 -0.0027772819158 0.0017394496826 0.004873318132 0.0055704978295 0.005768654868 
0.0058809542097 0.0056801191531 0.006778572686 0.0090228216723 0.01206601318 0.01612447761 0.018574642017 0.021229427308 0.02040569298 
0.015384444036 0.010122550651 0.0075387707911 0.005730940029 0.0039174552076 0.0023317653686 0.0058971522376 0.0073443930596 0.0084885051474 
0.011030837893 0.01406173408 0.016404490918 0.016428271309 0.017383605242 0.018393067643 0.019249921665 0.019220929593 0.017314942554 
0.014485195279 0.011997768655 0.0091447960585 0.00711807888 0.0059302197769 0.0044784005731 0.0044488697313 0.0030662345234 0.0033105979674 
0.0050715161487 0.0060960692354 0.0071548772976 0.0089619504288 0.010465101339 0.011385736987 0.013541038148 0.015882212669 0.01746902056 
0.017300184816 0.016757562757 0.017505533993 0.019922688603 0.022809198126 0.022782325745 0.016115009785 0.020569190383 0.019370952621 
0.01864621602 0.018572371453 0.017634559423 0.016093049198 0.015279489569 0.014695207588 0.014809850603 0.015078327619 0.011102427728 
0.0087148612365 0.0073965904303 0.0059361970052 0.0039476198144 0.0031050697435 0.0026238779537 0.0015756932553 0.001341580064 0.0023475771304 
0.0062943724915 0.010756342672 0.01181111671 0.01469704695 0.017457885668 0.022838693112 0.027097091079 0.027578871697 0.027457956225 
0.02667203173 0.025961400941 0.026766393334 0.025621231645 0.018752554432 0.014510568231 0.012541435659 0.012639684603 0.012080911547 
0.014326576144 0.014176676981 0.012006810866 0.010392880999 0.0071680932306 0.0028517576866 0.0034466192592 0.0036325654946 0.0034693516791 
0.0040722601116 0.0061245388351 0.007685540244 0.0094953579828 0.013099504635 0.016687262803 0.020331509411 0.02277761884 0.023865019903 
0.022788528353 0.013720755465 0.011941922829 0.0032049531583 0.003274314804 0.0029748999514 0.0050865598023 0.0080460989848 0.012031179853 
0.016967991367 0.019748099148 0.019683174789 0.019659783691 0.021021470428 0.02181554772 0.022322591394 0.021738566458 0.019243316725 
0.014934457839 0.010807906277 0.0071628908627 0.0044665159658 0.0038218717091 0.0033980901353 0.0026437011547 0.0033199763857 0.0045875892974 
0.0061988052912 0.0087714893743 0.011437710375 0.014068776742 0.017023868859 0.019839866087 0.021445190534 0.021358761936 0.019964125007 
0.017853179947 0.018176902086 0.02040586248 0.024332949892 0.029467973858 0.023346817121 0.0057439878583 0.0041113961488 0.014423530549 
0.013211813755 0.017144149169 0.021128270775 0.024042619392 0.025977445766 0.025607237592 0.023992396891 0.022248536348 0.020890815184 
0.018031999469 0.015414331108 0.014123355038 0.013453758322 0.014603195712 0.014773394912 0.012797291391 0.009832540527 0.0071924887598 
0.0053218458779 0.0036561079323 0.0033047534525 0.0031035658903 0.0035516722128 0.0044967746362 0.0059438925236 0.0082216374576 0.011220185086 
0.014622363262 0.018058218062 0.022020416334 0.024389807135 0.024782188237 0.025561666116 0.026522621512 0.027178298682 0.027722043917 
0.026968652382 0.024112675339 0.020061191171 0.018155312166 0.01721246168 0.016078304499 0.015364387073 0.013808071613 0.010962178931 
0.0085381148383 0.0058842757717 0.0037403369788 0.0032756107394 0.0036676255986 0.0035675009713 0.0036984905601 0.0048227333464 0.006897054147 
0.008653932251 0.010337968357 0.013582584448 0.015728354454 0.01488979999 0.015353800729 0.021504353732 0.017709637061 0.0051096426323 
0.0042562615126 0.0030738105997 0.0021956958808 0.0029767185915 0.0046965037473 0.0070814620703 0.010129023343 0.013719893992 0.017114352435 
0.020237576216 0.023089949042 0.024511598051 0.024451360106 0.022217225283 0.015283090062 0.015729850158 0.017746662721 0.022833669558 
0.023958398029 0.0035126048606 0.003079439979 0.0049194497988 0.0080939913169 0.01194153633 0.016196804121 0.02101608552 0.024539876729 
0.023751763627 0.023005893454 0.022720301524 0.02332437411 0.024158267304 0.02413691394 0.021998811513 0.018684521317 0.014712161385 
0.010613090359 0.0062232697383 0.0034610850271 0.0027344468981 0.0051905806176 0.0059858830646 0.0046498868614 0.0043069999665 0.0051257763989 
0.01688856259 0.020384378731 0.016837781295 0.018589215353 0.019323963672 0.019356613979 0.018660156056 0.016577219591 0.015380867757 
0.014178960584 0.014868056402 0.015817627311 0.017119888216 0.016465069726 0.015446745791 0.014095027 0.01287113782 0.013433239423 
0.015213439241 0.011911594309 0.008440066129 0.0075173326768 0.0055298143998 0.0031068942044 0.0027538624126 0.0033454585355 0.0037811009679 
0.0042586945929 0.0055485111661 0.0079755252227 0.010704749264 0.013531795703 0.016431258991 0.0203365013 0.022353969514 0.023864621297 
0.025870339945 0.028461804613 0.032105941325 0.034082535654 0.033268999308 0.028956636786 0.023826939985 0.02013338916 0.018520615995 
0.016779216006 0.015391606838 0.013761616312 0.011602836661 0.0089941965416 0.0064978660084 0.0047696875408 0.0033375578932 0.0035897935741 
0.0043850084767 0.0052720895037 0.007376103662 0.0088785588741 0.01174652297 0.013747795485 0.013775304891 0.014070305042 0.013422299176 
0.012817409821 0.013177994639 0.014493956231 0.015398097225 0.015756024048 0.015257988125 0.01122030057 0.01184071973 0.012716178782 
0.011057998985 0.013144239783 0.012898018584 0.012143369764 0.012892113067 0.014952153899 0.015658730641 0.015354062431 0.0032409352716 
0.0035553190392 0.0032821728382 0.0022430622485 0.002025451744 0.0030400524847 0.004946664907 0.0077876690775 0.0114689162 0.015187901445 
0.018315471709 0.021376993507 0.024128869176 0.02568661049 0.026931900531 0.026759523898 0.024655165151 0.022414231673 0.019269770011 
0.016413947567 0.014392290264 0.012739911675 0.012345355935 0.015250226483 0.016619857401 0.01546582859 0.011954165995 0.0083162812516 
0.0061016781256 0.0047238557599 0.0034353402443 0.0023233310785 0.0025098912884 0.0042587178759 0.0075908312574 0.012648960575 0.019116928801 
0.02563357912 0.028379682451 0.027190890163 0.024904416874 0.025205804035 0.026265496388 0.025621050969 0.024393020198 0.021708242595 
0.018054904416 0.014236466959 0.010671754368 0.0064602363855 0.0058297063224 0.0069177835248 0.0073037710972 0.0055375099182 0.0048314747401 
0.0037439663429 0.024915887043 0.024355875328 0.013588266447 0.01262290962 0.013333342969 0.014483263716 0.015099815093 0.015572142787 
0.015235082246 0.014182318002 0.012930328026 0.011016106233 0.010209017433 0.010055691935 0.0084263468161 0.0067506246269 0.0071739479899 
0.0062260963023 0.0031163247768 0.0028198345099 0.0037850558292 0.0041995230131 0.0042539327405 0.0054383920506 0.0070037040859 0.0095348395407 
0.011777460575 0.014350481331 0.017178175971 0.018854521215 0.025510720909 0.029259415343 0.033596597612 0.036228645593 0.035379100591 
0.031714770943 0.027491131797 0.024705395103 0.021652270108 0.018900124356 0.015818536282 0.013175895438 0.010677325539 0.0086478050798 
0.0064704832621 0.0052222302184 0.004506398458 0.0039640758187 0.0033770953305 0.0031415366102 0.0029573668726 0.0036011761986 0.0049685770646 
0.0063283876516 0.0084861842915 0.010359073058 0.022147458047 0.01826851815 0.013885511085 0.012722908519 0.010888002813 0.011519220658 
0.012166045606 0.013247077353 0.014156905934 0.013912401162 0.013402467594 0.012049002573 0.01042515412 0.0083068571985 0.0072736865841 
0.006860063877 0.0053116800264 0.0052271354944 0.0068861315958 0.0067751761526 0.003716424806 0.0024857169483 0.0031869816594 0.0042197215371 
0.0041969548911 0.0044457525946 0.0059305876493 0.0077825714834 0.0096523687243 0.011315465905 0.01309741661 0.013987652026 0.0154396547 
0.016027411446 0.018539408222 0.021133460104 0.024867950007 0.028657697141 0.032829899341 0.03535303846 0.035483699292 0.034256223589 
0.032474301755 0.029970349744 0.026104165241 0.02123019658 0.016657585278 0.012955306098 0.010294917971 0.008104189299 0.0064041186124 
0.0052114571445 0.0050578685477 0.0044681318104 0.0036489774939 0.0028279200196 0.0014811987057 0.0038772849366 0.0039355456829 0.0051501099952 
0.006921749562 0.0089283613488 0.010594541207 0.0023520879913 0.0019640834071 0.0024279111531 0.0037124098744 0.0058756116778 0.0089583089575 
0.012724217027 0.016392372549 0.019966637716 0.023114675656 0.025152908638 0.027058955282 0.028671244159 0.02855331637 0.02655762434 
0.025214463472 0.02382452786 0.020671632141 0.01765611209 0.015265420079 0.013363079168 0.012430123053 0.011372248642 0.011119530536 
0.011906934902 0.011273322627 0.009702869691 0.0074166660197 0.0051655434072 0.0039576073177 0.0027348708827 0.0022552320734 0.0029006474651 
0.0046437098645 0.0078804995865 0.012821674347 0.020318616182 0.027645738795 0.029308347031 0.026585407555 0.024304611608 0.021333375946 
0.019065409899 0.023519137874 0.027867255732 0.028910126537 0.028727063909 0.028945380822 0.026538576931 0.023684814572 0.020054219291 
0.01688311249 0.012655414641 0.0091787893325 0.0081490157172 0.0074026365764 0.0065455907024 0.0063193542883 0.0048356037587 0.001834296505 
0.0039548338391 0.0031100665219 0.012208018452 0.012740490958 0.011705562472 0.010132116266 0.0084599079564 0.0067519783042 0.0058117541485 
0.0062144952826 0.0055302428082 0.0058905854821 0.0064454330131 0.0035353598651 0.0028814461548 0.0034712632187 0.0039777583443 0.0034323632717 
0.0037079469766 0.0045854654163 0.0057466602884 0.0068672229536 0.0085011171177 0.010122136213 0.012421507388 0.013177109882 0.015009460971 
0.016301494092 0.017511345446 0.018994860351 0.021272571757 0.024072274566 0.027283579111 0.030596800148 0.033420871943 0.034665301442 
0.035150416195 0.033953059465 0.031135482714 0.027585154399 0.017310870811 0.013210921548 0.010075087659 0.0078005688265 0.0062277978286 
0.0069079324603 0.0076427008025 0.0058086835779 0.0055008758791 0.0040488718078 0.0031914375722 0.0029691329692 0.0030220139306 0.0021908793133 
0.0022939443588 0.003177610226 0.0046132146381 0.0068418812007 0.0098072038963 0.013257111423 0.01702074334 0.021734239534 0.025206778198 
0.027010692284 0.028398925439 0.029962891713 0.029961686581 0.027678988874 0.02695119381 0.022281285375 0.018993252888 0.016720492393 
0.014815737493 0.012869937345 0.011410036124 0.0094792935997 0.0082688815892 0.0074872109108 0.0075479815714 0.0071190940216 0.0060371523723 
0.0044102305546 0.0029836224858 0.0022964286618 0.0025898716412 0.0034199135844 0.0061871320941 0.0087250927463 0.012466960587 0.01889128983 
0.025327796116 0.025775231421 0.022988503799 0.020217292011 0.017913213 0.01556680724 0.014162890613 0.017585480586 0.021548496559 
0.025866176933 0.030255381018 0.030937597156 0.028449604288 0.025993974879 0.022503692657 0.017903810367 0.013126086444 0.011065466329 
0.0092047033831 0.0077198604122 0.0071628238074 0.0062495488673 0.0064679086208 0.0054892315529 0.0049613523297 0.0029188564513 0.0089063355699 
0.0098434519023 0.0097454506904 0.0076407720335 0.0098512507975 0.0085958978161 0.011032098904 0.011810211465 0.01167948544 0.011229020543 
0.012922974303 0.014499133453 0.0146810757 0.012649307027 0.010936719365 0.0092145195231 0.0096468143165 0.010106947273 0.011640823446 
0.0027732609306 0.0040402621962 0.0055227288976 0.0075390641578 0.010201967321 0.013194366358 0.016886496916 0.022351037711 0.026921244338 
0.029403116554 0.031549274921 0.032863125205 0.031430821866 0.028690930456 0.025059640408 0.021271578968 0.017876595259 0.015714047477 
0.014557934366 0.013387250714 0.011022010818 0.0086997980252 0.0069350358099 0.0057234168053 0.0049977437593 0.0046050641686 0.003554464085 
0.0023779757321 0.0023060927633 0.0037650822196 0.0058560119942 0.0072094472125 0.0090448120609 0.016013139859 0.019825393334 0.020981542766 
0.018214737996 0.016202872619 0.014815841801 0.013026529923 0.011153898202 0.010265639983 0.011512422003 0.0046211504377 0.0046522486955 
0.023265812546 0.026290480047 0.0038809834514 0.0047603663988 0.0065590697341 0.0079589150846 0.0087739666924 0.0077806999907 0.0086019737646 
0.011300425977 0.011190295219 0.010661992244 0.0088016111404 0.0075590400957 0.0068611986935 0.006257627625 0.0061040595174 0.0067683844827 
0.007767518051 0.0086992857978 0.0088452165946 0.00810295064 0.0080105252564 0.0065531781875 0.0041890228167 0.0031769515481 0.0033616228029 
0.0032619296107 0.0031630278099 0.0034528002143 0.004052311182 0.0050411592238 0.0062370942906 0.0077367643826 0.0098048457876 0.011421223171 
0.013115391135 0.014301260933 0.014423752204 0.016487797722 0.018174875528 0.019988369197 0.021634206176 0.023377779871 0.025817096233 
0.02900367789 0.031453739852 0.0087962625548 0.012385027483 0.0096094869077 0.012121044099 0.011945185252 0.01589538902 0.019550956786 
0.021611096337 0.023271715268 0.024833163247 0.023137718439 0.019647020847 0.017563503236 0.013668485917 0.03257701546 0.032496765256 
0.031703174114 0.029812639579 0.02881195955 0.028082029894 0.026898927987 0.026046767831 0.022572472692 0.018114253879 0.013542225584 
0.009955261834 0.0074991928414 0.0088212899864 0.0115151098 0.0073807379231 0.0072770002298 0.005551320035 0.0039380709641 0.0043518976308 
0.0052475691773 0.0059615429491 0.0069704432972 0.0082633597776 0.0074227754958 0.011947209015 0.011859116144 0.012621161528 0.01371321734 
0.010408186354 0.0087055051699 0.009690111503 0.0080391773954 0.0074197468348 0.0051698465832 0.0035552470945 0.0022450622637 0.002273932565 
0.0030933113303 0.0033594318666 0.0039668474346 0.0051176398993 0.0062722177245 0.0075252335519 0.011997126974 0.0179818701 0.020352037624 
0.022348547354 0.023843646049 0.009494128637 0.0082398531958 0.0078506814316 0.0077082579955 0.0078110443428 0.0080146510154 0.0084935724735 
0.0091838138178 0.010528909042 0.020464310423 0.012853687629 0.015163276345 0.015524615534 0.013952529058 0.012608541176 0.011868079193 
0.010855044238 0.0097280656919 0.017636457458 0.022295648232 0.01804446429 0.01389742177 0.010174990632 0.015409271233 0.013732361607 
0.012800204568 0.0087690260261 0.0068212351762 0.0054830666631 0.0048992335796 0.0052948892117 0.0045038382523 0.0039136363193 0.003822962055 
0.003549982328 0.0027557064313 0.0021475085523 0.031783930957 0.033027011901 0.03255720064 0.030098861083 0.030244005844 0.0037748569157 
0.0034026978537 0.0049842838198 0.026851242408 0.024496905506 0.0030575178098 0.0064531699754 0.0090366052464 0.0080688362941 0.010168290697 
0.0051977485418 0.012502913363 0.013120749034 0.017583560199 0.016321811825 0.01645863615 0.015870645642 0.016082258895 0.021387679502 
0.01933353208 0.015121827833 0.0093207750469 0.0093818688765 0.014000865631 0.0089278956875 0.0070929569192 0.0058866529725 0.0064720255323 
0.0096295280382 0.010173288174 0.010868442245 0.011105257086 0.010640176013 0.017946384847 0.011897422373 0.0082219028845 0.013074271381 
0.0081231649965 0.0048943590373 0.015206650831 0.01447499264 0.014335045591 0.027872413397 0.029606577009 0.002178771887 0.0018226739485 
0.0023413451854 0.0029562388081 0.0043672220781 0.0031495357398 0.015521900728 0.014254940674 0.012221333571 0.011201941408 0.0089985094965 
0.007955333218 0.014800859615 0.01112120226 0.0073777241632 0.0083481231704 0.010303018615 0.012091278099 0.011863426305 0.011057932861 
0.0097233783454 0.011079440825 
Stress_Y 1 1064 double
0.03099857457 0.01486350596 0.00016252971545 0.0013915224699 -0.0055771335028 0.0020894398913 -0.0071583869867 -0.0075672403909 -0.0047207740135 
-0.0023029136937 -0.00087949167937 -0.0013622611295 0.00018697642372 0.0011426651618 0.0028947053943 0.004837218672 0.0056242705323 0.0066323438659 
0.0022655047942 -5.6785665947e-05 0.00076495658141 0.0017828794662 0.0048384033144 0.0077308285981 0.009819149971 0.0076337894425 0.001262140926 
-0.0030712625012 -0.0050864499062 -0.0055150683038 -0.0063311601989 -0.0064012166113 -0.0057256780565 -0.0057648080401 -0.0058703245595 -0.0067172613926 
-0.00844280608 -0.0084019377828 -0.0050397166051 0.0023805561941 0.01261706464 0.02077556029 0.004057017155 0.0028249369934 0.0030927516054 
0.0045551606454 0.0023617800325 -0.00016361301823 -0.0011426095152 -0.0019757016562 -0.0012503473554 0.0012770000612 0.0066126100719 0.011401680298 
0.012770828791 0.010552383028 0.0096898293123 0.01022161264 0.012697930448 0.016281858087 0.018441038206 0.018133912235 0.014906142838 
0.011756394058 0.0068442914635 -0.0013939404162 -0.0052227168344 -0.0074366745539 -0.0049488823861 0.0026333131827 0.010015269741 0.013130854815 
0.0122767305 0.013219859451 0.015121803619 0.020057654008 0.018701976165 0.0055783488788 -0.0016422673361 -0.0015308685834 0.0022085723467 
0.0085192909464 0.0081911534071 0.0081830248237 0.0081999162212 0.0094152130187 0.009754746221 0.010329794139 0.010822373442 0.010837830603 
0.011241300963 0.010319652036 0.0098066953942 0.010736220516 0.012507769279 0.013882284984 0.013067622669 0.014609195292 0.013621132821 
0.0085276290774 0.018259607255 0.0076804822311 0.0019350381335 0.00092552404385 -0.0025388104841 -0.0038260575384 -0.0056229666807 -0.0033018228132 
0.00071554840542 0.0031363605522 0.0040020784363 0.0028677380178 0.0037841312587 0.0053625828587 0.0069350702688 0.0083846952766 0.0077957590111 
0.0048449914902 0.0026857659686 0.0019880218897 0.0027993489057 0.0053103063256 0.006903977599 0.0080631673336 0.0060107242316 0.00082141417079 
-0.0027316592168 -0.0045870640315 -0.0051688309759 -0.0043660383672 -0.0035582834389 -0.003660883056 -0.0031387314666 -0.0031172081362 -0.0038590880577 
-0.0059118685313 -0.0065559949726 -0.0045952638611 0.0026080696844 0.01316712331 0.02251727134 0.024657888338 0.0027830875479 0.0040026078932 
0.0048512751237 0.0042402311228 0.0014376514591 -0.0011012678733 -0.0011446465505 0.00020507852605 0.0035863004159 0.010227481835 0.012308131903 
0.012672203593 0.011178049259 0.0091681620106 0.0089466143399 0.011214949191 0.01302910503 0.013454642147 0.014350539073 0.014556217007 
0.014952071942 0.012355248444 0.0043456056155 -0.0037805966567 0.00011616176198 0.0082364333794 0.014348080382 0.013776890002 0.011379698291 
0.0098223658279 0.0094358725473 0.013530721888 0.013653445058 0.0067822937854 0.0012065442279 -0.00024825305445 0.0024715107866 0.0080156298354 
0.014176704921 0.01495167613 0.01349176839 0.014573096298 0.015360815451 0.013218426146 0.014433745295 0.012891789898 0.011312411167 
0.009895359166 0.0096497517079 0.010305457748 0.011099815369 0.012474486604 0.012266294099 0.013461434282 0.012288725004 0.0089962463826 
0.0053597181104 -0.0027033071965 -0.00022403913317 0.0027663335204 0.0018198245671 -0.00046968919924 -0.00064060627483 3.2332678529e-05 0.0025967177935 
0.005373287946 0.0062832152471 0.0046660574153 0.0039964658208 0.0054191895761 0.0065217134543 0.0074708214961 0.0071361055598 0.006314272061 
0.0054151606746 0.0048405597918 0.0050633144565 0.0049974154681 0.0043592485599 0.0038511210587 0.00095050886739 -0.0013759849826 -0.0023580833804 
-0.0023394890595 -0.00091194279958 6.5867781814e-05 0.00035951266182 0.00066533370409 0.00094566907501 0.00080354837701 1.7238664441e-05 2.5100936909e-05 
-1.3568218492e-05 0.0039836447686 0.0085705304518 0.011515471153 0.015110991895 0.012602406554 0.0056779761799 0.0046496973373 0.0017253933474 
-0.0015121920733 0.0035174440127 0.01004900597 0.013891135342 0.013828353956 0.010845830664 0.0087498864159 0.0082800127566 0.0094478493556 
0.0066821179353 0.0040452820249 0.0029938935768 0.0034692585468 0.0090902633965 0.015817068517 0.017541322857 0.015804680064 0.014266693965 
0.014926141128 0.014985449612 0.014567230828 0.011801591143 0.010573911481 0.0097343493253 0.0091495607048 0.0093980561942 0.0093585299328 
0.0094206854701 0.0093385241926 0.010035878047 0.0099774003029 0.0081399939954 0.0062843230553 0.0049502858892 0.0057321465574 0.0070539717562 
0.0068946252577 0.0045548421331 0.0013884040527 0.0015025337925 0.0039520990103 0.0070159737952 0.011266700923 0.012875836343 0.012081115507 
0.01082666032 0.0092340726405 0.0089730927721 0.0097892107442 0.010469591245 0.010708969086 0.011432964355 0.012943303213 0.014326943085 
0.014229405671 0.0095894774422 0.0061059459113 0.0048997122794 0.0051804920658 0.0041185407899 0.0099550504237 0.0073203472421 0.0061530661769 
0.0048721637577 0.0032548904419 0.0010820877505 -0.00010436917364 -0.00045961647993 5.8218374761e-06 0.0012511627283 0.0026724366471 0.0031399868894 
0.0034538658801 0.0040423055179 0.0040566651151 0.0044662053697 0.0041301683523 0.0036913990043 0.0045161480084 0.003423382761 0.0051815095358 
0.0074621899985 0.0048365821131 0.0027871218044 0.0017545312876 0.0016482502688 0.0023151866626 0.0041189845651 0.0066306511872 0.0074792755768 
0.0053808242083 0.0043559069745 0.005096886307 0.0067175268196 0.0073509891517 0.0072650853544 0.0070656477474 0.0073439106345 0.0072271996178 
0.0072828931734 0.0054354281165 0.0035593393259 0.0038771410473 0.0058168722317 0.0059958584607 0.005748921074 0.0054408060387 0.0057922569104 
0.0032779278699 0.0045037902892 0.010300777853 0.01443416439 0.013181898743 0.010302329436 0.0082809468731 0.0076375384815 0.0076544219628 
0.0070865680464 0.0073788124137 0.0078403539956 0.0083395522088 0.0069375908934 0.0061469026841 0.0055438433774 0.0051873447374 0.0093981297687 
0.016789129004 0.01806714572 0.01651468873 0.015585111454 0.015609107912 0.015765950084 0.014364816248 0.011438293383 0.010044405237 
0.0092673087493 0.0087775206193 0.0085128322244 0.0079515874386 0.0073243686929 0.0068927318789 0.0076435608789 0.0074190925807 0.0071227014996 
0.0067745931447 0.0068473047577 0.0084917517379 0.010008178651 0.01036871504 0.0083701256663 0.006069871597 0.0060093202628 0.0083005232736 
0.010176917538 0.011716156267 0.011720257811 0.010816472583 0.0096800345927 0.0091223763302 0.0088614076376 0.0078812772408 0.0082485647872 
0.0091944411397 0.01084176451 0.013461668044 0.014945367351 0.01355812978 0.01076387614 0.0079571744427 0.0065913987346 0.0055459509604 
0.0060708886012 0.010523309 0.013477490284 0.012573221698 0.010063474998 0.007712515071 0.01083637774 0.0081869196147 0.0066002486274 
0.0045797666535 0.0050647207536 0.0079619474709 0.010892659426 0.012591991574 0.012014403008 0.0090567227453 0.0070905797184 0.0081829633564 
0.0083473417908 0.0045631350949 0.0033152278047 0.0021397636738 0.0013432455016 0.0011360523058 0.0016027635429 0.0027617062442 0.0040140985511 
0.0048218593001 0.0057273427956 0.0063164294697 0.0064109191298 0.0074337203987 0.0080475276336 0.0081077935174 0.0086135249585 0.0067926193587 
0.0052661057562 0.00430704467 0.0024576308206 -0.00017573953664 0.0013701979769 0.0030893408693 0.0054049179889 0.0068173329346 0.0067281443626 
0.006939349696 0.0067821363918 0.0066590304486 0.0055381227285 0.0037936370354 0.0026147756726 0.0025394745171 0.0034819140565 0.0058165676892 
0.00818819087 0.0079668825492 0.005959442351 0.0040520653129 0.0071887634695 0.0080158542842 0.0074609206058 0.0076511157677 0.0080105839297 
0.0080543970689 0.0077430089004 0.0068195620552 0.0042088958435 0.0045321029611 0.0059707900509 0.0058755255304 0.0056667691097 0.0050468696281 
0.0050249504857 0.0053564580157 0.0037896526046 0.006831496954 0.0066540804692 0.007057949435 0.0073113152757 0.0077812285163 0.0081864176318 
0.0078654950485 0.0075733889826 0.0076075964607 0.0074990028515 0.0099892988801 0.014695927501 0.017812978476 0.017122931778 0.016741257161 
0.017376009375 0.016283307225 0.014262657613 0.011555752717 0.010008236393 0.0089129135013 0.0084771206602 0.0074099539779 0.0068356315605 
0.0057103452273 0.005242543295 0.0052843508311 0.0056879268959 0.0076178116724 0.0087159955874 0.010570558719 0.012491425499 0.013128629886 
0.01209383551 0.010883666575 0.011561288498 0.012343869545 0.012551007792 0.011543898843 0.010663628578 0.0095877787098 0.0092965420336 
0.0089890714735 0.0089425351471 0.0086550796404 0.0080524059013 0.0072682993487 0.0063223144971 0.0058558573946 0.0065096570179 0.0079038208351 
0.010428638197 0.013078980148 0.014936937951 0.0066670579836 0.005571606569 0.0063735628501 0.0065179714002 0.0065418165177 0.006983417552 
0.0070920572616 0.007503202185 0.0078062480316 0.0078100143 0.0082276882604 0.0086838072166 0.0090886671096 0.0090609239414 0.010676449165 
0.013634767383 0.015768641606 0.016436122358 0.016508737579 0.017631450668 0.016889180988 0.014059413224 0.01154327672 0.010253993794 
0.0089276190847 0.007741950918 0.0069104591385 0.0059016309679 0.0048341657966 0.0041018752381 0.0038892044686 0.0038751475513 0.0046790712513 
0.0046216333285 0.0061728060246 0.0074410047382 0.0088011808693 0.010250715539 0.012297863141 0.014278402552 0.015369823202 0.015638599172 
0.015955593437 0.016287848353 0.015642758459 0.013337400742 0.010954842903 0.0098450174555 0.0092693446204 0.0090926308185 0.0090994182974 
0.0088665485382 0.0088113723323 0.0081738922745 0.0070473230444 0.005582804326 0.0035423426889 0.0054937331006 0.0050380411558 0.006761430297 
0.010419244878 0.013466429897 0.013656148687 0.0042380937375 0.0037594621535 0.0032586148009 0.0027066704351 0.0025362647139 0.0030024833977 
0.0038531485479 0.0048751500435 0.0065636886284 0.0081057185307 0.0086228959262 0.0095105459914 0.010542200878 0.010896605439 0.010550512001 
0.011034855619 0.012004255317 0.0095685543492 0.0073805609718 0.0058902883902 0.0037595150061 0.0020326685626 0.00045585015323 0.00067046488402 
0.0023372345604 0.0041275429539 0.0062786093913 0.0078107723966 0.0077708167955 0.008043111302 0.007535263896 0.0069037661888 0.0058747651055 
0.0045867855661 0.0042580063455 0.004803404212 0.0071328957565 0.0091435210779 0.0079765301198 0.0057163718157 0.0047457446344 0.0037201170344 
0.0038310899399 0.0039739366621 0.0063406876288 0.0085103092715 0.008734610863 0.0087170749903 0.0076483613811 0.007742119953 0.0076383785345 
0.0075635872781 0.0069458917715 0.0054225758649 0.0064577641897 0.0078394562006 0.0073705599643 0.0070976251736 0.0052330158651 0.0030522497837 
0.0046102297492 0.0046593970619 0.0074765454046 0.007421401795 0.0076137213036 0.0085122417659 0.0090477811173 0.0092197339982 0.0098278876394 
0.012367647141 0.014307547361 0.014918641187 0.017183799297 0.016376186162 0.014016134664 0.012118363753 0.010310335085 0.0085705639794 
0.0077692633495 0.006560456939 0.0053545203991 0.0041638528928 0.003676144639 0.0031167906709 0.0029654456303 0.0031420122832 0.0039487392642 
0.0038385405205 0.0050526214764 0.0067289811559 0.0082128690556 0.0096189016476 0.011507872492 0.013423899189 0.015465209261 0.017126565799 
0.018922839314 0.019677868113 0.01936872676 0.017359340563 0.0097360378131 0.0093879038468 0.0089951260015 0.0090152649209 0.0091077517718 
0.015551073477 0.014264430851 0.0090423226357 0.0086551951244 0.0072890026495 0.005204685498 0.0033814441413 0.0042131585069 0.0040596001782 
0.0039423564449 0.0039947037585 0.0038748504594 0.0039846058935 0.0044456743635 0.0049911867827 0.0057150977664 0.0078929746523 0.010124087334 
0.011637778953 0.013395229355 0.014549248852 0.014470040798 0.01491746027 0.014782050624 0.012481804006 0.010030322708 0.0076154563576 
0.0055839344859 0.0032397382893 0.0013234476792 1.0243448742e-05 0.00023057196813 0.0012259598589 0.00298528024 0.0059298961423 0.0083427960053 
0.0092284651473 0.0090919900686 0.008879872039 0.0088443271816 0.0081078736112 0.0078560980037 0.0072333435528 0.0067819263786 0.0074404161423 
0.0087298825383 0.007097128313 0.0053231390193 0.004570921883 0.0044394526631 0.0041956440546 0.004760872107 0.0038781152107 0.0041886684485 
0.0061355778016 0.0095773870125 0.010702189058 0.0095403464511 0.0081969788298 0.0068353521638 0.006505635567 0.0062457225285 0.0064300475642 
0.0064549348317 0.0078803813085 0.0096006942913 0.0092904334888 0.008924793452 0.0064885593019 0.0045328387059 0.0045863371342 0.013072678819 
0.010358385742 0.0079500162974 0.0054995496757 0.0043863495812 0.0033164585475 0.0051420861855 0.0083453115076 0.010940893553 0.012996780686 
0.010584213771 0.0076771960594 0.0068078404292 0.0059692589566 0.0064282366075 0.0062259607948 0.0072314087301 0.0071012163535 0.0072260485031 
0.0042399456725 0.0049623227678 0.0053216260858 0.0054960115813 0.0059338924475 0.0062318467535 0.0065998313949 0.008565666154 0.011313725263 
0.014875504188 0.018153185025 0.01900020428 0.017755163833 0.014170319773 0.012618852779 0.01135010086 0.0096273478121 0.0074443877675 
0.0052808662876 0.0034683754202 0.0013500233181 0.00021594087593 0.00049458735157 0.0009402310825 0.0062239761464 0.0088434629142 0.010165712796 
0.0103696445 0.010573747568 0.011148393154 0.011235486716 0.011215072125 0.010521952063 0.0083218393847 0.0077800899744 0.0066998745315 
0.0050618788227 0.0046650897712 0.0047097485512 0.005114691332 0.0054996819235 0.0063387257978 0.0087121352553 0.0037317394745 0.0019719323609 
0.012204285711 0.014408291318 0.0042699784972 0.0055020963773 0.0098925950006 0.011966804042 0.012613117695 0.0097741568461 0.007559417747 
0.0061458121054 0.0069325487129 0.0072221956216 0.0078293038532 0.0085542518646 0.0089740119874 0.0096572553739 0.010955788195 0.012539329007 
0.012848793529 0.012786966749 0.01240871381 0.013617044315 0.015350558795 0.016249284148 0.015792440623 0.014149878174 0.012588724494 
0.010444097221 0.0089235026389 0.0078156581149 0.0060984496959 0.0046521741897 0.0036975052208 0.0029958933592 0.002913572127 0.0022955050226 
0.0021040262654 0.0031781489961 0.0033914181404 0.0046123685315 0.0059514385648 0.0073605077341 0.0085864141583 0.0099009443074 0.011616675183 
0.013581936248 0.01535061188 0.0061332294717 0.0072116618976 0.0051514194347 0.0051837554201 0.004674973432 0.0043027340434 0.0049655386247 
0.0056345472112 0.0081645706668 0.012131514028 0.011166266166 0.0079592643306 0.0056727342308 0.0047166463919 0.0173480995 0.019482659176 
0.021005051211 0.02055435814 0.019063943997 0.016569631174 0.013345609419 0.011543973349 0.010870050639 0.0096514541656 0.0091533754021 
0.0092621138319 0.009244906716 0.0083894720301 0.0038190050982 0.0093619655818 0.0086247865111 0.0078414808959 0.0060701100156 0.0031320003327 
0.005085544195 0.0081703774631 0.010393025354 0.011233950965 0.011431429535 0.0063451956958 0.008933913894 0.011782480404 0.012799176387 
0.0079611437395 0.0071386308409 0.007185311988 0.013121501543 0.015588507988 0.015031716786 0.014009739272 0.012429173104 0.010844573379 
0.0096163675189 0.0075615081005 0.005533399526 0.004051968921 0.0030793545302 0.0024394060019 0.0016697852407 0.0070474026725 0.0082555254921 
0.0093405339867 0.010816095397 0.0071146693081 0.0071309949271 0.0077980514616 0.0081144515425 0.0088143581524 0.0097334058955 0.010440687649 
0.011419232935 0.010795702226 0.0096957227215 0.0090544745326 0.0078630959615 0.006677870173 0.005609929096 0.0051016653888 0.00512432307 
0.0051867528819 0.0065111261792 0.0084809996188 0.010410271585 0.0097503149882 0.0093673774973 0.0094910496846 0.0068354383111 0.0047860848717 
0.0041233934462 0.0008569083875 0.0009227868868 0.00098654080648 0.0014624706237 0.0022434759885 0.0033061348367 0.0048501039855 0.006952975411 
0.0093742236495 0.010757585056 0.011595545337 0.019043654203 0.021160615608 0.020709581673 0.018801961094 0.015864467248 0.004289705772 
0.0050377827138 0.0064861974679 0.011274090037 0.010604846291 0.012546118349 0.0070511917584 0.0082494812086 0.0069897691719 0.0072539476678 
0.013706105761 0.0074018682353 0.0039600520395 0.0054967459291 0.0073390770704 0.011533660814 0.012622615322 0.0076378872618 0.0087088905275 
0.0092327119783 0.0071210227907 0.0059568765573 0.0060703777708 0.0044860495254 0.001793179661 0.0014231984969 0.0013822143665 0.0018355397042 
0.006247736048 0.0066704992205 0.0072400732897 0.0084057692438 0.0098880855367 0.0066472617909 0.0057958615944 0.0063775158487 0.0071951979771 
0.0053063114174 0.0041759968735 0.0074188346043 0.0071714767255 0.0067972871475 0.01308677718 0.016209648922 0.0042227669619 0.0038021798246 
0.0036423862912 0.0037493575364 0.0030441449489 0.0036431436893 0.0056717544794 0.0041022244841 0.00107938773 0.0025463148486 0.0022570432629 
0.0018914843677 0.008844611235 0.0086492421106 0.014264499769 0.014418608509 0.0017756567104 0.0026776208542 0.0026527598966 0.0020529869944 
0.0023194509558 0.0015547126532 
Stress_Z 1 1064 double
0.022252969444 0.024250760674 0.020769489929 0.016303744167 0.012319262139 0.0072432984598 -0.0031899916939 0.00010093284072 0.002149380045 
0.003356237663 0.0032833851874 0.0026901259553 0.0021890720818 0.0014299916802 0.0011633262038 0.0012950565433 0.0014365173411 0.0018525967607 
0.0012011390645 0.0029130727053 0.0031688648742 0.0064579243772 0.010847526602 0.015486910939 0.020454850048 0.018367085606 0.010436249897 
0.0049170525745 0.0014946423471 -0.00064205896342 -0.0025346786715 -0.0028616031632 -0.0024735473562 -0.0023751852568 -0.0019480804913 -0.0020642706659 
-0.002302848734 -0.0017023081891 -0.00033925293246 0.0032264844049 0.0087454989552 0.012949811295 -0.00033353886101 -0.0026415048633 -0.003651376348 
-0.0035672911908 -0.005336211063 -0.0074936412275 -0.0089254593477 -0.0099249398336 -0.0092632267624 -0.0072511173785 -0.003352034837 0.00069939397508 
0.0046825520694 0.0072725568898 0.011287402362 0.015965064988 0.022996366024 0.030754484236 0.034514985979 0.031042283401 0.02173040621 
0.012403248809 0.0056441389024 0.0024573355913 0.00018737619394 -0.0027754523326 -0.0022903420031 0.0012872972293 0.0046886778437 0.0058380840346 
0.005758757703 0.0065804254264 0.0072429757565 0.013408552855 0.014313043095 0.0055467411876 0.0061418954283 0.0089270388708 0.0099540837109 
0.0047419643961 0.0034136185423 0.0037115102168 0.0053404578939 0.0074393777177 0.0068691424094 0.009254489094 0.013606743887 0.018209699541 
0.021006928757 0.021172007546 0.020323505625 0.019451567903 0.017374638468 0.014737544581 0.011001007631 0.0087313707918 0.0063679823652 
0.0033369378652 0.017740212381 0.019940992817 0.020727837458 0.023181950673 0.021262157708 0.023203190416 0.021126110107 0.018567917868 
0.01494780276 0.010969432071 0.008430284448 0.0060033253394 0.0053198635578 0.0047126128338 0.003953857813 0.004150503315 0.004594635684 
0.005745746661 0.0070061134174 0.0077129085548 0.0090176025406 0.012432836927 0.016789089888 0.020072354004 0.020493622869 0.018204646185 
0.016309451312 0.015080505051 0.014118820429 0.013398357667 0.011872605421 0.0095863128081 0.0080473246053 0.0066492012702 0.0059796688147 
0.0054703657515 0.0050190817565 0.0041749519296 0.0045864367858 0.0059263142757 0.0070175719447 0.010905368254 0.0048938128166 0.0051049175672 
0.0054133255035 0.006370794028 0.0064483280294 0.0064666336402 0.0071651502512 0.0080332299694 0.0098529886454 0.013092292473 0.013999498449 
0.015984680504 0.017464729026 0.018236691132 0.020803885534 0.024448044598 0.026629429311 0.027143303305 0.02841354534 0.028541013598 
0.026079855859 0.022176552564 0.017676183954 0.013440825976 0.01345466543 0.012335834093 0.0089113879949 0.0037919303868 0.0017472166801 
0.0015058671124 0.0022491361015 0.0074665686116 0.0074818925932 0.0064844093286 0.0067306100391 0.0064247050323 0.0055898306891 0.0066464091651 
0.01095286943 0.014661505818 0.018171040341 0.023459404707 0.025650789961 0.024890432134 0.02609712258 0.025044362992 0.0227284953 
0.020564116538 0.019184453413 0.018162682652 0.016398290172 0.014512749389 0.011857189238 0.0094695333391 0.007039017044 0.0063499105163 
0.0060739936307 0.014249279164 0.01484131813 0.026576859877 0.029079550877 0.027255563065 0.02534150891 0.021607225761 0.01675600186 
0.012106271461 0.0081929825246 0.0048515629023 0.0030740080401 0.002926108893 0.0023552428465 0.0024791057222 0.0028732963838 0.0039498438127 
0.0057749282569 0.0078628361225 0.010734229349 0.014693413861 0.019189581275 0.021257283166 0.018889533356 0.017881801352 0.017586324364 
0.017068212852 0.015922173858 0.013342916034 0.010134536773 0.0071991421282 0.0046089128591 0.0028234545607 0.0020352390129 0.0028856864665 
0.0028067701496 0.0038996024523 0.0065892138518 0.012369542383 0.020645130426 0.023558463901 0.023242440075 0.02297241427 0.012812758796 
0.012050848454 0.011859217659 0.011455798522 0.0093293264508 0.0071131754667 0.0039972644299 0.0026831459254 0.0038431996945 0.006180817727 
0.004703280516 0.0052383705042 0.0065419706516 0.0077352146618 0.011563122272 0.01610275358 0.019209658727 0.021888650954 0.023838726804 
0.026158953086 0.027548177168 0.026939978823 0.024900555611 0.023765880615 0.022316381335 0.019932614639 0.018550196663 0.017321620136 
0.015374413691 0.012784587219 0.010678950697 0.0085540935397 0.005620171316 0.0041531790048 0.0032251414377 0.0030898686964 0.0033137404826 
0.0041170953773 0.0050454586744 0.0054264548235 0.0070393290371 0.0093359723687 0.010915483348 0.013519806787 0.016343597323 0.017493324354 
0.017634596676 0.018082415685 0.020120149478 0.022930499166 0.02533781901 0.026221090928 0.02694455348 0.027080979198 0.024977911264 
0.021537847817 0.017859209329 0.016373619437 0.014134759083 0.0098817767575 0.011197002605 0.007856679149 0.0049652210437 0.023614274338 
0.022963669151 0.022307539359 0.020593456924 0.020036693662 0.020418424159 0.020636685193 0.02000051178 0.018003050238 0.014210060239 
0.010158196092 0.0069074328057 0.0043980400078 0.0039472775534 0.0043807816692 0.0056271352805 0.010078711435 0.012924772687 0.018478948623 
0.021322334185 0.0257176999 0.026618996635 0.02716355212 0.026250448078 0.02327445522 0.018629996106 0.014461064711 0.011389232241 
0.0071388646029 0.0039687701501 0.0028403997421 0.0028287530877 0.0028620623052 0.0030663525686 0.0039916061796 0.0066285235807 0.0097771352157 
0.012979449704 0.015201707371 0.01944892481 0.022249652073 0.025144817308 0.023710399866 0.023227930069 0.022583980113 0.01874999702 
0.0038167876191 0.0043524992652 0.0094613712281 0.009463169612 0.0074309296906 0.0052229156718 0.0035445261747 0.0031832114328 0.0038655588869 
0.0039004671853 0.0049778777175 0.0051498622634 0.0050814002752 0.0046524112113 0.0057811685838 0.007769738324 0.010497041047 0.016225300729 
0.022035842761 0.022021910176 0.022081846371 0.024250606075 0.026304520667 0.027272596955 0.02638358064 0.024668034166 0.02379280515 
0.022467041388 0.02033473365 0.018840171397 0.017044069245 0.014807952568 0.012536337599 0.011109901592 0.0084605105221 0.0052291085012 
0.0036008846946 0.0028831674717 0.0032741106115 0.0036094328389 0.0047357259318 0.0060733961873 0.007029267028 0.008325858973 0.010028268211 
0.011260216124 0.013113003224 0.014664622955 0.015813015401 0.016160702333 0.016594303772 0.017945095897 0.023102067411 0.024113513529 
0.02458531782 0.023656304926 0.022784253582 0.021403422579 0.018974745646 0.016649534926 0.013911440037 0.01119085867 0.0087637417018 
0.0069804256782 0.0068304268643 0.0074475617148 0.0070524220355 0.0056719197892 0.00364294881 0.014581039548 0.012335970066 0.01053853333 
0.0073234564625 0.0068815886043 0.0057933675125 0.0051394030452 0.0051888544112 0.0060852165334 0.0054850187153 0.0041991076432 0.021117940545 
0.018328411505 0.022814404219 0.022333759815 0.02184494026 0.021481426433 0.021734796464 0.022208161652 0.022077850997 0.020295130089 
0.016620596871 0.012707123533 0.0091590275988 0.0063087940216 0.0057080956176 0.0063240085728 0.0061938459985 0.0051228068769 0.0046375710517 
0.004945515655 0.0067974934354 0.0087370416149 0.010589562356 0.015863787383 0.018152736127 0.018302377313 0.01766423136 0.016850762069 
0.017212400213 0.018410904333 0.020098241046 0.021146304905 0.021191649139 0.021230215207 0.021566271782 0.021602809429 0.02020454593 
0.017234193161 0.013558648527 0.0097069516778 0.005664980039 0.0031694949139 0.0036215023138 0.0035296678543 0.0052035255358 0.0083916271105 
0.011587148532 0.01366814319 0.015879509971 0.018062645569 0.022209016606 0.025759261101 0.022579493001 0.017728513107 0.020057234913 
0.02071467042 0.0031684627756 0.0038122572005 0.0032537847292 0.0031379978172 0.0037668996956 0.004474661313 0.0048838905059 0.004713691771 
0.0049511087127 0.0063461679965 0.0088751250878 0.012214819901 0.017291985452 0.020297421142 0.020582878962 0.021220374852 0.02379158698 
0.027140825987 0.028290912509 0.027328623459 0.025755003095 0.024480659515 0.023204550147 0.021243480965 0.019006172195 0.017077054828 
0.014564747922 0.012306041084 0.010620003566 0.0085363741964 0.0032730794046 0.0029265440535 0.0030422057025 0.0035132996272 0.0045754224993 
0.0057964026928 0.0069082383998 0.0088407695293 0.0098623028025 0.010758933611 0.011463589966 0.01260841731 0.01375558041 0.014689439908 
0.015097375028 0.015907699242 0.016386702657 0.01610600017 0.018187176436 0.020095344633 0.020575238392 0.021692490205 0.022874994203 
0.022506428882 0.02044762671 0.019793188199 0.004245380871 0.0050163716078 0.0032263011672 0.0032248811331 0.0030297448393 0.0031972692814 
0.0033738568891 0.0039686816745 0.0042526046745 0.0042714215815 0.0050926823169 0.0069494443014 0.0095784747973 0.012731883675 0.016694577411 
0.019152220339 0.018148038536 0.018828807399 0.022515295073 0.027630103752 0.029620554298 0.027318011969 0.025509057567 0.024677213281 
0.023115858436 0.020299980417 0.018421743065 0.016465758905 0.014049682766 0.011300853454 0.009073574096 0.0068862768821 0.0053789136 
0.0038123219274 0.0039146067575 0.0034534423612 0.0032548308372 0.0031058632303 0.0034132860601 0.0038298177533 0.0046514510177 0.0059877256863 
0.0077309636399 0.0090617155656 0.0090744011104 0.0091364979744 0.010343193077 0.011847130954 0.01296369452 0.013620604761 0.014234094881 
0.015023746528 0.014824234881 0.014318570495 0.015904376283 0.017152186483 0.019001366571 0.020402258262 0.020597076043 0.020785512403 
0.02043431066 0.019047476351 0.016542989761 0.021038657054 0.021586671472 0.021654704586 0.021260900423 0.021211475134 0.021610364318 
0.021600302309 0.020557614043 0.01856701076 0.015549318865 0.011827177368 0.009076885879 0.007581836544 0.0071420422755 0.0067673455924 
0.00639013201 0.0057888641022 0.0050289840437 0.0046246936545 0.0051630847156 0.006036461331 0.0083009358495 0.01194811333 0.015183714218 
0.016853904352 0.016366802156 0.015541091561 0.015792641789 0.016527794302 0.018114497885 0.019252004102 0.019551800564 0.019103562459 
0.017919424921 0.017657425255 0.018545281142 0.01950554736 0.018129330128 0.014613587409 0.010895762593 0.0081098843366 0.0055709616281 
0.0047913864255 0.0036362654064 0.0044152135961 0.0051818466745 0.0051598590799 0.0059598432854 0.0069481902756 0.0098586678505 0.012588072568 
0.014153152704 0.015202829614 0.016973376274 0.020165011287 0.020710371435 0.018763747066 0.015707960352 0.01438079495 0.013214541599 
0.016075054184 0.017568115145 0.0034235760104 0.004295965191 0.005293676164 0.0073766610585 0.0098362676799 0.012473029085 0.015304383822 
0.017822392285 0.017716038972 0.018114347011 0.026838338003 0.02896810323 0.027343694121 0.025499820709 0.023550281301 0.020982999355 
0.018622983247 0.016794912517 0.015057012439 0.012674424797 0.010313441046 0.0079934326932 0.006753266789 0.0050778598525 0.0045760334469 
0.0038863602094 0.00355429505 0.0033547971398 0.0031618895009 0.0030942829326 0.0032622863073 0.0035588550381 0.0041567431763 0.0051097883843 
0.0067328158766 0.0076091215014 0.0077121690847 0.0070466841571 0.01064812392 0.012208450586 0.012867420912 0.013181309216 0.013761182316 
0.021597709507 0.020496325567 0.013525886461 0.013387547806 0.014144871384 0.015832122415 0.017910065129 0.018418155611 0.01863107644 
0.019434543326 0.019887510687 0.019540918991 0.019425641745 0.0197274331 0.01977985166 0.019139714539 0.018568061292 0.017052700743 
0.013437479734 0.010782631114 0.0088837603107 0.0076597090811 0.0071600233205 0.0057487655431 0.005374328699 0.0047789928503 0.0045057167299 
0.0046919565648 0.0055298996158 0.0081795025617 0.01059187483 0.012883685529 0.013246481307 0.013148436323 0.014332501218 0.015766477212 
0.017229421064 0.018952885643 0.020390070975 0.020843984559 0.019905958325 0.018700454384 0.01660201326 0.016072303057 0.016308289021 
0.01647545211 0.014132584445 0.011294783093 0.0089160520583 0.0073000122793 0.0057901819237 0.0053225615993 0.0046853376552 0.0041849827394 
0.0048942342401 0.0074396263808 0.0083715990186 0.0075102620758 0.0079052792862 0.0090620797127 0.010159382597 0.011290590279 0.01297413744 
0.01466497127 0.015672206879 0.016326121986 0.015849130228 0.016557717696 0.016218015924 0.016666267067 0.013207773678 0.016950719059 
0.013319340535 0.010849580169 0.0068647684529 0.0071726669557 0.0034053062554 0.0031363135204 0.0035405261442 0.0035126204602 0.0042177536525 
0.0046181445941 0.0045171868987 0.0040348153561 0.0032584259752 0.0034742194694 0.0036278341431 0.0036056942772 0.0032003517263 0.003521374194 
0.016688229516 0.017103852704 0.017124697566 0.017338788137 0.01777436398 0.017757963389 0.017176222056 0.017068374902 0.016156399623 
0.013845860958 0.01149546355 0.010107800364 0.0080735990778 0.0042626280338 0.0039779138751 0.0043607489206 0.0043064779602 0.0041495091282 
0.0042205750942 0.0052274027839 0.006792425178 0.0089286575094 0.010343290865 0.010425997898 0.014833336696 0.016501391307 0.018331514671 
0.020449481905 0.022666895762 0.024587251246 0.024553740397 0.022197930142 0.01861929521 0.014460061677 0.014293961227 0.013566556387 
0.011078756303 0.0092351315543 0.007671196945 0.0064481790178 0.0053131380118 0.004781881813 0.015518693253 0.013006655499 0.012038434856 
0.010508494452 0.0074327234179 0.018604297191 0.018726969138 0.020400159061 0.018345683813 0.015568347648 0.011409892701 0.010380864143 
0.0099376747385 0.0039498112164 0.0053952992894 0.0068871406838 0.009033956565 0.011335109361 0.013297845609 0.015064824373 0.016757704318 
0.017665605992 0.019230339676 0.020652819425 0.022677371278 0.023542318493 0.027213441208 0.028187198564 0.02604057081 0.023589668795 
0.020869681612 0.018772566691 0.017227360979 0.015802435577 0.014288270846 0.012571270578 0.010595320724 0.0089871278033 0.0071594435722 
0.0063002845272 0.0058848853223 0.0045956089161 0.0036158580333 0.0034844779875 0.0030962054152 0.0029699055012 0.0030556956772 0.0032890338916 
0.003819234902 0.0044478052296 0.011545054615 0.004213117063 0.0031023626216 0.0045681465417 0.0045432322659 0.0047902362421 0.0052199214697 
0.005108574871 0.0068564014509 0.0085570113733 0.0066139050759 0.005842988845 0.0070244115777 0.0077470489778 0.0053703230806 0.0058774752542 
0.0068174088374 0.0067520416342 0.0064559951425 0.0070119933225 0.0090414015576 0.0096104834229 0.010975961573 0.012024560012 0.012663424015 
0.013136291876 0.013230075128 0.013425884768 0.0038415235467 0.013508682139 0.014053198509 0.013922424987 0.014288697392 0.017582206056 
0.018435945734 0.018985984847 0.017903428525 0.014668708667 0.016042977571 0.002148915315 0.0020632981323 0.0031549956184 0.0052898600698 
0.0041567264125 0.0041259680875 0.0038603777066 0.024591572583 0.028384804726 0.028254365548 0.024633985013 0.020908758044 0.018524307758 
0.017371388152 0.015988122672 0.014960927889 0.01402723603 0.012656168081 0.011011361144 0.0055510899983 0.0031176342163 0.0030169331003 
0.0031492018607 0.0034008845687 0.0052131852135 0.0064169042744 0.00828358531 0.010249169543 0.012472312897 0.014530266635 0.015936503187 
0.016745854169 0.016753785312 0.0033786995336 0.01465821825 0.013805311173 0.012737620622 0.010930850171 0.0089771300554 0.0074889035895 
0.006097713951 0.0051591270603 0.0035563793499 0.010606837459 0.01202515047 0.013139996678 0.013627050444 0.0037704620045 0.0037754359655 
0.0039761764929 0.0076161255129 0.0086464639753 0.0096002845094 0.010865098797 0.01170013193 0.01300456468 0.014434814453 0.01564947702 
0.016842788085 0.018440164626 0.020883036777 0.006946047768 0.0086831832305 0.010288942605 0.0086948452517 0.011929806322 0.014092668891 
0.014721025713 0.014947164804 0.013932063244 0.011125651188 0.024356333539 0.015232829377 0.014895176515 0.015745902434 0.016086410731 
0.027913488448 0.015843112022 0.0040123285726 0.0048073776998 0.0065606185235 0.0058813877404 0.0041578724049 0.015281277709 0.014793958515 
0.012811689638 0.0062521938235 0.0056710145436 0.0068746204488 0.0035079207737 0.0071872798726 0.0084671769291 0.0097664250061 0.010330767371 
0.0084724603221 0.010326256044 0.012130178511 0.014092510566 0.015876434743 0.020093796775 0.019660798833 0.020093442872 0.02228230238 
0.023006232455 0.023315623403 0.0033808336593 0.00341334939 0.003234826494 0.0071434215643 0.0052713290788 0.014192779548 0.01561271213 
0.014912607148 0.014606619254 0.01736266911 0.016237486154 0.0034313232172 0.0039401920512 0.0062688454054 0.0081804478541 0.0092933224514 
0.0090219946578 0.01383055374 0.014337708242 0.028161307797 0.024818262085 0.0058744251728 0.0052341697738 0.0043117743917 0.0063041695394 
0.0078173307702 0.0063285143115 
Stress_XY 1 1064 double
0.0070888623595 0.0010364820482 0.0006523586344 -0.0017097530654 -0.0024780801032 0.00075772160199 -2.109987463e-06 -0.0013061184436 -0.00022141070804 
0.00014759799524 1.7922026018e-05 -0.0014226658968 -0.0024131410755 -0.0025741818827 -0.0027948368806 -0.002484331606 -0.0024842305575 -0.0027377705555 
-0.00053515500622 -0.001426487579 -0.00073107425123 -0.0008044471615 -0.002003243193 -0.0034024138004 -0.0038749943487 -0.0029817104805 -0.00056752830278 
0.0013775981497 0.0018477725098 0.001371800201 0.0012722616084 0.0018788421294 0.0024373703636 0.0034069472458 0.0048731053248 0.0064630545676 
0.0073688677512 0.0066783847287 0.0050176666118 0.0034835645929 0.0028837476857 0.0052723572589 -0.0029702228494 -0.0031662755646 -0.0029710454401 
-0.0037493393756 -0.0034139675554 -0.0014754353324 -0.0011543518631 -0.0010433499701 -0.00028537414619 0.0009872384835 0.0035617926624 0.0047457148321 
0.0047580488026 0.0042370869778 0.0041164085269 0.0035088518634 0.0032503611874 0.0039272932336 0.0045270128176 0.004495177418 0.0040421509184 
0.0029213207308 0.00058402563445 -0.001616831054 -0.0026446422562 -0.002755474532 -0.0030760620721 -0.0036945247557 -0.0059524644166 -0.0055453106761 
-0.0031258405652 -0.00048488791799 0.0032958937809 0.0048752860166 0.0010755894473 0.00307048182 0.00240073842 0.0044188825414 0.00525832735 
0.0095658274367 0.0077876467258 0.0050042225048 0.0031228379812 0.0031534603331 0.0015733217588 -0.00078843644587 -0.0015073538525 -0.0017620937433 
-0.0013151927851 -0.0006287341821 -0.00017632884555 0.00041549830348 -0.00079398666276 -0.0027199396864 -0.0045946766622 -0.0060943346471 -0.0064917798154 
-0.0057489527389 -0.0023882768583 -0.0012881769799 -0.00085031468188 0.00045258746832 0.0013423680793 0.0035688190255 0.0036174631678 0.0029532012995 
0.0030119055882 0.0023943213746 0.00024411748745 -0.0016609369777 -0.0020130777266 -0.002466078382 -0.0024284471292 -0.0021952334791 -0.0012056970736 
-0.00063216331182 -0.0015443941811 -0.0020506060682 -0.002553115366 -0.0030151479878 -0.0024332557805 -0.0010197032243 -0.0015198420733 -0.0021863577422 
-0.0021709955763 -0.0021873754449 -0.0023935381323 -0.0024115578271 -0.0014320075279 7.7493008575e-05 0.0018427717732 0.0039455560036 0.0063126394525 
0.0085276598111 0.0098231351003 0.010109427385 0.0091091915965 0.0075799501501 0.0054754274897 0.00015269666619 -0.0069563947618 -0.0062738116831 
-0.0055488306098 -0.003975238651 -0.0016532600857 0.00016467933892 0.0012411196949 0.0032188831829 0.0055104936473 0.0069674309343 0.0072532575577 
0.0055509652011 0.0042519285344 0.0034070236143 0.0022577557247 0.00040616348269 -0.0014510861365 -0.0020455853082 -0.00067463255255 0.0019609290175 
0.0041297124699 0.0046521453187 0.0037697139196 -0.00077741703717 -0.0020735964645 -0.0047320257872 -0.0070892693475 -0.0067761880346 -0.0049135042354 
-0.0023881676607 0.0007312860107 0.004822157789 0.0073793963529 0.0067725908011 0.00503932219 0.0039503932931 0.0037231205497 0.0042249122635 
0.0041287848726 0.0021100610029 0.00025579813519 -0.0012778638629 -0.001760223764 -0.0024464728776 -0.0025087730028 -0.0018642599462 -0.00080900243483 
4.9985839723e-05 0.0005555471871 0.00075088202721 0.00031741696876 -0.0013682954013 -0.0034898042213 -0.0055183344521 -0.007853529416 -0.0085059795529 
-0.0079792439938 2.4862061764e-05 0.00094240688486 -0.00047455576714 0.0018522983883 0.0030006549787 0.003553324379 0.0031520626508 0.002152021043 
0.00063785049133 -0.0010976593476 -0.0018163652858 -0.0018390556797 -0.0015329053858 -0.0014143612934 -0.0011075237999 -0.00042970877257 -8.2774706243e-05 
-0.0002082692954 -0.00073975208215 -0.0015018495033 -0.0020034350455 -0.0017341381172 -0.00016470529954 -0.0015476767439 -0.0023231124505 -0.0026471484452 
-0.0026429179125 -0.0023476637434 -0.0018125276547 -0.00051799986977 0.0011383388191 0.002926789457 0.0047951163724 0.0066847410053 0.0081852739677 
0.0087676588446 0.008592242375 0.0064645092934 0.0031055104919 -0.0011213411344 -0.0046688537113 0.00051553366939 -0.00031780663994 -0.00084812013665 
-0.0011936255032 -0.0030571983662 -0.0057352739386 -0.0071714986116 -0.0071703339927 -0.0054656197317 -0.0030174921267 -0.00071284110891 0.0062595964409 
0.0062977811322 0.0051066866145 0.0036416999064 0.0032883726526 0.0038404087536 0.0040749539621 0.0033045078162 0.0016974450555 -0.00042521525756 
-0.0016048309626 -0.0018759258091 -0.0015597500606 -0.0009189909324 -0.00044893485028 0.00021525354532 0.00052743946435 0.00056145619601 0.00032408017432 
-0.00046664394904 -0.0019535860047 -0.0038894591853 -0.0060481019318 -0.0076035265811 -0.0084345769137 -0.0081560686231 -0.0073824878782 -0.0062366095372 
-0.0045601562597 -0.0018550510285 0.00090964837 0.0033790594898 0.0055840485729 0.0076393825002 0.0078092641197 0.0064630215056 0.0048307157122 
0.0031463212799 0.0020221238956 0.0012134171557 -6.314800703e-05 -0.000985766761 -0.001151394099 -0.00032010022551 0.0010376224527 0.002492423635 
0.0035208521876 0.0036925284658 0.0024502284359 0.00073316675844 -0.00027093946119 -0.0020436879713 0.0041207484901 0.00061108951923 0.00047935973271 
0.0007060173084 -0.00036426295992 -0.0014759186888 -0.0021300141234 -0.0024023966398 -0.0023425719701 -0.002072629286 -0.0016015998553 -0.00075977464439 
0.00045337245683 0.0020427501295 0.0034985649399 0.0051036961377 0.0061939950101 0.0059807770886 0.0040851174854 0.0021286217961 -0.0010665369919 
-0.0061649149284 -0.00066271604737 0.0013464433141 0.0026692571118 0.0032394151203 0.0029817505274 0.0015354972566 -0.0006273149047 -0.002094686497 
-0.0017035647761 -0.00053619535174 0.00016985628463 0.00032411236316 0.00014870618179 0.00026325663202 0.00041923005483 0.00011757825268 -0.0002847717551 
-0.00049661030062 -0.00090988777811 -0.0012837852119 -0.0011963922298 -0.0010084497044 -0.00046262005344 -4.6241366363e-05 -0.0024002003483 -0.0037924128119 
0.0065156016499 0.0059827296063 -0.0034278361127 -0.0053364448249 -0.0061398888938 -0.0051995380782 -0.003306039609 -0.0014548313338 -0.00042540582945 
-6.955772551e-05 0.00077534274897 0.0028738554101 0.0044401902705 0.0045842421241 0.0041518961079 0.0036415704526 0.0031290238257 0.0036099406425 
0.0046581556089 0.0038828905672 0.0020160286222 -0.00023523149139 -0.0019406211795 -0.0020001009107 -0.0011877476936 -0.00031810850487 0.00013519141066 
0.00067233032314 0.00097665830981 0.0011211656965 0.0010648001917 0.00051480106777 -0.00064258108614 -0.0022632088512 -0.0043758507818 -0.006381129846 
-0.0073920912109 -0.0075757373124 -0.0073903426528 -0.0067968429066 -0.0053260894492 -0.0026834341697 0.00074399751611 0.0042480034754 0.006805033423 
0.0079527357593 0.0073452419601 0.0053461492062 0.0033086594194 0.0018346498255 0.0011612728704 0.00057959248079 -0.00059262715513 -0.00088829774177 
-0.00049546116497 0.00043343621655 0.0017034026096 0.0029647445772 0.003182138782 0.0027435538359 0.001822717255 0.0013545366237 0.0013912450522 
0.0003449934884 -0.00137168332 -0.002514902968 -0.0032241400331 -0.0034772548825 -0.002680754289 0.0015893429518 0.0018135913415 0.0018722881796 
0.0026614044327 0.0020831280854 0.0014302075142 0.00084283138858 -0.00034755450906 -0.0012746244902 -0.0017763836076 -0.0015018277336 -0.00020734051941 
0.00029310662649 -0.00013543633395 -0.00071257725358 -0.0012431601062 -0.0014717124868 -0.0014755401062 -0.0013551216107 -0.0011446028948 -0.00096244062297 
-0.00054250849644 0.00055419880664 0.0018302354729 0.0032218892593 0.0047371969558 0.0056517370977 0.0061059347354 0.0060596419498 0.0057935430668 
0.0054002404213 0.0042706765234 0.0026675711852 0.0017101905541 -0.00066188222263 -0.0040041194297 -0.0054536024109 -0.0053917784244 -0.0048992661759 
-0.0042673712596 -0.0035395284649 -0.0026718913577 -0.0011062998092 0.00021982983162 0.0010236457456 0.001248487155 0.00082805304555 -0.00052353856154 
-0.0023994615767 -0.0026924323756 -0.0013479322661 0.00034824822797 0.0021719846409 0.0018451352371 0.0010383004555 0.0004668982001 0.00022909013205 
0.00023811348365 0.00057795079192 0.00055951601826 0.00040522325435 -0.00026675211848 -0.00067735865014 -3.8927089918e-05 0.0004552048631 -0.00046085982467 
-0.00039798062062 0.002293077996 0.0017944950378 -0.00055107619846 -0.00013747882622 -8.2566730271e-05 0.00050614011707 0.0011074770009 0.0019898845349 
0.003205596935 0.0036666302476 0.0035218938719 0.0032358646858 0.0037709830794 0.0045276447199 0.0038298578002 0.001414005761 -0.0010359467706 
-0.0019968762062 -0.002269879682 -0.0014732711716 -0.00026084354613 0.0006936941063 0.0012430676725 0.0015150937252 0.0015508028446 0.0016191784525 
0.0012124173809 0.00038661033614 -0.0011026154971 -0.0028116807807 -0.0064523969777 -0.0068728383631 -0.007193162106 -0.0067814504728 -0.0052239713259 
-0.002570910845 0.00094721338246 0.0046887174249 0.007584547624 0.0077876406722 0.0061694304459 0.0038928189315 0.0021631671116 0.0011404311517 
0.00074874382699 0.00049208448036 0.00043091073167 0.00037774906377 0.00015989669191 -9.9233411675e-06 -0.00034311486525 -0.00046280655079 -0.00023324844369 
0.00012535661517 0.0009228461422 0.0018649343401 -0.0053908722475 -0.0038036138285 -0.00071683211718 6.507897524e-06 0.00049500749446 0.00021386235312 
8.7563450506e-05 5.7217937865e-05 0.00046082527842 0.001368306228 0.0024731527083 0.0029702410102 0.0028301826678 0.0026477521751 0.0031948974356 
0.0026326214429 0.001125732786 -0.00035154091893 -0.0019537855405 -0.0028669273015 -0.0025375168771 -0.0015280907974 -0.0004040345375 0.00066396541661 
0.0014506204752 0.0016304836608 0.0017623610329 0.0018588614184 0.0016213230556 0.00087484047981 -0.00014067295706 -0.0013579019578 -0.0021091231611 
-0.002198447939 -0.0035977000371 -0.0047328770161 -0.0056673712097 -0.0062649054453 -0.0063288765959 -0.0055830446072 -0.0039347247221 -0.0014345211675 
0.0019240931142 0.0052565312944 0.0071153077297 0.0069344113581 0.0049898866564 0.0030021718703 0.0017970816698 0.0011120154522 0.000635772245 
0.00051950663328 0.00054688210366 0.0005343601224 0.00023871778103 2.0037867216e-05 0.00026877876371 -5.9455916926e-05 -0.00022691281629 -6.0814094468e-05 
-0.00051317998441 0.00065255642403 0.0016235951334 -0.0004397839657 -0.00063480355311 -0.00072373653529 -0.00065332668601 -0.00046069361269 -0.00016448109818 
5.6700096138e-06 -0.00015326145513 -0.00017797198961 0.00043479594751 0.0014620324364 0.0030737351626 0.0050676413812 0.0063886456192 0.0066436259076 
0.0063210478984 0.0055045550689 0.0053139226511 0.0050216447562 0.0044095721096 0.0035444216337 0.002393677365 0.0016479701735 -3.0385161153e-05 
-0.0019384465413 -0.003427854972 -0.0044032204896 -0.004482478369 -0.004056325648 -0.0036432435736 -0.0029198334087 -0.0018521269085 -0.00081450049765 
-0.00057492760243 -0.0011080306722 -0.0020720267203 -0.0036282029469 -0.004642455373 -0.0034814716782 -0.0013176512439 0.0003655879118 0.0012072942918 
0.0016190990573 0.0023858002387 0.0039069340564 0.0042893420905 0.0033342619427 0.0019860800821 0.00066494749626 0.00062298838748 0.0011191577651 
0.0019060031045 0.0028842112515 0.0023711528629 0.0013394822599 0.00089822994778 0.0013003421482 0.0012742470717 0.00047681192518 0.00015863045701 
-0.0003198502236 -0.00052438757848 0.00032846699469 0.00094831304159 0.001746539725 0.0017896746285 0.0015961702447 0.0013163778931 0.0011218045838 
0.00027751273592 -0.0011100170668 -0.002341322368 -0.0029836557806 -0.0029492781032 -0.0018629196566 -0.0002780718205 0.00045837793732 0.0010832184926 
0.0012896535918 0.0013632935006 0.0013843707275 0.0012277505593 0.00087941694073 0.00021151250985 -0.00023960368708 -0.00088387425058 -0.00082087854389 
-0.00060074025532 -0.0015535033308 -0.0029259666335 -0.0037890134845 -0.0044650686905 -0.0047894320451 -0.0045797550119 -0.0036825272255 -0.00196161028 
0.00041570805479 0.0026508383453 0.0042561348528 0.0054171127267 0.0040665552951 0.0026081493124 0.0016185184941 0.0010305008618 0.00069178885315 
-0.0020628203638 -0.0032620648853 0.000740966585 0.0009559893515 0.00058824109146 0.00019339549181 0.00024476589169 0.00011495056242 -0.00052636937471 
-0.00041460906505 -0.00023123319261 5.6984190451e-05 0.00043778074905 0.00083843735047 0.0010425419314 0.00084011856234 0.00040802097647 0.00014062893752 
0.00082904967712 0.0027944506146 0.0050058234483 0.0065224464051 0.0054241623729 0.003074566368 0.0041535105556 0.004277558066 0.0041137365624 
0.0034873585682 0.002983674407 0.0022791649681 0.0013400522294 0.00015969150991 -0.0013550980948 -0.0027052913792 -0.0035979524255 -0.0037318360992 
-0.0035074285697 -0.0034117717296 -0.0032218648121 -0.0028034194838 -0.0021025852766 -0.0024204552174 -0.0029088782612 -0.0041413591243 -0.005847775843 
-0.0065379594453 -0.0046587092802 -0.0023126373999 -0.00061234505847 0.0005343335215 0.001106395619 0.0011878643418 0.0019610228483 0.0029106743168 
0.004190269392 0.0058339252137 0.0052616111934 0.0031891141552 0.0015218708431 0.001314562629 0.002479434479 0.0033655029256 0.0035635095555 
0.0031137347687 0.0022227386944 0.0015177539317 0.0015348509187 0.0010475215968 0.00050407112576 -0.0006475278642 -0.000267983909 0.0007392243715 
0.0014090639306 0.0018456005491 0.0028170438018 0.003457905259 0.0030774464831 0.0035805623047 0.0032946269494 0.0026129675098 0.0011005839333 
-0.00044986334979 -0.00030813837657 -0.00078407215187 7.4618597864e-05 0.00085199362366 0.00093516823836 0.00085300405044 0.00053437193856 0.00037927963422 
-0.00013246235903 0.00028472353006 0.00070872023934 0.0011253637495 0.0014778173063 0.0016636528308 0.0014977212995 0.00085203401977 0.00015664125385 
0.00075511675095 0.0023190749343 0.0043177977204 0.0050303665921 -0.00020515378856 0.00088738050545 0.0021315591875 0.0029379983898 0.0031780016143 
0.0028283111751 0.002216323046 0.0016679713735 0.0011679736199 0.00025469658431 -0.00062455551233 -0.0025459290482 -0.0025967000984 -0.0026560400147 
-0.0028197774664 -0.0031286997255 -0.0033291198779 -0.0030538479332 -0.0029519218951 -0.0036387599539 -0.0065143313259 -0.0067911343649 -0.0054081357084 
-0.0032489392906 -0.0015401735436 -0.00017745631339 0.00064758601366 0.00083136773901 0.0010353460675 -0.0051636910066 -0.0018019798445 -0.0012986169895 
0.0050062481314 0.0054217735305 -0.00021953701798 -0.00054262083722 -5.4536711104e-05 0.00018278804782 0.0012423667358 0.0023561664857 0.0033633932471 
0.0041135582142 0.00094766751863 0.00096666137688 0.00057004473638 1.7175485482e-05 -0.00043289377936 -0.00082256132737 -0.0019001695327 -0.0030965032056 
-0.0039427867159 -0.0038275707047 -0.0036000721157 -0.0026826588437 -0.0025289554615 -0.0031532431021 -0.003511298215 -0.0023154427763 -0.0008277183515 
0.00024901164579 0.00055908213835 0.00048105040332 0.00047601290862 0.00055441894801 0.00063651363598 0.00052831898211 0.00029661296867 4.7041208745e-05 
-0.00025033083512 -0.00022659613751 7.0217458415e-05 0.00014983551227 -0.0008616601117 -0.0019056214951 -0.0028137322515 -0.0030415458605 -0.0026123800781 
-0.0022931010462 -0.0014321553754 0.003321768716 0.00043164813542 0.00053075538017 0.0012807269813 0.0014235054841 0.0020074015483 0.0030562907923 
0.0038228433114 0.0054137469269 0.0065917959437 0.004971339833 0.0025805537589 0.0020273479167 0.0030843724962 -7.694875967e-05 0.0012408606708 
0.0025154082105 0.0035706844646 0.0039472426288 0.0035829283297 0.002700797515 0.0041353665292 0.0037286693696 0.0029305985663 0.0022543084342 
0.0015043793246 0.0010752159869 0.0030963318422 0.0027283015661 0.0013993065804 0.0015051020309 0.001050656545 0.00044281777809 -0.00046486241627 
-0.00051779474597 0.00024865241721 0.00059873540886 0.0025142084341 0.0013470851118 0.0038570826873 0.0047949627042 0.004032633733 0.0030811971519 
0.0014197429409 0.00088967470219 0.00095152051654 -0.0031407859642 -0.0032516708598 -0.0036573321559 -0.0027544663753 -0.0015137580922 -0.00061924662441 
-0.00039698614273 -0.00047819703468 -0.00023197721748 0.00016333143867 0.00035991473123 0.00035712102544 0.00048773968592 -1.6673917344e-05 -0.00084606505698 
-0.0019710750785 -0.00080277491361 0.0005308893742 -0.00041839829646 -0.001549590379 -0.0022434759885 -0.0027270552237 -0.0033214418218 -0.0042422711849 
-0.0046593514271 -0.0050725764595 0.00041125956341 -0.0059781996533 -0.0060024885461 -0.0050420123152 -0.0034918205347 -0.0021116174757 -0.00080317741958 
0.00016282891738 0.00058263650863 0.0014301988995 0.0028196559288 0.0023485484999 0.0020077219233 0.0017546181334 0.0020892973989 0.002373511903 
0.0017782896757 0.00067770987516 0.00018915091641 -0.00030004812288 -0.00049459649017 -0.00013108900748 -0.00030873913784 -0.00085816305364 -0.0014041158138 
-0.0014807817061 -0.0016354662366 -0.002117205644 0.0026707029901 0.0029696016572 0.0031452362891 0.0025689718314 0.0010416387813 -0.00080415210687 
0.00014088912576 0.00073622097261 0.00061646319227 0.0020523683634 -0.0028685417492 0.0012297278736 0.001907865284 0.0015725935809 0.0018632157007 
-0.0035189494956 0.0019946952816 0.002876034705 0.0040513137355 0.004146810621 0.0048601194285 0.0046991761774 0.001971863443 0.0014238022268 
0.0020717890002 0.0020985587034 0.00011430703307 -0.00092614616733 0.0016719693085 0.00013118067 0.00013679612312 -7.5377916801e-05 8.7258871645e-05 
-0.0022048079409 -0.0032277789433 -0.0042546018958 -0.0047715087421 -0.0048318598419 -0.0069205774926 -0.0057876566425 -0.0046650855802 -0.0041393744759 
-0.0032055999618 -0.0025877458975 -0.0016487293178 -0.0010175834177 -0.0014979137341 0.0067760120146 0.0016441124026 -0.00046737591038 -0.00046372719225 
-0.00056146277348 -0.0010778339347 -0.00076693075243 -0.00031000492163 0.00082483596634 0.00080016610445 0.00057452765759 0.0003366493911 0.00027736957418 
0.0002153950918 0.0022215628996 0.0021208601538 -0.0032372758724 -0.0031384795438 0.00053381704492 0.00077298865654 0.0010746372864 0.00078635447426 
0.00033755990444 0.00042287283577 
Stress_YZ 1 1064 double
0.005701247137 0.008311310783 0.0013632437913 0.0047194692306 0.0032665221952 0.0041839573532 0.00803981442 0.0071323593147 0.0056818989106 
0.0043584289961 0.0036153411493 0.002719611628 0.0025200096425 0.0026611853391 0.0023262742907 0.0018185045337 0.0013378023868 0.0014154069358 
0.0010253518121 0.0017782036448 0.0015990862157 -2.3725700885e-05 -0.001632118714 -0.0021237349138 -0.0018326323479 -0.00092882598983 -0.0015684431419 
-0.0034470316023 -0.0050559234805 -0.0059172236361 -0.005801289808 -0.004508048296 -0.0032633652445 -0.002616798738 -0.0022447553929 -0.0027715142351 
-0.0040071480907 -0.0046913358383 -0.0038956690114 -0.0010981314117 0.0026064189151 0.0047323461622 0.0011167936027 0.0021141802426 0.0024213045835 
0.0021082179155 0.0026472914033 0.0038301623426 0.0045943362638 0.0052092554979 0.0054726642556 0.0055124694481 0.006412871182 0.0063375676982 
0.0064959479496 0.0065947896801 0.0072209131904 0.0057301977649 0.0034613371827 0.0017966869054 0.00034969265107 -0.001549999346 -0.0029869992286 
-0.0041873571463 -0.0047093844041 -0.0058871409856 -0.0075496183708 -0.0080809509382 -0.005693687126 -0.0028350332286 -0.00044809683459 0.00030673737638 
0.00039175053826 0.000818917586 0.0019793019164 0.0037991346326 0.0027112676762 0.0025081881322 0.0012933745747 0.0018062235322 0.00049759860849 
0.0034440236632 0.0032567197923 0.0010995806661 -0.0010090435389 -0.0031110751443 -0.0048524239101 -0.0040898490697 -0.0044055744074 -0.0062558315694 
-0.0069500426762 -0.0059521617368 -0.0041687521152 -0.0039724237286 -0.002392053837 -0.00075552170165 -0.00020428842981 -0.00022631787579 -0.00036756938789 
0.00039560857113 0.0048099723645 0.0066044372506 0.0074251149781 0.0084864990786 0.0094007272273 0.0089651783928 0.0058817300014 0.0043474743143 
0.0031684469432 0.0015679378994 -6.6173262894e-05 -0.00091501144925 -0.0011274024146 -0.0012788726017 -0.0011245226488 -0.00087163789431 -0.00095657689963 
-0.00088178447913 4.5320724894e-05 0.00078249844955 0.0010487155523 0.00091487070313 -0.0001044403034 -0.0023387609981 -0.0038236186374 -0.003791857278 
-0.0037086906377 -0.0039751748554 -0.0041960817762 -0.0034358031116 -0.0014764619991 7.7340730058e-05 0.0012047683122 0.0018731680466 0.0017771442654 
0.00087042298401 4.7007546527e-05 -0.0003713456681 -9.7345233371e-05 0.00042044284055 -0.00047612682101 0.00017159957497 0.00039750989527 0.000472462998 
0.00041954877088 0.00095192989102 0.0025170934387 0.0044061075896 0.0055000800639 0.0060474299826 0.0060800653882 0.0058622728102 0.0065127671696 
0.0063333627768 0.0061840629205 0.0063538388349 0.0064735119231 0.005905401893 0.0036603806075 -5.323113146e-05 -0.004375312943 -0.0073097995482 
-0.008057625033 -0.0069800084457 -0.0054578031413 -0.0028875158168 -0.00059667002643 0.00178967393 0.0016326729674 0.00028073592694 -0.00081246672198 
-0.001825235202 -0.0027348164003 -0.0022400009912 0.0010553211905 0.0042545241304 0.0046132509597 0.0039162258618 0.0041372980922 0.0050209197216 
0.0049765226431 0.0029692905955 0.00021488776838 -0.0023296594154 -0.0038321595639 -0.0055162939243 -0.0066279591992 -0.0070051494986 -0.0063015157357 
-0.0051358002238 -0.0042717312463 -0.0034114252776 -0.002199382754 -0.00039403606206 0.00063799344935 0.0010064595845 0.0010012816638 0.00045263874927 
0.00031026487704 -0.0033126254566 -0.0039419867098 0.0087712975219 0.008062178269 0.0072253500111 0.0060426951386 0.0042569893412 0.0029147181194 
0.0012907208875 -0.00024563030456 -0.0011424310505 -0.0015832842328 -0.0011435725028 -0.00045564887114 2.8917398595e-05 2.1285117327e-05 -3.8186677557e-05 
0.00029502503457 0.0011888204608 0.0019518147456 0.0018090712838 0.00010619564273 -0.0019075775053 -0.0022175097838 -0.002458763076 -0.002688776236 
-0.0026738292072 -0.0022025429644 -0.0011206592899 0.00015450053615 0.00096667080652 0.0013153018663 0.0010953566525 0.00055018515559 5.6526238041e-05 
-0.00059138960205 -0.0014444768894 -0.0022728412878 -0.0010126371635 0.0016525038518 0.0043507278897 -0.0012552336557 -0.00020695725107 -0.0013545395341 
-0.0014402249362 0.00025459288736 0.00054988439661 -0.00017199326248 -0.00044138066005 -0.00088884867728 -0.0015532401158 -0.0021418046672 0.00025865805219 
0.0027157026343 0.0040924898349 0.0041078990325 0.0043064248748 0.0041795745492 0.0036783560645 0.0029921026435 0.0014569825726 -0.00064066832419 
-0.0031822868623 -0.0055861333385 -0.0070351362228 -0.0063771340065 -0.0056917201728 -0.0050847521052 -0.0043889395893 -0.0035730600357 -0.0024658909533 
-0.0010348296491 0.0003586068633 0.0011783844093 0.0013510134304 0.00074708240572 0.00019234728825 -0.0003499861341 -0.00060810643481 -0.00055387348402 
-0.00018471910153 0.00074907246744 0.0023856970947 0.0038087870926 0.005029338412 0.006190108601 0.0067345690913 0.0066594975069 0.006137162447 
0.0053292089142 0.0047721462324 0.004814540036 0.0042675598525 0.0020396970212 -0.00072499451926 -0.0038247257471 -0.0070530823432 -0.0083957286552 
-0.0078749442473 -0.006407417357 -0.0042766625993 -0.0015803857241 -3.4025564673e-05 0.0009206472314 -0.001753463177 -0.0028308886103 0.0017241431633 
0.00017918727826 -0.00063549896004 -0.0007659670664 -0.00083354534581 -0.0010141846724 -0.0012180082267 -0.0013303086162 -0.0010319784051 -0.00043670707964 
-1.2218915799e-05 0.00015380686091 -4.5183463953e-05 -0.00078719679732 -0.0015466358745 -0.0027198346797 -0.0023976000957 0.00016635832435 0.0021789562888 
0.0051698368043 0.0065449662507 0.005987488199 0.0054171364754 0.0047117290087 0.0037892246619 0.0024360972457 0.00098157383036 -0.00022614652698 
-0.0010787333595 -0.0013863965869 -0.00078723940533 2.2643664124e-05 0.00040778197581 0.00034144931124 0.00034530184348 0.00066214922117 0.0013248419855 
0.0020810049027 0.001774019911 0.0011446512071 0.0013047029497 0.0040615685284 0.0045335125178 0.0025426084176 0.0071793827228 0.0069456305355 
-0.0019348342903 -0.0019893087447 -0.00013838482846 -0.00095909682568 -0.0011491697514 -0.0010970286094 -0.0013717078837 -0.0019176492933 -0.0021013147198 
-0.0019839331508 -0.0027749987785 -0.0019550560974 -0.0002060089173 0.0015933631221 0.0028569409624 0.0036909177434 0.0039383601397 0.004115847405 
0.0049892356619 0.004414582625 0.0033166843932 0.0012184197549 -0.002038317034 -0.0046399920247 -0.0054969503544 -0.0056950845756 -0.0058120624162 
-0.0051405830309 -0.0047383806668 -0.0042029349133 -0.0029958514497 -0.0014675204875 2.2257456294e-05 0.0011590952054 0.0015493521933 0.00085891585331 
0.00017506098084 -0.00024038762785 -0.00054442574037 -0.00069175078534 -0.00036939076381 0.00037214884651 0.0016998335486 0.0033785705455 0.0048740510829 
0.00584844267 0.0063863256946 0.0061486633494 0.0050933472812 0.003993765451 0.0034639583901 0.0032694931142 0.00086219469085 -0.0017958472017 
-0.0041941450909 -0.0059922630899 -0.0071634524502 -0.0070210942067 -0.0056507186964 -0.0032642497681 -0.0013034020085 -0.00010908706463 7.667819591e-05 
0.00015406234888 -0.0002162217861 -0.0014500262914 -0.0015672190348 -0.0011839616345 -0.00091200543102 -0.0007235314697 0.00033364022966 0.00090614217333 
0.00098159199115 0.0003467691422 0.00014679414744 -0.00016785075422 -0.00083945167717 -0.00091182050528 -0.00052931188839 -0.0005693671992 0.0024512652308 
0.002578424057 0.0011890378082 0.00031299502007 4.6464934712e-05 5.0546943385e-05 -8.7586791778e-05 -0.0004911707365 -0.0010423153872 -0.0016088127159 
-0.0018191456329 -0.0016880410258 -0.0017807610566 -0.0021342816763 -0.0026606232859 -0.003068419639 -0.0031642455142 -0.0032007128466 -0.0028762975708 
-0.0027550747618 -0.0024505446199 -0.00070116692223 0.0019204114797 0.0032490249723 0.0045710694976 0.0063895280473 0.0067699896172 0.006389470771 
0.0061678751372 0.0060442504473 0.0059255985543 0.0055443793535 0.0044738436118 0.0034359032288 0.0028379035648 0.0021981860045 0.001360394177 
0.00059331592638 0.00023987864552 -8.1968086306e-05 -0.00033903654548 0.00057287508389 0.00077982468065 0.00066443573451 0.0007460785564 0.0010543747339 
0.0015413518995 0.0019690219779 0.001821420854 0.001170103671 0.0025583351962 0.0052285022102 0.0056851687841 0.0052080862224 0.0037148718257 
0.002195548499 4.776343485e-05 -9.8541124316e-05 -0.0011373955058 -0.00075120275142 -0.0014922542032 -0.0017069287132 -0.001268807915 -0.00027732516173 
0.0010295822285 0.0022761165164 0.0032261493616 0.0037097388413 0.0038062420208 0.0044981138781 0.0047992323525 0.0039218124002 0.0024416593369 
-0.00059437722666 -0.0031089214608 -0.0041571701877 -0.004470567219 -0.0049009607174 -0.0052194166929 -0.0049752551131 -0.0042718369514 -0.0032213861123 
-0.0018480500439 -0.00048765010433 0.00071313418448 0.0014365538955 0.00043792082579 0.00016359022993 8.7436992544e-06 -0.00026070681633 -0.00021078786813 
0.00035344000207 0.0017422651872 0.0036135686096 0.0048051178455 0.0050508189015 0.0047723050229 0.0045173023827 0.0039340229705 0.0032866012771 
0.002740195021 0.0024505411275 0.0022064887453 0.0019143215613 0.0017463206314 0.00095236051129 -0.00028453802224 -0.0018707140116 -0.0041037970223 
-0.005289608147 -0.0053262165748 -0.0050197253004 0.00093988480512 0.001323429402 -0.00046139009646 -6.2591199821e-05 0.00057229521917 -0.00015746269492 
-0.00080904294737 -0.0010925155366 -0.00061780103715 0.00014606671175 0.0011108047329 0.0021518822759 0.002995705232 0.0034659542143 0.0038129249588 
0.003272468457 0.0029325783253 0.0026811980642 0.0020099503454 0.00047488551354 -0.0014426169218 -0.002740027383 -0.0037115844898 -0.0042333859019 
-0.0044305021875 -0.0039534349926 -0.0037227577996 -0.0030542518944 -0.0019536800683 -0.00065897474997 0.00041673093801 0.0011396160116 0.0010804435005 
0.00052164739463 0.00057106773602 0.00062255858211 0.00052402971778 0.00040030796663 0.00013934128219 -0.00033205808722 -0.00053162663244 0.00010175973875 
0.0017517773667 0.003021182958 0.0032616385724 0.0031594536267 0.0025739425328 0.002731018234 0.0029678400606 0.0028855302371 0.0024651878048 
0.0022455295548 0.0020763573702 0.0017202355666 0.0014627928613 0.0010023923824 0.00010314575047 -0.0007788236253 -0.0018592665438 -0.0032590879127 
-0.0035787459929 -0.0025934139267 -0.0024418642279 0.0012330126483 0.00048818913638 3.9650749386e-05 -6.715310883e-05 -0.00013819844753 -0.00038519862574 
-0.000947855704 -0.0017767257523 -0.0025937943719 -0.0032218617853 -0.0036218736786 -0.0039020515978 -0.00413720496 -0.0043787588365 -0.0042167007923 
-0.0039396835491 -0.0036316735204 -0.0032144540455 -0.0029126941226 -0.0026290514506 -0.0016914251028 0.00025426302454 0.002296108054 0.0030001364648 
0.0035660148133 0.0045152450912 0.0050924182869 0.0051947506145 0.0051713283174 0.0054814093746 0.0057307626121 0.0050513511524 0.0037578977644 
0.0019131327281 6.5912572609e-05 -0.0010199364042 -0.0011542597786 -0.00048264229554 0.00035877377377 0.00079451326746 0.00072292069672 0.00070733606117 
0.00097845995333 0.00029138781247 0.00022314066882 0.00076974049443 0.0011006098939 0.0012757466175 0.0015546871582 0.0021355135832 0.0020565439481 
0.0018905156758 0.0015687004197 0.00096528045833 0.0025745462626 0.004333762452 0.0049210479483 0.0045218341984 0.0035598012619 0.0046685463749 
0.0030660347547 0.0018248526612 -0.0003269308072 0.0003838823759 0.0012112386758 0.0019091763534 0.002626280766 0.0027396380901 0.0023418227211 
0.0020535457879 0.0015995366266 0.00086101290071 0.00098980893381 6.7759530793e-05 -0.0012663906673 -0.0026705339551 -0.0031457191799 -0.0027799715754 
-0.0027480293065 -0.0027051120996 -0.0021397052333 -0.0012039042776 -0.00043878352153 0.00024098104041 0.0002730791457 0.00042933406075 0.00030167639488 
0.00013315508841 0.00017498154193 0.00030199179309 0.00039657886373 0.000344445667 0.00014137393737 -0.0003147899406 -0.00097167334752 -0.0011967105092 
-0.00072866363917 0.00012905064796 0.0013914796291 0.0017099190736 0.0016406690702 0.0017718109302 0.0020660303999 0.0023007174022 0.002244762145 
0.0014763048384 0.00075278722215 0.0016742758453 0.001006118604 0.0011849914445 0.0011876244098 0.00054468866438 -2.2527579858e-05 0.00082513020607 
-3.235935219e-05 -0.00064512522658 -0.0007315146504 -0.00060115678934 -0.00061342405388 -0.00094208889641 -0.001664304873 -0.0028627272695 -0.0045369630679 
-0.0054411832243 -0.0054782480001 -0.0053942198865 -0.0050458195619 -0.0044349343516 -0.003234339878 -0.0031792938244 -0.0029041399248 -0.0025301657151 
-0.0019829522353 -0.0012167030945 1.0273206499e-05 0.0011788209667 0.0015033057425 0.0019643078558 0.0029251922388 0.003500393359 0.0038788907696 
0.0043543265201 0.0050615170039 0.0056785191409 0.0050718802959 0.0034435412381 0.0010963816894 -0.0013748153578 -0.0029511605389 -0.0029132552445 
-0.0016711101634 -6.8089150318e-08 0.00096533843316 0.0012972814729 0.0014749052934 0.0015960033052 0.0017231306992 0.0011807024712 0.00084689049982 
0.00062018679455 0.00091225170763 0.0019329659408 0.0025598492939 0.0026507216971 0.0025191358291 0.0017948288005 0.0013928470435 0.0010825098725 
0.0010112536838 0.0018546064384 0.0026465323754 0.0023575238883 0.0026715828571 0.0021664593369 0.0018615421141 0.0033615501598 -0.00082719081547 
0.00040166743565 0.0014646631898 0.0011645543855 0.00046274636406 0.00032814254519 0.00029485789128 0.00014937162632 -4.5658853196e-05 0.0002389758447 
0.00021927437047 -1.6731184587e-05 -0.00012385947048 0.00046009209473 0.0012241911609 0.001914700726 0.0013286018511 0.00053309561918 -3.2045867556e-05 
-0.00068043259671 -0.0011326166568 -0.0010666481685 -0.00081575661898 -0.00070782081457 -0.00087495142361 -0.0014129183255 -0.0025895470753 -0.004545092117 
-0.0062825386412 -0.0056519825011 -0.0055830068886 -0.0046652066521 -0.0019153299509 -0.0020556631498 -0.0023232304957 -0.0023529059254 -0.0021181434859 
-0.0014738258906 -0.00078641623259 -0.00025782702141 0.00015705707483 0.00041584117571 0.0008309019031 0.0019126082771 0.0025675771758 0.0033292600419 
0.0045801326632 0.0055269375443 0.0053943716921 0.0034041884355 0.00087506783893 -0.00099995534401 -0.0033630600665 -0.0021318383515 -0.00052130658878 
0.00072338315658 0.0013883664506 0.0016592738684 0.0019509869162 0.0020922096446 0.0021398081444 -0.0027964650653 0.0013655204093 0.00076827680459 
0.00039487806498 -4.2001691327e-05 -0.0015302742831 -0.0021590744145 -0.00088134448742 -0.00083071470726 0.00023451879679 0.00072954053758 0.00055526540382 
0.0006690795999 0.0005699825706 0.00096010166453 0.0017355281161 0.0020658655558 0.0020709899254 0.0016042359639 0.00078019173816 -0.00022312739748 
-0.00084754894488 -0.0010256697424 0.00024912209483 0.0010051681893 0.0018122645561 0.0019634133205 0.0015976730501 0.0002112682705 -0.00075046595884 
-0.001035206602 -0.0014956215164 -0.001933684689 -0.0016743927263 -0.0011546772439 -0.00067532114917 -0.00022063191864 9.2631911684e-05 0.00018474805984 
0.00022780122526 0.0002312810102 0.00012188201072 -9.7096766694e-05 -8.0173391325e-05 -2.1428281798e-06 6.7651482823e-05 -8.528111357e-05 -0.00048258600873 
-0.0010398857994 -0.0015906413319 0.0009780137334 0.00087062077364 0.0017067232402 0.0018952303799 0.0019730154891 0.0014575714013 0.0011635902338 
0.0013329883805 0.0019397257129 0.0027722304221 0.0035080749076 0.0022925040685 0.0015163522912 0.0010006759549 -0.0021405087318 -0.002499114722 
-0.0023262882605 -0.0018738821382 -0.00098497129511 -0.001785549568 -0.0024979359005 -0.00062748097116 -9.1110858193e-05 0.00057899201056 0.0010101785883 
0.0012636458268 0.0015642293729 0.0011456644861 0.00035253787064 0.00076849095058 2.392391616e-05 0.00032463268144 0.00071626633871 -8.2440274127e-05 
0.00022833615367 0.00065816193819 0.00065377081046 0.00061536737485 0.00055226206314 0.00083428545622 0.0010053337319 0.001532783499 0.0012664567912 
0.0013619409874 0.0019310211064 0.0012020766735 0.0014901866671 0.0031614298932 0.0035578971729 0.0028559267521 0.0017052299809 0.00049441179726 
-0.00088017864618 -0.0011832551099 -0.0010972915916 -0.00086037721485 -0.00050116813509 -9.6133451734e-05 0.00014185829787 -0.00066823273664 -0.00057868420845 
-0.00039464575821 -0.0011149077909 0.0013770345831 0.0018407617463 0.0017648693174 0.0015211682767 0.0009601409547 -8.686214278e-05 -0.0012500104494 
-0.0020405063406 -0.0023963598069 -0.0014068819582 -0.0029030921869 -0.0019365274347 -0.00048907496966 0.00074676331133 0.0013780336594 0.0017218436114 
0.0019991663285 0.0020752865821 -0.0015679252101 -0.00098413601518 -0.00058240222279 1.2257795788e-05 0.00045642253826 -0.0014753900468 -0.001232021139 
-0.00069900392555 -2.3794085791e-05 0.00011463841656 0.00037369178608 0.00021983611805 -0.00031705221045 -0.00037880518357 -0.00013144695549 0.00024528615177 
0.00086322508287 0.0020165378228 0.0036697057076 -0.0041090110317 -0.0044131209143 -0.0049744928256 -0.0036352288444 -0.0048597487621 0.0030723407399 
-0.00014216768614 -0.00060317513999 -0.00339006586 -0.0016440381296 0.0048513663933 -0.00065004744101 -0.000284293812 -0.00061386381276 -0.00053486396791 
0.0050632897764 -0.00066003325628 0.0018366764998 0.0015382424463 0.0021672283765 0.0029726214707 0.0027108569629 -0.0010597738437 -0.0019636959769 
-0.0014106009621 0.0013857997255 0.0020450712182 0.0018393375212 -0.00057234743144 0.00033421692206 0.00017915411445 0.00015131242981 4.6039542212e-05 
0.0015910165384 0.0010704840533 1.2683556633e-05 -0.0011159974383 -0.0020112053026 0.0081147719175 0.0081087788567 0.0077202832326 0.0073827500455 
0.0084262965247 0.0083521846682 -0.0011555945966 -0.0012448510388 -0.00081837363541 -0.004512347281 -0.0029144433793 0.0020919921808 0.00039699583431 
0.00097982771695 0.002180946758 0.0016200526152 0.001206879504 -0.00061881984584 -0.00011753692525 0.00018869030464 0.00039383477997 0.00025073258439 
0.00025496294256 -0.00059990934096 -0.00019542597875 0.0036363541149 0.0023118464742 0.00028199885855 -9.118179878e-05 -0.0005138386623 2.9267212085e-05 
0.00038747859071 0.00050243956503 
Stress_XZ 1 1064 double
-0.0064706527628 -0.0077418033034 -0.0069060456008 -0.0027261234354 -0.0040561156347 -0.001371826278 0.0025676959194 0.0031091868877 0.0036502720322 
0.0040061199106 0.0041174688376 0.0039225886576 0.0029784785584 0.0024126707576 0.0018009330379 0.0014183894964 0.00052810355555 -0.00048061375855 
-0.00075911480235 -0.0035639633425 -0.0038930701558 -0.0039380285889 -0.0036601815373 -0.0034560728818 -0.0018141659675 -0.00014807487605 0.0018242697697 
0.0024973617401 0.0025614404585 0.0021609289106 0.001905183075 0.001296521863 0.00067903799936 0.00061538541922 0.00095194857568 0.0011659841985 
0.0017817456974 0.001338911592 7.6043310401e-05 -0.0017598979175 -0.0033834814094 -0.0055670859292 0.0024439350236 0.0033309333958 0.0042113992386 
0.0039802426472 0.0033111840021 0.0025348656345 0.0018884233432 0.0017115824157 0.0020305272192 0.0023377281614 0.0023538407404 0.0033727954142 
0.0046599106863 0.006064794492 0.0069457516074 0.0073416950181 0.006252781488 0.0033148834482 -0.0013135952177 -0.0053535476327 -0.0069868345745 
-0.0065684616566 -0.00539348647 -0.0050393678248 -0.0040793260559 -0.0038633116055 -0.0040759891272 -0.0043598939665 -0.0043495297432 -0.0041796076111 
-0.0037358279806 -0.001963438699 0.0011906143045 0.0062567084096 0.0078297182918 0.0071928449906 0.0054609500803 0.0029056805652 0.0022543766536 
0.0018704840913 0.00086776033277 0.00062928703846 0.0016714294907 0.0041070277803 0.0066976798698 0.0049488521181 0.0035198512487 0.0028292241041 
0.00122006319 -0.0012609526748 -0.0035029966384 -0.0058746025898 -0.007824906148 -0.0082121826708 -0.0073770484887 -0.0050573311746 -0.0019002768677 
0.00081213196972 -0.012986496091 -0.011161601171 -0.0082800695673 -0.0057912198827 -0.0019191574538 0.001393366605 0.0033451034687 0.0056532341987 
0.0072148544714 0.0070031303912 0.0053067426197 0.0038356138393 0.0028869654052 0.0021117099095 0.00033250020351 -0.0020583586302 -0.0043094917201 
-0.0061718039215 -0.0061485357583 -0.0061358255334 -0.0066515384242 -0.0073407730088 -0.0067809792235 -0.0042126374319 -0.00073992583202 0.002492382424 
0.003396281274 0.0035940958187 0.004008716438 0.0044646435417 0.0045966100879 0.0043995440938 0.0036934525706 0.0023612529039 0.00015403749421 
-0.0019533198792 -0.0033488289919 -0.0038316333666 -0.0054171434604 -0.0080370865762 -0.011884968728 -0.014220148325 -0.0012889393838 -0.00039900722913 
0.0010692198994 0.0028099503834 0.0038845520467 0.0045666815713 0.0049509066157 0.0053392159753 0.0061802985147 0.0071217291988 0.0082753011957 
0.0082116536796 0.0073450370692 0.0070486320183 0.0064071114175 0.0045861662365 0.0021424475126 -4.1461353248e-05 -0.002564890543 -0.0059929401614 
-0.0086716646329 -0.0088922213763 -0.0085977390409 -0.00646362314 -0.0075843674131 -0.0081013226882 -0.0068702120334 -0.0044024619274 -0.0019549143035 
5.6132863392e-05 0.0023386578541 0.0041433526203 0.0051841917448 0.0074113979936 0.0070844404399 0.0060721198097 0.0055934623815 0.0055056125857 
0.0065054586157 0.0080089587718 0.0089884474874 0.0084028868005 0.0059614414349 0.0032102291007 -2.5327492494e-06 -0.0024771734606 -0.0045706927776 
-0.0064661563374 -0.0079503273591 -0.0092202527449 -0.010961114429 -0.011956132948 -0.012245309539 -0.010870725848 -0.0081649618223 -0.0049492036924 
-0.0028779944405 -0.0069231633097 -0.0092439604923 -0.0034294226207 0.001609157538 0.0056437761523 0.009048294276 0.01119821053 0.011959724128 
0.011066169478 0.0086133973673 0.0063325501978 0.0050209588371 0.0037660181988 0.0017213076353 -0.0010429916438 -0.0039242380299 -0.0063475309871 
-0.0075691961683 -0.0077106594108 -0.0076681547798 -0.0077207139693 -0.0064104949124 0.00084813899593 0.0034722639248 0.0051276180893 0.0065034334548 
0.0079265041277 0.0091824214906 0.0098602212965 0.0096154538915 0.0084646036848 0.0062361191958 0.0029372107238 -0.0010368271032 -0.0051982682198 
-0.0076078330167 -0.00936569646 -0.011899667792 -0.015618398786 -0.017541952431 -0.016486201435 -0.00190946972 -0.0031177469064 -0.010253775865 
-0.0098250145093 -0.010317437351 -0.0097986469045 -0.0081057790667 -0.0062853400595 -0.0039067268372 -0.0012607683893 0.0011888025329 0.0044055660255 
0.0064388164319 0.0076675782911 0.0084260636941 0.0097227664664 0.010998560116 0.011607436463 0.011951326393 0.011537006125 0.010418328457 
0.0081919776276 0.0054289046675 0.0019582423847 -0.00088774500182 -0.0034606361296 -0.0060059376992 -0.0080792792141 -0.0096594430506 -0.011312595569 
-0.01215921063 -0.012340626679 -0.011476992629 -0.0097583569586 -0.0073904707097 -0.005129863508 -0.0030399058014 -0.00072337751044 0.0017892660107 
0.0044272653759 0.0065596969798 0.0077440775931 0.0084641324356 0.0091801472008 0.0099891703576 0.010576577857 0.011155308224 0.010309189558 
0.0089549236 0.0077715739608 0.0060567059554 0.003649197286 0.0015662622172 -0.00061233935412 -0.003467253875 -0.0066677327268 -0.0093604037538 
-0.010627450421 -0.011311252601 -0.011424239725 -0.011043142527 -0.0093949045986 -0.010150750168 0.0035580068361 0.0020725626964 -0.0011585273314 
5.3572442994e-05 0.0016903455835 0.0036867589224 0.0054320599884 0.0072467946447 0.0092231500894 0.010999896564 0.012162909843 0.012183182873 
0.010682102293 0.007851395756 0.0040760380216 -0.00053879944608 -0.004577698186 -0.01103656739 -0.013247320428 -0.014963758178 -0.013990087435 
-0.013736907393 -0.0013581769308 0.0028318492696 0.0068152938038 0.010607392527 0.013506894931 0.014678465202 0.01355126407 0.010960836895 
0.008567285724 0.0067641413771 0.0048419949599 0.0025723443832 -0.0001327481732 -0.0030890083872 -0.0057743601501 -0.0077317757532 -0.0085017029196 
-0.0079700062051 -0.0077036116272 -0.0064474008977 -0.0036367245484 -0.0023529438768 -0.0019282425055 -0.00071849848609 -0.0043634776957 -0.0057693105191 
-0.0086462255567 -0.0059891706333 -0.0088004842401 -0.0074511454441 -0.0060473945923 -0.0043774158694 -0.002455775626 -0.00077827915084 0.00032256203122 
0.00057663960615 0.0019266939489 0.0027938524727 0.0042575355619 0.0063075697981 0.0079348525032 0.0092211859301 0.010840010829 0.012026675045 
0.012142839842 0.011285403743 0.010390764102 0.009605015628 0.0078427903354 0.0057300683111 0.0028874417767 0.00024271462462 -0.0022101006471 
-0.0048068524338 -0.0072429846041 -0.009245634079 -0.010762667283 -0.01147171855 -0.011644236743 -0.011170517653 -0.0097164716572 -0.0076861334965 
-0.0056536239572 -0.0034700850956 -0.00079713936429 0.0024665393867 0.0056545576081 0.0080817295238 0.0093610435724 0.010323728435 0.011045570485 
0.011771088466 0.011856075376 0.011179320514 0.010099709965 0.0087210331112 0.0072746220976 0.0055071702227 0.00059187278384 -0.001289334381 
-0.0038415405434 -0.0066464557312 -0.0089505827054 -0.010726282373 -0.011839830317 -0.011841284111 -0.010761821643 -0.0092806303874 -0.0078005474061 
-0.0077879796736 -0.0070217209868 -0.0065363007598 -0.0058863507584 -0.0046277060173 -0.0031552242581 -0.010707632639 -0.0095347035676 -0.0080062728375 
-0.006122874096 -0.0063943071291 -0.006063319277 -0.0056427032687 -0.0054344129749 -0.0052308146842 -0.0045150420628 -0.0034204339609 0.0022819170263 
0.0037957585882 0.00062810385134 0.0021303095855 0.0039228778332 0.0058105485514 0.0078140199184 0.010130178183 0.012371679768 0.013779364526 
0.01381558273 0.012348747812 0.009652598761 0.0058768535964 0.0016579878284 -0.0015930705704 -0.0026279017329 -0.0020263446495 -0.0049740835093 
-0.0073935440741 -0.0094012590125 -0.01057874877 -0.011074694805 -0.0091980518773 -0.0084293754771 -0.008008826524 -0.0074808471836 -0.0066275321878 
-0.0058548143134 -0.0047986656427 -0.0034563767258 -0.00076545885531 0.0027827315498 0.0065758349374 0.010247853585 0.013765108772 0.01631895639 
0.015855435282 0.012837755494 0.01030002255 0.0083273230121 0.0026184027083 0.00011523618014 -0.0029398424085 -0.0059792795219 -0.0081747286022 
-0.0091893188655 -0.0087744798511 -0.0082097370178 -0.0074267634191 -0.0057563637383 -0.0045878426172 -0.0038085782435 -0.0021164186765 -0.0016788401408 
-0.00084023876116 0.0049272174947 0.0064241732471 -0.00050513952738 -0.00026831284049 0.00067572924308 0.0017389955465 0.00299401558 0.0044804308563 
0.0060591553338 0.0075820754282 0.0088938595727 0.0099172014743 0.010027573444 0.0094054229558 0.0087317833677 0.0084360204637 0.0085845673457 
0.0075169331394 0.0058501283638 0.0033179058228 0.00080015236745 -0.0014416535851 -0.0036785968114 -0.0059878118336 -0.0079334154725 -0.0093716019765 
-0.010112011805 -0.010201388039 -0.009796295315 -0.0085141090676 -0.0043782782741 -0.0023692790419 0.00039676678716 0.0039110453799 0.0069887619466 
0.009012196213 0.010287338868 0.011478201486 0.012515388429 0.012683779933 0.012004220858 0.010570338927 0.0091584436595 0.0077917217277 
0.0064411852509 0.0052288728766 0.0042992555536 0.0033399786334 0.0022007378284 0.0010234316578 -0.00014358115732 -0.0021409441251 -0.0043549542315 
-0.0068955733441 -0.0092744603753 -0.01108535286 -0.005813062191 -0.0058074607514 -0.0015271711163 -0.0010603506817 -0.00051583530148 5.7043216657e-05 
0.00061816372909 0.0015408397885 0.0026454441249 0.0038147179876 0.005252041854 0.0065487772226 0.007420099806 0.0077284830622 0.0074037532322 
0.0069726030342 0.0066257445142 0.0068827271461 0.0072690346278 0.0067013823427 0.0058785695583 0.0035431175493 0.0011292112758 -0.00086670345627 
-0.0026388126425 -0.004389659036 -0.0060926415026 -0.0073796003126 -0.0081412568688 -0.0080966260284 -0.0075495969504 -0.0064234314486 -0.005060155876 
-0.0035771480761 -0.0035403701477 -0.0031027183868 -0.0020097447559 -0.00018666841788 0.0023707025684 0.0052651618607 0.0077391900122 0.0094001134858 
0.010563807562 0.011344898492 0.012102237903 0.011874191463 0.011277773418 0.0099280774593 0.0084655666724 0.0071004149504 0.0058363368735 
0.0048674987629 0.0043718502857 0.0038686208427 0.0025477132294 0.00096620141994 0.0001645997836 -0.00073850870831 -0.0027007993776 -0.0051757716574 
-0.007523314096 -0.0098927328363 -0.011128204875 0.00056955573382 0.0021335524507 0.0039456491359 0.0058445185423 0.0078658135608 0.010198126547 
0.01258835569 0.014453989454 0.015054017305 0.01390540693 0.01139121037 0.0079433703795 0.0043609202839 0.0015607567038 0.00028414351982 
0.00063915114151 0.0017841935623 -0.00087516661733 -0.0034088415559 -0.0054045952857 -0.0071537340991 -0.0087409066036 -0.009230802767 -0.0074999579228 
-0.0060994667001 -0.0053858808242 -0.0052895275876 -0.0051395590417 -0.0047195884399 -0.004169235006 -0.0031041631009 -0.00087112671463 0.0026527615264 
0.0063589918427 0.0097825787961 0.013079142198 0.016051664948 0.016232458875 0.01333388593 0.01071405597 0.0086478078738 0.0062975720502 
0.0038586675655 0.0037875496782 0.0035838452168 0.0019491878338 -0.00069995230297 -0.003858599579 -0.0069624898024 -0.0089980205521 -0.010138029233 
-0.0099349264055 -0.0091118626297 -0.0088654886931 -0.0080662705004 -0.0066274204291 -0.0055826334283 -0.0043360004202 -0.003622380551 -0.0022774667013 
-0.0014544212027 -0.00058706459822 0.0018053931417 0.0031178013887 0.0044441954233 0.0055205104873 0.0060487939045 0.0061743445694 0.0062259808183 
0.0063489368185 0.0061789476313 0.0063294116408 0.0059969802387 0.0054722283967 0.003631910542 0.0014568764018 -0.00023756500741 -0.0017107374733 
-0.0031607723795 -0.0044321035966 -0.0054439795204 -0.0061372667551 -0.0063849980943 -0.0061359726824 -0.0058110202663 -0.0049344487488 -0.0039315652102 
-0.0030102662276 -0.0024926671758 -0.0018482306041 -0.0010115131736 0.00012574286666 0.0018262155354 0.0039810426533 0.00614226982 0.0081491349265 
0.0097271259874 0.010285739787 0.01034730114 0.010490369052 0.010866477154 0.0096636395901 0.0082323150709 0.0068053295836 0.0054767974652 
0.0072098677047 0.0069447695278 0.0051389215514 0.0048248721287 0.0034644249827 0.0015690999571 -1.5290084775e-05 -0.00084762548795 0.00061627617106 
0.0020927372389 0.00379772624 0.0055722477846 0.0074886721559 0.0097136627883 0.012024323456 0.014237206429 0.015668401495 0.015197790228 
0.012786748819 0.0098779695109 0.0068146451376 0.0043449345976 0.0044505633414 0.0049585197121 0.0024200917687 -8.7043972599e-06 -0.0021933210082 
-0.0039095035754 -0.005431172438 -0.0068733510561 -0.0069777979515 -0.005417726934 -0.0039298450574 -0.0032088658772 -0.0034628233407 -0.0035488160793 
-0.0033651047852 -0.0030781936366 -0.0022830087692 -0.00036069515045 0.0030415442307 0.0068006771617 0.010237552226 0.012451051734 0.014391079545 
0.01448817458 0.011986055411 0.0094912862405 0.0075829057023 0.0057761766948 0.0038013251033 0.0018639968475 0.001596631133 0.0013145921985 
0.0009460299043 0.00030940998113 -0.0016412052792 -0.0050501669757 -0.0078582447022 -0.0094332220033 -0.010022474453 -0.0098150717095 -0.0092909270898 
-0.0089795570821 -0.0082158334553 -0.0076094353572 -0.0070504071191 -0.0063649727963 -0.0052499244921 -0.0037209354341 -0.0015447635669 -0.0099618118256 
-0.009538368322 -0.0081804702058 -0.0064777252264 -0.0072409468703 -0.0050303125754 -0.0047583812848 -0.0047275084071 -0.0046717650257 -0.0040707625449 
-0.004264654126 -0.0038189378101 -0.0028307752218 -0.0020001344383 -0.0011117536342 -0.0002064628643 0.00015206505486 0.00045224346104 0.0010317037813 
0.0022479712497 0.0038416055031 0.0054581956938 0.0071464888752 0.0091346232221 0.011149246246 0.013244817965 0.015213659033 0.015544670634 
0.013288542628 0.011057662778 0.0087969889864 0.0069772643037 0.0052136625163 0.00379696046 0.0023204418831 0.00055897433776 -0.0013335843105 
-0.0030771449674 -0.0041059348732 -0.0050594406202 -0.0052637318149 -0.004299105145 -0.0034139384516 -0.0018865239108 -0.0019402334001 -0.0019461812917 
-0.0015347527806 -0.00071460875915 0.0010152823525 0.0040927589871 0.0074262977578 0.0096109798178 0.012281942181 0.011771742254 0.0097438031808 
0.0077187390998 0.0062363804318 0.0050429608673 0.0035771406256 0.002024485264 0.00085526611656 0.011152063496 -0.0021197549067 -0.00268916809 
0.011787027121 0.010550489649 -0.0028768738266 -0.0051037436351 -0.0073073147796 -0.0090411845595 -0.0088778613135 -0.00792751275 -0.0077639371157 
-0.0085044577718 0.0021681233775 0.0036669180263 0.0045378832147 0.0049174455926 0.0052936403081 0.0057442858815 0.0061294231564 0.0067332577892 
0.0072555691004 0.0081621827558 0.008303550072 0.0074094282463 0.0072113028727 0.0058978782035 0.0052168434486 0.0037354577798 0.0017815402243 
-1.0206518709e-05 -0.0012510954402 -0.00235507451 -0.0035220785066 -0.0046034143306 -0.0054420898668 -0.0059189232998 -0.0059653236531 -0.005669164937 
-0.0054091122001 -0.0045041441917 -0.003545549931 -0.0021038530394 -0.0014274044661 -0.00055107969092 0.00026149212499 0.0012191099813 0.002790014958 
0.0045540765859 0.0062184422277 -0.0085989227518 -0.0029874762986 -0.001947807963 -0.00094146083575 0.00038278149441 -0.0003540138714 -0.00055486924248 
-0.0011693087872 -0.0011435461929 -0.0022314593662 -0.00459982967 -0.006776672788 -0.0082882232964 -0.0085411472246 0.0078662307933 0.0091835204512 
0.0098660672083 0.0097690476105 0.0094328643754 0.0099513567984 0.011341828853 0.011873045005 0.011588846333 0.01122519467 0.0098350970075 
0.0081747211516 0.0065982397646 -0.0082328440621 -0.0063912244514 0.0063788043335 0.0061369440518 0.0046087582596 0.0032558136154 -0.0025631673634 
-0.0045498488471 -0.0062739206478 -0.0077513251454 -0.0079248715192 -0.0080397753045 -0.0048281941563 -0.0041471454315 -0.0036360588856 -0.0033652994316 
-0.0035038557835 0.00099529279396 0.0014507325832 0.0072389068082 0.0058403122239 0.0046564810909 0.0031434679404 0.0014049110468 3.4427997889e-05 
-0.00067273742752 -0.001504110056 -0.0027651081327 -0.0040453695692 -0.0050069401041 -0.0055768731982 -0.0050592208281 -0.00021625689988 0.00054571282817 
0.0012087853393 0.0024062388111 0.0027558589354 0.0035942194518 0.0039760139771 0.0045902365819 0.0055344859138 0.0067409402691 0.007777929306 
0.0082050496712 0.0096419211477 0.0015422340948 0.010423139669 0.0096618738025 0.0079649947584 0.0061884908937 0.0050428584218 0.0041586542502 
0.0033086391632 0.0021738309879 0.00054039811948 0.011563957669 0.011213067919 0.010085493326 0.0082804085687 -0.00086723046843 -0.0024043670855 
-0.0030600316823 -0.0045998757705 -0.0041425805539 -0.0038369523827 -0.0036191397812 -0.0041698697023 -0.0032044085674 -0.0018499089638 -0.0010440694168 
-0.00068026472582 -0.00050119071966 7.4292162026e-05 0.0083677778021 0.0097876414657 0.01042782329 0.010534856468 0.012620510533 -0.0026477563661 
0.0028524335939 0.0042389174923 0.014514687471 0.012531834655 0.0013033150462 0.0056590987369 0.0075695500709 0.007076330483 0.0086019877344 
0.0030845892616 0.010157323442 -0.0014314622385 -0.0016142165987 -0.0024028061889 -0.0024931747466 -0.0034486444201 0.011919000186 0.013786339201 
0.01199176535 -0.0025931107812 0.0027328683063 0.0035451401491 -0.0020445080008 -0.0046147019602 -0.0045594740659 -0.0042341700755 -0.0048423791304 
0.0041091158055 0.0050518582575 0.0064606540836 0.0079943165183 0.0090628797188 -0.012469013222 -0.0098171066493 -0.0074330521747 -0.013875417411 
-0.010305249132 -0.0067410129122 -0.0017672014656 -0.00077652011532 -0.0019518946065 0.0025962470099 0.006851032842 -0.00047706413898 0.00076940457802 
0.0011687484803 -0.0010578477522 -0.0016260488192 0.0011203045724 -0.0011009568116 -0.0026072021574 -0.0057966313325 -0.0055384514853 -0.0057614068501 
-0.0052223191597 0.010659595951 0.0089553007856 0.0052370368503 0.006997813005 -0.0046471925452 -0.0043126586825 -0.0035260454752 -0.0045644911006 
-0.0050517469645 -0.0052178064361 
POINT_DATA 1114
FIELD FieldData 31
Circ_Strain_Pt 1 1114 double
0.94436204061 0.96975952108 0.97891380056 0.95714596977 1.0037972188 0.99714778596 1.0202539095 1.0094951228 1.0085436282 
0.99466477553 0.97752218679 0.96648407351 0.94842050285 0.92938213944 0.92707611325 0.90348036222 0.92786777029 0.9142517484 
0.95758073738 0.95499901292 1.011007433 1.0022081752 1.0615538747 1.0450745892 1.0762835921 1.046708687 1.0544878365 
1.0429204631 1.0524590808 1.0437989688 1.031543028 1.0100358129 1.0293333625 1.0053966311 1.0370791896 1.0170281891 
1.0291150259 1.02402589 1.0228477276 1.0297229423 1.0251416021 1.0290168068 1.0386772169 1.0296435429 1.0463116461 
1.0343094138 1.0485890643 1.0386359055 1.040328383 1.0385701369 1.0125387403 1.0153546822 0.98324640204 0.98709169486 
0.9569209315 0.95110461815 0.93904437679 0.93123665378 0.93331055988 0.93225200175 0.94199604654 0.94243732143 0.9632605445 
0.95539536334 0.97356568118 0.96538081297 0.98231341892 0.97128266759 0.99312097466 0.9813340286 1.0043758072 0.98006596823 
0.99943827205 0.99014500005 1.0209515989 0.99512445004 1.0175782343 0.98064374144 0.99430170757 0.97914508796 0.97226940217 
0.97582701828 0.95739605738 0.95886355205 0.95987565427 0.95933133293 0.95061931724 0.95187861757 0.96384714825 0.95513720819 
0.9830741455 0.97703822656 0.99828624528 1.0010319493 1.0099650448 1.0303187609 1.0147946526 1.0256865652 1.0199856013 
1.0218505534 1.0263464749 1.0238736388 1.0202270916 1.0181724546 1.0109324831 1.0077824656 0.99969891053 0.99798296958 
0.97999861994 0.98351404704 0.96932105941 0.96968224588 0.96786079427 0.96953245913 0.96698732378 0.97119195565 0.96409767923 
0.96352952105 0.96143375082 0.94556702965 0.96577874784 0.95273184697 0.96891314071 0.96423659913 0.97513765184 0.97836679514 
1.002000841 0.99693867198 1.0245810631 1.015739169 1.0445966569 1.0333126809 1.0631517631 1.0401199229 1.0613837889 
1.0465559117 1.0466471917 1.0341492047 1.0108587884 1.0121041 0.98112478479 0.98860368708 0.9601507925 0.97016805391 
0.95758936503 0.95850566301 0.96169512423 0.95110430244 0.97278944466 0.95990299943 0.96481023685 0.96805603233 0.93735605383 
0.96084977244 0.95309610811 0.97237220193 0.97511589708 0.98348838672 0.99172632651 0.99369855814 1.0020438637 1.0027015978 
1.0072588621 1.0087128672 0.99597081232 0.99961612581 0.98280049018 0.98607131272 0.96666551926 0.96858532624 0.95606020423 
0.9562261289 0.94846260786 0.94845310067 0.95662317005 0.96725856392 0.96793803059 0.98179216919 0.98614073624 0.99620626258 
1.0029833365 1.0115556402 1.0187037442 1.027623327 1.0173551099 1.0313135432 1.0120116464 1.02575057 1.0149417937 
1.0262064568 1.0175022761 1.0270414061 1.0190227889 1.0274985879 1.0178387102 1.0221591061 1.0139033153 1.0062963326 
0.99057509599 0.97909200926 0.98625262286 0.97091836198 1.0000136103 0.99906849251 0.96077254985 0.91112518558 0.89080815269 
0.90575642617 0.93952371471 0.98112711389 1.0114558456 1.0201201233 1.0273045761 1.0173411166 1.0005530352 0.98917407015 
0.99314311547 1.010344267 1.0235900493 1.024161305 1.0278245877 1.0310670349 1.0337842275 1.0376255352 1.0216246714 
0.99116785836 0.95687086515 0.93787752434 0.93374429346 0.9381481694 0.94581769288 0.95436468395 0.96639166664 0.96497146446 
0.96817588551 0.97287040334 0.97058686377 0.95044622356 0.96269642712 0.96752065012 0.96714685387 0.95885345361 0.93759304709 
0.93100496417 0.95425755255 0.98378602531 1.0160099351 1.0347274668 1.0319681775 1.0198297055 1.0184374872 1.0003201679 
0.98645880395 0.97918356299 0.97266100801 0.96553180173 0.96326647304 0.95505759216 0.95245595693 0.95132014159 0.96283028123 
0.97933371437 0.99262598891 1.0033898145 1.014682826 1.019903476 1.0382109522 1.0393215558 1.0195253085 0.99929930364 
0.98004106308 0.96723446804 0.95837679285 0.96801949259 0.98589850071 0.98287002777 0.984098137 0.98377716054 0.98758871044 
0.99920875394 1.0078403865 1.0003871754 0.98445859614 0.96795105493 0.95719138479 0.95174002708 0.96749951422 0.98500889903 
0.99213071904 1.0044743226 1.0344540566 1.0424539899 1.0378370569 1.0321099777 1.031772392 1.0360736279 1.0234632151 
1.0044845995 0.9683256235 0.94089975169 1.0328894366 1.0077916383 0.96145234809 0.9924337965 0.92481903523 0.89643643587 
0.89840537166 0.92274961927 0.96072895213 0.99025691209 0.99806615525 1.0083109398 0.99670528386 0.99079769924 0.98526326558 
0.97599425351 0.98630006422 1.001875847 1.009744308 1.0173544595 1.0223498322 1.0262430087 1.0373510212 0.99990526567 
1.026745064 0.96378704702 0.9430133434 0.93902320666 0.93720314423 0.94039152583 0.95122176773 0.96141732875 0.95751816528 
0.95611766769 0.95572318448 0.94747168719 0.94507271325 0.9499757085 0.95317164321 0.95940944805 0.95656186726 0.96620327905 
0.97870251477 1.0441239687 1.0436117393 1.025646887 1.008937728 1.0187634399 1.0045643277 0.99208712566 0.98108605006 
0.9749558632 0.98093807625 0.99730326111 0.9836837466 0.9891107321 0.98533138539 0.98953663293 0.99470444762 0.99904195387 
0.99217773062 0.97637147955 0.95656137355 0.95046006492 0.95605647295 0.97138529012 0.97791480515 0.97603754818 0.99215445291 
1.0132763078 1.033334674 1.045640649 1.0393389535 1.0344683533 1.0268474605 1.0074603737 0.97833466099 0.94202512462 
0.91484800102 0.90905053814 0.92368966861 0.95209039174 0.98299733959 1.0195485968 1.0345673703 1.0301508431 1.0190278704 
1.0026332194 0.99012614844 0.98153922005 0.9777341702 0.97625995984 0.97276385949 0.96406776765 0.94924736109 0.94553590274 
0.95196580982 0.96311276005 0.97914771833 0.9934208003 1.0040387874 1.0042264715 1.0019827047 0.99592804207 0.98644388812 
1.0168731151 0.98283093756 0.99752948275 1.01107281 1.0407725668 1.0390733792 1.013390326 0.98136530728 0.95482852778 
0.94755779189 0.94770539057 0.95418933868 0.95207785827 0.96005129425 0.95723685518 0.95553616417 0.95648623817 0.94749956174 
0.93780933484 0.94079364769 0.94885503798 0.94714031172 0.95208829654 0.95766141344 0.96306557951 0.97350110101 0.95126003939 
0.97863723313 0.92439165339 0.90420689452 0.90482604473 0.92530398049 0.95194088533 0.9737733388 0.98649714137 0.99162099568 
0.98552714742 0.98849208099 0.9757010725 0.96814557109 0.96955699796 0.98156021396 0.99517902589 1.0049258122 1.0063134426 
1.0067541282 1.0258287595 1.0275741562 1.02227521 1.0324268327 1.0211257463 1.0221438626 0.99852954543 0.98774278774 
0.98848375205 0.98278328528 0.95537611449 0.95257996912 1.0069166619 0.99874213814 0.99140055603 0.98716894711 0.99103446403 
0.99974885312 1.0161603649 1.0245044905 1.0319118687 1.0111186711 0.99552463958 0.99218848512 0.98487571476 0.98068326259 
0.98904443977 0.99106252391 0.975008575 0.95589307212 0.9494649129 0.95328418325 0.9623308381 0.97857221208 0.98866129637 
0.99658762402 1.0192372363 1.0461228812 1.052133886 1.049242475 1.0420884367 1.0303343125 1.0110094926 0.97987447954 
0.93859158059 0.90732159238 0.89324591104 0.90825704208 0.93169228554 0.96185339551 0.98898084176 1.0153452967 1.0242905747 
1.0225570944 1.0067662186 0.99095992871 0.97717543108 0.96973150508 0.97035624915 0.97406543333 0.97909420256 0.97493775711 
0.97107246679 0.95787903262 0.94720031583 0.9696313029 0.98181605272 0.98817226555 0.99522647893 0.99807753543 0.99041470617 
0.97337691318 0.96288749527 0.96128669751 0.99013553838 0.95509269216 1.0081199602 1.0138611716 1.0020382351 0.99149152719 
0.99456607876 0.99967444101 0.94315260711 0.95639317103 0.9295746183 0.93869799042 0.96935718705 0.93150248554 0.98819350907 
1.0008409631 1.0017375036 0.99161831574 0.98709884825 0.98701652757 1.0093778259 0.95617958253 0.96939936748 1.0039667167 
0.98322991657 0.96685642971 0.95189242948 0.95668098711 0.96530160886 0.96779482047 0.96556631141 0.9630903495 0.96642415072 
0.97381276179 0.96196179768 0.94987755463 0.95022345482 0.95295315386 0.9624897143 0.96249199719 0.96769363337 0.97232412588 
0.95846424404 0.95798478963 0.96957351387 0.97942492459 0.98414314996 0.98188648213 0.9847491213 0.98626282096 0.98191632576 
0.98065612609 0.9786753748 0.97817663942 0.97295948704 0.95464386721 0.93497828986 0.91845651896 0.91092111637 0.91981569196 
0.93808951645 0.96127073228 0.97677574477 0.98504718118 0.99519246926 0.97741971556 0.99765785982 0.96769744799 0.96860905426 
0.96974854245 0.97921280414 0.98738808919 0.98650230117 0.98689408149 0.98787742681 0.999022441 0.99935701288 0.99841970996 
1.0205399881 1.0030022431 1.0261476899 1.0237570531 1.0108535484 1.0203909395 1.0283891002 1.0243410013 1.0434437289 
1.0517551496 1.0239588892 1.0122312047 0.99847335303 0.978182033 0.97335812649 0.9810677568 0.99211610189 0.9972619323 
0.97820321759 0.95760419956 0.94497031314 0.95002371892 0.97134235749 0.98989826617 0.98901398663 0.98732270375 1.0160345854 
1.0414635472 1.0485300224 1.0504568402 1.0453615499 1.0373751639 1.0232538817 0.99239610089 0.9460376299 0.90220524012 
0.90999702148 0.90038830675 0.92904029996 0.95121715262 0.98125983581 1.0060122897 1.0171853516 1.0135182517 1.0007418026 
0.97846984456 0.96191215607 0.95903131222 0.96623863657 0.97978298534 0.98457418122 0.98632555923 0.97999827782 0.98726865941 
0.9809739001 0.99671496028 0.96116724445 0.95556506729 0.96363608148 0.97516396873 0.9816239906 0.97711270017 0.97617050113 
0.88856713774 0.88587336989 1.0163743694 1.0531331633 1.0620409193 1.0530082928 1.052360396 1.0343973873 1.0102233774 
1.0005465342 0.98729609068 0.97674514449 0.96953426134 0.99221403764 1.0087271399 1.0015354139 0.98457763173 0.96307612516 
0.96622826064 0.98150760697 0.98244403549 0.98698761753 0.99550769577 1.0059636474 1.021816198 1.0372992117 1.0471931981 
1.0528694281 1.0474847432 1.0347229484 1.0048410142 0.97312985207 0.91964460588 0.9046895219 0.90274532824 0.90494558719 
0.90289246649 0.90575796696 0.91799589577 0.93608666506 0.95767987852 0.97939046091 1.0003600009 1.0064410733 1.0082757805 
1.0014351692 0.97645121722 0.95887432175 0.94804624264 0.9563418463 0.96870197182 0.98422513452 0.99402303339 1.00239766 
1.0026761701 1.0039794297 0.98962182183 0.97346738911 0.9630538428 0.96825237076 0.97650414092 0.9790302754 0.9638603215 
1.0094491276 0.98242543447 0.96182851068 0.95802796856 0.96431107207 0.97073048838 0.97185501341 0.97170098903 0.97488690061 
0.98067743826 0.97836759385 0.97009246053 0.96284704852 0.95889437241 0.95732620239 0.96455096828 0.96935600524 0.97224796003 
0.971731907 0.97430899677 0.98033993675 0.98098330756 0.98061304595 0.99307430587 1.0007282156 1.0015977383 0.99436469468 
0.98599693286 0.97938998497 0.97906956306 0.98101854482 0.97815085711 0.97007884871 0.95530232176 0.94072197727 0.92900553199 
0.92651339469 0.93780324733 0.95616618898 0.97045006674 0.98284239967 0.99562358564 1.023584945 1.046180143 1.0563502584 
1.0355208106 1.0126569197 0.9953760085 0.97903691223 0.96764993751 0.96720057022 0.96620473134 0.96429961772 0.96205546459 
0.96311978849 0.96443801394 0.9616258672 0.97599084048 0.98164143406 0.98794383375 1.0089094773 0.99621229471 1.017589209 
1.0229291366 1.0180645616 1.020302923 0.9806969095 0.98280318541 0.98848670366 1.0054701707 1.0211554891 1.0040590004 
0.98632519643 0.97593289908 0.96898372945 0.99212780767 0.98822149435 0.99104672048 0.99421367705 1.0022042303 1.014253435 
1.0385707531 1.0557627514 1.056526769 1.0502368399 1.0298672427 0.99942199246 0.95798951849 0.93101764417 0.93585617008 
0.92410244793 0.92686344554 0.94617112497 0.91488877002 0.92027604888 0.92997182497 0.94196081908 0.95762083043 0.97101283693 
0.98386634887 0.99568039964 0.99840378572 1.0017039334 0.99668727415 0.98667279057 0.94992054269 0.95331546001 0.96114826387 
0.9796509094 0.99693594069 0.98145925974 0.9730661866 0.98683269955 1.006761038 0.9905560058 1.0116966772 1.0032911538 
0.98402263963 0.99986109606 0.98093411765 0.96905738782 0.95954991676 0.96128915587 0.96512650487 0.97131608723 0.97955029841 
0.98933415029 0.98961263366 0.98490242453 0.97627296367 0.96818784851 0.96522408465 0.97662117 0.96974199827 0.97799245214 
0.97439723624 0.97635216842 0.98068091001 0.98407707825 0.98441877093 0.98810348181 0.99755804442 1.0104235315 1.0191566476 
1.0070374467 0.99678785201 0.98958850373 0.98696769651 0.98849162806 0.9880851884 0.98520499014 0.97784446595 0.96490229953 
0.94036870797 0.94050086424 0.94630744823 0.9565115646 0.97069605278 0.98310346667 1.0014245463 1.0303543317 1.0480800381 
1.063919613 1.0723335524 1.0549973829 1.0306133087 1.010831374 0.99572342536 0.98350066405 0.98050869735 0.9762121578 
0.9642640218 0.93730330017 0.94222181943 0.94756569025 0.94202324358 0.949046304 0.95022640227 0.96215654187 0.97443856787 
0.98669161667 1.0061370578 0.99869640219 1.0131226035 0.94131624415 0.92790444143 0.91844329947 0.92858172706 0.95369521518 
0.97229355824 0.98437318173 0.99107331693 0.98992845871 0.98522380208 0.99565263116 1.0081472433 1.0219227741 1.0608436535 
1.0717069892 1.07119232 1.0703886768 1.031989321 0.99618517892 1.0075321968 0.97363152554 0.95876603663 0.96017444684 
0.96297886586 0.97229507571 0.98078103722 0.98587056305 0.98683921708 0.99253690681 0.98362922973 0.98034205734 0.95638299683 
0.96497733 0.97352614517 0.96485290496 0.96606803215 0.97253238511 0.97775823006 0.98266102203 0.98470677839 0.99352140954 
1.0069172049 1.0178022298 1.0222601219 1.0098690838 1.026729882 0.99403560176 0.9869153087 0.98697434378 0.99579695943 
0.99883953232 0.98970160986 0.97799578927 0.96188223399 0.95969262045 0.95411391549 0.97065036325 0.97662903198 0.9868319302 
0.99641003375 1.0110652701 1.0422579298 1.0668148683 1.0333430812 1.0375879596 0.96462143153 0.97568208799 0.98210671091 
0.97702749885 0.96850908782 0.95445768531 0.93900887486 0.92484024635 0.92571488581 1.0220281823 1.0018958237 0.98256401047 
1.0018860832 1.0198319816 1.0182599341 1.0102136362 0.98997676435 0.97424620959 0.9798811415 0.98825200738 0.99322757094 
0.99554425275 0.99618053425 0.9952039984 0.99276031934 0.99874951224 1.0186017647 1.038434058 1.05324322 1.0556920753 
1.047800652 1.0320808736 0.99882651673 0.96691271521 0.94522052833 0.9471819862 0.96008907518 0.94948065052 0.95847698924 
0.94108529914 0.93038847576 0.93277137804 0.94055009 1.0060406159 1.0386427848 1.0551738941 1.0486087142 1.0377278156 
1.0256519716 0.99298501626 0.99772150025 0.99744003328 0.97588995932 0.96219039514 0.98741039642 0.98806200897 0.99280946785 
0.99320525888 0.99010076394 0.98326294278 0.96587260599 0.98187873925 0.96429249837 0.95833285475 0.95520889823 0.96035777248 
0.968592645 0.9635034714 0.97777764998 0.96676991421 1.0017881532 1.0133767157 0.99566813329 0.99801291245 1.0042314893 
1.0275448343 0.99521918996 1.0003720083 0.99804110983 0.99352784078 0.98782503652 0.99325470985 1.0128578013 1.0340662103 
1.0455024848 1.0484910813 1.0306569304 1.0156100449 0.96374983945 0.94745810828 0.9572679097 0.96109651765 0.94885402275 
0.99601171052 0.99565873338 1.001578382 1.0107305504 1.0074626044 0.99295129094 0.98162191211 0.97668094988 0.98279907836 
0.98955666019 0.99539176557 0.99145105499 0.99405927068 1.0145773223 1.0386907336 0.96481784733 0.96281770878 0.95965970793 
0.96985288226 0.9754835971 0.97038786615 1.0040109204 0.99330183285 1.019339817 1.0269486264 1.0371543213 0.97647355518 
0.95933376433 0.95706231883 0.9659409525 1.0143127582 0.9702486067 1.0101950713 0.98923596253 1.0260159648 0.9872584531 
0.99563606413 1.0042248925 1.0187568728 1.0150324036 0.96485702224 0.98859015684 0.98321017407 
Circumferential 3 1114 double
0.79358564266 -0.098704155666 -0.60039929832 0.68525854698 -0.10456992218 -0.7173956823 0.64441752524 -0.10376320717 -0.74991944892 
0.79095036529 -0.042612288592 -0.60736057163 0.45373711772 -0.13330052976 -0.86369045155 0.45738539554 -0.15936607994 -0.8625158899 
0.20679685355 -0.1547474061 -0.9555842885 0.21477221696 -0.22703515801 -0.94305348754 -6.5806296421e-05 -0.15092806195 -0.98372081087 
0.0047503129604 -0.25278999135 -0.96565152139 -0.15054955479 -0.126857535 -0.9794528459 -0.10430076932 -0.22750475351 -0.96736814031 
-0.24344611856 -0.110691781 -0.963484949 -0.21479123163 -0.16982378841 -0.95994482865 -0.3469497324 -0.13648253549 -0.92558559048 
-0.31225018302 -0.14752564286 -0.9377772803 -0.41282112405 -0.12852259355 -0.90105265456 -0.40352443847 -0.13360475328 -0.90309573466 
-0.49101108567 -0.10001326185 -0.8617664647 -0.51114398177 -0.11532568841 -0.85012176181 -0.60563701766 -0.067688275804 -0.79023984287 
-0.62652854781 -0.10713874094 -0.76890322389 -0.71969176811 -0.042783790605 -0.68610435937 -0.76010534567 -0.08718608106 -0.64118590747 
-0.86293086955 -0.039591131241 -0.49892790242 -0.8731284791 -0.064270897985 -0.4799873271 -0.93783703088 -0.00012524002745 -0.33895000727 
-0.94512177884 -0.04768283846 -0.31824471409 -0.98249520049 0.026355956815 -0.16546781308 -0.98863698513 -0.024543020086 -0.13898958337 
-0.99674760255 0.060460043468 -0.032463121234 -0.99838038695 0.030015494566 0.0017821385036 -0.99516737608 0.07370370481 0.049628229006 
-0.98899869291 0.10179991693 0.086626228438 -0.97442453813 0.077694405187 0.18889142064 -0.95886468052 0.13158154182 0.2373493415 
-0.95769592064 0.089507849031 0.27346618045 -0.91727204599 0.15930587145 0.36087844658 -0.95038546498 0.054504207529 0.29917490345 
-0.88996757666 0.19553218229 0.40608278672 -0.92711942679 -0.023624151049 0.36508222238 -0.86390908336 0.19616977619 0.45912603731 
-0.79900233201 0.0099293851687 0.58937629224 -0.77757882507 0.18096399361 0.5935085977 -0.67223957432 0.031516663876 0.73142685869 
-0.6635728242 0.19016844352 0.71501227563 -0.51242198099 0.046586266775 0.84658956957 -0.49525915448 0.17906576239 0.83736205414 
-0.31519746894 0.061885800759 0.94025159734 -0.26865774109 0.13514268073 0.94589201778 -0.097774170297 0.087238529845 0.99019705668 
0.019103247276 0.076093329335 0.9933932468 0.16326945097 0.10916842994 0.97179120239 0.24516502926 0.079950768514 0.96245653532 
0.33873375492 0.13204745963 0.92661374237 0.3969576925 0.099509697586 0.90899038672 0.45602860457 0.14569332061 0.87573830426 
0.50526957428 0.11205182982 0.85390807584 0.53950926485 0.14800138751 0.82774932071 0.57645172506 0.12597741688 0.80625230249 
0.60915867323 0.14344517777 0.77957687244 0.64208436045 0.13891648888 0.75363233746 0.69413249976 0.14099675933 0.7036495905 
0.72736292752 0.12541133478 0.6717185832 0.79013412534 0.12655718638 0.59124853818 0.81681833299 0.10600002292 0.56068218332 
0.87409995314 0.10133491917 0.46600230745 0.89078405273 0.086904233828 0.44229737596 0.93441817727 0.072210967236 0.34635521994 
0.93977047485 0.060787203589 0.33371610384 0.96397032432 0.059285638462 0.25862747708 0.97009492172 0.039317604438 0.23731751415 
0.98443780026 0.039322391048 0.16607638125 0.99173085719 0.025589128795 0.11528991762 0.99586607048 0.022009629519 0.072045751114 
0.9986893115 0.010605535239 0.032678432351 0.99787455998 -0.011468489329 -0.024615221937 0.99639255649 -0.0024169615165 -0.0577558512 
0.98685437628 -0.038961677849 -0.13834487754 0.98330168197 -0.023018664243 -0.17223509417 0.95640182002 -0.046121380879 -0.27467967659 
0.95034313002 -0.028488093503 -0.28515201107 0.89722752021 -0.052193643657 -0.42872731941 0.8826162885 -0.032014455215 -0.4590246765 
0.97207656075 -0.061768886805 -0.22638852592 0.98708426783 -0.018908468057 -0.06351440386 0.99281049416 -0.029452190456 -0.02931437051 
0.98510561643 -0.065802089947 -0.15475395977 0.99728984241 0.0069794301153 0.067669749432 0.99600254483 0.001647023419 0.081229429538 
0.99353432269 -0.016476366538 0.10672261671 0.9907090983 -0.0088754464001 0.129932408 0.98685045755 -0.023679032121 0.15426477217 
0.98316545307 -0.0035370041466 0.17815067259 0.97758950948 -0.016578171109 0.20927790407 0.9728536315 0.019596476388 0.23018155417 
0.95317758275 0.0052763626568 0.29394186334 0.95049648842 0.030009409466 0.30366313301 0.91943381676 0.02778529066 0.38520746707 
0.92152067952 0.040342404879 0.38142406035 0.87201413981 0.050074153286 0.48451738188 0.88146926593 0.048360671699 0.46825123856 
0.77947913581 0.081059160597 0.60938951564 0.82537852424 0.081483973856 0.55190559876 0.69982602153 0.11051585747 0.7042721385 
0.7734423772 0.11761859374 0.62155459789 0.6508097456 0.13554261466 0.74672991888 0.73342855573 0.13508220619 0.66428177104 
0.62520568252 0.1510242836 0.7653913254 0.65926278352 0.16998918083 0.72865086125 0.55302362448 0.18372837493 0.80660278095 
0.55710111092 0.19056556634 0.80372453898 0.43693357144 0.22893187916 0.8693223228 0.42896564048 0.17901972112 0.883844649 
0.34724626487 0.21421774218 0.91085469419 0.32872331397 0.18795711986 0.92324436582 0.25328595176 0.21048756438 0.94141861948 
0.2531023617 0.20956686773 0.94234396148 0.13730232061 0.20558909692 0.96348887942 0.15986223194 0.21897235527 0.96198771012 
-0.07876393759 0.16282014773 0.97403196491 -0.06019411355 0.17869830691 0.96896040093 -0.26229749775 0.14742526994 0.94448391015 
-0.27016236194 0.14523198936 0.94166120761 -0.41920563664 0.14605704071 0.89466885307 -0.44919856977 0.12493328824 0.88344005851 
-0.51576127488 0.14849643867 0.8408247402 -0.5533629514 0.12480368618 0.81871098344 -0.58321527101 0.1526979679 0.79635382583 
-0.6236009047 0.13715093962 0.76877560982 -0.63276728134 0.15651624118 0.75805517945 -0.65237190746 0.16113342592 0.73986662324 
-0.66950058545 0.15218695644 0.7263564183 -0.66733266542 0.16841107988 0.72517574638 -0.72955678263 0.13432133226 0.66499827173 
-0.72211230496 0.15479752461 0.67102706897 -0.80365942189 0.10862962183 0.58391058033 -0.78081915268 0.13756244408 0.60905429535 
-0.87976035167 0.090423517387 0.45081922588 -0.83980007574 0.1180101503 0.52223547885 -0.93266413011 0.071116801293 0.35122079821 
-0.89422272523 0.096143128794 0.43300119561 -0.95200433137 0.050217628287 0.30008273607 -0.93279372687 0.082758476314 0.34480585957 
-0.96764730852 0.040501597169 0.24431274915 -0.95883764352 0.064009661881 0.270140799 -0.98170619703 0.030999036026 0.18316285507 
-0.97836953184 0.040615984086 0.19947019556 -0.99284009541 0.0019475505445 0.097287923288 -0.99171449618 0.022019717564 0.096286789107 
-0.99818920995 0.010235960507 0.028739016016 -0.98625522983 -0.032260745862 -0.054815548979 -0.99763178635 0.05665017129 -0.022119200067 
-0.93199320476 -0.1407105802 -0.31711089313 -0.90285022422 -0.071086968155 -0.2929069896 -0.85441807801 -0.18143395967 -0.46832173073 
-0.80740272444 -0.19999733934 -0.55475548801 -0.78757138883 -0.20038543773 -0.58220801031 -0.78874273437 -0.18669668797 -0.58504686483 
-0.76387531623 -0.18637440973 -0.61714190518 -0.77380661521 -0.17057058183 -0.60962435085 -0.74798577108 -0.17258384812 -0.64062845005 
-0.7616435254 -0.15226798022 -0.6298025379 -0.73636588813 -0.16059878603 -0.65697992411 -0.68481405074 -0.16113756218 -0.70559778573 
-0.6770840375 -0.15720056586 -0.71583456926 -0.59753695994 -0.16490880879 -0.77965841013 -0.59969049596 -0.15661761142 -0.78067135259 
-0.49380448623 -0.16064998816 -0.85098693828 -0.51086823537 -0.15040449594 -0.84386651224 -0.42647546561 -0.16086425378 -0.88875851364 
-0.4585070571 -0.14760588785 -0.87558926416 -0.37370331997 -0.16181766858 -0.91319325482 -0.42597415965 -0.14294487352 -0.89293358862 
-0.32816732256 -0.14434536341 -0.93246292831 -0.37826306908 -0.12614856066 -0.91562679272 -0.24276018982 -0.13162209414 -0.95386748928 
-0.30107755925 -0.11170249334 -0.94224719732 -0.070288938991 -0.12926899914 -0.97993387124 -0.11920503096 -0.12189903162 -0.9751780937 
0.090564500349 -0.11880923095 -0.98089231042 0.063838234645 -0.13162278808 -0.98209578008 0.24183234326 -0.101660828 -0.96113474754 
0.21903333342 -0.13086244227 -0.9634849408 0.3813789641 -0.13059762806 -0.90480607612 0.35725196777 -0.12607809624 -0.91822170408 
0.51503659262 -0.16831169109 -0.84019121774 0.49519216343 -0.1181937279 -0.86003496012 0.58012160035 -0.13627820702 -0.79974444451 
0.57339989501 -0.12649021564 -0.80594436553 0.64625750838 -0.11058563676 -0.75266891867 0.64017378406 -0.12412354972 -0.75606080262 
0.71534989066 -0.10273181687 -0.68694487203 0.71473221191 -0.10981885936 -0.68612164196 0.78120688385 -0.09864404481 -0.6104757585 
0.79012358622 -0.10305205889 -0.59738655982 0.84377259326 -0.098387382964 -0.52307594591 0.86307489705 -0.10024001403 -0.48883893598 
0.90767125002 -0.082961121193 -0.38446493679 0.93068196122 -0.084448287597 -0.31977949667 0.52367310231 -0.088920192005 -0.83916906096 
0.70587217872 -0.0059539657399 -0.70337857912 0.24262986472 -0.20951423571 -0.94076055806 0.011586628613 -0.22945131786 -0.97112500323 
-0.10680664528 -0.1763744129 -0.97782312028 -0.23111417951 -0.1703021211 -0.95686771905 -0.35100919597 -0.15627511924 -0.92230285483 
-0.42205873637 -0.12532750513 -0.89653212263 -0.51039679091 -0.10447617154 -0.85142485645 -0.62150642197 -0.08583512551 -0.77433441343 
-0.74624622158 -0.087686555552 -0.65529345243 -0.85708767075 -0.080304279588 -0.50427656423 -0.93556624853 -0.065163037187 -0.34010683013 
-0.98064921978 -0.032789441713 -0.17977130515 -0.99764823732 0.017473786147 -0.024893937509 -0.99073497013 0.08800595393 0.087683579384 
-0.9603458995 0.12004756909 0.24487548246 -0.90765923477 0.13248420461 0.39612121635 -0.85820993584 0.17522096 0.48225298662 
-0.785506676 0.18985945908 0.5856452413 -0.7033487639 0.19720468039 0.67943174099 -0.61502283551 0.18818954857 0.76065697576 
-0.45326743867 0.14168584468 0.87269077709 -0.15497331375 0.044182930916 0.97784629652 0.14236273943 0.031185111112 0.98697967141 
0.30908602644 0.047158724461 0.94870276812 0.42505689311 0.073212527354 0.89976038016 0.51277651283 0.095510211328 0.85070589689 
0.58700553571 0.11552426972 0.79971300471 0.64631322136 0.12823131955 0.7514872816 0.71653512668 0.11848713243 0.68633428442 
0.80517150617 0.10320356798 0.5788439543 0.88108551202 0.078012948926 0.46115793268 0.93248309018 0.055634595023 0.3547663219 
0.96823168969 0.032173920778 0.24397732871 0.99196123951 0.013147119754 0.11171494635 0.99930150797 0.0072026501286 0.021647715843 
0.99603335342 0.02603172655 -0.066680260457 0.98224605998 0.036589585577 -0.18013125338 0.95586000121 0.13266611355 -0.24835108414 
0.89366570797 0.1505504293 -0.39793295173 0.81256968984 0.062122831004 -0.57721981427 0.99351443696 -0.060723578386 0.074550976577 
0.99230886346 -0.081762559749 -0.037142534068 0.98566308886 -0.040829371945 0.15867401595 0.97391742393 -0.025809302756 0.22113556663 
0.96453374573 -0.0035106893791 0.26344959712 0.95229722117 0.0081589461618 0.30438022547 0.93368615086 0.022075178654 0.35431495923 
0.9116185695 0.043779333837 0.40831895933 0.88333377121 0.072854459782 0.45978139118 0.85618753836 0.10615464317 0.49867444571 
0.81099663855 0.15460670489 0.56127102228 0.72555804856 0.181397015 0.65237016161 0.59174921981 0.19444259166 0.77708588044 
0.42136236638 0.17385432125 0.88332728042 0.30854818828 0.17745004739 0.93298298359 0.2362335691 0.20088056958 0.94968025609 
0.13600723619 0.21585744935 0.96488666658 -0.035421623349 0.18727263369 0.97728841699 -0.23854729296 0.1539343586 0.9494548712 
-0.42014210211 0.11380712543 0.89655964705 -0.54392294252 0.093574080194 0.82890171854 -0.64965256595 0.089545956389 0.75216450906 
-0.69884572165 0.12168581921 0.70286968479 -0.69634899442 0.15106937489 0.70148066888 -0.72745029234 0.16490370556 0.66581110077 
-0.70311471662 0.16860578989 0.68961372843 -0.76945403815 0.16006604647 0.61425691583 -0.81848398421 0.15511475931 0.55077837496 
-0.86977653416 0.14095793232 0.46224671294 -0.9303412459 0.12238294809 0.33385332404 -0.9706788442 0.083292612604 0.2194664265 
-0.98920166674 0.034913259331 0.093092732613 -0.97819602895 -0.070790699648 -0.11530867619 -0.94066274514 -0.13885496439 -0.2921471744 
-0.85650719866 -0.21251289887 -0.45929734885 -0.80219087673 -0.21896533137 -0.55282188687 -0.75988463771 -0.2123467973 -0.61285614654 
-0.73746545478 -0.2007354819 -0.64328311514 -0.71751228077 -0.16178113266 -0.67701713544 -0.68163494269 -0.14420502031 -0.71604570903 
-0.60909094322 -0.15005775816 -0.77502212949 -0.51733504738 -0.15976897378 -0.83827012479 -0.45593383732 -0.15131625674 -0.87495844843 
-0.41631139515 -0.1366638917 -0.89874176236 -0.40128736869 -0.10766322275 -0.90895020664 -0.35701098685 -0.10531122798 -0.92197962894 
-0.30614071262 -0.05104061536 -0.94202949684 -0.17179652343 -0.028594512109 -0.94005721595 0.20694810599 -0.12130992784 -0.95564836047 
0.35662111622 -0.12594437181 -0.92211478266 0.45555919698 -0.11193757497 -0.88142318592 0.5434498972 -0.11035662057 -0.82938840116 
0.61707289638 -0.10813939112 -0.7766507667 0.68738501608 -0.11246461998 -0.71528942639 0.77107855798 -0.10791146078 -0.61794891899 
0.85311185204 -0.10076409812 -0.50876668363 0.92311426412 -0.10576057436 -0.3488828569 0.97385524434 -0.09618865026 -0.18960043843 
-0.69322321492 0.16662925759 0.70076655091 -0.68569059733 0.1547561514 0.71112512301 -0.18054192931 -0.13734133676 -0.97187799444 
-0.094341824327 -0.17931379135 -0.97801034464 -0.2879137092 -0.11868469599 -0.94787035886 -0.39184656742 -0.11462173878 -0.91232703696 
-0.45300394365 -0.11064759841 -0.88303889366 -0.51149101724 -0.11129634482 -0.85065084647 -0.59844233915 -0.095788618874 -0.79393044808 
-0.71962398915 -0.094423848945 -0.68467167961 -0.82899922226 -0.082614981932 -0.54716958069 -0.91595495352 -0.067624762007 -0.39000330304 
-0.96537494312 -0.015681280776 -0.24878383594 -0.99407743864 0.031907344489 -0.070626898815 -0.99194877323 0.089680778189 0.066552221863 
-0.97111690872 0.13172559625 0.19072669662 -0.93034697587 0.12880432882 0.34216173985 -0.87930560641 0.14200783855 0.45139568048 
-0.81312488717 0.14948845425 0.55637077717 -0.7270721533 0.1526732804 0.66530353696 -0.64327596066 0.15060984041 0.7488972229 
-0.49187624057 0.10575890567 0.85838803069 -0.29092224154 0.060893754042 0.94190308784 0.31914764982 0.023174092584 0.94572842062 
0.19813526688 0.013920407331 0.97602813739 0.4293868239 0.037754374573 0.90130047145 0.5310010916 0.045636382624 0.84422433442 
0.61863589644 0.070506297294 0.78118749859 0.67166204916 0.093794332604 0.73438386711 0.7415409069 0.10381195287 0.66023243128 
0.81532709649 0.096527952333 0.56585586392 0.87912734784 0.073996747067 0.46810056494 0.92184301216 0.060121256217 0.38105190299 
0.95576006642 0.0642414272 0.28421444286 0.98324824138 0.036568630219 0.1721216168 0.99366732194 0.06803831423 0.053408707973 
0.98055578368 0.16013315395 -0.077916512804 0.92509612809 0.21310161519 -0.27379427733 0.89830557661 0.26528022949 -0.32020392622 
0.81591347462 0.19162788385 -0.52601717867 0.74236112325 0.02037299902 -0.66561418294 0.63718096792 -0.048618541511 -0.76110654792 
0.51643132758 -0.092042631063 -0.84213383678 0.080842846904 -0.00286380407 0.99164069931 -0.14971367642 0.033128321963 0.98399842993 
-0.70128044853 0.15821601771 0.69458981851 -0.67523397199 0.14253264856 0.72352181925 -0.70822151129 0.15746453407 0.68769503435 
-0.74613806087 0.1611253601 0.64356656311 -0.7953569103 0.17474916177 0.57394119178 -0.86035051046 0.16870052941 0.46587112754 
-0.93206553078 0.13307136389 0.31695592719 -0.97515154176 0.074872743692 0.17259342492 -0.99593629147 -0.0043338073372 0.028174619562 
-0.86704759147 -0.2139826751 -0.44523839757 -0.93022235322 -0.13990733142 -0.31602665554 -0.80821061128 -0.22633269511 -0.53803082614 
-0.75633029469 -0.23372058254 -0.61057310361 -0.7039441265 -0.20949343409 -0.67450989909 -0.66561145232 -0.176919211 -0.72414655084 
-0.63855418649 -0.1539920252 -0.7524117546 -0.55457461868 -0.15624086479 -0.80966932994 -0.4342700492 -0.1712851036 -0.88083163731 
-0.36991105733 -0.16824765901 -0.91210319259 -0.38584029657 -0.15675932019 -0.9084645312 -0.40967791651 -0.15855362612 -0.89826427644 
-0.41932461568 -0.12713206538 -0.897263598 -0.42977517788 -0.067526465083 -0.89886895032 -0.16328369651 -0.076704795354 -0.93509076127 
0.18409899242 -0.11373886149 -0.97400549179 0.31464835013 -0.11102730587 -0.93640360883 0.43678897551 -0.10898243963 -0.89139688207 
0.52542217556 -0.10351852375 -0.8432914402 0.61249814372 -0.10517162358 -0.78005786515 0.70034233511 -0.11394980762 -0.70099785486 
0.7843222254 -0.12550336123 -0.60039950773 0.86243886355 -0.137733613 -0.4826856864 0.92310753475 -0.1303300625 -0.3396505223 
0.9742523986 -0.1193017607 -0.16535382517 0.99065215491 -0.11196398184 -0.016960222406 0.98835195393 -0.082361583701 0.10229794757 
0.97622232739 -0.053932526447 0.20248286674 0.96309556909 -0.040366176754 0.26368696169 0.95434773312 -0.0067777722042 0.29829484446 
0.94918702888 0.0061414330924 0.31423773881 0.9394678963 0.024446460935 0.34069178153 0.92745876905 0.053017035751 0.36943343406 
0.91951493174 0.096668599153 0.37894147545 0.89746600676 0.14030059455 0.41199331409 0.85841867465 0.20176697336 0.46850054886 
0.77671419638 0.21654525148 0.57917959058 0.66835603872 0.21601930564 0.70457476815 0.50042824345 0.19456938219 0.83529712298 
0.34720238826 0.17496851162 0.91592558699 0.22320860079 0.17856316159 0.95730116485 0.13080682547 0.19952958225 0.97038806785 
-0.058471198069 0.17548119359 0.97384281005 -0.2401009555 0.14315906437 0.95365208801 -0.39371232216 0.10465403793 0.90974069734 
-0.54289324419 0.083224598178 0.82598728588 -0.67025003433 0.068547107766 0.73793135837 -0.71256038856 0.08390022648 0.69391480445 
-0.74755046062 0.10844931865 0.65510701037 -0.70647321996 0.13972534276 0.69318070448 -0.68039382922 0.1233893416 0.72174677173 
-0.64313812611 0.10490284068 0.75832888646 -0.6470389324 0.098456695713 0.75528426294 -0.96835379294 -0.094854412995 -0.19918683158 
-0.99260221009 -0.049681467026 -0.060629610572 0.064856818885 -0.0020558530257 0.99662168622 -0.046680383295 0.027698797604 0.99590321075 
0.19158373323 -0.0088025977438 0.97967338233 0.31513940638 -0.037304570126 0.94591759142 0.41957464305 -0.03116062767 0.90623263625 
0.51996874606 -0.0103681642 0.84959285039 0.60843881222 0.013925136288 0.78930956023 0.6817731231 0.039601437724 0.72881667365 
0.73374716969 0.064383982079 0.67371338928 0.80966044818 0.069660951653 0.57904607143 0.86612530848 0.059097030533 0.49284991023 
0.91061504398 0.052555517853 0.40927124578 0.94633566707 0.051494368355 0.31287003119 0.9692834744 0.075918127613 0.22547976142 
0.97848895098 0.12963639558 0.14099991382 0.97248407856 0.21532562061 0.072404703675 0.84888231988 0.31819772395 -0.41592104173 
0.88538802024 0.31492740778 -0.32696069178 0.81080213777 0.19329934111 -0.5283637759 0.71638826748 -0.01259235156 -0.68862702585 
0.5869007419 -0.10980452706 -0.79984288849 0.47071467669 -0.14768844319 -0.86693330972 -0.28441457864 -0.1291568441 -0.94841566275 
-0.22093377499 -0.16008340233 -0.96139786932 -0.35403881525 -0.11223182719 -0.9273713134 -0.42649545434 -0.10928228398 -0.89739569329 
-0.50357981792 -0.11914607855 -0.85469027588 -0.54511356222 -0.1109325107 -0.83066219692 -0.5931809965 -0.09774755461 -0.79758363623 
-0.66428130715 -0.086468681983 -0.73812599343 -0.77981505515 -0.060870919173 -0.61968633773 -0.88661021059 -0.042184975975 -0.45885433703 
-0.95413001467 0.0093388742821 -0.28875556361 -0.99528108369 0.027283807007 -0.060251710071 -0.9943870318 0.056317571586 0.071513519108 
-0.97562643969 0.08054665112 0.20020128249 -0.94768124303 0.090417273404 0.30339456938 -0.91077360618 0.097852829039 0.39626550432 
-0.86038978675 0.10301008771 0.49384301227 -0.79124470674 0.10257111616 0.59772893435 -0.70175840829 0.10049390251 0.70158897842 
-0.58926066213 0.066448757926 0.79662550429 -0.3929192369 0.024681646395 0.91275588437 -0.32160368539 0.067445962593 0.93657661216 
-0.30303768274 0.11055024742 0.94158877668 -0.066648997363 0.088521230957 0.99214563143 -0.22000026231 0.10823812614 0.95903743401 
0.077544869526 0.029868222604 0.99342501939 -0.069694375312 -0.24226923315 -0.96594786476 -0.14726484521 -0.23465241876 -0.95546962436 
-0.019053424868 -0.27782384482 -0.95672591567 -0.085229716374 -0.26709279025 -0.95613221574 0.94742134939 0.27738054497 -0.14358009614 
0.94742216352 0.2977466214 0.014885718748 -0.68295129882 0.10839404928 0.72222820796 -0.75757096702 0.11971596038 0.63298715102 
-0.83722318836 0.11795768933 0.52242536494 -0.91574781499 0.08670917389 0.37224969119 -0.96640274935 0.040986176702 0.22544207454 
-0.98621400164 -0.0038642222031 0.12399171921 -0.99718227719 -0.053197982684 0.033320796729 -0.98525442516 -0.073769736833 -0.12453860902 
-0.99132112091 -0.084792130914 -0.057132552731 -0.96167214903 -0.1020390572 -0.24198451215 -0.90687428878 -0.15649104331 -0.37926619499 
-0.8450485202 -0.20236419875 -0.49198631682 -0.77423561024 -0.22375392952 -0.58365192136 -0.70320506437 -0.23700313015 -0.66946537803 
-0.65989492516 -0.22128923485 -0.71595009908 -0.62044124574 -0.19249390387 -0.75719403144 -0.52734840884 -0.19309103765 -0.82208543466 
-0.3992110536 -0.20094631989 -0.88587708574 -0.28383297811 -0.1792090277 -0.93882065247 -0.29280729627 -0.16709717223 -0.94076816534 
-0.33820958139 -0.15935662755 -0.92687148877 -0.40333569228 -0.16198667492 -0.89963587341 -0.32956995224 -0.16230478063 -0.91782021928 
-0.20014966182 -0.15453061546 -0.95898480642 -0.0057444268416 -0.14300990755 -0.98048482492 0.18351430039 -0.12371457343 -0.97226732413 
0.31483191282 -0.10863352001 -0.93933871307 0.4239277372 -0.099211025433 -0.89962271508 0.51851530511 -0.09942615673 -0.84524276669 
0.61133480322 -0.10770205206 -0.77840758594 0.70330358742 -0.12868091047 -0.69305324694 0.78778523186 -0.15106873238 -0.58525201966 
0.86732122743 -0.17624874887 -0.46133731207 0.91881942461 -0.18374157044 -0.33593142731 0.9784029207 -0.15120425351 -0.098493114549 
0.98235438273 -0.1452932337 0.051027613555 0.97593963098 -0.11826998925 0.16287750279 0.96398997035 -0.071497862823 0.24827412695 
0.9571113148 -0.0431456891 0.28537585845 0.95225645464 -0.020924376627 0.30452712363 0.947885496 0.0096483604242 0.31747324838 
0.94642666002 0.042708127493 0.31861069892 0.94805262409 0.076562454382 0.30842435397 0.93296075453 0.13053802071 0.33097867527 
0.90768591967 0.16296816044 0.38256478483 0.86031294134 0.18245696647 0.4714832975 0.78092249945 0.19225701905 0.58483365276 
0.66300037903 0.18817806891 0.7217545558 0.52012355442 0.16698317553 0.82998842936 0.38736825834 0.15036133267 0.90633244008 
0.31298282469 0.16192536238 0.93216883263 -0.16340240175 0.12608074836 0.96942804761 0.017452293305 0.1571392614 0.98419881532 
-0.32371670717 0.10988275755 0.93406740818 -0.4666336818 0.097676729922 0.87304370382 -0.60508967594 0.081148938582 0.78041072129 
-0.70793631779 0.075142438668 0.69820477207 -0.73011730017 0.086711617695 0.67639389793 -0.73269555029 0.10421641495 0.6714611958 
-0.76104756928 0.11409867077 0.63745155676 -0.74204635507 0.12308623321 0.65646148239 -0.69179220272 0.10344677161 0.71127285491 
-0.60302296734 0.044982281228 0.79510504695 -0.69171601622 0.06145723517 0.71783844929 -0.5995308313 0.05417635331 0.79764953242 
-0.64222405207 0.070765141347 0.76030967911 -0.73686859333 0.063117995436 0.66200570116 -0.84036047868 0.031477051648 0.5257890103 
-0.91798833278 0.0077971330893 0.36640853369 -0.965739437 -0.017714276897 0.23410973433 -0.76524956582 0.10673487675 0.63412186212 
-0.75894985753 0.1201046454 0.63980330587 -0.77646196558 0.079305578327 0.62424998334 -0.73944755562 0.056495616326 0.66815906303 
-0.66994238806 0.014033507838 0.73979905424 -0.77651522726 0.040233895688 0.62864214863 -0.6175962252 -0.0057084850955 0.78607312163 
-0.61113215531 -0.033530625334 0.79023292244 -0.65202613574 -0.013284015357 0.75346231451 -0.71437803336 0.0232182264 0.69704747796 
-0.82113662107 -0.012067536912 0.54162553086 -0.92108084947 -0.054691612087 0.37523709169 -0.9710512903 -0.059978343836 0.20537915308 
0.18585757979 0.17695502052 0.96338585811 0.26623233338 0.15335026516 0.95147679404 0.17521320811 0.010930751514 0.98377570789 
0.28040956758 -0.0032825820885 0.95574572513 0.3879340366 -0.015511288283 0.91758075784 0.51400604882 -0.031480094339 0.85530343926 
0.61554533773 -0.034737856257 0.78355227334 0.69420832802 -0.018793926732 0.71842395897 0.75542817334 0.01042488122 0.65267392319 
0.80391081636 0.038723980188 0.59127469746 0.84775219381 0.053117416482 0.52584047652 0.89240453755 0.061749527593 0.44538261652 
0.93182294542 0.070553909107 0.35434328811 0.94748058914 0.09891424896 0.29947016538 0.95177071767 0.16489738449 0.25737623615 
0.95182217613 0.23018815136 0.18303089586 0.94456599561 0.29077974139 0.14691313585 0.94383605389 0.3214213692 0.025977702553 
0.93541851827 0.30826625694 0.14601955576 0.937605872 0.31685270469 -0.096944957298 0.91495415478 0.3158310852 -0.24241688808 
0.87159830436 0.26039067987 -0.40007756252 0.80773948196 0.12946504083 -0.55589920927 0.68323933728 -0.028589567873 -0.71683663423 
0.56147622754 -0.11664070682 -0.81129767758 0.44567610409 -0.16009100988 -0.87739549924 0.26518890521 -0.23908811984 -0.92731257872 
0.30310949347 -0.19834178299 -0.9275214697 0.10292233243 -0.26945001134 -0.94855879746 0.1284487592 -0.26966202 -0.94561739603 
-0.023984566425 -0.32084984587 -0.94103289511 -0.13442938897 -0.33099165966 -0.92923175185 -0.20114186122 -0.28569818406 -0.93144643949 
-0.2638026162 -0.23005619976 -0.9345118967 -0.31957470966 -0.17283638508 -0.92905694104 -0.37853715423 -0.1406156812 -0.91415203016 
-0.42445945343 -0.13774190649 -0.89429107195 -0.48200824284 -0.1244254749 -0.86649131415 -0.52276448418 -0.10930310819 -0.84483951121 
-0.55666058278 -0.058118537078 -0.82656320532 -0.6051698382 0.0034951363173 -0.79274480631 -0.6888133125 0.049982290057 -0.72216322155 
-0.81309191892 0.050610716184 -0.57387140644 -0.91177849962 0.0081041582762 -0.39693064103 -0.99130921868 0.029899736123 0.12011033909 
-0.99691305912 0.0090414323943 0.00510595041 -0.9684541891 0.035650783428 0.24352111473 -0.93712607458 0.022156385565 0.3448996796 
-0.91393563619 0.016502636832 0.40297033006 -0.87522259121 0.011231736702 0.47905119456 -0.82652251492 -0.0067736108243 0.56162146167 
-0.75416449016 -0.022668905192 0.65144409125 -0.68015332016 -0.024823319872 0.72743025496 -0.5974563874 -0.00083734574448 0.80019936435 
-0.49527989492 0.05232892177 0.85729586743 -0.48648173154 0.10794667626 0.85989332676 -0.48451581898 0.15301529334 0.85423641542 
-0.20666541506 0.12884783243 0.96324642486 -0.3805554758 0.12701649334 0.90534371764 -0.0391158344 0.10573816702 0.98933600023 
0.058486959042 0.093952621443 0.98988700055 -0.98856962936 -0.028077955499 -0.11655555884 -0.96311726377 -0.022403103942 -0.25276953939 
-0.99364711671 -0.084101859304 0.061153647738 -0.98749087728 -0.071498939959 0.073808015057 -0.99256333809 -0.077855220222 -0.054907628017 
-0.99305114434 -0.092469980787 -0.0056104507193 -0.97853276348 -0.093485936349 -0.17484347379 -0.953828887 -0.10467612159 -0.25787552896 
-0.91525235649 -0.12834801911 -0.35829254625 -0.85606577698 -0.16058394859 -0.48553564152 -0.7748336634 -0.20260922363 -0.58664871612 
-0.68536917923 -0.24737307592 -0.68346337535 -0.62136696009 -0.23744101345 -0.74284112021 -0.55341555632 -0.21951715586 -0.80198106965 
-0.4440352116 -0.20421337325 -0.86556137395 -0.31702498838 -0.19707504288 -0.9234471682 -0.21242323926 -0.18132814801 -0.95815771585 
-0.21490295627 -0.16313302303 -0.96263374438 -0.29278109291 -0.14832555175 -0.94149194624 -0.37172069971 -0.15331638776 -0.91376334053 
-0.36395597636 -0.14794574493 -0.91829823839 -0.29875897878 -0.13722818444 -0.94250062285 -0.062184604311 -0.13228113105 -0.97547994932 
0.13123226752 -0.11188902502 -0.98388279881 0.24900756821 -0.098044190585 -0.95813469121 0.3506525728 -0.090213810756 -0.93037234446 
0.43757894802 -0.084962716152 -0.89118835163 0.53353952064 -0.090029869155 -0.83665245776 0.62764360717 -0.10895958434 -0.76651308683 
0.71910391099 -0.13441435888 -0.67298387274 0.81306117183 -0.17729143357 -0.54479241432 0.90068426343 -0.20120487943 -0.34874379363 
0.98306349229 -0.12795449188 0.11134263889 0.97512276185 -0.17212426431 0.011654960152 0.97417201503 -0.099445751489 0.18968589776 
0.96326594776 -0.065042023218 0.2576843051 0.95418005144 -0.034857784537 0.29568044067 0.95149335208 0.0078993891454 0.30651284778 
0.95504814254 0.038198664386 0.29364458512 0.95937612771 0.05749343363 0.27487887104 0.96199659252 0.099434362914 0.25263852015 
0.93995928296 0.13365107877 0.30617975224 0.90233237184 0.14918490331 0.39776082361 0.84708526379 0.14683923375 0.50423462918 
0.75417676804 0.13639395617 0.62769978198 0.64694304573 0.12103303848 0.74995435406 0.50973197417 0.11642295527 0.84223414627 
0.39403680725 0.11895670348 0.90993579898 0.33612291415 0.13138964724 0.9297194267 0.34342689891 0.1322865237 0.92815860295 
0.25714142899 0.15308908988 0.95077786557 0.35599095053 0.13506840973 0.92227025117 0.080827581497 0.13552137094 0.97932607708 
-0.0048951493334 0.14879160766 0.98150370559 -0.16637068884 0.12155438179 0.97125190189 -0.33956240464 0.10166954947 0.92931718468 
-0.48663052409 0.1043275977 0.86262469306 -0.60732144328 0.098334216386 0.78167041259 -0.70281826587 0.094011354375 0.70371887539 
0.96940375291 -0.19337847419 -0.10961911534 0.95308580121 -0.13561957628 -0.25281989394 -0.97768775842 -0.082722632794 0.15827643084 
-0.99160874288 -0.1031076159 0.052304374936 -0.9906341963 -0.092265155007 -0.068356178396 -0.99188814704 -0.099390623763 0.031891196011 
-0.98911993664 -0.076860258608 -0.12114708884 -0.97387217088 -0.08365391822 -0.1809346839 -0.95451607426 -0.099492386532 -0.26607333328 
-0.93124934726 -0.10766810937 -0.33166036666 -0.8822106715 -0.12522879295 -0.43506274554 -0.79395928714 -0.15529194366 -0.55962774183 
-0.69782304606 -0.1849258131 -0.69026036765 -0.62262940838 -0.18690033171 -0.75419077176 -0.54034077702 -0.18410888032 -0.81789486701 
-0.43759183814 -0.16204979808 -0.87773722362 -0.31889426064 -0.1485137632 -0.93134134926 -0.19325882419 -0.14145644515 -0.96724629742 
-0.13902002852 -0.11952119263 -0.98265489793 -0.28827080633 -0.14292554219 -0.94327445433 -0.38651846161 -0.17339786308 -0.9044151085 
-0.35399930046 -0.18161798447 -0.91403877936 -0.272987716 -0.17691916041 -0.94175593888 -0.12585781335 -0.12769039761 -0.97613126296 
0.026681632989 -0.10126066553 -0.99015514971 0.16698624846 -0.10534200517 -0.9735714495 0.28433810732 -0.098955998615 -0.95159689304 
0.36809080745 -0.07734875922 -0.92444473122 0.47363407584 -0.072971113723 -0.87254709507 0.58612722113 -0.077933853616 -0.80425034883 
0.68388863672 -0.10111775415 -0.71140411764 0.7690880195 -0.12158670651 -0.61414906371 0.88385795125 -0.12371015718 -0.42834293158 
0.94338928978 -0.13659158366 -0.23043331778 0.97974306545 -0.15318970682 -0.030466412422 0.97318101438 -0.032426337616 -0.19597798368 
0.98207053894 -0.15865220082 0.0089996638923 0.98361309327 -0.1260435215 0.046640915958 0.98268590504 -0.10510671221 0.13841701955 
0.96963184277 -0.07308795981 0.21680126843 0.95765096232 -0.038944436327 0.28458657322 0.95104407406 -0.023763244301 0.30692222995 
0.94771385496 0.0060756627405 0.31832727443 0.95211247129 0.03035020337 0.3028748688 0.95972916566 0.051223822308 0.27452217589 
0.97162939591 0.057734951105 0.22829759739 0.95832103414 0.091686456949 0.2581548653 0.91184652755 0.10794251334 0.37984730625 
0.85321707119 0.099345435146 0.50854842201 0.77815170282 0.096274160294 0.61108376937 0.69513826502 0.094374721931 0.71045049389 
0.57600810255 0.11032214013 0.7985727689 0.44503791515 0.12073587804 0.88490426948 0.42249173916 0.10281321637 0.89805410102 
0.35286778237 0.10772386406 0.92873771781 0.4516674689 0.086536464387 0.88537024043 0.21134920871 0.13095135486 0.95941704472 
0.12321588467 0.1586805871 0.9782255311 -0.058198106536 0.13046998835 0.98219384575 -0.16867006799 0.12394184799 0.96860553861 
-0.3294268981 0.1080837185 0.93155488794 -0.49475396675 0.099961667577 0.8563244486 -0.64458903671 0.10995743041 0.75065234669 
0.18377866745 0.055281385188 0.97479427717 0.32769737072 -0.0034797187024 0.94122333527 0.4534950653 -0.035603884186 0.88538766402 
0.55236102376 -0.059727786852 0.82998023787 0.63387025812 -0.056817530657 0.76675662 0.70854469926 -0.049811812048 0.70235849224 
0.76181657411 -0.027816694555 0.64469375795 0.81165096048 -0.0055616630189 0.58048487166 0.86069780404 0.020556438224 0.50784393851 
0.90015004278 0.040778619496 0.42983663279 0.92611919788 0.071264882753 0.36731783512 0.93912753311 0.11656002212 0.32076379309 
0.93575323639 0.18590433656 0.29644430446 0.93166307628 0.24671119123 0.25618562433 0.93040820397 0.28678737085 0.21694592922 
0.93286170112 0.25703667645 0.24566304885 0.94908488062 0.24342438267 0.19185652878 0.92946699994 0.19126516332 0.31429679497 
0.94393455867 0.32293942569 0.0088532542537 0.93795237885 0.32657604315 -0.081858596533 0.93090386218 0.28339195273 -0.22385477024 
0.86869050811 0.17278912313 -0.42268675905 0.78718860865 0.061507175491 -0.60410678715 0.6664285675 -0.040184452587 -0.73258750892 
0.5331313467 -0.11935994136 -0.82844832058 0.39443788464 -0.17206948215 -0.90055265715 0.23061210262 -0.22030589502 -0.93693756626 
0.084837387429 -0.27767185777 -0.9500730352 -0.029804529762 -0.3209983472 -0.94021001512 -0.13386632893 -0.33048199833 -0.93174451989 
-0.20556103901 -0.31942011475 -0.92199804377 -0.2719736102 -0.27479311966 -0.9204919781 -0.32027772003 -0.2072879202 -0.92257628147 
-0.34228942401 -0.15880052608 -0.92557702523 -0.36946597708 -0.11729483621 -0.92115036901 -0.43452098471 -0.099518568701 -0.89483889646 
-0.49726440448 -0.070929862769 -0.86218003758 -0.53623137734 0.0006104179233 -0.84021315 -0.59986239963 0.068786281874 -0.79619570484 
-0.69870922182 0.073555736169 -0.706887931 -0.79055304025 0.058097538139 -0.60118143648 -0.87060957515 0.039831800317 -0.48275630845 
-0.9366286815 -0.02403352886 -0.33597110272 -0.9876018984 -0.076953857889 -0.097903042705 -0.97663536175 -0.096611967517 -0.17336818881 
-0.99615594568 -0.045063099823 -0.027047565716 -0.99287049462 -0.037943015787 0.08165959397 -0.97738184122 -0.021095485803 0.19383797449 
-0.93868800766 -0.02756790172 0.33399452032 -0.89397067272 -0.025153493765 0.44424442802 -0.86484275883 -0.035416335952 0.49973181065 
-0.837319204 -0.053136779639 0.54162298584 -0.78710556898 -0.060165441447 0.61362948926 -0.73792757423 -0.042798223185 0.67076086091 
-0.68858562058 -0.017353750946 0.72316011992 -0.66615187941 0.035351279957 0.74099206013 -0.65815499077 0.098969187764 0.74474203451 
-0.60265135418 0.086565478102 0.78710033526 -0.55723348105 0.080145019123 0.82427370396 -0.49570844653 0.086267633394 0.85943587275 
-0.25828635511 0.12312368123 0.95643279237 -0.39372357458 0.092884211804 0.90986568734 -0.22169492187 0.14607417963 0.95712363165 
-0.064854542719 0.11926581607 0.9818113405 0.11013185568 0.068340421522 0.98806059255 -0.94968921189 -0.09115507919 -0.27556507882 
-0.8510625115 -0.12927520511 -0.50237903741 -0.7524896267 -0.14343071306 -0.62710385042 -0.66269380965 -0.14875577119 -0.73325384234 
-0.58385439659 -0.14801650236 -0.79251804388 -0.50058605932 -0.14816077009 -0.85160768356 -0.37079334155 -0.13662671972 -0.90935709212 
-0.25191339553 -0.11798822673 -0.95976772004 -0.19840446839 -0.075217601594 -0.97483532316 -0.17083273766 -0.03021864418 -0.98412435579 
-0.36345761858 -0.17054193901 -0.91471595765 -0.25211452347 -0.12588871086 -0.95517359975 -0.36515975769 -0.18741593697 -0.91058502811 
-0.27842073212 -0.18681944148 -0.93738028918 -0.10606441782 -0.14355567133 -0.96871986477 0.062323292517 -0.10913905758 -0.98941789134 
0.17186468326 -0.10635989012 -0.97403532399 0.27690518227 -0.10040286594 -0.95273468351 0.3772022856 -0.084913886696 -0.91662691616 
0.48940988317 -0.073720890077 -0.86320268769 0.59972856568 -0.078871406138 -0.78641537547 0.70971083563 -0.087485665153 -0.68676013377 
0.80241929049 -0.083340558219 -0.56603462724 0.87299108519 -0.064089889633 -0.46823512379 0.89182441972 -0.018312106731 -0.40283750931 
0.9531088221 0.020413216204 -0.26088363357 0.99028938089 0.04761065028 -0.064473763405 0.97829719008 0.087851137946 -0.10829699961 
0.98492330827 -0.0023993690486 -0.034379524762 0.98052879219 -0.068247126137 0.091237404052 0.97607985743 -0.075863776796 0.18012807679 
0.9691518794 -0.062408595184 0.23375530417 0.9582206913 -0.04797747682 0.27655204979 0.94910852756 -0.033688555703 0.31293174718 
0.94087500359 -0.0035118040275 0.33627533791 0.93281274407 0.03462480991 0.35795055537 0.93925807669 0.045364308972 0.33829542116 
0.95389477995 0.04682018259 0.29328947334 0.96943649534 0.02702469482 0.23957413128 0.96737716825 0.010975348107 0.24755417608 
0.81561657168 0.048568450769 0.57552184262 0.87708697769 0.047045236362 0.46819086545 0.72859323162 0.054676140983 0.67368237781 
0.62059360799 0.060952226415 0.78040826275 0.50922793716 0.077566516082 0.85140727064 -0.17613302738 -0.085032799499 -0.97979226926 
-0.19553068795 -0.028914214242 -0.97965686645 0.5571459316 0.065241359278 0.82395671328 0.42880185167 0.093320086508 0.89540517504 
0.53007772959 0.080627550046 0.84241226166 0.34043745313 0.10010033129 0.93107308044 0.15597398524 0.11305816235 0.97770135634 
-0.083830815651 0.12938810595 0.97736704237 0.2811904569 0.016442839165 0.94972615846 0.40513671655 -0.017474637052 0.91315880217 
0.49103063171 -0.01608071951 0.86689634041 0.5677390273 -0.011432708962 0.82206141505 0.63640433553 -0.020066933506 0.76639826698 
0.70564966458 -0.023911699187 0.70628956798 0.7616168613 -0.021791719239 0.64434830614 0.8158884744 -0.012144348775 0.57526550596 
0.86561576927 -0.0013047721324 0.49919492659 0.91091444519 0.0075948792664 0.40847416054 0.93242232405 0.045533239431 0.35646698473 
0.93537714469 0.10480729436 0.3374843289 0.92436380163 0.1650144305 0.34149070723 0.92282538534 0.2099593068 0.32229359547 
0.93007960602 0.12643950187 0.34248547785 0.9538360593 0.1323283833 0.26107450571 0.94112159212 0.060774036184 0.33205283749 
0.95912356836 0.1733711475 0.21429780149 0.96073185204 0.24135341102 0.067111394258 0.9474036342 0.27125965884 -0.12716026041 
0.93586881369 0.27321516555 -0.2103176015 0.89893039475 0.21614278644 -0.3557332729 0.83009608321 0.14845442118 -0.51790542764 
0.71048348988 0.059785905222 -0.68326324122 0.57204514576 -0.025318487754 -0.80923692736 0.35602649886 -0.11898132608 -0.9228191506 
0.15593764662 -0.18570031397 -0.96114540541 0.0070288333801 -0.24409120282 -0.96585846113 -0.095547246654 -0.30154280653 -0.94327293416 
-0.18329030199 -0.32901407126 -0.92495691579 -0.2442584767 -0.32616836505 -0.91152222704 -0.29409145343 -0.29293914428 -0.90761255001 
-0.33190835747 -0.22145294052 -0.91502437288 -0.33029529183 -0.15202249737 -0.9299443237 -0.3297340851 -0.090456071283 -0.93901019807 
-0.39064362607 -0.056012981651 -0.91782524004 -0.45931503256 -0.012985198579 -0.88573183909 -0.51312708367 0.049947296234 -0.85431413461 
-0.57033355085 0.10935754022 -0.81331225215 -0.65932889215 0.11543370797 -0.73755968077 -0.74868240744 0.091986571367 -0.65026646406 
-0.83980243265 0.031777661027 -0.53162843523 -0.91270794495 -0.048093429881 -0.38359909866 -0.95038508454 -0.069740469451 -0.2840707815 
-0.98473192261 -0.093064288426 -0.092050686974 -0.98391397608 -0.1109692593 -0.11877564401 -0.99289289011 -0.11341957736 0.013433028102 
-0.97764925349 -0.12705436205 0.11942454346 -0.96049524679 -0.13093344444 0.23671592503 -0.92244196652 -0.12020334517 0.35311117967 
-0.87733830765 -0.094892048612 0.46586219515 -0.81397356863 -0.049659129414 0.57451810554 -0.7981634291 -0.02049628334 0.59798873085 
-0.79762195746 -0.024387132365 0.60122789536 -0.79271002221 -0.030165265544 0.60860512086 -0.76525698829 -0.025525699664 0.64239053196 
-0.74432432468 -0.011850107635 0.66598003405 -0.72683754915 0.0019951492583 0.67956289085 -0.704307857 0.013917361562 0.70560559872 
-0.69885730103 0.045024745959 0.71011829907 -0.65714490855 0.067969733503 0.74657589098 -0.56330016652 0.096682207188 0.81690171879 
-0.40173812431 0.10747679583 0.8974378935 -0.1881017676 0.10133750387 0.95848937271 -0.1516006632 0.1124308667 0.96383407165 
-0.076158762675 0.1021322774 0.97646719479 -0.73933045143 0.1214607995 0.66085661215 -0.7717166842 0.086643311227 0.62846489876 
-0.79721778365 0.061903181923 0.60045675743 -0.78984184125 0.00026780130866 0.61287959556 -0.75362219405 0.00071791347929 0.65569169559 
-0.69552764009 -0.025336586143 0.71714371628 -0.64535883407 -0.0826280615 0.75720074396 -0.63853200104 -0.14176436597 0.75494217434 
-0.70122450666 -0.13997476617 0.6892195167 -0.79476019126 -0.09946042009 0.58340397774 -0.90870829192 -0.071675473277 0.36972459885 
-0.96732508608 -0.082839100412 0.22581800919 -0.97038603921 -0.093962282921 0.18581609964 -0.99060365362 -0.095507609515 0.075861150739 
-0.98749860522 -0.087855132197 -0.091975315836 -0.98934433033 -0.10748831221 -0.011675898221 -0.98531102173 -0.095505000806 -0.10988005278 
-0.94706227136 -0.091896805828 -0.25912597547 0.42026408412 0.052753977723 0.90273701831 0.297792117 0.06747180261 0.94412234229 
0.52282230548 0.013837540656 0.84760378401 0.61336518784 -0.0010622804916 0.78816188463 0.67763251922 -0.021536927483 0.73058193423 
0.73348055054 -0.02731648948 0.67784533302 0.78099185257 -0.024897653922 0.62026922887 0.8267851505 -0.025502184139 0.56000028825 
0.86351223715 -0.022860846692 0.50165340183 0.90740027996 -0.0093105677024 0.41462525618 0.94804799399 0.016952892224 0.31692160003 
0.92825922809 0.079340238836 0.36243756456 0.922842902 0.10745563661 0.36910707608 0.96369236066 0.057732691326 0.25550966953 
0.95322103377 0.036039962864 0.29680199877 0.94530508415 0.067750842048 0.31699561216 0.9622244463 0.068857378405 0.25649829235 
0.97789016448 0.11142348517 0.16979926117 0.97383987958 0.16561723286 0.078413444907 0.96523876062 0.22613053984 -0.043008730042 
0.94775416917 0.22129111973 -0.21054172723 0.91468399623 0.1831665921 -0.32986116935 0.82755418934 0.10167312513 -0.54135625082 
0.72117638107 0.04004158209 -0.6757984767 0.61905253495 -0.0058841925191 -0.77873239442 0.54193156239 -0.017173338347 -0.82422311216 
0.059065007971 -0.14721461497 -0.9823768618 0.16389201351 -0.10519462079 -0.97603152637 -0.034775550105 -0.21226137696 -0.97168141353 
-0.16003567779 -0.25455518946 -0.94810739463 -0.26850970841 -0.28426372625 -0.91774094269 -0.3395850899 -0.27558848508 -0.89780033715 
-0.34326571261 -0.20938308907 -0.91442899767 -0.30900326656 -0.13835685544 -0.9390199138 -0.27216503673 -0.07106235801 -0.95920662054 
-0.30218975114 -0.012042965006 -0.95196297512 -0.49165518066 0.066068921918 -0.86644934862 -0.41606641254 0.033482114796 -0.90598039907 
-0.55833256603 0.095066338235 -0.82263500277 -0.62936145203 0.10333481838 -0.76636298891 -0.71181810035 0.090651152424 -0.69592246718 
-0.79123553539 0.050861207268 -0.59926712807 -0.86558900224 0.0083263209399 -0.49371419693 -0.93855818949 -0.078347960649 -0.32099107389 
-0.97115535196 -0.10262121995 -0.18965427841 0.31459071154 -0.071874517195 -0.93912601951 0.4172920955 -0.052121136116 -0.89440063729 
0.94121485986 0.013280083594 0.33267324553 0.95638190552 0.0052756722769 0.28922815613 -0.3583137723 0.077012242452 0.92508948483 
-0.51241023789 0.09298848938 0.84385880421 -0.62766610227 0.10886933855 0.76913617006 -0.68288843435 0.095082533522 0.72178686027 
-0.73516199067 0.070548741559 0.67215761078 -0.77926281886 0.01923425558 0.62460124255 -0.77542452669 -0.043522569661 0.62864654829 
-0.93044376273 -0.094517554631 -0.34129520249 -0.82990931706 -0.097807088747 -0.51230060872 -0.70784574415 -0.097993429837 -0.69446768866 
-0.61918689709 -0.083978572058 -0.7753319627 -0.53354499795 -0.069951555952 -0.84068556023 -0.44026332857 -0.055622633873 -0.89038344722 
-0.35137992835 -0.033287934652 -0.93434780013 -0.28584635012 -0.0023906251258 -0.95530612908 -0.25289137542 0.014195354686 -0.96623312873 
-0.22279299675 -0.063810872906 -0.9713815212 -0.24024464177 -0.093525362042 -0.96395451698 -0.3034647975 -0.13342940705 -0.93939422293 
-0.37367600279 -0.16532117094 -0.91161234425 -0.4011368765 -0.16277933084 -0.90039980186 -0.37970141996 -0.15776129524 -0.90533567007 
-0.23561320364 -0.13220961118 -0.95329798941 -0.051607279307 -0.10409219569 -0.98498050223 0.12633660327 -0.095024879717 -0.98019581874 
0.2331855679 -0.089896332019 -0.96607296356 0.30936173216 -0.092342519665 -0.94343481519 0.41631845724 -0.077398364408 -0.89894735848 
0.52353565883 -0.059832597441 -0.8384292231 0.63627161866 -0.041694979015 -0.76416598392 0.72725951441 -0.024864962686 -0.66940518648 
0.81971614912 -0.0023595059325 -0.56555133732 0.8916699387 0.020038674536 -0.42570283927 0.93548722488 0.065395681192 -0.28142120815 
0.94020402703 0.087686554235 -0.29314138116 0.98943641967 0.089864148686 0.03810998703 0.98274122358 0.11029658682 -0.11628392239 
0.98816192871 0.067257107361 0.085598177891 0.98563635017 0.040115699079 0.10687799368 0.9816562771 0.000548631058 0.17225626729 
0.9764695915 0.028798472426 0.20217566101 -0.94402841272 -0.10631264318 0.29969117596 -0.97442821226 -0.12028608536 0.16026157876 
-0.98925497009 -0.12131344597 0.068744568688 -0.98256549163 -0.11951479598 0.099554256449 -0.97694376059 -0.12697594299 0.1331175594 
-0.9660372189 -0.13657711539 0.21501009507 -0.8908041974 -0.15118158266 0.42153390805 -0.77771502726 -0.18451251542 0.59509341423 
-0.69774738799 -0.10026278288 0.70732109561 -0.7330405337 -0.015053318544 0.67841584758 -0.76976224635 -0.01164269617 0.63741669551 
0.92919484238 0.075163230034 0.36132920021 0.92660916077 0.068742788882 0.36913867776 0.94220005071 0.056787060266 0.32821496311 
0.96092478994 0.026721002557 0.27092979407 0.96686014507 0.011507618884 0.25334397937 0.94648966062 0.021672384288 0.30971406084 
0.90450082764 0.026771369748 0.4237935815 0.92731942641 -0.018716412445 0.36868533133 0.91538650006 0.0091263559618 0.38870375651 
0.87259241356 0.024076083905 0.477052482 0.81662087698 0.034783045687 0.57437700424 0.75006018517 0.041767382072 0.65587951299 
0.65612487283 0.055275026456 0.74703967452 0.67057074709 0.046382958324 0.73577888162 0.55591655127 0.052473399882 0.82727705412 
0.61459908991 0.039855907095 0.7846369899 0.46881125253 0.075969571305 0.87818294827 0.32054122316 0.084851104233 0.9379125513 
-0.68332700675 -0.14444280582 0.71207769658 -0.75888020781 -0.16316390713 0.6237825022 -0.87936631463 -0.15014752333 0.42283593424 
-0.90542261108 -0.066167070587 -0.37601040271 -0.32524234184 -0.13835711255 -0.93154210566 -0.40105390782 -0.20255734691 -0.89319583396 
-0.37531531159 -0.22899587773 -0.89691588551 -0.32866566155 -0.23157098664 -0.91176858585 -0.21896167679 -0.19220040072 -0.94843129291 
-0.049628343412 -0.14936020595 -0.98082179038 0.094600613103 -0.11230113554 -0.98603869804 0.20543327855 -0.098987756446 -0.97101164708 
0.32483780232 -0.081288625215 -0.93684381615 0.47803378205 -0.059705379665 -0.87198096477 0.59543482191 -0.042803204588 -0.78991312718 
0.68742555799 -0.026899119973 -0.72352605529 0.89039457106 0.057774453858 -0.43332221477 0.90183369344 0.045062216823 -0.42416099805 
0.97964546707 0.075735593043 0.15711675273 0.98364091951 0.11313725595 0.030285901275 0.97758138722 0.051586490908 0.20144074565 
-0.81586211022 -0.036926312321 -0.56697348844 -0.71425464294 -0.024045098166 -0.6886138157 -0.62046950079 -0.011246972831 -0.78008308368 
-0.5397757209 -0.00030458565676 -0.83850480889 -0.46890646511 0.0064883468033 -0.88174209139 -0.39065501758 0.023356054897 -0.91723013077 
-0.33041756517 0.022174353106 -0.94323230668 -0.38149563592 0.03028723259 -0.92198158963 -0.46080250947 0.063788503299 -0.88223478239 
-0.52485430442 0.076052962213 -0.84430648348 -0.59328645227 0.073996834305 -0.79544359549 -0.67519850788 0.060426035219 -0.72930759943 
-0.76318566638 0.01584487315 -0.63596254057 -0.86156458864 -0.032832969613 -0.48954030671 -0.92549441767 -0.082288782253 -0.34817679711 
0.86072055015 0.026662468279 0.49947836653 0.81234861137 0.026464568576 0.58181040287 0.75749905288 0.036719953035 0.64861668462 
0.97494730967 0.15410751239 -0.082727840938 0.96711494619 0.19488608617 -0.14441347975 0.95373514584 0.12947295923 -0.23900974251 
0.74812732856 0.035516404082 -0.65258889729 0.82482786488 0.076585544393 -0.54598937614 0.66559331749 0.010540146328 -0.74323886354 
0.5771172893 -0.016675581283 -0.80650601284 0.53682728461 -0.035289076255 -0.83185036878 0.87515945129 -0.014467860473 0.47571238786 
0.65553888357 0.023572293623 0.7516803638 0.69869376182 0.029177452746 0.71423674677 0.76807101534 0.013657664051 0.6363600085 
-0.93901682524 -0.15889904003 0.28045887104 0.82293397734 0.001705062389 0.56704131652 0.72781355506 0.0066437125781 -0.67018316044 
0.81351875491 0.031704878889 -0.56805030032 0.64368831953 -0.01670868796 -0.7609677808 0.33654710705 -0.15370192453 -0.9239512813 
0.10917282295 -0.19257946916 -0.96705749461 -0.9817944771 -0.038552216258 0.15309721703 0.13823641154 0.091393042527 0.98266582342 
0.089017689477 0.10000894725 0.98490348684 0.84743344773 0.028409023748 -0.50860913646 0.7715422835 0.0010388421798 -0.61223317132 
0.87932919158 0.0829754987 -0.43555637669 
Curv_Gaussian 1 1114 double
3.789728558 3.4331480966 -0.030647605349 -0.01796017523 3.9729482928 -0.031345389645 4.2502460463 -0.031890468954 4.017144902 
-0.024360096024 3.7036395776 -0.0029023667552 4.0503657185 -0.021359786877 4.5605137418 -0.0084153199954 4.5149007545 -0.0029031314404 
4.2786695259 -0.0064683946446 4.1381017483 -0.0062076249818 4.0765176257 -0.019959552556 4.5307972889 -0.016991785663 4.6639755981 
-0.0082471034905 5.0125843445 -0.013684802262 5.0135367748 -0.01097282336 5.0320841858 -0.009748362575 5.4588946766 -0.026275286604 
5.7798475949 -0.012196783911 5.8751608936 -0.01530203663 6.0162685564 -0.071449057786 6.029984918 -0.040643642442 5.9977974253 
-0.054088945309 5.7530342814 -0.057773408605 5.1732666562 -0.0386882999 4.1994399787 -0.041725721211 4.227094326 -0.017795855489 
4.0623783758 -0.010408770415 3.7717084452 -0.010490850427 3.517496057 -0.0060398843205 3.518461368 -0.0046153402155 3.6038740797 
-0.009168695367 3.8525885563 -0.009159654213 4.075591149 -0.003179476132 4.1972272434 -0.0053661912617 4.2333171023 -0.006186339704 
3.9922046814 -0.007119297899 3.9039915098 -0.0033776142642 3.6516651519 -0.010737227024 3.2300478774 -0.0011207243381 3.1187120351 
-0.014586548451 3.5379693141 -0.02976667286 5.1808988467 5.2228070414 -0.010879609951 -0.01235165604 5.1929189615 -0.0094730228124 
4.9542997475 -0.0068372620768 4.9110114402 -0.0037406119234 5.0396235997 -0.0014642299059 5.017883519 -0.0012332867508 5.0190710961 
-0.0018735933642 5.0700135432 -0.0040799329773 5.4121702703 -0.012118794231 5.7101022116 -0.016534705312 5.8704335198 -0.0056966609962 
6.4803254033 -0.0083488015569 7.0940789091 -0.01318533781 7.5748393661 -0.019881093538 6.6739768342 -0.010657140424 6.1154315723 
-0.0042567511694 5.8608106242 -0.010621125043 6.164352631 -0.0041478646807 5.9584798145 -0.0027199164972 5.5136518851 -0.0060939619781 
5.1217413144 -0.0085544202903 5.0746299712 -0.0077884771784 5.214215862 -0.0012992203911 5.3511517126 -0.00082251895828 5.200694009 
-0.0046175938737 4.8773557857 -0.0093292593515 4.5348273597 -0.011965971069 4.5049098644 -0.014654010782 4.9273039891 -0.010963540757 
5.3289151213 -0.0085938450438 5.6390723227 -0.0070915034499 5.4207514715 -0.012012690673 5.1590540819 -0.019872905735 4.8530671935 
-0.018250235294 5.0724983575 -0.012022690225 5.3689930755 -0.0061808332349 5.6030613511 -0.0035878424638 5.5405349385 -0.0016608036664 
5.2395762415 0.00037756530785 4.7828755904 -0.0076125215978 4.3502944566 -0.011711770804 3.9557024574 -0.0082025899499 3.7464494203 
-0.0048333971686 3.6636882577 -0.0016924497317 4.5817197568 -0.0047512584025 5.2130111563 -0.0066322158932 5.2181660367 -0.015804786917 
5.4346124562 -0.016332192377 5.8253907989 -0.0092155313365 5.4380353465 -0.0076923868613 4.8532299646 -0.0064113477507 4.2836009737 
-0.0035910378678 3.8609049339 -0.0017821469464 3.8515720642 -0.0053590132153 3.9962563798 -0.00594800711 4.2976186867 -0.0035951578476 
4.7168564974 -0.0079441517646 -0.0066677163653 -0.028957934384 -0.018415686034 -0.0050528011083 -0.0010986559812 0.0016098576414 -0.0031736800953 
-0.00027201205934 0.0031857558652 0.01055490797 0.0040759843428 2.5363863391e-05 -0.0030808773079 -0.0059524578155 -0.0049487962024 -0.0077238032321 
-0.006870921819 -0.0048478604478 -0.0042887883922 -0.011948134233 -0.011073009295 -0.0074923784842 -0.0089102199917 -0.0014468438648 -0.0042708811869 
-0.0051444461238 -0.0029136017873 -0.0035947823526 -0.0032605781697 -0.0022119300017 -0.003694903134 -0.0063669008383 -0.0055029112385 -0.0040994651225 
-0.006114668383 -0.007942206242 -0.0038772386801 -0.016636312896 -0.0061297772107 -0.018730726431 -0.056060731637 -0.047343277136 -0.0028791413845 
-0.0031955181525 -0.0020090088596 -0.0025421698311 -0.0035019656024 -0.0028899264047 -0.0038338101947 -0.0041813997651 -0.0057148585637 -0.0082051853986 
-0.0094799540235 -0.0053305290924 0.0004070105525 -0.00027474490013 0.0010979479717 -0.00048403633841 -0.00033647599431 0.0012733402807 -0.00010242152447 
-0.0025142801841 -0.0020762716134 -0.00078082860178 6.9816815183e-05 0.00064671404991 -0.0021761270886 -0.0014737916426 -0.0050189825535 -0.0065605014561 
-0.0062173481058 0.00064483226336 -0.00034658054245 0.00096407210277 0.0020196310994 -0.011965368345 -0.0027660589316 -0.0026766881203 -0.0025323785567 
-0.0037945826841 -0.00079344238715 -0.0027109300874 -0.0049736881777 -0.0030488971666 -0.002617264431 -0.0029430311064 0.0045394933729 0.00019283117986 
0.0060191591948 0.013440194276 0.0054135926987 0.0033558834906 0.00081219668533 0.00074861036631 0.0017752514376 0.0037586211075 0.0010606047003 
-0.0027965206777 -0.0020448694407 -0.004347857957 -0.00073484113868 0.00064952847837 0.0057445383172 -0.0038064312982 0.0084867259845 0.006979141864 
0.0021098575669 0.0010195328833 0.0080462483659 0.0045096334208 0.0025378919865 -0.0022286693075 -0.0045720017531 -0.0033840182553 -0.0021480215923 
-0.0040890537512 -0.0018764749833 -0.00031222776761 -0.00027614518533 0.00094428272258 0.0012988745167 0.0068850697122 0.0056323619623 -0.004437942155 
-0.0046613721459 -0.0076245059297 -0.00783543655 -0.0050075742231 -0.0030013517473 -0.0045550184303 -0.0029121439327 -0.0038014870343 -0.0041153408849 
-0.0054443706449 -0.0065813969785 -0.007198402413 -0.012461307005 0.0050137525368 0.011347910473 -0.040934060933 -0.043365554745 -0.027690105148 
-0.014151640688 0.00033590959678 -0.0095900761562 -0.0016374116987 -0.00071306982933 -0.00085106396981 0.0010155890439 0.00076835941215 0.00077886201177 
0.0015925643532 0.0071388773945 0.012038351755 -0.0027065431759 0.005931931812 -0.00013155268707 0.0026275647424 -0.00049326162538 -0.0014303011155 
-0.0044160511108 -0.0053881392803 -0.0026696622904 0.00055431208416 -0.0016608466563 -0.00090063798978 0.0069921942662 0.022427863336 0.015842472042 
0.001619761336 0.002080897567 0.0010835203176 -0.0012542024854 -0.0020088186497 -0.0025638189557 -0.0022011268695 -0.0013826841359 2.0180994725e-05 
-0.0018951991754 -0.0048522196634 -0.0045209440344 -0.0034462386204 -0.0015682352667 0.00029378402113 -0.0010431224079 -0.0018445589906 -0.0015247825544 
-0.0042353597954 -0.0053012127656 -0.0058711546753 -0.0055615098604 -0.0043719649982 0.0023851282911 0.0042842281736 0.00052822209584 0.0031583113257 
-0.00042681275333 0.0013242421487 0.0084985952483 0.0055669991372 0.0047523141555 -0.00022491932418 -0.0046596048395 -0.0017739415498 -0.0014507419151 
-0.0010501043341 -0.00094324393345 0.012025532037 0.012772382407 -0.010136342148 -0.0092026741043 -0.012751642072 -0.012589722337 -0.012477897741 
-0.011822544157 -0.0090376730856 -0.005703396292 -0.0072785664394 -0.0042798671303 -0.0057067006492 -0.0067467304225 -0.0072359671643 -0.0085465878283 
-0.009922701497 -0.0050269045078 -0.00055740768279 -0.002970996952 0.0058715572624 0.0059614750336 -0.0019946182839 -0.0086744946377 -0.0020567779897 
-0.0034104480512 -0.0012803619048 0.001655112215 -0.00029348454901 -0.001287250882 -0.0010947507296 -0.0085380709818 -0.016495026476 -0.015845586366 
-0.009953449262 -0.0043486331686 8.7874498931e-05 0.0020180309734 0.0047936529404 0.0057018255361 0.0089196709968 0.014787909652 0.012873895599 
0.022038915344 0.021612229479 -0.0026705851144 -0.010702830342 -0.0066796132772 -0.0014422782102 -0.0010942422131 -0.010503248583 -0.010155580341 
-0.010912372581 -0.0084987901844 -0.0074681821825 -0.0016985931393 -0.0025600968453 0.0045540175032 0.01103134326 0.015376709207 0.013859308596 
0.0085458188582 0.0055706339126 0.011955216099 0.0033469447653 0.013954389228 0.0068597648422 0.0021851193813 0.0017792750499 -0.00019581128198 
-0.0011653522738 0.00029289784159 0.00029582681681 -0.0051994379454 -0.0059601185858 -0.0044513143919 -0.0025092774541 -0.00090535585343 -0.0013031995558 
-0.0016286611487 -0.0018426761787 0.0031724303593 0.0011398674232 -0.0015538745954 -0.00024421996244 -0.00019964168587 -0.0017214029702 -0.0043143100529 
-0.0085370062075 -0.000479062181 -0.010635333623 0.00051811249849 0.0035976339701 0.00029322388932 -0.00032183134827 -0.00017260740935 -0.0009620204801 
-0.0012783078849 -0.00061410943513 -0.00040784032984 -0.00082256913694 0.0016201862119 0.0084558597011 0.010759348794 0.0058447644972 0.007917346872 
0.003529343714 0.0019451182591 0.0057975407032 -4.2843201668e-05 0.0074203057799 0.0095632163443 0.0042062704404 0.00061588117589 8.573571951e-05 
-0.0019939400161 -0.00068854748083 -0.00051779090865 -0.0015592420272 -0.0050601115956 -0.0002538617501 0.0041074305186 0.0065595607239 0.0072334594071 
0.012914913795 0.013017302167 0.0016868066515 0.0025386641393 -0.0013386372965 -0.0038246324752 -0.0020412444367 0.010207807098 -0.0015650043821 
0.0031522906467 0.0055551691373 0.0064661447298 0.0056694814231 0.0064586226002 0.009768366974 0.0039719384476 0.00061673040979 -0.0042800964261 
-0.0046050311452 -0.0062252621951 -0.0067962750605 -0.0067871264743 -0.0046862090778 -0.0060498004947 -0.0055322585771 -0.0040953494517 -0.0036710971571 
-0.0013215020419 -0.0014329122885 -0.0033276995103 -0.0015406727998 9.5191749679e-05 0.00045674184313 0.0014791530826 0.0054481066963 0.010044235685 
0.0096200480813 0.010926992595 0.0017302641035 0.00093538877023 -0.0034998976989 -0.016031318271 -0.0095498702806 -0.014799996734 -0.0075838136111 
-0.006647229209 -0.0084308462358 -0.0061714682189 -0.0039619583875 -0.0030452160143 -0.0044070685649 -0.010370292879 -0.0088549414742 -0.0027153003174 
-0.0024409640962 -0.012703477131 -0.028038122029 -0.019230558114 -0.0097581041652 -0.0023766195924 -0.0054003543142 0.0023055043945 0.0043004234991 
0.011598257107 0.012422243225 0.017891111558 0.017673794605 0.016795590029 0.0081642391617 -0.011323600842 -0.0039227830071 0.0034063952891 
0.0090128173368 0.015775442531 0.0013918704436 0.0012460214864 -0.0099644763907 -0.0056965910079 0.0057949292704 0.0079622617316 0.0046877973494 
0.0037678103096 -0.0032737909024 -0.0016302173898 0.00049962561011 0.011495730675 0.014136204844 0.013382065205 0.0062342438888 0.00058846273407 
0.0088257948078 0.0096350416348 0.0026289723701 -0.00056752219102 -0.0017376740255 -0.0025718592464 -0.00020497444962 0.0052449973329 0.0048778401626 
-0.00074674652946 -0.00099114776446 0.0010622646271 0.00089355021036 -0.00054362528279 -0.00088073336928 -0.00041719639429 0.00042087049734 0.0017531101237 
-0.00037208547438 0.0034210892573 0.00020100366685 0.00034516278489 -7.1707613649e-05 0.00028236617407 -0.0002037961831 -0.00086995570431 -0.0032270328012 
0.00023991948842 0.004137971272 0.0067598856992 0.0096025904937 0.010820493323 0.0077270452405 0.0056304133389 0.0037911747533 0.0039361974042 
0.0054537024724 0.0027664614965 0.001987737408 0.0038486260777 0.0017560243363 0.0045632779204 -0.00036017253744 0.0021349699924 0.0044548163895 
0.0035930623529 -0.0040063011624 0.006371970535 0.0029994312955 0.0046750031634 0.0025449827598 0.0044210361921 0.0063513002984 0.0050070458756 
0.013170175662 0.01985500565 0.013462679245 0.0073815175962 0.0085952395118 0.0090168552404 0.0033506478604 0.0046502353873 0.0066935360411 
-0.0026994301105 -0.0077485714552 -0.0042633140374 0.0014555155261 0.0086283911891 0.0033672094111 -0.0017588970087 0.00056483429246 0.0018077767025 
-0.00074881417292 -0.00016106321362 0.0039080608681 0.0081472013046 0.016885364475 0.011898878599 0.018135030701 0.018624098862 0.011284943834 
0.012344308638 0.0019671583887 0.00078876408397 5.7711252071e-05 -0.00039964633633 -0.00052763287595 -0.00045481231452 -0.0033377476679 -0.0039980039529 
-0.0023374610888 0.0099019684164 0.015345624929 0.0098073522908 0.0099349271517 0.011525654322 0.010349376586 0.0079638889868 0.0021823134574 
0.0023961039473 -0.00025947920295 0.0097346702569 0.015343793091 0.0032004672068 0.0021564878295 0.0048569957292 0.0063802844104 0.0019861971095 
0.0016671536718 0.0027232191162 0.0027446154524 0.00069115290302 -0.00044703386415 -0.0019310448186 -0.0020943945938 -0.0015132375084 -0.0010595329776 
-0.00039665638396 -0.00034382770459 -0.00074513542742 -0.00065364809756 -0.00037150591557 7.6860260556e-05 0.0030078674797 0.010985250375 0.004486501572 
0.0022795111014 0.0027426175394 0.0069716182725 0.0047432862328 0.0010581564789 0.002393621025 0.0032876329718 0.0035595129056 0.0063904014591 
0.0041920586389 -0.0010671865026 -0.002075987892 -0.00084580393316 -2.3429087409e-05 -0.0027653694532 -0.0012550020436 -0.0033940258918 -0.0071878660159 
-0.0027534616937 0.0015104166253 -0.0026735577454 -0.0086360528826 -0.0095929527312 -0.0047895280392 0.002608306625 0.00046466684183 0.0047827808029 
-0.0047229943319 -0.0067268121563 -0.0094579137359 -0.011515819337 -0.0081293955351 0.00046656162526 0.0059483189836 0.0058773144461 0.0030320507433 
-0.00095282427972 -0.0053504416494 -0.0068437778597 0.0046882703306 0.0064918648959 0.0064720949872 0.019994605308 0.0092721275591 0.018915891591 
0.013483690206 0.013664528419 0.014699094127 0.016789098584 0.0083211201973 0.00096940515515 0.0052645076862 0.011460548891 0.014651336932 
0.015444159957 0.0098286918787 0.00257597578 -0.0034465205317 -0.004132005501 -0.0032279777373 -0.0093059872486 -0.0022609470276 0.0036727808918 
0.00091684786114 0.0011979187142 0.0091368624222 0.014678423407 0.013564366254 0.013889122627 0.013385478223 0.011883322647 0.0087618412642 
0.0085581413311 0.0066769782225 0.0071126178672 0.0066839250776 0.0092349420497 0.0073968918477 0.0055926328522 0.004861591437 0.0036471517065 
0.0017961046401 -0.00059495033519 -0.0004938111221 -0.00057514325742 -0.00066716378197 -0.00076609695475 0.0042557751215 0.0088490741364 0.0057736822202 
0.0090181168759 0.0044480064623 -0.0065423271736 -0.0030022744141 -0.00051316804381 0.0041885328404 0.00717918694 0.00049796952273 0.0019035790415 
0.0086904828487 0.010888729081 0.0062284252536 0.005071817666 0.0036332132821 0.0032780270801 0.0026837439854 0.0021218587821 0.00088068950025 
-0.00046362177738 0.00056263075722 -3.8432631734e-05 -0.0017774619252 -0.00079519879787 0.00093883623952 0.0011817187911 0.0024172869925 0.0033337692232 
0.014419632937 0.013534851551 0.0050205039482 0.0058157054765 0.012538497819 0.016320404628 0.012999691379 0.01358449133 0.015695726658 
0.011041840571 0.0049099512155 0.0035664945918 0.0021632012364 -0.00097320086302 -0.0018105618146 0.00012005133204 0.00053394475018 -0.00065163527571 
-0.0040626384152 -0.0016727049758 0.00036044555699 -0.0024507496516 -0.0012188879545 -6.1982338178e-06 0.0032022593847 0.0083368047285 0.0038838964141 
0.0027437636623 0.0083806400326 0.0035225581333 -0.0012483983205 -0.0084706444076 -0.0087392382141 -0.009390180094 -0.014757146022 -0.010800132538 
-0.0039007882894 -0.00094711526956 -0.0023675824113 -0.0035921673765 -0.0031672740809 0.0050996356359 0.0029681282525 0.00086457973314 0.0010120529565 
0.0019173611287 0.012139159946 0.0013987030974 0.021107406505 -0.00037167522211 -0.0014976643912 -0.00092911738987 -0.0010036878163 -0.0033791647077 
0.0043973168789 -0.00076451799286 -0.0042995964959 0.0075659160085 0.02671938533 0.020435257878 0.0077137557181 0.0087627181662 0.0065992679846 
0.011066801972 0.010284821429 0.0080201911278 0.010047242341 0.016515672873 0.022567384871 0.004475846523 0.0036509322474 0.0039570425781 
0.0040645461591 0.0029408019904 0.0012545725588 -0.00021168651855 0.0010875131171 -0.004090436712 -0.0056617181844 -0.0016535100516 -6.785460789e-05 
0.00054301471975 -0.0002777424168 0.0037538414897 0.0035182905357 0.010262271132 0.013274717544 0.0081438410714 0.0091570268426 0.011688676863 
0.013708103297 0.01603076365 0.017277030503 0.0046507388788 0.010464725559 0.0023957001636 0.0055922340288 0.0051440546135 0.0012908348593 
-0.0006027532516 -0.0022590500975 -0.003477897894 -0.0015060255499 -0.00079905476193 -0.0025291721645 0.00031350197534 0.00021452331615 0.0021794861802 
0.006855274693 0.0097399744161 0.012135928386 0.013483929286 0.016885066118 0.015978592393 0.0037619536287 -0.0022443713853 0.012580539971 
0.0064084662683 -8.8388389949e-05 -0.0013138790592 -0.0012689069761 -0.00032882838896 -4.2985869094e-05 0.018314740966 0.018459356347 0.0149299119 
0.0096295009913 0.006536984731 0.0091732758248 0.012466515213 0.0076506339452 0.002876427273 -0.0051427550146 -0.0060507864287 -0.0072543741917 
-0.0054587682655 0.0039579318406 0.012160578695 0.016938118224 0.017099520749 0.007082705949 0.0017408639126 0.0014381713116 0.0023946258962 
0.0017812562482 0.0024263617618 0.0045473025922 0.0066636957809 0.0076002188887 0.0067988659695 0.014257303477 0.0053087409899 0.013773408609 
0.0026146419709 0.00089706063485 0.0020457872149 0.00027116715871 0.015261830179 0.0075847740872 0.0085509364311 0.0034688572287 0.0014343964035 
4.6642229301e-05 0.0031955982437 -0.011139704697 -0.004637064715 -0.004905018523 -0.001352425258 0.001057874261 0.0014758061177 -0.0031973027485 
-0.002831822162 -0.0020511266633 0.0037829046616 0.016220757871 0.010632278612 0.0043074059348 0.0050956123237 0.0022373224734 0.001362852135 
0.001410925543 0.008428797439 0.0053010966584 0.0044332829945 0.0064819942521 0.011718788214 -0.0024793474255 0.0026383908552 0.0071469042722 
0.020801451127 -0.0069375063298 -0.0054643514709 0.0011108758225 0.0083726669494 0.015145912155 0.014186125678 0.0040501377896 0.0036854866648 
0.0084879097332 0.0077774261862 0.0056491690056 0.0050846633723 0.013463373532 0.0074325665807 0.004446575603 0.0075270617991 0.0019318958765 
0.022835303359 0.015721951087 0.011750329521 0.010385256455 0.0061284770375 0.0085149029523 0.01112821911 0.0017307309976 -0.00034838946926 
0.0025725892709 0.0047387055119 0.0064115130726 0.011801616821 0.017331922834 0.019315836131 0.011425061226 0.0054134935869 0.0086040843335 
0.012716719045 0.013544066739 0.015775864807 0.016179371521 0.016782121587 0.01235120701 0.014946454885 0.012227137477 0.0062791094715 
0.0041259661356 0.0051764086124 0.00665120184 0.012837929725 0.0037681552428 0.014965357101 0.016798175351 0.011419129611 -0.016375305242 
-0.0048945916674 0.0090102359327 0.02464608317 0.015659968018 0.0068160011247 0.0060602176691 0.019472557756 
Curv_Mean 1 1114 double
0.049091277625 -0.093047236853 0.02264556363 0.071657507991 -0.13900240324 -0.015212448642 -0.1452388315 0.018658979794 -0.10614457412 
0.047031686369 -0.048208051843 0.13155207572 -0.091214572713 0.071617492119 0.09919779401 0.0025949750217 0.049096054762 0.0099790998285 
-0.053393845683 -0.016296168817 -0.070265918467 0.020986792021 -0.11847679179 0.0051082803139 -0.13344699008 0.021496063862 0.0063072431909 
-0.046960345488 -0.17995992719 0.018767768618 -0.037458500382 0.052376314728 -0.099511854883 0.082089010306 -0.14560321474 0.052725501093 
-0.03841151419 0.10992542021 -0.10423051797 0.16990933494 -0.37879641611 0.19302284444 -0.074384151174 0.19776643991 -0.033353841724 
0.16818678405 -0.068241486559 0.12785314592 -0.083289230593 0.092123218923 -0.010037172008 0.0028784498321 0.0046980274814 -0.018009774965 
-0.12283328062 0.0034135317795 -0.10078433213 0.048172629947 0.01105691853 0.0066800019761 -0.10350389194 0.02503715537 -0.10524858846 
0.0031545490306 -0.041601839174 -0.0038111390394 -0.041511925143 -0.038173961728 -0.097470629544 0.013559068927 -0.0054781374982 0.00027381366222 
-0.055446012067 0.0043397379129 -0.074575409644 0.045021044101 -0.054197409043 0.0081550384509 -0.033956551189 0.011486223601 -0.060241590088 
-0.01546990786 -0.092974105751 -0.0073812351223 0.056719754222 -0.13065702464 0.021537708226 -0.013833160554 -0.21961715183 0.048548787862 
-0.022453529529 0.034964399094 0.059306026093 0.011812263129 0.039504526816 -0.010135191814 -0.026986666681 -0.014365696048 -0.051214305956 
-0.013210647358 -0.0035739335942 -0.0026508329529 -0.22404835136 0.0043866885901 -0.36941532058 0.010955047945 -0.33494913268 0.073852838628 
0.0073348535571 0.045482078536 0.13061527374 0.018646816423 0.031123805027 0.048003621061 0.02616030644 0.081709742723 -0.18160654247 
0.080661436163 -0.3892723791 0.044034708488 -0.0073793767256 -0.051117831527 0.15712855599 -0.068573881758 0.18353159267 -0.010499929561 
0.029884988862 0.0003898750934 -0.038713118022 0.009598981242 -0.04664049298 0.011806490033 0.033696239692 0.0013397363205 -0.027167865413 
0.01816781715 -0.17002794484 0.0076518671823 -0.24434646779 0.024649008001 -0.20565533853 0.040717822104 -0.0034524000439 0.037392303194 
-0.14508500139 0.059443062015 -0.31704195571 0.093357721515 -0.035334558704 0.072023572502 0.078907973423 0.05604308704 0.022160951156 
-0.057589660304 0.05111466973 0.0039374451084 0.09431995077 0.064826148549 0.13572883794 0.036686491314 0.14455235408 0.03862227846 
0.12692926398 0.071849560484 0.016280696387 0.051234584695 -0.064559883469 0.038022683737 -0.098451777157 0.023770037203 -0.1533770208 
0.022191009673 -0.20866589954 0.012880053735 -0.12004235188 0.023710093496 -0.099884341551 0.017865968821 -0.22923026623 0.0011405740444 
-0.2117155283 0.00090268128673 -0.073029342198 0.021110196508 -0.075301244245 0.0099193344232 -0.10853822172 -0.020305245368 -0.025659354073 
-0.012886546126 0.013243265622 -0.010630296215 -0.071571504941 0.0091380480356 0.002202261776 0.0028616241844 0.23730434684 -0.039100338255 
0.19897732211 -0.03160585145 -0.048479503223 0.056954872235 -0.038452870206 -0.010682020865 -0.024993975204 -0.074854089318 -0.0010156516102 
-0.030795882495 -0.066599049957 -0.1095131902 -0.075352166199 -0.061008193212 -0.014731409463 -0.022582054814 0.0095724262844 0.037779802141 
-0.015805505559 -0.0021621535538 0.026962610708 0.036755676515 0.056462281147 0.042804780491 -0.03107593003 -0.088548286425 -0.069601376314 
-0.012171986709 -0.017008704013 -0.0061986962956 0.0027167971578 0.0068417647081 -0.032241183172 -0.011918286772 -0.0094612963546 -0.0033567791845 
-0.018940356891 -0.0021972510578 0.071308087035 0.048055066794 0.12790587878 0.15352121131 0.10921017787 0.072811645895 -0.0090163099831 
-0.021185083196 -0.011835374885 0.002134912686 0.039284391735 0.034727776212 0.021084790241 0.02513924572 0.043987182229 0.028688426911 
-0.0095027894122 -0.025327473146 -0.06004840312 -0.052200426848 -0.026500903514 -0.020188794144 -0.048558672442 -0.085583858351 -0.065435639229 
-0.029842882149 -0.034888060114 -0.034140090498 0.013096274336 0.029559180703 0.0009757875723 0.00056065279366 -0.0046539187118 -0.0099170432441 
-0.030573591675 -0.042895941563 -0.01779021014 -0.047203210454 -0.066394594045 -0.031859591431 -0.025311049168 0.027399333167 0.071542782246 
0.037291066933 0.043792109307 0.010159581064 -0.010513573547 -0.018216698432 -0.028721457798 -0.029829764998 -0.065470194255 -0.061400332257 
-0.092287691559 -0.1127026312 -0.07422174029 -0.062669025521 -0.041351594426 -0.039272374321 -0.045562727486 -0.060240415645 -0.050059752649 
-0.030710247931 -0.045829131596 -0.036727043067 -0.00081725943047 -0.02175665102 -0.088409043808 -0.014836748061 -0.1073412493 -0.092277932135 
-0.065778748309 -0.051215141113 -0.093339099369 -0.084817627957 -0.091796842533 -0.026754956424 -0.023693130739 -0.0144894617 -0.00057902487311 
-0.016033458513 -0.01369192769 -0.024359762137 -0.033068868599 -0.038608637059 -0.049096207849 -0.10548814361 -0.10130544623 -0.0031647097617 
-0.018404509267 0.025758451601 0.023501789334 0.022271429605 0.016391696597 -0.0070451441963 -0.036216059782 -0.020435474197 0.0023065360196 
0.00014291676212 -0.0060528057615 0.051965447033 0.056813675135 0.13897948422 0.071771442275 0.064984908091 0.025658052332 0.048213088917 
-0.0010064790648 -0.032638790531 -0.024225446286 -0.018027241393 -0.029443843418 -0.038168743505 -0.06340856503 -0.066774860287 -0.06832070025 
-0.069736868893 -0.091791361517 -0.11445098239 -0.0074113706596 -0.071219678123 -0.023344194405 -0.055373764433 -0.012444276833 0.018129031719 
0.0032183233766 -0.029200338811 -0.064555124134 -0.036757193534 0.0038919205434 -0.0073014706582 -0.054623212018 -0.13519778506 -0.12186392807 
-0.063804561469 -0.05511954941 -0.040231056329 -0.026659054089 -0.017736625824 -0.018541559942 -0.027665055445 -0.037349285211 -0.051454726378 
-0.041924479418 -0.011085748195 0.0026706041862 0.0010899347677 -0.0039245656681 0.039767436247 0.038476027298 0.029287811972 0.042614255189 
0.041539421285 0.031347450062 0.0046004555891 -0.018238852004 -0.038343840364 -0.072416495115 -0.057133422588 -0.03319949915 -0.069333528849 
-0.053013791221 -0.06143451253 -0.09764817524 -0.07822183203 -0.075093091837 -0.045891458769 -0.017610717172 -0.0029369973489 0.0026888364452 
-0.0028116812785 0.0055119195728 -0.11537542934 -0.11776373905 0.050854575637 0.0053328837113 0.045153451111 0.074672511857 0.063619507758 
0.046860014196 0.04008692079 0.057805784848 0.03546025133 -0.017666728882 0.042226994635 0.010324168956 0.0047141946398 0.01431629808 
0.017302887837 -0.013922491529 -0.027946867359 0.079390092691 -0.12991177234 -0.10530547912 -0.014491679697 0.0043834297693 -0.032000188537 
-0.024400401126 -0.022264084313 -0.042457685834 -0.018176980983 0.008396116542 0.0033877414529 -0.0088260702978 -0.00067400629913 0.046307402966 
0.014619398936 -0.013946020946 -0.025334136603 -0.055681136535 -0.071415174533 -0.086601714485 -0.10423225136 -0.13197901248 -0.13104142254 
-0.15746322727 -0.17147788622 -0.10675603978 -0.093571313867 -0.056965631565 -0.091697993047 -0.009243395271 0.0095105764993 0.043956091448 
0.014345066941 0.028220841845 -0.016821866661 -0.039765228305 -0.014784042358 -0.066292451265 -0.10715538479 -0.12546696869 -0.11852624207 
-0.092973754609 -0.077441196791 -0.11050493301 -0.066913265403 -0.1257307484 -0.103428926 -0.063266974246 -0.047722310795 -0.030163724509 
-0.011759376156 -0.011588323329 -0.061293248967 -0.060116727312 -0.01010485772 0.0071718616577 0.011114739593 0.0052045332258 -0.016908337366 
-0.062319661811 -0.062036122198 -0.066594992971 -0.042228236825 -0.017686552892 -0.033198950442 -0.039089170671 -0.032949599637 -0.016813350889 
0.013441524958 -0.044117196604 0.0031812778384 -0.055425500565 -0.057916912929 -0.014607249901 0.0024343444068 0.011301591788 0.013105961792 
0.019176979959 0.042799009922 0.011865295121 -0.0085377472314 -0.041631420956 -0.08755507275 -0.10610376572 -0.081674494397 -0.086453361274 
-0.058849308124 -0.066998501329 -0.087186453002 -0.054097208218 -0.087258373526 -0.097449967901 -0.069025816538 -0.048429974745 -0.023546994819 
-0.0031726444654 0.028573919277 0.032931768997 -0.0015201015691 0.0039876393359 -0.028421380739 -0.071633167353 -0.085969731165 -0.085491384042 
-0.11278848293 -0.11383249908 -0.0075515453021 -0.048484448649 0.0061765132244 0.0093035423382 0.01658822851 0.12158545388 -0.051122036855 
-0.082896438762 -0.098207195427 -0.091901001401 -0.083853981295 -0.086074403213 -0.099029629107 -0.067857524045 -0.027590328642 -0.021977413257 
-0.0083056236675 0.0054194466185 0.013634569745 0.01374221373 0.044220717622 0.049787474643 0.032781809431 0.03560628607 -0.0077127363762 
0.0049068752729 -0.011696253755 -0.020409955603 -0.036665479326 -0.045194154778 -0.038949351591 -0.052412209741 -0.10693978296 -0.15947627392 
-0.086683209102 -0.1192211964 -0.06798560992 -0.049869584379 -0.013005475351 -0.022886999792 -0.026403996027 -0.0066771061502 -0.022203266617 
-0.0042871908175 0.015757341796 0.048739992654 0.068582952688 0.053484047346 0.05520647171 0.060738587289 0.071069237131 0.097816248622 
0.12174127407 0.11476013316 0.059460893415 0.055261050751 0.0067074865301 -0.035621936107 -0.012152457835 -0.075074661145 -0.11294282055 
-0.142943869 -0.13904769639 -0.15987805995 -0.16157224618 -0.1528386842 -0.096440097052 -0.049481180504 -0.067485298941 -0.077051183217 
-0.12242477703 -0.16068510489 -0.053940204143 -0.059362666271 0.0066336983172 -0.019552637064 -0.077522072107 -0.089746623639 -0.072732918371 
-0.066027995168 -0.035047750115 -0.05501883649 -0.074916151236 -0.11783954127 -0.11869600382 -0.12858469669 -0.10057123447 -0.089547275616 
-0.11384182921 -0.10113634476 -0.065225813255 0.01506859565 0.031157771118 -0.020721571167 -0.051027272944 -0.086907158218 -0.075638465038 
-0.042901954074 -0.033500919193 -0.045749604064 -0.046292912704 -0.036559324244 -0.039059149224 -0.044301081337 -0.056005334317 -0.068663072575 
-0.040262244375 -0.065897273005 -0.033006319456 -0.025967760729 -0.037572149707 -0.0081547319991 0.0088514766864 -0.030446888522 -0.041203501369 
-0.061027013627 -0.071343706181 -0.08874764665 -0.10295298456 -0.10445741236 -0.089322864024 -0.078252137347 -0.06139995498 -0.07187955046 
-0.073129812967 -0.074743872412 -0.060504176029 -0.079925005327 -0.066620226805 -0.072256465698 -0.042710062498 -0.059255539172 -0.070565290987 
-0.072140665312 -0.027754333841 -0.08234673022 -0.061054223417 -0.070987444227 -0.059726563868 -0.070606712496 -0.079175308225 -0.071662087697 
-0.10844453542 -0.14039873445 -0.11824506126 -0.096498956326 -0.10258238052 -0.10509972549 -0.078099540508 -0.080399337232 -0.095293552204 
-0.063937993489 -0.013182931192 0.012101299932 -0.042722549241 -0.10031032689 -0.080550532344 -0.053910252903 -0.048017506431 -0.049219480746 
-0.043838631609 -0.046284202775 -0.066550346222 -0.08750483601 -0.12779106255 -0.10465914792 -0.14167615089 -0.14205636968 -0.10768817031 
-0.11168438371 -0.055546728361 -0.041969297767 -0.02058864073 -0.0087126771021 -0.015365848239 -0.0015229105489 -0.034879230158 -0.03595470001 
-0.020504442146 -0.10715238143 -0.13110890557 -0.1080447669 -0.10468158991 -0.10850510882 -0.10523790708 -0.096048984093 -0.057605824952 
-0.051359991731 -0.025984550892 -0.096464204628 -0.12130817377 -0.078616282284 -0.072083052504 -0.079357433676 -0.080848411622 -0.050964747617 
-0.059456850766 -0.057862979608 -0.056774217334 -0.038512158271 -0.022322069436 -0.0028458231257 0.022412839562 0.011292694181 -0.029253639446 
-0.023494604503 -0.01810714468 -0.0062052765723 0.0085337042561 -0.014101381095 -0.036297598108 -0.06994096798 -0.12326844158 -0.099525184969 
-0.049456910188 -0.053673958669 -0.087921578987 -0.087917113677 -0.073652102054 -0.066413081803 -0.064355272043 -0.067095741695 -0.085587590649 
-0.074158811421 -0.03857066912 -0.0068135374623 0.032009883922 0.06072807258 0.054205104523 0.077115177508 0.059544293457 0.041940918142 
0.081663521361 0.095413553492 0.082071504002 0.042107767719 0.021713268785 -0.012824648003 -0.071494460563 -0.043828053545 -0.074259602656 
-0.0014118541144 0.014424603995 -0.0062928905092 -0.041124703331 -0.017717629426 -0.06277180119 -0.098210881099 -0.082331097266 -0.061951763625 
-0.031130711939 -0.0049804631517 0.018164303809 -0.083655845339 -0.093463001337 -0.092196706126 -0.16344209371 -0.10562267617 -0.17920765367 
-0.12375147885 -0.11698779401 -0.11553205462 -0.13364007619 -0.086336569189 -0.043035432822 -0.073005645299 -0.11404769254 -0.12809885593 
-0.13343172093 -0.11999398415 -0.073473529353 0.014056253387 0.015803957887 -0.037485736844 0.00057672817839 -0.04406850866 -0.077354898902 
-0.047181017127 -0.040167778925 -0.089286342516 -0.12394242912 -0.12180395105 -0.12389417205 -0.11816436518 -0.1093130435 -0.096888667311 
-0.096156889369 -0.082551864832 -0.089597053064 -0.072163666443 -0.085511040106 -0.092247623103 -0.086638909479 -0.088457935941 -0.080451468028 
-0.075477207272 -0.055206911634 -0.0091857641994 0.03120780995 0.0053668542065 -0.016388145198 -0.065433899366 -0.085514910435 -0.07848554695 
-0.094329150842 -0.065166268067 -0.027931016803 -0.025251339411 -0.031887218586 -0.064968896998 -0.094798616763 -0.037316852661 -0.080322379569 
-0.098566075272 -0.1051085602 -0.079912631018 -0.07163583777 -0.061776682876 -0.058953340125 -0.053575986446 -0.04951429297 -0.039068692491 
-0.030626929388 -0.042029431738 -0.039496351964 -0.00843581084 -0.040235354818 -0.053669552839 -0.066798080639 -0.057400859963 -0.075577347212 
-0.13885136625 -0.13351027395 -0.076163761459 -0.076937516917 -0.10881053905 -0.12775653491 -0.11647477123 -0.12076443683 -0.12956887682 
-0.11019109491 -0.079246660353 -0.064073803203 -0.043912211506 -0.028822855415 -0.0032126502723 0.030244378447 0.014233778411 -0.0073068689166 
0.01878382806 0.032883744055 0.033904031211 -0.011146003354 -0.027011167535 -0.039745796074 -0.061335086436 -0.10159923394 -0.065155818706 
-0.05671035915 -0.099690638704 -0.071032406163 -0.074473554671 -0.068868828686 -0.035940009837 -0.011550712372 -0.033180023372 0.0023223032736 
0.0010203036745 0.023007676336 -0.00065437079069 -0.0075952460733 -0.027091186995 -0.088629547904 -0.064012347651 -0.042663949574 -0.039444957333 
-0.062395770251 -0.1158826234 -0.077807651448 -0.1483097431 -0.025891210183 -0.012522317877 0.023621086398 0.02510265603 0.025886201589 
0.11115918601 0.015439666755 0.0069069200392 -0.067994103149 -0.16840142234 -0.14244668063 -0.091475267075 -0.08792439331 -0.092637058105 
-0.11813062596 -0.1164336018 -0.090017757021 -0.096943602002 -0.14055315647 -0.16003740572 -0.07578383833 -0.064675686756 -0.064598319192 
-0.064416754323 -0.055106623129 -0.040149241806 -0.028667034121 -0.044113141306 -0.060379962204 -0.066510923688 -0.070979715713 -0.0099613465473 
-0.021072839774 -0.0068135595619 -0.068889266872 -0.064708558979 -0.10908656976 -0.12802579231 -0.094254795066 -0.097626986791 -0.10924021548 
-0.11929428492 -0.12955826864 -0.1325297473 -0.091157714801 -0.10788879594 -0.088204135022 -0.085799211839 -0.062332300475 -0.037360704688 
0.012044870431 0.02563327171 -0.0010222101812 -0.025772712902 0.0011659023656 -0.005732685203 -0.0079108869441 -0.023866216063 -0.050141878412 
-0.0839616125 -0.10425453807 -0.10324858198 -0.12914855197 -0.13125560293 -0.1277293972 -0.075039964246 -0.048922802436 -0.11366706152 
-0.071202513471 -0.029644691043 -0.021233894439 -0.015781861307 0.00051420365247 -0.041118114248 -0.13189875317 -0.14077797501 -0.1364081141 
-0.11145228214 -0.09807911729 -0.10989543075 -0.12578752236 -0.082555743652 -0.10838783942 -0.022854182621 0.0023356997529 0.0015359753837 
-0.020840108071 -0.071227127579 -0.11443995935 -0.13060613254 -0.12870858947 -0.085958761333 -0.055827858727 -0.052780116567 -0.058897166299 
-0.052003794989 -0.054595635835 -0.071489169699 -0.087899424476 -0.092759123387 -0.08908523662 -0.12110748537 -0.078824859902 -0.11798508225 
-0.049708108294 -0.028083662362 -0.04104552855 -0.021286758826 -0.12183244669 -0.099973670587 -0.10075847612 -0.065757728606 -0.055657999382 
-0.04563203441 -0.059575451483 -0.044935087927 0.020066088317 0.043495940149 0.027177192923 -0.036792087171 -0.023718810517 -0.0060464319279 
-0.0071669279258 -0.010485986431 -0.078796843194 -0.12706430949 -0.12630589043 -0.071422733108 -0.063911726161 -0.051781572879 -0.055552591108 
-0.050981884393 -0.097985005583 -0.085857232532 -0.076935153683 -0.094828445267 -0.10038313234 -0.011232794649 -0.055967879601 -0.092350541586 
-0.14936266364 -0.0056785726538 -0.023079528379 -0.062746706956 -0.10024990851 -0.12638166576 -0.12360535196 -0.080520041842 -0.06637355558 
-0.087970639938 -0.090280105107 -0.076502960501 -0.072443782515 -0.11691022238 -0.092475222013 -0.071323868233 -0.086400797448 -0.042859771824 
-0.15636820238 -0.13754426335 -0.12719262512 -0.12613140573 -0.097997480603 -0.11127686034 -0.12281569822 -0.051649242296 -0.039367156352 
-0.053748206333 -0.071171313045 -0.083256672882 -0.12205013992 -0.13604359662 -0.14421360331 -0.1088433566 -0.083862347571 -0.099957768874 
-0.1143205578 -0.12263079777 -0.12719875673 -0.12737735831 -0.12890024563 -0.11360396417 -0.12460381626 -0.11329578311 -0.087258290883 
-0.06992474288 -0.075371929033 -0.086026547028 -0.12309598541 -0.068813808422 -0.12034373543 -0.12760391635 -0.10835374675 -0.066707563783 
-0.057306456314 -0.095097641715 -0.16016698753 -0.12550638012 -0.087817175601 -0.081017876366 -0.14062047169 
Displacement_Root 3 1114 double
-0.0012168884277 -0.15603637695 0.24750518799 -0.0012168884277 -0.15603637695 0.24750518799 -0.0012168884277 -0.15603637695 0.24750518799 
-0.0012168884277 -0.15603637695 0.24750518799 -0.0012168884277 -0.15603637695 0.24750518799 -0.0012168884277 -0.15603637695 0.24750518799 
-0.0012168884277 -0.15603637695 0.24750518799 -0.0012168884277 -0.15603637695 0.24750518799 -0.0012168884277 -0.15603637695 0.24750518799 
-0.0012168884277 -0.15603637695 0.24750518799 -0.0012168884277 -0.15603637695 0.24750518799 -0.0012168884277 -0.15603637695 0.24750518799 
-0.0012168884277 -0.15603637695 0.24750518799 -0.0012168884277 -0.15603637695 0.24750518799 -0.0012168884277 -0.15603637695 0.24750518799 
-0.0012168884277 -0.15603637695 0.24750518799 -0.0012168884277 -0.15603637695 0.24750518799 -0.0012168884277 -0.15603637695 0.24750518799 
-0.0012168884277 -0.15603637695 0.24750518799 -0.0012168884277 -0.15603637695 0.24750518799 -0.0012168884277 -0.15603637695 0.24750518799 
-0.0012168884277 -0.15603637695 0.24750518799 -0.0012168884277 -0.15603637695 0.24750518799 -0.0012168884277 -0.15603637695 0.24750518799 
-0.0012168884277 -0.15603637695 0.24750518799 -0.0012168884277 -0.15603637695 0.24750518799 -0.0012168884277 -0.15603637695 0.24750518799 
-0.0012168884277 -0.15603637695 0.24750518799 -0.0012168884277 -0.15603637695 0.24750518799 -0.0012168884277 -0.15603637695 0.24750518799 
-0.0012168884277 -0.15603637695 0.24750518799 -0.0012168884277 -0.15603637695 0.24750518799 -0.0012168884277 -0.15603637695 0.24750518799 
-0.0012168884277 -0.15603637695 0.24750518799 -0.0012168884277 -0.15603637695 0.24750518799 -0.0012168884277 -0.15603637695 0.24750518799 
-0.0012168884277 -0.15603637695 0.24750518799 -0.0012168884277 -0.15603637695 0.24750518799 -0.0012168884277 -0.15603637695 0.24750518799 
-0.0012168884277 -0.15603637695 0.24750518799 -0.0012168884277 -0.15603637695 0.24750518799 -0.0012168884277 -0.15603637695 0.24750518799 
-0.0012168884277 -0.15603637695 0.24750518799 -0.0012168884277 -0.15603637695 0.24750518799 -0.0012168884277 -0.15603637695 0.24750518799 
-0.0012168884277 -0.15603637695 0.24750518799 -0.0012168884277 -0.15603637695 0.24750518799 -0.0012168884277 -0.15603637695 0.24750518799 
-0.0012168884277 -0.15603637695 0.24750518799 -0.0012168884277 -0.15603637695 0.24750518799 -0.0012168884277 -0.15603637695 0.24750518799 
-0.0012168884277 -0.15603637695 0.24750518799 -0.0012168884277 -0.15603637695 0.24750518799 -0.0012168884277 -0.15603637695 0.24750518799 
-0.0012168884277 -0.15603637695 0.24750518799 -0.0012168884277 -0.15603637695 0.24750518799 -0.0012168884277 -0.15603637695 0.24750518799 
-0.0012168884277 -0.15603637695 0.24750518799 -0.0012168884277 -0.15603637695 0.24750518799 -0.0012168884277 -0.15603637695 0.24750518799 
-0.0012168884277 -0.15603637695 0.24750518799 -0.0012168884277 -0.15603637695 0.24750518799 -0.0012168884277 -0.15603637695 0.24750518799 
-0.0012168884277 -0.15603637695 0.24750518799 -0.0012168884277 -0.15603637695 0.24750518799 -0.0012168884277 -0.15603637695 0.24750518799 
-0.0012168884277 -0.15603637695 0.24750518799 -0.0012168884277 -0.15603637695 0.24750518799 -0.0012168884277 -0.15603637695 0.24750518799 
-0.0012168884277 -0.15603637695 0.24750518799 -0.0012168884277 -0.15603637695 0.24750518799 -0.0012168884277 -0.15603637695 0.24750518799 
-0.0012168884277 -0.15603637695 0.24750518799 -0.0012168884277 -0.15603637695 0.24750518799 -0.0012168884277 -0.15603637695 0.24750518799 
-0.0012168884277 -0.15603637695 0.24750518799 -0.0012168884277 -0.15603637695 0.24750518799 -0.0012168884277 -0.15603637695 0.24750518799 
-0.0012168884277 -0.15603637695 0.24750518799 -0.0012168884277 -0.15603637695 0.24750518799 -0.0012168884277 -0.15603637695 0.24750518799 
-0.0012168884277 -0.15603637695 0.24750518799 -0.0012168884277 -0.15603637695 0.24750518799 -0.0012168884277 -0.15603637695 0.24750518799 
-0.0012168884277 -0.15603637695 0.24750518799 -0.0012168884277 -0.15603637695 0.24750518799 -0.0012168884277 -0.15603637695 0.24750518799 
-0.0012168884277 -0.15603637695 0.24750518799 -0.0012168884277 -0.15603637695 0.24750518799 -0.0012168884277 -0.15603637695 0.24750518799 
-0.0012168884277 -0.15603637695 0.24750518799 -0.0012168884277 -0.15603637695 0.24750518799 -0.0012168884277 -0.15603637695 0.24750518799 
-0.0012168884277 -0.15603637695 0.24750518799 -0.0012168884277 -0.15603637695 0.24750518799 -0.0012168884277 -0.15603637695 0.24750518799 
-0.0012168884277 -0.15603637695 0.24750518799 -0.0012168884277 -0.15603637695 0.24750518799 -0.0012168884277 -0.15603637695 0.24750518799 
-0.0012168884277 -0.15603637695 0.24750518799 -0.0012168884277 -0.15603637695 0.24750518799 -0.0012168884277 -0.15603637695 0.24750518799 
-0.0012168884277 -0.15603637695 0.24750518799 -0.0012168884277 -0.15603637695 0.24750518799 -0.0012168884277 -0.15603637695 0.24750518799 
-0.0012168884277 -0.15603637695 0.24750518799 -0.0012168884277 -0.15603637695 0.24750518799 -0.0012168884277 -0.15603637695 0.24750518799 
-0.0012168884277 -0.15603637695 0.24750518799 -0.0012168884277 -0.15603637695 0.24750518799 -0.0012168884277 -0.15603637695 0.24750518799 
-0.0012168884277 -0.15603637695 0.24750518799 -0.0012168884277 -0.15603637695 0.24750518799 -0.0012168884277 -0.15603637695 0.24750518799 
-0.0012168884277 -0.15603637695 0.24750518799 -0.0012168884277 -0.15603637695 0.24750518799 -0.0012168884277 -0.15603637695 0.24750518799 
-0.0012168884277 -0.15603637695 0.24750518799 -0.0012168884277 -0.15603637695 0.24750518799 -0.0012168884277 -0.15603637695 0.24750518799 
-0.0012168884277 -0.15603637695 0.24750518799 -0.0012168884277 -0.15603637695 0.24750518799 -0.0012168884277 -0.15603637695 0.24750518799 
-0.0012168884277 -0.15603637695 0.24750518799 -0.0012168884277 -0.15603637695 0.24750518799 -0.0012168884277 -0.15603637695 0.24750518799 
-0.0012168884277 -0.15603637695 0.24750518799 -0.0012168884277 -0.15603637695 0.24750518799 -0.0012168884277 -0.15603637695 0.24750518799 
-0.0012168884277 -0.15603637695 0.24750518799 -0.0012168884277 -0.15603637695 0.24750518799 -0.0012168884277 -0.15603637695 0.24750518799 
-0.0012168884277 -0.15603637695 0.24750518799 -0.0012168884277 -0.15603637695 0.24750518799 -0.0012168884277 -0.15603637695 0.24750518799 
-0.0012168884277 -0.15603637695 0.24750518799 -0.0012168884277 -0.15603637695 0.24750518799 -0.0012168884277 -0.15603637695 0.24750518799 
-0.0012168884277 -0.15603637695 0.24750518799 -0.0012168884277 -0.15603637695 0.24750518799 -0.0012168884277 -0.15603637695 0.24750518799 
-0.0012168884277 -0.15603637695 0.24750518799 -0.0012168884277 -0.15603637695 0.24750518799 -0.0012168884277 -0.15603637695 0.24750518799 
-0.0012168884277 -0.15603637695 0.24750518799 -0.0012168884277 -0.15603637695 0.24750518799 -0.0012168884277 -0.15603637695 0.24750518799 
-0.0012168884277 -0.15603637695 0.24750518799 -0.0012168884277 -0.15603637695 0.24750518799 -0.0012168884277 -0.15603637695 0.24750518799 
-0.0012168884277 -0.15603637695 0.24750518799 -0.0012168884277 -0.15603637695 0.24750518799 -0.0012168884277 -0.15603637695 0.24750518799 
-0.0012168884277 -0.15603637695 0.24750518799 -0.0012168884277 -0.15603637695 0.24750518799 -0.0012168884277 -0.15603637695 0.24750518799 
-0.0012168884277 -0.15603637695 0.24750518799 -0.0012168884277 -0.15603637695 0.24750518799 -0.0012168884277 -0.15603637695 0.24750518799 
-0.0012168884277 -0.15603637695 0.24750518799 -0.0012168884277 -0.15603637695 0.24750518799 -0.0012168884277 -0.15603637695 0.24750518799 
-0.0012168884277 -0.15603637695 0.24750518799 -0.0012168884277 -0.15603637695 0.24750518799 -0.0012168884277 -0.15603637695 0.24750518799 
-0.0012168884277 -0.15603637695 0.24750518799 -0.0012168884277 -0.15603637695 0.24750518799 -0.0012168884277 -0.15603637695 0.24750518799 
-0.0012168884277 -0.15603637695 0.24750518799 -0.0012168884277 -0.15603637695 0.24750518799 -0.0012168884277 -0.15603637695 0.24750518799 
-0.0012168884277 -0.15603637695 0.24750518799 -0.0012168884277 -0.15603637695 0.24750518799 -0.0012168884277 -0.15603637695 0.24750518799 
-0.0012168884277 -0.15603637695 0.24750518799 -0.0012168884277 -0.15603637695 0.24750518799 -0.0012168884277 -0.15603637695 0.24750518799 
-0.0012168884277 -0.15603637695 0.24750518799 -0.0012168884277 -0.15603637695 0.24750518799 -0.0012168884277 -0.15603637695 0.24750518799 
-0.0012168884277 -0.15603637695 0.24750518799 -0.0012168884277 -0.15603637695 0.24750518799 -0.0012168884277 -0.15603637695 0.24750518799 
-0.0012168884277 -0.15603637695 0.24750518799 -0.0012168884277 -0.15603637695 0.24750518799 -0.0012168884277 -0.15603637695 0.24750518799 
-0.0012168884277 -0.15603637695 0.24750518799 -0.0012168884277 -0.15603637695 0.24750518799 -0.0012168884277 -0.15603637695 0.24750518799 
-0.0012168884277 -0.15603637695 0.24750518799 -0.0012168884277 -0.15603637695 0.24750518799 -0.0012168884277 -0.15603637695 0.24750518799 
-0.0012168884277 -0.15603637695 0.24750518799 -0.0012168884277 -0.15603637695 0.24750518799 -0.0012168884277 -0.15603637695 0.24750518799 
-0.0012168884277 -0.15603637695 0.24750518799 -0.0012168884277 -0.15603637695 0.24750518799 -0.0012168884277 -0.15603637695 0.24750518799 
-0.0012168884277 -0.15603637695 0.24750518799 -0.0012168884277 -0.15603637695 0.24750518799 -0.0012168884277 -0.15603637695 0.24750518799 
-0.0012168884277 -0.15603637695 0.24750518799 -0.0012168884277 -0.15603637695 0.24750518799 -0.0012168884277 -0.15603637695 0.24750518799 
-0.0012168884277 -0.15603637695 0.24750518799 -0.0012168884277 -0.15603637695 0.24750518799 -0.0012168884277 -0.15603637695 0.24750518799 
-0.0012168884277 -0.15603637695 0.24750518799 -0.0012168884277 -0.15603637695 0.24750518799 -0.0012168884277 -0.15603637695 0.24750518799 
-0.0012168884277 -0.15603637695 0.24750518799 -0.0012168884277 -0.15603637695 0.24750518799 -0.0012168884277 -0.15603637695 0.24750518799 
-0.0012168884277 -0.15603637695 0.24750518799 -0.0012168884277 -0.15603637695 0.24750518799 -0.0012168884277 -0.15603637695 0.24750518799 
-0.0012168884277 -0.15603637695 0.24750518799 -0.0012168884277 -0.15603637695 0.24750518799 -0.0012168884277 -0.15603637695 0.24750518799 
-0.0012168884277 -0.15603637695 0.24750518799 -0.0012168884277 -0.15603637695 0.24750518799 -0.0012168884277 -0.15603637695 0.24750518799 
-0.0012168884277 -0.15603637695 0.24750518799 -0.0012168884277 -0.15603637695 0.24750518799 -0.0012168884277 -0.15603637695 0.24750518799 
-0.0012168884277 -0.15603637695 0.24750518799 -0.0012168884277 -0.15603637695 0.24750518799 -0.0012168884277 -0.15603637695 0.24750518799 
-0.0012168884277 -0.15603637695 0.24750518799 -0.0012168884277 -0.15603637695 0.24750518799 -0.0012168884277 -0.15603637695 0.24750518799 
-0.0012168884277 -0.15603637695 0.24750518799 -0.0012168884277 -0.15603637695 0.24750518799 -0.0012168884277 -0.15603637695 0.24750518799 
-0.0012168884277 -0.15603637695 0.24750518799 -0.0012168884277 -0.15603637695 0.24750518799 -0.0012168884277 -0.15603637695 0.24750518799 
-0.0012168884277 -0.15603637695 0.24750518799 -0.0012168884277 -0.15603637695 0.24750518799 -0.0012168884277 -0.15603637695 0.24750518799 
-0.0012168884277 -0.15603637695 0.24750518799 -0.0012168884277 -0.15603637695 0.24750518799 -0.0012168884277 -0.15603637695 0.24750518799 
-0.0012168884277 -0.15603637695 0.24750518799 -0.0012168884277 -0.15603637695 0.24750518799 -0.0012168884277 -0.15603637695 0.24750518799 
-0.0012168884277 -0.15603637695 0.24750518799 -0.0012168884277 -0.15603637695 0.24750518799 -0.0012168884277 -0.15603637695 0.24750518799 
-0.0012168884277 -0.15603637695 0.24750518799 -0.0012168884277 -0.15603637695 0.24750518799 -0.0012168884277 -0.15603637695 0.24750518799 
-0.0012168884277 -0.15603637695 0.24750518799 -0.0012168884277 -0.15603637695 0.24750518799 -0.0012168884277 -0.15603637695 0.24750518799 
-0.0012168884277 -0.15603637695 0.24750518799 -0.0012168884277 -0.15603637695 0.24750518799 -0.0012168884277 -0.15603637695 0.24750518799 
-0.0012168884277 -0.15603637695 0.24750518799 -0.0012168884277 -0.15603637695 0.24750518799 -0.0012168884277 -0.15603637695 0.24750518799 
-0.0012168884277 -0.15603637695 0.24750518799 -0.0012168884277 -0.15603637695 0.24750518799 -0.0012168884277 -0.15603637695 0.24750518799 
-0.0012168884277 -0.15603637695 0.24750518799 -0.0012168884277 -0.15603637695 0.24750518799 -0.0012168884277 -0.15603637695 0.24750518799 
-0.0012168884277 -0.15603637695 0.24750518799 -0.0012168884277 -0.15603637695 0.24750518799 -0.0012168884277 -0.15603637695 0.24750518799 
-0.0012168884277 -0.15603637695 0.24750518799 -0.0012168884277 -0.15603637695 0.24750518799 -0.0012168884277 -0.15603637695 0.24750518799 
-0.0012168884277 -0.15603637695 0.24750518799 -0.0012168884277 -0.15603637695 0.24750518799 -0.0012168884277 -0.15603637695 0.24750518799 
-0.0012168884277 -0.15603637695 0.24750518799 -0.0012168884277 -0.15603637695 0.24750518799 -0.0012168884277 -0.15603637695 0.24750518799 
-0.0012168884277 -0.15603637695 0.24750518799 -0.0012168884277 -0.15603637695 0.24750518799 -0.0012168884277 -0.15603637695 0.24750518799 
-0.0012168884277 -0.15603637695 0.24750518799 -0.0012168884277 -0.15603637695 0.24750518799 -0.0012168884277 -0.15603637695 0.24750518799 
-0.0012168884277 -0.15603637695 0.24750518799 -0.0012168884277 -0.15603637695 0.24750518799 -0.0012168884277 -0.15603637695 0.24750518799 
-0.0012168884277 -0.15603637695 0.24750518799 -0.0012168884277 -0.15603637695 0.24750518799 -0.0012168884277 -0.15603637695 0.24750518799 
-0.0012168884277 -0.15603637695 0.24750518799 -0.0012168884277 -0.15603637695 0.24750518799 -0.0012168884277 -0.15603637695 0.24750518799 
-0.0012168884277 -0.15603637695 0.24750518799 -0.0012168884277 -0.15603637695 0.24750518799 -0.0012168884277 -0.15603637695 0.24750518799 
-0.0012168884277 -0.15603637695 0.24750518799 -0.0012168884277 -0.15603637695 0.24750518799 -0.0012168884277 -0.15603637695 0.24750518799 
-0.0012168884277 -0.15603637695 0.24750518799 -0.0012168884277 -0.15603637695 0.24750518799 -0.0012168884277 -0.15603637695 0.24750518799 
-0.0012168884277 -0.15603637695 0.24750518799 -0.0012168884277 -0.15603637695 0.24750518799 -0.0012168884277 -0.15603637695 0.24750518799 
-0.0012168884277 -0.15603637695 0.24750518799 -0.0012168884277 -0.15603637695 0.24750518799 -0.0012168884277 -0.15603637695 0.24750518799 
-0.0012168884277 -0.15603637695 0.24750518799 -0.0012168884277 -0.15603637695 0.24750518799 -0.0012168884277 -0.15603637695 0.24750518799 
-0.0012168884277 -0.15603637695 0.24750518799 -0.0012168884277 -0.15603637695 0.24750518799 -0.0012168884277 -0.15603637695 0.24750518799 
-0.0012168884277 -0.15603637695 0.24750518799 -0.0012168884277 -0.15603637695 0.24750518799 -0.0012168884277 -0.15603637695 0.24750518799 
-0.0012168884277 -0.15603637695 0.24750518799 -0.0012168884277 -0.15603637695 0.24750518799 -0.0012168884277 -0.15603637695 0.24750518799 
-0.0012168884277 -0.15603637695 0.24750518799 -0.0012168884277 -0.15603637695 0.24750518799 -0.0012168884277 -0.15603637695 0.24750518799 
-0.0012168884277 -0.15603637695 0.24750518799 -0.0012168884277 -0.15603637695 0.24750518799 -0.0012168884277 -0.15603637695 0.24750518799 
-0.0012168884277 -0.15603637695 0.24750518799 -0.0012168884277 -0.15603637695 0.24750518799 -0.0012168884277 -0.15603637695 0.24750518799 
-0.0012168884277 -0.15603637695 0.24750518799 -0.0012168884277 -0.15603637695 0.24750518799 -0.0012168884277 -0.15603637695 0.24750518799 
-0.0012168884277 -0.15603637695 0.24750518799 -0.0012168884277 -0.15603637695 0.24750518799 -0.0012168884277 -0.15603637695 0.24750518799 
-0.0012168884277 -0.15603637695 0.24750518799 -0.0012168884277 -0.15603637695 0.24750518799 -0.0012168884277 -0.15603637695 0.24750518799 
-0.0012168884277 -0.15603637695 0.24750518799 -0.0012168884277 -0.15603637695 0.24750518799 -0.0012168884277 -0.15603637695 0.24750518799 
-0.0012168884277 -0.15603637695 0.24750518799 -0.0012168884277 -0.15603637695 0.24750518799 -0.0012168884277 -0.15603637695 0.24750518799 
-0.0012168884277 -0.15603637695 0.24750518799 -0.0012168884277 -0.15603637695 0.24750518799 -0.0012168884277 -0.15603637695 0.24750518799 
-0.0012168884277 -0.15603637695 0.24750518799 -0.0012168884277 -0.15603637695 0.24750518799 -0.0012168884277 -0.15603637695 0.24750518799 
-0.0012168884277 -0.15603637695 0.24750518799 -0.0012168884277 -0.15603637695 0.24750518799 -0.0012168884277 -0.15603637695 0.24750518799 
-0.0012168884277 -0.15603637695 0.24750518799 -0.0012168884277 -0.15603637695 0.24750518799 -0.0012168884277 -0.15603637695 0.24750518799 
-0.0012168884277 -0.15603637695 0.24750518799 -0.0012168884277 -0.15603637695 0.24750518799 -0.0012168884277 -0.15603637695 0.24750518799 
-0.0012168884277 -0.15603637695 0.24750518799 -0.0012168884277 -0.15603637695 0.24750518799 -0.0012168884277 -0.15603637695 0.24750518799 
-0.0012168884277 -0.15603637695 0.24750518799 -0.0012168884277 -0.15603637695 0.24750518799 -0.0012168884277 -0.15603637695 0.24750518799 
-0.0012168884277 -0.15603637695 0.24750518799 -0.0012168884277 -0.15603637695 0.24750518799 -0.0012168884277 -0.15603637695 0.24750518799 
-0.0012168884277 -0.15603637695 0.24750518799 -0.0012168884277 -0.15603637695 0.24750518799 -0.0012168884277 -0.15603637695 0.24750518799 
-0.0012168884277 -0.15603637695 0.24750518799 -0.0012168884277 -0.15603637695 0.24750518799 -0.0012168884277 -0.15603637695 0.24750518799 
-0.0012168884277 -0.15603637695 0.24750518799 -0.0012168884277 -0.15603637695 0.24750518799 -0.0012168884277 -0.15603637695 0.24750518799 
-0.0012168884277 -0.15603637695 0.24750518799 -0.0012168884277 -0.15603637695 0.24750518799 -0.0012168884277 -0.15603637695 0.24750518799 
-0.0012168884277 -0.15603637695 0.24750518799 -0.0012168884277 -0.15603637695 0.24750518799 -0.0012168884277 -0.15603637695 0.24750518799 
-0.0012168884277 -0.15603637695 0.24750518799 -0.0012168884277 -0.15603637695 0.24750518799 -0.0012168884277 -0.15603637695 0.24750518799 
-0.0012168884277 -0.15603637695 0.24750518799 -0.0012168884277 -0.15603637695 0.24750518799 -0.0012168884277 -0.15603637695 0.24750518799 
-0.0012168884277 -0.15603637695 0.24750518799 -0.0012168884277 -0.15603637695 0.24750518799 -0.0012168884277 -0.15603637695 0.24750518799 
-0.0012168884277 -0.15603637695 0.24750518799 -0.0012168884277 -0.15603637695 0.24750518799 -0.0012168884277 -0.15603637695 0.24750518799 
-0.0012168884277 -0.15603637695 0.24750518799 -0.0012168884277 -0.15603637695 0.24750518799 -0.0012168884277 -0.15603637695 0.24750518799 
-0.0012168884277 -0.15603637695 0.24750518799 -0.0012168884277 -0.15603637695 0.24750518799 -0.0012168884277 -0.15603637695 0.24750518799 
-0.0012168884277 -0.15603637695 0.24750518799 -0.0012168884277 -0.15603637695 0.24750518799 -0.0012168884277 -0.15603637695 0.24750518799 
-0.0012168884277 -0.15603637695 0.24750518799 -0.0012168884277 -0.15603637695 0.24750518799 -0.0012168884277 -0.15603637695 0.24750518799 
-0.0012168884277 -0.15603637695 0.24750518799 -0.0012168884277 -0.15603637695 0.24750518799 -0.0012168884277 -0.15603637695 0.24750518799 
-0.0012168884277 -0.15603637695 0.24750518799 -0.0012168884277 -0.15603637695 0.24750518799 -0.0012168884277 -0.15603637695 0.24750518799 
-0.0012168884277 -0.15603637695 0.24750518799 -0.0012168884277 -0.15603637695 0.24750518799 -0.0012168884277 -0.15603637695 0.24750518799 
-0.0012168884277 -0.15603637695 0.24750518799 -0.0012168884277 -0.15603637695 0.24750518799 -0.0012168884277 -0.15603637695 0.24750518799 
-0.0012168884277 -0.15603637695 0.24750518799 -0.0012168884277 -0.15603637695 0.24750518799 -0.0012168884277 -0.15603637695 0.24750518799 
-0.0012168884277 -0.15603637695 0.24750518799 -0.0012168884277 -0.15603637695 0.24750518799 -0.0012168884277 -0.15603637695 0.24750518799 
-0.0012168884277 -0.15603637695 0.24750518799 -0.0012168884277 -0.15603637695 0.24750518799 -0.0012168884277 -0.15603637695 0.24750518799 
-0.0012168884277 -0.15603637695 0.24750518799 -0.0012168884277 -0.15603637695 0.24750518799 -0.0012168884277 -0.15603637695 0.24750518799 
-0.0012168884277 -0.15603637695 0.24750518799 -0.0012168884277 -0.15603637695 0.24750518799 -0.0012168884277 -0.15603637695 0.24750518799 
-0.0012168884277 -0.15603637695 0.24750518799 -0.0012168884277 -0.15603637695 0.24750518799 -0.0012168884277 -0.15603637695 0.24750518799 
-0.0012168884277 -0.15603637695 0.24750518799 -0.0012168884277 -0.15603637695 0.24750518799 -0.0012168884277 -0.15603637695 0.24750518799 
-0.0012168884277 -0.15603637695 0.24750518799 -0.0012168884277 -0.15603637695 0.24750518799 -0.0012168884277 -0.15603637695 0.24750518799 
-0.0012168884277 -0.15603637695 0.24750518799 -0.0012168884277 -0.15603637695 0.24750518799 -0.0012168884277 -0.15603637695 0.24750518799 
-0.0012168884277 -0.15603637695 0.24750518799 -0.0012168884277 -0.15603637695 0.24750518799 -0.0012168884277 -0.15603637695 0.24750518799 
-0.0012168884277 -0.15603637695 0.24750518799 -0.0012168884277 -0.15603637695 0.24750518799 -0.0012168884277 -0.15603637695 0.24750518799 
-0.0012168884277 -0.15603637695 0.24750518799 -0.0012168884277 -0.15603637695 0.24750518799 -0.0012168884277 -0.15603637695 0.24750518799 
-0.0012168884277 -0.15603637695 0.24750518799 -0.0012168884277 -0.15603637695 0.24750518799 -0.0012168884277 -0.15603637695 0.24750518799 
-0.0012168884277 -0.15603637695 0.24750518799 -0.0012168884277 -0.15603637695 0.24750518799 -0.0012168884277 -0.15603637695 0.24750518799 
-0.0012168884277 -0.15603637695 0.24750518799 -0.0012168884277 -0.15603637695 0.24750518799 -0.0012168884277 -0.15603637695 0.24750518799 
-0.0012168884277 -0.15603637695 0.24750518799 -0.0012168884277 -0.15603637695 0.24750518799 -0.0012168884277 -0.15603637695 0.24750518799 
-0.0012168884277 -0.15603637695 0.24750518799 -0.0012168884277 -0.15603637695 0.24750518799 -0.0012168884277 -0.15603637695 0.24750518799 
-0.0012168884277 -0.15603637695 0.24750518799 -0.0012168884277 -0.15603637695 0.24750518799 -0.0012168884277 -0.15603637695 0.24750518799 
-0.0012168884277 -0.15603637695 0.24750518799 -0.0012168884277 -0.15603637695 0.24750518799 -0.0012168884277 -0.15603637695 0.24750518799 
-0.0012168884277 -0.15603637695 0.24750518799 -0.0012168884277 -0.15603637695 0.24750518799 -0.0012168884277 -0.15603637695 0.24750518799 
-0.0012168884277 -0.15603637695 0.24750518799 -0.0012168884277 -0.15603637695 0.24750518799 -0.0012168884277 -0.15603637695 0.24750518799 
-0.0012168884277 -0.15603637695 0.24750518799 -0.0012168884277 -0.15603637695 0.24750518799 -0.0012168884277 -0.15603637695 0.24750518799 
-0.0012168884277 -0.15603637695 0.24750518799 -0.0012168884277 -0.15603637695 0.24750518799 -0.0012168884277 -0.15603637695 0.24750518799 
-0.0012168884277 -0.15603637695 0.24750518799 -0.0012168884277 -0.15603637695 0.24750518799 -0.0012168884277 -0.15603637695 0.24750518799 
-0.0012168884277 -0.15603637695 0.24750518799 -0.0012168884277 -0.15603637695 0.24750518799 -0.0012168884277 -0.15603637695 0.24750518799 
-0.0012168884277 -0.15603637695 0.24750518799 -0.0012168884277 -0.15603637695 0.24750518799 -0.0012168884277 -0.15603637695 0.24750518799 
-0.0012168884277 -0.15603637695 0.24750518799 -0.0012168884277 -0.15603637695 0.24750518799 -0.0012168884277 -0.15603637695 0.24750518799 
-0.0012168884277 -0.15603637695 0.24750518799 -0.0012168884277 -0.15603637695 0.24750518799 -0.0012168884277 -0.15603637695 0.24750518799 
-0.0012168884277 -0.15603637695 0.24750518799 -0.0012168884277 -0.15603637695 0.24750518799 -0.0012168884277 -0.15603637695 0.24750518799 
-0.0012168884277 -0.15603637695 0.24750518799 -0.0012168884277 -0.15603637695 0.24750518799 -0.0012168884277 -0.15603637695 0.24750518799 
-0.0012168884277 -0.15603637695 0.24750518799 -0.0012168884277 -0.15603637695 0.24750518799 -0.0012168884277 -0.15603637695 0.24750518799 
-0.0012168884277 -0.15603637695 0.24750518799 -0.0012168884277 -0.15603637695 0.24750518799 -0.0012168884277 -0.15603637695 0.24750518799 
-0.0012168884277 -0.15603637695 0.24750518799 -0.0012168884277 -0.15603637695 0.24750518799 -0.0012168884277 -0.15603637695 0.24750518799 
-0.0012168884277 -0.15603637695 0.24750518799 -0.0012168884277 -0.15603637695 0.24750518799 -0.0012168884277 -0.15603637695 0.24750518799 
-0.0012168884277 -0.15603637695 0.24750518799 -0.0012168884277 -0.15603637695 0.24750518799 -0.0012168884277 -0.15603637695 0.24750518799 
-0.0012168884277 -0.15603637695 0.24750518799 -0.0012168884277 -0.15603637695 0.24750518799 -0.0012168884277 -0.15603637695 0.24750518799 
-0.0012168884277 -0.15603637695 0.24750518799 -0.0012168884277 -0.15603637695 0.24750518799 -0.0012168884277 -0.15603637695 0.24750518799 
-0.0012168884277 -0.15603637695 0.24750518799 -0.0012168884277 -0.15603637695 0.24750518799 -0.0012168884277 -0.15603637695 0.24750518799 
-0.0012168884277 -0.15603637695 0.24750518799 -0.0012168884277 -0.15603637695 0.24750518799 -0.0012168884277 -0.15603637695 0.24750518799 
-0.0012168884277 -0.15603637695 0.24750518799 -0.0012168884277 -0.15603637695 0.24750518799 -0.0012168884277 -0.15603637695 0.24750518799 
-0.0012168884277 -0.15603637695 0.24750518799 -0.0012168884277 -0.15603637695 0.24750518799 -0.0012168884277 -0.15603637695 0.24750518799 
-0.0012168884277 -0.15603637695 0.24750518799 -0.0012168884277 -0.15603637695 0.24750518799 -0.0012168884277 -0.15603637695 0.24750518799 
-0.0012168884277 -0.15603637695 0.24750518799 -0.0012168884277 -0.15603637695 0.24750518799 -0.0012168884277 -0.15603637695 0.24750518799 
-0.0012168884277 -0.15603637695 0.24750518799 -0.0012168884277 -0.15603637695 0.24750518799 -0.0012168884277 -0.15603637695 0.24750518799 
-0.0012168884277 -0.15603637695 0.24750518799 -0.0012168884277 -0.15603637695 0.24750518799 -0.0012168884277 -0.15603637695 0.24750518799 
-0.0012168884277 -0.15603637695 0.24750518799 -0.0012168884277 -0.15603637695 0.24750518799 -0.0012168884277 -0.15603637695 0.24750518799 
-0.0012168884277 -0.15603637695 0.24750518799 -0.0012168884277 -0.15603637695 0.24750518799 -0.0012168884277 -0.15603637695 0.24750518799 
-0.0012168884277 -0.15603637695 0.24750518799 -0.0012168884277 -0.15603637695 0.24750518799 -0.0012168884277 -0.15603637695 0.24750518799 
-0.0012168884277 -0.15603637695 0.24750518799 -0.0012168884277 -0.15603637695 0.24750518799 -0.0012168884277 -0.15603637695 0.24750518799 
-0.0012168884277 -0.15603637695 0.24750518799 -0.0012168884277 -0.15603637695 0.24750518799 -0.0012168884277 -0.15603637695 0.24750518799 
-0.0012168884277 -0.15603637695 0.24750518799 -0.0012168884277 -0.15603637695 0.24750518799 -0.0012168884277 -0.15603637695 0.24750518799 
-0.0012168884277 -0.15603637695 0.24750518799 -0.0012168884277 -0.15603637695 0.24750518799 -0.0012168884277 -0.15603637695 0.24750518799 
-0.0012168884277 -0.15603637695 0.24750518799 -0.0012168884277 -0.15603637695 0.24750518799 -0.0012168884277 -0.15603637695 0.24750518799 
-0.0012168884277 -0.15603637695 0.24750518799 -0.0012168884277 -0.15603637695 0.24750518799 -0.0012168884277 -0.15603637695 0.24750518799 
-0.0012168884277 -0.15603637695 0.24750518799 -0.0012168884277 -0.15603637695 0.24750518799 -0.0012168884277 -0.15603637695 0.24750518799 
-0.0012168884277 -0.15603637695 0.24750518799 -0.0012168884277 -0.15603637695 0.24750518799 -0.0012168884277 -0.15603637695 0.24750518799 
-0.0012168884277 -0.15603637695 0.24750518799 -0.0012168884277 -0.15603637695 0.24750518799 -0.0012168884277 -0.15603637695 0.24750518799 
-0.0012168884277 -0.15603637695 0.24750518799 -0.0012168884277 -0.15603637695 0.24750518799 -0.0012168884277 -0.15603637695 0.24750518799 
-0.0012168884277 -0.15603637695 0.24750518799 -0.0012168884277 -0.15603637695 0.24750518799 -0.0012168884277 -0.15603637695 0.24750518799 
-0.0012168884277 -0.15603637695 0.24750518799 -0.0012168884277 -0.15603637695 0.24750518799 -0.0012168884277 -0.15603637695 0.24750518799 
-0.0012168884277 -0.15603637695 0.24750518799 -0.0012168884277 -0.15603637695 0.24750518799 -0.0012168884277 -0.15603637695 0.24750518799 
-0.0012168884277 -0.15603637695 0.24750518799 -0.0012168884277 -0.15603637695 0.24750518799 -0.0012168884277 -0.15603637695 0.24750518799 
-0.0012168884277 -0.15603637695 0.24750518799 -0.0012168884277 -0.15603637695 0.24750518799 -0.0012168884277 -0.15603637695 0.24750518799 
-0.0012168884277 -0.15603637695 0.24750518799 -0.0012168884277 -0.15603637695 0.24750518799 -0.0012168884277 -0.15603637695 0.24750518799 
-0.0012168884277 -0.15603637695 0.24750518799 -0.0012168884277 -0.15603637695 0.24750518799 -0.0012168884277 -0.15603637695 0.24750518799 
-0.0012168884277 -0.15603637695 0.24750518799 -0.0012168884277 -0.15603637695 0.24750518799 -0.0012168884277 -0.15603637695 0.24750518799 
-0.0012168884277 -0.15603637695 0.24750518799 -0.0012168884277 -0.15603637695 0.24750518799 -0.0012168884277 -0.15603637695 0.24750518799 
-0.0012168884277 -0.15603637695 0.24750518799 -0.0012168884277 -0.15603637695 0.24750518799 -0.0012168884277 -0.15603637695 0.24750518799 
-0.0012168884277 -0.15603637695 0.24750518799 -0.0012168884277 -0.15603637695 0.24750518799 -0.0012168884277 -0.15603637695 0.24750518799 
-0.0012168884277 -0.15603637695 0.24750518799 -0.0012168884277 -0.15603637695 0.24750518799 -0.0012168884277 -0.15603637695 0.24750518799 
-0.0012168884277 -0.15603637695 0.24750518799 -0.0012168884277 -0.15603637695 0.24750518799 -0.0012168884277 -0.15603637695 0.24750518799 
-0.0012168884277 -0.15603637695 0.24750518799 -0.0012168884277 -0.15603637695 0.24750518799 -0.0012168884277 -0.15603637695 0.24750518799 
-0.0012168884277 -0.15603637695 0.24750518799 -0.0012168884277 -0.15603637695 0.24750518799 -0.0012168884277 -0.15603637695 0.24750518799 
-0.0012168884277 -0.15603637695 0.24750518799 -0.0012168884277 -0.15603637695 0.24750518799 -0.0012168884277 -0.15603637695 0.24750518799 
-0.0012168884277 -0.15603637695 0.24750518799 -0.0012168884277 -0.15603637695 0.24750518799 -0.0012168884277 -0.15603637695 0.24750518799 
-0.0012168884277 -0.15603637695 0.24750518799 -0.0012168884277 -0.15603637695 0.24750518799 -0.0012168884277 -0.15603637695 0.24750518799 
-0.0012168884277 -0.15603637695 0.24750518799 -0.0012168884277 -0.15603637695 0.24750518799 -0.0012168884277 -0.15603637695 0.24750518799 
-0.0012168884277 -0.15603637695 0.24750518799 -0.0012168884277 -0.15603637695 0.24750518799 -0.0012168884277 -0.15603637695 0.24750518799 
-0.0012168884277 -0.15603637695 0.24750518799 -0.0012168884277 -0.15603637695 0.24750518799 -0.0012168884277 -0.15603637695 0.24750518799 
-0.0012168884277 -0.15603637695 0.24750518799 -0.0012168884277 -0.15603637695 0.24750518799 -0.0012168884277 -0.15603637695 0.24750518799 
-0.0012168884277 -0.15603637695 0.24750518799 -0.0012168884277 -0.15603637695 0.24750518799 -0.0012168884277 -0.15603637695 0.24750518799 
-0.0012168884277 -0.15603637695 0.24750518799 -0.0012168884277 -0.15603637695 0.24750518799 -0.0012168884277 -0.15603637695 0.24750518799 
-0.0012168884277 -0.15603637695 0.24750518799 -0.0012168884277 -0.15603637695 0.24750518799 -0.0012168884277 -0.15603637695 0.24750518799 
-0.0012168884277 -0.15603637695 0.24750518799 -0.0012168884277 -0.15603637695 0.24750518799 -0.0012168884277 -0.15603637695 0.24750518799 
-0.0012168884277 -0.15603637695 0.24750518799 -0.0012168884277 -0.15603637695 0.24750518799 -0.0012168884277 -0.15603637695 0.24750518799 
-0.0012168884277 -0.15603637695 0.24750518799 -0.0012168884277 -0.15603637695 0.24750518799 -0.0012168884277 -0.15603637695 0.24750518799 
-0.0012168884277 -0.15603637695 0.24750518799 -0.0012168884277 -0.15603637695 0.24750518799 -0.0012168884277 -0.15603637695 0.24750518799 
-0.0012168884277 -0.15603637695 0.24750518799 -0.0012168884277 -0.15603637695 0.24750518799 -0.0012168884277 -0.15603637695 0.24750518799 
-0.0012168884277 -0.15603637695 0.24750518799 -0.0012168884277 -0.15603637695 0.24750518799 -0.0012168884277 -0.15603637695 0.24750518799 
-0.0012168884277 -0.15603637695 0.24750518799 -0.0012168884277 -0.15603637695 0.24750518799 -0.0012168884277 -0.15603637695 0.24750518799 
-0.0012168884277 -0.15603637695 0.24750518799 -0.0012168884277 -0.15603637695 0.24750518799 -0.0012168884277 -0.15603637695 0.24750518799 
-0.0012168884277 -0.15603637695 0.24750518799 -0.0012168884277 -0.15603637695 0.24750518799 -0.0012168884277 -0.15603637695 0.24750518799 
-0.0012168884277 -0.15603637695 0.24750518799 -0.0012168884277 -0.15603637695 0.24750518799 -0.0012168884277 -0.15603637695 0.24750518799 
-0.0012168884277 -0.15603637695 0.24750518799 -0.0012168884277 -0.15603637695 0.24750518799 -0.0012168884277 -0.15603637695 0.24750518799 
-0.0012168884277 -0.15603637695 0.24750518799 -0.0012168884277 -0.15603637695 0.24750518799 -0.0012168884277 -0.15603637695 0.24750518799 
-0.0012168884277 -0.15603637695 0.24750518799 -0.0012168884277 -0.15603637695 0.24750518799 -0.0012168884277 -0.15603637695 0.24750518799 
-0.0012168884277 -0.15603637695 0.24750518799 -0.0012168884277 -0.15603637695 0.24750518799 -0.0012168884277 -0.15603637695 0.24750518799 
-0.0012168884277 -0.15603637695 0.24750518799 -0.0012168884277 -0.15603637695 0.24750518799 -0.0012168884277 -0.15603637695 0.24750518799 
-0.0012168884277 -0.15603637695 0.24750518799 -0.0012168884277 -0.15603637695 0.24750518799 -0.0012168884277 -0.15603637695 0.24750518799 
-0.0012168884277 -0.15603637695 0.24750518799 -0.0012168884277 -0.15603637695 0.24750518799 -0.0012168884277 -0.15603637695 0.24750518799 
-0.0012168884277 -0.15603637695 0.24750518799 -0.0012168884277 -0.15603637695 0.24750518799 -0.0012168884277 -0.15603637695 0.24750518799 
-0.0012168884277 -0.15603637695 0.24750518799 -0.0012168884277 -0.15603637695 0.24750518799 -0.0012168884277 -0.15603637695 0.24750518799 
-0.0012168884277 -0.15603637695 0.24750518799 -0.0012168884277 -0.15603637695 0.24750518799 -0.0012168884277 -0.15603637695 0.24750518799 
-0.0012168884277 -0.15603637695 0.24750518799 -0.0012168884277 -0.15603637695 0.24750518799 -0.0012168884277 -0.15603637695 0.24750518799 
-0.0012168884277 -0.15603637695 0.24750518799 -0.0012168884277 -0.15603637695 0.24750518799 -0.0012168884277 -0.15603637695 0.24750518799 
-0.0012168884277 -0.15603637695 0.24750518799 -0.0012168884277 -0.15603637695 0.24750518799 -0.0012168884277 -0.15603637695 0.24750518799 
-0.0012168884277 -0.15603637695 0.24750518799 -0.0012168884277 -0.15603637695 0.24750518799 -0.0012168884277 -0.15603637695 0.24750518799 
-0.0012168884277 -0.15603637695 0.24750518799 -0.0012168884277 -0.15603637695 0.24750518799 -0.0012168884277 -0.15603637695 0.24750518799 
-0.0012168884277 -0.15603637695 0.24750518799 -0.0012168884277 -0.15603637695 0.24750518799 -0.0012168884277 -0.15603637695 0.24750518799 
-0.0012168884277 -0.15603637695 0.24750518799 -0.0012168884277 -0.15603637695 0.24750518799 -0.0012168884277 -0.15603637695 0.24750518799 
-0.0012168884277 -0.15603637695 0.24750518799 -0.0012168884277 -0.15603637695 0.24750518799 -0.0012168884277 -0.15603637695 0.24750518799 
-0.0012168884277 -0.15603637695 0.24750518799 -0.0012168884277 -0.15603637695 0.24750518799 -0.0012168884277 -0.15603637695 0.24750518799 
-0.0012168884277 -0.15603637695 0.24750518799 -0.0012168884277 -0.15603637695 0.24750518799 -0.0012168884277 -0.15603637695 0.24750518799 
-0.0012168884277 -0.15603637695 0.24750518799 -0.0012168884277 -0.15603637695 0.24750518799 -0.0012168884277 -0.15603637695 0.24750518799 
-0.0012168884277 -0.15603637695 0.24750518799 -0.0012168884277 -0.15603637695 0.24750518799 -0.0012168884277 -0.15603637695 0.24750518799 
-0.0012168884277 -0.15603637695 0.24750518799 -0.0012168884277 -0.15603637695 0.24750518799 -0.0012168884277 -0.15603637695 0.24750518799 
-0.0012168884277 -0.15603637695 0.24750518799 -0.0012168884277 -0.15603637695 0.24750518799 -0.0012168884277 -0.15603637695 0.24750518799 
-0.0012168884277 -0.15603637695 0.24750518799 -0.0012168884277 -0.15603637695 0.24750518799 -0.0012168884277 -0.15603637695 0.24750518799 
-0.0012168884277 -0.15603637695 0.24750518799 -0.0012168884277 -0.15603637695 0.24750518799 -0.0012168884277 -0.15603637695 0.24750518799 
-0.0012168884277 -0.15603637695 0.24750518799 -0.0012168884277 -0.15603637695 0.24750518799 -0.0012168884277 -0.15603637695 0.24750518799 
-0.0012168884277 -0.15603637695 0.24750518799 -0.0012168884277 -0.15603637695 0.24750518799 -0.0012168884277 -0.15603637695 0.24750518799 
-0.0012168884277 -0.15603637695 0.24750518799 -0.0012168884277 -0.15603637695 0.24750518799 -0.0012168884277 -0.15603637695 0.24750518799 
-0.0012168884277 -0.15603637695 0.24750518799 -0.0012168884277 -0.15603637695 0.24750518799 -0.0012168884277 -0.15603637695 0.24750518799 
-0.0012168884277 -0.15603637695 0.24750518799 -0.0012168884277 -0.15603637695 0.24750518799 -0.0012168884277 -0.15603637695 0.24750518799 
-0.0012168884277 -0.15603637695 0.24750518799 -0.0012168884277 -0.15603637695 0.24750518799 -0.0012168884277 -0.15603637695 0.24750518799 
-0.0012168884277 -0.15603637695 0.24750518799 -0.0012168884277 -0.15603637695 0.24750518799 -0.0012168884277 -0.15603637695 0.24750518799 
-0.0012168884277 -0.15603637695 0.24750518799 -0.0012168884277 -0.15603637695 0.24750518799 -0.0012168884277 -0.15603637695 0.24750518799 
-0.0012168884277 -0.15603637695 0.24750518799 -0.0012168884277 -0.15603637695 0.24750518799 -0.0012168884277 -0.15603637695 0.24750518799 
-0.0012168884277 -0.15603637695 0.24750518799 -0.0012168884277 -0.15603637695 0.24750518799 -0.0012168884277 -0.15603637695 0.24750518799 
-0.0012168884277 -0.15603637695 0.24750518799 -0.0012168884277 -0.15603637695 0.24750518799 -0.0012168884277 -0.15603637695 0.24750518799 
-0.0012168884277 -0.15603637695 0.24750518799 -0.0012168884277 -0.15603637695 0.24750518799 -0.0012168884277 -0.15603637695 0.24750518799 
-0.0012168884277 -0.15603637695 0.24750518799 -0.0012168884277 -0.15603637695 0.24750518799 -0.0012168884277 -0.15603637695 0.24750518799 
-0.0012168884277 -0.15603637695 0.24750518799 -0.0012168884277 -0.15603637695 0.24750518799 -0.0012168884277 -0.15603637695 0.24750518799 
-0.0012168884277 -0.15603637695 0.24750518799 -0.0012168884277 -0.15603637695 0.24750518799 -0.0012168884277 -0.15603637695 0.24750518799 
-0.0012168884277 -0.15603637695 0.24750518799 -0.0012168884277 -0.15603637695 0.24750518799 -0.0012168884277 -0.15603637695 0.24750518799 
-0.0012168884277 -0.15603637695 0.24750518799 -0.0012168884277 -0.15603637695 0.24750518799 -0.0012168884277 -0.15603637695 0.24750518799 
-0.0012168884277 -0.15603637695 0.24750518799 -0.0012168884277 -0.15603637695 0.24750518799 -0.0012168884277 -0.15603637695 0.24750518799 
-0.0012168884277 -0.15603637695 0.24750518799 -0.0012168884277 -0.15603637695 0.24750518799 -0.0012168884277 -0.15603637695 0.24750518799 
-0.0012168884277 -0.15603637695 0.24750518799 -0.0012168884277 -0.15603637695 0.24750518799 -0.0012168884277 -0.15603637695 0.24750518799 
-0.0012168884277 -0.15603637695 0.24750518799 -0.0012168884277 -0.15603637695 0.24750518799 -0.0012168884277 -0.15603637695 0.24750518799 
-0.0012168884277 -0.15603637695 0.24750518799 -0.0012168884277 -0.15603637695 0.24750518799 -0.0012168884277 -0.15603637695 0.24750518799 
-0.0012168884277 -0.15603637695 0.24750518799 -0.0012168884277 -0.15603637695 0.24750518799 -0.0012168884277 -0.15603637695 0.24750518799 
-0.0012168884277 -0.15603637695 0.24750518799 -0.0012168884277 -0.15603637695 0.24750518799 -0.0012168884277 -0.15603637695 0.24750518799 
-0.0012168884277 -0.15603637695 0.24750518799 -0.0012168884277 -0.15603637695 0.24750518799 -0.0012168884277 -0.15603637695 0.24750518799 
-0.0012168884277 -0.15603637695 0.24750518799 -0.0012168884277 -0.15603637695 0.24750518799 -0.0012168884277 -0.15603637695 0.24750518799 
-0.0012168884277 -0.15603637695 0.24750518799 -0.0012168884277 -0.15603637695 0.24750518799 -0.0012168884277 -0.15603637695 0.24750518799 
-0.0012168884277 -0.15603637695 0.24750518799 -0.0012168884277 -0.15603637695 0.24750518799 -0.0012168884277 -0.15603637695 0.24750518799 
-0.0012168884277 -0.15603637695 0.24750518799 -0.0012168884277 -0.15603637695 0.24750518799 -0.0012168884277 -0.15603637695 0.24750518799 
-0.0012168884277 -0.15603637695 0.24750518799 -0.0012168884277 -0.15603637695 0.24750518799 -0.0012168884277 -0.15603637695 0.24750518799 
-0.0012168884277 -0.15603637695 0.24750518799 -0.0012168884277 -0.15603637695 0.24750518799 -0.0012168884277 -0.15603637695 0.24750518799 
-0.0012168884277 -0.15603637695 0.24750518799 -0.0012168884277 -0.15603637695 0.24750518799 -0.0012168884277 -0.15603637695 0.24750518799 
-0.0012168884277 -0.15603637695 0.24750518799 -0.0012168884277 -0.15603637695 0.24750518799 -0.0012168884277 -0.15603637695 0.24750518799 
-0.0012168884277 -0.15603637695 0.24750518799 -0.0012168884277 -0.15603637695 0.24750518799 -0.0012168884277 -0.15603637695 0.24750518799 
-0.0012168884277 -0.15603637695 0.24750518799 -0.0012168884277 -0.15603637695 0.24750518799 -0.0012168884277 -0.15603637695 0.24750518799 
-0.0012168884277 -0.15603637695 0.24750518799 -0.0012168884277 -0.15603637695 0.24750518799 -0.0012168884277 -0.15603637695 0.24750518799 
-0.0012168884277 -0.15603637695 0.24750518799 -0.0012168884277 -0.15603637695 0.24750518799 -0.0012168884277 -0.15603637695 0.24750518799 
-0.0012168884277 -0.15603637695 0.24750518799 -0.0012168884277 -0.15603637695 0.24750518799 -0.0012168884277 -0.15603637695 0.24750518799 
-0.0012168884277 -0.15603637695 0.24750518799 -0.0012168884277 -0.15603637695 0.24750518799 -0.0012168884277 -0.15603637695 0.24750518799 
-0.0012168884277 -0.15603637695 0.24750518799 -0.0012168884277 -0.15603637695 0.24750518799 -0.0012168884277 -0.15603637695 0.24750518799 
-0.0012168884277 -0.15603637695 0.24750518799 -0.0012168884277 -0.15603637695 0.24750518799 -0.0012168884277 -0.15603637695 0.24750518799 
-0.0012168884277 -0.15603637695 0.24750518799 -0.0012168884277 -0.15603637695 0.24750518799 -0.0012168884277 -0.15603637695 0.24750518799 
-0.0012168884277 -0.15603637695 0.24750518799 -0.0012168884277 -0.15603637695 0.24750518799 -0.0012168884277 -0.15603637695 0.24750518799 
-0.0012168884277 -0.15603637695 0.24750518799 -0.0012168884277 -0.15603637695 0.24750518799 -0.0012168884277 -0.15603637695 0.24750518799 
-0.0012168884277 -0.15603637695 0.24750518799 -0.0012168884277 -0.15603637695 0.24750518799 -0.0012168884277 -0.15603637695 0.24750518799 
-0.0012168884277 -0.15603637695 0.24750518799 -0.0012168884277 -0.15603637695 0.24750518799 -0.0012168884277 -0.15603637695 0.24750518799 
-0.0012168884277 -0.15603637695 0.24750518799 -0.0012168884277 -0.15603637695 0.24750518799 -0.0012168884277 -0.15603637695 0.24750518799 
-0.0012168884277 -0.15603637695 0.24750518799 -0.0012168884277 -0.15603637695 0.24750518799 -0.0012168884277 -0.15603637695 0.24750518799 
-0.0012168884277 -0.15603637695 0.24750518799 -0.0012168884277 -0.15603637695 0.24750518799 -0.0012168884277 -0.15603637695 0.24750518799 
-0.0012168884277 -0.15603637695 0.24750518799 -0.0012168884277 -0.15603637695 0.24750518799 -0.0012168884277 -0.15603637695 0.24750518799 
-0.0012168884277 -0.15603637695 0.24750518799 -0.0012168884277 -0.15603637695 0.24750518799 -0.0012168884277 -0.15603637695 0.24750518799 
-0.0012168884277 -0.15603637695 0.24750518799 -0.0012168884277 -0.15603637695 0.24750518799 -0.0012168884277 -0.15603637695 0.24750518799 
-0.0012168884277 -0.15603637695 0.24750518799 -0.0012168884277 -0.15603637695 0.24750518799 -0.0012168884277 -0.15603637695 0.24750518799 
-0.0012168884277 -0.15603637695 0.24750518799 -0.0012168884277 -0.15603637695 0.24750518799 -0.0012168884277 -0.15603637695 0.24750518799 
-0.0012168884277 -0.15603637695 0.24750518799 -0.0012168884277 -0.15603637695 0.24750518799 -0.0012168884277 -0.15603637695 0.24750518799 
-0.0012168884277 -0.15603637695 0.24750518799 -0.0012168884277 -0.15603637695 0.24750518799 -0.0012168884277 -0.15603637695 0.24750518799 
-0.0012168884277 -0.15603637695 0.24750518799 -0.0012168884277 -0.15603637695 0.24750518799 -0.0012168884277 -0.15603637695 0.24750518799 
-0.0012168884277 -0.15603637695 0.24750518799 -0.0012168884277 -0.15603637695 0.24750518799 -0.0012168884277 -0.15603637695 0.24750518799 
-0.0012168884277 -0.15603637695 0.24750518799 -0.0012168884277 -0.15603637695 0.24750518799 -0.0012168884277 -0.15603637695 0.24750518799 
-0.0012168884277 -0.15603637695 0.24750518799 -0.0012168884277 -0.15603637695 0.24750518799 -0.0012168884277 -0.15603637695 0.24750518799 
-0.0012168884277 -0.15603637695 0.24750518799 -0.0012168884277 -0.15603637695 0.24750518799 -0.0012168884277 -0.15603637695 0.24750518799 
-0.0012168884277 -0.15603637695 0.24750518799 -0.0012168884277 -0.15603637695 0.24750518799 -0.0012168884277 -0.15603637695 0.24750518799 
-0.0012168884277 -0.15603637695 0.24750518799 -0.0012168884277 -0.15603637695 0.24750518799 -0.0012168884277 -0.15603637695 0.24750518799 
-0.0012168884277 -0.15603637695 0.24750518799 -0.0012168884277 -0.15603637695 0.24750518799 -0.0012168884277 -0.15603637695 0.24750518799 
-0.0012168884277 -0.15603637695 0.24750518799 -0.0012168884277 -0.15603637695 0.24750518799 -0.0012168884277 -0.15603637695 0.24750518799 
-0.0012168884277 -0.15603637695 0.24750518799 -0.0012168884277 -0.15603637695 0.24750518799 -0.0012168884277 -0.15603637695 0.24750518799 
-0.0012168884277 -0.15603637695 0.24750518799 -0.0012168884277 -0.15603637695 0.24750518799 -0.0012168884277 -0.15603637695 0.24750518799 
-0.0012168884277 -0.15603637695 0.24750518799 -0.0012168884277 -0.15603637695 0.24750518799 -0.0012168884277 -0.15603637695 0.24750518799 
-0.0012168884277 -0.15603637695 0.24750518799 -0.0012168884277 -0.15603637695 0.24750518799 -0.0012168884277 -0.15603637695 0.24750518799 
-0.0012168884277 -0.15603637695 0.24750518799 -0.0012168884277 -0.15603637695 0.24750518799 -0.0012168884277 -0.15603637695 0.24750518799 
-0.0012168884277 -0.15603637695 0.24750518799 -0.0012168884277 -0.15603637695 0.24750518799 -0.0012168884277 -0.15603637695 0.24750518799 
-0.0012168884277 -0.15603637695 0.24750518799 -0.0012168884277 -0.15603637695 0.24750518799 -0.0012168884277 -0.15603637695 0.24750518799 
-0.0012168884277 -0.15603637695 0.24750518799 -0.0012168884277 -0.15603637695 0.24750518799 -0.0012168884277 -0.15603637695 0.24750518799 
-0.0012168884277 -0.15603637695 0.24750518799 -0.0012168884277 -0.15603637695 0.24750518799 -0.0012168884277 -0.15603637695 0.24750518799 
-0.0012168884277 -0.15603637695 0.24750518799 -0.0012168884277 -0.15603637695 0.24750518799 -0.0012168884277 -0.15603637695 0.24750518799 
-0.0012168884277 -0.15603637695 0.24750518799 -0.0012168884277 -0.15603637695 0.24750518799 -0.0012168884277 -0.15603637695 0.24750518799 
-0.0012168884277 -0.15603637695 0.24750518799 -0.0012168884277 -0.15603637695 0.24750518799 -0.0012168884277 -0.15603637695 0.24750518799 
-0.0012168884277 -0.15603637695 0.24750518799 -0.0012168884277 -0.15603637695 0.24750518799 -0.0012168884277 -0.15603637695 0.24750518799 
-0.0012168884277 -0.15603637695 0.24750518799 -0.0012168884277 -0.15603637695 0.24750518799 -0.0012168884277 -0.15603637695 0.24750518799 
-0.0012168884277 -0.15603637695 0.24750518799 -0.0012168884277 -0.15603637695 0.24750518799 -0.0012168884277 -0.15603637695 0.24750518799 
-0.0012168884277 -0.15603637695 0.24750518799 -0.0012168884277 -0.15603637695 0.24750518799 -0.0012168884277 -0.15603637695 0.24750518799 
-0.0012168884277 -0.15603637695 0.24750518799 -0.0012168884277 -0.15603637695 0.24750518799 -0.0012168884277 -0.15603637695 0.24750518799 
-0.0012168884277 -0.15603637695 0.24750518799 -0.0012168884277 -0.15603637695 0.24750518799 -0.0012168884277 -0.15603637695 0.24750518799 
-0.0012168884277 -0.15603637695 0.24750518799 -0.0012168884277 -0.15603637695 0.24750518799 -0.0012168884277 -0.15603637695 0.24750518799 
-0.0012168884277 -0.15603637695 0.24750518799 -0.0012168884277 -0.15603637695 0.24750518799 -0.0012168884277 -0.15603637695 0.24750518799 
-0.0012168884277 -0.15603637695 0.24750518799 -0.0012168884277 -0.15603637695 0.24750518799 -0.0012168884277 -0.15603637695 0.24750518799 
-0.0012168884277 -0.15603637695 0.24750518799 -0.0012168884277 -0.15603637695 0.24750518799 -0.0012168884277 -0.15603637695 0.24750518799 
-0.0012168884277 -0.15603637695 0.24750518799 -0.0012168884277 -0.15603637695 0.24750518799 -0.0012168884277 -0.15603637695 0.24750518799 
-0.0012168884277 -0.15603637695 0.24750518799 -0.0012168884277 -0.15603637695 0.24750518799 -0.0012168884277 -0.15603637695 0.24750518799 
-0.0012168884277 -0.15603637695 0.24750518799 -0.0012168884277 -0.15603637695 0.24750518799 -0.0012168884277 -0.15603637695 0.24750518799 
-0.0012168884277 -0.15603637695 0.24750518799 -0.0012168884277 -0.15603637695 0.24750518799 -0.0012168884277 -0.15603637695 0.24750518799 
-0.0012168884277 -0.15603637695 0.24750518799 -0.0012168884277 -0.15603637695 0.24750518799 -0.0012168884277 -0.15603637695 0.24750518799 
-0.0012168884277 -0.15603637695 0.24750518799 -0.0012168884277 -0.15603637695 0.24750518799 -0.0012168884277 -0.15603637695 0.24750518799 
-0.0012168884277 -0.15603637695 0.24750518799 -0.0012168884277 -0.15603637695 0.24750518799 -0.0012168884277 -0.15603637695 0.24750518799 
-0.0012168884277 -0.15603637695 0.24750518799 -0.0012168884277 -0.15603637695 0.24750518799 -0.0012168884277 -0.15603637695 0.24750518799 
-0.0012168884277 -0.15603637695 0.24750518799 -0.0012168884277 -0.15603637695 0.24750518799 -0.0012168884277 -0.15603637695 0.24750518799 
-0.0012168884277 -0.15603637695 0.24750518799 -0.0012168884277 -0.15603637695 0.24750518799 -0.0012168884277 -0.15603637695 0.24750518799 
-0.0012168884277 -0.15603637695 0.24750518799 -0.0012168884277 -0.15603637695 0.24750518799 -0.0012168884277 -0.15603637695 0.24750518799 
-0.0012168884277 -0.15603637695 0.24750518799 -0.0012168884277 -0.15603637695 0.24750518799 -0.0012168884277 -0.15603637695 0.24750518799 
-0.0012168884277 -0.15603637695 0.24750518799 -0.0012168884277 -0.15603637695 0.24750518799 -0.0012168884277 -0.15603637695 0.24750518799 
-0.0012168884277 -0.15603637695 0.24750518799 -0.0012168884277 -0.15603637695 0.24750518799 -0.0012168884277 -0.15603637695 0.24750518799 
-0.0012168884277 -0.15603637695 0.24750518799 -0.0012168884277 -0.15603637695 0.24750518799 -0.0012168884277 -0.15603637695 0.24750518799 
-0.0012168884277 -0.15603637695 0.24750518799 -0.0012168884277 -0.15603637695 0.24750518799 -0.0012168884277 -0.15603637695 0.24750518799 
-0.0012168884277 -0.15603637695 0.24750518799 -0.0012168884277 -0.15603637695 0.24750518799 -0.0012168884277 -0.15603637695 0.24750518799 
-0.0012168884277 -0.15603637695 0.24750518799 -0.0012168884277 -0.15603637695 0.24750518799 -0.0012168884277 -0.15603637695 0.24750518799 
-0.0012168884277 -0.15603637695 0.24750518799 -0.0012168884277 -0.15603637695 0.24750518799 -0.0012168884277 -0.15603637695 0.24750518799 
-0.0012168884277 -0.15603637695 0.24750518799 -0.0012168884277 -0.15603637695 0.24750518799 -0.0012168884277 -0.15603637695 0.24750518799 
-0.0012168884277 -0.15603637695 0.24750518799 -0.0012168884277 -0.15603637695 0.24750518799 -0.0012168884277 -0.15603637695 0.24750518799 
-0.0012168884277 -0.15603637695 0.24750518799 -0.0012168884277 -0.15603637695 0.24750518799 -0.0012168884277 -0.15603637695 0.24750518799 
-0.0012168884277 -0.15603637695 0.24750518799 -0.0012168884277 -0.15603637695 0.24750518799 -0.0012168884277 -0.15603637695 0.24750518799 
-0.0012168884277 -0.15603637695 0.24750518799 -0.0012168884277 -0.15603637695 0.24750518799 -0.0012168884277 -0.15603637695 0.24750518799 
-0.0012168884277 -0.15603637695 0.24750518799 -0.0012168884277 -0.15603637695 0.24750518799 -0.0012168884277 -0.15603637695 0.24750518799 
-0.0012168884277 -0.15603637695 0.24750518799 
Displacement_Total 3 1114 double
-0.073532104492 -0.16405487061 0.56466674805 -0.088608749834 -0.23675110693 0.53374070715 -0.078212992724 -0.32363730037 0.56271386755 
-0.066105334769 -0.26750075087 0.60038466139 -0.084459167442 -0.26908756646 0.52236645411 -0.081698947505 -0.37307775483 0.55475506 
-0.07258106559 -0.32024848425 0.558456501 -0.067933982035 -0.4367584861 0.57584415766 -0.043969746826 -0.38610552007 0.59657880491 
-0.036889553185 -0.51570294121 0.60086917223 -0.0013188965839 -0.43314568065 0.59292797658 0.010109548682 -0.5700963864 0.59949611212 
0.020356311415 -0.43152579557 0.56919261047 0.067720496013 -0.57939822451 0.56616181037 0.076178631455 -0.42099108519 0.48255621793 
0.1286887329 -0.55236306887 0.46877490216 0.1393361486 -0.42252246706 0.39226349734 0.17541751932 -0.54012969291 0.36841049848 
0.18836892456 -0.41403138008 0.32964086118 0.22656270659 -0.50413174065 0.28235696491 0.21824472514 -0.38635455438 0.30878289035 
0.27269519154 -0.47918449836 0.23846976129 0.26327896332 -0.36707858901 0.31346337831 0.29016858524 -0.45581301632 0.24732105072 
0.32865755101 -0.3556798662 0.36618963986 0.32899285252 -0.432166711 0.27058161447 0.37043900788 -0.31155107635 0.37686617404 
0.36835503222 -0.40894604302 0.27199676194 0.41992561126 -0.27847901862 0.36559463746 0.39928383663 -0.37253569233 0.26344324292 
0.45143355259 -0.24541940774 0.32796261925 0.43017031477 -0.33022099925 0.20964913339 0.48009856922 -0.22743820272 0.27878555044 
0.42694825809 -0.29811033096 0.16147460852 0.51256689926 -0.22284806006 0.22428207295 0.4313771766 -0.28091667567 0.12095341515 
0.50857706205 -0.2281014225 0.16170809404 0.43276091002 -0.28254237417 0.070901702406 0.50771510473 -0.24068071785 0.11088373346 
0.43322748991 -0.29753587499 0.034515135708 0.53337425226 -0.25344245002 0.081451876541 0.45862043158 -0.31460019521 0.021146851572 
0.54995365146 -0.23738995119 0.048939728602 0.45642776594 -0.33068260189 -0.010972460879 0.5650991233 -0.20145255716 0.0039257407277 
0.46620995921 -0.30842118323 -0.039884315661 0.57487246029 -0.15558879364 -0.041605062751 0.47324694066 -0.27006019328 -0.078010480017 
0.57318268111 -0.10838959796 -0.085223760739 0.46386462211 -0.22280662759 -0.12913889561 0.55251914735 -0.06992410036 -0.1281040203 
0.46162282508 -0.16175627514 -0.16765620779 0.5432528431 0.0020371760412 -0.10922843821 0.43217081414 -0.10697909367 -0.16839572708 
0.49404768517 0.047710676931 -0.063041313468 0.38827801747 -0.07500010245 -0.11625092172 0.4253367345 0.072526183034 0.019171709006 
0.31980729588 -0.048623515234 -0.025976361626 0.35191648839 0.079047543304 0.12100970079 0.24783775052 -0.05523949883 0.073700341702 
0.28234420871 0.066659485962 0.20923778434 0.16700756619 -0.038196021629 0.18377501137 0.20762975155 0.032716885397 0.30871128988 
0.091186839579 -0.061834003046 0.27464354574 0.15098559432 0.027293086873 0.38220313009 0.031716887468 -0.071294887677 0.36943442033 
0.10514248616 0.02119596769 0.45766708283 -0.01589147456 -0.076593596921 0.46464888339 0.06553914843 0.0055332123773 0.54075004208 
-0.050684060106 -0.073079313878 0.54177002971 0.028627019098 -0.0074809997752 0.61027579956 -0.07973565966 -0.077523009606 0.61908540799 
-0.013338529769 0.00079214366175 0.65530438658 -0.080379253638 -0.087116366353 0.6735808818 -0.027667831625 -0.0039136108457 0.70191460594 
-0.098933639286 -0.09597964171 0.71090243603 -0.057712090101 0.0031441323863 0.7234358503 -0.093748846105 -0.11475682862 0.7344656976 
-0.078625634801 -0.0028062439875 0.72069207944 -0.075681457354 -0.12845738893 0.74400809808 -0.075217018112 -0.034610357603 0.68658908222 
-0.072424831167 -0.15275094989 0.71885539963 -0.066656081396 -0.084939259807 0.62080397454 -0.078131411626 -0.20378223101 0.66738522485 
0.1236038208 -0.034477233887 -0.24098968506 0.076936812171 -0.0323381106 -0.23161297593 0.0747357337 -0.089281564317 -0.24773804636 
0.12395661262 -0.10371902725 -0.26878408881 0.036511998834 -0.029523266398 -0.21923024188 0.029966262293 -0.078112200006 -0.22521969829 
0.014234930741 -0.024743919251 -0.19810818269 -0.0063847500182 -0.071229198973 -0.20626713636 0.0056299574408 -0.029206025324 -0.19127066434 
-0.01773498256 -0.080846679116 -0.19334916717 0.0090570763326 -0.041801048762 -0.19700421979 -0.0079599950955 -0.10175731143 -0.18717865612 
0.026694876102 -0.072432952353 -0.22482109274 0.032501773542 -0.14365026736 -0.20240520041 0.04917709088 -0.10846997525 -0.25313206752 
0.063459848225 -0.19001307588 -0.22269928586 0.07821238303 -0.15163068057 -0.28033442514 0.078013214952 -0.24138635481 -0.24997768282 
0.13409537383 -0.18605929761 -0.30804294752 0.1300552208 -0.28756130712 -0.27299365109 0.19233692878 -0.21648707928 -0.33438188079 
0.17671447177 -0.32788746956 -0.29838724365 0.24783855699 -0.24280862213 -0.35848388014 0.21423310281 -0.36325384596 -0.32303595854 
0.29333979299 -0.27779759105 -0.39745160605 0.23863647054 -0.38598211946 -0.34828365409 0.314431771 -0.30694752743 -0.43263972238 
0.25145251932 -0.40339538776 -0.3788856082 0.31528993542 -0.33015800041 -0.46204428577 0.2316519593 -0.42653956846 -0.41083247256 
0.3457029128 -0.35632210596 -0.47646276314 0.2279858851 -0.44367113429 -0.42142323557 0.34589309286 -0.3792152311 -0.49746598735 
0.22939128116 -0.46740584111 -0.43979087303 0.3337388172 -0.40358502629 -0.52132743811 0.23733471702 -0.48380825442 -0.47012756564 
0.34631211111 -0.44499812126 -0.54066309757 0.23663337726 -0.51589843496 -0.50514543294 0.34558756751 -0.47674828575 -0.56106613006 
0.23387038036 -0.55886410074 -0.52584427879 0.33501776821 -0.50350249593 -0.57888607711 0.23179132214 -0.60676024458 -0.53429393904 
0.30559930923 -0.52866248578 -0.57930228029 0.22418805504 -0.62847963281 -0.52828970989 0.26697228506 -0.51921218065 -0.58966107769 
0.19414414996 -0.6284366377 -0.52649887076 0.21900828921 -0.48908569706 -0.60149458175 0.12221218339 -0.60947321432 -0.52838517979 
0.14465323824 -0.44745129771 -0.58947788343 0.030196100454 -0.55828899242 -0.524559073 0.082988311064 -0.39780994979 -0.56583716321 
0.0013918777141 -0.46483256156 -0.53017075849 0.030765434319 -0.34457376477 -0.53428517139 -0.033872280753 -0.41611567754 -0.50873498704 
0.027301549487 -0.32317173751 -0.47761151577 -0.032766571253 -0.39389623188 -0.45328152843 0.041784527415 -0.30271179096 -0.41543451798 
-0.020378622799 -0.36978495107 -0.39020511475 0.082234526232 -0.2836149255 -0.3452948248 0.023440833428 -0.36122441967 -0.30418833075 
0.12572404183 -0.28353360457 -0.29038967499 0.077611053118 -0.37104095078 -0.22067013086 0.16869171143 -0.29062741987 -0.23857048976 
0.13680480134 -0.38989301843 -0.1411744557 0.20274930726 -0.30673505239 -0.17745801131 0.18804952136 -0.4233663981 -0.076995934355 
0.2281130983 -0.3293632204 -0.1381543649 0.22117539931 -0.46539940797 -0.025763134697 0.24460010312 -0.3586491638 -0.12111856838 
0.24189410824 -0.47677118777 -0.0074167459756 0.26175843624 -0.36898000179 -0.11904656652 0.25129221198 -0.49779814573 0.0065529333624 
0.27483841798 -0.37479754044 -0.1154248276 0.25802273368 -0.51448673418 0.016933247229 0.26701097801 -0.37422493846 -0.091353308573 
0.25559776961 -0.5302475618 0.036393415675 0.26142052854 -0.37867121464 -0.085717931252 0.25285519737 -0.54078798242 0.039047482241 
0.2575525586 -0.38701464395 -0.094842640343 0.2464184777 -0.54397025558 0.032258619925 0.23195677871 -0.3564584416 -0.095338682589 
0.22417174575 -0.52682381581 0.028846082777 0.20527142417 -0.31800381756 -0.083651837816 0.19332543561 -0.49033866168 0.037376775765 
0.17686994913 -0.26710888645 -0.052776494161 0.14733745561 -0.42864027688 0.058214096067 0.16181373483 -0.20065714516 -0.024347834021 
0.13048815603 -0.34662166882 0.089295571639 0.15459457034 -0.12690415621 0.0018976954689 0.12762663344 -0.24975117021 0.11950688003 
0.19604741875 -0.030174988313 0.0054852989811 0.17065353584 -0.14346134877 0.11523089153 0.23227611009 0.054553503621 0.0080993379568 
0.20949711823 -0.045860258021 0.099195026148 0.2570971346 0.11307686596 0.0085874646134 0.23615099298 0.024493974551 0.083016515399 
0.26424969648 0.16542519074 -0.00039727705916 0.24376796898 0.073391390745 0.056481257919 0.25682440501 0.21267863013 -0.01719787053 
0.23991813217 0.10671943677 0.030712499685 0.23500111516 0.21672752639 -0.047036196862 0.22536946747 0.11170030991 -0.016247598159 
0.20933398477 0.20857300476 -0.080012532127 0.20815312139 0.11405451677 -0.067583249174 0.17945392964 0.17198334358 -0.10871497417 
0.18345229318 0.089845817558 -0.10087003735 0.15582517643 0.13294053546 -0.13307981157 0.16459721953 0.058356435371 -0.13022989992 
0.14978307044 0.086996344233 -0.1452417633 0.1600997849 0.013611528869 -0.16185756547 0.14120126069 0.053114353112 -0.16696730355 
0.15699798916 -0.021052264565 -0.1921588353 0.13003587117 0.031502949091 -0.19842165319 0.15649457176 -0.045099671265 -0.22279803388 
0.12555033766 0.00033002660776 -0.22132986482 0.14401541939 -0.076004932474 -0.24908809478 -0.080278985238 -0.48081249255 0.55191591489 
-0.071116237443 -0.44307128864 0.57009461604 -0.068937264815 -0.53804669084 0.56288180677 -0.0034719301452 -0.64634329822 0.6044252931 
0.066568731529 -0.69234322218 0.60714627362 0.13298823921 -0.71091023615 0.55947879035 0.20350006648 -0.70598675743 0.44411606438 
0.2519125206 -0.6635372723 0.33011174716 0.29843683284 -0.61207608386 0.23747553482 0.32394202063 -0.5614609304 0.17638794832 
0.33435156361 -0.52207094427 0.17485228737 0.33826902304 -0.50046767414 0.18752444417 0.36327344305 -0.4948367787 0.17784304861 
0.39091379445 -0.44153598095 0.15898674688 0.40159591998 -0.39939375346 0.10607374504 0.40080898405 -0.35135067716 0.054478764961 
0.38124354785 -0.33922959311 0.024579892985 0.36592959085 -0.33017535483 -0.0046302409255 0.36808259828 -0.36351175953 -0.021490658227 
0.37786735451 -0.39365986533 -0.024468577178 0.38645141634 -0.41335420683 -0.035111939676 0.39762800866 -0.40576486282 -0.060803106436 
0.39886737601 -0.37020221902 -0.099033399909 0.36429984044 -0.34204849266 -0.16971399872 0.34895979236 -0.25172694107 -0.20792375351 
0.31253080074 -0.22639511451 -0.21244518045 0.26505728886 -0.20382825886 -0.15941634728 0.19748210801 -0.18229026788 -0.067924061529 
0.12134626999 -0.16418254768 0.038773302548 0.039282055341 -0.15346844055 0.14670868517 -0.036839471877 -0.15877758329 0.25092441644 
-0.093967842878 -0.14857293979 0.355078411 -0.14021351224 -0.14580001707 0.45040654881 -0.17204327145 -0.1514794277 0.53568968485 
-0.17664862937 -0.16105162204 0.60182505112 -0.18006938427 -0.18050268847 0.65177812137 -0.18372546704 -0.20295308608 0.68340091483 
-0.13955714281 -0.23998478237 0.69443720363 -0.10045406252 -0.27383005969 0.69936697134 -0.078329743351 -0.30356327329 0.68668613219 
-0.06921497606 -0.33643471731 0.6553481243 -0.067975393331 -0.38962951635 0.61310693575 -0.0050830428775 -0.1814283125 -0.1800388753 
0.050421495226 -0.19945988069 -0.20694873077 -0.038797190835 -0.18159525409 -0.15051680117 -0.07085551556 -0.18992731592 -0.12757026852 
-0.08343440718 -0.20478689957 -0.1121298851 -0.036423350287 -0.25689501573 -0.11972913409 -0.001092542374 -0.30724881965 -0.12904456139 
0.02343349279 -0.36172582527 -0.15109153057 0.080981272853 -0.41130914917 -0.17780303881 0.11116048252 -0.45759588642 -0.2198744334 
0.12535663997 -0.48678579541 -0.25994780066 0.1324007692 -0.50628980577 -0.29071553937 0.1459552042 -0.51413157943 -0.33095779635 
0.12484308073 -0.50930620063 -0.35437986133 0.10514394827 -0.51676119212 -0.36934796919 0.085174926948 -0.53548233285 -0.3904595584 
0.10003847183 -0.56464728121 -0.43001929902 0.12037972937 -0.60542514224 -0.46522265994 0.11923021445 -0.65975328455 -0.48060105916 
0.12260059468 -0.72285227706 -0.47785652917 0.11767479342 -0.75073191104 -0.47627362826 0.094622120133 -0.76156351714 -0.47142567354 
0.040323125929 -0.73654371553 -0.45892600258 -0.029430037421 -0.70648746272 -0.44182806576 -0.093767287166 -0.49428823935 -0.47215622895 
-0.057966931633 -0.51677934188 -0.49493556368 -0.080564985612 -0.47154502751 -0.40907855295 -0.047984042626 -0.44870706164 -0.33793262131 
0.025348579585 -0.44913148737 -0.25607007885 0.087578461464 -0.44964687586 -0.15487066054 0.14690001698 -0.46271842027 -0.053714632743 
0.20465952656 -0.49700387536 0.0212734019 0.24007297642 -0.56904831578 0.096767720289 0.23265044175 -0.60441046273 0.095965282077 
0.25168850177 -0.63235255091 0.10071241475 0.2648466475 -0.6662077971 0.10300012244 0.28100912514 -0.69192839565 0.11169556363 
0.28959856361 -0.71167950692 0.10906643301 0.28506980112 -0.72902924094 0.10549623607 0.24864502345 -0.70860372284 0.10851127675 
0.21403857764 -0.66441869504 0.13080998998 0.17621974911 -0.58624984506 0.15998859823 0.14449284637 -0.48786076831 0.19032994668 
0.12186103866 -0.3818317539 0.21675399804 0.15767620827 -0.27277381952 0.21647623557 0.18454361414 -0.17423190175 0.20534409394 
0.22013136951 -0.092345222638 0.17786688124 0.23168887629 -0.033069046165 0.13779455812 0.22110934918 0.0076127923971 0.079513800365 
0.2060555989 0.0062073057396 0.025901971647 0.1911725084 -0.0076516080148 -0.027122088095 0.1756300122 -0.026086126331 -0.064023655923 
0.17277203823 -0.050585527001 -0.098210340244 0.18090075815 -0.098896129565 -0.12686101317 0.18749366732 -0.14238434548 -0.16338253387 
0.18969518129 -0.17905202799 -0.20217582977 0.15353395781 -0.20103893265 -0.21947250796 0.10815888881 -0.2106963149 -0.23101941909 
-0.072051224654 -0.59518294039 -0.46972975454 -0.083498648826 -0.71093084387 -0.41512265613 0.15893133201 -0.79579560186 0.56910031662 
0.099562447805 -0.76143580289 0.57378104289 0.23556061012 -0.81000963227 0.50736941908 0.32185677107 -0.79485669941 0.40311326026 
0.37191287523 -0.75005364807 0.26974435029 0.39522607085 -0.69345116035 0.17423467479 0.39593580192 -0.6279008111 0.1082043212 
0.38239131848 -0.5802996705 0.1013236863 0.36389203465 -0.5593019845 0.11406561381 0.3681338759 -0.55276584072 0.10832314269 
0.38169269766 -0.50783034609 0.082181698623 0.38066915501 -0.454984904 0.02620777965 0.37803269724 -0.40570451469 -0.018804947405 
0.35521467667 -0.37667629947 -0.04278823403 0.32917047784 -0.38884523323 -0.072985283727 0.32829328461 -0.40990637975 -0.059359122794 
0.32617483215 -0.44507861648 -0.057326824538 0.32543156395 -0.47431408945 -0.055434635816 0.33910410105 -0.48841563525 -0.063470850233 
0.3311625981 -0.46303736099 -0.085817751774 0.2923351877 -0.45223846492 -0.12829392885 0.17936837164 -0.33058135717 -0.22636933119 
0.20957805026 -0.35793625009 -0.2321056103 0.13531743335 -0.30774050133 -0.17341896018 0.072271431466 -0.28582318853 -0.094997814394 
-0.00065435642878 -0.2711455247 0.010005584975 -0.078664058632 -0.25586459844 0.11664728157 -0.14868927752 -0.22716516343 0.22852944752 
-0.20186245086 -0.21522512964 0.33284152928 -0.24844535041 -0.21890485344 0.42719789949 -0.27927711798 -0.22901967057 0.51360195444 
-0.2726853163 -0.23076702851 0.56470770922 -0.25955493418 -0.26310708924 0.59760625592 -0.23262583083 -0.29048107539 0.61297033301 
-0.19314220507 -0.35532014135 0.60171760072 -0.13126295788 -0.38612132942 0.62010636844 -0.11472611402 -0.38738675141 0.62947610888 
-0.098423852913 -0.41162850786 0.61250486969 -0.099052887259 -0.4564113076 0.57587711102 -0.087662267343 -0.51879809911 0.55164526268 
-0.076827056365 -0.56358511869 0.54029554391 0.22571858959 -0.40162098918 -0.20866052695 0.21624879472 -0.46799666755 -0.1714523947 
-0.088349533263 -0.58141028377 -0.4232237789 -0.09257185062 -0.70169177728 -0.37087795893 -0.066352349234 -0.5603960495 -0.35758294192 
-0.016908002766 -0.53079324026 -0.28405813257 0.059880035271 -0.5212752114 -0.17402127223 0.12970405688 -0.5124208945 -0.073966135291 
0.18578198775 -0.5159299609 0.012876180448 0.22349693412 -0.54653281893 0.084279346333 0.25386771152 -0.595854966 0.14586505747 
0.27965876624 -0.73267153386 0.14332100729 0.24561903897 -0.69676231838 0.13952202529 0.29606657405 -0.77740004508 0.14568724704 
0.31584487855 -0.8174373358 0.15073497221 0.3181638314 -0.84962373831 0.15942206442 0.31366579354 -0.86863334224 0.16493327231 
0.292124079 -0.84849572095 0.17760978032 0.25643236498 -0.79887862185 0.2010257582 0.2134459025 -0.71829082273 0.23181651267 
0.16579530479 -0.62526244228 0.26848051102 0.11981885488 -0.52109159273 0.30027685878 0.13479206005 -0.407457057 0.30315432752 
0.16329951806 -0.31053935386 0.29194196666 0.19404382686 -0.23349165838 0.26940009766 0.20301896856 -0.17237400669 0.2182579379 
0.19794700067 -0.13256164537 0.15868017482 0.18066810286 -0.13477861484 0.091162432507 0.16730821909 -0.14674633787 0.03039689684 
0.17333319635 -0.17166164904 -0.011271816407 0.17720633055 -0.19150744407 -0.043989847441 0.19401764991 -0.23945175415 -0.069898279669 
0.19272118351 -0.29082256262 -0.0876108313 0.18894520383 -0.33694196365 -0.10943771837 0.13327076418 -0.36915844201 -0.10330295813 
0.071478220276 -0.36856923748 -0.11080655136 -0.010484793632 -0.35174209147 -0.087947800748 -0.073708523028 -0.32296727914 -0.060198051678 
-0.13109811099 -0.30846744967 -0.025128129264 -0.15727058871 -0.31801937432 0.0079370925774 -0.16445462253 -0.33599759631 0.03301553558 
-0.14181854679 -0.37400808117 0.039393389204 -0.097565282443 -0.43082444502 0.026555355862 -0.058049667501 -0.4946782501 -0.0020004502438 
-0.029938339961 -0.55145750186 -0.062696624266 -0.0012067700468 -0.59416529488 -0.12133525884 0.023178020567 -0.61502947232 -0.18462503062 
0.025618460223 -0.61287477826 -0.23208497251 0.022977113184 -0.60392425182 -0.27167818067 0.0080178105402 -0.60176974168 -0.28510033804 
-0.011982268031 -0.58724063417 -0.29993104634 -0.05649222583 -0.59280155731 -0.30971150648 -0.023467747582 -0.61406099363 -0.38510417807 
0.0025086321727 -0.68141060186 -0.40392159662 0.020539145086 -0.75292036951 -0.41904805324 0.047240317861 -0.84344769651 -0.4234086362 
0.032761394815 -0.8783176262 -0.41591925661 0.011872501846 -0.89637508933 -0.41033073475 -0.018594890629 -0.85213967453 -0.39897703782 
-0.074685007675 -0.84917599047 -0.36870914877 -0.11273220886 -0.86279186633 -0.34593021196 -0.076035138865 -0.83815547111 -0.32160090093 
-0.021403642442 -0.66896015379 -0.28715948231 -0.0072749645103 -0.81885757801 -0.2673025571 0.23972301656 -0.66450722419 0.15199891481 
0.26607939447 -0.66613304653 0.18024706335 0.12525330908 -0.44620536717 -0.23737203909 0.12260957978 -0.46524009965 -0.19376831653 
0.11514095423 -0.41377411133 -0.24668147288 0.078513979443 -0.39970190362 -0.23540152437 0.04493192747 -0.38354478725 -0.19332431841 
-0.018372057952 -0.35464911639 -0.1076600596 -0.084812935953 -0.33484986348 -0.0093386756211 -0.15655520137 -0.31690782033 0.095922710857 
-0.23522833776 -0.28666025954 0.19212991847 -0.28207649245 -0.27629387735 0.29350853961 -0.33547319938 -0.28186357056 0.38997778751 
-0.35322427539 -0.27569518869 0.47755699471 -0.35670299352 -0.30013072746 0.52827653097 -0.33796995402 -0.33047793367 0.55558857345 
-0.30385719264 -0.35961102666 0.56019334954 -0.26954459509 -0.38944298135 0.54538386363 -0.14686633658 -0.42475322057 0.56234409328 
-0.16418394101 -0.43681398918 0.55640679402 -0.14226204194 -0.42301564812 0.5495470593 -0.14209487981 -0.48101502808 0.52279359392 
-0.13171873998 -0.55270773522 0.49657693631 -0.12345559211 -0.60462776736 0.48906520351 0.28387629466 -0.87807518186 0.49190268315 
0.19548850231 -0.83676913066 0.51777211169 0.3753184512 -0.89383649441 0.42513822988 0.45828938699 -0.88151555314 0.33067934976 
0.52041436949 -0.83411246937 0.19758716811 0.52438141164 -0.77088860997 0.098317864471 0.49602903073 -0.70190963826 0.042135848907 
0.4517447372 -0.64266347381 0.032573098656 0.39812577139 -0.6041337769 0.056910327004 0.38151288169 -0.59228707492 0.070642975292 
0.37040488178 -0.55842932769 0.047485342409 0.37437257439 -0.49087633299 -0.026133546605 0.37327741457 -0.44077754418 -0.078236421744 
0.3475821181 -0.40821080783 -0.08892802234 0.31481073989 -0.41213330692 -0.094820361584 0.29670963501 -0.45203753186 -0.07695468996 
0.29066294781 -0.5019126141 -0.064480055375 0.29093903973 -0.54290220144 -0.062902980408 0.28756796315 -0.55725107906 -0.07323179256 
0.27956288826 -0.5504263793 -0.089760931985 0.24772551378 -0.5487787294 -0.10462691937 0.17139896705 -0.53657666708 -0.13817192417 
0.097683105394 -0.53231165139 -0.15976739367 0.058434372216 -0.45651961314 -0.20241581552 0.036849231884 -0.51945508975 -0.16110306028 
0.055191032219 -0.43675873195 -0.23260841738 0.056372843776 -0.7359346444 0.53048316023 0.14533571811 -0.79093380413 0.48517155366 
0.03345466301 -0.71934757015 0.48977026796 0.090513679864 -0.7557784751 0.47563395677 -0.20283651115 -0.42579725821 0.54166072335 
-0.25079333978 -0.45542092631 0.52011701455 0.053155822738 -0.61003405915 -0.19527592897 0.14151035045 -0.57738750389 -0.093848285583 
0.20709292672 -0.55473507811 -0.0071829469243 0.24071461575 -0.55471553098 0.065417732019 0.26653350987 -0.58284230643 0.12512503469 
0.28079863611 -0.6334061875 0.16019232004 0.30807798553 -0.69642567396 0.19579457578 0.27823295353 -0.74123118381 0.19894449707 
0.31316654636 -0.75813841763 0.20990499711 0.24758721744 -0.73141942756 0.18646102991 0.24434118726 -0.75167324126 0.17283170619 
0.25510504844 -0.79975984288 0.1644565274 0.27800998324 -0.8461779679 0.17894543426 0.30386048022 -0.89293845223 0.19121351874 
0.32403849985 -0.9222015793 0.20161552622 0.32716011804 -0.94399563168 0.21145577604 0.30514962821 -0.92417079997 0.22021095013 
0.28136508313 -0.88872329521 0.25427941308 0.23955383556 -0.82399955567 0.2948154532 0.19907791932 -0.7433220123 0.33453104534 
0.16569951163 -0.64300578623 0.3615249936 0.14461713616 -0.53577701337 0.36670674945 0.14367690509 -0.45024931827 0.36001585252 
0.16282019457 -0.37393182265 0.33870822195 0.1657654498 -0.33002998677 0.29911653477 0.15725938064 -0.30083005167 0.24329404428 
0.14373754874 -0.30324776153 0.16999427323 0.13566113014 -0.30525932373 0.10747165077 0.14554261841 -0.31970464445 0.059630020701 
0.15975340882 -0.34925091442 0.022847082079 0.17924323108 -0.40412631704 0.0052653616726 0.18154028337 -0.45930755997 0.010459526302 
0.17514288091 -0.51832012634 0.037866238002 0.072399639349 -0.61189692228 0.10502331174 -0.0093706211331 -0.55317995369 0.083671783816 
-0.082515826244 -0.50833857115 0.080674153896 -0.1467080828 -0.47797924987 0.10118395484 -0.20295852325 -0.45224972576 0.1359551074 
-0.23471584431 -0.45103287695 0.17076856791 -0.25636821298 -0.45798271093 0.2041383607 -0.23125579346 -0.50820290818 0.20774402315 
-0.20067058149 -0.56391064738 0.18818704609 -0.15883841688 -0.62567135219 0.14686309741 -0.13153926377 -0.67737796973 0.061946153534 
-0.11153296119 -0.70742624205 -0.024308664304 -0.098220505189 -0.71795637171 -0.096316248156 -0.099794048125 -0.70823134315 -0.1506092568 
-0.10078167807 -0.69494667043 -0.19796682291 -0.10226523387 -0.64595700487 -0.21373073377 -0.11510103974 -0.62455539548 -0.22615185229 
-0.15931904033 -0.6218786597 -0.21620853272 -0.056275199106 -0.75199940208 -0.33628343114 -0.091348762838 -0.67969536559 -0.31090480346 
-0.039245228158 -0.83610206906 -0.34415339166 -0.037658027442 -0.93365793875 -0.33494106131 -0.052213618239 -0.98721856434 -0.34341945997 
-0.066520357432 -0.99895694022 -0.35589771362 -0.070993576558 -0.94667416139 -0.3611118138 -0.10342307859 -0.97640546279 -0.33222886848 
-0.12370624158 -0.98858952141 -0.30274565847 -0.10820098115 -0.97116883742 -0.27387764894 -0.032419067873 -0.93246401898 -0.23747023357 
0.099994203963 -0.79310773448 -0.20111610009 0.072574035496 -0.87855736689 -0.19447544553 0.13039441541 -0.71575638057 -0.17253065245 
0.18704314628 -0.64922032047 -0.1053183749 0.25695984939 -0.62650227328 -0.013332129525 0.30558284819 -0.61369150748 0.06550956056 
0.32110173914 -0.61094373109 0.1179364641 0.325491529 -0.62768525386 0.15516192107 -0.12674835123 -1.0513933543 -0.23393722727 
-0.17777741391 -1.0838296267 -0.25373630105 -0.065039890169 -1.0018483426 -0.21686699914 0.035231213482 -0.93862009125 -0.18831076024 
0.17095838259 -0.8190931749 -0.15375775931 0.15463027965 -0.86116588521 -0.16470876156 0.20075964034 -0.75467759093 -0.1379967832 
0.23464478318 -0.70325564203 -0.10820361205 0.28416284056 -0.66894344557 -0.039282436522 0.34009490411 -0.65463422586 0.047023912816 
0.37633215377 -0.6672045394 0.10717567125 0.39720414465 -0.67793163171 0.1535650207 0.37178542575 -0.69399278565 0.17141761042 
-0.1467646418 -0.64216151688 -0.24525355324 -0.2096595336 -0.6166906858 -0.18337142318 0.047087178862 -0.42762766709 -0.25261274366 
0.017154459863 -0.41425024422 -0.2287636811 -0.016295486549 -0.40683495937 -0.18907718358 -0.064997352564 -0.40193033358 -0.11573953878 
-0.12587428159 -0.37270003617 -0.031743397728 -0.19490208701 -0.35186314074 0.066389514431 -0.26206797923 -0.33140013635 0.15602249551 
-0.31955117059 -0.32656708074 0.25469340743 -0.36418326771 -0.32682698403 0.34971377098 -0.37150165563 -0.33859498768 0.4236802904 
-0.38613274478 -0.36810902635 0.4854517785 -0.37239643747 -0.38754809158 0.50683309163 -0.35028575674 -0.42096139813 0.52479117129 
-0.31440227484 -0.4578266086 0.51458310186 -0.29251105337 -0.48545481098 0.49344396587 -0.25764966866 -0.50179943246 0.48040440582 
-0.28946440723 -0.52368860864 0.45705883535 -0.22413152557 -0.47083196395 0.49902659813 -0.19924295168 -0.45936640282 0.50190880817 
-0.18662039802 -0.47220930115 0.4875770072 -0.18393394506 -0.46985166879 0.47002414238 -0.18914898021 -0.52619473662 0.44465301145 
-0.17577384058 -0.57809555068 0.44060845347 -0.15541022584 -0.62632146051 0.44248390255 -0.081290402165 -0.64007246597 0.4926067581 
-0.11642950292 -0.63943468058 0.45005417325 -0.021030874014 -0.68184563303 0.49364748584 -0.05986036908 -0.66870772688 0.45583960532 
0.012382285239 -0.7070512361 0.45051894868 0.092044617635 -0.74797416493 0.44020270658 0.1798147273 -0.80766968737 0.43423707498 
0.2749960223 -0.87005105219 0.42815718692 0.38597821517 -0.92032398332 0.39766191948 0.49615107309 -0.93796073039 0.32865021896 
0.59373324323 -0.93275249673 0.24200761104 0.62908879992 -0.90076668879 0.1356398337 0.62120049448 -0.83378646707 0.05038074166 
0.57454774528 -0.76336535256 0.0017567044376 0.5025959582 -0.69944935194 -0.001201193936 0.41517557386 -0.63703877469 0.043146205514 
0.3704542576 -0.62138825293 0.087568501002 0.3313555004 -0.61192230815 0.12356771023 0.36938044767 -0.47880284055 -0.067539780851 
0.37405707198 -0.51883083288 -0.01337564499 0.33403180604 -0.46026216581 -0.10515089464 0.31006119334 -0.45887624759 -0.1104096777 
0.2798048079 -0.49583549643 -0.10382351856 0.26069882266 -0.55165140363 -0.092458074847 0.25022067624 -0.60612872635 -0.08681242595 
0.23652582566 -0.63662036281 -0.092082341502 0.21003062612 -0.64790386359 -0.097909363857 0.16201763663 -0.65530484689 -0.10252369709 
0.10818421152 -0.64398573656 -0.12121315719 0.045098708065 -0.61939894779 -0.12310373574 -0.013616214595 -0.5962401112 -0.12432343922 
-0.0065858626974 -0.49656042882 -0.15919906722 -0.046855840767 -0.56789350315 -0.1340972393 -0.004010754404 -0.46522039763 -0.18963040435 
-0.0086454242861 -0.43353649759 -0.22698897443 0.36174506235 -0.57163273315 0.057687326414 0.31705117095 -0.6390528791 0.16223202017 
0.37809837902 -0.77660938251 0.20078465899 0.33786373298 -0.70446596289 0.18883868936 0.32063385667 -0.81673448752 0.22912632992 
0.38646200132 -0.82655873676 0.2153365557 0.28049046555 -0.80879420043 0.21910647922 0.26278218128 -0.80274300293 0.20544989226 
0.25147762524 -0.81487492199 0.20200575975 0.24022649126 -0.83214589123 0.21296665734 0.25811798825 -0.87009437985 0.24054638807 
0.27502148986 -0.90117603195 0.27466535099 0.29754900702 -0.93767853033 0.27402077978 0.30561552889 -0.96570788466 0.27045515776 
0.29627922606 -0.95204858816 0.26865168911 0.28085175651 -0.92285675431 0.29600282318 0.2567160811 -0.88389596545 0.34236117525 
0.22689937263 -0.83726589539 0.3829123199 0.18217032423 -0.74933502258 0.40171468112 0.13260878564 -0.65931209093 0.40792630901 
0.12837875126 -0.58532299982 0.39386278564 0.13072737476 -0.51978862322 0.38391068054 0.12838339501 -0.48434770942 0.35630205148 
0.11264022258 -0.46701646999 0.31278354139 0.098470230584 -0.46993086808 0.24435869119 0.089009373659 -0.46803147794 0.18654799218 
0.10003989464 -0.4765978776 0.14265403434 0.12083667652 -0.49735951285 0.10484890344 0.15597058421 -0.53556451937 0.086083500789 
0.17501775371 -0.59091857236 0.096219990754 0.16804169479 -0.65943557643 0.12720310075 0.086359716867 -0.72679739636 0.19293291547 
-0.16112571607 -0.6336911867 0.24150292147 -0.097774646862 -0.68083874472 0.23923170375 -0.21844677086 -0.60536335138 0.25957974538 
-0.27795841632 -0.58214757361 0.28576667817 -0.30624244508 -0.57942893232 0.31950854243 -0.32069618595 -0.59220417907 0.34795163183 
-0.29597543641 -0.6423140632 0.34771601778 -0.27519093983 -0.69046532584 0.3235162372 -0.24571037671 -0.74007861161 0.28026547546 
-0.22787745704 -0.79005336833 0.18902154256 -0.21264724994 -0.81325846155 0.081349127383 -0.20592529878 -0.80356517935 -0.019098328928 
-0.20408927559 -0.78148246568 -0.091119660882 -0.19929837888 -0.75106358072 -0.15048724568 -0.20152484492 -0.69856302578 -0.16585066502 
-0.20669361019 -0.65680644286 -0.17562326656 -0.21069932289 -0.6447227176 -0.18084153842 -0.23724484682 -0.63482896512 -0.15062570509 
-0.22957093737 -0.61907338777 -0.14597995582 -0.26879054591 -0.61969951232 -0.12131138208 -0.17336717693 -0.66072825481 -0.20294767865 
-0.13081111228 -0.70086904388 -0.24716882913 -0.1042756089 -0.76944470573 -0.2610384071 -0.088537621462 -0.85134226984 -0.25728079921 
-0.10195979753 -0.95952943668 -0.24843166561 -0.1260953992 -1.0348690182 -0.26487248911 -0.12917809343 -1.0611976533 -0.30325578191 
-0.046343045634 -0.74739658408 0.25529705544 -0.0027999756841 -0.79938253066 0.27035666815 0.41710595616 -0.7635665018 0.1826236138 
0.44133146722 -0.81974650437 0.19934863042 0.35153417328 -0.86862543462 0.26041970761 0.40953369361 -0.85681481641 0.24085739892 
0.30412915683 -0.86533097293 0.25370335051 0.27340991308 -0.84360804565 0.25379006555 0.24921320534 -0.82504408975 0.24935232471 
0.23172601956 -0.83552777307 0.26812604478 0.21868713919 -0.85375568034 0.29775341892 0.2358601128 -0.88200157088 0.33931401622 
0.25430696212 -0.90896181823 0.37593465231 0.2718318522 -0.92064920285 0.35711169835 0.28793693752 -0.9300399976 0.33399767584 
0.29287117939 -0.9313735233 0.30526654343 0.29927260149 -0.92520026618 0.30706946199 0.30617107566 -0.91369088641 0.34180886367 
0.28066779913 -0.90127392702 0.37559888386 0.20982239759 -0.82816005288 0.41187274888 0.15374673586 -0.77142728906 0.41684595062 
0.12798613408 -0.71543028503 0.42859783855 0.10760794234 -0.65281263942 0.43666587229 0.073332578422 -0.62220219873 0.41308634715 
0.049776129509 -0.59868133534 0.37719471295 0.032688319768 -0.6005010974 0.33416347105 0.023714974823 -0.60061646287 0.27946287982 
0.034571624532 -0.60396342808 0.21474436899 0.062508318538 -0.61380411164 0.17155084698 0.11524115063 -0.63052806762 0.15235466387 
0.14779323603 -0.67503364131 0.15263072463 0.15879807608 -0.73469629903 0.17355305262 0.10435132612 -0.78475789271 0.21826366795 
0.0094741325233 -0.80901981673 0.26134706733 -0.094341797954 -0.81355447836 0.30278851199 -0.069833201894 -0.82023851533 0.29440831558 
-0.13310360546 -0.78457768845 0.31498802648 -0.17918711962 -0.7585185792 0.330534183 -0.23163306178 -0.72881156245 0.3454435106 
-0.2720236433 -0.70427548323 0.36553477374 -0.32298940727 -0.68231454819 0.3908125933 -0.34667512541 -0.68414803138 0.41989780846 
-0.36526105337 -0.69513809779 0.44887641378 -0.35418609579 -0.73739927138 0.44588575505 -0.33402183629 -0.77850688941 0.41568028018 
-0.30225261271 -0.82071717434 0.34853231881 -0.29966932713 -0.8561761766 0.25119258913 -0.27711364033 -0.85388589909 0.12711151077 
-0.26461367089 -0.83452321462 0.029380426466 -0.26016342927 -0.79697962124 -0.050762469595 -0.25380162768 -0.75695384432 -0.12282696548 
-0.2635479874 -0.71004198199 -0.12130718994 -0.26179697506 -0.66445190654 -0.12939447366 -0.280386249 -0.64180972469 -0.11635732467 
-0.29037442148 -0.59104914816 -0.11053822182 -0.28261940825 -0.61015240282 -0.119805002 -0.24370464188 -0.61490677419 -0.12596409429 
-0.18393201461 -0.64359245243 -0.15604418828 -0.14895857224 -0.69768893944 -0.19518513854 -0.1352722708 -0.73280898107 -0.17964391768 
-0.12175245655 -0.80565568866 -0.16925233725 -0.13860007813 -0.93019922303 -0.16355925506 -0.18600424422 -1.0483515454 -0.19806071311 
-0.022083661295 -0.42594628915 -0.24457732465 -0.043797046358 -0.43860862664 -0.23644968189 -0.065046816463 -0.44105273631 -0.19263099562 
-0.095465026005 -0.4295491105 -0.12867217392 -0.14843212793 -0.40617694146 -0.048681737694 -0.20410849158 -0.38336453812 0.031431136889 
-0.26367357161 -0.37351089584 0.12233283661 -0.3146533805 -0.37841358105 0.21784277235 -0.35827242001 -0.39606576753 0.30863641507 
-0.38604883288 -0.42085453304 0.37271655708 -0.39702527595 -0.45315809905 0.43281107803 -0.39218121594 -0.4799382793 0.48081915857 
-0.37202229566 -0.48696954675 0.48757994896 -0.34446288166 -0.49821254631 0.48395165949 -0.31953744637 -0.50855428312 0.47367495572 
-0.31797895344 -0.55524440188 0.44940481522 -0.28682756685 -0.57996162397 0.406951314 -0.30918901561 -0.63072497119 0.4315425725 
-0.25362061672 -0.54271273473 0.4313590684 -0.23883461395 -0.52562170196 0.45112479452 -0.22071234498 -0.50779741962 0.45090226869 
-0.22230420505 -0.50719495156 0.42515773153 -0.22372345979 -0.52509465069 0.40158484969 -0.22905215204 -0.56329945706 0.38048309985 
-0.22768229146 -0.59702634417 0.3792714973 -0.22376895659 -0.62360718808 0.39285746276 -0.16945807187 -0.63320517595 0.41193346474 
-0.099495654017 -0.65799862736 0.42078552515 -0.019543314543 -0.69690928845 0.41438374763 0.07642501894 -0.74635752857 0.40252697963 
0.18440631612 -0.80788485735 0.3827977553 0.30199196583 -0.87023782162 0.36391104567 0.43640121848 -0.91780864078 0.33388725864 
0.5441828122 -0.94186832101 0.26964340011 0.6509473075 -0.93790577314 0.19832189821 0.70583655601 -0.91092494997 0.11447311359 
0.67737017742 -0.86432603037 0.059682758153 0.60975321342 -0.79746819526 0.023316760546 0.52746114753 -0.71821795928 0.017184631756 
0.42497857858 -0.66725192081 0.072619953571 0.34468601429 -0.65708222804 0.14774574207 0.28203116846 -0.66554023011 0.22901759976 
0.26493690181 -0.70477109747 0.27536735548 0.33694095213 -0.65901551195 0.18234853141 0.29334334275 -0.72847097854 0.28706702072 
0.37594698732 -0.59681370608 0.082086230901 0.39321035998 -0.54411104803 0.010888352695 0.38129314147 -0.5164667391 -0.043056549117 
0.35463118487 -0.50140729352 -0.092414927941 0.31909265327 -0.51637090406 -0.11841204894 0.28734248739 -0.56319693128 -0.12275119013 
0.25489818863 -0.6214092467 -0.12417745294 0.23116296494 -0.6914161628 -0.11839454602 0.19994190777 -0.71310412551 -0.1111460653 
0.16978851049 -0.72144714102 -0.10767325005 0.11404611354 -0.73287411884 -0.10684847682 0.049260472775 -0.74556979166 -0.10769571712 
-0.013687789136 -0.72675044477 -0.11675931366 -0.06074883551 -0.70990769971 -0.10713411513 -0.089548545667 -0.65950050101 -0.096670538515 
-0.07241048662 -0.51280501228 -0.12539385421 -0.106688748 -0.58761890959 -0.090128021739 -0.04080527734 -0.4787203274 -0.16239231791 
-0.054242461254 -0.45569592751 -0.18576713433 -0.074921550677 -0.42059261041 -0.22651241854 0.24805255807 -0.865370555 0.28903937586 
0.2066615564 -0.87393633669 0.37248749805 0.2158029944 -0.88332196019 0.41969229972 0.22263504624 -0.88743948613 0.46156395825 
0.24740471662 -0.88879354891 0.43168564794 0.27167479191 -0.89305584356 0.39894229586 0.29389510248 -0.88653604799 0.35427718255 
0.31530174196 -0.87900892423 0.32296591204 0.35379484109 -0.88461987377 0.33135699137 0.40671471136 -0.8924525825 0.32763080696 
0.17594588283 -0.8208080162 0.41070051549 0.2503665583 -0.85642360566 0.39239083492 0.14948572528 -0.78466539819 0.42624399797 
0.10036066305 -0.75210872894 0.43300086576 0.063797476797 -0.71778687559 0.44316500109 0.026619042826 -0.6902795518 0.4416449964 
-0.008144282954 -0.69462930137 0.39752743919 -0.030042239199 -0.69608029987 0.34515168264 -0.02538207205 -0.69557050911 0.27671268972 
0.00064578483185 -0.69876998667 0.22104938576 0.063046556759 -0.70861216513 0.19873485657 0.10570846072 -0.73161607381 0.19045606692 
0.10725405052 -0.76506136525 0.20550103799 0.086174826959 -0.79129263834 0.22488496617 0.0033887740103 -0.79881513534 0.25730076128 
-0.0932942098 -0.7860892597 0.28540261912 -0.15101457056 -0.77728889116 0.31094176195 -0.15579695394 -0.73352855698 0.2955998481 
-0.15319642283 -0.80959613691 0.32487962365 -0.17474849348 -0.79867118275 0.33678903162 -0.20825975369 -0.79236852396 0.36543888139 
-0.25230537826 -0.77760547673 0.38830571638 -0.30506562326 -0.75986615794 0.41304305095 -0.35195680471 -0.73919766516 0.43432449553 
-0.36696455073 -0.74805536058 0.45909721594 -0.38122442835 -0.75164866711 0.48203827899 -0.37380359337 -0.78334512503 0.46046371447 
-0.36137002463 -0.81172074583 0.4348293 -0.33860231687 -0.84433965799 0.37765575084 -0.33093801397 -0.85875127284 0.31045922957 
-0.31146561776 -0.81165012896 0.037412077995 -0.30397720596 -0.84040496636 0.12131204378 -0.30434859256 -0.77120928357 -0.032488790403 
-0.29969439805 -0.72720277603 -0.10010020189 -0.29167110705 -0.67890189111 -0.10803113651 0.33014482759 -0.9048480657 0.37605387502 
0.4436488712 -0.90418658064 0.31646776445 -0.28188302429 -0.6445420667 -0.13026654501 -0.26072813599 -0.56953631304 -0.14086228682 
-0.24914264645 -0.60245118897 -0.1556122677 -0.26073969153 -0.55083289903 -0.1218152366 -0.22425038902 -0.57209141822 -0.11731802167 
-0.17736496526 -0.6696373495 -0.13205184071 -0.094393211261 -0.43286281436 -0.23624160387 -0.10571119273 -0.44792685663 -0.23351696126 
-0.11812989686 -0.4526718448 -0.18595459851 -0.12981299457 -0.45621992019 -0.13961392719 -0.16157153486 -0.44277554306 -0.073760752641 
-0.20218017268 -0.43195158212 -0.0024117768712 -0.24887259607 -0.43159543759 0.082954624152 -0.29482341241 -0.4460721202 0.16978049729 
-0.33965585865 -0.48273067613 0.25273144865 -0.37194372134 -0.53083322403 0.31932928492 -0.39436712467 -0.57782434582 0.38707128368 
-0.39667950321 -0.58993425328 0.44046613104 -0.38059323038 -0.57664096242 0.4556563278 -0.35157672783 -0.57578653417 0.46168921056 
-0.35887236979 -0.6875637747 0.43616839182 -0.3066905139 -0.68943569756 0.38360386514 -0.34237423696 -0.72864233798 0.41506089523 
-0.28393139496 -0.64804929058 0.36967698203 -0.25380299365 -0.59852443703 0.37638459401 -0.24071617754 -0.57236829533 0.40173289574 
-0.23254818005 -0.5653492611 0.41025825993 -0.23571453392 -0.56493537365 0.37730423418 -0.24055511328 -0.56898176385 0.34862808767 
-0.24751126531 -0.60229806859 0.33150074144 -0.26206106846 -0.6270803613 0.33134095396 -0.27401325313 -0.66779378388 0.34771400506 
-0.2056693979 -0.668667552 0.3875941562 -0.12985829119 -0.68187010011 0.40783548158 -0.039340959541 -0.70119381049 0.40616064667 
0.06304280882 -0.74071630059 0.39502769037 0.1730849654 -0.79707747763 0.37368381213 0.28659619818 -0.85409356586 0.3464464881 
0.40400795592 -0.9113678073 0.31090040825 0.53645094867 -0.9342960673 0.27342212683 0.64889735252 -0.93175320714 0.22832044451 
0.68737434683 -0.90035855089 0.15168333273 0.67372187455 -0.84575037071 0.089516852505 0.61527513117 -0.78620069965 0.060701748917 
0.51104162449 -0.72395613301 0.079780055373 0.40173147721 -0.6818240874 0.14669582758 0.30212603006 -0.6767009465 0.2343080537 
0.23805448513 -0.71733355624 0.32087602441 0.22446898517 -0.76138837893 0.3647727613 0.26159624236 -0.79865773665 0.36153795673 
0.34890325762 -0.75253655205 0.2658044589 0.30778893245 -0.82882273929 0.3315669922 0.38410316136 -0.67861190357 0.18279891938 
0.38946228905 -0.61486998721 0.10984234549 0.40118807149 -0.56794831812 0.041856249505 0.38209827149 -0.54704038228 -0.022089796284 
0.35109709962 -0.54067182255 -0.081237439481 0.31295785792 -0.56272016233 -0.12080090857 0.28598683172 -0.60319427911 -0.12353756148 
0.25625415847 -0.66558229686 -0.13684243737 0.20661424802 -0.75915239406 -0.14298567456 0.16150027378 -0.77037487243 -0.12965582278 
0.13459055703 -0.7684065177 -0.12103329021 0.090980147421 -0.79951365927 -0.12146093381 0.010151541559 -0.83171744246 -0.12444437687 
-0.065380131892 -0.85104799544 -0.12364432954 -0.11829793139 -0.83141726488 -0.11435650641 -0.14329363291 -0.78785759472 -0.087789218746 
-0.14142103972 -0.69910558291 -0.075147773355 -0.142682186 -0.53440697758 -0.10816511741 -0.16035153868 -0.62045536162 -0.081074725921 
-0.10792726737 -0.47821886911 -0.15164784349 -0.18467451082 -1.0594192931 -0.18679950473 -0.093098064165 -1.0106752305 -0.17830802457 
0.01493906565 -0.96508563303 -0.16699424856 0.12258233114 -0.86163164648 -0.15034634189 0.22634171669 -0.76968902705 -0.13685857128 
0.25241931837 -0.74099480093 -0.13065010743 0.27390581071 -0.69744175797 -0.10248827695 0.3029981469 -0.67096306666 -0.072922143614 
0.35591970054 -0.66129627118 -0.010041398694 0.42042614786 -0.66202692002 0.062495941818 0.45343923684 -0.70408209934 0.11829368982 
0.4507492672 -0.73515932981 0.15953431599 0.46461610975 -0.78593349507 0.17720350706 0.44691523784 -0.82065854462 0.20901628522 
0.34395036195 -0.89269714048 0.30691621904 0.38204544263 -0.83111627851 0.27415462737 0.30318023839 -0.89816490602 0.33303886436 
0.26411611943 -0.8879196716 0.3232582041 -0.16435736552 -0.49419967704 -0.2101293418 -0.15783858675 -0.46950873718 -0.20188734889 
-0.15737453394 -0.50190905571 -0.19484331675 -0.1628798972 -0.4934523895 -0.15060012541 -0.17395050127 -0.49113906677 -0.092273850139 
-0.19590485646 -0.50174728537 -0.033587767247 -0.23633038918 -0.51020738679 0.042842080921 -0.27774931817 -0.52992328498 0.12363888732 
-0.32087281076 -0.58078549196 0.20092423936 -0.35469888142 -0.64848534192 0.27674940228 -0.36445303184 -0.72370781815 0.34615886939 
-0.38513128075 -0.70647804913 0.42460247326 -0.38010797206 -0.69436936305 0.44876348497 -0.3223670586 -0.75780664703 0.40590185817 
-0.36028099009 -0.74716786243 0.43682752326 -0.36837731823 -0.74554896513 0.4479779912 -0.27813739555 -0.74342056493 0.36103881903 
-0.25865050286 -0.68748132071 0.34590020846 -0.25131586085 -0.65231143709 0.34964426175 -0.24225258435 -0.6251963865 0.36163188856 
-0.23426758182 -0.61248313597 0.37162546638 -0.23274350325 -0.61917425287 0.33516139389 -0.24359899872 -0.60481900931 0.31479312325 
-0.25989324963 -0.6240928002 0.3037830886 -0.27133455247 -0.6495759776 0.2962624406 -0.26819595685 -0.67543024961 0.31195612121 
-0.11848764346 -0.70293868795 0.4157858583 -0.17843384707 -0.69471093805 0.38488234172 -0.052861431403 -0.71113558523 0.4186120073 
0.035647884702 -0.74358487963 0.40427464083 0.14258939674 -0.79878868046 0.37799445689 0.25009523717 -0.84861568833 0.34657448534 
0.36038465829 -0.88785244423 0.31721101467 0.47101208567 -0.91167100636 0.2883583066 0.56555821465 -0.92261606838 0.26347557067 
0.59748439132 -0.87174110846 0.22900992721 0.57109334656 -0.79041409923 0.1403181288 0.61604593695 -0.8354215932 0.15829140577 
0.47916053243 -0.73766911871 0.16899669763 0.37929457562 -0.72063447185 0.23367505528 0.26810149571 -0.710900198 0.32186723093 
0.21736558331 -0.77719465122 0.38082823107 0.17676966978 -0.83242723878 0.44038637622 0.22160084927 -0.85293335322 0.41523496686 
0.26899140878 -0.89347601098 0.38172118136 -0.23355593787 -0.69765157844 0.3451303518 -0.22509792865 -0.69893402709 0.30455315662 
-0.32367098197 -0.86295771007 0.20366713386 -0.33804953587 -0.83789090328 0.24725144574 -0.13867586562 -0.71636364196 -0.10192892351 
-0.14617071141 -0.830327895 -0.10368235619 -0.15119194773 -0.93211129618 -0.11710976357 -0.13919146337 -0.96138051575 -0.13768730058 
-0.09253598038 -0.95409675126 -0.14751013521 0.0023810155477 -0.9036699067 -0.14788605311 0.091261023732 -0.85595604206 -0.13896268019 
0.20748204508 -0.89975984175 0.42021158305 0.18781136153 -0.89589746679 0.4739787759 0.18689993248 -0.8835736082 0.50274218595 
0.2226812786 -0.8628796065 0.47292606914 0.26714372486 -0.84136523709 0.42110744318 0.30674001282 -0.83882713083 0.36300934979 
0.35538409335 -0.8401838673 0.30550786674 0.41272455933 -0.85713811403 0.29241455901 0.49557508908 -0.85652932596 0.26676461957 
0.44777978915 -0.91136326742 0.31708180414 0.35426010603 -0.9041281836 0.35777183532 0.28980950444 -0.88977556936 0.3751163301 
0.22025336795 -0.86204942492 0.39522727261 0.16198734496 -0.81652995864 0.41856302067 0.10192504357 -0.77412896343 0.43918099846 
0.052648062831 -0.74729764757 0.45095841987 -0.0070499957898 -0.72521495825 0.4542793597 -0.049351789732 -0.72766648813 0.41589656559 
-0.08231088363 -0.72628807414 0.37524092615 -0.080394595422 -0.72057059074 0.31696453763 -0.064690512206 -0.72199833461 0.26682922255 
-0.0093780567596 -0.72902502347 0.23087540074 0.027638627728 -0.74115571852 0.20931117758 0.033750575231 -0.75923464296 0.22014456574 
0.024530555251 -0.76937071089 0.23215546546 -0.036094833738 -0.76824880198 0.25462514472 -0.10693578857 -0.73838915025 0.27056851178 
-0.14861992088 -0.70628463764 0.28766294227 -0.19473994959 -0.73275879757 0.31420051206 -0.1944668707 -0.70179601327 0.31210809306 
-0.21266704027 -0.76190887446 0.33065640167 -0.22154569536 -0.78890769373 0.34678294592 -0.23298869723 -0.78822774533 0.3602544336 
-0.26899103273 -0.77808794627 0.37824228165 0.47881008216 -0.73033612778 0.14100347612 0.44724242633 -0.75173198812 0.17973954928 
0.41784279269 -0.75323592111 0.21531013233 0.4135947408 -0.68738711991 0.16225714839 0.41037190764 -0.63566044975 0.11950540182 
0.42807768493 -0.60561256831 0.075839736047 0.39949182013 -0.60918591445 0.0096893468152 0.3572738604 -0.59119460651 -0.038747154522 
0.33941438832 -0.61742403621 -0.093483026176 0.28586623726 -0.6631396931 -0.12542997447 0.26242372981 -0.70092716166 -0.14188769346 
-0.37456272276 -0.73967331904 0.46230737965 -0.37283184351 -0.77268813697 0.44733152477 -0.37193604065 -0.79074828012 0.41050165691 
-0.35120032491 -0.81788665512 0.36234061612 -0.33939329573 -0.83597795754 0.32155101216 -0.33740411304 -0.79136747602 0.28261624865 
-0.32457445014 -0.79649037213 0.19404004784 -0.32949892503 -0.74172922923 0.22967348391 -0.32637217715 -0.82532254896 0.17095264933 
-0.31589285547 -0.79986271503 0.11219137654 -0.30522282618 -0.76335436306 0.038977052001 -0.29529909351 -0.72372599097 -0.024000887167 
-0.27844501891 -0.683497598 -0.094313569101 -0.24210914091 -0.61852870962 -0.10907120403 -0.20732261392 -0.54984406898 -0.17924006539 
-0.20473697703 -0.54884455275 -0.13879290862 -0.21304184504 -0.52666550514 -0.18110824064 -0.21779433303 -0.49723588794 -0.16334214619 
0.35035177673 -0.63820680703 -0.049834078783 0.37071343182 -0.62409113196 -0.0075277340362 0.42035903266 -0.66272280803 0.066637895574 
0.22242815783 -0.92550271629 0.43124076314 0.37611153028 -0.90225879528 0.32801408426 0.29122694691 -0.8910084666 0.34793568728 
0.20400216094 -0.84016095916 0.3755234499 0.11192644015 -0.78825259963 0.40433221519 0.027165696834 -0.74415572284 0.43174817798 
-0.038155298488 -0.72306225853 0.4469646976 -0.089332798822 -0.72713882452 0.43546034839 -0.14258820904 -0.72450869992 0.39601599117 
-0.17043738163 -0.72284346616 0.33993125854 -0.16143194445 -0.72419591002 0.29043790466 -0.10986316122 -0.72810611794 0.25497344688 
-0.071167432549 -0.72944563776 0.22831080576 -0.11643834492 -0.70870337788 0.26817247497 -0.068364118949 -0.74367075184 0.25274619915 
-0.23136928658 -0.73916193482 0.32912526784 -0.22303300603 -0.69109532445 0.32745174861 -0.24974399613 -0.77124972118 0.34685131572 
0.18072524405 -0.89775263603 0.48228027932 0.19354803262 -0.85651901376 0.49386457037 0.24211695316 -0.82369911004 0.45485030584 
0.29861231262 -0.79651112535 0.3859693194 0.37297128226 -0.80482582636 0.32181294757 0.4329374724 -0.81776898911 0.27280287124 
0.46655829758 -0.83097177874 0.25874681568 0.53675762258 -0.82897617547 0.21639163064 0.50380245024 -0.79472238716 0.20686031613 
0.42632729642 -0.76132957099 0.25298253031 0.3353688404 -0.74865734937 0.32060137381 0.25002494752 -0.76540025981 0.40008860092 
0.19198168245 -0.82261838441 0.46386263194 0.16883211156 -0.87324045364 0.47366843645 0.19179911907 -0.89683635497 0.4537458458 
-0.30987592799 -0.74650563826 0.12976956767 -0.29382355781 -0.69710459587 0.054603846537 -0.26895764206 -0.66347554204 -0.023050640013 
-0.22459498713 -0.66779107166 0.33464823196 -0.22613352949 -0.64998064505 0.34329911942 -0.20920220614 -0.67096690791 0.3120773916 
-0.22363797633 -0.66074719168 0.28349515941 -0.20643944998 -0.64855453163 0.28863043866 -0.2329721093 -0.67187394916 0.2724922394 
-0.23144557193 -0.68393916482 0.28297669416 -0.19276788531 -0.69943125298 0.27197129444 -0.31169221061 -0.67470079417 0.15905728379 
-0.19819378219 -0.53043948721 -0.09941080883 -0.21996254785 -0.5520335872 -0.059668676944 -0.25620879785 -0.58437849771 0.011492730958 
0.44379804182 -0.68647928262 0.1144948789 -0.2818012111 -0.61976701397 0.082263602493 -0.15163581894 -0.68772441853 0.25826691064 
-0.13531401939 -0.68707837065 0.26579489887 -0.16553260326 -0.69692611448 0.24833260479 -0.069216172418 -0.59426063495 0.53678096447 
-0.010350802856 -0.66402426546 0.54912463134 0.32129437485 -0.65390088211 0.17335328722 -0.13938461821 -0.43839725322 -0.19118324212 
-0.18830022501 -0.4919379983 -0.14199709687 -0.060507632917 -0.73947423754 0.24381523145 -0.06386051617 -0.73588166878 0.2363657175 
-0.18945486011 -0.66102449109 0.2934909632 
Displacement_Wall 3 1114 double
-0.072315216064 -0.0080184936523 0.31716156006 -0.087391861406 -0.080714729973 0.28623551916 -0.076996104296 -0.16760092342 0.31520867956 
-0.064888446342 -0.11146437392 0.3528794734 -0.083242279014 -0.11305118951 0.27486126612 -0.080482059078 -0.21704137788 0.30724987202 
-0.071364177162 -0.1642121073 0.31095131301 -0.066717093607 -0.28072210914 0.32833896967 -0.042752858398 -0.23006914311 0.34907361692 
-0.035672664757 -0.35966656425 0.35336398424 -0.00010200815615 -0.2771093037 0.34542278859 0.01132643711 -0.41406000945 0.35199092413 
0.021573199843 -0.27548941862 0.32168742248 0.068937384441 -0.42336184756 0.31865662238 0.077395519883 -0.26495470824 0.23505102994 
0.12990562133 -0.39632669192 0.22126971417 0.14055303703 -0.2664860901 0.14475830935 0.17663440775 -0.38409331596 0.12090531049 
0.18958581298 -0.25799500313 0.082135673193 0.22777959501 -0.3480953637 0.034851776927 0.21946161357 -0.23031817743 0.061277702363 
0.27391207997 -0.32314812141 -0.0090354266933 0.26449585175 -0.21104221206 0.065958190319 0.29138547367 -0.29977663936 -0.00018413727084 
0.32987443943 -0.19964348925 0.11868445187 0.33020974095 -0.27613033405 0.02307642648 0.37165589631 -0.15551469939 0.12936098605 
0.36957192065 -0.25290966606 0.024491573953 0.42114249969 -0.12244264166 0.11808944947 0.40050072505 -0.21649931538 0.015938054932 
0.45265044102 -0.089383030788 0.080457431264 0.4313872032 -0.1741846223 -0.037856054595 0.48131545765 -0.071401825762 0.031280362451 
0.42816514652 -0.14207395401 -0.08603057947 0.51378378768 -0.066811683104 -0.02322311504 0.43259406503 -0.12488029871 -0.12655177284 
0.50979395048 -0.072065045545 -0.085797093948 0.43397779845 -0.12650599722 -0.17660348558 0.50893199316 -0.0846443409 -0.13662145452 
0.43444437834 -0.14149949803 -0.21299005228 0.53459114069 -0.097406073063 -0.16605331145 0.45983732001 -0.15856381826 -0.22635833642 
0.55117053989 -0.081353574237 -0.19856545939 0.45764465437 -0.17464622494 -0.25847764887 0.56631601172 -0.045416180205 -0.24357944726 
0.46742684764 -0.15238480627 -0.28738950365 0.57608934872 0.00044758331013 -0.28911025074 0.47446382908 -0.11402381632 -0.32551566801 
0.57439956954 0.04764677899 -0.33272894873 0.46508151053 -0.06677025064 -0.3766440836 0.55373603577 0.086112276594 -0.37560920829 
0.4628397135 -0.0057198981825 -0.41516139578 0.54446973153 0.15807355299 -0.3567336262 0.43338770257 0.04905728328 -0.41590091507 
0.49526457359 0.20374705388 -0.31054650146 0.3894949059 0.081036274503 -0.36375610971 0.42655362293 0.22856255999 -0.22833347898 
0.32102418431 0.10741286172 -0.27348154961 0.35313337682 0.23508392026 -0.1264954872 0.24905463894 0.10079687812 -0.17380484629 
0.28356109713 0.22269586291 -0.038267403646 0.16822445462 0.11784035532 -0.063730176615 0.20884663998 0.18875326235 0.061206101893 
0.092403728006 0.094202373907 0.02713835775 0.15220248275 0.18332946383 0.1346979421 0.032933775895 0.084741489276 0.12192923234 
0.10635937459 0.17723234464 0.21016189484 -0.014674586132 0.079442780032 0.21714369541 0.066756036857 0.16156958933 0.29324485409 
-0.049467171678 0.082957063075 0.29426484172 0.029843907526 0.14855537718 0.36277061157 -0.078518771233 0.078513367348 0.37158022 
-0.012121641342 0.15682852061 0.40779919859 -0.07916236521 0.0689200106 0.42607569381 -0.026450943197 0.15212276611 0.45440941795 
-0.097716750858 0.060056735243 0.46339724804 -0.056495201673 0.15918050934 0.47593066231 -0.092531957677 0.04127954833 0.48696050961 
-0.077408746373 0.15323013297 0.47318689145 -0.074464568927 0.027578988018 0.49650291009 -0.074000129685 0.12142601935 0.43908389423 
-0.071207942739 0.0032854270615 0.47135021164 -0.065439192968 0.071097117146 0.37329878655 -0.076914523199 -0.047745854052 0.41988003687 
0.12482070923 0.12155914307 -0.48849487305 0.078153700598 0.12369826635 -0.47911816392 0.075952622128 0.066754812637 -0.49524323435 
0.12517350104 0.052317349706 -0.5162892768 0.037728887262 0.12651311056 -0.46673542987 0.031183150721 0.077924176947 -0.47272488628 
0.015451819169 0.1312924577 -0.44561337067 -0.0051678615905 0.08480717798 -0.45377232435 0.0068468458685 0.12683035163 -0.43877585233 
-0.016518094132 0.075189697837 -0.44085435516 0.01027396476 0.11423532819 -0.44450940778 -0.0067431066677 0.054279065522 -0.43468384411 
0.027911764529 0.0836034246 -0.47232628073 0.03371866197 0.012386109595 -0.44991038839 0.050393979308 0.047566401702 -0.50063725551 
0.064676736652 -0.033976698931 -0.47020447385 0.079429271458 0.004405696381 -0.52783961313 0.07923010338 -0.085349977852 -0.49748287081 
0.13531226225 -0.030022920658 -0.55554813551 0.13127210922 -0.13152493016 -0.52049883907 0.19355381721 -0.060450702322 -0.58188706877 
0.17793136019 -0.17185109261 -0.54589243164 0.24905544542 -0.086772245173 -0.60598906813 0.21544999124 -0.20721746901 -0.57054114653 
0.29455668141 -0.12176121409 -0.64495679404 0.23985335896 -0.22994574251 -0.59578884208 0.31564865943 -0.15091115048 -0.68014491037 
0.25266940774 -0.2473590108 -0.62639079618 0.31650682384 -0.17412162346 -0.70954947375 0.23286884773 -0.27050319151 -0.65833766055 
0.34691980123 -0.200285729 -0.72396795113 0.22920277352 -0.28763475734 -0.66892842356 0.34710998128 -0.22317885415 -0.74497117534 
0.23060816959 -0.31136946416 -0.68729606102 0.33495570563 -0.24754864933 -0.76883262609 0.23855160544 -0.32777187747 -0.71763275362 
0.34752899954 -0.28896174431 -0.78816828556 0.23785026568 -0.35986205801 -0.75265062093 0.34680445594 -0.3207119088 -0.80857131805 
0.23508726879 -0.40282772378 -0.77334946677 0.33623465663 -0.34746611897 -0.8263912651 0.23300821057 -0.45072386762 -0.78179912703 
0.30681619765 -0.37262610882 -0.82680746828 0.22540494347 -0.47244325586 -0.77579489788 0.26818917349 -0.3631758037 -0.83716626568 
0.19536103839 -0.47240026075 -0.77400405875 0.22022517763 -0.33304932011 -0.84899976974 0.12342907182 -0.45343683737 -0.77589036778 
0.14587012667 -0.29141492075 -0.83698307142 0.031412988881 -0.40225261546 -0.77206426099 0.084205199492 -0.24177357284 -0.8133423512 
0.0026087661418 -0.30879618461 -0.77767594647 0.031982322747 -0.18853738782 -0.78179035938 -0.032655392325 -0.26007930059 -0.75624017503 
0.028518437915 -0.16713536056 -0.72511670376 -0.031549682826 -0.23785985492 -0.70078671642 0.043001415843 -0.14667541401 -0.66293970597 
-0.019161734372 -0.21374857412 -0.63771030274 0.08345141466 -0.12757854855 -0.59280001279 0.024657721855 -0.20518804271 -0.55169351874 
0.12694093026 -0.12749722762 -0.53789486298 0.078827941546 -0.21500457383 -0.46817531885 0.16990859986 -0.13459104292 -0.48607567775 
0.13802168977 -0.23385664147 -0.38867964369 0.20396619568 -0.15069867544 -0.42496319929 0.18926640979 -0.26733002115 -0.32450112234 
0.22932998673 -0.17332684345 -0.38565955289 0.22239228774 -0.30936303102 -0.27326832269 0.24581699154 -0.20261278684 -0.36862375637 
0.24311099667 -0.32073481081 -0.25492193396 0.26297532467 -0.21294362484 -0.36655175451 0.2525091004 -0.34176176877 -0.24095225463 
0.27605530641 -0.21876116349 -0.36293001559 0.25923962211 -0.35845035722 -0.23057194076 0.26822786644 -0.2181885615 -0.33885849656 
0.25681465804 -0.37421118485 -0.21111177231 0.26263741697 -0.22263483768 -0.33322311924 0.2540720858 -0.38475160546 -0.20845770575 
0.25876944703 -0.23097826699 -0.34234782833 0.24763536613 -0.38793387863 -0.21524656806 0.23317366714 -0.20042206464 -0.34284387058 
0.22538863418 -0.37078743886 -0.21865910521 0.2064883126 -0.16196744061 -0.3311570258 0.19454232404 -0.33430228473 -0.21012841222 
0.17808683756 -0.1110725095 -0.30028168215 0.14855434404 -0.27260389992 -0.18929109192 0.16303062326 -0.044620768205 -0.27185302201 
0.13170504445 -0.19058529187 -0.15820961635 0.15581145876 0.029132220747 -0.24560749252 0.12884352187 -0.093714793256 -0.12799830795 
0.19726430718 0.12586138864 -0.24201988901 0.17187042426 0.012575028182 -0.13227429646 0.23349299852 0.21058988057 -0.23940585003 
0.21071400665 0.11017611893 -0.14831016184 0.25831402303 0.26911324291 -0.23891772337 0.23736788141 0.1805303515 -0.16448867259 
0.26546658491 0.32146156769 -0.24790246505 0.24498485741 0.2294277677 -0.19102393007 0.25804129343 0.36871500709 -0.26470305852 
0.2411350206 0.26275581372 -0.2167926883 0.23621800359 0.37276390334 -0.29454138485 0.2265863559 0.26773668686 -0.26375278615 
0.21055087319 0.36460938172 -0.32751772012 0.20937000981 0.27009089372 -0.31508843716 0.18067081807 0.32801972053 -0.35622016216 
0.18466918161 0.24588219451 -0.34837522534 0.15704206486 0.28897691242 -0.38058499956 0.16581410796 0.21439281232 -0.37773508791 
0.15099995886 0.24303272119 -0.39274695129 0.16131667333 0.16964790582 -0.40936275346 0.14241814911 0.20915073007 -0.41447249154 
0.15821487758 0.13498411239 -0.43966402329 0.13125275959 0.18753932604 -0.44592684118 0.15771146019 0.11093670569 -0.47030322187 
0.12676722608 0.15636640356 -0.46883505281 0.14523230781 0.080031444479 -0.49659328277 -0.07906209681 -0.3247761156 0.3044107269 
-0.069899349016 -0.28703491169 0.32258942805 -0.067720376387 -0.38201031389 0.31537661878 -0.0022550417175 -0.49030692127 0.35692010511 
0.067785619956 -0.53630684523 0.35964108564 0.13420512764 -0.55487385919 0.31197360236 0.20471695491 -0.54995038048 0.19661087639 
0.25312940903 -0.50750089535 0.082606559168 0.29965372127 -0.4560397069 -0.01002965317 0.32515890906 -0.40542455345 -0.071117239672 
0.33556845204 -0.36603456732 -0.072652900615 0.33948591147 -0.34443129718 -0.059980743816 0.36449033148 -0.33880040175 -0.069662139381 
0.39213068288 -0.28549960399 -0.08851844111 0.40281280841 -0.2433573765 -0.14143144295 0.40202587248 -0.1953143002 -0.19302642303 
0.38246043628 -0.18319321615 -0.222925295 0.36714647928 -0.17413897788 -0.25213542891 0.36929948671 -0.20747538258 -0.26899584621 
0.37908424294 -0.23762348838 -0.27197376517 0.38766830476 -0.25731782988 -0.28261712766 0.39884489709 -0.24972848586 -0.30830829442 
0.40008426443 -0.21416584206 -0.3465385879 0.36551672887 -0.18601211571 -0.4172191867 0.35017668079 -0.095690564113 -0.4554289415 
0.31374768917 -0.07035873756 -0.45995036844 0.26627417728 -0.047791881902 -0.40692153527 0.19869899644 -0.026253890928 -0.31542924952 
0.12256315842 -0.0081461707238 -0.20873188544 0.040498943768 0.0025679364034 -0.10079650282 -0.03562258345 -0.0027412063379 0.0034192284519 
-0.09275095445 0.0074634371663 0.10757322301 -0.13899662381 0.010236359878 0.20290136082 -0.17082638302 0.0045569492496 0.28818449686 
-0.17543174094 -0.0050152450902 0.35431986313 -0.17885249584 -0.024466311513 0.40427293338 -0.18250857861 -0.046916709127 0.43589572684 
-0.13834025438 -0.083948405419 0.44693201564 -0.099237174092 -0.11779368274 0.45186178335 -0.077112854924 -0.14752689633 0.4391809442 
-0.067998087633 -0.18039834036 0.40784293631 -0.066758504903 -0.23359313939 0.36560174776 -0.0038661544497 -0.025391935544 -0.42754406329 
0.051638383654 -0.04342350374 -0.45445391876 -0.037580302408 -0.025558877132 -0.39802198916 -0.069638627132 -0.033890938967 -0.37507545651 
-0.082217518753 -0.048750522615 -0.35963507309 -0.035206461859 -0.10085863877 -0.36723432208 0.00012434605372 -0.1512124427 -0.37654974938 
0.024650381218 -0.20568944832 -0.39859671856 0.082198161281 -0.25527277222 -0.4253082268 0.11237737095 -0.30155950946 -0.46737962139 
0.1265735284 -0.33074941845 -0.50745298865 0.13361765763 -0.35025342881 -0.53822072735 0.14717209263 -0.35809520247 -0.57846298434 
0.12605996916 -0.35326982368 -0.60188504932 0.1063608367 -0.36072481517 -0.61685315718 0.086391815376 -0.3794459559 -0.63796474639 
0.10125536025 -0.40861090426 -0.677524487 0.1215966178 -0.44938876529 -0.71272784793 0.12044710288 -0.5037169076 -0.72810624715 
0.12381748311 -0.56681590011 -0.72536171716 0.11889168185 -0.59469553408 -0.72377881625 0.095839008561 -0.60552714018 -0.71893086153 
0.041540014357 -0.58050733857 -0.70643119057 -0.028213148993 -0.55045108577 -0.68933325375 -0.092550398738 -0.3382518624 -0.71966141694 
-0.056750043205 -0.36074296492 -0.74244075167 -0.079348097184 -0.31550865056 -0.65658374094 -0.046767154198 -0.29267068469 -0.5854378093 
0.026565468012 -0.29309511042 -0.50357526684 0.088795349892 -0.29361049891 -0.40237584853 0.14811690541 -0.30668204332 -0.30121982073 
0.20587641499 -0.3409674984 -0.22623178609 0.24128986485 -0.41301193883 -0.1507374677 0.23386733017 -0.44837408578 -0.15153990591 
0.2529053902 -0.47631617395 -0.14679277323 0.26606353592 -0.51017142014 -0.14450506555 0.28222601357 -0.5358920187 -0.13580962436 
0.29081545204 -0.55564312996 -0.13843875498 0.28628668955 -0.57299286399 -0.14200895192 0.24986191188 -0.55256734589 -0.13899391124 
0.21525546607 -0.50838231809 -0.116695198 0.17743663754 -0.43021346811 -0.087516589756 0.1457097348 -0.33182439136 -0.057175241304 
0.12307792709 -0.22579537695 -0.03075118995 0.1588930967 -0.11673744257 -0.03102895242 0.18576050256 -0.018195524795 -0.042161094046 
0.22134825793 0.063691154315 -0.069638306749 0.23290576472 0.12296733079 -0.10971062987 0.22232623761 0.16364916935 -0.16799138762 
0.20727248732 0.16224368269 -0.22160321634 0.19238939683 0.14838476894 -0.27462727608 0.17684690062 0.12995025062 -0.31152884391 
0.17398892666 0.10545084995 -0.34571552823 0.18211764658 0.057140247388 -0.37436620116 0.18871055574 0.013652031469 -0.41088772186 
0.19091206972 -0.023015651032 -0.44968101776 0.15475084623 -0.045002555695 -0.46697769595 0.10937577724 -0.054659937951 -0.47852460708 
-0.070834336227 -0.43914656344 -0.71723494253 -0.082281760398 -0.55489446691 -0.66262784412 0.16014822044 -0.63975922491 0.32159512864 
0.10077933623 -0.60539942593 0.3262758549 0.23677749855 -0.65397325532 0.25986423109 0.32307365949 -0.63882032245 0.15560807227 
0.37312976366 -0.59401727112 0.022239162303 0.39644295928 -0.53741478339 -0.073270513199 0.39715269035 -0.47186443414 -0.13930086678 
0.3836082069 -0.42426329355 -0.14618150169 0.36510892308 -0.40326560755 -0.13343957418 0.36935076433 -0.39672946376 -0.13918204529 
0.38290958609 -0.35179396914 -0.16532348936 0.38188604343 -0.29894852705 -0.22129740834 0.37924958567 -0.24966813773 -0.26631013539 
0.3564315651 -0.22063992252 -0.29029342202 0.33038736627 -0.23280885628 -0.32049047172 0.32951017304 -0.25387000279 -0.30686431078 
0.32739172058 -0.28904223953 -0.30483201253 0.32664845238 -0.3182777125 -0.3029398238 0.34032098947 -0.3323792583 -0.31097603822 
0.33237948653 -0.30700098404 -0.33332293976 0.29355207613 -0.29620208797 -0.37579911684 0.18058526006 -0.17454498022 -0.47387451918 
0.21079493869 -0.20189987314 -0.47961079829 0.13653432178 -0.15170412438 -0.42092414816 0.073488319893 -0.12978681158 -0.34250300238 
0.00056253199896 -0.11510914775 -0.23749960301 -0.077447170204 -0.09982822149 -0.13085790642 -0.14747238909 -0.071128786478 -0.018975740467 
-0.20064556243 -0.059188752684 0.085336341288 -0.24722846198 -0.062868476488 0.1796927115 -0.27806022955 -0.072983293619 0.26609676645 
-0.27146842787 -0.07473065156 0.31720252124 -0.25833804575 -0.10707071229 0.35010106793 -0.23140894241 -0.13444469844 0.36546514503 
-0.19192531664 -0.1992837644 0.35421241273 -0.13004606945 -0.23008495246 0.37260118045 -0.11350922559 -0.23135037446 0.38197092089 
-0.097206964485 -0.25559213091 0.3649996817 -0.097835998831 -0.30037493065 0.32837192303 -0.086445378916 -0.36276172215 0.30414007469 
-0.075610167937 -0.40754874174 0.29279035592 0.22693547802 -0.24558461222 -0.45616571494 0.21746568314 -0.3119602906 -0.41895758269 
-0.087132644835 -0.42537390681 -0.67072896689 -0.091354962193 -0.54565540033 -0.61838314692 -0.065135460806 -0.40435967255 -0.60508812991 
-0.015691114339 -0.37475686331 -0.53156332056 0.061096923699 -0.36523883445 -0.42152646022 0.1309209453 -0.35638451755 -0.32147132328 
0.18699887618 -0.35989358395 -0.23462900754 0.22471382255 -0.39049644198 -0.16322584166 0.25508459995 -0.43981858904 -0.10164013052 
0.28087565467 -0.57663515691 -0.1041841807 0.2468359274 -0.54072594142 -0.1079831627 0.29728346248 -0.62136366813 -0.10181794095 
0.31706176698 -0.66140095884 -0.096770215783 0.31938071983 -0.69358736135 -0.088083123568 0.31488268197 -0.71259696528 -0.082571915674 
0.29334096743 -0.692459344 -0.069895407669 0.25764925341 -0.6428422449 -0.046479429786 0.21466279093 -0.56225444578 -0.015688675314 
0.16701219322 -0.46922606533 0.020975323036 0.12103574331 -0.36505521577 0.052771670796 0.13600894847 -0.25142068005 0.055649139536 
0.16451640648 -0.1545029769 0.044436778668 0.19526071529 -0.077455281423 0.021894909672 0.20423585698 -0.016337629741 -0.029247250083 
0.1991638891 0.023474731587 -0.088825013167 0.18188499129 0.021257762116 -0.15634275548 0.16852510752 0.0092900390821 -0.21710829115 
0.17455008478 -0.015625272087 -0.2587770044 0.17842321898 -0.035471067115 -0.29149503543 0.19523453834 -0.083415377196 -0.31740346766 
0.19393807193 -0.13478618567 -0.33511601929 0.19016209226 -0.1809055867 -0.35694290636 0.13448765261 -0.21312206506 -0.35080814611 
0.072695108704 -0.21253286052 -0.35831173935 -0.0092679052043 -0.19570571452 -0.33545298874 -0.0724916346 -0.16693090218 -0.30770323967 
-0.12988122256 -0.15243107271 -0.27263331725 -0.15605370028 -0.16198299737 -0.23956809541 -0.1632377341 -0.17996121936 -0.21448965241 
-0.14060165836 -0.21797170421 -0.20811179878 -0.096348394015 -0.27478806807 -0.22094983213 -0.056832779073 -0.33864187315 -0.24950563823 
-0.028721451533 -0.3954211249 -0.31020181225 1.011838089e-05 -0.43812891793 -0.36884044683 0.024394908995 -0.45899309537 -0.43213021861 
0.026835348651 -0.4568384013 -0.4795901605 0.024194001612 -0.44788787487 -0.51918336866 0.0092346989679 -0.44573336473 -0.53260552603 
-0.010765379603 -0.43120425722 -0.54743623433 -0.055275337402 -0.43676518036 -0.55721669447 -0.022250859155 -0.45802461668 -0.63260936606 
0.0037255206004 -0.52537422491 -0.65142678461 0.021756033514 -0.59688399256 -0.66655324123 0.048457206289 -0.68741131956 -0.67091382419 
0.033978283243 -0.72228124925 -0.66342444459 0.013089390274 -0.74033871237 -0.65783592274 -0.017378002201 -0.69610329757 -0.64648222581 
-0.073468119248 -0.69313961352 -0.61621433676 -0.11151532043 -0.70675548937 -0.59343539994 -0.074818250437 -0.68211909416 -0.56910608892 
-0.020186754014 -0.51292377684 -0.5346646703 -0.0060580760826 -0.66282120105 -0.51480774509 0.24093990498 -0.50847084724 -0.095506273174 
0.2672962829 -0.51009666957 -0.067258124643 0.1264701975 -0.29016899022 -0.48487722707 0.12382646821 -0.3092037227 -0.44127350452 
0.11635784266 -0.25773773438 -0.49418666086 0.07973086787 -0.24366552666 -0.48290671235 0.046148815898 -0.22750841029 -0.4408295064 
-0.017155169524 -0.19861273943 -0.35516524758 -0.083596047526 -0.17881348653 -0.25684386361 -0.15533831294 -0.16087144338 -0.15158247713 
-0.23401144933 -0.13062388259 -0.055375269514 -0.28085960402 -0.1202575004 0.046003351621 -0.33425631095 -0.1258271936 0.14247259953 
-0.35200738696 -0.11965881173 0.23005180673 -0.35548610509 -0.1440943505 0.28077134298 -0.33675306559 -0.17444155671 0.30808338547 
-0.30264030422 -0.20357464971 0.31268816155 -0.26832770666 -0.2334066044 0.29787867564 -0.14564944815 -0.26871684362 0.31483890529 
-0.16296705258 -0.28077761222 0.30890160604 -0.14104515351 -0.26697927117 0.30204187131 -0.14087799139 -0.32497865113 0.27528840593 
-0.13050185155 -0.39667135826 0.24907174832 -0.12223870368 -0.4485913904 0.24156001553 0.28509318309 -0.72203880491 0.24439749516 
0.19670539074 -0.68073275371 0.2702669237 0.37653533963 -0.73780011746 0.17763304189 0.45950627542 -0.72547917619 0.083174161768 
0.52163125791 -0.67807609242 -0.049918019877 0.52559830007 -0.61485223302 -0.14918732352 0.49724591916 -0.54587326131 -0.20536933908 
0.45296162562 -0.48662709686 -0.21493208933 0.39934265982 -0.44809739994 -0.19059486098 0.38272977012 -0.43625069797 -0.1768622127 
0.37162177021 -0.40239295073 -0.20001984558 0.37558946282 -0.33483995604 -0.27363873459 0.37449430299 -0.28474116723 -0.32574160973 
0.34879900653 -0.25217443087 -0.33643321033 0.31602762832 -0.25609692997 -0.34232554957 0.29792652344 -0.29600115491 -0.32445987795 
0.29187983624 -0.34587623715 -0.31198524336 0.29215592816 -0.38686582448 -0.3104081684 0.28878485158 -0.4012147021 -0.32073698055 
0.28077977669 -0.39439000235 -0.33726611997 0.24894240221 -0.39274235245 -0.35213210735 0.17261585548 -0.38054029012 -0.38567711215 
0.098899993822 -0.37627527444 -0.40727258166 0.059651260644 -0.30048323619 -0.44992100351 0.038066120311 -0.36341871279 -0.40860824827 
0.056407920647 -0.280722355 -0.48011360537 0.057589732203 -0.57989826745 0.28297797224 0.14655260654 -0.63489742718 0.23766636567 
0.034671551438 -0.5633111932 0.24226507997 0.091730568292 -0.59974209814 0.22812876878 -0.20161962272 -0.26976088126 0.29415553536 
-0.24957645136 -0.29938454935 0.27261182656 0.054372711166 -0.45399768219 -0.44278111696 0.14272723888 -0.42135112694 -0.34135347357 
0.20830981514 -0.39869870116 -0.25468813491 0.24193150417 -0.39867915403 -0.18208745597 0.2677503983 -0.42680592948 -0.1223801533 
0.28201552453 -0.47736981055 -0.087312867947 0.30929487395 -0.54038929701 -0.051710612213 0.27944984196 -0.58519480686 -0.048560690923 
0.31438343479 -0.60210204067 -0.037600190878 0.24880410587 -0.57538305061 -0.061044158077 0.24555807569 -0.59563686431 -0.0746734818 
0.25632193686 -0.64372346593 -0.083048660589 0.27922687167 -0.69014159095 -0.06855975373 0.30507736865 -0.73690207528 -0.056291669246 
0.32525538828 -0.76616520234 -0.045889661769 0.32837700646 -0.78795925473 -0.036049411949 0.30636651663 -0.76813442301 -0.027294237853 
0.28258197156 -0.73268691825 0.0067742250892 0.24077072399 -0.66796317872 0.047310265209 0.20029480774 -0.58728563535 0.087025857347 
0.16691640006 -0.48696940927 0.11401980561 0.14583402459 -0.37974063642 0.11920156146 0.14489379352 -0.29421294131 0.11251066453 
0.164037083 -0.2178954457 0.091203033966 0.16698233822 -0.17399360982 0.051611346783 0.15847626907 -0.14479367472 -0.0042111437093 
0.14495443717 -0.14721138458 -0.077510914761 0.13687801857 -0.14922294677 -0.14003353722 0.14675950684 -0.1636682675 -0.18787516729 
0.16097029724 -0.19321453747 -0.22465810591 0.1804601195 -0.24808994009 -0.24223982632 0.18275717179 -0.30327118301 -0.23704566169 
0.17635976934 -0.36228374939 -0.20963894999 0.073616527777 -0.45586054533 -0.14248187625 -0.0081537327054 -0.39714357673 -0.16383340417 
-0.081298937817 -0.35230219419 -0.16683103409 -0.14549119437 -0.32194287292 -0.14632123314 -0.20174163482 -0.29621334881 -0.11155008059 
-0.23349895588 -0.29499649999 -0.076736620074 -0.25515132455 -0.30194633397 -0.04336682729 -0.23003890503 -0.35216653122 -0.039761164841 
-0.19945369307 -0.40787427042 -0.059318141896 -0.15762152845 -0.46963497524 -0.10064209058 -0.13032237534 -0.52134159278 -0.18555903445 
-0.11031607276 -0.5513898651 -0.27181385229 -0.097003616762 -0.56191999476 -0.34382143614 -0.098577159697 -0.5521949662 -0.39811444478 
-0.099564789645 -0.53891029348 -0.44547201089 -0.10104834544 -0.48992062792 -0.46123592176 -0.11388415131 -0.46851901853 -0.47365704028 
-0.1581021519 -0.46584228274 -0.46371372071 -0.055058310678 -0.59596302513 -0.58378861913 -0.090131874411 -0.52365898864 -0.55840999144 
-0.038028339731 -0.6800656921 -0.59165857965 -0.036441139014 -0.7776215618 -0.5824462493 -0.050996729812 -0.83118218738 -0.59092464796 
-0.065303469004 -0.84292056326 -0.60340290161 -0.06977668813 -0.79063778444 -0.60861700179 -0.10220619016 -0.82036908584 -0.57973405647 
-0.12248935316 -0.83255314445 -0.55025084646 -0.10698409272 -0.81513246047 -0.52138283693 -0.031202179445 -0.77642764202 -0.48497542156 
0.10121109239 -0.63707135753 -0.44862128808 0.073790923924 -0.72252098993 -0.44198063352 0.13161130384 -0.55972000362 -0.42003584044 
0.1882600347 -0.49318394352 -0.35282356289 0.25817673782 -0.47046589632 -0.26083731751 0.30679973662 -0.45765513053 -0.18199562743 
0.32231862757 -0.45490735413 -0.12956872389 0.32670841743 -0.4716488769 -0.09234326692 -0.1255314628 -0.89535697734 -0.48144241526 
-0.17656052548 -0.92779324971 -0.50124148904 -0.063823001742 -0.84581196564 -0.46437218713 0.03644810191 -0.78258371429 -0.43581594823 
0.17217527102 -0.66305679795 -0.4012629473 0.15584716808 -0.70512950825 -0.41221394955 0.20197652877 -0.59864121398 -0.38550197119 
0.2358616716 -0.54721926508 -0.35570880003 0.28537972899 -0.51290706861 -0.28678762451 0.34131179253 -0.49859784891 -0.20048127517 
0.3775490422 -0.51116816244 -0.14032951674 0.39842103307 -0.52189525475 -0.093940167284 0.37300231417 -0.5379564087 -0.076087577571 
-0.14554775338 -0.48612513992 -0.49275874123 -0.20844264517 -0.46065430884 -0.43087661117 0.048304067289 -0.27159129013 -0.50011793165 
0.018371348291 -0.25821386726 -0.47626886909 -0.015078598121 -0.25079858241 -0.43658237157 -0.063780464137 -0.24589395662 -0.36324472677 
-0.12465739316 -0.21666365922 -0.27924858572 -0.19368519858 -0.19582676379 -0.18111567356 -0.2608510908 -0.1753637594 -0.091482692475 
-0.31833428216 -0.17053070379 0.0071882194407 -0.36296637928 -0.17079060708 0.10220858299 -0.3702847672 -0.18255861073 0.17617510241 
-0.38491585635 -0.21207264939 0.23794659051 -0.37117954904 -0.23151171463 0.25932790364 -0.34906886831 -0.26492502117 0.2772859833 
-0.31318538642 -0.30179023164 0.26707791387 -0.29129416494 -0.32941843403 0.24593877788 -0.25643278024 -0.3457630555 0.23289921783 
-0.2882475188 -0.36765223169 0.20955364736 -0.22291463714 -0.31479558699 0.25152141014 -0.19802606326 -0.30333002587 0.25440362019 
-0.18540350959 -0.3161729242 0.24007181921 -0.18271705664 -0.31381529184 0.2225189544 -0.18793209178 -0.37015835967 0.19714782346 
-0.17455695215 -0.42205917373 0.19310326548 -0.15419333741 -0.47028508356 0.19497871456 -0.080073513737 -0.48403608901 0.24510157011 
-0.1152126145 -0.48339830362 0.20254898526 -0.019813985587 -0.52580925608 0.24614229785 -0.058643480653 -0.51267134993 0.20833441733 
0.013599173667 -0.55101485915 0.20301376069 0.093261506062 -0.59193778797 0.1926975186 0.18103161572 -0.65163331041 0.18673188699 
0.27621291073 -0.71401467524 0.18065199893 0.3871951036 -0.76428760637 0.1501567315 0.49736796151 -0.78192435344 0.081145030973 
0.59495013166 -0.77671611977 -0.0054975769461 0.63030568834 -0.74473031184 -0.11186535429 0.62241738291 -0.67775009012 -0.19712444633 
0.57576463371 -0.6073289756 -0.24574848355 0.50381284663 -0.54341297499 -0.24870638192 0.41639246228 -0.48100239773 -0.20435898247 
0.37167114603 -0.46535187598 -0.15993668699 0.33257238883 -0.45588593119 -0.12393747776 0.37059733609 -0.3227664636 -0.31504496884 
0.37527396041 -0.36279445593 -0.26088083298 0.33524869446 -0.30422578885 -0.35265608263 0.31127808177 -0.30283987064 -0.35791486568 
0.28102169632 -0.33979911948 -0.35132870655 0.26191571109 -0.39561502667 -0.33996326284 0.25143756467 -0.4500923494 -0.33431761394 
0.23774271409 -0.48058398585 -0.33958752949 0.21124751454 -0.49186748664 -0.34541455184 0.16323452505 -0.49926846993 -0.35002888508 
0.10940109995 -0.48794935961 -0.36871834518 0.046315596493 -0.46336257083 -0.37060892373 -0.012399326167 -0.44020373425 -0.37182862721 
-0.0053689742696 -0.34052405186 -0.40670425521 -0.04563895234 -0.4118571262 -0.38160242729 -0.0027938659763 -0.30918402067 -0.43713559234 
-0.0074285358583 -0.27750012064 -0.47449416242 0.36296195078 -0.4155963562 -0.18981786157 0.31826805937 -0.48301650214 -0.085273167815 
0.37931526745 -0.62057300555 -0.046720528997 0.3390806214 -0.54842958594 -0.058666498631 0.3218507451 -0.66069811056 -0.018378858073 
0.38767888975 -0.67052235981 -0.032168632293 0.28170735397 -0.65275782348 -0.028398708764 0.26399906971 -0.64670662597 -0.042055295725 
0.25269451366 -0.65883854504 -0.045499428234 0.24144337969 -0.67610951428 -0.034538530645 0.25933487668 -0.71405800289 -0.0069587999214 
0.27623837829 -0.74513965499 0.027160163003 0.29876589545 -0.78164215337 0.026515591787 0.30683241732 -0.80967150771 0.022949969775 
0.29749611449 -0.7960122112 0.02114650112 0.28206864493 -0.76682037735 0.048497635191 0.25793296953 -0.7278595885 0.09485598726 
0.22811626106 -0.68122951844 0.13540713191 0.18338721266 -0.59329864563 0.15420949313 0.13382567407 -0.50327571398 0.16042112102 
0.12959563969 -0.42928662287 0.14635759765 0.13194426318 -0.36375224627 0.13640549255 0.12960028344 -0.32831133246 0.10879686349 
0.113857111 -0.31098009304 0.065278353399 0.099687119011 -0.31389449113 -0.0031464967968 0.090226262087 -0.31199510099 -0.060957195808 
0.10125678306 -0.32056150065 -0.10485115365 0.12205356495 -0.3413231359 -0.14265628455 0.15718747264 -0.37952814242 -0.1614216872 
0.17623464214 -0.43488219541 -0.15128519723 0.16925858322 -0.50339919948 -0.12030208724 0.087576605295 -0.5707610194 -0.054572272522 
-0.15990882764 -0.47765480974 -0.00600226652 -0.096557758434 -0.52480236777 -0.0082734842358 -0.21722988243 -0.44932697442 0.012074557388 
-0.27674152789 -0.42611119666 0.038261490178 -0.30502555665 -0.42339255537 0.072003354446 -0.31947929752 -0.43616780212 0.10044644384 
-0.29475854798 -0.48627768624 0.1002108298 -0.2739740514 -0.53442894889 0.07601104921 -0.24449348829 -0.58404223466 0.032760287473 
-0.22666056861 -0.63401699138 -0.058483645429 -0.21143036151 -0.6572220846 -0.16615606061 -0.20470841035 -0.6475288024 -0.26660351692 
-0.20287238717 -0.62544608873 -0.33862484887 -0.19808149045 -0.59502720377 -0.39799243367 -0.20030795649 -0.54252664882 -0.413355853 
-0.20547672176 -0.5007700659 -0.42312845454 -0.20948243446 -0.48868634065 -0.42834672641 -0.2360279584 -0.47879258817 -0.39813089308 
-0.22835404894 -0.46303701082 -0.39348514381 -0.26757365748 -0.46366313537 -0.36881657007 -0.1721502885 -0.50469187785 -0.45045286664 
-0.12959422386 -0.54483266693 -0.49467401712 -0.10305872047 -0.61340832878 -0.50854359508 -0.087320733034 -0.69530589289 -0.5047859872 
-0.1007429091 -0.80349305973 -0.49593685359 -0.12487851077 -0.87883264127 -0.51237767709 -0.127961205 -0.90516127634 -0.5507609699 
-0.045126157206 -0.59136020712 0.0077918674539 -0.0015830872564 -0.64334615371 0.022851480163 0.41832284458 -0.60753012485 -0.064881574188 
0.44254835565 -0.66371012742 -0.048156557568 0.3527510617 -0.71258905767 0.012914519625 0.41075058204 -0.70077843946 -0.0066477890705 
0.30534604526 -0.70929459598 0.0061981625259 0.27462680151 -0.6875716687 0.0062848775596 0.25043009376 -0.6690077128 0.0018471367172 
0.23294290799 -0.67949139612 0.02062085679 0.21990402762 -0.69771930338 0.050248230928 0.23707700123 -0.72596519393 0.091808828231 
0.25552385055 -0.75292544128 0.12842946433 0.27304874063 -0.76461282589 0.10960651036 0.28915382595 -0.77400362064 0.086492487854 
0.29408806782 -0.77533714634 0.057761355443 0.30048948992 -0.76916388923 0.059564274002 0.30738796409 -0.75765450946 0.094303675684 
0.28188468756 -0.74523755007 0.12809369587 0.21103928602 -0.67212367593 0.16436756089 0.15496362428 -0.61539091211 0.16934076263 
0.1292030225 -0.55939390807 0.18109265056 0.10882483076 -0.49677626247 0.1891606843 0.07454946685 -0.46616582178 0.16558115916 
0.050993017937 -0.44264495839 0.12968952496 0.033905208196 -0.44446472044 0.086658283058 0.02493186325 -0.44458008592 0.031957691828 
0.03578851296 -0.44792705112 -0.032760818997 0.063725206965 -0.45776773468 -0.075954341011 0.11645803906 -0.47449169067 -0.095150524114 
0.14901012446 -0.51899726436 -0.094874463357 0.16001496451 -0.57865992207 -0.073952135368 0.10556821455 -0.62872151576 -0.029241520034 
0.010691020951 -0.65298343978 0.013841879344 -0.093124909526 -0.65751810141 0.055283324003 -0.068616313467 -0.66420213837 0.046903127591 
-0.13188671704 -0.6285413115 0.067482838493 -0.1779702312 -0.60248220225 0.083028995011 -0.23041617335 -0.5727751855 0.097938322616 
-0.27080675487 -0.54823910627 0.11802958575 -0.32177251884 -0.52627817124 0.14330740532 -0.34545823698 -0.52811165443 0.17239262047 
-0.36404416494 -0.53910172083 0.20137122579 -0.35296920736 -0.58136289443 0.19838056706 -0.33280494786 -0.62247051246 0.16817509219 
-0.30103572429 -0.66468079739 0.10102713082 -0.29845243871 -0.70013979964 0.003687401142 -0.2758967519 -0.69784952214 -0.12039367722 
-0.26339678246 -0.67848683766 -0.21812476152 -0.25894654085 -0.64094324429 -0.29826765758 -0.25258473925 -0.60091746736 -0.37033215346 
-0.26233109897 -0.55400560504 -0.36881237793 -0.26058008663 -0.50841552958 -0.37689966165 -0.27916936058 -0.48577334774 -0.36386251266 
-0.28915753305 -0.43501277121 -0.35804340981 -0.28140251982 -0.45411602586 -0.36731018999 -0.24248775346 -0.45887039723 -0.37346928227 
-0.18271512618 -0.48755607548 -0.40354937627 -0.14774168381 -0.54165256248 -0.44269032653 -0.13405538238 -0.57677260412 -0.42714910567 
-0.12053556812 -0.64961931171 -0.41675752523 -0.13738318971 -0.77416284608 -0.41106444305 -0.18478735579 -0.89231516844 -0.44556590109 
-0.020866772868 -0.2699099122 -0.49208251264 -0.042580157931 -0.28257224969 -0.48395486988 -0.063829928035 -0.28501635936 -0.44013618361 
-0.094248137577 -0.27351273355 -0.37617736191 -0.14721523951 -0.25014056451 -0.29618692568 -0.20289160315 -0.22732816117 -0.2160740511 
-0.26245668318 -0.21747451889 -0.12517235138 -0.31343649207 -0.22237720409 -0.029662415635 -0.35705553158 -0.24002939058 0.061131227082 
-0.38483194445 -0.26481815609 0.12521136909 -0.39580838753 -0.2971217221 0.18530589004 -0.39096432751 -0.32390190234 0.23331397058 
-0.37080540723 -0.3309331698 0.24007476097 -0.34324599323 -0.34217616936 0.23644647151 -0.31832055795 -0.35251790616 0.22616976773 
-0.31676206502 -0.39920802493 0.20189962723 -0.28561067842 -0.42392524701 0.15944612601 -0.30797212718 -0.47468859424 0.18403738451 
-0.25240372829 -0.38667635777 0.18385388041 -0.23761772552 -0.36958532501 0.20361960653 -0.21949545655 -0.35176104267 0.2033970807 
-0.22108731662 -0.35115857461 0.17765254354 -0.22250657136 -0.36905827374 0.15407966171 -0.22783526361 -0.40726308011 0.13297791186 
-0.22646540303 -0.44098996722 0.13176630931 -0.22255206816 -0.46757081113 0.14535227478 -0.16824118344 -0.47716879899 0.16442827675 
-0.098278765589 -0.50196225041 0.17328033716 -0.018326426115 -0.5408729115 0.16687855964 0.077641907368 -0.59032115162 0.15502179164 
0.18562320455 -0.65184848039 0.13529256731 0.30320885425 -0.71420144467 0.11640585768 0.43761810691 -0.76177226383 0.086382070647 
0.54539970063 -0.78583194406 0.022138212119 0.65216419592 -0.78186939619 -0.049183289781 0.70705344444 -0.75488857302 -0.13303207439 
0.67858706584 -0.70828965341 -0.18782242984 0.61097010185 -0.6414318183 -0.22418842744 0.52867803596 -0.56218158233 -0.23032055623 
0.42619546701 -0.51121554385 -0.17488523442 0.34590290272 -0.50104585109 -0.099759445918 0.28324805689 -0.50950385316 -0.018487588232 
0.26615379024 -0.54873472052 0.027862167494 0.33815784055 -0.502979135 -0.065156656574 0.29456023117 -0.57243460158 0.039561832736 
0.37716387575 -0.44077732913 -0.16541895709 0.39442724841 -0.38807467108 -0.23661683529 0.3825100299 -0.36043036215 -0.29056173711 
0.3558480733 -0.34537091657 -0.33992011593 0.3203095417 -0.36033452711 -0.36591723693 0.28855937582 -0.40716055433 -0.37025637811 
0.25611507705 -0.46537286975 -0.37168264093 0.23237985337 -0.53537978584 -0.36589973401 0.2011587962 -0.55706774856 -0.35865125329 
0.17100539892 -0.56541076406 -0.35517843804 0.11526300197 -0.57683774189 -0.35435366481 0.050477361203 -0.5895334147 -0.35520090511 
-0.012470900708 -0.57071406782 -0.36426450165 -0.059531947083 -0.55387132276 -0.35463930312 -0.08833165724 -0.50346412406 -0.3441757265 
-0.071193598193 -0.35676863533 -0.37289904219 -0.10547185958 -0.43158253264 -0.33763320973 -0.039588388912 -0.32268395045 -0.4098975059 
-0.053025572826 -0.29965955055 -0.43327232232 -0.073704662249 -0.26455623345 -0.47401760653 0.2492694465 -0.70933417804 0.041534187874 
0.20787844483 -0.71789995974 0.12498231006 0.21701988283 -0.72728558324 0.17218711174 0.22385193466 -0.73140310918 0.21405877026 
0.24862160505 -0.73275717195 0.18418045996 0.27289168034 -0.7370194666 0.15143710787 0.2951119909 -0.73049967104 0.10677199456 
0.31651863039 -0.72297254728 0.075460724052 0.35501172952 -0.72858349681 0.083851803384 0.40793159979 -0.73641620554 0.080125618967 
0.17716277126 -0.66477163925 0.1631953275 0.25158344672 -0.70038722871 0.14488564693 0.15070261371 -0.62862902123 0.17873880998 
0.10157755148 -0.59607235198 0.18549567778 0.065014365225 -0.56175049864 0.19565981311 0.027835931253 -0.53424317484 0.19413980841 
-0.0069273945262 -0.53859292442 0.15002225121 -0.028825350772 -0.54004392292 0.097646494653 -0.024165183623 -0.53953413216 0.029207501733 
0.0018626732596 -0.54273360972 -0.026455802226 0.064263445186 -0.55257578818 -0.04877033142 0.10692534915 -0.57557969686 -0.057049121064 
0.10847093895 -0.6090249883 -0.042004149993 0.087391715387 -0.63525626138 -0.022620221814 0.004605662438 -0.64277875839 0.0097955732938 
-0.092077321372 -0.63005288275 0.037897431134 -0.14979768213 -0.62125251421 0.063436573959 -0.15458006552 -0.57749218002 0.048094660108 
-0.1519795344 -0.65355975996 0.077374435663 -0.17353160505 -0.6426348058 0.089283843628 -0.20704286527 -0.636332147 0.1179336934 
-0.25108848983 -0.62156909977 0.1408005284 -0.30384873483 -0.60382978099 0.16553786296 -0.35073991628 -0.5831612882 0.18681930754 
-0.3657476623 -0.59201898362 0.21159202795 -0.38000753992 -0.59561229015 0.234533091 -0.37258670495 -0.62730874808 0.21295852648 
-0.36015313621 -0.65568436888 0.18732411202 -0.33738542845 -0.68830328104 0.13015056285 -0.32972112555 -0.70271489589 0.062954041579 
-0.31024872933 -0.655613752 -0.21009310999 -0.30276031753 -0.6843685894 -0.12619314421 -0.30313170413 -0.61517290662 -0.27999397839 
-0.29847750963 -0.57116639908 -0.34760538988 -0.29045421862 -0.52286551416 -0.3555363245 0.33136171602 -0.74881168875 0.12854868704 
0.44486575963 -0.74815020369 0.068962576463 -0.28066613587 -0.48850568975 -0.377771733 -0.25951124756 -0.41349993609 -0.38836747481 
-0.24792575802 -0.44641481202 -0.40311745568 -0.2595228031 -0.39479652207 -0.36932042459 -0.22303350059 -0.41605504127 -0.36482320966 
-0.17614807684 -0.51360097255 -0.3795570287 -0.093176322834 -0.27682643741 -0.48374679186 -0.1044943043 -0.29189047967 -0.48102214924 
-0.11691300844 -0.29663546784 -0.4334597865 -0.12859610614 -0.30018354324 -0.38711911518 -0.16035464643 -0.28673916611 -0.32126594063 
-0.20096328425 -0.27591520517 -0.24991696486 -0.24765570764 -0.27555906064 -0.16455056384 -0.29360652398 -0.29003574325 -0.077724690695 
-0.33843897022 -0.32669429918 0.0052262606605 -0.37072683291 -0.37479684708 0.071824096934 -0.39315023624 -0.42178796887 0.1395660957 
-0.39546261478 -0.43389787632 0.19296094305 -0.37937634195 -0.42060458547 0.20815113981 -0.3503598394 -0.41975015722 0.21418402258 
-0.35765548136 -0.53152739775 0.18866320383 -0.30547362548 -0.5333993206 0.13609867715 -0.34115734854 -0.57260596102 0.16755570725 
-0.28271450653 -0.49201291362 0.12217179404 -0.25258610522 -0.44248806007 0.12887940602 -0.23949928911 -0.41633191838 0.15422770775 
-0.23133129162 -0.40931288415 0.16275307194 -0.23449764549 -0.40889899669 0.1297990462 -0.23933822486 -0.4129453869 0.10112289968 
-0.24629437689 -0.44626169164 0.083995553456 -0.26084418003 -0.47104398435 0.083835765971 -0.27279636471 -0.51175740693 0.10020881707 
-0.20445250947 -0.51263117505 0.14008896821 -0.12864140276 -0.52583372316 0.16033029359 -0.038124071113 -0.54515743354 0.15865545869 
0.064259697248 -0.58467992364 0.14752250238 0.17430185383 -0.64104110068 0.12617862414 0.28781308661 -0.69805718891 0.098941300108 
0.40522484435 -0.75533143034 0.063395220258 0.5376678371 -0.77825969035 0.025916938838 0.65011424095 -0.77571683019 -0.019184743475 
0.68859123526 -0.74432217394 -0.095821855255 0.67493876298 -0.68971399375 -0.15798833548 0.6164920196 -0.6301643227 -0.18680343907 
0.51225851291 -0.56791975606 -0.16772513262 0.40294836564 -0.52578771045 -0.10080936041 0.30334291849 -0.52066456955 -0.013197134286 
0.23927137356 -0.56129717928 0.073370836423 0.2256858736 -0.60535200197 0.11726757332 0.26281313079 -0.64262135969 0.11403276875 
0.35012014605 -0.5965001751 0.018299270914 0.30900582088 -0.67278636234 0.084061804212 0.38532004979 -0.52257552662 -0.064706268609 
0.39067917748 -0.45883361025 -0.1376628425 0.40240495992 -0.41191194116 -0.20564893848 0.38331515991 -0.39100400533 -0.26959498427 
0.35231398805 -0.38463544559 -0.32874262747 0.31417474635 -0.40668378538 -0.36830609656 0.28720372015 -0.44715790216 -0.37104274947 
0.2574710469 -0.50954591991 -0.38434762535 0.20783113645 -0.60311601711 -0.39049086255 0.16271716221 -0.61433849547 -0.37716101077 
0.13580744545 -0.61237014074 -0.36853847819 0.092197035849 -0.64347728232 -0.3689661218 0.011368429986 -0.67568106551 -0.37194956485 
-0.064163243464 -0.69501161849 -0.37114951753 -0.11708104296 -0.67538088793 -0.3618616944 -0.14207674448 -0.63182121777 -0.33529440673 
-0.14020415129 -0.54306920595 -0.32265296134 -0.14146529758 -0.37837060063 -0.3556703054 -0.15913465025 -0.46441898466 -0.32857991391 
-0.10671037894 -0.32218249216 -0.39915303148 -0.18345762239 -0.9033829161 -0.43430469272 -0.091881175737 -0.85463885359 -0.42581321256 
0.016155954078 -0.80904925608 -0.41449943655 0.12379921956 -0.70559526953 -0.39785152988 0.22755860512 -0.6136526501 -0.38436375926 
0.2536362068 -0.58495842398 -0.37815529542 0.27512269914 -0.54140538102 -0.34999346494 0.30421503533 -0.51492668971 -0.3204273316 
0.35713658897 -0.50525989422 -0.25754658668 0.42164303629 -0.50599054307 -0.18500924617 0.45465612527 -0.54804572239 -0.12921149817 
0.45196615563 -0.57912295286 -0.087970871994 0.46583299818 -0.62989711811 -0.070301680926 0.44813212627 -0.66462216767 -0.038488902773 
0.34516725037 -0.73666076353 0.059411031052 0.38326233105 -0.67507990156 0.026649439382 0.30439712682 -0.74212852906 0.085533676369 
0.26533300786 -0.73188329465 0.075753016111 -0.16314047709 -0.33816330009 -0.45763452979 -0.15662169832 -0.31347236023 -0.44939253688 
-0.15615764551 -0.34587267875 -0.44234850474 -0.16166300878 -0.33741601255 -0.3981053134 -0.17273361284 -0.33510268982 -0.33977903813 
-0.19468796803 -0.34571090842 -0.28109295523 -0.23511350075 -0.35417100984 -0.20466310707 -0.27653242975 -0.37388690803 -0.12386630067 
-0.31965592233 -0.42474911501 -0.046580948628 -0.35348199299 -0.49244896496 0.029244214294 -0.36323614341 -0.56767144119 0.0986536814 
-0.38391439232 -0.55044167218 0.17709728527 -0.37889108363 -0.5383329861 0.20125829698 -0.32115017017 -0.60177027007 0.15839667019 
-0.35906410167 -0.59113148548 0.18932233527 -0.3671604298 -0.58951258818 0.20047280322 -0.27692050712 -0.58738418797 0.11353363104 
-0.25743361443 -0.53144494376 0.098395020469 -0.25009897242 -0.49627506014 0.10213907376 -0.24103569593 -0.46916000955 0.11412670057 
-0.23305069339 -0.45644675902 0.12412027839 -0.23152661483 -0.46313787592 0.087656205903 -0.2423821103 -0.44878263236 0.06728793526 
-0.2586763612 -0.46805642325 0.056277900615 -0.27011766404 -0.49353960064 0.048757252611 -0.26697906842 -0.51939387266 0.064450933226 
-0.11727075503 -0.546902311 0.16828067031 -0.17721695865 -0.53867456109 0.13737715373 -0.051644542975 -0.55509920828 0.17110681931 
0.03686477313 -0.58754850268 0.15676945284 0.14380628517 -0.64275230351 0.13048926891 0.2513121256 -0.69257931138 0.099069297355 
0.36160154671 -0.73181606728 0.069705826677 0.4722289741 -0.75563462941 0.040853118611 0.56677510307 -0.76657969143 0.015970382678 
0.59870127974 -0.7157047315 -0.018495260775 0.57231023499 -0.63437772227 -0.10718705919 0.61726282538 -0.67938521625 -0.089213782214 
0.48037742086 -0.58163274176 -0.078508490363 0.38051146405 -0.5645980949 -0.01383013271 0.26931838414 -0.55486382104 0.074362042939 
0.21858247173 -0.62115827426 0.13332304308 0.1779865582 -0.67639086183 0.19288118823 0.2228177377 -0.69689697626 0.16772977888 
0.27020829721 -0.73743963403 0.13421599337 -0.23233904944 -0.54161520149 0.097625163811 -0.22388104022 -0.54289765014 0.057047968632 
-0.32245409354 -0.70692133312 -0.043838054129 -0.33683264745 -0.68185452632 -0.0002537422497 -0.1374589772 -0.56032726501 -0.34943411149 
-0.14495382298 -0.67429151805 -0.35118754418 -0.1499750593 -0.77607491923 -0.36461495156 -0.13797457494 -0.8053441388 -0.38519248857 
-0.091319091952 -0.79806037431 -0.3950153232 0.0035979039754 -0.74763352975 -0.3953912411 0.09247791216 -0.69991966511 -0.38646786818 
0.20869893351 -0.74372346479 0.17270639506 0.18902824996 -0.73986108984 0.22647358791 0.18811682091 -0.72753723124 0.25523699796 
0.22389816703 -0.70684322955 0.22542088115 0.26836061329 -0.68532886013 0.17360225519 0.30795690125 -0.68279075387 0.11550416181 
0.35660098178 -0.68414749034 0.058002678755 0.41394144776 -0.70110173708 0.044909371026 0.49679197751 -0.70049294901 0.019259431583 
0.44899667758 -0.75532689047 0.069576616153 0.35547699446 -0.74809180664 0.11026664733 0.29102639287 -0.7337391924 0.12761114211 
0.22147025638 -0.70601304797 0.14772208462 0.16320423339 -0.66049358168 0.17105783268 0.10314193199 -0.61809258647 0.19167581047 
0.053864951258 -0.59126127061 0.20345323188 -0.0058331073621 -0.5691785813 0.20677417172 -0.048134901304 -0.57163011118 0.1683913776 
-0.081093995202 -0.57025169719 0.12773573816 -0.079177706995 -0.56453421378 0.069459349644 -0.063473623778 -0.56596195765 0.01932403456 
-0.0081611683318 -0.57298864652 -0.016629787245 0.028855516155 -0.58511934156 -0.038194010413 0.034967463658 -0.603198266 -0.027360622248 
0.025747443679 -0.61333433394 -0.01534972253 -0.03487794531 -0.61221242502 0.007119956728 -0.10571890015 -0.5823527733 0.023063323791 
-0.14740303245 -0.55024826068 0.040157754278 -0.19352306116 -0.57672242062 0.066695324069 -0.19324998227 -0.54575963632 0.064602905067 
-0.21145015184 -0.6058724975 0.083151213687 -0.22032880693 -0.63287131678 0.099277757935 -0.2317718088 -0.63219136837 0.11274924561 
-0.2677741443 -0.62205156932 0.13073709366 0.48002697059 -0.57429975083 -0.10650171187 0.44845931476 -0.59569561117 -0.067765638704 
0.41905968112 -0.59719954416 -0.032195055655 0.41481162923 -0.53135074295 -0.085248039595 0.41158879606 -0.4796240728 -0.12799978617 
0.42929457335 -0.44957619136 -0.17166545194 0.40070870856 -0.4531495375 -0.23781584117 0.35849074883 -0.43515822955 -0.28625234251 
0.34063127675 -0.46138765925 -0.34098821416 0.28708312569 -0.50710331615 -0.37293516246 0.26364061824 -0.5448907847 -0.38939288145 
-0.37334583434 -0.58363694208 0.21480219166 -0.37161495508 -0.61665176002 0.19982633678 -0.37071915223 -0.63471190317 0.16299646892 
-0.34998343648 -0.66185027817 0.11483542814 -0.3381764073 -0.67994158059 0.074045824168 -0.33618722462 -0.63533109906 0.035111060662 
-0.32335756171 -0.64045399518 -0.05346514015 -0.3282820366 -0.58569285228 -0.01783170408 -0.32515528872 -0.66928617201 -0.076552538658 
-0.31467596705 -0.64382633808 -0.13531381144 -0.30400593775 -0.60731798611 -0.20852813599 -0.29408220508 -0.56768961402 -0.27150607516 
-0.27722813048 -0.52746122104 -0.34181875709 -0.24089225248 -0.46249233267 -0.35657639202 -0.2061057255 -0.39380769203 -0.42674525338 
-0.2035200886 -0.3928081758 -0.38629809661 -0.21182495661 -0.37062912819 -0.42861342863 -0.2165774446 -0.34119951099 -0.41084733418 
0.35156866516 -0.48217043008 -0.29733926677 0.37193032025 -0.468054755 -0.25503292202 0.42157592108 -0.50668643107 -0.18086729241 
0.22364504626 -0.76946633933 0.18373557515 0.37732841871 -0.74622241833 0.080508896274 0.29244383533 -0.73497208965 0.10043049929 
0.20521904937 -0.68412458221 0.12801826191 0.11314332858 -0.63221622267 0.1568270272 0.028382585262 -0.58811934589 0.18424298999 
-0.03693841006 -0.56702588157 0.19945950961 -0.088115910395 -0.57110244756 0.1879551604 -0.14137132061 -0.56847232296 0.14851080318 
-0.1692204932 -0.5668070892 0.092426070549 -0.16021505603 -0.56815953307 0.042932716674 -0.10864627279 -0.57206974099 0.0074682588951 
-0.069950544121 -0.57340926081 -0.019194382223 -0.11522145649 -0.55266700093 0.020667286978 -0.067147230521 -0.58763437489 0.0052410111651 
-0.23015239816 -0.58312555787 0.081620079853 -0.2218161176 -0.5350589475 0.079946560622 -0.2485271077 -0.61521334423 0.099346127729 
0.18194213248 -0.74171625908 0.23477509133 0.19476492105 -0.70048263681 0.24635938239 0.24333384159 -0.66766273309 0.20734511786 
0.29982920105 -0.6404747484 0.13846413141 0.37418817069 -0.6487894494 0.074307759579 0.43415436083 -0.66173261215 0.025297683251 
0.46777518601 -0.67493540179 0.011241627687 0.53797451101 -0.67293979851 -0.031113557348 0.50501933867 -0.63868601021 -0.040644871854 
0.42754418484 -0.60529319404 0.0054773423195 0.33658572883 -0.59262097242 0.073096185822 0.25124183595 -0.60936388286 0.15258341293 
0.19319857088 -0.66658200746 0.21635744395 0.17004899998 -0.71720407668 0.22616324846 0.1930160075 -0.74079997802 0.20624065781 
-0.30865903957 -0.5904692613 -0.11773562032 -0.29260666938 -0.54106821891 -0.19290134145 -0.26774075363 -0.50743916509 -0.270555828 
-0.2233780987 -0.51175469471 0.087143043973 -0.22491664107 -0.4939442681 0.095793931433 -0.20798531772 -0.51493053096 0.064572203612 
-0.2224210879 -0.50471081473 0.035989971422 -0.20522256156 -0.49251815468 0.041125250674 -0.23175522088 -0.51583757221 0.024987051411 
-0.2302286835 -0.52790278787 0.035471506168 -0.19155099688 -0.54339487603 0.024466106453 -0.31047532218 -0.51866441721 -0.088447904198 
-0.19697689376 -0.37440311026 -0.34691599682 -0.21874565943 -0.39599721024 -0.30717386493 -0.25499190942 -0.42834212076 -0.23601245703 
0.44501493025 -0.53044290567 -0.13301030909 -0.28058432267 -0.46373063702 -0.1652415855 -0.15041893051 -0.53168804158 0.010761722648 
-0.13409713097 -0.53104199369 0.018289710884 -0.16431571483 -0.54088973753 0.00082741680396 -0.06799928399 -0.438224258 0.28927577648 
-0.0091339144282 -0.5079878885 0.30161944335 0.32251126328 -0.49786450515 -0.074151900764 -0.13816772978 -0.28236087626 -0.43868843011 
-0.18708333659 -0.33590162134 -0.38950228486 -0.059290744489 -0.58343786059 -0.0036899565414 -0.062643627743 -0.57984529183 -0.011139470485 
-0.18823797168 -0.50498811413 0.045985775209 
I1_Pt 1 1114 double
1.7933472184 1.8285676121 1.8306746384 1.8052357162 1.846249241 1.8603783099 1.8593691777 1.87488261 1.8540554937 
1.84871144 1.8210154678 1.7951585843 1.7747637965 1.7483379253 1.7519848384 1.7167354265 1.7739460432 1.7456624256 
1.8193603189 1.8085377017 1.8655078299 1.8663329645 1.9153382431 1.9226564272 1.9598467888 1.9314860388 1.916142676 
1.9068464644 1.9098312783 1.9134383773 1.8994260498 1.8830271934 1.9178567281 1.8862951256 1.9531413848 1.9055712873 
1.957238419 1.9099098486 1.9587405354 1.9195055999 1.9734615583 1.9261661462 1.9606802286 1.9117432512 1.9479086003 
1.9025939219 1.9348025918 1.8994914388 1.9185839722 1.8960533432 1.8939348339 1.8755621756 1.850691422 1.8372898309 
1.8293364962 1.7955275511 1.8058289328 1.7853950727 1.7895858994 1.7944279826 1.8148783687 1.8242751477 1.8559782764 
1.8496471779 1.8484784587 1.8681134502 1.8500286367 1.872151901 1.88062818 1.8916342732 1.9252610466 1.8882996498 
1.9038427054 1.888582235 1.9256766354 1.8821557009 1.904504475 1.8477050611 1.8552443898 1.8143394041 1.81895941 
1.8042173069 1.8037884917 1.8012198616 2.0099293998 1.9567580204 2.066820906 2.0599223315 1.9246865632 2.0795828086 
1.9539582703 2.1094716878 1.9960236705 2.1362404622 2.0493481277 2.1684716976 2.0775693575 2.1730468931 2.1104675002 
2.1754018494 2.1530355375 2.1791378098 2.1781793107 2.1754037104 2.1837337006 2.1566160399 2.163158502 2.1222278935 
2.1178770127 2.0797531869 2.0974627856 2.0390188483 2.0987755389 2.0218297444 2.051878489 2.0058989375 2.0207748093 
1.9955358584 2.0011338474 1.996475568 1.9941717694 2.0351926768 2.0593515 2.0737582028 2.1456143673 2.1049054303 
2.1528458285 2.1385979442 2.1576944768 2.1634329117 2.161069806 2.1755342884 2.1633497996 2.1695110536 2.1649146817 
2.1568069473 2.164491413 2.1430649708 2.122742367 2.1280724478 2.0892979573 2.1111112195 2.0678693893 2.1195050831 
2.0975167883 2.1270830592 2.1414617724 2.1358576382 2.1787596695 2.1573590081 2.1881284895 2.1853813786 2.1689803998 
2.2242396706 2.2003013862 2.22921776 2.237782444 2.2329785475 2.2630724649 2.2429768785 2.2610896137 2.2598246377 
2.2373198312 2.2780526834 2.2408037652 2.2739291633 2.2311977308 2.2557350796 2.2009745109 2.2232939173 2.1796743934 
2.194824225 2.1612698238 2.1682415469 2.1322610947 2.1612920979 2.113838932 2.1639734131 2.1185339955 2.1656054161 
2.1513648106 2.1671058567 2.2074098051 2.1707449991 2.2106112186 2.1666838466 2.1982100168 2.1490299964 2.1350592954 
2.1401379409 2.0870904414 2.1355198045 2.081832394 2.142497775 2.0827685775 2.1409538329 2.0900060037 2.1254218135 
2.0575176048 2.0935350751 1.890009451 1.8617184922 1.8971754994 1.8806740429 1.8147949919 1.7416527675 1.7155446924 
1.741999525 1.7960304702 1.8565879129 1.9016084267 1.9130789156 1.9195847908 1.9074686511 1.889108182 1.8821979382 
1.8821761338 1.8869819454 1.9055744727 1.8990691696 1.9039654284 1.9126727688 1.9205786137 1.9162802806 1.8631918404 
1.8253538698 1.7912278436 1.7837252451 1.790782121 1.8096663037 1.8408489089 1.8691185625 1.8810877225 1.8764175211 
1.8830913706 1.8859946231 1.8806807424 1.8598972139 1.8508683706 1.8598388403 1.8729495828 1.8633732782 2.0954880411 
2.0889445994 2.1117570414 2.143696061 2.180539192 2.2032208634 2.1999353953 2.1900636574 2.1869549369 2.1454823969 
2.0975953965 2.0531455237 2.008853152 1.9770348814 1.9572037855 1.9435204196 1.9604480108 1.9996895993 2.0549360151 
2.1065956855 2.1420592979 2.1613769713 2.1669786952 2.158746224 2.1583568837 2.1625618367 2.1422837057 2.1279101755 
2.1195465575 2.1148848259 2.1045144967 2.1137423242 2.117719805 2.1468592755 2.16055242 2.1664034896 2.1748575157 
2.1994335428 2.2271535504 2.2334991323 2.2145262013 2.1945221494 2.1826387794 2.1749397507 2.1812139395 2.1905067002 
2.2006669931 2.2070365264 2.2129998066 2.2168306909 2.2083935843 2.1928084679 2.184417131 2.1815630046 2.173942188 
2.1634294576 2.1322919569 2.1057231193 2.1604278861 2.1499429186 1.8451582321 1.9045683013 1.7874217673 1.7486812236 
1.7452732456 1.7868271514 1.8453172525 1.8943264927 1.9133793788 1.9360211201 1.9193642107 1.9042007811 1.8992182149 
1.8992578266 1.9074174894 1.915362711 1.9122442796 1.9147573307 1.9188349541 1.9235939892 1.9342228621 1.8578009761 
1.8952526618 1.8275805438 1.8199308129 1.8271930278 1.8422977564 1.8634677716 1.8770540651 1.8874920347 1.8865366813 
1.8879978492 1.8932255761 1.9024315351 1.941636673 1.974001835 2.0030951041 2.0103684497 1.9841779275 1.9585018044 
1.942866853 1.9318204021 1.9489325496 2.1510304275 2.130517662 2.1433850847 2.136534133 2.1264610667 2.115288722 
2.1037036692 2.0982299489 2.101103135 2.0751857239 2.0787979536 2.0878379555 2.1045715503 2.1238152471 2.142949386 
2.1384746041 2.1347213863 2.133549026 2.1481965861 2.1633726965 2.1730296425 2.185874904 2.2045805523 2.2367706394 
2.2662764892 2.2595525648 2.2486767744 2.233670589 2.2231935105 2.2128744494 2.1903394539 2.1621882795 2.1265861157 
2.0984430248 2.0909887157 2.1026404935 2.123982901 2.1418237286 2.1731687722 2.1841533399 2.1756096003 2.1643847361 
2.1291475676 2.0963884336 2.0662584287 2.0358783861 2.0102387831 1.9871405611 1.9628843993 1.9480925894 1.952606828 
2.0004194861 2.0532440371 2.1039153133 2.1434459848 2.1682510603 2.1728448992 2.1710715624 2.1271468017 2.0881611899 
2.1202620952 2.0523739843 2.0879986146 2.11114558 1.9615682288 1.9783985643 1.933437473 1.9025952387 1.8767737799 
1.8694727213 1.8755120442 1.8928063644 1.8957293488 1.902460075 1.9033553903 1.9064480842 1.898821672 1.9020481211 
1.9131624199 1.9299808881 2.0558916313 2.0355644437 2.0582903263 2.0493172578 2.0251930668 2.0038405511 1.8562055045 
1.908987723 1.8132032478 1.7876831329 1.7841962826 1.8144736141 1.8532305617 1.8899313976 1.937942764 1.9577004491 
1.9687718813 1.945591464 1.9190160395 1.9094316196 1.917524872 1.9190886561 1.9159326848 1.9090254929 1.8972828608 
1.8908282516 1.9097541436 1.9225914757 1.9251132313 1.9617596977 1.9514758093 1.9756105908 1.9396606708 1.9675456577 
1.9881550575 1.996896949 1.9896442843 1.9543128257 2.1146241396 2.1059407793 2.0995994665 2.0948848208 2.0950093132 
2.1026215907 2.1134614066 2.1229889306 2.1184242794 2.1065094642 2.0781768003 2.0704910361 2.0628456209 2.0619030943 
2.0666277475 2.0653020022 2.060000461 2.0579290173 2.0844939938 2.1120726363 2.1400118967 2.1728784738 2.2076171698 
2.2304641278 2.259261033 2.2841173989 2.2825487811 2.2670781455 2.2403566509 2.2135791785 2.185387592 2.1506526226 
2.1099251797 2.0482299318 2.0553118724 2.0582227322 2.0763466893 2.1030182561 2.1232716523 2.1419285323 2.1527969639 
2.1418634376 2.1031694176 2.0685549714 2.038453935 2.0149746576 2.0022309779 1.987529773 1.9790635043 1.9630754514 
1.95560174 2.0216374844 1.9811256655 2.0555034056 2.081416251 2.1125846672 2.1396383026 2.1525964735 2.1227530412 
2.0779149674 2.0271030475 1.9876022495 2.0113845728 1.9483490436 2.0521623246 2.0727686608 2.0739025849 2.0762551447 
2.0903260736 2.1008768879 1.9522971122 2.004987206 1.9079328727 1.9056120053 1.9347199167 1.8673287403 1.9746280121 
2.0035011969 2.0188800151 2.0215039578 2.0384290141 2.0586626371 2.0968659838 1.9499205328 1.9532146108 1.9518520245 
1.9275231237 1.9097113788 1.8985681057 1.916301337 1.9372722311 1.9398624535 1.9327796823 1.9256599181 1.9126547439 
1.9178732319 1.9127155954 1.9173425891 1.9326902314 1.9414012934 1.9678254258 1.9419871947 1.9908949349 2.0190337528 
2.035058991 2.0422504403 2.040431756 2.0457415968 2.0443297612 1.9847806638 2.0491984005 1.9825793243 2.032189718 
2.018944198 2.0065454645 1.9909697535 1.9642816081 1.9227261797 1.8866934202 1.8555986507 1.8266288103 1.8266463859 
1.8561505402 1.907282877 1.956507169 2.0131787351 2.0375566907 1.9421166064 1.980170418 1.9137455102 1.903908219 
1.8953133205 1.8954482798 1.8914015297 1.8819166502 1.8753966845 1.8767567817 1.9021590684 1.9006602144 1.8936799858 
1.9556835118 1.916960129 1.9753054178 1.9728422978 2.0130842916 2.0633631176 2.1071566034 2.1147966831 2.1163710764 
2.1046393903 2.1109481915 2.1025038876 2.0844277569 2.0599695446 2.0456942943 2.039965628 2.0411460279 2.0367991469 
2.0168649471 2.0044953722 2.0137831128 2.0445332146 2.1099018903 2.1490553559 2.17544879 2.198536294 2.2341892952 
2.2499859932 2.2544935493 2.2525138087 2.2407373285 2.2183687165 2.1812011287 2.1288917305 2.0631005556 1.9992709977 
2.0393803947 2.0214750912 2.0629208348 2.0866277234 2.1228559164 2.1483751793 2.1451679549 2.1200565954 2.0789391049 
2.0281476612 1.9925448601 1.9849103654 1.9858320893 1.9950454473 1.9906644777 1.9851680922 1.9723248446 1.9783189898 
1.9627128499 1.9764894968 1.9510959077 1.9580333291 1.9781184608 1.993445011 2.0115727727 2.034617138 2.0752440243 
1.9884079904 1.9520077413 2.0789187575 2.0847114584 2.0961138203 2.064612863 2.108371743 2.1072222747 2.0945943482 
2.0812126425 2.0601445962 2.0345721637 2.0082335958 2.0032063958 1.9966043662 1.9810999138 1.9693491551 1.973631391 
2.0182512416 2.1047210319 2.1319701097 2.1479959109 2.1625905961 2.1730825481 2.182713114 2.1970209205 2.2041664782 
2.2050384728 2.1879394177 2.1574066396 2.1077067207 2.060454431 1.9770001534 1.9291594399 1.9248076846 1.8837640686 
1.9599497493 1.9840635639 2.0094349039 2.035396472 2.0608421497 2.0768240966 2.0932112934 2.0951685239 2.0902399704 
2.0723175629 2.0088138802 1.9855170027 1.9607810266 1.9587322956 1.9638673876 1.976564533 1.9843563286 1.9769469596 
1.9647395487 1.9664691769 1.9550794188 1.9487494095 1.9468007366 1.9448160954 1.9493130876 1.9520114099 1.9432539745 
1.9605129874 1.9361006454 1.9192283081 1.9302527325 1.9412440036 1.9492964408 1.9426782696 1.9296246541 1.9179512397 
1.9065257966 1.8916761029 1.8819118853 1.8936662477 1.909872035 1.9255309087 1.9111835168 1.9225767057 1.8891990301 
1.9699582728 1.9801948559 1.998146417 2.015752032 2.0282619525 2.0458362601 2.0604134661 2.0663370482 2.0391325914 
2.0223908518 2.016926218 2.0140729613 2.0209113045 2.0112058701 1.9990075127 1.9697233074 1.9449404402 1.925266362 
1.9218679451 1.9524919194 2.0122962863 2.0446905591 2.0621479411 2.0785127092 2.0682533328 2.0594475737 2.0518034362 
2.058121558 2.0215471225 1.9915800179 1.9493174095 1.9076340506 1.8975748109 1.8937874 1.8890201365 1.8751312776 
1.8696647192 1.8659366411 1.8570302002 1.8620536659 1.8762350938 1.8875706906 1.9358637614 1.9055693924 1.9473292283 
1.9644511182 1.9651519086 2.0827728222 2.0254242205 1.9951840993 1.972289429 1.9767826416 1.9840055297 1.982695784 
1.981200995 2.0019069739 2.0171016815 2.0870742705 2.0688853487 2.0975469869 2.0848462736 2.0970468052 2.1119056819 
2.1293477324 2.1406534237 2.1353183762 2.1225529182 2.0927522242 2.049402813 1.9902927844 1.9412812839 1.9180243006 
1.8740127914 1.8755635756 1.8761019636 1.8901981275 1.9299166766 1.960772971 1.9790211713 1.9942266719 2.0132858031 
2.0206828187 2.0273431764 2.0195220666 2.01616701 1.9991255079 1.9688604795 1.916099999 1.9329281919 1.9290667754 
1.9512323772 1.9685928387 2.0475889041 2.0301418781 1.9474682476 1.9551521713 1.93405864 1.960744289 1.949653453 
1.9425565052 1.9414156362 1.9191190987 1.916610984 1.9161767303 1.920542789 1.9250540261 1.9302872882 1.9272490572 
1.9151539162 1.8817699987 1.8691837192 1.8728312095 1.8736891285 1.8841479419 1.8962045915 1.8992944009 1.9295022536 
1.9128974592 1.9444934918 1.9721286213 1.9788699113 1.9845412651 1.9953324332 2.0133834434 2.0235898885 2.0105294726 
2.002616232 2.0024576881 2.0176846529 2.0311034464 2.0425544581 2.0473461983 2.0441032147 2.0363514424 2.02284595 
2.0048141208 2.0150752537 2.024383339 2.0409152948 2.0767074136 2.0778428308 2.0663387678 2.0441297679 2.0241212816 
2.0265535229 2.0209600715 2.0386069444 2.0242992957 2.000770785 1.9712454647 1.9463236567 1.9402205011 1.9200159643 
1.899768569 1.8588646713 1.8592652049 1.8623993679 1.8423723239 1.8372590903 1.8400577067 1.8525299458 1.8724753518 
1.9001578208 1.9276001629 1.9287316797 1.9484532053 1.8932931265 1.8718063567 1.8387516766 1.8534326667 1.8884183545 
1.9155579909 1.9410820722 1.9723458172 1.983841293 1.9921093162 2.0217591763 2.0514203249 2.0367263862 2.0385889044 
2.0574495913 2.0249357559 2.0891999093 2.0739525369 1.9306251715 1.9453751108 1.9013672709 1.8920516355 1.8946043052 
1.8935350799 1.8935659602 1.8919405836 1.8839501382 1.8754080204 1.8897921756 1.8867838402 1.8911365823 1.9343667263 
1.9655281332 1.9594424543 1.9052142612 1.8986792279 1.9175598489 1.9441149366 1.9608256474 1.9557276755 1.973546824 
1.9878490456 1.9963860552 1.9907662081 1.9829948343 1.9887948604 1.9863048113 1.9982164344 2.0170310406 2.0490891429 
2.0695414615 2.0773378434 2.0789734449 2.0685439597 2.0576268731 2.0536916132 2.0674365072 2.0597284609 2.0541044801 
2.031708514 2.0153614158 2.0048925769 2.0253588506 2.0012151469 2.0027627639 1.9384739455 1.9149120745 1.9202307011 
1.9030037995 1.8843834445 1.8586052707 1.8389842172 1.8337913295 1.8309607497 2.063201288 2.0254928213 1.9839784529 
1.9791686439 1.992885872 2.0035214994 2.0147717719 2.0205546505 2.0435303428 2.0573427214 2.0672182842 2.0771629696 
2.0778071944 2.0603629914 2.0421021874 2.0344427222 2.0299101173 2.0475480476 2.0660817119 2.0789794689 2.0802188572 
2.0704269338 2.0450488753 1.9943961561 1.9406195687 1.8989749615 1.876724478 1.8997377974 1.8800489707 1.8987289164 
1.892332194 1.9031344545 1.9297525493 1.9299841198 2.0025693014 2.0076791064 2.0109319317 2.0089171996 2.0088584797 
1.9887893366 1.9599110965 1.9632001788 1.9556949491 1.9144209888 1.8922233902 1.960283067 1.9472546629 1.9310185912 
1.9252104588 1.9263006799 1.8892653638 1.8847421086 1.8797642652 1.9084798021 1.8984364856 1.8916128981 1.8977047683 
1.9173056102 1.8852176009 1.9071935325 1.8901240847 1.9472001044 1.9559031972 1.9612956203 1.9790320165 1.9888627838 
2.0189357597 2.0826847896 2.0639699791 2.0453340807 2.0234129714 1.9996287548 1.9886827906 1.9982960964 2.0189999637 
2.0281965124 2.031194167 1.9989617747 1.9765214668 1.8983705506 1.8800833613 1.8923349025 1.8955482449 1.9048359638 
1.9887495919 1.9805852278 1.9965316855 2.0280365607 2.0494400901 2.0582290022 2.0613445406 2.068628917 2.0715419458 
2.0683120355 2.0536887426 2.0229250508 1.9893899802 1.9914560131 1.9962153246 1.8772804017 1.8717316009 1.8725488311 
1.9202212461 1.937995652 1.9220803976 1.9544689706 1.9437598482 1.9771287223 1.9891059598 2.0019728927 1.8730113537 
1.883062887 1.8755460268 1.8749755307 1.979107769 1.8727294871 1.9593127991 1.9296498708 1.9827056872 1.9488579195 
1.9450064025 2.1051484918 1.9598645422 1.9480740574 1.9049559967 1.9389008376 1.9282136805 
IAS 1 1114 double
0 0 0 0 0 0 0 0 0 
0 0 0 0 0 0 0 0 0 
0 0 0 0 0 0 0 0 0 
0 0 0 0 0 0 0 0 0 
0 0 0 0 0 0 0 0 0 
0 0 0 0 0 0 0 0 0 
0 0 0 0 0 0 0 0 0 
0 0 0 0 0 0 0 0 0 
0 0 0 0 0 0 0 0 0.32755940185 
0.37673244617 0.83372257104 0.80254588229 0 0 0 0 0 0 
0 0 0 0 0 0 0 0 0 
0 0 0 0 0 0 0 0 0 
0 0 0 0 0 0 0 0 0 
0 0 0 0 0 0 0 0 0 
0 0 0 0 0 0 0 0 0 
0 0 0 0 0 0 0 0 0 
0 0 0 0 0 0 0 0 0 
0 0 0 0 0 0 0 0 0 
0 0 0 0 0 0 0 0 0 
0 0 0 0 0 0 0 0 0 
0 0 0 0 0 0 0 0 0 
0 0 0 0 0 0.27988748432 0.31868372145 0.84449779884 0.88133860667 
0.57984967559 0.54000354987 0 0 0 0 0 0 0 
0 0 0 0 0 0 0 0 0 
0 0 0 0 0 0 0 0 0 
0 0 0 0 0 0 0 0 0 
0 0 0 0 0 0.47670195137 0.76166709793 0.0053127446635 0 
0 0 0 0 0 0 0 0 0 
0 0 0 0 0 0 0 0 0 
0 0 0 0 0 0 0 0 0 
0 0 0 0 0 0 0 0 0 
0 0 0 0 0 0 0 0 0 
0 0 0 0 0 0 0 0 0.35770613159 
0.92198963493 0.49517221571 0 0 0 0 0 0 0 
0 0 0 0 0 0 0 0 0 
0 0 0 0 0 0 0 0 0 
0 0 0 0 0 0 0 0 0 
0 0 0 0 0 0.46308131328 0.77865949758 0.056545912367 0 
0 0 0 0 0 0 0 0 0 
0 0 0 0 0 0 0 0 0 
0 0 0 0 0 0 0 0 0 
0 0 0 0 0 0 0.37340774694 0.94414606877 0.45585463877 
0 0 0 0 0 0 0 0 0 
0 0 0 0 0 0 0 0 0 
0 0 0 0 0 0 0 0 0 
0 0 0 0 0 0 0 0 0 
0 0 0 0 0 0 0 0 0 
0 0 0.52159097096 0 0.79072761137 0.10880313871 0 0 0 
0 0 0 0 0 0 0 0 0 
0 0 0 0 0 0 0 0 0 
0 0 0 0 0 0 0 0 0 
0 0 0 0 0 0 0 0 0 
0 0 0 0 0 0 0 0 0 
0 0 0 0 0 0 0 0 0 
0 0 0 0 0 0 0 0 0.35681208106 
0.94275017229 0.35347943363 0 0 0 0 0 0 0 
0 0 0 0 0 0 0 0 0 
0 0 0 0 0 0 0 0 0 
0 0 0 0 0 0 0 0 0 
0 0 0 0 0 0 0 0 0 
0 0 0 0 0 0 0 0 0 
0 0 0 0 0 0 0 0 0 
0 0 0 0 0 0 0 0 0 
0.50427113156 0.80836684708 0.16699383459 0 0 0 0 0 0 
0 0 0 0 0 0 0 0 0 
0 0 0 0 0 0 0 0 0 
0 0 0 0 0 0 0 0 0 
0 0 0 0 0 0 0 0 0 
0 0 0 0 0 0 0 0 0 
0 0 0 0 0 0 0 0 0 
0 0 0 0 0 0 0.31899731159 0.85125048055 0.61407210548 
0 0 0 0 0 0 0 0 0 
0 0 0 0 0 0 0 0 0 
0 0 0 0 0 0 0 0 0 
0 0.18182188362 0 0 0 0 0 0 0 
0 0 0 0 0 0 0 0 0 
0 0 0 0 0 0 0 0 0 
0 0 0 0.24578503044 0.74535516339 0.77172429306 0.40928692653 0 0.1274938114 
0 0 0 0 0 0 0 0 0 
0 0 0 0 0 0 0 0 0 
0 0 0 0 0 0 0 0 0 
0 0 0 0 0 0 0 0 0 
0 0 0 0 0 0 0 0 0 
0 0 0 0.54314227475 0.80491676657 0.2043686296 0 0 0 
0 0 0 0 0 0 0 0 0 
0 0 0 0 0 0 0 0 0 
0 0 0 0 0 0 0 0 0 
0 0 0 0 0 0 0 0 0 
0 0 0 0 0 0 0 0 0 
0 0 0 0 0 0 0 0 0 
0 0 0 0 0 0.17934219681 0.63755607253 0.93007572918 0.61911771528 
0.37836423659 0 0.15863644705 0 0 0 0 0 0 
0 0 0 0 0 0 0 0 0 
0 0 0 0 0 0 0 0 0 
0 0 0 0 0 0 0 0 0 
0 0 0 0 0 0 0 0 0 
0 0 0 0.040623260938 0.57410078941 0.84062175567 0.27588549808 0 0 
0 0 0 0 0 0 0 0 0 
0 0 0 0 0 0 0 0 0 
0 0 0 0 0 0 0 0 0 
0 0 0 0 0 0 0 0 0 
0 0 0 0 0 0 0 0 0 
0 0 0 0 0 0 0 0 0 
0 0 0 0 0 0 0 0 0 
0 0 0 0 0 0 0 0 0 
0 0 0 0 0 0 0.075885976699 0.54400133436 0.86389587769 
0.36694692418 0 0 0 0 0 0 0 0 
0 0 0 0 0 0 0 0 0 
0 0 0 0 0 0 0 0 0 
0 0 0 0 0 0 0 0 0 
0 0 0 0 0 0 0 0 0 
0 0 0 0 0 0 0 0 0 
0 0.1116023419 0.52770435655 0.90234288873 0.80581507398 0.61193820759 0.42707922595 0 0 
0 0 0 0 0 0 0 0 0 
0 0 0 0 0 0 0 0 0 
0 0 0 0 0 0 0 0 0 
0 0 0 0 0 0 0 0 0 
0 0 0 0 0 0 0 0 0 
0 0 0 0.06268747158 0.85810204688 0.94418749261 0 0 0 
0 0 0 0 0 0 0 0 0 
0 0 0 0 0 0 0 0 0 
0 0.031921481784 0.24411326154 0.40688405791 0.8270297802 0.027235326445 0 0 0 
0 0 0 0 0 0.42536339553 0.79532999486 0.054456021045 0 
0 0 0 0 0.79731551626 0.45295929481 0.74429733009 
J_Pt 1 1114 double
0.89436460609 0.91174121348 0.91212794541 0.90015491397 0.91829934505 0.92597338931 0.92329849202 0.93169974005 0.92108213349 
0.9187499913 0.9064026438 0.89300734039 0.88441307238 0.87127528405 0.87405210839 0.856495912 0.88562323916 0.87128325752 
0.90786113504 0.90222582247 0.92893956648 0.93007735716 0.95135373364 0.95689282862 0.97414396687 0.96156304821 0.95260819484 
0.94876395463 0.94970627509 0.95246597052 0.9458058334 0.93875958378 0.95560212579 0.94065959312 0.97383904113 0.95016347729 
0.97666102163 0.95210144263 0.97750338364 0.95652052753 0.98458056271 0.95969717828 0.97783319956 0.9523184684 0.97068633901 
0.94683437321 0.96331861766 0.94434482211 0.95454000859 0.94199212165 0.941852304 0.93174097474 0.9201104041 0.91313024982 
0.91039862564 0.89326187991 0.8993414835 0.88931564869 0.89145275892 0.89399461883 0.90454588754 0.90918781351 0.92460865042 
0.92172490857 0.91983316974 0.93079168665 0.92013403761 0.93262133613 0.93576232672 0.94261586494 0.95854554605 0.94149187115 
0.94900755841 0.94146172618 0.95950713837 0.93816738735 0.94866893839 0.92117955704 0.92441813407 0.90376850055 0.90664238629 
0.89827342037 0.89905961811 0.89755530662 1.0037318299 0.97778213903 1.0299177284 1.0267967781 0.96220156809 1.0362073703 
0.97676682525 1.0516981037 0.99775303215 1.06574913 1.0243899795 1.0826834697 1.0378522427 1.0844051365 1.0537598356 
1.0852368008 1.0747276016 1.0872798483 1.0869521942 1.0853734881 1.089336936 1.0759918416 1.0785944769 1.0591344162 
1.0559598786 1.0381953783 1.0456489068 1.0180932423 1.0461767231 1.0098826639 1.0240862934 1.0022070189 1.0089306314 
0.99692958295 0.99885026186 0.99683973743 0.99455208373 1.0150594896 1.0255609625 1.0333497034 1.0673939598 1.0482743937 
1.0733843232 1.0658205597 1.0770542887 1.0791357679 1.0793857915 1.0861751644 1.0812361314 1.083733104 1.0820869512 
1.077803412 1.081526582 1.0706267726 1.0594406539 1.0623337566 1.0412726711 1.052831584 1.028773499 1.0550366158 
1.0425369916 1.0573169884 1.0637562847 1.0604427797 1.0822037402 1.0717148654 1.0873156088 1.0859412056 1.0788112117 
1.1038237809 1.0930596067 1.1064342188 1.1102636769 1.108570301 1.1228620559 1.1141344529 1.1228269981 1.1225979955 
1.1126903848 1.131320756 1.1123588361 1.1278485017 1.10603347 1.1171280333 1.0902676191 1.0991962227 1.0789241516 
1.0841304325 1.0691909086 1.0707355885 1.0574256681 1.0700292505 1.0507906863 1.0736315158 1.0553583312 1.0771904686 
1.0725845019 1.0802304554 1.1002549391 1.0834324035 1.1016256406 1.0818839241 1.0952862485 1.0733844584 1.0649917162 
1.0688158127 1.0419164921 1.0663410008 1.0391511855 1.069571211 1.0395037342 1.0684874512 1.0430280024 1.0602728849 
1.0270805261 1.0440015686 0.9423759768 0.92874174564 0.94382389617 0.93471716712 0.90356308056 0.86865707592 0.85645212455 
0.86972975288 0.89647167726 0.9262194453 0.94847696902 0.9539354504 0.95685450835 0.95122990822 0.9426885866 0.93956258322 
0.93921289607 0.94085848852 0.94985824078 0.94626758334 0.94854895618 0.95273523727 0.95621490949 0.95324991153 0.92575518046 
0.90778705198 0.89159206715 0.88864917003 0.89234343586 0.90165056415 0.91775405684 0.9319946871 0.93796576328 0.93563443586 
0.93953243608 0.94103163747 0.93870953327 0.92909089752 0.92361900843 0.92748966895 0.93423042802 0.93004130707 1.041693756 
1.0381823418 1.0506719608 1.0679862426 1.0875755092 1.0994563444 1.0976864336 1.0922673742 1.0907540642 1.0700880333 
1.0464188466 1.0249134534 1.0034895041 0.98803556061 0.97835378826 0.97138651714 0.9792479909 0.99762284468 1.0235321232 
1.0486764454 1.06678368 1.077329544 1.0812893258 1.0777364275 1.0782806939 1.0803987261 1.0696563099 1.061693944 
1.0565104478 1.0532426796 1.0476641732 1.052733709 1.0559719116 1.0694640992 1.0755852956 1.0783094064 1.0826348428 
1.0949205457 1.108228872 1.1099728115 1.0989373191 1.0873584869 1.0801794231 1.0754033526 1.0794959836 1.0863234366 
1.0935903248 1.0994729015 1.1040858273 1.1063750457 1.1022065618 1.0944333744 1.0903372614 1.0890194247 1.0846449329 
1.0784647142 1.0613934898 1.0467361759 1.0790330926 1.0725289475 0.91815562199 0.94632647861 0.89128215649 0.87350448802 
0.8718051695 0.89228648881 0.92122158287 0.94583184927 0.95544750816 0.96672116074 0.95866931772 0.95113163941 0.94875436829 
0.949068985 0.95275256618 0.95628677108 0.95426627203 0.95518070196 0.95687501753 0.95855887324 0.96348818988 0.92551923135 
0.94358406673 0.91153497123 0.90811665211 0.91176023775 0.9191773762 0.92981038441 0.93674922156 0.94210843394 0.94169972703 
0.94263613079 0.94572815235 0.95059112227 0.97033298707 0.98623661723 1.000244592 1.0039736761 0.99104060334 0.9781395624 
0.96989108843 0.96209764617 0.97123105499 1.0741974859 1.0628466045 1.0702863502 1.0663631118 1.0610422348 1.055166484 
1.0492175978 1.0468371022 1.0490773088 1.0357184927 1.0379831831 1.0417887761 1.0499885435 1.0595320973 1.0687876857 
1.0660682442 1.0624787346 1.0595993043 1.0648078288 1.0712023234 1.0773229017 1.0851525225 1.0957754337 1.113238236 
1.1291421845 1.1264879035 1.1215560537 1.1141252679 1.1088555426 1.1035398208 1.0915326355 1.0761707549 1.0562896565 
1.0406421661 1.03649647 1.0432329 1.055920633 1.0669221815 1.0843304867 1.0903279553 1.0860255963 1.0801025887 
1.0625853674 1.0463335666 1.0314216065 1.0164819225 1.0040064195 0.99304852056 0.98110780617 0.97301375671 0.9744436342 
0.99642236195 1.0212247827 1.045718911 1.0667396576 1.080451714 1.0832503849 1.0826888391 1.0604649619 1.0410006117 
1.0585275243 1.0236389197 1.0428932953 1.0546883933 0.97837942507 0.98751571159 0.96506084999 0.95028710715 0.93777889047 
0.93425106588 0.93727498727 0.94581973072 0.94692614626 0.9503427933 0.95078320674 0.9526098147 0.94887169331 0.9504535476 
0.95595583145 0.96435267183 1.0263457015 1.0163470761 1.0274933808 1.0227656018 1.0108385565 1.0000732267 0.9238179497 
0.94816522218 0.904529908 0.89305420052 0.89137095595 0.90622960519 0.92539214476 0.94373380879 0.96835735735 0.97838897272 
0.98418331283 0.97248460198 0.95921804604 0.9544969093 0.95855647132 0.95886649573 0.9567485458 0.95280168525 0.94656505008 
0.94276176797 0.95164537117 0.95850446849 0.96022798255 0.97922419751 0.97430028431 0.98685866321 0.96357096424 0.97699907814 
0.98866989229 0.9927301755 0.99395074882 0.97652125889 1.0561336344 1.0516783354 1.0483934414 1.0460280105 1.0461880499 
1.0501762967 1.0559604063 1.0608415567 1.0588021603 1.0523600875 1.0379190261 1.0336059345 1.029809845 1.029507475 
1.0321339132 1.0316365538 1.0281782486 1.0259416649 1.0370320961 1.0494221763 1.0624721945 1.0799462564 1.0981515501 
1.1101201461 1.125073151 1.1379996593 1.1374891237 1.1301474736 1.11734432 1.104148202 1.0896733955 1.0709750822 
1.0484955251 1.0175463127 1.0191691926 1.0220812779 1.0325335352 1.0473568391 1.058794169 1.0693378563 1.074925329 
1.0696557213 1.0505686021 1.0332417767 1.0180474598 1.0061702499 0.99983107015 0.992808171 0.98892336794 0.98109590542 
0.9772481448 1.0047209203 0.98639713551 1.0205726261 1.0341812389 1.0513799613 1.066517892 1.0732849609 1.0583744775 
1.0364133117 1.0110598252 0.9914610097 1.0040399422 0.97192770817 1.0250280253 1.0356999847 1.0361482257 1.0372261209 
1.0441654202 1.0494314177 0.97443445078 1.0002161475 0.95284037522 0.95048587243 0.9648712468 0.93169733381 0.98553707856 
1.0006226263 1.0087099348 1.0102508305 1.0186717548 1.0286707486 1.0477392123 0.97314356164 0.97555898688 0.97522428374 
0.9633305597 0.95457051278 0.9490468879 0.95799081794 0.96843644214 0.96959762369 0.96596601569 0.9623847637 0.95600993856 
0.95858323041 0.95595193656 0.95835643971 0.96586190202 0.97014680785 0.98340669402 0.9704498272 0.99476535621 1.008691213 
1.0164750933 1.0199362621 1.0188695847 1.0213059359 1.0204716277 0.98906040585 1.0224750241 0.98671867812 1.0126773657 
1.0043966406 0.99673251432 0.98864528308 0.97559965675 0.95712135182 0.94146625195 0.92721758557 0.91248810233 0.91198844959 
0.9260870433 0.95129733235 0.97624956965 1.0054439263 1.0180761299 0.97090458257 0.98994695127 0.95667647203 0.95156351945 
0.94708879104 0.94672033553 0.94424685317 0.9393924626 0.93590795519 0.93645771368 0.94936081999 0.94861178876 0.94494506775 
0.97647076203 0.9568064807 0.98650976324 0.98530839826 1.0063549413 1.0312569321 1.053199725 1.0568287424 1.0579385714 
1.0520537455 1.0550706671 1.0506331647 1.0414057853 1.0288921007 1.0216566982 1.0188733511 1.0196446015 1.0175368853 
1.0074841465 1.0008466406 1.0048938164 1.0195179871 1.0506258948 1.0704493333 1.0835604278 1.0949628705 1.1132788177 
1.1217513476 1.1240532188 1.1230315872 1.1172678819 1.1065249606 1.0883928533 1.06187578 1.0279278139 0.99509868878 
1.0137339403 1.0048047093 1.0262201212 1.0390091689 1.0581326122 1.071715327 1.0709260427 1.0589229638 1.0386099117 
1.013287069 0.99539470357 0.99137295783 0.9918709667 0.99662088601 0.99475815628 0.99224680813 0.98565588147 0.98870025322 
0.9802841418 0.98787414552 0.97202286588 0.97475384521 0.98337888753 0.99006760617 0.999610722 1.0126385098 1.0342561671 
0.98881452924 0.97210184873 1.0391207325 1.0419689979 1.0476644563 1.0314924995 1.0539935544 1.0533119145 1.046791115 
1.0399930354 1.0293170646 1.0164437969 1.0032045476 1.000791839 0.99754316721 0.98977815916 0.98398064521 0.98626296526 
1.0081022954 1.0498714682 1.0629920933 1.0710357253 1.0785509014 1.083952466 1.089135287 1.0963129948 1.0999485936 
1.1006489265 1.0924516304 1.0774673714 1.0525030187 1.0284665075 0.98603476051 0.96259964777 0.96042663086 0.94029375731 
0.9769286226 0.98820387736 1.0007635107 1.0141405458 1.0276230567 1.0364261319 1.0453916562 1.0466759539 1.0443958596 
1.0354678384 1.003837037 0.99194717862 0.97947945365 0.97853190107 0.98119629122 0.98774277744 0.99183860892 0.98796901479 
0.98183795695 0.9825852584 0.97623666011 0.9720925561 0.96871233714 0.96702044209 0.96850608524 0.96993837686 0.96816263222 
0.97944330067 0.96770613264 0.95946410486 0.96503091402 0.97044256367 0.97432635791 0.97076400191 0.96414981595 0.95841314427 
0.95244061577 0.94494062588 0.940215543 0.94632429945 0.95446863544 0.96227875575 0.95490257229 0.96062363664 0.94367768372 
0.98459627097 0.98972883666 0.99869300355 1.0074420192 1.0135696101 1.0221252603 1.0291803581 1.0319418246 1.0177385989 
1.0085520159 1.0049889808 1.0025085178 1.0053659017 1.0004380516 0.99507158349 0.98224519077 0.9712501486 0.96155605372 
0.95831391354 0.97196933741 1.0010452269 1.0183661684 1.0285828075 1.0377266294 1.033508848 1.0292245286 1.024952922 
1.0288063857 1.0106376215 0.99567026759 0.97442547461 0.95337978383 0.94793846998 0.94585313506 0.94346961699 0.93667818938 
0.93409163425 0.93209276212 0.92757990436 0.92943020431 0.93633881182 0.941818055 0.96634386838 0.95073539179 0.97214534498 
0.98075942751 0.98129033091 1.0409451634 1.0122558913 0.99718053002 0.98576582594 0.98769709114 0.99098543727 0.9904459801 
0.98982537161 1.0000386652 1.0074895324 1.0421996804 1.0333133726 1.0472812088 1.041208071 1.047352804 1.0548467273 
1.0637564637 1.0695046453 1.0668411891 1.0605037762 1.0457667638 1.0239686543 0.99388986141 0.96904797687 0.95761435857 
0.93546037918 0.93682804744 0.93728105519 0.94384285663 0.96351229079 0.97881744862 0.98805404675 0.99595865581 1.0056150252 
1.0096653798 1.0132471525 1.0094175057 1.0078106658 0.99915152613 0.98385765274 0.9573317147 0.9657235945 0.96394266912 
0.97504815045 0.98371966648 1.0228264352 1.0138991347 0.97321905748 0.97663903513 0.96635519207 0.97938613021 0.97357714738 
0.96777853118 0.96980804804 0.95906614064 0.95804948994 0.95804139529 0.96012652555 0.96221438798 0.9645051064 0.96262082696 
0.95604426481 0.93895418771 0.93281164412 0.93528142901 0.93599780626 0.94133533075 0.94730779054 0.94907264831 0.96446788752 
0.95580627252 0.97178868631 0.98585466023 0.98925987799 0.99210509753 0.99746781276 1.0064726772 1.0113476245 1.0045144454 
1.0002417792 0.99966847127 1.0065028733 1.01246889 1.01750738 1.0198138329 1.018967363 1.0159412979 1.0097542648 
0.99979451289 1.0030703442 1.0066022158 1.0141460359 1.0324162616 1.0351480093 1.0314776542 1.021242358 1.0107360029 
1.0116236059 1.0080855758 1.0182637228 1.0116738596 1.0000764824 0.98521435513 0.97261193469 0.96942825917 0.95919932569 
0.94892555738 0.92853756885 0.92893046907 0.93058098487 0.92043548494 0.91758148263 0.91896320595 0.92474922453 0.93336857265 
0.94719362464 0.96194585019 0.96206344565 0.97260101933 0.94528832968 0.93456469246 0.91829825724 0.92557879363 0.94256989108 
0.95544531332 0.96839406815 0.98491163241 0.99111556673 0.99557827513 1.0106004747 1.0254448425 1.0178002239 1.0175676614 
1.0271420257 1.0100945331 1.0438677211 1.0367020297 0.9642009702 0.97128099934 0.95021696667 0.94582785637 0.94697688843 
0.94626077041 0.94583731935 0.94447206571 0.939903396 0.93541686422 0.9433794141 0.94236589597 0.94465332065 0.96681659289 
0.98231517432 0.97948619639 0.9522779443 0.94896340778 0.95840046515 0.97176400171 0.98025275937 0.97750165302 0.98627636656 
0.99321237546 0.99729515954 0.99416613201 0.99056855447 0.99327073884 0.99216163424 0.99756621279 1.0061347618 1.0221665323 
1.0326165167 1.036514634 1.0372821091 1.0311431629 1.023651217 1.0228880058 1.0276349968 1.0245578385 1.0239272703 
1.0140216478 1.0069491472 1.0010820597 1.0105298874 0.9992911424 0.99966687836 0.96844221442 0.95644303151 0.95524079942 
0.94734435925 0.93903875559 0.92732532182 0.91837452318 0.91611763502 0.91473279153 1.0312991745 1.0124000333 0.99159538342 
0.98896319295 0.99548112109 1.0007421073 1.0062693668 1.0090029834 1.0200613428 1.0273920343 1.0325743075 1.0375545797 
1.0378796815 1.0293341796 1.0204145363 1.0168410956 1.0146538612 1.0234118116 1.0324271327 1.0386345928 1.0390459707 
1.0341975443 1.0214288322 0.99594845299 0.96887459385 0.94792550551 0.93704157014 0.94871877418 0.93953495578 0.94874757156 
0.94557174247 0.9507577904 0.96385522583 0.96423579351 1.0006703648 1.0023393148 1.0035724223 1.0029809427 1.0034552563 
0.99348067779 0.97939578495 0.98089132012 0.97654501565 0.95560255268 0.94468334919 0.97990126632 0.97320400137 0.96476079314 
0.96165665663 0.96215486332 0.94322324879 0.94138285392 0.9378806767 0.95340446367 0.94844312643 0.94520712455 0.94844158274 
0.95828911237 0.94217208773 0.9530798612 0.94466369402 0.97284380919 0.9766600651 0.97928051762 0.98883371522 0.99385827455 
1.0086092618 1.0400826037 1.0309626366 1.0216380047 1.0107838809 0.9991488387 0.99373301324 0.9984845067 1.0084759823 
1.0126009636 1.013630014 0.99723205552 0.98594730953 0.94750554881 0.9382757963 0.94581411094 0.94728899136 0.95197087919 
0.99388345833 0.98978014409 0.99718494068 1.0123422916 1.0225959361 1.0268884183 1.0285161503 1.0310643518 1.0318359902 
1.0300144383 1.0234774747 1.0093421618 0.99399734948 0.9947882274 0.99658244444 0.93767850112 0.93497191239 0.93575627876 
0.95968580913 0.96869805285 0.96043132911 0.97567438553 0.9705032441 0.98688996876 0.99279229976 0.99890225193 0.93460509642 
0.94124618024 0.93745781963 0.93677812798 0.98867983447 0.93510442943 0.97746463686 0.96279009963 0.98906203878 0.97151089945 
0.96767933773 1.0516231911 0.9782934611 0.97239992601 0.95060351508 0.96735880885 0.96273725549 
Label 4 1114 double
1 1 1 1 1 1 1 1 1 
1 1 1 1 1 1 1 1 1 
1 1 1 1 1 1 1 1 1 
1 1 1 1 1 1 1 1 1 
1 1 1 1 1 1 1 1 1 
1 1 1 1 1 1 1 1 1 
1 1 1 1 1 1 1 1 1 
1 1 1 1 1 1 1 1 1 
1 1 1 1 1 1 1 1 1 
1 1 1 1 1 1 1 1 1 
1 1 1 1 1 1 1 1 1 
1 1 1 1 1 1 1 1 1 
1 1 1 1 1 1 1 1 1 
1 1 1 1 1 1 1 1 1 
1 1 1 1 1 1 1 1 1 
1 1 1 1 1 1 1 1 1 
1 1 1 1 1 1 1 1 1 
1 1 1 1 1 1 1 1 1 
1 1 1 1 1 1 1 1 1 
1 1 1 1 1 1 1 1 1 
1 1 1 1 1 1 1 1 1 
1 1 1 1 1 1 1 1 1 
1 1 1 1 1 1 1 1 1 
1 1 1 1 1 1 1 1 1 
1 1 1 1 1 1 1 1 1 
1 1 1 1 1 1 1 1 1 
1 1 1 1 1 1 1 1 1 
1 1 1 1 1 1 1 1 1 
1 1 1 1 1 1 1 1 1 
1 1 1 1 1 1 1 1 1 
1 1 1 1 1 1 1 1 1 
1 1 1 1 1 1 1 1 1 
1 1 1 1 1 1 1 1 1 
1 1 1 1 1 1 1 1 1 
1 1 1 1 1 1 1 1 1 
1 1 1 1 1 1 1 1 1 
1 1 1 1 1 1 1 1 1 
1 1 1 1 1 1 1 1 1 
1 1 1 1 1 1 1 1 1 
1 1 1 1 1 1 1 1 1 
1 1 1 1 1 1 1 1 1 
1 1 1 1 1 1 1 1 1 
1 1 1 1 1 1 1 1 1 
1 1 1 1 1 1 1 1 1 
1 1 1 1 1 1 1 1 1 
1 1 1 1 1 1 1 1 1 
1 1 1 1 1 1 1 1 1 
1 1 1 1 1 1 1 1 1 
1 1 1 1 1 1 1 1 1 
1 1 1 1 1 1 1 1 1 
1 1 1 1 1 1 1 1 1 
1 1 1 1 1 1 1 1 1 
1 1 1 1 1 1 1 1 1 
1 1 1 1 1 1 1 1 1 
1 1 1 1 1 1 1 1 1 
1 1 1 1 1 1 1 1 1 
1 1 1 1 1 1 1 1 1 
1 1 1 1 1 1 1 1 1 
1 1 1 1 1 1 1 1 1 
1 1 1 1 1 1 1 1 1 
1 1 1 1 1 1 1 1 1 
1 1 1 1 1 1 1 1 1 
1 1 1 1 1 1 1 1 1 
1 1 1 1 1 1 1 1 1 
1 1 1 1 1 1 1 1 1 
1 1 1 1 1 1 1 1 1 
1 1 1 1 1 1 1 1 1 
1 1 1 1 1 1 1 1 1 
1 1 1 1 1 1 1 1 1 
1 1 1 1 1 1 1 1 1 
1 1 1 1 1 1 1 1 1 
1 1 1 1 1 1 1 1 1 
1 1 1 1 1 1 1 1 1 
1 1 1 1 1 1 1 1 1 
1 1 1 1 1 1 1 1 1 
1 1 1 1 1 1 1 1 1 
1 1 1 1 1 1 1 1 1 
1 1 1 1 1 1 1 1 1 
1 1 1 1 1 1 1 1 1 
1 1 1 1 1 1 1 1 1 
1 1 1 1 1 1 1 1 1 
1 1 1 1 1 1 1 1 1 
1 1 1 1 1 1 1 1 1 
1 1 1 1 1 1 1 1 1 
1 1 1 1 1 1 1 1 1 
1 1 1 1 1 1 1 1 1 
1 1 1 1 1 1 1 1 1 
1 1 1 1 1 1 1 1 1 
1 1 1 1 1 1 1 1 1 
1 1 1 1 1 1 1 1 1 
1 1 1 1 1 1 1 1 1 
1 1 1 1 1 1 1 1 1 
1 1 1 1 1 1 1 1 1 
1 1 1 1 1 1 1 1 1 
1 1 1 1 1 1 1 1 1 
1 1 1 1 1 1 1 1 1 
1 1 1 1 1 1 1 1 1 
1 1 1 1 1 1 1 1 1 
1 1 1 1 1 1 1 1 1 
1 1 1 1 1 1 1 1 1 
1 1 1 1 1 1 1 1 1 
1 1 1 1 1 1 1 1 1 
1 1 1 1 1 1 1 1 1 
1 1 1 1 1 1 1 1 1 
1 1 1 1 1 1 1 1 1 
1 1 1 1 1 1 1 1 1 
1 1 1 1 1 1 1 1 1 
1 1 1 1 1 1 1 1 1 
1 1 1 1 1 1 1 1 1 
1 1 1 1 1 1 1 1 1 
1 1 1 1 1 1 1 1 1 
1 1 1 1 1 1 1 1 1 
1 1 1 1 1 1 1 1 1 
1 1 1 1 1 1 1 1 1 
1 1 1 1 1 1 1 1 1 
1 1 1 1 1 1 1 1 1 
1 1 1 1 1 1 1 1 1 
1 1 1 1 1 1 1 1 1 
1 1 1 1 1 1 1 1 1 
1 1 1 1 1 1 1 1 1 
1 1 1 1 1 1 1 1 1 
1 1 1 1 1 1 1 1 1 
1 1 1 1 1 1 1 1 1 
1 1 1 1 1 1 1 1 1 
1 1 1 1 1 1 1 1 1 
1 1 1 1 1 1 1 1 1 
1 1 1 1 1 1 1 1 1 
1 1 1 1 1 1 1 1 1 
1 1 1 1 1 1 1 1 1 
1 1 1 1 1 1 1 1 1 
1 1 1 1 1 1 1 1 1 
1 1 1 1 1 1 1 1 1 
1 1 1 1 1 1 1 1 1 
1 1 1 1 1 1 1 1 1 
1 1 1 1 1 1 1 1 1 
1 1 1 1 1 1 1 1 1 
1 1 1 1 1 1 1 1 1 
1 1 1 1 1 1 1 1 1 
1 1 1 1 1 1 1 1 1 
1 1 1 1 1 1 1 1 1 
1 1 1 1 1 1 1 1 1 
1 1 1 1 1 1 1 1 1 
1 1 1 1 1 1 1 1 1 
1 1 1 1 1 1 1 1 1 
1 1 1 1 1 1 1 1 1 
1 1 1 1 1 1 1 1 1 
1 1 1 1 1 1 1 1 1 
1 1 1 1 1 1 1 1 1 
1 1 1 1 1 1 1 1 1 
1 1 1 1 1 1 1 1 1 
1 1 1 1 1 1 1 1 1 
1 1 1 1 1 1 1 1 1 
1 1 1 1 1 1 1 1 1 
1 1 1 1 1 1 1 1 1 
1 1 1 1 1 1 1 1 1 
1 1 1 1 1 1 1 1 1 
1 1 1 1 1 1 1 1 1 
1 1 1 1 1 1 1 1 1 
1 1 1 1 1 1 1 1 1 
1 1 1 1 1 1 1 1 1 
1 1 1 1 1 1 1 1 1 
1 1 1 1 1 1 1 1 1 
1 1 1 1 1 1 1 1 1 
1 1 1 1 1 1 1 1 1 
1 1 1 1 1 1 1 1 1 
1 1 1 1 1 1 1 1 1 
1 1 1 1 1 1 1 1 1 
1 1 1 1 1 1 1 1 1 
1 1 1 1 1 1 1 1 1 
1 1 1 1 1 1 1 1 1 
1 1 1 1 1 1 1 1 1 
1 1 1 1 1 1 1 1 1 
1 1 1 1 1 1 1 1 1 
1 1 1 1 1 1 1 1 1 
1 1 1 1 1 1 1 1 1 
1 1 1 1 1 1 1 1 1 
1 1 1 1 1 1 1 1 1 
1 1 1 1 1 1 1 1 1 
1 1 1 1 1 1 1 1 1 
1 1 1 1 1 1 1 1 1 
1 1 1 1 1 1 1 1 1 
1 1 1 1 1 1 1 1 1 
1 1 1 1 1 1 1 1 1 
1 1 1 1 1 1 1 1 1 
1 1 1 1 1 1 1 1 1 
1 1 1 1 1 1 1 1 1 
1 1 1 1 1 1 1 1 1 
1 1 1 1 1 1 1 1 1 
1 1 1 1 1 1 1 1 1 
1 1 1 1 1 1 1 1 1 
1 1 1 1 1 1 1 1 1 
1 1 1 1 1 1 1 1 1 
1 1 1 1 1 1 1 1 1 
1 1 1 1 1 1 1 1 1 
1 1 1 1 1 1 1 1 1 
1 1 1 1 1 1 1 1 1 
1 1 1 1 1 1 1 1 1 
1 1 1 1 1 1 1 1 1 
1 1 1 1 1 1 1 1 1 
1 1 1 1 1 1 1 1 1 
1 1 1 1 1 1 1 1 1 
1 1 1 1 1 1 1 1 1 
1 1 1 1 1 1 1 1 1 
1 1 1 1 1 1 1 1 1 
1 1 1 1 1 1 1 1 1 
1 1 1 1 1 1 1 1 1 
1 1 1 1 1 1 1 1 1 
1 1 1 1 1 1 1 1 1 
1 1 1 1 1 1 1 1 1 
1 1 1 1 1 1 1 1 1 
1 1 1 1 1 1 1 1 1 
1 1 1 1 1 1 1 1 1 
1 1 1 1 1 1 1 1 1 
1 1 1 1 1 1 1 1 1 
1 1 1 1 1 1 1 1 1 
1 1 1 1 1 1 1 1 1 
1 1 1 1 1 1 1 1 1 
1 1 1 1 1 1 1 1 1 
1 1 1 1 1 1 1 1 1 
1 1 1 1 1 1 1 1 1 
1 1 1 1 1 1 1 1 1 
1 1 1 1 1 1 1 1 1 
1 1 1 1 1 1 1 1 1 
1 1 1 1 1 1 1 1 1 
1 1 1 1 1 1 1 1 1 
1 1 1 1 1 1 1 1 1 
1 1 1 1 1 1 1 1 1 
1 1 1 1 1 1 1 1 1 
1 1 1 1 1 1 1 1 1 
1 1 1 1 1 1 1 1 1 
1 1 1 1 1 1 1 1 1 
1 1 1 1 1 1 1 1 1 
1 1 1 1 1 1 1 1 1 
1 1 1 1 1 1 1 1 1 
1 1 1 1 1 1 1 1 1 
1 1 1 1 1 1 1 1 1 
1 1 1 1 1 1 1 1 1 
1 1 1 1 1 1 1 1 1 
1 1 1 1 1 1 1 1 1 
1 1 1 1 1 1 1 1 1 
1 1 1 1 1 1 1 1 1 
1 1 1 1 1 1 1 1 1 
1 1 1 1 1 1 1 1 1 
1 1 1 1 1 1 1 1 1 
1 1 1 1 1 1 1 1 1 
1 1 1 1 1 1 1 1 1 
1 1 1 1 1 1 1 1 1 
1 1 1 1 1 1 1 1 1 
1 1 1 1 1 1 1 1 1 
1 1 1 1 1 1 1 1 1 
1 1 1 1 1 1 1 1 1 
1 1 1 1 1 1 1 1 1 
1 1 1 1 1 1 1 1 1 
1 1 1 1 1 1 1 1 1 
1 1 1 1 1 1 1 1 1 
1 1 1 1 1 1 1 1 1 
1 1 1 1 1 1 1 1 1 
1 1 1 1 1 1 1 1 1 
1 1 1 1 1 1 1 1 1 
1 1 1 1 1 1 1 1 1 
1 1 1 1 1 1 1 1 1 
1 1 1 1 1 1 1 1 1 
1 1 1 1 1 1 1 1 1 
1 1 1 1 1 1 1 1 1 
1 1 1 1 1 1 1 1 1 
1 1 1 1 1 1 1 1 1 
1 1 1 1 1 1 1 1 1 
1 1 1 1 1 1 1 1 1 
1 1 1 1 1 1 1 1 1 
1 1 1 1 1 1 1 1 1 
1 1 1 1 1 1 1 1 1 
1 1 1 1 1 1 1 1 1 
1 1 1 1 1 1 1 1 1 
1 1 1 1 1 1 1 1 1 
1 1 1 1 1 1 1 1 1 
1 1 1 1 1 1 1 1 1 
1 1 1 1 1 1 1 1 1 
1 1 1 1 1 1 1 1 1 
1 1 1 1 1 1 1 1 1 
1 1 1 1 1 1 1 1 1 
1 1 1 1 1 1 1 1 1 
1 1 1 1 1 1 1 1 1 
1 1 1 1 1 1 1 1 1 
1 1 1 1 1 1 1 1 1 
1 1 1 1 1 1 1 1 1 
1 1 1 1 1 1 1 1 1 
1 1 1 1 1 1 1 1 1 
1 1 1 1 1 1 1 1 1 
1 1 1 1 1 1 1 1 1 
1 1 1 1 1 1 1 1 1 
1 1 1 1 1 1 1 1 1 
1 1 1 1 1 1 1 1 1 
1 1 1 1 1 1 1 1 1 
1 1 1 1 1 1 1 1 1 
1 1 1 1 1 1 1 1 1 
1 1 1 1 1 1 1 1 1 
1 1 1 1 1 1 1 1 1 
1 1 1 1 1 1 1 1 1 
1 1 1 1 1 1 1 1 1 
1 1 1 1 1 1 1 1 1 
1 1 1 1 1 1 1 1 1 
1 1 1 1 1 1 1 1 1 
1 1 1 1 1 1 1 1 1 
1 1 1 1 1 1 1 1 1 
1 1 1 1 1 1 1 1 1 
1 1 1 1 1 1 1 1 1 
1 1 1 1 1 1 1 1 1 
1 1 1 1 1 1 1 1 1 
1 1 1 1 1 1 1 1 1 
1 1 1 1 1 1 1 1 1 
1 1 1 1 1 1 1 1 1 
1 1 1 1 1 1 1 1 1 
1 1 1 1 1 1 1 1 1 
1 1 1 1 1 1 1 1 1 
1 1 1 1 1 1 1 1 1 
1 1 1 1 1 1 1 1 1 
1 1 1 1 1 1 1 1 1 
1 1 1 1 1 1 1 1 1 
1 1 1 1 1 1 1 1 1 
1 1 1 1 1 1 1 1 1 
1 1 1 1 1 1 1 1 1 
1 1 1 1 1 1 1 1 1 
1 1 1 1 1 1 1 1 1 
1 1 1 1 1 1 1 1 1 
1 1 1 1 1 1 1 1 1 
1 1 1 1 1 1 1 1 1 
1 1 1 1 1 1 1 1 1 
1 1 1 1 1 1 1 1 1 
1 1 1 1 1 1 1 1 1 
1 1 1 1 1 1 1 1 1 
1 1 1 1 1 1 1 1 1 
1 1 1 1 1 1 1 1 1 
1 1 1 1 1 1 1 1 1 
1 1 1 1 1 1 1 1 1 
1 1 1 1 1 1 1 1 1 
1 1 1 1 1 1 1 1 1 
1 1 1 1 1 1 1 1 1 
1 1 1 1 1 1 1 1 1 
1 1 1 1 1 1 1 1 1 
1 1 1 1 1 1 1 1 1 
1 1 1 1 1 1 1 1 1 
1 1 1 1 1 1 1 1 1 
1 1 1 1 1 1 1 1 1 
1 1 1 1 1 1 1 1 1 
1 1 1 1 1 1 1 1 1 
1 1 1 1 1 1 1 1 1 
1 1 1 1 1 1 1 1 1 
1 1 1 1 1 1 1 1 1 
1 1 1 1 1 1 1 1 1 
1 1 1 1 1 1 1 1 1 
1 1 1 1 1 1 1 1 1 
1 1 1 1 1 1 1 1 1 
1 1 1 1 1 1 1 1 1 
1 1 1 1 1 1 1 1 1 
1 1 1 1 1 1 1 1 1 
1 1 1 1 1 1 1 1 1 
1 1 1 1 1 1 1 1 1 
1 1 1 1 1 1 1 1 1 
1 1 1 1 1 1 1 1 1 
1 1 1 1 1 1 1 1 1 
1 1 1 1 1 1 1 1 1 
1 1 1 1 1 1 1 1 1 
1 1 1 1 1 1 1 1 1 
1 1 1 1 1 1 1 1 1 
1 1 1 1 1 1 1 1 1 
1 1 1 1 1 1 1 1 1 
1 1 1 1 1 1 1 1 1 
1 1 1 1 1 1 1 1 1 
1 1 1 1 1 1 1 1 1 
1 1 1 1 1 1 1 1 1 
1 1 1 1 1 1 1 1 1 
1 1 1 1 1 1 1 1 1 
1 1 1 1 1 1 1 1 1 
1 1 1 1 1 1 1 1 1 
1 1 1 1 1 1 1 1 1 
1 1 1 1 1 1 1 1 1 
1 1 1 1 1 1 1 1 1 
1 1 1 1 1 1 1 1 1 
1 1 1 1 1 1 1 1 1 
1 1 1 1 1 1 1 1 1 
1 1 1 1 1 1 1 1 1 
1 1 1 1 1 1 1 1 1 
1 1 1 1 1 1 1 1 1 
1 1 1 1 1 1 1 1 1 
1 1 1 1 1 1 1 1 1 
1 1 1 1 1 1 1 1 1 
1 1 1 1 1 1 1 1 1 
1 1 1 1 1 1 1 1 1 
1 1 1 1 1 1 1 1 1 
1 1 1 1 1 1 1 1 1 
1 1 1 1 1 1 1 1 1 
1 1 1 1 1 1 1 1 1 
1 1 1 1 1 1 1 1 1 
1 1 1 1 1 1 1 1 1 
1 1 1 1 1 1 1 1 1 
1 1 1 1 1 1 1 1 1 
1 1 1 1 1 1 1 1 1 
1 1 1 1 1 1 1 1 1 
1 1 1 1 1 1 1 1 1 
1 1 1 1 1 1 1 1 1 
1 1 1 1 1 1 1 1 1 
1 1 1 1 1 1 1 1 1 
1 1 1 1 1 1 1 1 1 
1 1 1 1 1 1 1 1 1 
1 1 1 1 1 1 1 1 1 
1 1 1 1 1 1 1 1 1 
1 1 1 1 1 1 1 1 1 
1 1 1 1 1 1 1 1 1 
1 1 1 1 1 1 1 1 1 
1 1 1 1 1 1 1 1 1 
1 1 1 1 1 1 1 1 1 
1 1 1 1 1 1 1 1 1 
1 1 1 1 1 1 1 1 1 
1 1 1 1 1 1 1 1 1 
1 1 1 1 1 1 1 1 1 
1 1 1 1 1 1 1 1 1 
1 1 1 1 1 1 1 1 1 
1 1 1 1 1 1 1 1 1 
1 1 1 1 1 1 1 1 1 
1 1 1 1 1 1 1 1 1 
1 1 1 1 1 1 1 1 1 
1 1 1 1 1 1 1 1 1 
1 1 1 1 1 1 1 1 1 
1 1 1 1 1 1 1 1 1 
1 1 1 1 1 1 1 1 1 
1 1 1 1 1 1 1 1 1 
1 1 1 1 1 1 1 1 1 
1 1 1 1 1 1 1 1 1 
1 1 1 1 1 1 1 1 1 
1 1 1 1 1 1 1 1 1 
1 1 1 1 1 1 1 1 1 
1 1 1 1 1 1 1 1 1 
1 1 1 1 1 1 1 1 1 
1 1 1 1 1 1 1 1 1 
1 1 1 1 1 1 1 1 1 
1 1 1 1 1 1 1 1 1 
1 1 1 1 1 1 1 1 1 
1 1 1 1 1 1 1 1 1 
1 1 1 1 1 1 1 1 1 
1 1 1 1 1 1 1 1 1 
1 1 1 1 1 1 1 1 1 
1 1 1 1 1 1 1 1 1 
1 1 1 1 1 1 1 1 1 
1 1 1 1 1 1 1 1 1 
1 1 1 1 1 1 1 1 1 
1 1 1 1 1 1 1 1 1 
1 1 1 1 1 1 1 1 1 
1 1 1 1 1 1 1 1 1 
1 1 1 1 1 1 1 1 1 
1 1 1 1 1 1 1 1 1 
1 1 1 1 1 1 1 1 1 
1 1 1 1 1 1 1 1 1 
1 1 1 1 1 1 1 1 1 
1 1 1 1 1 1 1 1 1 
1 1 1 1 1 1 1 1 1 
1 1 1 1 1 1 1 1 1 
1 1 1 1 1 1 1 1 1 
1 1 1 1 1 1 1 1 1 
1 1 1 1 1 1 1 1 1 
1 1 1 1 1 1 1 1 1 
1 1 1 1 1 1 1 1 1 
1 1 1 1 1 1 1 1 1 
1 1 1 1 1 1 1 1 1 
1 1 1 1 1 1 1 1 1 
1 1 1 1 1 1 1 1 1 
1 1 1 1 1 1 1 1 1 
1 1 1 1 1 1 1 1 1 
1 1 1 1 1 1 1 1 1 
1 1 1 1 1 1 1 1 1 
1 1 1 1 1 1 1 1 1 
1 1 1 1 1 1 1 1 1 
1 1 1 1 1 1 1 1 1 
1 1 1 1 1 1 1 1 1 
1 1 1 1 1 1 1 1 1 
1 1 1 1 1 1 1 1 1 
1 1 1 1 1 1 1 1 1 
1 1 1 1 1 1 1 1 1 
1 1 1 1 1 1 1 1 1 
1 1 1 1 1 1 1 1 1 
1 1 1 1 1 1 1 1 1 
1 1 1 1 1 1 1 1 1 
1 1 1 1 1 1 1 1 1 
1 1 1 1 1 1 1 1 1 
1 1 1 1 1 1 1 1 1 
1 1 1 1 1 1 1 1 1 
1 1 1 1 1 1 1 1 1 
1 1 1 1 1 1 1 1 1 
1 1 1 1 1 1 1 1 1 
1 1 1 1 1 1 1 1 1 
1 1 1 1 1 1 1 1 1 
1 1 1 1 1 1 1 1 1 
1 1 1 1 1 1 1 1 1 
1 1 1 1 1 1 1 1 1 
1 1 1 1 1 1 1 1 1 
1 1 1 1 1 1 1 1 1 
1 
Long_Strain_Pt 1 1114 double
0.83504615074 0.84616101385 0.83391101153 0.82272341953 0.82695682433 0.84572211848 0.81783622427 0.85054906983 0.81969121952 
0.8403806615 0.81803551417 0.81207265845 0.80678969457 0.80583296114 0.81443844942 0.80537649969 0.83799283319 0.82488970326 
0.85518266203 0.84480864593 0.85080620895 0.85570362353 0.84760701824 0.86927909626 0.87389607682 0.8784309558 0.85356634746 
0.86008692045 0.85308265972 0.86673437784 0.86349149989 0.86991425945 0.88031630818 0.87456467688 0.90833345751 0.88285260589 
0.91968386555 0.88152637758 0.92055113657 0.87701604417 0.92600000694 0.86735891966 0.91292697391 0.85349824944 0.89546958064 
0.84385349247 0.87934482079 0.84096635879 0.86728551957 0.8440893103 0.86054153644 0.84696261732 0.85428653487 0.84223540513 
0.86255634375 0.83779110063 0.85835455193 0.84617946498 0.84879784261 0.8539074076 0.86613034485 0.87160370751 0.88371603568 
0.88307576679 0.86630391196 0.89362358684 0.86162115152 0.89490545911 0.88452178627 0.90658629041 0.91747062015 0.90362024252 
0.90191462611 0.89057687975 0.90206609592 0.87384438313 0.88367953745 0.84554768986 0.85792805998 0.80792963986 0.84085105948 
0.79687509324 0.83329865729 0.80530093969 1.038094805 0.98952651231 1.107367301 1.099739359 0.95630198408 1.1147804612 
0.96768591731 1.1230989722 0.99500930284 1.1272861583 1.0363601628 1.1332052998 1.0607604316 1.1425356414 1.0885806836 
1.1480136316 1.1233509338 1.1473687997 1.1497476256 1.1385620676 1.1608686932 1.1206883904 1.1503742301 1.0915055964 
1.1260975034 1.0656428549 1.1175588234 1.040281552 1.1214772519 1.0210376862 1.0795501583 0.99915069122 1.0490559445 
0.99378495561 1.0257675361 1.0135621259 1.0060790541 1.0564687085 1.0702751541 1.0923205876 1.157580072 1.1150206718 
1.1451043958 1.1289225223 1.1302412267 1.1367208297 1.1139647511 1.1367080371 1.0969733839 1.1252727099 1.0994776916 
1.1036645821 1.1128071841 1.0989188046 1.1035306391 1.1006001829 1.098598523 1.1034812945 1.0999522896 1.1317661863 
1.1302186256 1.1524744632 1.1682588057 1.1697229368 1.2005539287 1.1792781544 1.2053534241 1.1961355024 1.1820785822 
1.2385422924 1.2119351845 1.239081428 1.2468872808 1.2373126705 1.2620763197 1.2395061514 1.2519995684 1.2469401237 
1.2218024246 1.256098785 1.2359334224 1.2617843043 1.2401435255 1.2585974776 1.2287278515 1.2468105208 1.218704486 
1.2326478833 1.2077478867 1.2157332657 1.1696473815 1.1863670723 1.1384257274 1.1686361063 1.1222249926 1.1511403858 
1.1394636214 1.1372042044 1.1842923214 1.1293686053 1.1869034923 1.1258805428 1.1765605054 1.1129944371 1.1141305131 
1.1039760544 1.066126229 1.0996240486 1.0587054657 1.105802767 1.0587059529 1.1098646117 1.0662559002 1.1118460954 
1.0556297286 1.10684729 0.88028163301 0.85439891958 0.88173291484 0.87716206914 0.84660311426 0.82055723928 0.81340236652 
0.82421719799 0.84226480381 0.86167711523 0.87885730613 0.88549133383 0.88873890914 0.8874898029 0.88670350086 0.88992042009 
0.88616896752 0.87506584162 0.87993791246 0.87045688605 0.87038326533 0.87334318017 0.87372967573 0.85917069081 0.83471765507 
0.83038341662 0.83004959839 0.84028719529 0.85076650868 0.86361549621 0.88585140505 0.90743077435 0.91005377322 0.90741487702 
0.90920773171 0.90235653908 0.89083006467 0.87346063252 0.82974521647 0.81909234378 0.83311143706 0.84228394719 1.1428850622 
1.1445989767 1.1397490246 1.1412575761 1.1436492681 1.1465659393 1.1451158153 1.1466829306 1.1437061005 1.1176769925 
1.0850398839 1.0492561509 1.0128370008 0.98890086719 0.97235999413 0.97060766521 0.98465767682 1.0284251637 1.0748834024 
1.1125634488 1.131997784 1.1394429043 1.1386977464 1.1337137336 1.1156536729 1.1186491553 1.1155063917 1.1186234766 
1.127520381 1.1373850201 1.139473459 1.1386567374 1.1248807044 1.1505661333 1.1632415189 1.165548582 1.1645142903 
1.1781043535 1.2043296141 1.2199701923 1.21631743 1.211775703 1.2099831627 1.2078584108 1.1988438981 1.185458068 
1.1768365435 1.1665833751 1.1623271259 1.1672264363 1.1651390825 1.1566016287 1.1470883033 1.1370421274 1.1401049823 
1.1465667306 1.1521629305 1.1518207913 1.1247728451 1.1367027152 0.87560483519 0.90737594575 0.84873011884 0.83327642393 
0.82736762123 0.85006522932 0.87325594096 0.89451715194 0.90756341072 0.92080911304 0.91764380824 0.91109622186 0.91226812354 
0.92127205655 0.91940736778 0.91181703985 0.9000898083 0.89340742371 0.88743216277 0.87894935742 0.87852607208 0.85368826691 
0.86008738378 0.85653845471 0.86855649344 0.879013889 0.89302718036 0.91149647486 0.91603347515 0.91898371626 0.92256452045 
0.92528632014 0.92560763532 0.93507294219 0.96558760897 0.97026652342 0.9933659213 1.0012227984 0.98525164511 0.95865443549 
0.94054908104 0.87841891293 0.89037990075 1.1205454393 1.113446072 1.1145489622 1.1172749693 1.1123208681 1.1112713008 
1.1137918788 1.1069281352 1.0925813551 1.0840130063 1.0806981698 1.09335369 1.1033994561 1.1170021492 1.1336984278 
1.1326327616 1.1422346607 1.1585007209 1.1833939838 1.1941571034 1.1899653469 1.1852313621 1.1836053846 1.1927036335 
1.2042358426 1.2021418622 1.1984436521 1.1895361637 1.1823427507 1.1776818854 1.172778048 1.1718359231 1.1696209395 
1.1645942143 1.1551310696 1.1533715162 1.1484260732 1.1336104113 1.1219222361 1.1154806212 1.1119977813 1.1124763398 
1.09490075 1.0779117124 1.0616807875 1.03867689 1.016721056 0.99843813484 0.98627994319 0.98970446271 0.99663512023 
1.0390561128 1.0822971385 1.1182288143 1.1412951897 1.153257756 1.1575592395 1.1588848982 1.1232995986 1.0929042241 
1.093980533 1.0601548458 1.0781013318 1.0821099294 0.9128568265 0.92925059115 0.91257112698 0.9125503944 0.91038979589 
0.91076175036 0.9166584219 0.9257915679 0.92931414954 0.92797622689 0.93353900596 0.94187826385 0.93598334141 0.94810533741 
0.96785671314 0.98374120589 1.0670921921 1.0487317712 1.073745149 1.0715739864 1.0457156959 1.0141190172 0.89513094563 
0.92247796825 0.87843087976 0.87227849038 0.87067328019 0.88210161703 0.89483659951 0.90616562119 0.93953416853 0.95269438665 
0.97269356073 0.95286463191 0.94058349018 0.93859652699 0.94249564006 0.93073961225 0.91205833711 0.89313200246 0.8766022451 
0.8648234751 0.87029708939 0.88331780551 0.89056818063 0.92078960789 0.91007962801 0.94462013023 0.93509446196 0.97246898195 
0.99291184955 1.0084194448 1.021505509 0.99787356762 1.092824221 1.0895540024 1.0887112917 1.0876641027 1.0860867682 
1.0864726219 1.0840587291 1.0809505567 1.0763102676 1.074953195 1.0659946408 1.0707484106 1.0737505204 1.0774192255 
1.0738721405 1.0677462554 1.0720768988 1.0851223086 1.119295268 1.1466196548 1.1691062515 1.1814118713 1.1950797865 
1.2012768894 1.2122287458 1.2262262796 1.2235628335 1.2137625381 1.1916879765 1.1728832906 1.1587586673 1.148902117 
1.141781117 1.1128616922 1.1308686578 1.1238014119 1.1220407792 1.1205691311 1.1123358871 1.1020195625 1.1017025137 
1.0913674156 1.0676952369 1.052354589 1.0410561067 1.0312267903 1.0199409333 1.0015735301 0.98806528921 0.97988533429 
0.97884972863 1.0554748709 1.026046078 1.0776036169 1.0917092982 1.1155972833 1.1341168941 1.1441447342 1.1227060289 
1.0946618718 1.0560832555 1.0200531621 1.0127826672 0.98645515732 1.0308323037 1.0416118009 1.05108912 1.0629317399 
1.0760125755 1.0836669184 1.0004424523 1.0363706242 0.97173480706 0.95649707206 0.95311812837 0.9255729611 0.97533263065 
0.98449393657 0.99340318446 1.0014415153 1.0289283128 1.0561080245 1.0741569974 0.98791631301 0.98003481265 0.94061832666 
0.9393522576 0.93919752418 0.94070890161 0.95223351182 0.96135295806 0.95852724175 0.95520739813 0.95389031971 0.93986957395 
0.93969114007 0.94730373549 0.96480356483 0.97984698122 0.98596522657 1.0025073602 0.97602455432 1.0142728724 1.028013827 
1.0403087245 1.0513455648 1.0519404348 1.0565417877 1.0521816483 0.98619176647 1.0567518764 0.98404645729 1.0436855012 
1.0328726108 1.0214724633 1.004149089 0.98090441028 0.9573444063 0.94157104801 0.92867507346 0.90984250359 0.89746601546 
0.90263018195 0.9242956131 0.95194848067 1.0058735422 1.0267394897 0.95776131507 0.97213728033 0.94045872354 0.92798763977 
0.91483200285 0.9012548959 0.88476224234 0.87837329675 0.87351797471 0.87851895325 0.88985950665 0.88781517166 0.88397364318 
0.91221369916 0.89518851572 0.92804791981 0.93540401156 0.98586761272 1.032854685 1.0687883763 1.0818068254 1.0627805615 
1.0434186648 1.0669186338 1.0667934525 1.0612819267 1.0572845155 1.0532656865 1.0406595918 1.0315762305 1.0209046327 
1.0193426089 1.027850528 1.0519416342 1.0777842764 1.1277454713 1.1492625205 1.1680075317 1.1838038008 1.1951827097 
1.1964083062 1.19735601 1.1953412957 1.1911715228 1.176495691 1.1517092336 1.1259783253 1.1037765282 1.0858979216 
1.1168483718 1.1109249508 1.1230459677 1.1257866386 1.1328075389 1.1326957975 1.1182110542 1.0967628287 1.0690268273 
1.0408255566 1.0222740069 1.0198893931 1.0142371295 1.0094345815 1.0005274821 0.99408739592 0.98854009822 0.98609570754 
0.97492317365 0.9730752154 0.98165581777 0.99350730638 1.0051907 1.0095124418 1.0212976915 1.0484685093 1.0893792652 
1.0911626322 1.0515570954 1.051718531 1.0214202141 1.0213368679 0.99408156915 1.0423497238 1.0565550937 1.0602317142 
1.0552825091 1.0448850842 1.0251431711 1.0029674779 0.98282244979 0.96595654104 0.96108887044 0.96927343146 0.99877666514 
1.0423739076 1.1093367178 1.1303711945 1.1369903871 1.1401894457 1.1404585295 1.1391538188 1.1446148749 1.1457871312 
1.1422454466 1.132179712 1.1169109487 1.0940296264 1.0758294097 1.0392903767 1.0037445086 1.0047203277 0.96182700059 
1.0447623241 1.0711448856 1.0867036169 1.0948282898 1.0992943876 1.0923769596 1.0864727314 1.0817077808 1.0749484323 
1.0651452553 1.0218627891 1.014067283 1.0010642995 0.99336762845 0.98794172089 0.98453485414 0.98324834715 0.9682520882 
0.95624610898 0.9584415628 0.95605546978 0.96451498886 0.97292219782 0.9654622672 0.96229587917 0.96448481776 0.97001917449 
0.94248271071 0.94762287524 0.95376071692 0.96885157613 0.97311781087 0.97343971766 0.96318089864 0.95006442303 0.93618064306 
0.92200344321 0.91101449544 0.90974035618 0.92851169136 0.94872848775 0.96606296707 0.94137916578 0.94575745109 0.91156911684 
0.99301693696 1.0028419542 1.0121646606 1.0253597394 1.0349285594 1.0448936536 1.0552680452 1.0591791122 1.0381406857 
1.029529655 1.0311540221 1.0290502369 1.0349414596 1.0259602433 1.0192006684 1.0032777961 0.99492682238 0.98674222418 
0.98778876987 1.0050054841 1.0467419801 1.0608505622 1.0650424396 1.0722180305 1.0399785108 1.0075139882 0.99064284082 
1.0157585207 1.0004059129 0.98844267586 0.96244814204 0.93319549546 0.92349540827 0.92198235849 0.92038481166 0.90855465722 
0.90200227331 0.89401377347 0.88616686359 0.87349942001 0.88150309246 0.88896859349 0.90338938971 0.89748050355 0.90705980525 
0.91454556037 0.92269369461 1.04000342 1.0179046359 0.98845046088 0.96358401204 0.95237899443 0.94424233307 0.95975660513 
0.97756250186 1.0122835081 1.0377823928 1.0838354999 1.071991874 1.088566445 1.0718397609 1.0769059096 1.0813427114 
1.0775174343 1.0730132235 1.0636755886 1.0540095498 1.0426598574 1.0274435319 1.0095212357 0.98913912552 0.96514715517 
0.93485319698 0.93674913552 0.91933961837 0.96113739347 0.99605549637 1.0200877515 1.0281912063 1.0289628677 1.0360568115 
1.0298249587 1.0245212422 1.0143349256 1.0079672302 0.99633912088 0.97537898524 0.95840288506 0.96805979384 0.96108480495 
0.96494087625 0.96535383573 1.0580140344 1.0493719298 0.95579606929 0.94206802034 0.9355721555 0.94320160981 0.9350921208 
0.94623115868 0.92465039463 0.92872705581 0.94130777722 0.95362536985 0.95674778047 0.95769511137 0.95716822718 0.94480781698 
0.92133466227 0.88875435067 0.88170622891 0.89428542481 0.90210564953 0.91495477379 0.91479866602 0.92539790624 0.94580710866 
0.93098500585 0.95865184015 0.9836118199 0.98931692221 0.99198473308 0.99742460691 1.0055694276 1.0031684808 0.98003158225 
0.98562407686 0.99734826652 1.0214629875 1.0387289827 1.049046237 1.0535599935 1.0509914253 1.0482532172 1.0474284986 
1.0583473549 1.0707111746 1.0741774928 1.0800056228 1.100596391 1.0882072162 1.0588837694 1.0098589157 0.96932339961 
0.95503636079 0.93485404637 0.97677640981 0.98572867881 0.97995361518 0.96645571233 0.95442894178 0.94860742291 0.93493205672 
0.93074321677 0.91748308277 0.91259977761 0.91029283985 0.89024718812 0.87567111323 0.88242963029 0.8869771407 0.8924853281 
0.90365594429 0.90694915516 0.91697407978 0.90803807092 0.94415223542 0.93664626458 0.9144876249 0.91857567847 0.92582776893 
0.93011051682 0.94720261359 0.96151778122 0.97116805118 0.98160932875 1.0094164655 1.0338474536 0.99539741581 0.96427575704 
0.9696856635 0.94008970465 1.0047149902 1.0212705113 0.91333640653 0.91291988708 0.91743602984 0.92966943156 0.93143729974 
0.92739613336 0.91808636461 0.90762873685 0.89390671402 0.88435847744 0.89421278972 0.89839984127 0.90562784431 0.97243118699 
0.99558848991 0.98141717462 0.93626722193 0.92667148459 0.93565194989 0.95416342837 0.96691057503 0.95565143413 0.96530656267 
0.96720393559 0.96414150565 0.95142272766 0.95752399331 0.94928158171 0.97529784592 0.996891675 1.0205540909 1.0473705588 
1.0634933645 1.0800306427 1.0932965261 1.1004830648 1.0947063786 1.0946191358 1.0936201527 1.0785356246 1.0616405071 
1.028821479 0.9974159291 0.95024454155 0.9406205608 0.95194875376 0.94916606874 0.96265514563 0.9304195298 0.92873347923 
0.91865703348 0.91017136787 0.89949390018 0.89553170664 0.90464800524 0.89574589749 1.0158935833 0.99985788797 0.98174582275 
0.9627819226 0.96081191944 0.97186942937 0.99029648217 1.0173761837 1.0585785156 1.0713011207 1.0714856362 1.0755505607 
1.0728028635 1.0534664938 1.0328142432 1.0202046984 1.0061798799 1.0067659432 1.0111051767 1.0134693858 1.0118630453 
1.008607485 0.99780603501 0.97997069434 0.95774092861 0.93804386183 0.91663285236 0.92425625516 0.92278283603 0.9272396999 
0.94186618768 0.96108575542 0.98604440841 0.980091557 0.97294537654 0.95371249376 0.94211762561 0.95045062234 0.96308003278 
0.95426047342 0.95835443368 0.95272389234 0.94976303569 0.92862022537 0.92343684317 0.96784761283 0.95377065274 0.93357923466 
0.92713262877 0.93039499559 0.89819050826 0.90780313424 0.88960448302 0.93388104268 0.93004407564 0.92883958945 0.93138241961 
0.94290070639 0.91331455662 0.91721320212 0.91387688774 0.93317134466 0.92748147576 0.95531013724 0.97115754113 0.97308109109 
0.9692846971 1.0790495158 1.0542359581 1.0375150025 1.0167898614 0.99128411351 0.97151689359 0.96512463745 0.97088634712 
0.97018181747 0.97061061867 0.95607250789 0.94780210075 0.91846011724 0.91735360593 0.92981092841 0.92519965929 0.94937454125 
0.97168176201 0.96881052168 0.98191237278 1.0043312485 1.0279741995 1.0514325766 1.0667216039 1.0821325157 1.0799598422 
1.0719417829 1.051232279 1.0226028012 0.98499609236 0.96315833672 0.94031352355 0.90359434964 0.90238987715 0.90670385484 
0.93758631955 0.94818261912 0.93554372614 0.93295419018 0.93200641332 0.9414309135 0.94569156994 0.95008795828 0.88887240908 
0.91816283988 0.91325347619 0.90470121708 0.95407404324 0.8966050127 0.93321803147 0.92369463481 0.94180316615 0.94721898476 
0.94120888142 1.0849439134 0.91264413767 0.91615068977 0.92525017407 0.93628028398 0.92722978328 
Longtudinal 3 1114 double
-0.066046267433 0.96695037835 -0.24626176391 -0.11871537076 0.96022165628 -0.25167567256 -0.27814730223 0.88466226861 -0.36446399429 
-0.266627364 0.85607958326 -0.41902333531 -0.12461087951 0.96763578608 -0.21794908325 -0.35278540735 0.86934116654 -0.33711360089 
-0.10967713631 0.9765208589 -0.18423290947 -0.41200399454 0.85745835782 -0.30180531356 -0.086995738335 0.98414405951 -0.15227251309 
-0.4334835743 0.87002643311 -0.22848083256 -0.070228657462 0.99054979686 -0.1171907981 -0.45015667792 0.8774197811 -0.15813249262 
-0.081420044822 0.9922870703 -0.093398990021 -0.36906256335 0.91880285724 -0.085749712349 -0.18132879422 0.97892062937 -0.072185466673 
-0.33302042946 0.94133426486 -0.036422484323 -0.21618039236 0.97526529205 -0.039754351182 -0.32645052002 0.94392698505 0.0061839474835 
-0.1983668093 0.97959016 -0.0014494105638 -0.31664450196 0.94562338488 0.06276125305 -0.15754250282 0.9865584136 0.035973549017 
-0.32262940811 0.9362005587 0.1305046201 -0.11579858136 0.99130098525 0.055744543604 -0.27385873576 0.94060434076 0.19822418051 
-0.073497110982 0.99315907321 0.056888368129 -0.18660847906 0.95923718439 0.20914850431 -0.05988787487 0.98401539993 0.15031420403 
-0.12881356792 0.96089693028 0.24255476303 0.017500060729 0.99848126803 0.048605132708 -0.063268168611 0.95453780057 0.28802032912 
0.059327139682 0.99733062967 0.035902137075 0.029743629499 0.94450660912 0.32316301147 0.071939169434 0.99663626533 -0.0058914541052 
0.12844013027 0.92558733638 0.34954378841 0.06104397907 0.99454819433 -0.077396150339 0.20639177842 0.92251997988 0.31022339561 
0.059567162013 0.99144831852 -0.11580371909 0.27906713627 0.90543607461 0.30468030461 0.00046134048652 0.97921118392 -0.17008406139 
0.32514623292 0.90007260261 0.2651416799 -0.12656023133 0.95660800052 -0.26194806835 0.29136255025 0.92351109775 0.15503658493 
-0.1428031152 0.9662377546 -0.21312211071 0.30714070579 0.92813576849 0.10176537474 -0.13641536573 0.97542553846 -0.17091487981 
0.36089950335 0.90609146721 0.082963787475 -0.14310477263 0.97960161708 -0.13959502972 0.42593685406 0.88172124008 0.058694921397 
-0.12908055658 0.98288728144 -0.11549283104 0.42810462074 0.88959782721 0.0064239871683 -0.010797272977 0.99590379408 -0.08921885082 
0.30253696086 0.94927763994 -0.07588423704 0.033370350047 0.99183922945 -0.12008167587 0.21059284887 0.96779133099 -0.13139188724 
-0.040872150949 0.98970278583 -0.11937664753 0.16855794503 0.96886841622 -0.17878516949 -0.063612862716 0.98796232834 -0.13428479078 
0.1415827087 0.96690882689 -0.20994349254 -0.034596691151 0.98723817061 -0.15236640348 0.086724256609 0.97259123961 -0.21466512916 
-0.081574982231 0.98962215675 -0.11824966867 0.047872538499 0.97370826961 -0.22023165851 -0.091755630294 0.98996004343 -0.10726189702 
0.034745368144 0.97477359911 -0.21936299887 -0.05850248094 0.98752370466 -0.14019147691 0.027025878092 0.97309307724 -0.22296580628 
-0.037274659205 0.98902707586 -0.13903062882 0.0085975897193 0.97485729266 -0.21373685157 -0.039437666431 0.99379660796 -0.10271129492 
0.024542320737 0.96816198703 -0.24570930545 -0.024482332238 0.99033555775 -0.13630901402 0.026850672053 0.96228499562 -0.2673221123 
-0.019848748491 0.99310254661 -0.11510092968 0.0055875068123 0.96215071172 -0.26830086484 -0.015143992782 0.99632564751 -0.082160911303 
-0.0027120893509 0.95796127403 -0.26728594817 0.0076534855297 0.99465805505 -0.098437273603 -0.014147266697 0.96284716592 -0.24488686147 
0.019991283044 0.99123955436 -0.1299638537 -0.01261462387 0.96942222648 -0.20406804253 0.0036614075436 0.98864426253 -0.14880334365 
-0.032797297361 0.95833143695 -0.19886901555 -0.030277252983 0.9833759285 -0.17533633346 -0.13499573625 0.90429379472 -0.32024733843 
0.035522820991 0.99235085721 -0.11822819202 0.014874089626 0.98376260174 -0.1717222801 0.031967817364 0.98827246785 -0.12617262911 
0.057493573179 0.99610232908 -0.059104696154 0.0052769923276 0.98007619431 -0.19284022486 0.011414826893 0.98222367286 -0.17993024075 
0.027809975896 0.99064078115 -0.11983198915 0.026695399895 0.98848134078 -0.1447340015 0.039783510678 0.99431593223 -0.097344728286 
0.034801903693 0.98490008359 -0.16088026243 0.042464229456 0.99192805291 -0.11931832263 0.036670967875 0.97074356573 -0.23658290753 
0.044843131204 0.98626348646 -0.15625969109 0.047231477796 0.96892651317 -0.24260026254 0.043410100049 0.98339733628 -0.17601961198 
0.059015390499 0.96779391675 -0.2441866874 0.035883638175 0.98530576553 -0.16690855652 0.078462877418 0.96577271324 -0.24682011621 
0.046563901816 0.98121154209 -0.18615458373 0.043762676505 0.97476306707 -0.21364848922 0.014616876966 0.98148098099 -0.1734015109 
-0.036181517416 0.97790762496 -0.14004864308 -0.087536113568 0.9899215457 -0.10445331537 -0.14173225135 0.98420006665 -0.040067510108 
-0.20613923889 0.973307511 -0.02598751712 -0.24844087252 0.9611862965 -0.0046764811636 -0.25917641389 0.96276680238 -0.037104796612 
-0.32608491915 0.94306974609 -0.00092955055198 -0.2469506545 0.96040853096 -0.12835296617 -0.28362228561 0.95027396218 -0.051387887645 
-0.21075572478 0.96636653971 -0.14520807987 -0.27596090384 0.94893701419 -0.099115100135 -0.18816501998 0.9680443517 -0.16471400069 
-0.28589928459 0.94120371443 -0.13806614957 -0.19886817818 0.96014258795 -0.18382736942 -0.34814625947 0.92459670394 -0.15264513048 
-0.34012057922 0.91574085658 -0.19323633286 -0.36445688575 0.9103928139 -0.192954581 -0.3277182948 0.91420156201 -0.22615926943 
-0.32645725628 0.9148863305 -0.22592076419 -0.23694766444 0.93439716841 -0.26091264955 -0.22858077826 0.94093671819 -0.24809115259 
-0.12685272441 0.95927574078 -0.24163566089 -0.17466469212 0.94872801128 -0.25992056878 -0.074372577851 0.9679022119 -0.23948923552 
-0.10445791313 0.95957636305 -0.25426399065 -0.057243614017 0.96712595734 -0.24765972953 -0.019042683855 0.9728359503 -0.22845372158 
-0.064940740876 0.96280864217 -0.26203170882 -0.01350559545 0.97075911389 -0.2378795612 -0.055395634928 0.96566273614 -0.25262825908 
0.032955613683 0.98075876395 -0.19005672928 -0.036287289802 0.97212730659 -0.23138608417 0.039369008624 0.98426325994 -0.17148936271 
-0.037455448283 0.9604328915 -0.27382039933 0.0074242285963 0.97465492473 -0.21713797426 -0.050557909821 0.93944743722 -0.33234619803 
-0.028053299931 0.95566957228 -0.28142453358 -0.08092791839 0.90501893097 -0.41415449992 -0.067538518982 0.90126042598 -0.4167203526 
-0.070555321099 0.90146087655 -0.42659385922 -0.072573686124 0.88050284196 -0.46351400448 -0.050248603116 0.89893865722 -0.43235861714 
-0.056802228274 0.88018064774 -0.45991422501 -0.044367657631 0.845222634 -0.5261975252 -0.026512466216 0.85783907815 -0.49761328196 
-0.0079016273446 0.83126604822 -0.55214880406 0.0017556715985 0.87568467688 -0.48055223602 0.059793222343 0.85790573017 -0.50878359987 
0.022393159473 0.88732726343 -0.46042223211 0.056777675883 0.88857910303 -0.45144655856 0.037615044649 0.90232706774 -0.42549175595 
0.042920748523 0.91780356449 -0.39391920978 0.04663307688 0.92321282695 -0.3807433091 0.035120467835 0.93637364592 -0.34732157891 
0.054281464242 0.93463725989 -0.34983862551 0.019494540114 0.95464742025 -0.29288930602 0.039359710878 0.94992599427 -0.30236472865 
-0.0024575537244 0.97264772347 -0.23223671726 0.0027911446841 0.96881839213 -0.23898835675 -0.039139927041 0.97983915723 -0.19100381224 
-0.008043036553 0.97612657772 -0.20843534998 -0.062733270927 0.98491772608 -0.16099743254 -0.011385714657 0.98186603166 -0.18589212045 
-0.065710908025 0.98666845433 -0.14867324658 0.0096296448226 0.98316181917 -0.1797837586 -0.049607559384 0.98664936937 -0.15359503613 
0.036808559981 0.98101012019 -0.18477993647 -0.022712750332 0.98568379917 -0.1649802207 0.072543722038 0.97704734695 -0.19176754522 
0.066155673956 0.97997210561 -0.17182743198 0.12019746676 0.97541622864 -0.18362395345 0.1325666929 0.97666325799 -0.1674319012 
0.16732753666 0.96858816165 -0.16389697955 0.14993887274 0.97860135557 -0.13848629397 0.19948548989 0.96652175973 -0.14425261106 
0.18414322624 0.97644764895 -0.095725617975 0.21715731404 0.96677228913 -0.11168403658 0.23223542977 0.97091788619 -0.041566437723 
0.21719435852 0.96941481855 -0.083594162582 0.24321893326 0.96920745381 -0.037666228183 0.19741896978 0.97750793926 -0.05438403526 
0.24386191163 0.96870934777 -0.044528154503 0.20197642686 0.97847157017 -0.017599303528 0.22341186407 0.97387685432 -0.0034138460375 
0.24648562259 0.96671189604 0.029237283728 0.2011961025 0.97898975204 0.028105438201 0.25922855478 0.96283817614 0.058981988666 
0.1740128974 0.98394901998 0.032631256374 0.20086586067 0.97717080638 0.049143119 0.16016339671 0.9856931225 0.048064882877 
0.17161447436 0.98321280888 0.05869827021 0.15987795395 0.98416651432 0.074594761383 0.15957486863 0.98375123344 0.081007002358 
0.10758451947 0.9873613703 -0.0021830606584 0.10932661375 0.98948148924 0.014544488181 -0.47381504303 0.77071873903 -0.39299376357 
-0.46622059528 0.72687882767 -0.48180280443 -0.49022414245 0.80660917331 -0.31396628333 -0.4680344328 0.85611758069 -0.2092449593 
-0.42121719382 0.89810615568 -0.11465463666 -0.40523992089 0.91094611019 -0.065217402371 -0.38268297425 0.92353300296 -0.010791064235 
-0.30551084759 0.94997836326 0.0087777658705 -0.26447931181 0.96061207785 0.04273295048 -0.20314167011 0.97157414654 0.060696309218 
-0.22206411578 0.96231367262 0.12943217753 -0.20998205524 0.95470027352 0.20172659063 -0.165821828 0.94334867289 0.27833253298 
-0.095011382512 0.93231757918 0.34520524661 0.0046783671968 0.90876583003 0.41006007808 0.11722247941 0.88672746986 0.44254914598 
0.21510179336 0.88247783867 0.41560940267 0.30450222255 0.85922245813 0.40946737444 0.3946262204 0.82607430249 0.40211606559 
0.46059452358 0.81251285515 0.35465974909 0.51485636775 0.80197249516 0.29993364956 0.54128282263 0.80502932289 0.23961356458 
0.55055307471 0.81503400314 0.16293270738 0.47244168046 0.87176715655 0.046175517594 0.31460062438 0.94393488339 -0.072271488098 
0.26668255247 0.95234731715 -0.13683206023 0.21778404934 0.95643332351 -0.17991587311 0.17898662356 0.95795670621 -0.21432449045 
0.14431170191 0.95722880283 -0.24437175145 0.10475280857 0.9608534184 -0.25447020884 0.079198913742 0.96465254647 -0.24773084872 
0.070847645822 0.96003715382 -0.26999860711 0.069890031314 0.95276486717 -0.29307502967 0.061925178461 0.94705024904 -0.3123968198 
0.053906922811 0.93830186186 -0.33991097733 0.028833539581 0.92362644315 -0.37517668154 0.0037885831024 0.89461736458 -0.44079763969 
-0.053155269262 0.86361501823 -0.4843164065 -0.12230861765 0.8451742268 -0.50225835095 -0.2474850227 0.76879555612 -0.56418317324 
-0.38589861749 0.64696620348 -0.61596311629 -0.47224277895 0.64549273623 -0.58791355121 0.059644273474 0.99756973591 0.01865837876 
0.086584705419 0.99397158983 0.040304557297 0.042351525369 0.99847266625 -0.00031056138378 0.046817774956 0.99125225044 -0.07882102723 
0.05239238861 0.98100654761 -0.1806860405 0.052345749172 0.9789888182 -0.18849042189 0.045864798013 0.98077402067 -0.1821455893 
0.030600235686 0.98320422827 -0.17243092345 -0.012750631351 0.99085943842 -0.13167172001 -0.11712940129 0.98381878068 -0.018304005992 
-0.24910263408 0.96220775626 0.091187328293 -0.33941888231 0.93055156733 0.11018291374 -0.43500361929 0.89202213614 0.1105754915 
-0.48784908124 0.86862648463 0.059853874239 -0.50436979274 0.86136230975 0.0043179758556 -0.50817755391 0.85813864376 -0.054734744887 
-0.49876030637 0.85775363935 -0.12174450253 -0.42144382052 0.8849600599 -0.17873477354 -0.33422550043 0.91348592903 -0.22859516587 
-0.31084854833 0.91284258836 -0.26251131003 -0.27884513417 0.91564584496 -0.28334622233 -0.21229415798 0.92904757261 -0.29312495496 
-0.10289919613 0.95143662811 -0.26780191189 -0.069244090366 0.95860468994 -0.27548723772 -0.030537259197 0.96175142424 -0.27135105345 
-0.024278717868 0.9650296867 -0.26090252405 -0.072288679319 0.93395371501 -0.34143292198 -0.11975048935 0.89146714502 -0.43206617079 
-0.15565053533 0.81575685991 -0.55212862253 -0.12955746819 0.75587732091 -0.6398418179 -0.094443313035 0.71261453147 -0.69336292218 
-0.044020552467 0.69553675489 -0.71506900701 0.026705731899 0.71275854544 -0.69881434895 0.07246084308 0.7969161736 -0.59521895896 
0.11747517244 0.79396208815 -0.59364188873 0.13342480412 0.83345565279 -0.52884188428 0.13975917261 0.86255384185 -0.47195255839 
0.16287717174 0.86399938216 -0.45463810893 0.14928827421 0.91310006916 -0.37567211675 0.16000232128 0.92494799409 -0.33918036028 
0.15271565769 0.93953912567 -0.30323063903 0.14631896484 0.95033700393 -0.27108278658 0.12290057564 0.9635433384 -0.23121408022 
0.09794389536 0.97514171986 -0.19368177789 0.16531109587 0.96156692103 -0.18764945424 0.16848871519 0.96245219024 -0.16559978272 
0.27506563666 0.94377183843 -0.13271971108 0.3321022124 0.93827675385 -0.086670849827 0.32003340639 0.94544661615 -0.052255043266 
0.27487171039 0.96017616659 -0.026204691247 0.24091768135 0.96979260561 0.0017584213865 0.26402287478 0.96139550812 0.049073655629 
0.27749310749 0.95592538441 0.088777220749 0.27783166931 0.95218873114 0.12017130945 0.23411532389 0.96338485839 0.11636065385 
0.17733433105 0.97837134193 0.1039530307 0.15051721314 0.98296870308 0.086880671575 0.1103462267 0.99127566825 0.065131766284 
-0.040579519393 0.96225388471 -0.26883412762 -0.071077918714 0.95818102819 -0.27714233037 -0.29320184164 0.94976519456 -0.083117647509 
-0.41036775522 0.89807835829 -0.12481422134 -0.23588714886 0.96984726296 -0.04894510184 -0.2233851893 0.97189277461 -0.028348552725 
-0.17613053788 0.97979141314 -0.036544993954 -0.14712119358 0.98556256993 -0.043979371631 -0.12223736933 0.99180300676 -0.02647591166 
-0.1679994616 0.98333937826 0.045532107309 -0.19370762153 0.96844464941 0.15119390253 -0.19327588262 0.93218762729 0.29988400215 
-0.11702887809 0.90601139218 0.40249702721 -0.005520365464 0.87589010808 0.47884277795 0.11091988448 0.86031292251 0.49522849789 
0.20972467381 0.85035203163 0.48156317412 0.28509879956 0.84188567458 0.45782160294 0.35354853728 0.83087249392 0.42774112246 
0.41840630194 0.81768284953 0.3912150371 0.47886961325 0.80798169016 0.33825370165 0.50607732796 0.81801086541 0.27055406453 
0.48089563357 0.85737054916 0.17459724021 0.380156366 0.91486779328 0.075493352766 0.35443464387 0.92282003408 -0.1436067359 
0.34736871701 0.93221201496 -0.085666137624 0.35430263808 0.90935679014 -0.20668698769 0.31726632916 0.90864409095 -0.25201854338 
0.2477871789 0.92527725231 -0.28194643761 0.18437938083 0.93716708159 -0.2892304847 0.13366036327 0.94362856391 -0.29701135109 
0.09387072482 0.94931343318 -0.2993507127 0.10227704311 0.93291678035 -0.34318723057 0.09746863887 0.91930204314 -0.37957956389 
0.066331902527 0.90005586171 -0.42817482728 0.051356863858 0.8657394397 -0.49110229512 -0.018792207978 0.76416090149 -0.62788239066 
-0.16058795909 0.59964127599 -0.77833656824 -0.32282814547 0.44543515336 -0.79037234309 -0.41249373751 0.47021734369 -0.7579934139 
-0.55304335226 0.32911646492 -0.75883638537 -0.61394828853 0.40338965885 -0.67623119545 -0.61638399558 0.5341497462 -0.56229337856 
-0.59141177927 0.66674498775 -0.4434485677 0.36993882493 0.92608368655 -0.032633585761 0.36741337085 0.92347360728 0.01531923859 
-0.064709682239 0.95633629405 -0.28397727409 -0.042665147646 0.97070522791 -0.2315893175 -0.091657535593 0.94414382194 -0.31161845221 
-0.15175929521 0.89974162902 -0.40536789965 -0.15849980843 0.85288230552 -0.48907610734 -0.15070823232 0.79595548924 -0.58009842304 
-0.11367885584 0.73315750867 -0.66345747991 -0.066503218203 0.7253636951 -0.68275737092 -0.024310025884 0.77027723397 -0.63380838359 
0.15264564743 0.74144781002 -0.65236197595 0.11609148856 0.73670021308 -0.66530133141 0.21735288317 0.73868728096 -0.63309056109 
0.28441685646 0.72207313455 -0.62841023907 0.28845098306 0.78065928389 -0.54695693554 0.27291766353 0.84414326408 -0.45620154279 
0.23882314653 0.88933562442 -0.38520137125 0.18607834631 0.9257027953 -0.31730716585 0.12273834494 0.95848906282 -0.25042047807 
0.088552149447 0.9621559158 -0.22082429624 -0.00055574961236 0.98505949017 -0.17027564916 -0.021277067427 0.98548216955 -0.16402392835 
0.028866236493 0.98211640543 -0.15393862183 0.13725458695 0.97527674222 -0.1401278137 0.18567461712 0.97342602941 -0.10958120648 
0.208879957 0.97353490273 -0.070529393155 0.2307324973 0.97180542599 -0.036523982919 0.2292063338 0.97301919094 -0.0059514295604 
0.24299776401 0.96839011175 0.034351640307 0.2424104827 0.96824159518 0.059238067027 0.22983898425 0.97042313344 0.072525276377 
0.21986536685 0.97189896884 0.083127250652 0.21056090438 0.97201285097 0.10110179048 0.18383088367 0.97346990572 0.13122887026 
0.14378486338 0.97996426492 0.13417977873 0.11200834081 0.98487731086 0.12977770692 0.07630388155 0.99182560169 0.086786485145 
0.048453958779 0.99802119953 0.035026199006 0.031580684124 0.99837435322 0.034632071673 0.013709830145 0.99662233169 -0.022006644355 
0.0082214743805 0.99785064084 -0.045499364731 -0.012503181204 0.99720424918 -0.037287762743 -0.0450129137 0.9967769582 -0.026984739541 
-0.11821927658 0.98548869507 0.038410493164 -0.19770478407 0.97155347053 0.097536449652 -0.29630662491 0.94427610561 0.13372579912 
-0.35769336871 0.92320254836 0.13179411844 -0.41319702207 0.9027646417 0.11277850214 -0.4769668589 0.87366898644 0.081223014029 
-0.4813614957 0.87464136722 0.017968546855 -0.46573191017 0.88266289803 -0.055621797144 -0.45763839203 0.88056351453 -0.11850870843 
-0.383461911 0.90186518358 -0.17511470838 -0.3262129956 0.91863535935 -0.22169960201 -0.33731883871 0.90708992814 -0.25108147289 
-0.28395019365 0.91670655854 -0.27120630196 -0.22307496952 0.93012785421 -0.28948825296 -0.17675550483 0.93719583779 -0.29260996568 
-0.11021942512 0.95248466232 -0.28347546579 -0.030237712748 0.97300142906 -0.22627515805 0.012915072109 0.98593778016 -0.15754974811 
-0.063808125492 0.97955294013 -0.18955929562 0.0078905815805 0.99084767513 -0.12057918226 0.058927678011 0.76655243282 -0.63565659784 
-0.013559158885 0.8481556865 -0.52090633141 0.58081688115 0.80897327554 -0.036789810576 0.5270492156 0.83838913899 -0.0069088874466 
0.58953912051 0.78892106781 -0.10799919571 0.60341346592 0.77529723037 -0.17208429639 0.57245414116 0.77985073526 -0.23840936085 
0.50256017051 0.80485690024 -0.29709817852 0.41964370267 0.83309218546 -0.33636713826 0.34545033966 0.85355638918 -0.3730763948 
0.26950934577 0.87694528881 -0.37827557965 0.18864635242 0.90233936646 -0.36471980794 0.18284000619 0.8792647672 -0.42632153471 
0.15748417728 0.87196269701 -0.46204170303 0.12059966436 0.85278679204 -0.50688007656 0.07030961223 0.80688006817 -0.58069704045 
0.0019778594296 0.73206022984 -0.67455900242 -0.082713713251 0.62952511361 -0.77170964521 -0.49569322541 0.2641664002 -0.82059950491 
-0.40700642364 0.24457110134 -0.8707196821 -0.55575086177 0.38509708603 -0.73221005061 -0.60221557959 0.4733680147 -0.64067559987 
-0.63382345375 0.54949286426 -0.54149132171 -0.67432312849 0.55818008534 -0.46348727611 -0.2444738666 0.96639568821 -0.059851363972 
-0.33729291617 0.93517863245 -0.076751950405 -0.18907396378 0.98050737908 -0.046265575337 -0.17007324492 0.9824802256 -0.037739201397 
-0.1710347859 0.98222556579 -0.035886895409 -0.16126033047 0.98585665823 -0.025339591602 -0.17073439809 0.98452052601 0.0054983798432 
-0.20592758523 0.97409533241 0.072009726016 -0.26939759106 0.92729920985 0.24535345973 -0.26255089552 0.86207177077 0.42525480795 
-0.16332457689 0.80835294458 0.55791881715 -0.010112309213 0.84448302581 0.53236549012 0.082740408786 0.85939189431 0.50116710232 
0.16582657881 0.87283457371 0.45602639948 0.21517010127 0.88493135152 0.41043419717 0.24816370929 0.90181934948 0.3486344171 
0.27894227783 0.91101719914 0.29571320504 0.29113576427 0.92348431225 0.22996566305 0.29639747272 0.93509711739 0.16247456743 
0.24104909433 0.9620398675 0.093137703383 0.16086870626 0.98242801684 0.033186947246 0.29033645817 0.95012306981 0.022402398627 
0.36443632318 0.92431224766 -0.0004148127675 0.57952962066 0.81282179441 -0.035369529944 0.40418195256 0.89801317355 -0.030246466879 
0.64592863788 0.7571377323 -0.075505817211 -0.5226219499 0.8277971255 -0.17025360588 -0.52172368796 0.83487285208 -0.1294433766 
-0.63369475452 0.74207054442 -0.20434062843 -0.61336219693 0.76373975964 -0.16288170174 -0.26539039596 0.46559452445 -0.84307325721 
-0.17765154758 0.59113613517 -0.77420317449 -0.11590147065 0.96000170468 -0.25401449078 -0.14576014639 0.91472561146 -0.36163313707 
-0.15761267688 0.87350168731 -0.45663630832 -0.13118821268 0.83313109371 -0.53104490004 -0.099918488561 0.82056429135 -0.55037857961 
-0.075862881671 0.8622541582 -0.48492369876 -0.063667822271 0.92305596424 -0.37438793742 -0.011802681296 0.91378804941 -0.39606089179 
-0.066417422654 0.95558563029 -0.28583773015 0.046535493931 0.85134571783 -0.5129476938 0.13243199256 0.76870871239 -0.62109076146 
0.20967118296 0.72492836318 -0.65539591115 0.24744919382 0.74448217462 -0.61703495219 0.27673966539 0.77626465579 -0.56603525042 
0.29287703546 0.80195238463 -0.51837928626 0.30134821735 0.83240294757 -0.46156824082 0.29124884108 0.86881268676 -0.39501239453 
0.22874526542 0.9067995495 -0.32563935877 0.069339140207 0.96845986985 -0.21349450005 -0.004593930702 0.98400409258 -0.17157869709 
-0.048425203007 0.98710600699 -0.15190769993 -0.066339421462 0.98672139035 -0.14773227328 -0.066003592383 0.98660233598 -0.14839105318 
-0.047424033627 0.98764905993 -0.14829276238 0.009944078735 0.98804302129 -0.134564777 0.11551580172 0.98688647688 -0.099767109785 
0.16470392881 0.98421204228 -0.057227020409 0.18156946773 0.98257229475 -0.022011710639 0.23040729443 0.97065506565 0.032577824135 
0.26401034289 0.96104799084 0.077016916263 0.27761362071 0.95403604262 0.10797575651 0.27614710188 0.95275950733 0.12421437297 
0.2658666925 0.95429694407 0.13399910967 0.26482682311 0.93374173422 0.22971679471 0.16469181607 0.97541994356 0.1416708919 
0.13035148504 0.97124821011 0.19356681099 0.090132448351 0.97620316354 0.18582746285 0.043152786826 0.99005131603 0.12382182422 
0.015402796637 0.99470767812 0.099070278559 -0.0050904209113 0.99624919547 0.084517217646 -0.035018459246 0.99628053884 0.074564203056 
-0.073098055487 0.99186269751 0.086784323576 -0.11535247134 0.98626156415 0.11104482396 -0.19529697208 0.96062253245 0.17088567564 
-0.2535480286 0.94588090927 0.19971636838 -0.30395831629 0.9322820898 0.19133280796 -0.35405940474 0.91803463682 0.17313988316 
-0.40914358042 0.90063008521 0.14001027493 -0.38967299222 0.91396610867 0.069700073949 -0.3961044337 0.91481515893 0.016296307807 
-0.37678122884 0.92368021203 -0.032845176334 -0.35376173721 0.91716679259 -0.17257066518 -0.39665249616 0.90669695551 -0.13720433253 
-0.28221546582 0.93400944055 -0.20043272664 -0.22250206559 0.94614721028 -0.22123684804 -0.1869985914 0.95159351955 -0.23676951425 
-0.14804379836 0.95604745586 -0.24975655093 -0.13106364007 0.95522689192 -0.26262864987 -0.068655641641 0.96993241906 -0.22555957947 
-0.017794101255 0.9789799722 -0.19456195618 0.037407786241 0.9881660938 -0.14482913054 0.04577257099 0.99355002977 -0.10082570993 
0.015916491388 0.9980953684 -0.044020860493 0.029813725571 0.9972673288 -0.057736900764 -0.053294923644 0.98803185857 -0.11013817972 
-0.11082176713 0.97261573734 -0.18783368572 -0.12170662505 0.95820705526 -0.23256116859 -0.12220850716 0.94113123848 -0.27489802793 
-0.11872238008 0.9261800007 -0.33009147508 -0.10497577351 0.92306043506 -0.35559541646 0.013592587464 0.98799648263 -0.15001933933 
0.0054656696805 0.98386570731 -0.17818106179 -0.0031272640686 0.9911985835 -0.13073734723 0.030045928329 0.99595596783 -0.056100725571 
0.087340182913 0.99049869017 0.059022746229 0.066693793054 0.99614740134 0.018071339125 0.043904734154 0.99716531153 0.042240638645 
0.0016352544172 0.99855675688 0.043696300092 -0.047262667356 0.99193235558 -0.031655123068 -0.093236549386 0.98416352358 -0.13266097007 
-0.11145235377 0.98315971464 -0.1429947517 -0.11791114669 0.97956721519 -0.15089635838 -0.11096389941 0.96547771312 -0.22584185585 
-0.37747696348 0.91962487131 -0.094690669747 -0.31509419188 0.9460104529 -0.064242543751 0.68026325987 0.72100256205 -0.12943788759 
0.68235859614 0.70051401294 -0.1996818769 0.66649832939 0.69278283172 -0.2691930857 0.6003940869 0.72404992369 -0.33512984845 
0.54093116224 0.74103943827 -0.39270332981 0.4794590648 0.75594396798 -0.44328174842 0.39173149101 0.79039602 -0.46541239651 
0.32303007992 0.80445080954 -0.49375472102 0.27792135024 0.80151772263 -0.52641630387 0.20260911253 0.82835618417 -0.52016780081 
0.14764066889 0.82087539228 -0.55066331327 0.094462535041 0.81289954479 -0.5709617433 0.028754372334 0.78851326118 -0.61377256809 
-0.049965066071 0.73358167991 -0.67021429583 -0.10669461195 0.70021973433 -0.70542617156 -0.20041252454 0.64743796225 -0.73209987797 
-0.13976854047 0.72926170216 -0.6608245537 -0.28098170386 0.59454857713 -0.74704551872 -0.37913130151 0.50643023294 -0.77211312279 
-0.46011482743 0.45352212372 -0.73975721734 -0.54433407869 0.4871201094 -0.67562327761 -0.61405325298 0.49285695665 -0.61235754196 
-0.6738220495 0.50158659484 -0.53617942399 -0.73192998127 0.49555822135 -0.46392668766 -0.67042101075 0.64110387416 -0.36092437933 
-0.73822901396 0.56389171551 -0.36402038096 -0.64961362945 0.70225421575 -0.27424595303 -0.72127988868 0.62526461619 -0.28175192215 
-0.70471908001 0.6716275753 -0.2113237997 -0.66799021655 0.7106952252 -0.15577367988 -0.60108716654 0.77435876183 -0.1063281062 
-0.51021255404 0.84451753073 -0.06093711045 -0.40354104802 0.90181545306 -0.027208890349 -0.34784605536 0.93352961104 -0.00076692023888 
-0.34647735874 0.93728057162 0.01995346602 -0.36806572445 0.92172191678 0.073416387381 -0.37489536356 0.9173471741 0.11395026826 
-0.39006551094 0.88693220029 0.19821205182 -0.4130271726 0.83897796588 0.313544085 -0.41984322015 0.77749413336 0.4544683807 
-0.391602221 0.68076904417 0.61402873111 -0.29694899877 0.65070375585 0.69138741222 0.085128778828 0.86333875231 0.49237052373 
0.008175421097 0.8055373436 0.57967730058 0.12196931081 0.92776009594 0.35028125216 0.091679941578 0.97312451196 0.19591466181 
0.065087872734 0.98794663323 0.11581382544 0.052922125778 0.98883019107 0.080658012446 0.0048446658626 0.997280029 0.018372124527 
-0.032637028155 0.99418542552 0.0036250626163 -0.056763767612 0.99700491316 -0.020712230446 -0.033591971446 0.99845095366 -0.025817717372 
0.12133887128 0.98263817288 -0.0065104248838 0.18599164425 0.97832556434 -0.022310672295 0.2354563805 0.96993494477 -0.042498496635 
0.3971398302 0.90478974207 -0.051218717847 0.18645491583 0.9722935949 -0.072642200334 0.5676334723 0.81651946354 -0.069862291423 
0.62409027467 0.76899094206 -0.11466283121 -0.10344991935 0.71958036676 0.6802076745 -0.2098082565 0.63928342873 0.73692563745 
-0.093105136041 0.97395912135 -0.19813724479 -0.089948683619 0.95300439458 -0.28698904864 -0.061950810946 0.96928173573 -0.23338049777 
-0.08655847392 0.98481312544 -0.11373447479 -0.044305814616 0.96257844546 -0.26678649969 0.025260938479 0.90112797219 -0.38207880083 
0.10059251583 0.83989381943 -0.48550971229 0.17776092148 0.79491480543 -0.57597409924 0.21781299402 0.79980718149 -0.55496368426 
0.25425510906 0.79808817768 -0.54500492368 0.27569968856 0.82240331436 -0.49452081087 0.28951260255 0.85152053286 -0.434320229 
0.22927319007 0.90552775236 -0.34164319978 0.14705872724 0.95146690818 -0.26005081269 0.075242468572 0.97456739464 -0.20400254386 
-0.022965128661 0.98049426869 -0.16093738805 -0.092742941968 0.9868693654 -0.12865049081 -0.087805148635 0.98743288139 -0.13058999051 
-0.077987059334 0.98745861871 -0.12604897793 -0.054476639458 0.98925752888 -0.1258785628 -0.010241017743 0.99002408468 -0.12311593064 
0.064829505976 0.99214959816 -0.10295945488 0.13690246965 0.98590382298 -0.057959671929 0.21311945117 0.97616633007 -0.013129501463 
0.24250825063 0.96914983348 0.028596020357 0.26672546288 0.96030155228 0.070689495033 0.30015056553 0.94629929029 0.11475513368 
0.32545450745 0.92863000357 0.17030797558 0.34623539576 0.90954991793 0.22694100485 0.30044774334 0.92257240795 0.2283239551 
0.10989327443 0.98075806737 0.15836958626 0.17188981328 0.9620714719 0.19391613969 0.07232533819 0.98579506567 0.14638763883 
0.034272758888 0.99136049105 0.1237244207 0.0020989071784 0.99350942357 0.1105038654 -0.029004718831 0.99546118777 0.063611291709 
-0.058463046436 0.9945873295 0.061838158158 -0.093525529102 0.98672166216 0.11856090153 -0.14237661509 0.97689223279 0.15667186463 
-0.20083968701 0.95900434857 0.19012274953 -0.24490320956 0.94788625476 0.20176799445 -0.26499639515 0.9485714756 0.17106125106 
-0.27124040787 0.95228448084 0.12702772888 -0.26170609925 0.96066069703 0.074449196458 -0.27181893593 0.96071701411 0.03150613079 
-0.29025212842 0.95610768711 0.00097184671241 -0.30434364539 0.9504836601 -0.025683328057 -0.27067901749 0.96125036675 -0.036469813415 
-0.27164291863 0.95862384195 -0.080589859038 -0.18803290624 0.97234796131 -0.076248704278 -0.29566056296 0.94881299848 -0.10681783126 
-0.31902594463 0.93633296945 -0.14042214052 -0.29130497074 0.94128399459 -0.16776369266 -0.24376934345 0.94774312295 -0.18582181595 
-0.13667195522 0.96897045705 -0.19060641623 -0.10096782702 0.97392292782 -0.20088656461 -0.085040577086 0.97224698712 -0.21468454905 
0.21383805861 0.95190104475 0.20789430791 0.17406424018 0.97379972709 0.14346503851 -0.099659334992 0.98548721575 -0.12604629242 
-0.10342460126 0.99373605773 -0.0083396828254 -0.087070063552 0.99349887809 -0.044053471209 -0.095521380929 0.9929630182 0.063689363481 
-0.055372395149 0.98092617226 -0.1731255294 -0.023996218287 0.95890316529 -0.27252539774 -0.0038535462595 0.94564647378 -0.31475971913 
0.036028798065 0.92251168182 -0.36789269079 0.076756468206 0.90321455008 -0.41232726649 0.069864834476 0.92518623528 -0.36547130658 
0.06813481595 0.94371529439 -0.32121403541 0.10638218577 0.94059417689 -0.31715131641 0.12299084471 0.94277724179 -0.29942852569 
0.053634015123 0.96213360397 -0.2187194175 -0.0039540091651 0.98202619612 -0.15943006377 -0.036053059555 0.98094200888 -0.1442708164 
-0.10393361454 0.98340433566 -0.10505030048 -0.10868000917 0.98641429572 -0.11227427121 -0.19942952293 0.97376100308 -0.10120721836 
-0.19407408138 0.9725826542 -0.11490692839 -0.16793850942 0.97361100903 -0.12686410929 -0.040942295637 0.98807738526 -0.11304366445 
0.042800028694 0.9940148652 -0.098782400061 0.071867109328 0.9928345836 -0.092236211288 0.12973801763 0.98693147912 -0.059915311349 
0.19500836231 0.97902320352 -0.0015146116254 0.23428072965 0.96968699808 0.050554559485 0.26590680053 0.95817705039 0.10208716059 
0.29018712302 0.94293102837 0.15374073061 0.3012971308 0.9300465096 0.20345623328 0.2136032547 0.96041639463 0.15035447473 
0.1628752631 0.96868956004 0.14814002807 0.16283406165 0.95702921159 0.18325589328 0.038134571662 0.99442537594 0.015619254587 
0.15727365572 0.96460339966 0.1982906623 0.11932258773 0.97886910321 0.15797399733 0.086592260192 0.98565716665 0.13972849797 
0.051455159958 0.99053666169 0.11215290104 0.015473183414 0.99618582788 0.084252108823 -0.004754331976 0.99553540692 0.091191807939 
-0.029130932741 0.99620978132 0.066189333301 -0.040554550826 0.99768243206 0.02525266072 -0.048390452491 0.99770089944 -0.015428602312 
-0.05548378364 0.9968782419 -0.012484605863 -0.10324318063 0.98517406344 0.023638334129 -0.13509373267 0.9828819419 0.058444433975 
-0.12992496056 0.98817559884 0.023401794892 -0.12766299018 0.9892980689 0.0090102279927 -0.13021393364 0.99038196935 -0.0026643268729 
-0.16925414242 0.9848909941 -0.01483142005 -0.21432141356 0.97528256327 -0.027680229149 -0.067447396893 0.98729618538 -0.087697130545 
-0.049618384381 0.99248637268 -0.097974998618 0.032231027037 0.99263944361 -0.113959552 -0.15108479428 0.97878746912 -0.10635896829 
-0.26989052791 0.95510683006 -0.12086395016 -0.25861754964 0.95414340325 -0.13525738333 -0.21386091506 0.9616901858 -0.15245177007 
-0.17351891747 0.96655994918 -0.17153910255 -0.11133447377 0.97501399255 -0.16941087877 -0.018178344658 0.98429487874 -0.15084032045 
0.64677816401 0.74322162791 -0.16341432787 0.63759456033 0.73652265981 -0.21939109185 0.61348815742 0.73331328371 -0.2827969649 
0.59526606378 0.72572014266 -0.34371235132 0.55433852401 0.72394954762 -0.40561694379 0.51023037065 0.72286359429 -0.46324331645 
0.45528439145 0.72943756888 -0.50689324507 0.39008692169 0.74479105051 -0.53609954267 0.29866806683 0.78813185351 -0.53741236342 
0.22026500754 0.81331791137 -0.53575189739 0.14512383507 0.83594080513 -0.52656216911 0.077239591363 0.84228718909 -0.5314601049 
0.027115149516 0.80519477322 -0.58999447666 -0.031963931918 0.77194537709 -0.62969957045 -0.077725680072 0.74574720911 -0.65672640581 
-0.081890820767 0.82242652298 -0.55415610166 -0.1177440241 0.85616298578 -0.47937015259 -0.078838516441 0.93756335784 -0.33519303433 
-0.2285862671 0.68681007535 -0.68451510395 -0.28426327831 0.65572943984 -0.69511452012 -0.35815353682 0.63296694555 -0.68450833732 
-0.4425512457 0.5981993076 -0.66385663897 -0.52960815033 0.56798035413 -0.62669206215 -0.6013514835 0.55094576367 -0.57494459039 
-0.66554291646 0.54494980989 -0.5041607391 -0.71299748432 0.5570179131 -0.41995736263 -0.69451958359 0.62905986709 -0.32421588007 
-0.70577180039 0.65468654341 -0.25068180892 -0.73189771742 0.64661213475 -0.19902735383 -0.72071170723 0.67737949895 -0.13684921878 
-0.70599117624 0.69995021066 -0.085338526015 -0.64679402231 0.75655302652 -0.034458556628 -0.55767715082 0.8252371669 0.0086153386827 
-0.5351449008 0.84218769856 0.053364365753 -0.54484567781 0.82917015094 0.11347646789 -0.54771133843 0.81236229908 0.1757430348 
-0.57089424407 0.76244422666 0.26013096577 -0.564598469 0.73338185901 0.35793161907 -0.58137525945 0.64550009954 0.49386377895 
-0.52789826382 0.61039072789 0.58649736955 -0.46172293227 0.58086146973 0.66486724879 -0.37869083254 0.57170308754 0.7240556574 
-0.27018692605 0.65087468161 0.70528312947 -0.12440165591 0.71019787916 0.68812882586 -0.19025883076 0.73379530278 0.64895266826 
-0.05385994234 0.702142372 0.7062343489 0.020361631191 0.76800969026 0.63612246877 0.070051817696 0.85325837694 0.49228128061 
0.084140246513 0.94093428386 0.31577299886 0.050461909955 0.98278200309 0.156707291 -0.043343677757 0.99051897105 0.0016861543183 
-0.12674972617 0.98669158906 -0.096429518866 -0.16490374677 0.97945023066 -0.11555387352 -0.1175979908 0.98944380413 -0.069184448999 
-0.063979601821 0.99262989688 -0.038215780369 0.037726144736 0.99189128945 -0.014837311347 0.15316927937 0.98761217352 0.0034829241733 
0.076482483041 0.98832483998 -0.058993360877 0.034272601178 0.99621835845 -0.075297680874 0.028300174238 0.9958877683 -0.082885276293 
0.15814598883 0.97901332608 -0.081463422893 0.030347055233 0.99508111534 -0.089427919861 0.3309675169 0.93621576018 -0.073448999454 
0.41446687989 0.89936751771 -0.084257673109 0.49239693739 0.85713337128 -0.11839727416 0.0056925940041 0.95050098512 -0.27260581976 
-0.015076250476 0.96903873783 -0.23115550237 -0.03801639906 0.98159052313 -0.18221957243 -0.051531802257 0.98666722427 -0.15359975551 
-0.055049935689 0.98496471902 -0.14361394879 -0.049010755233 0.98276588538 -0.14346307786 -0.059442510531 0.98656622035 -0.13037062354 
-0.090700085804 0.989359242 -0.099534159682 -0.20656517948 0.96936830592 -0.039754451305 -0.34669916738 0.93144353578 0.032771767892 
-0.26382735884 0.96150383968 -0.074590668495 -0.28437149288 0.95412870753 -0.050463509382 -0.26306313183 0.95967328478 -0.092175698413 
-0.2690893625 0.95203584185 -0.099793803776 -0.13016880203 0.97491041326 -0.10491281632 -0.012140214326 0.99374284272 -0.10899786189 
0.0075911645646 0.99420922944 -0.10509107768 0.044766697338 0.99256926912 -0.086578696258 0.12996449647 0.98518076496 -0.026942968161 
0.19409207625 0.97952067977 0.025810566039 0.20106529353 0.97746916278 0.056864139391 0.19503063188 0.97667643363 0.078775266382 
0.14813017938 0.98373194708 0.06357710244 0.086999538276 0.99017337744 0.036353245406 0.011441271566 0.99787796706 -0.014502479139 
-0.039347573923 0.99605153299 -0.047767025184 -0.048551726352 0.99341675291 -0.075874332465 -0.10044956466 0.98685650472 -0.12287249922 
0.0073225731095 0.99428763532 -0.022168386249 0.073409698869 0.97750745865 0.073831340507 0.060083067798 0.98891222089 0.10543603193 
0.039190735456 0.99376603331 0.10243846071 0.020520538298 0.994438654 0.10078958551 0.0032062252577 0.99522508669 0.097198036855 
-0.018493929923 0.99659414162 0.063884069587 -0.041241341168 0.99758502087 0.01137605217 -0.024884802717 0.99319718639 -0.068758844636 
-0.00016750053691 0.98617173814 -0.16010201938 0.01359694173 0.98343231068 -0.16208250288 0.037485283723 0.97928199031 -0.18005447692 
0.026213127369 0.98958548479 -0.12294426326 0.016801552241 0.98901802344 -0.11697910915 0.027225631522 0.99144160415 -0.10845969116 
0.012228267792 0.99569749371 -0.086795707629 0.0011111173408 0.99579311666 -0.09111853124 -0.27996875412 0.95444490158 -0.028955600319 
-0.42791200989 0.89952676794 0.059069555702 0.066908759481 0.98910256011 -0.12675083685 0.030129214709 0.99236493869 -0.11872971803 
0.078520802073 0.98312428472 -0.14747839604 0.024768017017 0.99276019887 -0.1166414899 -0.019641371581 0.99224274776 -0.11280752692 
-0.14024167227 0.97865382512 -0.14098527191 0.52183022549 0.83154935636 -0.16783424297 0.552462192 0.80031382368 -0.22795921784 
0.53026264506 0.79535105633 -0.28668187654 0.51233981359 0.78652748048 -0.34294936212 0.49899579361 0.76898940721 -0.39521432428 
0.47024813605 0.7615454494 -0.44423332959 0.42452847642 0.76921708389 -0.47573596145 0.3648260845 0.78394603912 -0.49958164543 
0.29825422778 0.80363856801 -0.51461619198 0.21355486124 0.84330835439 -0.48763336614 0.13173954619 0.87854065217 -0.45695207115 
0.073578290113 0.87561341755 -0.47558654302 0.018510549953 0.87623154037 -0.47654970839 -0.028094526703 0.86706138369 -0.48371610088 
-0.038879865602 0.96559150636 -0.24730566225 -0.072756080841 0.97134581777 -0.21882817394 -0.038266196636 0.99603160864 -0.07271903833 
-0.10862893727 0.95043707591 -0.28740219441 -0.18667766781 0.84084680511 -0.46824120593 -0.28777308237 0.73546459669 -0.60979535397 
-0.34253870955 0.7170254286 -0.60468574317 -0.39420405744 0.72473937691 -0.56118928377 -0.45175015721 0.7244685822 -0.51578503567 
-0.5202232112 0.70655679997 -0.47263872956 -0.5452182574 0.72538102742 -0.40418519124 -0.52279696548 0.7912166776 -0.30565243919 
-0.54087565418 0.80330375853 -0.24085420017 -0.57635562588 0.78795927121 -0.19540298327 -0.64985117776 0.73739655116 -0.16124668655 
-0.68634966421 0.71631480146 -0.11800242097 -0.69477931211 0.71447826535 -0.06848675849 -0.66766730955 0.73985661917 -0.021763770952 
-0.59457938127 0.80058205445 0.022364540794 -0.5602997195 0.82515763486 0.064104042472 -0.56476316986 0.81304343283 0.11987037468 
-0.62238209133 0.74941682065 0.21781790856 -0.6383612183 0.69191290203 0.3196935003 -0.63911460009 0.64018494075 0.42072883028 
-0.59826793591 0.62256412106 0.50323738773 -0.54401304751 0.60046088548 0.58116138492 -0.47620037606 0.60143698118 0.63596602472 
-0.40564730175 0.61011704939 0.67359168344 -0.31256623824 0.691716271 0.64599305957 -0.24168859184 0.74819605772 0.61440405458 
-0.13184950438 0.78487487175 0.60090105733 -0.1520597618 0.86008057673 0.47177155748 -0.07948371965 0.773762756 0.62759151897 
-0.025655553811 0.77478039493 0.62768217458 0.04037885111 0.79409861341 0.60514122487 0.072504642138 0.85479101226 0.50070110096 
0.081276420926 0.92289585669 0.351223652 0.042769937657 0.98328293564 0.14118336006 -0.018352502049 0.99081912324 -0.0040317784151 
-0.094417127665 0.99016511571 -0.086134221068 -0.11669890933 0.98744299728 -0.10353555205 -0.087379767598 0.99302277411 -0.066386429146 
-0.050623197255 0.99540273955 -0.041761457762 -0.03824113062 0.98421881786 -0.058289280419 -0.060690962042 0.99230289147 -0.084919773554 
-0.022634145575 0.99588991159 -0.086514097395 -0.00055395107223 0.99563273862 -0.091529787471 0.022640551844 0.99432838983 -0.10210058642 
0.01817483342 0.99376682536 -0.10885217917 0.025705213559 0.99420794623 -0.09828526785 0.0070516808592 0.99336042457 -0.11480871859 
0.18079855174 0.96909453428 -0.10052596617 0.053088622423 0.99057655401 -0.1231035148 0.02754852791 0.99335768706 -0.10347095565 
0.022043046284 0.99695482169 -0.073334638518 -0.075865349403 0.99118663427 -0.09804512783 -0.057344816103 0.99295726541 -0.072040258711 
0.10518110407 0.97735728209 0.1317362722 0.10128560457 0.97310073142 0.19348970685 0.080572941866 0.96410486731 0.25005734144 
0.035118098204 0.96202137627 0.21783180545 -0.033258463837 0.97716984713 0.10483310001 -0.085114539011 0.99545728097 -0.023178195739 
-0.098990576546 0.99133533399 -0.070404072645 -0.089618110889 0.9935209989 0.045930926791 -0.078783574979 0.98031411061 0.16438952438 
-0.100592088 0.98302446699 0.14585794981 -0.11152126962 0.94013085727 0.29730354367 -0.097686386044 0.99409948665 0.024785855541 
-0.060459624163 0.99029313873 -0.11553733716 0.28846996857 0.9367402355 -0.19182155551 0.23837824638 0.95484734735 -0.14939138632 
0.40794911101 0.86851554333 -0.26134886403 0.41506796048 0.84959855183 -0.32153730675 0.42271210981 0.8261626401 -0.36977536451 
0.40526641617 0.81862929746 -0.40564570032 0.37215746493 0.81651511901 -0.43691911271 0.34562760786 0.80803273308 -0.47420001422 
0.31136151548 0.80840156872 -0.49841552125 0.21890978202 0.86067079065 -0.45073914028 0.077948819136 0.95365337639 -0.28568829736 
0.016996477969 0.96591470503 -0.25451116986 -0.0099970071471 0.96498000534 -0.2563992203 -0.032651224705 0.99438986835 -0.098942418604 
-0.0217097051 0.99384662416 -0.05426087352 -0.0351026543 0.99347206094 -0.10792301674 -0.045942775814 0.99283117822 -0.08877479152 
-0.080252761623 0.97829058025 -0.18245359364 -0.14459349991 0.9387694336 -0.28810416205 -0.22390171959 0.86867096925 -0.42361736441 
-0.2997240068 0.80997394327 -0.49291801848 -0.31253716615 0.84401182847 -0.4227812042 -0.35784871849 0.84115167294 -0.39575597679 
-0.3665960066 0.85460426674 -0.35125126138 -0.36533982393 0.87724733594 -0.29622846345 -0.31397941598 0.91915147104 -0.22961446605 
-0.40383266202 0.89160666627 -0.14462801464 -0.30923987053 0.93304268021 -0.14111975052 -0.5266228503 0.8223638605 -0.14544467859 
-0.58039652003 0.79945239534 -0.11288793832 -0.59401021924 0.79355651304 -0.063962503915 -0.58310408966 0.80932614941 -0.028905745321 
-0.55622805538 0.8300862881 0.018377702784 -0.56064136992 0.8246938043 0.061846672342 -0.55407607973 0.82526955841 0.097162307873 
-0.6024090819 0.76963388843 0.18429716218 -0.65072813638 0.63212692416 0.41725092755 -0.66299253333 0.66579360287 0.32999188933 
-0.60470387897 0.63103189499 0.48339432729 -0.54440313212 0.64508648839 0.53136657996 -0.47667755565 0.66498237391 0.57455870401 
-0.39691313428 0.71143375029 0.57242236597 -0.32299568838 0.7452696745 0.58061254882 -0.225189914 0.83308644866 0.48528901557 
-0.16200383902 0.924717345 0.32215776725 -0.25051092158 0.94912638198 -0.15443496329 -0.15834532917 0.97575557468 -0.13103359534 
0.041582712972 0.98087933254 -0.16672624389 0.058018094513 0.9759079896 -0.20716896789 -0.14114626398 0.98039301474 -0.13683643161 
-0.046220260384 0.9871806763 -0.12527840048 0.031588757674 0.99288204434 -0.11445349351 0.030361058577 0.99427989179 -0.10169115091 
0.012972776604 0.99546646483 -0.090190424914 -0.04959131194 0.99403541281 -0.093212815895 -0.14167830936 0.98298717632 -0.10577760593 
-0.078328838224 0.99415835232 -0.063598292596 -0.076708575496 0.99368028356 -0.05497022003 -0.075156156952 0.99043918452 -0.057324339052 
-0.14860345484 0.98228833152 0.0054600134015 -0.21252410399 0.97315068102 0.051999096462 -0.25931341722 0.96127353475 0.062566146039 
-0.32414673831 0.93894859502 0.08689495449 -0.4048336463 0.90232713977 0.11407416458 -0.46328040086 0.87555219924 0.13418065711 
-0.44478320626 0.89295134741 0.043339771842 -0.38062515036 0.92417880823 0.0042542503318 -0.35298761271 0.93395934149 -0.021771241888 
-0.30766593503 0.94726667839 -0.049091702714 -0.24812777003 0.96293469218 -0.067211046244 -0.20058021081 0.97254324802 -0.080382607953 
-0.15605026325 0.97489462121 -0.081154622991 -0.11239583318 0.98405442493 -0.09833486039 -0.091638032165 0.9854273116 -0.097656001063 
-0.055198986499 0.99102181944 -0.10349646486 -0.038519962472 0.99128050975 -0.1045811739 -0.0056601489165 0.99592325614 -0.08821386679 
-0.0031775644045 0.99705803529 -0.07277128164 -0.0048794639365 0.99778425117 -0.057579460646 -0.012867424805 0.99857040554 -0.04907346371 
-0.027937087626 0.99794307177 -0.046110437984 -0.05032990862 0.99574115289 -0.055352393662 -0.09494835103 0.99034356426 -0.098687808577 
-0.13032649964 0.97771296169 -0.15264709768 -0.085500479285 0.9877047075 -0.12303270327 -0.1320794555 0.97437222236 -0.17675781469 
-0.060759433848 0.99231810612 -0.10072298254 -0.029009862829 0.99578335793 -0.07962814008 0.0026547364874 0.99319508745 -0.016872456161 
-0.016756109285 0.99468478012 -0.059980222795 -0.049336520381 0.9667338379 0.20095133034 -0.055629295922 0.93314270626 0.34579774821 
-0.08064301548 0.89039763028 0.43660454244 -0.042110648842 0.82355774007 0.55361137805 -0.018496638152 0.78612221518 0.61502452272 
0.022986848192 0.7942464611 0.6067215322 0.05596578336 0.89655809653 0.43610389049 0.083457496664 0.90553075123 0.39437525649 
0.082999950602 0.97047298738 0.21925783964 0.013426815115 0.994995368 0.035311525293 -0.062124966588 0.99541458901 -0.058351446078 
-0.039243877013 0.99355110872 -0.10501456381 -0.021771561811 0.99094049055 -0.13089394505 -0.0096381144456 0.98849259417 -0.14621324829 
0.02320803554 0.98067560619 -0.18636344128 0.042650539779 0.97682527333 -0.20675361503 0.052007523597 0.97096512583 -0.21599541272 
0.068600862098 0.97569350672 -0.20798693314 0.15320605091 0.92635949063 -0.32924039396 0.080067332554 0.97375308211 -0.21266389112 
0.085611895115 0.97469837866 -0.20592339161 0.098680052044 0.9749325915 -0.19931197029 0.11271747554 0.97506321932 -0.19065490829 
0.10110511117 0.98019648033 -0.16590632683 0.17145474793 0.95837148312 -0.21979029413 0.22289275175 0.945976539 -0.2138694596 
0.2960011005 0.90736486048 -0.28275258594 0.11165628014 0.98192300815 -0.14579896804 0.066074211662 0.99036164212 -0.11042413226 
0.078309508972 0.95705175247 0.27072401958 0.066951356052 0.93935191775 0.33065246934 0.021397492981 0.928303309 0.36809181574 
-0.1364305423 0.97571905089 0.15762183227 -0.45040129664 0.88841024966 0.020967251922 -0.44130793657 0.89559608788 -0.0045240845443 
-0.45407866206 0.88664638837 -0.034980075766 -0.44070988611 0.89131932493 -0.064783883228 -0.3856923874 0.91601964711 -0.091971660891 
-0.31583226249 0.93803906616 -0.1178979908 -0.23013065751 0.96358676979 -0.12887113785 -0.16820138787 0.97585411782 -0.13220398529 
-0.10420666733 0.9863320794 -0.11623987345 -0.057535572798 0.99216280148 -0.10318539246 -0.040571381643 0.99554699304 -0.083800720708 
-0.037924632103 0.99655870183 -0.072423511385 -0.12084511897 0.98382897777 -0.12073426771 -0.088511498937 0.99243764232 -0.079689741649 
-0.062208484533 0.99087034807 -0.10253401047 -0.10532884374 0.97655095097 -0.18299916232 -0.03733305114 0.99635763508 -0.074932022185 
-0.19669211109 0.94959423233 0.19900069329 -0.24224698926 0.93691533182 0.21149300615 -0.30400982794 0.91396834172 0.21792913678 
-0.35580653681 0.89416224864 0.22444483209 -0.41387559475 0.85696329692 0.21730397607 -0.4721389421 0.836120033 0.2192347619 
-0.49078861778 0.84332311682 0.193041888 -0.60024621599 0.74307274328 0.27506997573 -0.61590591958 0.68971078397 0.37258424589 
-0.56586852999 0.701415831 0.41319375262 -0.49747039806 0.73200001901 0.44089452999 -0.42495536244 0.76772744254 0.4536654632 
-0.33673691447 0.82583253577 0.43622652061 -0.27783963769 0.85644469224 0.41894829923 -0.21925652767 0.90228071831 0.36708160669 
0.10696013018 0.96396049116 -0.23046209382 0.14665488401 0.95265366586 -0.25130434548 0.15534686225 0.9579819536 -0.23190601115 
-0.17216844076 0.93776933075 -0.27303951464 -0.23109982244 0.89730936093 -0.35993240441 -0.19915470934 0.94101329962 -0.24746857819 
-0.24392067212 0.94121972156 -0.21525936068 -0.2387686689 0.93201208058 -0.23999509816 -0.23456760663 0.94463354732 -0.20297671298 
-0.21885838644 0.95452618086 -0.17291606042 -0.11458209694 0.98566528277 -0.11836006144 0.2228579191 0.8911249665 -0.38412289902 
0.35523514695 0.86996451703 -0.33774464059 0.32189087615 0.87810201489 -0.34973736612 0.27193266859 0.89087291853 -0.35319318728 
-0.016387229364 0.88956269258 0.44789861162 0.25509988621 0.88826461101 -0.37395640666 -0.11490446185 0.98393866691 -0.12263637368 
-0.12223337576 0.98258549964 -0.12630503612 -0.10945613323 0.98637238228 -0.11350049255 -0.56044028761 0.75481039767 -0.33450799425 
-0.49836172252 0.82669716042 -0.2290969394 -0.085873558397 0.9274727669 -0.3557112761 0.2368053791 0.95571448925 -0.11513515489 
0.032095675281 0.99263766519 -0.10655852348 -0.077010719483 0.9934425003 -0.078137085596 -0.056822243102 0.99510069526 -0.074175447489 
-0.18678796383 0.95505864727 -0.20335198433 
Motion 1 1114 double
0.87168919445 0.82696348596 0.9268790846 0.96466074248 0.78152498597 0.87944601943 0.7283352404 0.84158442837 0.68855336194 
0.7981337165 0.67517099142 0.75663189969 0.66746946291 0.73925033613 0.71847600052 0.78641946686 0.80054321489 0.85376333061 
0.91240667602 0.95291243481 1.0486825567 1.0712896817 1.1856640185 1.1755057526 1.2557621175 1.2434830544 1.3005917983 
1.26717077 1.2826238315 1.2517604691 1.2267937575 1.182079221 1.1489868738 1.1110783633 1.0670661122 1.0271304959 
0.98725950458 0.96023814474 0.914620194 0.90341853835 0.85056006413 0.84247733939 0.77767366503 0.77720664195 0.67789190606 
0.69254014905 0.56020836605 0.59095064224 0.43108498782 0.47042515956 0.30084548458 0.35118302187 0.21926131192 0.26934345372 
0.19676307902 0.21985216477 0.27614827285 0.2529980964 0.44628980843 0.39065621132 0.65564410945 0.57971872181 0.86561093645 
0.76573267195 1.0467628592 0.93069655816 1.1801592946 1.0551287432 1.2568757437 1.1242478437 1.2686477485 1.1247460516 
1.2151664773 1.1061448964 1.1345073443 1.0763616267 1.0595339864 1.043499965 1.0000854494 1.0334918801 0.95263980891 
1.015250256 0.91131081965 0.97819198715 0.63050202438 0.65374056006 0.59746988763 0.58445037159 0.67170584277 0.61046555796 
0.67434035686 0.61575151384 0.67419101111 0.62003658524 0.67159173661 0.62424440601 0.67905206879 0.62481502769 0.69209426117 
0.62518393188 0.71323086682 0.62648733802 0.71227032449 0.62010597081 0.6991763727 0.61395485939 0.6725865662 0.60427162012 
0.67610138833 0.61019634417 0.67915832757 0.61378492622 0.67927859275 0.61837766584 0.67466895417 0.61371376818 0.64898405189 
0.59337329607 0.61401903129 0.56582274206 0.59286496788 0.53963485943 0.56476932377 0.50597386663 0.53167507711 0.46395384199 
0.48953069088 0.43689539087 0.45991506253 0.411193671 0.4353064589 0.38628772993 0.3997945866 0.35573805386 0.37563762493 
0.34744881581 0.35880744898 0.33409820161 0.35588426559 0.32611536802 0.35060613818 0.32191709183 0.34192068094 0.33600688688 
0.36096520612 0.34346541559 0.38466164592 0.34805132121 0.38545564215 0.34972577523 0.37723810627 0.35011029007 0.35981936953 
0.34238571736 0.36231666083 0.32440458161 0.37130978066 0.31597739343 0.39576193916 0.33867594653 0.42238752416 0.37146464827 
0.45072676619 0.40856635587 0.47007777411 0.43753578261 0.47831900904 0.45440981287 0.46906193948 0.45743838837 0.44900924009 
0.42965229611 0.42531739972 0.39272630813 0.41195294364 0.37286782451 0.39017792953 0.35317242562 0.35003730303 0.32089689107 
0.32274447917 0.30086771537 0.30605208992 0.29238358259 0.30768883825 0.28865483163 0.3143050928 0.28719700805 0.32831848145 
0.30600007341 0.35117579101 0.33372764537 0.39891350459 0.3799467539 0.45266485141 0.42714346142 0.51253372319 0.46974663762 
0.57165916318 0.52744577611 0.95550330782 0.9985571439 0.92494025972 0.90521541609 0.83158545735 0.80219772139 0.81845112472 
0.89501238156 0.99438088223 1.0968729807 1.187729126 1.2466529549 1.2532606137 1.2379552745 1.1672180926 1.0661062154 
0.96997091203 0.89732239742 0.84270505628 0.80497894473 0.7568930738 0.69229509794 0.60850526492 0.49180371566 0.40500441033 
0.34299151567 0.30465668706 0.33923764309 0.4377353753 0.58615162173 0.73139548542 0.86702394154 0.96035811525 1.0060269199 
1.0137787387 1.0061803874 1.007766571 1.0143281384 1.0541254546 1.0605338061 1.0429011102 1.0203046685 0.54787670428 
0.52503282312 0.57049253772 0.58209417876 0.58415942891 0.58017270321 0.57528878277 0.57238869365 0.56701544065 0.56875045902 
0.5667809246 0.5748182786 0.58866123781 0.57932645232 0.57756095167 0.56877972517 0.53657860992 0.49796030764 0.46436508691 
0.44044899381 0.42254356313 0.40003736089 0.37165128144 0.34973302507 0.33201260767 0.33577976338 0.31296738568 0.29999561718 
0.31592897193 0.31771520751 0.32313379756 0.32642633551 0.32609695742 0.3287036876 0.30242263126 0.30318163653 0.30966924337 
0.33912800074 0.37949394981 0.41080804317 0.42718280747 0.42651553731 0.41328878834 0.39439984316 0.36350020021 0.34487337881 
0.32852902397 0.3143688496 0.28969460498 0.28318684085 0.2795294757 0.28660936145 0.30157397362 0.33912465826 0.37792344346 
0.42464002086 0.46523441136 0.50514262348 0.34003940445 0.3465716068 0.85292090591 0.90664743575 0.82895077769 0.84269134571 
0.90947599894 0.99716821761 1.0906124986 1.1750929539 1.2263746988 1.233983913 1.203683045 1.1152170126 1.0114536644 
0.90431677221 0.79843867043 0.76286550404 0.72814167026 0.69875208752 0.66513169063 0.62452326979 0.57504876359 0.4306895622 
0.46047121233 0.41429293005 0.44333878355 0.51036679229 0.62022398621 0.72685034491 0.80617657665 0.86219193239 0.88741632773 
0.88638832067 0.8998823955 0.91115348495 0.93613168404 1.0347020606 1.0494817193 1.0484440425 1.0350272027 1.0325658819 
1.012331719 0.50648715568 0.54061403416 0.32931858137 0.34766571734 0.31793120401 0.30615585373 0.29533096253 0.29288292123 
0.30534472583 0.3074553373 0.3109843044 0.29050317454 0.31302743204 0.28532240425 0.28078783665 0.31602555438 0.35669259054 
0.3970106424 0.41895550015 0.42404821384 0.43615775441 0.41465010028 0.40480862945 0.39144451008 0.37575694442 0.36291467344 
0.35142280948 0.32617864994 0.30412855115 0.2803632618 0.28180201453 0.29772990573 0.32755333389 0.36916560171 0.39785859793 
0.43978237614 0.47767730354 0.5024330447 0.52806908589 0.54582374302 0.55186313885 0.54840451558 0.55042504008 0.55555039835 
0.56018075056 0.56173800836 0.56102963493 0.56414675984 0.56934162824 0.57979367473 0.56900951439 0.55091809714 0.5078649502 
0.48243075871 0.45572779924 0.43687571585 0.42128777167 0.4034929391 0.38394040962 0.36855936738 0.36902200045 0.36891752081 
0.33133032548 0.36141821822 0.32108489146 0.30669659999 0.50811758136 0.51332839791 0.48962974962 0.48028312257 0.48048103856 
0.52384864356 0.58638551692 0.66061089108 0.73693525658 0.78169334212 0.78209480404 0.77860911908 0.76034008945 0.75498435245 
0.7549469306 0.74657761622 0.98163084117 0.94624082211 0.99627481667 0.99204535462 1.0060317214 1.0062750449 0.83735068053 
0.88324385021 0.81122557461 0.80755631137 0.85917585212 0.94256539744 1.0303249871 1.1104000945 1.1718883803 1.1862503508 
1.1341738204 1.0500134183 0.92495917458 0.82189854425 0.73209462254 0.67057367193 0.64088792173 0.62339657896 0.62980112998 
0.60624298484 0.58517889826 0.53606972821 0.47441945272 0.44126908328 0.38572088062 0.46341383184 0.9491548953 0.90854715418 
0.94397770809 0.91431253618 0.82975946306 0.67405035842 0.30055956786 0.27343072462 0.25957110851 0.26723864046 0.27495302346 
0.27762742702 0.26101736128 0.28469757008 0.24563983674 0.31402599059 0.30699955914 0.29558160642 0.28179803012 0.2699888547 
0.2933690081 0.32946993104 0.36882531533 0.41747512947 0.43812544824 0.46160375329 0.47489739952 0.47048954328 0.46523388034 
0.46095628277 0.44746994621 0.43231701699 0.39405338812 0.35677811962 0.32296701822 0.30625198317 0.31193629848 0.33595555758 
0.37310868414 0.4138944097 0.41533341205 0.44044058698 0.46201665478 0.48342391798 0.50159613217 0.5185112433 0.53410956766 
0.54932305361 0.5595381377 0.5676004393 0.57202218329 0.57291063371 0.56844108285 0.5721522517 0.57097082782 0.56451390607 
0.55351198365 0.47355874997 0.50751797194 0.4445429661 0.42601919519 0.41562573772 0.40733046673 0.39279035821 0.3925935033 
0.39297163935 0.37737987584 0.35438389027 0.32241716597 0.2954178194 0.30878645288 0.26453126412 0.22905283382 0.21484669695 
0.2174728545 0.22753067842 0.36142020234 0.39674545738 0.32013822386 0.2574567217 0.21895111862 0.15974706245 0.23841919689 
0.22947514021 0.19767684658 0.16052304961 0.14487952863 0.14242595109 0.18611636665 0.53137143075 0.52940125945 0.4627548805 
0.47080151925 0.49177816349 0.52810496973 0.58037993381 0.6423932838 0.67413173938 0.68244297503 0.6752204946 0.65474733791 
0.61602427029 0.61463096828 0.59285584643 0.56964739086 0.52935893485 0.57163946154 0.45011858557 0.7040981317 0.82650295037 
0.88462595183 0.92218373259 0.93419814311 0.93851463604 0.95013067662 0.9836565489 0.93229687569 0.96418767049 0.90875719681 
0.88002590823 0.84571750683 0.82890637715 0.81118592906 0.76933989964 0.74294448428 0.72234765915 0.74823022104 0.83281542968 
0.91905379685 0.99310098389 1.0660200936 1.0651032129 1.0244792074 0.83428962798 0.93002646557 0.73813105692 0.64142364929 
0.58375870529 0.55583570757 0.54326640395 0.55545266157 0.55634240621 0.52582782066 0.46379781398 0.39018215497 0.29990210799 
0.29370929455 0.2122166884 0.33257809812 0.35847061099 0.97711616556 0.91212338011 0.19218825154 0.22158324338 0.23210102527 
0.16775142935 0.27455660419 0.28887128304 0.29175220327 0.29937564343 0.28137394777 0.25949721676 0.26720716971 0.28296468472 
0.32760249688 0.38359753905 0.4496906995 0.50996106431 0.53858801025 0.55569944667 0.55406406491 0.54736975482 0.52956572674 
0.50058152268 0.45942306946 0.41110434547 0.35947432073 0.3301593903 0.33430011034 0.36884302201 0.4337503096 0.4706535841 
0.40715338054 0.43182560852 0.42131277943 0.43396107725 0.46269031141 0.49705969358 0.52405238187 0.55213947943 0.5822712563 
0.59210361746 0.59121807114 0.57349815812 0.56554081633 0.56388254735 0.55904931715 0.55307267465 0.54572223757 0.519453191 
0.48886757221 0.47344869898 0.50100465678 0.49036344941 0.46034241553 0.43399888793 0.41172203256 0.40479965012 0.40616820451 
0.45140166242 0.45569446787 0.14793100935 0.10463841284 0.16836579275 0.086926856488 0.2328916363 0.26426978898 0.28849949967 
0.29471814667 0.29571849129 0.27520885189 0.2522585668 0.22770560377 0.22041644797 0.28226660464 0.34716879416 0.42518085708 
0.4992608785 0.56964889656 0.59626712169 0.5970162978 0.58590796329 0.56202199162 0.52731379032 0.46779409365 0.41475976202 
0.36605331425 0.33974731465 0.35032155306 0.38593405431 0.44987642614 0.45575820583 0.41988774412 0.40121893614 0.3408063274 
0.40898221415 0.39300381682 0.37707620808 0.37908207187 0.38643771224 0.42165819333 0.45694270514 0.49752966051 0.53781780264 
0.57537227427 0.58214120417 0.58238126558 0.55577651958 0.54153926885 0.52931028896 0.52727973877 0.52335686225 0.4626453234 
0.38842414297 0.35205497191 0.42409531337 0.45816046629 0.46304216948 0.42901208929 0.39349627889 0.37289073413 0.37363176583 
0.38186567003 0.40003288826 0.42827159921 0.47954385306 0.52839581796 0.56804532559 0.57969536784 0.56463953895 0.52481735541 
0.49258608538 0.46505090506 0.45282829286 0.449696099 0.44652674526 0.44635376943 0.35322561179 0.3336402365 0.25269531537 
0.47198626853 0.59167193348 0.71324462642 0.7759242096 0.81991646969 0.82807406778 0.83602538289 0.84156077322 0.81227595695 
0.78308513754 0.74495929771 0.7171694902 0.69003537193 0.67200732938 0.63884352687 0.60118781591 0.58020861081 0.59924845772 
0.66577172316 0.76034740432 0.86449471294 0.92249325946 0.91591394908 0.87006374387 0.76708735703 0.74895399288 0.6257193722 
0.82499521066 0.78174364674 0.70583168933 0.62021110037 0.53538492664 0.48363387508 0.45348537539 0.43234226652 0.44941056108 
0.46022729401 0.41534173526 0.35012442705 0.27163951336 0.2100340822 0.19105793518 0.1564180594 0.16980478808 0.22435189251 
0.23254480718 0.25322050243 0.26761343185 0.27991602174 0.25230282134 0.2238764141 0.20692087235 0.19319694721 0.23407040609 
0.28146258883 0.33348360911 0.35950143411 0.54794842556 0.51989863455 0.55494886323 0.5484738501 0.51837748182 0.48210251512 
0.43509364738 0.38439942145 0.32872299815 0.29538062002 0.30654094893 0.33139823475 0.36548546617 0.36998460857 0.30995085651 
0.21845475025 0.22801452692 0.13787944945 0.29952890844 0.33455469925 0.34477128414 0.34087679543 0.33566458245 0.33767611683 
0.36790888788 0.40058380405 0.45151757537 0.50102203816 0.53551829083 0.54523497086 0.51405478844 0.54165867497 0.47927346307 
0.45378813943 0.45851659191 0.48519928616 0.33731864593 0.33619362871 0.2145644505 0.18854147008 0.25502665241 0.32354521498 
0.39342353394 0.27243531043 0.29795748595 0.34206529615 0.38732995643 0.42562042891 0.44645268821 0.42785672087 0.4043912956 
0.37677712962 0.34526599716 0.33813998298 0.34113494816 0.3237801407 0.32057928429 0.24103337034 0.19175982172 0.20936407409 
0.25105594363 0.3428936609 0.46249045801 0.56080988626 0.60378614879 0.65371300776 0.67027427128 0.6670663869 0.61657353897 
0.6172235551 0.60051835773 0.57335457735 0.54316082447 0.51417116619 0.48968956196 0.4570414009 0.42417067995 0.40127890157 
0.42338832922 0.52932536615 0.63751692069 0.7526418373 0.79986434475 0.77933766199 0.70260462417 0.59601818478 0.45548705162 
0.45133519457 0.31233829732 0.58595981025 0.65102051129 0.64652818468 0.5666519902 0.47340599118 0.38524303154 0.34481244782 
0.33615976467 0.28051516526 0.33512162898 0.37026209699 0.30823047693 0.24469999613 0.20427165295 0.18017551811 0.19670382177 
0.22825283009 0.15565999415 0.26794811903 0.13038685104 0.33132650022 0.26927672658 0.19158091459 0.16626977403 0.16428781167 
0.15821467299 0.16027918569 0.16557932328 0.14093788065 0.10938125422 0.096570266499 0.10829092812 0.07295537974 0.083852364119 
0.11159596655 0.17818265553 0.158987132 0.23619541261 0.15536518227 0.13527509344 0.20772363297 0.27763551892 0.30657641506 
0.30663360079 0.30101666044 0.30422177692 0.31008519551 0.32732203496 0.36725011756 0.32634107429 0.28757811429 0.23644525066 
0.2748577806 0.28833139347 0.17113427373 0.16400276914 0.22834807053 0.30933421706 0.39547021335 0.37426475315 0.47125692706 
0.49847596648 0.48703809898 0.42701071391 0.38613667453 0.39163636109 0.35259204321 0.33817309985 0.32644820194 0.32539325735 
0.30828574697 0.28882507314 0.28787164212 0.2696587993 0.51303081879 0.39993817197 0.6155304513 0.61840657798 0.60132377901 
0.50708512562 0.40840699605 0.31728012815 0.19407590854 0.36190697255 0.28037767604 0.55834656841 0.51333227061 0.34793331096 
0.31595625225 0.28522491146 0.24761022307 0.20862407324 0.18358126362 0.23679947822 0.23510724834 0.21883244106 0.1979115395 
0.18139762927 0.18718022724 0.21416299169 0.23629825239 0.26733113981 0.25924427183 0.3361374997 0.42349132658 0.44321309268 
0.45373192492 0.4408456219 0.42245965179 0.40319982999 0.37812230358 0.33415806795 0.29119735148 0.23581628531 0.20135173439 
0.18912131028 0.18614711109 0.22104333836 0.2286614171 0.18959599172 0.11059890982 0.10918158657 0.15265538971 0.13157468475 
0.19251434828 0.24967429943 0.28105324062 0.26320939688 0.11754994613 0.19713929576 0.32559856381 0.43222740513 0.52584506863 
0.48732581407 0.37118504918 0.29016746531 0.20863094748 0.225191809 0.24035508887 0.32194403275 0.375834916 0.42758243652 
0.46750087742 0.49792263287 0.44531618551 0.46466103066 0.38845895446 0.50772724595 0.48231597642 0.44591865274 0.39850386415 
0.34710863839 0.18939302646 0.10264720663 0.16121692538 0.066576013187 0.11100883799 0.15116066113 0.16669172087 0.18667937352 
0.17036653454 0.34320566446 0.32951903695 0.31404077669 0.30422241755 0.2999587187 0.29838958105 0.29349060197 0.26650915518 
0.22295882094 0.17077858 0.087869763771 0.069044914922 0.11464842714 0.098698001345 0.15334892118 0.15027751443 0.1925090417 
0.22949497771 0.22489173498 0.25109112707 0.29345525165 0.28506305865 0.27274319654 0.25055179672 0.3048056764 0.39688155215 
0.46023395516 0.45880637152 0.40630392025 0.32775617982 0.26488737723 0.20952315384 0.41130536553 0.35904141653 0.28112746435 
0.19092051577 0.25609838338 0.18707227699 0.3163242987 0.27607461427 0.34039536043 0.3269528544 0.22591235269 0.33161404728 
0.22532059377 0.2173388597 0.23093356288 0.33028503403 0.28681860764 0.15307285923 0.13207306441 0.18472063914 0.98058323162 
0.96768978579 0.24134681465 0.12532075243 0.14261833098 0.093500593529 0.085627387758 0.19371293215 
Normal 3 1114 float
-0.606662 -0.204127 -0.768305 -0.716988 -0.24069 -0.650222 -0.719653 -0.377757 -0.568437 
-0.569196 -0.383949 -0.719813 -0.864667 -0.211203 -0.421573 -0.8239 -0.398528 -0.3669 
-0.960507 -0.154659 -0.18257 -0.908771 -0.378913 -0.119889 -0.990551 -0.0970608 0.0153075 
-0.933725 -0.332738 0.0795221 -0.98474 -0.0571394 0.158745 -0.939615 -0.281661 0.16565 
-0.966866 -0.0498697 0.250028 -0.920411 -0.274999 0.255902 -0.922533 -0.108176 0.3622 
-0.893392 -0.285022 0.340941 -0.888995 -0.155513 0.428822 -0.862089 -0.273062 0.42405 
-0.845068 -0.17065 0.501424 -0.805722 -0.277372 0.520369 -0.776552 -0.152595 0.608363 
-0.726247 -0.270982 0.628004 -0.676957 -0.12683 0.718228 -0.6092 -0.236765 0.753369 
-0.494425 -0.0941945 0.860974 -0.456426 -0.218506 0.859548 -0.335104 -0.140484 0.928636 
-0.299618 -0.233333 0.923074 -0.16645 -0.0804568 0.978896 -0.131144 -0.221618 0.962709 
-0.0347424 -0.0386807 0.998008 -0.00791336 -0.23688 0.967678 0.0487433 -0.0113271 0.997575 
0.0576342 -0.235401 0.964476 0.19246 0.0398028 0.975388 0.197679 -0.239578 0.940115 
0.280663 0.0807884 0.956252 0.309305 -0.261801 0.905796 0.300032 0.141513 0.940748 
0.357345 -0.223761 0.894506 0.349504 0.236278 0.903033 0.432624 -0.114223 0.882932 
0.57104 0.258756 0.77003 0.584222 -0.0675814 0.79606 0.71683 0.230879 0.648428 
0.699904 -0.114421 0.688922 0.834723 0.202665 0.493982 0.8053 -0.199234 0.525624 
0.931484 0.165046 0.301304 0.899658 -0.269001 0.296601 0.99202 0.0705452 0.0917843 
0.965597 -0.226181 -0.00205233 0.977351 -0.0271462 -0.160818 0.949101 -0.192911 -0.225975 
0.935092 -0.0236129 -0.339078 0.90642 -0.166003 -0.377109 0.88639 -0.0196742 -0.45827 
0.858051 -0.143359 -0.48803 0.83938 -0.0366508 -0.540528 0.815013 -0.132693 -0.561427 
0.790178 -0.0323276 -0.611494 0.765082 -0.117771 -0.630259 0.712512 -0.0195076 -0.69897 
0.682467 -0.127604 -0.715307 0.600981 -0.0618401 -0.79015 0.570004 -0.143837 -0.803469 
0.474897 -0.0938417 -0.870193 0.450192 -0.170726 -0.87351 0.352246 -0.0983813 -0.929812 
0.338697 -0.191268 -0.919212 0.263851 -0.111278 -0.957935 0.239652 -0.212952 -0.945578 
0.169559 -0.114467 -0.977961 0.1177 -0.206541 -0.968273 0.0738376 -0.0924268 -0.991556 
0.0342608 -0.189499 -0.978104 -0.0257568 -0.0933229 -0.993664 -0.055781 -0.18408 -0.976694 
-0.141914 -0.113207 -0.980469 -0.171705 -0.166963 -0.968239 -0.278259 -0.133886 -0.947076 
-0.278777 -0.202475 -0.929122 -0.431323 -0.15667 -0.883288 -0.433217 -0.313782 -0.83276 
-0.233011 -0.139776 -0.962376 -0.0655521 -0.158123 -0.974411 -0.0296958 -0.0508377 -0.99148 
-0.155781 -0.0151469 -0.986468 0.0683405 -0.161332 -0.983961 0.0812451 -0.0856362 -0.992025 
0.104646 -0.120535 -0.986288 0.127799 -0.117128 -0.984034 0.150497 -0.11647 -0.980614 
0.175517 -0.159942 -0.969387 0.204749 -0.144732 -0.967898 0.228532 -0.227878 -0.946257 
0.290749 -0.165868 -0.939523 0.302103 -0.232379 -0.922563 0.383763 -0.177526 -0.903177 
0.380323 -0.225302 -0.894721 0.485302 -0.174582 -0.855382 0.467698 -0.202437 -0.859481 
0.614078 -0.143654 -0.766517 0.555487 -0.108428 -0.816929 0.70912 -0.0696362 -0.695503 
0.620396 0.0136269 -0.777841 0.745549 0.0643168 -0.661845 0.642238 0.168534 -0.744061 
0.750904 0.143591 -0.642502 0.683114 0.253705 -0.680055 0.792657 0.166306 -0.579105 
0.739956 0.310459 -0.588294 0.868843 0.140338 -0.473655 0.819271 0.323201 -0.463257 
0.913971 0.129489 -0.378908 0.85997 0.333169 -0.375701 0.940502 0.160984 -0.289432 
0.880951 0.34496 -0.315325 0.950682 0.225326 -0.183929 0.900763 0.364958 -0.232806 
0.931358 0.334462 0.01876 0.915737 0.36852 -0.0101922 0.910173 0.331759 0.203913 
0.900218 0.35836 0.20427 0.885365 0.274331 0.370575 0.857816 0.331592 0.38948 
0.845324 0.215813 0.48149 0.807586 0.292573 0.502711 0.807503 0.199256 0.553218 
0.772777 0.238444 0.585471 0.771585 0.205574 0.601617 0.755769 0.178817 0.62757 
0.739912 0.212511 0.637471 0.743905 0.183943 0.641656 0.676403 0.219252 0.697773 
0.688411 0.174546 0.70047 0.591896 0.228175 0.772051 0.623936 0.208876 0.752708 
0.456328 0.298059 0.828677 0.530277 0.300892 0.783255 0.351949 0.362391 0.861069 
0.433907 0.391759 0.808785 0.292699 0.418691 0.858398 0.338373 0.501113 0.791341 
0.236171 0.451338 0.859086 0.259658 0.554724 0.787436 0.175508 0.479944 0.858238 
0.186713 0.578217 0.791946 0.0841169 0.527629 0.841581 0.0922984 0.589409 0.795971 
0.0284355 0.537114 0.842494 -0.0623223 0.567668 0.806029 0.00921533 0.507593 0.861346 
-0.344662 0.484156 0.797435 -0.293003 0.414505 0.802187 -0.497483 0.440634 0.73531 
-0.589095 0.319125 0.741825 -0.608176 0.396332 0.686185 -0.614033 0.266357 0.741787 
-0.638656 0.341001 0.686261 -0.633072 0.208352 0.744007 -0.658704 0.296371 0.689262 
-0.647578 0.146165 0.747801 -0.672231 0.259587 0.69049 -0.721911 0.089069 0.680234 
-0.729613 0.226064 0.640841 -0.79448 0.0471274 0.598943 -0.793649 0.195168 0.570662 
-0.86427 0.0290542 0.496038 -0.853948 0.16874 0.487041 -0.902198 0.050651 0.423803 
-0.883623 0.165799 0.434995 -0.926984 0.0885116 0.363803 -0.898339 0.170154 0.40168 
-0.938071 0.141633 0.309355 -0.906686 0.238509 0.342571 -0.952062 0.179893 0.217952 
-0.922025 0.268891 0.263659 -0.972395 0.185698 0.0458535 -0.947593 0.275622 0.0822197 
-0.965892 0.198994 -0.112088 -0.949798 0.27407 -0.0977894 -0.937246 0.21847 -0.258349 
-0.932202 0.251979 -0.245923 -0.881673 0.206662 -0.401468 -0.89065 0.228417 -0.377423 
-0.820184 0.187216 -0.540284 -0.830834 0.222729 -0.508936 -0.780885 0.175452 -0.596425 
-0.769579 0.242848 -0.585228 -0.735193 0.163325 -0.655288 -0.718568 0.24296 -0.649152 
-0.671514 0.150176 -0.721809 -0.656713 0.213616 -0.719028 -0.598677 0.123676 -0.786459 
-0.574639 0.182391 -0.792388 -0.516524 0.083594 -0.849206 -0.47515 0.131143 -0.866396 
-0.384286 -0.0166562 -0.906775 -0.314509 0.0518873 -0.933474 -0.714934 -0.568413 -0.383394 
-0.572946 -0.575366 -0.569166 -0.856799 -0.492946 -0.109492 -0.893737 -0.43695 0.0925706 
-0.894278 -0.411484 0.172168 -0.87919 -0.382582 0.281107 -0.867367 -0.31422 0.383734 
-0.852393 -0.277863 0.440502 -0.808592 -0.272737 0.516641 -0.734235 -0.265406 0.617457 
-0.612339 -0.282038 0.734188 -0.462741 -0.294496 0.833843 -0.306765 -0.295879 0.90228 
-0.157817 -0.334516 0.926488 -0.0282673 -0.368456 0.927326 0.0485253 -0.388125 0.918222 
0.176401 -0.41786 0.888196 0.294255 -0.469994 0.831725 0.350232 -0.486918 0.7997 
0.443104 -0.485372 0.750239 0.524847 -0.494493 0.68799 0.600436 -0.505743 0.612289 
0.705324 -0.533387 0.452369 0.851097 -0.482215 0.153566 0.940961 -0.30756 -0.127139 
0.918185 -0.270474 -0.285771 0.880625 -0.253209 -0.396507 0.841036 -0.240123 -0.481623 
0.79855 -0.228865 -0.554209 0.757696 -0.213336 -0.615603 0.693157 -0.21023 -0.687994 
0.58573 -0.21789 -0.776209 0.46445 -0.247443 -0.846347 0.355118 -0.276553 -0.891041 
0.241375 -0.312175 -0.916449 0.108905 -0.337105 -0.930727 0.0224391 -0.35306 -0.930291 
-0.0496132 -0.393566 -0.907173 -0.151345 -0.373928 -0.901487 -0.161107 -0.41709 -0.875726 
-0.245615 -0.514983 -0.784362 -0.433965 -0.581331 -0.676946 0.0776866 0.0447246 -0.994015 
-0.0295619 0.0782818 -0.992755 0.159955 0.0157709 -0.986032 0.220569 -0.038941 -0.972415 
0.261872 -0.0937086 -0.959989 0.302547 -0.125623 -0.94292 0.353859 -0.12689 -0.924035 
0.40933 -0.103784 -0.90304 0.463502 -0.043462 -0.882208 0.489203 0.0831557 -0.85942 
0.525524 0.21621 -0.818338 0.578908 0.330301 -0.737499 0.67166 0.406847 -0.613155 
0.759898 0.455358 -0.452279 0.810611 0.463357 -0.355333 0.838185 0.452158 -0.304088 
0.867789 0.439532 -0.220679 0.906062 0.411758 -0.0454299 0.893743 0.396789 0.160772 
0.845006 0.400914 0.345015 0.783794 0.3972 0.470161 0.724051 0.359792 0.58394 
0.701911 0.288058 0.650478 0.713676 0.246192 0.655557 0.68402 0.24192 0.687565 
0.70885 0.220658 0.668715 0.629203 0.3172 0.704116 0.559683 0.411145 0.715172 
0.459616 0.543965 0.694898 0.332041 0.639498 0.68793 0.215219 0.689569 0.689485 
0.0900679 0.703119 0.698619 -0.132949 0.677091 0.707716 -0.311671 0.632176 0.701889 
-0.489891 0.581663 0.641817 -0.568561 0.556469 0.602553 -0.616253 0.531918 0.577222 
-0.643763 0.492506 0.57809 -0.669273 0.427012 0.606822 -0.706129 0.381036 0.593566 
-0.770197 0.328594 0.54126 -0.838574 0.274692 0.464625 -0.878974 0.212693 0.420267 
-0.903925 0.165229 0.393745 -0.909361 0.140891 0.386977 -0.914652 0.189068 0.336688 
-0.912273 0.259845 0.286787 -0.896283 0.29449 0.155613 -0.921166 0.259315 -0.232122 
-0.894999 0.22709 -0.376699 -0.853176 0.221607 -0.468984 -0.799782 0.223062 -0.553285 
-0.74327 0.234632 -0.622945 -0.677998 0.246632 -0.690058 -0.58538 0.228913 -0.770713 
-0.482283 0.206982 -0.8495 -0.329767 0.159047 -0.922897 -0.177162 0.12186 -0.973269 
0.718326 0.231354 0.655609 0.72586 0.212015 0.653849 -0.91183 -0.341685 0.218888 
-0.901967 -0.399866 0.161303 -0.903384 -0.284701 0.310417 -0.876191 -0.246812 0.407818 
-0.854449 -0.219614 0.467 -0.834554 -0.154897 0.523031 -0.779538 -0.145433 0.604912 
-0.660289 -0.192914 0.720193 -0.512275 -0.257539 0.813193 -0.350025 -0.324606 0.876277 
-0.224432 -0.391249 0.889778 -0.0787175 -0.447954 0.888628 0.0156832 -0.476615 0.877825 
0.103035 -0.491533 0.863416 0.233859 -0.50982 0.827463 0.315957 -0.534201 0.783271 
0.396902 -0.554151 0.729101 0.487064 -0.567437 0.662019 0.570733 -0.556496 0.602505 
0.721997 -0.493603 0.472832 0.850949 -0.405884 0.286171 0.890973 -0.3426 -0.292154 
0.906221 -0.373056 -0.179697 0.851847 -0.341649 -0.391681 0.80222 -0.334453 -0.486589 
0.75702 -0.310656 -0.570864 0.72345 -0.284309 -0.626106 0.657859 -0.281453 -0.69515 
0.566769 -0.291377 -0.766535 0.465308 -0.322821 -0.822325 0.377241 -0.347186 -0.857467 
0.28691 -0.385861 -0.875513 0.170982 -0.443348 -0.877049 0.0869668 -0.537601 -0.833553 
0.0589614 -0.695273 -0.710989 0.0033874 -0.731341 -0.657261 0.0377745 -0.770221 -0.607985 
-0.118527 -0.844895 -0.495768 -0.353144 -0.826493 -0.419867 -0.520287 -0.747261 -0.386245 
-0.643755 -0.682848 -0.32207 0.909508 -0.397016 -0.074929 0.910314 -0.372068 0.151704 
0.708145 0.255423 0.656283 0.73693 0.159043 0.655691 0.700887 0.263757 0.660723 
0.650034 0.356784 0.661959 0.58938 0.410566 0.687283 0.48437 0.498807 0.707339 
0.333094 0.601729 0.716564 0.182159 0.624838 0.750168 0.0216805 0.572924 0.811334 
-0.470333 0.632842 0.612297 -0.328927 0.632616 0.690337 -0.543734 0.6261 0.554954 
-0.599017 0.621194 0.504414 -0.644718 0.585482 0.489058 -0.682157 0.532971 0.496516 
-0.713647 0.480567 0.506802 -0.788318 0.376414 0.464719 -0.885596 0.238758 0.389577 
-0.924975 0.115634 0.353093 -0.921692 0.0532425 0.382321 -0.910748 0.0376106 0.40915 
-0.905887 0.0457398 0.418224 -0.901533 0.0570695 0.428161 -0.933989 0.0896093 0.156003 
-0.970024 0.122614 -0.197207 -0.925454 0.151732 -0.32858 -0.873607 0.177309 -0.44948 
-0.816299 0.214624 -0.534667 -0.748244 0.229232 -0.618189 -0.667522 0.230709 -0.704309 
-0.568878 0.215847 -0.788149 -0.452714 0.200932 -0.866275 -0.313757 0.185179 -0.9234 
-0.14516 0.161536 -0.971441 0.000271763 0.154789 -0.984837 0.112159 0.113023 -0.983946 
0.205674 0.0697285 -0.974002 0.264719 0.0416421 -0.962166 0.298657 0.01405 -0.952933 
0.313934 0.0118581 -0.948331 0.339469 0.0192716 -0.938942 0.366871 0.0475932 -0.928346 
0.364396 0.117995 -0.920902 0.380297 0.196453 -0.901381 0.410505 0.267683 -0.870297 
0.499279 0.328462 -0.793785 0.606513 0.379757 -0.691943 0.722368 0.42698 -0.532845 
0.807804 0.432596 -0.389055 0.867026 0.409494 -0.278765 0.879672 0.427145 -0.206105 
0.907803 0.397249 -0.0152485 0.902885 0.378193 0.170911 0.863695 0.371425 0.331258 
0.787607 0.360245 0.483517 0.712868 0.331246 0.616953 0.681183 0.296895 0.666241 
0.658473 0.249898 0.709725 0.706928 0.143645 0.691229 0.731777 0.086133 0.674609 
0.762413 0.175513 0.621801 0.761008 0.0490259 0.645845 -0.213435 0.588557 0.768868 
-0.0773569 0.442831 0.884781 0.882505 -0.459792 -0.0563786 0.825484 -0.546864 0.0579021 
0.826274 -0.527907 -0.16511 0.784402 -0.546097 -0.28088 0.754627 -0.536506 -0.370387 
0.728047 -0.500443 -0.456604 0.694723 -0.469462 -0.534933 0.666103 -0.432251 -0.603027 
0.634253 -0.397095 -0.658355 0.554352 -0.382888 -0.734383 0.472187 -0.39496 -0.784958 
0.387407 -0.447767 -0.804822 0.295501 -0.506368 -0.807728 0.230002 -0.576922 -0.780035 
0.195129 -0.659158 -0.723968 0.209947 -0.729373 -0.648456 0.125648 -0.893669 -0.423647 
0.158781 -0.885175 -0.43254 -0.0480813 -0.900331 -0.401213 -0.292495 -0.90519 -0.286011 
-0.484794 -0.840207 -0.23838 -0.593524 -0.778675 -0.185684 -0.92232 -0.22561 0.307985 
-0.911225 -0.307466 0.262021 -0.912977 -0.16719 0.369051 -0.886118 -0.145842 0.438836 
-0.8475 -0.116794 0.51554 -0.824169 -0.10905 0.555229 -0.787626 -0.12421 0.600822 
-0.715832 -0.189254 0.666218 -0.573077 -0.31428 0.751363 -0.400354 -0.420131 0.812325 
-0.248104 -0.540025 0.798947 -0.0660187 -0.515348 0.853031 0.0337076 -0.505393 0.861039 
0.133548 -0.502441 0.85356 0.222736 -0.490562 0.841586 0.305775 -0.4773 0.821723 
0.397036 -0.458591 0.790729 0.50058 -0.43433 0.741016 0.606556 -0.408184 0.672304 
0.729077 -0.34837 0.574736 0.869808 -0.288226 0.384325 0.887215 -0.297521 0.326949 
0.882636 -0.313974 0.324194 0.828039 -0.545057 0.104298 0.837433 -0.460161 0.25067 
0.750309 -0.655855 -0.0371612 -0.890858 -0.419183 0.171117 -0.853559 -0.44856 0.244785 
-0.801632 -0.556499 0.178663 -0.785609 -0.562794 0.233467 0.169472 -0.841155 -0.508225 
0.252581 -0.75297 -0.603617 0.71552 0.295883 0.632007 0.62802 0.356121 0.67934 
0.51814 0.411884 0.735761 0.368074 0.451611 0.799708 0.217761 0.463043 0.845281 
0.109697 0.427439 0.885731 0.0147725 0.327856 0.941418 -0.139434 0.311443 0.934106 
-0.0760765 0.246934 0.961121 -0.260342 0.438968 0.846452 -0.397151 0.561041 0.718478 
-0.499101 0.614801 0.604191 -0.581077 0.6056 0.536931 -0.658002 0.572241 0.488432 
-0.694654 0.541964 0.471014 -0.728173 0.494987 0.469068 -0.807083 0.399679 0.421326 
-0.891372 0.268051 0.337667 -0.95306 0.0891797 0.269021 -0.954549 0.0306725 0.291304 
-0.938356 0.00310557 0.341684 -0.911229 -0.00609479 0.409585 -0.930178 0.00879752 0.332625 
-0.970391 0.0122432 0.200261 -0.989805 0.0320063 0.0017536 -0.974259 0.0697479 -0.192581 
-0.931589 0.132965 -0.326783 -0.881077 0.181723 -0.435007 -0.812939 0.233729 -0.525083 
-0.734595 0.27159 -0.614129 -0.63999 0.293202 -0.703538 -0.526984 0.299283 -0.786467 
-0.399057 0.29924 -0.864495 -0.269017 0.313856 -0.905462 -0.0638199 0.21666 -0.969777 
0.0766679 0.173288 -0.976493 0.179687 0.138416 -0.971473 0.2557 0.112059 -0.958811 
0.288496 0.101402 -0.951944 0.305115 0.0971182 -0.947275 0.314124 0.115859 -0.94215 
0.308594 0.14732 -0.938918 0.287983 0.202816 -0.935647 0.289868 0.253455 -0.92196 
0.326423 0.29127 -0.89783 0.405428 0.307492 -0.858925 0.516074 0.313112 -0.790064 
0.645881 0.336353 -0.681481 0.761881 0.330583 -0.542225 0.845066 0.326742 -0.4147 
0.881896 0.306393 -0.348307 0.927207 0.328994 0.114723 0.931934 0.346203 -0.0715998 
0.908767 0.288753 0.282199 0.860006 0.249026 0.432655 0.773695 0.222518 0.577603 
0.692029 0.233408 0.677162 0.673743 0.239822 0.69663 0.677312 0.16791 0.71477 
0.646748 0.140252 0.748257 0.666855 0.0854506 0.737677 0.717726 0.0391096 0.691983 
0.796323 0.00309871 0.603136 0.719096 0.00435267 0.691824 0.798583 0.075135 0.593296 
0.761601 0.144574 0.627641 0.661045 0.198626 0.712564 0.51855 0.259333 0.804283 
0.357031 0.276107 0.877845 0.220947 0.293732 0.920988 0.642524 0.0852308 0.761105 
0.650441 0.10149 0.752488 0.629171 0.0778133 0.7724 0.666058 -0.0346173 0.74031 
0.732405 -0.1263 0.66546 0.629584 0.0599368 0.774223 0.779441 -0.121831 0.610727 
0.789938 -0.088266 0.606042 0.753583 -0.0342471 0.647108 0.697641 0.0257134 0.712616 
0.537004 0.0897507 0.817945 0.365134 0.141535 0.914624 0.192415 0.174083 0.957891 
0.91711 0.313646 -0.234104 0.917825 0.259461 -0.29897 0.731386 -0.667555 -0.122908 
0.696836 -0.682549 -0.207488 0.670286 -0.677685 -0.294709 0.639646 -0.648073 -0.406007 
0.597272 -0.625753 -0.494585 0.570592 -0.587051 -0.567359 0.54767 -0.54947 -0.625001 
0.513832 -0.538986 -0.662047 0.462796 -0.549752 -0.691617 0.402246 -0.54954 -0.731495 
0.333102 -0.545876 -0.768336 0.30109 -0.575516 -0.759685 0.302925 -0.622601 -0.720774 
0.297171 -0.675713 -0.672352 0.310629 -0.667654 -0.67363 0.256747 -0.703856 -0.66126 
0.319394 -0.624168 -0.710817 0.210557 -0.779341 -0.582385 0.171364 -0.858253 -0.480646 
0.0511546 -0.880072 -0.455683 -0.151536 -0.883514 -0.421271 -0.367118 -0.86652 -0.312027 
-0.467951 -0.856274 -0.20176 -0.538358 -0.830696 -0.121603 -0.744963 -0.655324 -0.0409229 
-0.598955 -0.796873 -0.0235754 -0.795062 -0.586177 0.0817399 -0.677617 -0.715707 0.1168 
-0.730421 -0.633125 0.237629 -0.765951 -0.552036 0.315863 -0.807642 -0.477577 0.330835 
-0.851758 -0.390372 0.340735 -0.878485 -0.300114 0.363275 -0.87514 -0.259095 0.40348 
-0.848813 -0.278086 0.446639 -0.816819 -0.267987 0.49537 -0.802859 -0.255428 0.531383 
-0.786929 -0.279371 0.544725 -0.741421 -0.357454 0.558912 -0.651598 -0.478174 0.584748 
-0.476011 -0.612185 0.622667 -0.284237 -0.697574 0.647911 0.0907096 -0.484698 0.86939 
0.0023089 -0.549672 0.832728 0.209416 -0.393128 0.89356 0.319925 -0.315262 0.890603 
0.385222 -0.246038 0.884494 0.463906 -0.205258 0.855798 0.554182 -0.15544 0.815605 
0.645822 -0.121648 0.746006 0.726562 -0.0770513 0.676721 0.798663 -0.0362161 0.597128 
0.836407 -0.15768 0.500633 0.829883 -0.203236 0.49915 0.833966 -0.179997 0.507312 
0.850098 -0.440676 0.245084 0.869535 -0.233067 0.404928 0.800934 -0.584182 0.0959922 
0.773185 -0.628079 0.0157303 -0.0714678 -0.615387 0.779841 -0.150193 -0.746125 0.641899 
0.0499452 0.132937 0.986889 0.0556013 0.229941 0.963669 -0.0660928 0.14967 0.982618 
-0.00985791 0.0588828 0.993413 -0.194302 0.291262 0.932693 -0.274122 0.370174 0.8749 
-0.371575 0.431332 0.804347 -0.495507 0.484262 0.715374 -0.596123 0.485342 0.622876 
-0.703619 0.449581 0.544271 -0.755207 0.409506 0.500983 -0.808517 0.356947 0.460331 
-0.873598 0.247589 0.388264 -0.93741 0.145678 0.290553 -0.970827 0.0946194 0.196274 
-0.972998 0.0617625 0.204711 -0.949476 -0.0355441 0.300946 -0.918987 -0.0619187 0.384266 
-0.921706 -0.067971 0.376835 -0.947151 -0.0542306 0.308517 -0.982182 -0.0268255 0.0666678 
-0.987153 0.0553335 -0.137587 -0.953089 0.113163 -0.258388 -0.916062 0.162846 -0.36065 
-0.866457 0.209173 -0.444487 -0.800403 0.250102 -0.536991 -0.71782 0.28754 -0.628232 
-0.607614 0.327801 -0.713962 -0.466319 0.344799 -0.807856 -0.283251 0.287013 -0.901663 
0.130236 0.149084 -0.977738 0.042558 0.170715 -0.976894 0.201691 0.123702 -0.969567 
0.263435 0.0995174 -0.958838 0.297768 0.0757723 -0.95131 0.305704 0.0629617 -0.949951 
0.290257 0.0746096 -0.953721 0.266745 0.103662 -0.957006 0.236521 0.147682 -0.95975 
0.276791 0.193254 -0.93859 0.360837 0.222891 -0.902439 0.473222 0.199927 -0.853113 
0.601032 0.188672 -0.763996 0.725572 0.187053 -0.657306 0.815767 0.207418 -0.523573 
0.879688 0.230817 -0.411882 0.898224 0.242627 -0.360408 0.911933 0.179437 -0.36193 
0.939454 0.170741 -0.281335 0.922968 0.0659271 -0.368267 0.951633 0.256591 -0.113926 
0.947444 0.292678 -0.0400666 0.937866 0.301596 0.122239 0.907609 0.268547 0.302782 
0.857451 0.215448 0.457298 0.78237 0.186925 0.584081 0.706631 0.18378 0.681604 
-0.0697446 0.199666 -0.973204 -0.222645 0.200908 -0.946842 0.152247 0.0743496 0.978157 
0.0551141 -0.0268222 0.994715 -0.0670338 -0.00926626 0.992569 0.0454068 -0.138847 0.986167 
-0.128207 0.0987481 0.985328 -0.193117 0.187187 0.954053 -0.284224 0.287647 0.909321 
-0.347892 0.285576 0.882883 -0.450645 0.274004 0.832873 -0.579921 0.227236 0.758149 
-0.714473 0.18466 0.672638 -0.7764 0.176018 0.597296 -0.837633 0.159109 0.516672 
-0.891957 0.11143 0.420524 -0.941155 0.0216727 0.317444 -0.97052 -0.0742373 0.202013 
-0.970299 -0.162493 0.154605 -0.937508 -0.139288 0.307767 -0.894848 -0.159083 0.41308 
-0.905184 -0.156986 0.382774 -0.934275 -0.146176 0.30032 -0.976254 -0.0954906 0.139426 
-0.991631 -0.0467631 -0.0223821 -0.977225 0.000543167 -0.168124 -0.951172 0.0570734 -0.289005 
-0.915522 0.124917 -0.374281 -0.851986 0.183849 -0.477429 -0.773418 0.232395 -0.586523 
-0.670608 0.257626 -0.681914 -0.575524 0.244445 -0.769183 -0.403716 0.171512 -0.884578 
-0.219252 0.0697486 -0.953067 -0.0160923 0.0610693 -0.992715 -0.193991 -0.0422856 -0.972751 
0.0259614 0.116254 -0.988222 0.0651028 0.147312 -0.980022 0.152212 0.131313 -0.977983 
0.224847 0.107022 -0.965959 0.286884 0.0825891 -0.954235 0.307878 0.0757125 -0.948218 
0.317544 0.0656606 -0.945715 0.303345 0.0140062 -0.951658 0.276351 -0.0351013 -0.959284 
0.231206 -0.057238 -0.970019 0.259602 -0.0641859 -0.956529 0.37907 -0.0102704 -0.914945 
0.507639 0.00615972 -0.856235 0.610972 0.0102541 -0.78141 0.711452 0.0176578 -0.699116 
0.79989 0.0436492 -0.582839 0.880609 0.0937381 -0.455668 0.900884 -0.013465 -0.424598 
0.934462 -0.0254191 -0.352199 0.888277 -0.0895505 -0.444546 0.961626 0.0645969 -0.22271 
0.97013 0.180379 -0.15114 0.962416 0.23797 0.0264719 0.954885 0.221487 0.139384 
0.9252 0.193828 0.305578 0.856544 0.153555 0.478696 0.757219 0.0985245 0.637708 
0.732137 -0.665652 -0.100104 0.678874 -0.690877 -0.239201 0.624636 -0.694626 -0.349472 
0.575558 -0.692506 -0.432964 0.53529 -0.682701 -0.493873 0.496827 -0.66967 -0.550572 
0.476014 -0.648343 -0.592597 0.447136 -0.628708 -0.634513 0.416108 -0.60201 -0.681132 
0.369918 -0.584878 -0.720662 0.340252 -0.564678 -0.751274 0.331034 -0.544946 -0.770226 
0.350019 -0.551876 -0.756762 0.357221 -0.57802 -0.732563 0.354306 -0.601149 -0.715279 
0.353626 -0.561252 -0.745528 0.298423 -0.534608 -0.783567 0.366354 -0.39434 -0.838166 
0.232556 -0.655769 -0.715689 0.184147 -0.70458 -0.680569 0.0712467 -0.750958 -0.654352 
-0.116951 -0.797509 -0.56562 -0.289986 -0.831246 -0.46451 -0.404312 -0.847385 -0.322974 
-0.490852 -0.843421 -0.194832 -0.561486 -0.820923 -0.087769 -0.636868 -0.760968 0.0269352 
-0.680337 -0.711555 0.148313 -0.685959 -0.677064 0.253945 -0.703141 -0.630475 0.324267 
-0.70153 -0.609333 0.366677 -0.736037 -0.549163 0.384551 -0.766035 -0.511923 0.384477 
-0.796668 -0.470091 0.376803 -0.782611 -0.490218 0.37549 -0.764213 -0.481564 0.42318 
-0.700863 -0.547283 0.44159 -0.662434 -0.616234 0.41302 -0.602999 -0.693038 0.393047 
-0.519781 -0.731906 0.434425 -0.425727 -0.761404 0.480778 -0.321748 -0.790075 0.514841 
-0.191634 -0.781083 0.5897 -0.0138729 -0.710555 0.699972 -0.0534654 -0.702909 0.705518 
0.0149838 -0.70518 0.705145 0.0884529 -0.629205 0.768483 0.179765 -0.533773 0.817136 
0.319311 -0.36395 0.867306 0.44296 -0.141533 0.879891 0.498498 -0.00200442 0.8642 
0.53596 0.0814119 0.837352 0.603918 0.121622 0.786475 0.665882 0.0888365 0.737929 
0.721243 0.0536107 0.689888 0.740937 0.00997587 0.668299 0.746195 -0.0215533 0.66314 
0.781649 -0.0867059 0.611189 0.820255 -0.0730096 0.562206 0.858304 -0.0449336 0.499561 
0.925872 -0.2333 0.281726 0.908775 -0.0493044 0.398819 0.879672 -0.372727 0.262227 
0.864122 -0.465821 0.113547 0.819047 -0.559568 -0.0526191 -0.285435 0.159065 0.933066 
-0.514829 0.105046 0.845039 -0.638879 0.0556435 0.753582 -0.742781 0.0149872 0.66772 
-0.795677 -0.043445 0.593294 -0.847817 -0.105233 0.514868 -0.89183 -0.176213 0.389663 
-0.927623 -0.247804 0.273528 -0.914294 -0.332655 0.210161 -0.893754 -0.414241 0.16679 
-0.887087 -0.233367 0.395793 -0.915277 -0.273857 0.276409 -0.88965 -0.212793 0.399712 
-0.93661 -0.138035 0.30639 -0.971727 -0.0792351 0.120285 -0.994975 -0.0260183 -0.0597864 
-0.979117 -0.00542799 -0.172174 -0.956623 0.016828 -0.27944 -0.916602 0.0469084 -0.380674 
-0.860162 0.0735902 -0.494122 -0.781895 0.0820489 -0.604387 -0.681195 0.0817266 -0.714538 
-0.560829 0.0593035 -0.806608 -0.463499 0.0182727 -0.875066 -0.401555 -0.0579582 -0.889971 
-0.254651 -0.117607 -0.947628 -0.0569074 -0.113388 -0.985286 -0.0910979 -0.172774 -0.967832 
-0.0320963 -0.0579002 -0.984081 0.0989062 0.00647269 -0.986401 0.182673 0.00765682 -0.979617 
0.234392 0.0040884 -0.970983 0.276807 -0.00246232 -0.959432 0.312983 0.00222429 -0.949251 
0.336859 -0.0326962 -0.940319 0.359781 -0.0610751 -0.930909 0.341575 -0.0967561 -0.933688 
0.296672 -0.142756 -0.943246 0.240268 -0.163533 -0.956046 0.244516 -0.183859 -0.95079 
0.574125 -0.16798 -0.799938 0.467706 -0.172775 -0.860976 0.672524 -0.150945 -0.715414 
0.780559 -0.121835 -0.61122 0.854294 -0.0766704 -0.504047 -0.928837 -0.30754 0.192247 
-0.866804 -0.461139 0.186691 0.821619 -0.149428 -0.543403 0.897213 -0.12189 -0.416796 
0.830353 -0.216725 -0.502379 0.935534 -0.0759244 -0.334 0.983858 -0.014669 -0.155416 
0.978699 0.117961 0.0674899 0.757981 -0.601162 -0.215743 0.706364 -0.625938 -0.325779 
0.661165 -0.640136 -0.384619 0.615906 -0.65592 -0.434594 0.563635 -0.665166 -0.485557 
0.515346 -0.66635 -0.537443 0.469903 -0.66553 -0.577684 0.432327 -0.645336 -0.628374 
0.395759 -0.606421 -0.687976 0.344897 -0.546584 -0.76185 0.328111 -0.508457 -0.795734 
0.342964 -0.498216 -0.795717 0.376774 -0.495289 -0.781729 0.384755 -0.498788 -0.774006 
0.364622 -0.270068 -0.888892 0.286899 -0.234998 -0.925631 0.337628 -0.150566 -0.92866 
0.268439 -0.373257 -0.881137 0.200316 -0.536634 -0.810074 0.0801152 -0.639178 -0.755977 
0.0341102 -0.675933 -0.729317 -0.102251 -0.703808 -0.690497 -0.252307 -0.733225 -0.615389 
-0.408415 -0.752688 -0.493795 -0.544295 -0.741795 -0.36389 -0.713706 -0.666135 -0.188146 
-0.753377 -0.644102 0.00110172 -0.755322 -0.629677 0.153 -0.711888 -0.636879 0.2748 
-0.690112 -0.626655 0.360152 -0.691224 -0.600029 0.400533 -0.704031 -0.57482 0.415556 
-0.733062 -0.548403 0.400157 -0.754946 -0.547678 0.357532 -0.755954 -0.570359 0.319162 
-0.689426 -0.641654 0.331663 -0.62055 -0.708535 0.328345 -0.60278 -0.728516 0.318173 
-0.587181 -0.746791 0.311615 -0.5221 -0.778764 0.343585 -0.45084 -0.792183 0.40583 
-0.342381 -0.79489 0.492487 -0.213422 -0.752992 0.61074 -0.156055 -0.689022 0.70018 
-0.00923168 -0.643485 0.759465 -0.0368642 -0.565576 0.818506 0.0843551 -0.647551 0.756405 
0.176845 -0.606992 0.766018 0.27085 -0.538233 0.795408 0.370119 -0.450082 0.802457 
0.468108 -0.353679 0.801256 0.572385 -0.205569 0.789679 0.598023 -0.00197081 0.795961 
0.593843 0.112689 0.794315 0.596867 0.162564 0.785516 0.634038 0.135241 0.760433 
0.659773 0.112813 0.741113 0.677296 0.0513771 0.729075 0.703647 0.00954934 0.704666 
0.71031 0.0477572 0.695754 0.749502 0.0591523 0.654512 0.822425 0.0391677 0.562377 
0.903564 0.0236839 0.401512 0.957947 -0.0674153 0.195112 0.970225 0.00427291 0.152102 
0.932713 -0.278344 0.105888 0.67004 0.0618095 0.738483 0.633748 0.0470037 0.771342 
0.603595 0.0746407 0.793646 0.607211 0.13304 0.782604 0.652467 0.0606281 0.750456 
0.717344 -0.0575971 0.692982 0.758782 -0.164779 0.627643 0.76659 -0.191907 0.611407 
0.705041 -0.189155 0.671602 0.595535 -0.161602 0.771595 0.371536 -0.0480146 0.90605 
0.22395 0.0305008 0.969711 0.19587 -0.130665 0.960289 0.0970376 -0.248099 0.959642 
-0.0652549 -0.268062 0.955192 0.0384642 -0.408716 0.899663 -0.0980935 -0.119869 0.982856 
-0.26284 0.0340551 0.948045 0.809717 -0.465284 -0.349879 0.870289 -0.398675 -0.243886 
0.719024 -0.529315 -0.440638 0.64475 -0.571974 -0.504155 0.572185 -0.60624 -0.547658 
0.523738 -0.611774 -0.591735 0.48322 -0.601058 -0.633545 0.436481 -0.595823 -0.6725 
0.395909 -0.58205 -0.709185 0.345606 -0.529445 -0.771678 0.300187 -0.364064 -0.880322 
0.3671 -0.331753 -0.867706 0.383813 -0.303424 -0.870712 0.259458 -0.0769944 -0.961103 
0.299698 -0.0532076 -0.952106 0.321771 -0.078985 -0.942646 0.265037 -0.145948 -0.950562 
0.192925 -0.231488 -0.951477 0.144446 -0.371518 -0.904038 0.0844875 -0.514635 -0.844221 
-0.0445396 -0.574883 -0.810466 -0.178813 -0.553691 -0.798647 -0.386575 -0.587632 -0.699652 
-0.524025 -0.58958 -0.592223 -0.635469 -0.572432 -0.5 -0.718142 -0.494876 -0.460319 
-0.874115 -0.467618 0.0184308 -0.894641 -0.412507 -0.107223 -0.831654 -0.519135 0.144421 
-0.778134 -0.552019 0.278823 -0.725692 -0.561599 0.386986 -0.715099 -0.543743 0.437806 
-0.740706 -0.537641 0.401077 -0.754979 -0.562409 0.330623 -0.767259 -0.583587 0.26094 
-0.704429 -0.666953 0.22975 -0.594157 -0.75402 0.278877 -0.645788 -0.71272 0.266709 
-0.567059 -0.768696 0.29562 -0.54255 -0.764389 0.344054 -0.494359 -0.768232 0.405469 
-0.424409 -0.745681 0.502334 -0.344066 -0.723902 0.591983 -0.212515 -0.60659 0.756593 
-0.118728 -0.458853 0.867606 -0.867843 -0.395775 -0.260354 -0.853245 -0.31513 -0.380105 
0.327793 -0.195513 -0.922189 0.282662 -0.238546 -0.928274 0.926175 0.0897393 0.350773 
0.848387 0.0569023 0.510036 0.775954 0.0420764 0.627323 0.727593 0.0560618 0.681082 
0.675665 0.0770817 0.731337 0.620863 0.130119 0.771338 0.623055 0.104435 0.77416 
-0.335556 -0.0655242 0.93317 -0.501093 -0.119031 0.832375 -0.677631 -0.155432 0.707876 
-0.745049 -0.218394 0.614458 -0.788665 -0.290969 0.521046 -0.82642 -0.334889 0.427101 
-0.848416 -0.397395 0.330452 -0.843047 -0.457512 0.250448 -0.80051 -0.560606 0.200293 
-0.843203 -0.484474 0.224801 -0.881148 -0.388581 0.257348 -0.86476 -0.362455 0.331498 
-0.845899 -0.331633 0.408165 -0.844816 -0.306451 0.432801 -0.861353 -0.275822 0.409874 
-0.919332 -0.244257 0.262362 -0.964991 -0.210794 0.073304 -0.967257 -0.180431 -0.107304 
-0.962921 -0.136917 -0.219706 -0.943788 -0.10618 -0.299154 -0.901228 -0.0806858 -0.410349 
-0.840127 -0.0677324 -0.519596 -0.764803 -0.063373 -0.633478 -0.66895 -0.0751407 -0.724028 
-0.562287 -0.0965333 -0.815405 -0.418445 -0.124718 -0.88577 -0.267168 -0.167589 -0.926972 
-0.259249 -0.268986 -0.911526 0.0528319 -0.16374 -0.978757 -0.0800708 -0.273473 -0.951926 
0.0939298 -0.111872 -0.983261 0.109859 -0.071631 -0.983539 0.174892 -0.0385302 -0.981931 
0.204858 -0.054439 -0.975529 0.317905 -0.27648 0.901177 0.197147 -0.392291 0.888618 
0.122986 -0.525679 0.83866 0.150913 -0.585373 0.78916 0.184765 -0.615652 0.760081 
0.253712 -0.594126 0.762323 0.442042 -0.454261 0.770407 0.626796 -0.270501 0.721669 
0.709644 -0.202524 0.668745 0.677481 -0.0113178 0.731476 0.631925 0.10457 0.765601 
0.367538 -0.114057 -0.921905 0.375348 -0.148224 -0.914167 0.33292 -0.175937 -0.924932 
0.270554 -0.215009 -0.936625 0.249778 -0.227977 -0.939987 0.297782 -0.307618 -0.897487 
0.411058 -0.305778 -0.857579 0.322023 -0.425996 -0.840395 0.378439 -0.247719 -0.884764 
0.467452 -0.248669 -0.841247 0.563688 -0.245412 -0.786585 0.644892 -0.238494 -0.721469 
0.739895 -0.200962 -0.634554 0.696467 -0.356564 -0.612452 0.771981 -0.388976 -0.493909 
0.706152 -0.462189 -0.528697 0.855394 -0.272019 -0.433446 0.926894 -0.1811 -0.30143 
0.724463 -0.237243 0.645117 0.641227 -0.310967 0.696185 0.446786 -0.362032 0.801708 
-0.332886 -0.332248 0.861667 -0.807534 -0.464311 0.349662 -0.78543 -0.423997 0.448777 
-0.785681 -0.427472 0.440398 -0.799698 -0.432195 0.401633 -0.845019 -0.426997 0.282945 
-0.900655 -0.387724 0.104001 -0.939977 -0.314543 -0.0552882 -0.944802 -0.251574 -0.175537 
-0.922674 -0.201894 -0.303261 -0.865281 -0.15581 -0.464048 -0.786428 -0.137609 -0.585405 
-0.719251 -0.136992 -0.678337 -0.406537 -0.240511 -0.868807 -0.41109 -0.168619 -0.893127 
0.168576 -0.156212 -0.9675 0.0587731 -0.248159 -0.956157 0.205664 -0.0977141 -0.972722 
-0.497415 -0.408874 0.74697 -0.601994 -0.449899 0.638522 -0.665186 -0.49511 0.536268 
-0.69249 -0.551639 0.444291 -0.70871 -0.583885 0.370649 -0.724067 -0.613978 0.290693 
-0.74307 -0.619492 0.245622 -0.67235 -0.692543 0.254099 -0.627275 -0.728387 0.272478 
-0.607305 -0.727815 0.308263 -0.589771 -0.713105 0.367532 -0.559481 -0.682469 0.455795 
-0.49713 -0.643183 0.571175 -0.370465 -0.601785 0.691309 -0.251714 -0.534635 0.797254 
0.475193 -0.339246 -0.803844 0.54664 -0.364467 -0.747927 0.612441 -0.359689 -0.697246 
-0.0117351 -0.373013 -0.91344 -0.0334442 -0.467606 -0.875645 -0.166157 -0.386062 -0.89595 
-0.572291 -0.429898 -0.684238 -0.460782 -0.426298 -0.760361 -0.66818 -0.41347 -0.60464 
-0.74179 -0.383283 -0.524777 -0.807466 -0.255357 -0.510776 0.406828 -0.490905 -0.763908 
0.646552 -0.525822 -0.548555 0.624486 -0.509505 -0.59041 0.553715 -0.504193 -0.656294 
0.321992 -0.498347 0.795892 0.487808 -0.508455 -0.70692 -0.642861 -0.259725 -0.701408 
-0.538346 -0.263051 -0.787192 -0.737594 -0.249297 -0.619322 -0.738876 -0.642867 -0.161392 
-0.826974 -0.548323 0.0204138 0.135824 0.311679 0.931854 0.920864 -0.350937 -0.0976929 
0.981835 -0.109782 -0.0777461 -0.497608 -0.160533 -0.838715 -0.604673 -0.148039 -0.762709 
-0.374521 -0.364984 -0.830574 
Radius 1 1114 double
0.15 0.15 0.85584108176 0.99218403359 0.15000075911 0.97473886452 0.14999996448 0.97560705024 0.14999901573 
0.86820679249 0.15000018109 0.72551052683 0.15000106001 0.69312003186 0.14999943096 0.71837606301 0.14999939493 0.70832816307 
0.15 0.71966453258 0.14999972429 0.76165067528 0.14999908507 0.82602534081 0.15 0.99919853122 0.15 
1.0814920483 0.15 1.139429402 0.15 1.0887070608 0.15 1.0827068773 0.14999995455 1.0991284047 
0.14999997566 1.1560749212 0.15000009461 1.279244873 0.15 1.4248085304 0.15 1.5298006055 0.15 
1.5153566332 0.15 1.4585946072 0.15 1.3054601286 0.15 1.0598796775 0.15 1.1381127214 
0.15 1.117477469 0.15 1.0211572256 0.15 0.9229790886 0.15 0.87801946839 0.15 
0.84701319253 0.15 0.87047165233 0.15 0.85790487 0.15 0.80548685385 0.15 0.77069616787 
0.15 0.78028763778 0.15 0.87323560322 0.15 1.0057434064 0.15 0.95662210979 0.15 
0.9533257778 0.15 1.0705025915 0.15 0.15 1.5351037051 1.5189697104 0.15 1.5271497918 
0.15 1.3347869756 0.15 1.2259793587 0.15 1.203852237 0.15 1.1833658073 0.15 
1.1979809955 0.15 1.2628884253 0.15 1.3462060626 0.15 1.4284862788 0.15 1.5364975822 
0.15 1.6480930802 0.15 1.7476060255 0.15 1.8287160922 0.15 1.6591604666 0.15 
1.5180086573 0.15 1.4034866402 0.15 1.3946671814 0.15 1.362258157 0.15 1.3120129678 
0.15 1.2292303557 0.15 1.1977797369 0.15 1.2403468277 0.15 1.3672663914 0.15 
1.2802763236 0.15 1.3061006229 0.15 1.2335403807 0.15 1.1971250011 0.15 1.3571017204 
0.15 1.464131859 0.15 1.5509302364 0.15 1.6224232904 0.15 1.6536683694 0.15 
1.5906957156 0.15 1.7321072592 0.15000009657 1.8448233626 0.1500005542 1.8025300097 0.15000043933 1.7315598648 
0.15 1.6576372 0.15 1.4659325031 0.15 1.3012074015 0.15 1.1374756269 0.15 
0.99642504277 0.15 0.85498169205 0.15 1.0730065275 0.15 1.2267617287 0.15 1.3492752974 
0.15 1.4232193307 0.15 1.4661119268 0.15 1.4992588147 0.15 1.5227737626 0.15 
1.3868481106 0.15 1.276167415 0.15 1.2770946546 0.15 1.2883594269 0.15 1.3040603136 
0.15 1.4153392604 1.2249526761 1.2023289054 1.2777253133 1.1234516763 0.88131677422 0.76858026367 0.72742898139 
0.72818654371 0.75813565542 0.82935098914 0.97916856658 1.2290351716 1.5222937705 1.5398129627 1.4519585241 1.3671575114 
1.31413232 1.3183498671 1.3930383732 1.6026180066 1.7823820206 1.8076401094 1.6892411176 1.5606957183 1.3617408255 
1.4771806435 1.4593560417 1.3701964265 1.2254185891 1.0928030487 1.006871992 1.0103291111 0.98554484146 0.94946732776 
0.95129894291 1.0143261563 1.165013752 1.4485256774 1.6482539201 1.7199924248 1.6587606001 1.3755881917 1.5063947648 
1.5474193654 1.4618982287 1.3582606464 1.2595141879 1.2983249237 1.396990051 1.4462908197 1.5076597555 1.5878051044 
1.6056799555 1.6998317563 1.775223815 1.8520801257 1.7061238749 1.518762052 1.3913101225 1.3509799845 1.2888893804 
1.2282632596 1.1829035115 1.1970868297 1.308595758 1.4454086729 1.5272882801 1.4827941609 1.5073748061 1.4467573511 
1.3995210866 1.4169116003 1.509610095 1.5928029046 1.6576561432 1.6774172846 1.8731479338 2.0152039816 2.1042429894 
2.0092260957 1.8524793892 1.6439091356 1.4710656179 1.3876098932 1.2458393284 1.1196405196 1.230683435 1.3085586665 
1.4475090291 1.5318260951 1.5368430196 1.5602126366 1.5726576581 1.4978957328 1.4500766146 1.4424630259 1.459321241 
1.4647395059 1.5357680103 1.6000878092 1.6197086834 1.6796081448 1.0616989306 1.2462184587 1.00167444 0.96641318045 
0.91565805266 0.96167981085 1.0608809498 1.2168883374 1.4878980589 1.8779931942 1.9483265745 1.8424715888 1.6379024998 
1.4709853118 1.4271067715 1.4500929637 1.5841619588 1.746821869 1.8781605692 1.736241924 1.6386689714 1.8213910182 
1.7516534539 1.8208253811 1.6697205322 1.5111163159 1.3662739343 1.2550154693 1.1932617922 1.1745770078 1.1580921035 
1.197965333 1.3026622913 1.4897859449 1.8892982651 1.9888750058 1.935569405 1.8293611957 1.5091852868 1.3752698119 
1.4235101078 1.7030473657 1.6304864517 1.7298916119 1.8210841114 1.7235105817 1.578219925 1.4751777236 1.4327787173 
1.5111857174 1.5745833714 1.6405814894 1.9242840778 1.7637819488 2.0633029894 2.1714039701 2.0724191621 1.9083233193 
1.5991110848 1.4976428369 1.5448374532 1.4187592595 1.3044794348 1.3097767086 1.3909561674 1.5209085433 1.5652526812 
1.5522216202 1.5811148983 1.6059193855 1.5784181236 1.5666784412 1.6089027174 1.5634231163 1.5083352142 1.6042467046 
1.6549411807 1.5887984112 1.4825118934 1.3210504315 1.2917189916 1.2308754719 1.4023964942 1.5195718468 1.5773635014 
1.6639959724 1.7065920892 1.6727407904 1.7103402476 1.7767642132 1.8758134469 1.8228858897 1.6597245183 1.4920766714 
1.4009277044 1.3185486682 1.219553708 1.2406078082 1.2645229545 1.2944599168 1.3447051051 1.544475565 1.7482119936 
2.0803603995 1.9654869917 1.6675365991 1.6712379231 1.9019334405 1.7717156677 1.9650687587 1.9922457602 1.9621056231 
1.8096935921 1.6412123506 1.4603937737 1.3534163998 1.2789060007 1.287542773 1.2961749997 1.3277710669 1.3897068243 
1.4989078428 1.645102446 1.8273229384 1.8957610869 1.6989209404 1.5118860856 1.3702338254 1.4287227056 1.3414298356 
1.434777798 1.2932125117 1.2344732509 1.1706846925 1.1599827902 1.2343584793 1.4007205356 1.650318515 2.0108010251 
2.2322064773 2.0706568057 1.8170025446 1.5961205 1.544154665 1.5526228607 1.631477062 1.7523716694 1.8605479572 
1.7316356799 1.5625583709 1.5341186619 1.5704429711 1.8838987605 1.6974807794 1.9593220704 1.6162156809 1.7050342516 
1.9069999993 1.9161779008 1.8938190201 1.6905228291 1.8390826776 1.6206162407 1.4872974631 1.5083099944 1.5679119658 
1.6525253861 1.794924549 1.7657895508 1.912946944 1.6746799042 1.6957374653 1.7940186904 1.8297459868 1.8761179521 
1.8309451663 1.7437611446 1.5035574073 1.5708546292 1.7861591276 1.6581660525 1.4694010098 1.4011636703 1.4407490688 
1.5553868114 1.5713098073 1.552031323 1.6297029147 1.6829855297 1.6490885463 1.6442768423 1.681702128 1.6471538009 
1.5708342242 1.6818935246 1.7094401006 1.6338420821 1.4701590328 1.2493847526 1.2006817801 1.2206379773 1.392381846 
1.5236178587 1.6243775313 1.6614006587 1.6827342089 1.63847006 1.6872638982 1.748417802 1.9034113317 1.9585898455 
1.8957842521 1.4735294865 1.5703270739 1.3709539858 1.2770305949 1.2608998265 1.2699202729 1.2979417104 1.3684233247 
1.5013060559 1.6576287394 1.7893954076 2.2139657193 1.9789834306 2.2341907609 2.1178891933 1.7881055034 1.5984361775 
1.6207185239 1.660146764 1.656425347 1.5549358026 1.7776742258 1.9068653781 2.157186785 2.0357630719 2.346236517 
2.4397468623 2.2444197716 1.9049357205 1.7502955007 1.6892322826 1.8060632341 1.737225066 1.8744971371 2.0279250938 
1.9787124391 1.9170265952 1.8252691677 1.6591137206 1.4832389537 1.3709424686 1.3362345995 1.3400561199 1.33648944 
1.3691705105 1.3983976643 1.3917951776 1.4902493756 1.5590935478 1.7094815503 1.5449828098 1.8062671046 1.8011299645 
1.7132502982 1.6006225302 1.4955636444 1.5033057089 1.5604002025 1.7050320457 1.8105650456 1.8277992448 1.9432716151 
2.0556998223 2.0397956506 1.8251896588 1.6073578753 1.4934585616 1.4259469998 1.3978128371 1.366358836 1.2909235374 
1.309131918 1.4910919922 1.8097368703 2.0473153893 2.2890061551 1.8785188489 2.0929526426 1.7082943793 1.6080508625 
1.619627461 1.6756535436 1.7523817084 1.7468692269 1.6820150237 1.6006924098 1.6362212623 1.5634654441 1.5705942057 
1.7569901992 1.6788001595 1.8753644414 1.9673483144 2.3164208017 2.360323211 1.9951545109 1.8661084101 1.9859988849 
2.0010007649 1.856540926 1.773556201 1.7134550364 1.6021638402 1.5934764098 1.562438549 1.5529514936 1.5050102657 
1.3757679387 1.5229611642 1.9444173484 1.8102016669 1.5390307567 1.4083587002 1.480047829 1.6221678777 1.620198251 
1.6778927203 1.7356079712 1.7471865309 1.7003054919 1.6909884003 1.7455794785 1.7048901677 1.6409666064 1.6625905351 
1.5667746964 1.6317441968 1.3890234142 1.2248872678 1.2233306818 1.2575163777 1.4114358835 1.4964994551 1.5089852152 
1.4998587584 1.5050709834 1.5408257222 1.6226558609 1.7252748489 1.8946404757 2.0164615831 1.9567423336 1.9510971623 
1.868319909 1.9037101443 1.8262378573 1.6937247503 1.6027816974 1.4540786453 1.3202655949 1.3341638506 1.370486515 
1.6915024013 1.7357614741 1.8889436245 1.9521822953 2.0047802588 1.8852576006 2.0218496256 1.8530929665 1.6932921459 
1.5899374392 1.4780857738 1.4562267071 1.4404021597 1.4609576616 1.4732719069 1.4486597189 1.5842496676 2.0288924687 
2.1475591691 1.8172369469 1.4490253167 1.5533979039 1.7079418798 1.7252820778 1.7596850779 1.8088845767 1.8166913212 
1.7339307122 1.6744704042 1.6285189945 1.6382298912 1.6273815537 1.7153159626 1.7824924248 1.7555514919 1.8214097316 
1.6548995595 1.5616074914 1.470629509 1.3626496194 1.2348918966 1.2196248085 1.2272091098 1.3042138367 1.357421921 
1.3864191933 1.3647455085 1.362054185 1.4919322676 1.6300884885 1.774630888 1.887815247 1.978782577 1.9256380074 
1.8993711102 1.8838422486 1.8313668685 1.8071866359 1.7760960503 1.7188938531 1.6077194424 1.5118381122 1.5230214887 
1.9880465782 1.938074811 1.9010372441 1.8193119082 1.6586026835 1.5041043187 1.3703754627 1.2972582039 1.2541417258 
1.2986915207 1.3226558983 1.3327433336 1.3202144956 1.3867287473 1.4628913173 1.3854379194 1.5158157303 1.3461697907 
1.7155382114 1.8034901162 1.8590544757 1.7383997888 1.6040314987 1.6103222695 1.6721081681 1.7596575546 1.9021678638 
2.0219162226 2.1125049403 2.0956333142 1.9148967414 1.7095996838 1.5551318822 1.5068356165 1.5484576934 1.5787889949 
1.4735506468 1.4017743808 1.5358068334 1.8428114841 2.012723793 2.1210204196 2.1989329348 2.158890736 2.1635177925 
2.1254401202 2.0306320725 1.8623838645 1.7206946957 1.678369598 1.6920323151 1.7233940801 1.7713492278 1.8492965263 
1.8469907725 1.8314572673 1.8257274049 1.6614426757 1.5869041883 1.6515821027 1.7674255235 1.7575234651 1.7686452961 
1.7815991796 1.8716570259 1.7142996846 1.4869975534 1.4697979967 1.4452412929 1.4943595469 1.5583967661 1.5181578557 
1.5390124276 1.89452425 2.1723152185 1.5055204409 1.8069748927 1.6223188802 1.704492097 1.7419405472 1.7849269923 
1.8274124736 1.8385162211 1.7832747881 1.7496393769 1.747966423 1.7573792552 1.7662894782 1.7707691492 1.78595862 
1.7634410807 1.7581583583 1.7047802347 1.7496762207 1.6625364087 1.5684467113 1.4814134876 1.3886782913 1.2951642334 
1.2866362424 1.2742782298 1.2635551547 1.2748001051 1.3368820935 1.2854472818 1.4287471687 1.3050413409 1.6020913201 
1.7895848043 1.887688873 2.1034503292 2.0941123398 1.7966371811 1.8542176736 1.8271209108 1.8274246422 1.6622102445 
1.671139365 1.8952812574 1.8624106308 1.8668439881 1.8589683337 1.6813304058 1.5157486598 1.3749499735 1.2545787356 
1.1052091173 1.1598655746 1.2417176581 1.272502018 1.2540339323 1.2890689843 1.2675149985 1.41888802 1.4290721968 
1.5342662943 1.6786254343 1.7374713169 1.7901652595 1.6846069599 1.6298924061 1.6759113854 1.731153526 1.7853327683 
1.9309808983 2.0480170374 2.1367069649 2.1051079444 1.972848657 1.8208867444 1.6509543217 1.6267855535 1.6897139834 
1.7898193828 1.6975633424 1.614415523 1.5449233152 1.7528287621 1.8937669755 1.9139473663 1.9421304478 2.0297183405 
2.0335211973 1.9672386345 2.0524847176 2.0219537304 1.9573303702 1.9004456474 1.8613725563 1.8806102025 1.8977712681 
1.8810365128 1.8904956541 1.9917403946 2.0144099486 2.0040073407 1.8487920833 1.6944215603 1.6237159297 1.6291558489 
1.7310270493 1.7310495983 1.7469687357 1.7529669524 1.6446015969 1.7728318793 1.9201110943 1.9639550019 2.0410047999 
2.2552476892 2.3973588097 2.4591033639 2.1994861044 1.9085385735 1.7568097569 1.7415570644 1.7700735585 1.7809198043 
1.8053435285 1.8448785629 1.8724047183 1.8229717347 1.8365776525 1.7765934707 1.8299068676 1.8218363503 1.6760773782 
1.5306141416 1.3993795597 1.2411349164 1.0487671535 1.0507472069 1.1349946901 1.2120362584 1.2240953749 1.4759395931 
1.3607917554 1.3609358233 1.5836515314 1.5998733812 1.6202736984 1.6503093103 1.6758877251 1.6365797609 1.5846651264 
1.6351355063 1.6967332033 1.7463865484 2.0038355163 1.966432238 2.0503848393 2.026702554 1.9325156624 1.7705938014 
1.5859629434 1.6275470891 1.8197305832 2.0651088757 1.7130096956 1.869387049 1.5892759717 1.6324747316 1.7734225593 
1.7550549321 1.7603332963 1.8323210618 1.8398023106 1.8400364464 1.7574139153 1.1594700311 1.1236191714 1.7584215225 
1.6649784869 1.5858014135 1.6228809348 1.6984153605 1.8334878666 2.056059794 1.4673290582 1.3745423946 1.4043566045 
1.4220563151 1.4253234815 1.4815299402 1.5813037011 1.8666733914 2.1189095068 1.9409076676 1.9576125921 1.7579900684 
1.5795782438 1.6552117515 1.7102822128 1.7275970208 1.7767430826 1.8356152741 1.8034972957 1.7630406398 1.7744105389 
1.7983607186 1.805314066 1.7812754341 1.7467495018 1.7268125269 1.6923720915 1.5957122119 1.7055020795 1.6022637202 
1.6776214329 1.6591826651 1.6020527331 1.5535540581 1.6725008142 1.7628028776 1.9010364908 1.9180341398 1.9329485597 
1.8524509008 1.8656430802 2.0057333225 2.3093514323 2.1020562048 2.0011203409 1.335540601 1.2895508076 1.2430517168 
1.2438206796 1.2191096164 1.1109901312 1.0207392264 1.0049465163 1.1061539367 1.1821898578 1.2639122845 1.4116236272 
1.6108740965 1.5934564559 1.8299355874 1.7339089221 1.8525817627 1.7992450398 2.2855513368 2.1153693197 1.8643532589 
1.5293415463 1.68601558 1.6031719856 1.6800299504 1.7663945892 1.8473548563 1.8584567067 1.7868916619 1.7482493249 
1.7437135423 1.7291558159 1.7786716169 1.8010225735 1.6289946998 1.6785953432 1.6841706712 1.617821097 1.6535083277 
1.4186740038 1.4849146367 1.4971519787 1.4940016309 1.5754980866 1.7238911639 1.8365043313 1.8878168937 1.7581384599 
1.6307144164 1.6162909909 1.6776050417 1.6746313476 1.6258645476 1.6616641789 1.0833054338 1.169274404 1.3579946254 
1.5914392739 1.6151789087 1.5654033313 1.641164363 1.6084830163 1.682481729 1.7255598204 1.718392973 1.0453920243 
1.6579447785 1.5440271072 1.3950611516 1.8079257315 1.2086969658 1.6851580972 1.6480907418 1.7214063059 1.5604588614 
1.523382896 1.701580778 1.7107892789 1.6654793182 1.7033702941 1.7516596896 1.5817267091 
STJ 1 1114 double
0 0 0 0 0 0 0 0 0 
0 0 0 0 0 0 0 0 0 
0 0 0 0 0 0 0 0 0 
0 0 0 0 0 0 0 0 0 
0 0 0 0 0 0 0 0 0 
0 0 0 0 0 0 0 0 0 
0 0 0 0 0 0 0 0 0 
0 0 0 0 0 0 0 0 0 
0 0 0 0 0 0 0 0 0 
0 0 0 1 1 0 0 1 0 
1 0 1 0 1 0 1 0 1 
0 1 0 1 0 1 0 1 0 
1 0 1 0 1 0 1 0 1 
0 1 0 1 0 1 0 1 0 
1 0 1 0 1 0 1 0 1 
0 1 0 1 0 1 0 1 0 
1 0 1 0 1 0 1 0 1 
0 1 0 0.99999990074 0 0.99999943037 0 0.99999953841 0 
1 0 1 0 1 0 1 0 1 
0 1 0 1 0 1 0 1 0 
1 0 1 0 1 0 1 0 1 
0 1 0 1 0 1 0 1 0 
1 0 0 0 0 0 0 0 0 
0 0 0 0 0 0 0 0 0 
0 0 0 0 0 0 0 0 0 
0 0 0 0 0 0 0 0 0 
0 0 0 0 0 0 0 0 0 
0 0 0 0 0 0 0 0 0 
0 0 0 0 0 0 0 0 0 
0 0 0 0 0 0 0 0 0 
0 0 0 0 0 0 0 0 0 
0 0 0 0 0 0 0 0 0 
0 0 0 0 0 0 0 0 0 
0 0 0 0 0 0 0 0 0 
0 0 0 0 0 0 0 0 0 
0 0 0 0 0 0 0 0 0 
0 0 0 0 0 0 0 0 0 
0 0 0 0 0 0 0 0 0 
0 0 0 0 0 0 0 0 0 
0 0 0 0 0 0 0 0 0 
0 0 0 0 0 0 0 0 0 
0 0 0 0 0 0 0 0 0 
0 0 0 0 0 0 0 0 0 
0 0 0 0 0 0 0 0 0 
0 0 0 0 0 0 0 0 0 
0 0 0 0 0 0 0 0 0 
0 0 0 0 0 0 0 0 0 
0 0 0 0 0 0 0 0 0 
0 0 0 0 0 0 0 0 0 
0 0 0 0 0 0 0 0 0 
0 0 0 0 0 0 0 0 0 
0 0 0 0 0 0 0 0 0 
0 0 0 0 0 0 0 0 0 
0 0 0 0 0 0 0 0 0 
0 0 0 0 0 0 0 0 0 
0 0 0 0 0 0 0 0 0 
0 0 0 0 0 0 0 0 0 
0 0 0 0 0 0 0 0 0 
0 0 0 0 0 0 0 0 0 
0 0 0 0 0 0 0 0 0 
0 0 0 0 0 0 0 0 0 
0 0 0 0 0 0 0 0 0 
0 0 0 0 0 0 0 0 0 
0 0 0 0 0 0 0 0 0 
0 0 0 0 0 0 0 0 0 
0 0 0 0 0 0 0 0 0 
0 0 0 0 0 0 0 0 0 
0 0 0 0 0 0 0 0 0 
0 0 0 0 0 0 0 0 0 
0 0 0 0 0 0 0 0 0 
0 0 0 0 0 0 0 0 0 
0 0 0 0 0 0 0 0 0 
0 0 0 0 0 0 0 0 0 
0 0 0 0 0 0 0 0 0 
0 0 0 0 0 0 0 0 0 
0 0 0 0 0 0 0 0 0 
0 0 0 0 0 0 0 0 0 
0 0 0 0 0 0 0 0 0 
0 0 0 0 0 0 0 0 0 
0 0 0 0 0 0 0 0 0 
0 0 0 0 0 0 0 0 0 
0 0 0 0 0 0 0 0 0 
0 0 0 0 0 0 0 0 0 
0 0 0 0 0 0 0 0 0 
0 0 0 0 0 0 0 0 0 
0 0 0 0 0 0 0 0 0 
0 0 0 0 0 0 0 0 0 
0 0 0 0 0 0 0 0 0 
0 0 0 0 0 0 0 0 0 
0 0 0 0 0 0 0 0 0 
0 0 0 0 0 0 0 0 0 
0 0 0 0 0 0 0 0 0 
0 0 0 0 0 0 0 0 0 
0 0 0 0 0 0 0 0 0 
0 0 0 0 0 0 0 0 0 
0 0 0 0 0 0 0 0 0 
0 0 0 0 0 0 0 0 0 
0 0 0 0 0 0 0 0 0 
0 0 0 0 0 0 0 0 0 
0 0 0 0 0 0 0 0 0 
0 0 0 0 0 0 0 0 0 
0 0 0 0 0 0 0 0 0 
0 0 0 0 0 0 0 0 0 
0 0 0 0 0 0 0 0 0 
0 0 0 0 0 0 0 0 0 
0 0 0 0 0 0 0 0 0 
0 0 0 0 0 0 0 0 0 
0 0 0 0 0 0 0 0 0 
0 0 0 0 0 0 0 0 0 
0 0 0 0 0 0 0 0 0 
0 0 0 0 0 0 0 0 0 
0 0 0 0 0 0 0 0 0 
0 0 0 0 0 0 0 0 0 
0 0 0 0 0 0 0 0 0 
0 0 0 0 0 0 0 0 0 
0 0 0 0 0 0 0 0 0 
0 0 0 0 0 0 0 0 0 
0 0 0 0 0 0 0 0 0 
0 0 0 0 0 0 0 0 0 
0 0 0 0 0 0 0 0 0 
0 0 0 0 0 0 0 0 0 
0 0 0 0 0 0 0 0 0 
0 0 0 0 0 0 0 0 0 
0 0 0 0 0 0 0 
Thickness 1 1114 double
3.0843743587 3.0843743587 1.7116811635 1.9843670672 3.0843725678 1.9494773495 3.0843744065 1.9512136642 3.0843761364 
1.736414245 3.084373816 1.4510218628 3.0843711819 1.3862395711 3.0843762115 1.4367523966 3.084376142 1.4166554335 
3.0843743587 1.4393290494 3.0843751466 1.5233006804 3.084376773 1.6520508744 3.0843743587 1.9983980624 3.0843743587 
2.1629846179 3.0843743587 2.2788584186 3.0843743587 2.1774147493 3.0843743587 2.1654141557 3.0843744295 2.198256635 
3.0843743994 2.3121498424 3.084374223 2.5584897461 3.0843743587 2.8496172107 3.0843743587 3.0596013582 3.0843743587 
3.0307136909 3.0843743587 2.9171902145 3.0843743587 2.6109210426 3.0843743587 2.1197588039 3.0843743587 2.2762257216 
3.0843743587 2.2349555237 3.0843743587 2.0423150016 3.0843743587 1.8459579354 3.0843743587 1.7560380027 3.0843743587 
1.6940265084 3.0843743587 1.7409430805 3.0843743587 1.7158088229 3.0843743587 1.6109739106 3.0843743587 1.5413928787 
3.0843743587 1.5605758955 3.0843743587 1.7464705097 3.0843743587 2.0114864178 3.0843743587 1.9132440229 3.0843743587 
1.9066514403 3.0843743587 2.1410042746 3.0843743587 3.0843743587 3.0702069954 3.0379384475 3.0843743587 3.0542995836 
3.0843743587 2.6695739511 3.0843743587 2.4519583687 3.0843743587 2.4077034968 3.0843743587 2.3667318307 3.0843743587 
2.3959624854 3.0843743587 2.5257760238 3.0843743587 2.6924116399 3.0843743587 2.8569722938 3.0843743587 3.0729942315 
3.0843743587 3.2961855706 3.0843743587 3.4952118205 3.0843743587 3.6574318639 3.0843743587 3.318321193 3.0843743587 
3.0360173706 3.0843743587 2.8069723377 3.0843743587 2.7893340362 3.0843743587 2.7245162533 3.0843743587 2.6240258918 
3.0843743587 2.4584606665 3.0843743587 2.3955595255 3.0843743587 2.4806938154 3.0843743587 2.7345327827 3.0843743587 
2.5605529739 3.0843743587 2.6122022099 3.0843743587 2.467081194 3.0843743587 2.3942500267 3.0843743587 2.7142041993 
3.0843743587 2.9282646523 3.0843743587 3.1018613394 3.0843743587 3.244847384 3.0843743587 3.3073375313 3.0843743587 
3.1813924158 3.0843743587 3.4642150101 3.0843742755 3.6896467253 3.084373881 3.6050600194 3.0843739521 3.4631197295 
3.0843743587 3.3152743608 3.0843743587 2.9318649104 3.0843743587 2.6024145738 3.0843743587 2.2749504809 3.0843743587 
1.9928497145 3.0843743587 1.7099636173 3.0843743587 2.1460136859 3.0843743587 2.4535240525 3.0843743587 2.6985500713 
3.0843743587 2.8464381602 3.0843743587 2.9322244522 3.0843743587 2.9985186295 3.0843743587 3.0455484035 3.0843743587 
2.7736960076 3.0843743587 2.5523340834 3.0843743587 2.5541886122 3.0843743587 2.5767184912 3.0843743587 2.6081213899 
3.0843743587 2.8306786214 2.4499055813 2.4046569098 2.5554502818 2.2469034537 1.7626335484 1.5371606861 1.454858888 
1.4563730973 1.5162713735 1.6587024579 1.9583373668 2.458070549 3.0445876955 3.079626032 2.9039166643 2.7343153321 
2.628263897 2.6366988285 2.7860765419 3.2052363307 3.5647650412 3.6152812188 3.3784828845 3.1213911136 2.7234816509 
2.9543619159 2.9187123231 2.7403928531 2.4508371371 2.1856054202 2.0137447524 2.0206583805 1.9710893555 1.898933756 
1.9025977918 2.0286530791 2.3300272663 2.8970512433 3.2965069392 3.4399850207 3.3175215157 2.7511755153 3.0127895297 
3.0948383602 2.9237964574 2.7165212929 2.5190283757 2.5966498475 2.7939801021 2.8925819155 3.0153192363 3.1756096242 
3.2113594594 3.3996632714 3.5504479564 3.7041607607 3.4122484967 3.0375244233 2.7826211832 2.7019603633 2.5777784961 
2.4565261502 2.3658067007 2.3941728981 2.6171915497 2.8908166086 3.0545765601 2.9655883218 3.0147496121 2.8935145109 
2.7990419605 2.8338237288 3.0192202575 3.1856058091 3.3153120193 3.3548341958 3.746296052 4.0304079602 4.2084860584 
4.0184525946 3.7049591094 3.2878178902 2.9421305197 2.7752194758 2.4916784762 2.2392809713 2.4613662283 2.6171168806 
2.8950179673 3.0636528326 3.0736866874 3.1204261835 3.1453157194 2.995790859 2.900152446 2.8849258361 2.9186426638 
2.9294791829 3.0715358051 3.2001746866 3.2394173668 3.3592152927 2.1233974762 2.492435933 2.0033487142 1.9328263875 
1.8313169765 1.9233592406 2.1217620574 2.4337766747 2.9757956495 3.7559863884 3.896653149 3.6849432554 3.2758056325 
2.9419707439 2.8542141737 2.9001858946 3.1683242924 3.4936444827 3.7563205436 3.4724844864 3.2773389428 3.6427821792 
3.5033069077 3.6416508859 3.3394412427 3.0222333079 2.7325478686 2.5100309385 2.3865232579 2.3491538517 2.3161838876 
2.3959312759 2.6053253426 2.9795728897 3.7785972563 3.9777503055 3.871138397 3.6587223038 3.0183705735 2.7505398211 
2.8470207498 3.4060949719 3.26097356 3.4597834734 3.6421683178 3.4470217679 3.1564400385 2.9503562076 2.8655579574 
3.0223707251 3.1491669559 3.2811634582 3.8485671556 3.5275635418 4.126605358 4.3428080383 4.1448385023 3.8166466997 
3.1982216225 2.9952849687 3.0896746382 2.837517546 2.608958596 2.6195528034 2.7819120044 3.0418176641 3.1305058186 
3.1044432242 3.162229319 3.2118379694 3.1568355834 3.1333561124 3.217805529 3.1268467134 3.0166708649 3.2084936559 
3.3098819196 3.1775958252 2.9650236235 2.6421014484 2.583438524 2.4617514092 2.8047929884 3.0391436936 3.1547272866 
3.3279927983 3.4131845349 3.3454808572 3.4206801027 3.5535284087 3.7516263493 3.6457717899 3.319449898 2.9841533435 
2.8018556019 2.6370975611 2.439108237 2.4812161966 2.5290455853 2.5889195083 2.6894102103 3.0889509242 3.4964234817 
4.1607206333 3.9309735788 3.3350729802 3.3424758463 3.8038660966 3.543431107 3.9301378257 3.9844921378 3.9242112463 
3.6193871842 3.2824247012 2.9207875473 2.7068327997 2.5578114895 2.5750847812 2.5923499664 2.6555422047 2.7794131408 
2.9978146857 3.290203892 3.6546459091 3.7915229803 3.397841445 3.023772409 2.7404674712 2.8574457443 2.6828589727 
2.8695555502 2.5864240235 2.468946179 2.3413695223 2.3199650004 2.4687163359 2.8014410711 3.30063703 4.0216012093 
4.4644134881 4.1413129336 3.6340048854 3.1922406879 3.0883093301 3.1052450561 3.2629531241 3.5047424997 3.7210957766 
3.4632709436 3.1251177418 3.0682378383 3.1408855997 3.7677965697 3.3949609411 3.9186434876 3.2324303942 3.4100680128 
3.8139992276 3.8323550019 3.7876380403 3.3810451165 3.6781653419 3.2412322303 2.9745946801 3.0166202116 3.1358243851 
3.3050510417 3.5898494526 3.5315794442 3.8258946681 3.3493594649 3.391474909 3.5880383402 3.6594927471 3.7522366286 
3.6618907554 3.4875221538 3.0071141046 3.1417083957 3.5723189637 3.316332337 2.9388014821 2.8023276645 2.8814985153 
3.1107732951 3.1426194719 3.1040636159 3.259406277 3.3659709501 3.2981776443 3.2885546445 3.3634051737 3.2943085512 
3.141669418 3.3637873768 3.4188811943 3.2676845129 2.9403183233 2.4987703673 2.4013645603 2.441276923 2.7847633523 
3.0472348592 3.2487542432 3.3228006248 3.3654682933 3.2769404954 3.3745287068 3.4968365582 3.8068225043 3.9171792591 
3.7915683168 2.9470586035 3.14065347 2.7419081155 2.5540613768 2.521799653 2.5398405457 2.5958834208 2.7368467442 
3.0026128184 3.3152572073 3.5787909846 4.4279314662 3.9579668692 4.4683805219 4.2357773865 3.5762103352 3.1968723028 
3.2414370478 3.320293528 3.3128496939 3.1098711598 3.5553477233 3.8137306678 4.3143735063 4.0715251716 4.6924738653 
4.8794939444 4.4888397491 3.8098722862 3.5005914669 3.3784645652 3.6121268317 3.4744502618 3.7489949266 4.0558501876 
3.9574248782 3.8340532357 3.6505383354 3.3182278854 2.9664784334 2.7418854691 2.6724693898 2.6801120745 2.6729789273 
2.7383412136 2.7967956893 2.7835900953 2.9804981784 3.1181861122 3.4189633116 3.0899658941 3.6125342092 3.6022599289 
3.4265013595 3.2012456158 2.9911281217 3.0066114696 3.1207998855 3.4100650115 3.6211290911 3.6555986504 3.8865425801 
4.1113988718 4.0795905116 3.6503789584 3.2147155929 2.9869163495 2.851893236 2.7956257859 2.7327179318 2.5818465897 
2.6182631963 2.9821838315 3.6194727996 4.0946306966 4.5780123102 3.7570367759 4.1859051176 3.4165894898 3.2161018725 
3.2392543309 3.3513060872 3.5047624168 3.4937374539 3.3640290754 3.2013838196 3.2724417194 3.1269303278 3.1411883818 
3.5139802578 3.3575999121 3.7507286208 3.9346958839 4.6328416034 4.7206459578 3.9903100053 3.7322175476 3.9719987698 
4.0020014868 3.7130820458 3.5471126512 3.4269105616 3.2043280303 3.1869528197 3.1248770979 3.1059026399 3.0100196625 
2.7515352858 3.045921907 3.8888342846 3.6204033572 3.078061968 2.8167175035 2.960096048 3.2443362505 3.2403966177 
3.3557863953 3.4712163538 3.4943729327 3.4006104298 3.3819765988 3.4911596454 3.4097806697 3.2819335943 3.3251815199 
3.1335492556 3.263488238 2.7780465211 2.4497741859 2.4466610085 2.5150323361 2.8228709722 2.9929989069 3.0179711088 
2.9997178286 3.0101419668 3.0816514444 3.245312125 3.4505506685 3.7892812258 4.0329230129 3.9134847994 3.9021941173 
3.7366399703 3.8074196263 3.6524760211 3.3874495007 3.2055633182 2.9081570676 2.6405312752 2.6683276369 2.7409731072 
3.3830047268 3.4715223088 3.7778881296 3.9043640881 4.0095598017 3.7705158675 4.0436993102 3.7061865567 3.3865842917 
3.1798748784 2.9561716707 2.9124539887 2.8808052262 2.9219157092 2.9465437 2.8973186834 3.1684987386 4.0577850595 
4.2951187217 3.6344738939 2.8980507814 3.1067953282 3.4158827595 3.4505631555 3.5193695405 3.6177684724 3.6333819496 
3.4678612784 3.3489408083 3.2570379889 3.2764597823 3.2547631073 3.4306321375 3.5649847887 3.5111023243 3.6428195261 
3.3097989923 3.1232154888 2.9412596481 2.7252991984 2.4697834658 2.439249334 2.4544180358 2.6084282687 2.7148444022 
2.7728382773 2.7294908904 2.7241080834 2.983864508 3.2601766685 3.5492609676 3.7756301304 3.9575650341 3.8512757741 
3.7987429188 3.7676841668 3.662734593 3.614374207 3.5521921753 3.4377876491 3.2154386158 3.0236760349 3.0460427249 
3.976092575 3.8761498998 3.8020754882 3.6386247131 3.3172057625 3.0082082102 2.740751432 2.5945173149 2.5082843951 
2.5973831444 2.6453121606 2.6654875836 2.640429823 2.7734578097 2.9257822495 2.7708768389 3.0316320187 2.6923401587 
3.4310765218 3.6069806256 3.7181082172 3.4767996639 3.2080639974 3.220645539 3.3442165006 3.5193141092 3.8043349731 
4.0438321066 4.2250098315 4.1912663743 3.8297932875 3.4191993676 3.1102637938 3.0136707687 3.0969154091 3.1575788258 
2.9471008733 2.8035488192 3.0716146147 3.6856233864 4.0254472674 4.2420401734 4.3978650905 4.3177818211 4.3270365853 
4.2508802404 4.0612641451 3.7247677124 3.4413893914 3.3567391961 3.3840645837 3.4467882265 3.5426990614 3.6985930175 
3.6939807145 3.6629140346 3.6514548237 3.3228857251 3.1738077249 3.3031637101 3.5348510219 3.5150467607 3.537290693 
3.5631987988 3.7433143735 3.4285990024 2.9739951516 2.9395960348 2.890482653 2.9887192191 3.1167936331 3.0363156715 
3.0780248552 3.7890485 4.344630537 3.0110413264 3.6139502621 3.2446371902 3.4089831941 3.4838806207 3.5698538536 
3.6548242971 3.6770317338 3.5665498477 3.4992794257 3.4959325328 3.5147578284 3.5325792315 3.5415392286 3.5719178591 
3.5268825397 3.5163168273 3.4095606281 3.4993527392 3.3250726635 3.1368925552 2.9628260091 2.7773555973 2.5903275783 
2.5732719611 2.5485564327 2.5271100607 2.5495996004 2.673763944 2.5708948313 2.8574953099 2.6100825875 3.2041831855 
3.5791703166 3.7753780447 4.2069006585 4.1882252642 3.5932735403 3.7084356927 3.6542418526 3.6548494133 3.3244198385 
3.3422788334 3.7905628998 3.7248220133 3.7336889192 3.717937538 3.3626618117 3.0314981427 2.7499009217 2.5091584713 
2.2104188635 2.3197306141 2.4834348282 2.5450040135 2.5080673204 2.5781384808 2.5350296081 2.83777504 2.8581434663 
3.0685322137 3.3572505263 3.474942181 3.5803305596 3.3692144939 3.2597855308 3.3518229245 3.4623067403 3.5706645914 
3.8619612876 4.0960340749 4.2734139297 4.2102160592 3.9456980372 3.6417742396 3.301908824 3.253571107 3.3794280901 
3.5796389014 3.3951266848 3.2288310461 3.0898468253 3.5056584092 3.787534521 3.8278941063 3.8842604865 4.0594365417 
4.0670430096 3.9344775141 4.1049698564 4.0439075192 3.9146607453 3.8008909995 3.7227446248 3.7612204049 3.7955419111 
3.7620727192 3.7809921671 3.9834810911 4.0288198971 4.0080146814 3.6975847835 3.3888434357 3.2474318595 3.2583116979 
3.4620540987 3.4620996096 3.4939372898 3.5059342105 3.2892035503 3.5456645591 3.8402222636 3.927909419 4.0820095998 
4.5104953784 4.7947178333 4.9182060119 4.398971533 3.8170765864 3.5136197893 3.4831150438 3.5401479003 3.561839241 
3.6106873683 3.6897566765 3.7448094985 3.6459428443 3.673155305 3.553187022 3.6598140085 3.6436717588 3.3521537837 
3.0612274493 2.7987591978 2.4822706892 2.0975351497 2.1014952383 2.2699892773 2.4240715798 2.4481903773 2.9518792256 
2.7215832428 2.7218715908 3.1673020628 3.1997457624 3.2405471983 3.3006191337 3.3517758116 3.2731597076 3.1693303888 
3.270271365 3.3934668912 3.4927740161 4.0076710189 3.9328642089 4.1007690949 4.0534045927 3.8650312928 3.5411871667 
3.1719257182 3.2550939316 3.6394609828 4.130217792 3.426019169 3.738774098 3.1785519814 3.2649500986 3.5468456767 
3.510110272 3.5206664377 3.6646426051 3.6796050686 3.6800729215 3.5148274621 2.318940401 2.2472393214 3.5168430449 
3.3299574804 3.171603613 3.2457621694 3.3968307211 3.6669751947 4.1121193062 2.9346579645 2.7490851089 2.8087138567 
2.8441131236 2.8506475319 2.9630597664 3.1626066362 3.7333464382 4.2378195765 3.8818162622 3.9152253335 3.5159801367 
3.1591564875 3.310423503 3.4205645474 3.4551942628 3.5534859991 3.671229865 3.6069937892 3.5260809732 3.5488212213 
3.5967214438 3.6106282262 3.5625514559 3.4935000037 3.4536258597 3.384744795 3.1914247494 3.4110038386 3.2045273824 
3.355243199 3.3183661296 3.2041057721 3.1071085408 3.3450017142 3.525605611 3.8020731921 3.8360690423 3.8658978928 
3.7049027999 3.7312860885 4.0114666257 4.6187021049 4.2041124095 4.0022406819 2.6710810556 2.5791015974 2.4861028265 
2.4876413499 2.4382198237 2.2219806094 2.0414776045 2.0098931356 2.2123082934 2.3643801054 2.5278247519 2.8232463514 
3.221747823 3.186913192 3.6598711749 3.4678175174 3.7051635254 3.5984905923 4.571102243 4.230737872 3.7287061691 
3.0586830069 3.3720315461 3.2063441114 3.3600600594 3.5327894372 3.6947100517 3.7169136114 3.5737835694 3.4964980796 
3.4874267607 3.4583124065 3.5573442234 3.6020461019 3.2579896773 3.3571916305 3.3683405303 3.23564166 3.3070164976 
2.8373473394 2.9698286177 2.9943030707 2.9880025821 3.1509960724 3.4477823278 3.6730086627 3.7756337874 3.5162766938 
3.2614280819 3.2325812812 3.3552099158 3.3492626953 3.2517296662 3.3233291368 2.1666100827 2.3385482345 2.7159888987 
3.1828786677 3.2303585508 3.1308067145 3.2823289253 3.2169657169 3.3649640391 3.4511201486 3.4367859522 2.0907842948 
3.3158887164 3.0880533385 2.7901221788 3.6158522566 2.4173940219 3.370316069 3.2961812404 3.4428128123 3.1209178025 
3.0467666566 3.4031615561 3.4215789925 3.3309593969 3.4067415881 3.5033203791 3.1634528604 
Total_Motion 1 1114 double
6.0221620875 6.0093606116 6.1114761226 6.0869437831 6.2140964798 6.1887911144 6.3903449195 6.3605980702 6.5780357387 
6.620736488 6.8428934621 6.8755203189 7.0656214845 7.1001345127 7.3859137968 7.3129290258 7.7584940067 7.5833075845 
8.2183964565 7.8764669612 8.8176299428 8.3160138739 9.5996055754 8.880163091 10.432549727 9.5032326931 11.027730418 
10.066724557 11.302051973 10.349461875 11.298475196 10.434561048 11.181606327 10.405808259 10.968987591 10.231286378 
10.659018742 9.9893505037 10.266537515 9.6544717467 9.8032372935 9.2954153663 9.3198676857 8.8183865141 8.8759506027 
8.3235550436 8.4001324664 7.8494989181 7.9001352954 7.3380705954 7.4406872484 6.9342686529 7.0393663586 6.5707841734 
6.6491485729 6.1859858938 6.3498133185 5.9265912317 6.2174828045 5.7942770835 6.3201880257 5.8687783479 6.5591924728 
6.1384963186 6.8440273488 6.401874177 7.0860949614 6.6356111172 7.1985687996 6.7462176548 7.0126562659 6.6540701624 
6.8924288665 6.5170074821 6.6702566514 6.3042565706 6.4731181875 6.1594210437 6.3095702538 6.1587029495 6.1542542261 
6.1253234153 6.0304370326 6.1160549057 9.3839756225 9.3408697468 8.7225459851 8.7925159631 9.2819742792 8.6285151158 
9.1771742097 8.4679549546 9.0440912384 8.3280409468 8.8861179714 8.2008579465 8.7773250586 8.0547982591 8.668708925 
7.921628972 8.5561411691 7.7959706307 8.4354829825 7.7243314691 8.3024964003 7.6731223534 8.1523815939 7.6234483555 
8.1253992185 7.6821393067 8.1667513557 7.7667973061 8.2680099 7.8505850118 8.4190125258 7.9294590637 8.4662053366 
7.989934069 8.4527245195 8.0324818992 8.4308428919 7.9192300997 8.2788871814 7.7593801918 8.0536837708 7.5731318984 
7.7733939958 7.3032127288 7.5800908163 7.0971898187 7.450225911 6.9623384775 7.4190598678 6.9764748251 7.4230529207 
7.1602739235 7.4455253822 7.2305358032 7.3995939391 7.1993935071 7.3200931879 7.1393072395 7.1920215562 6.9761764387 
6.9867263853 6.7005760596 6.7609675665 6.3618645368 6.5524128185 6.0242089821 6.3468109613 5.6796064855 6.1442241453 
5.4717692467 6.1904817058 5.4565551286 6.2977758194 5.5159322264 6.4978638273 5.7143408388 6.6675650513 5.8966499714 
6.8122835219 6.066661571 6.7734121597 6.1284287584 6.7589089846 6.1836119699 6.7827866079 6.2281413914 6.8949381235 
6.3353070396 7.0510525311 6.4956970567 7.3841648752 6.8045535735 7.731343007 7.165084099 8.1092357247 7.5859941605 
8.4548825335 7.9163335733 8.7739239639 8.176848177 8.7761370682 8.1897492245 8.6965107263 8.1644259228 8.5889581072 
8.1331834084 8.5384778135 8.135061684 8.6485578107 8.2317001048 8.8141886622 8.3807847229 9.0363300665 8.5474458181 
9.2178692978 8.6817567925 6.2843295813 6.1756439222 6.4031112482 6.7825580489 7.0768240275 7.2389179234 7.4037114029 
7.6297888087 7.8798057535 8.1212211014 8.4521145133 8.8692701768 9.2565258773 9.4952157379 9.5910851341 9.6073803332 
9.4817370393 9.3631501435 9.2459723759 8.959311052 8.596688208 8.168870155 7.6648779962 6.998132415 6.5139718598 
6.1393543927 5.8071254132 5.6172915722 5.5902531849 5.6823358016 5.9360394049 6.1958854701 6.4397187539 6.5534616102 
6.4698390967 6.3704859627 6.2189834851 6.1303390524 6.1799844847 6.2293464027 6.2067372014 6.1947261271 7.881120829 
7.9646076657 7.7467163171 7.589771637 7.411407625 7.2091245908 7.0550506915 6.9678868845 6.9924701593 7.0685140541 
7.1178301187 7.2092971615 7.3458744566 7.4516721688 7.5342985106 7.6012295937 7.6438422116 7.5693840544 7.4349504476 
7.2353269263 7.009348967 6.8094099901 6.6660634123 6.6080708342 7.1408537924 7.0426331391 7.1768885053 7.1731001303 
6.9858374309 6.7098717582 6.3508186832 5.923146022 5.3783176814 5.0085815177 4.9929690346 4.99787121 5.0731202164 
5.2016940719 5.294242514 5.3666418946 5.444755905 5.530411143 5.7060827066 5.9259288309 6.1679785431 6.5041821329 
6.9335103653 7.2861083257 7.5618466245 7.5666446832 7.5444920488 7.475943276 7.4538476265 7.5570691049 7.7232592887 
7.9006276604 7.9493900981 8.0118291747 6.9424606326 6.9030121145 7.3052311259 7.1703712779 7.4495104258 7.5638768776 
7.6980876497 7.8792864982 8.0338631284 8.2101609513 8.4459040473 8.6384920007 8.7736423883 8.8751671914 8.9045600987 
8.8444316209 8.8692654414 8.8145448792 8.6563898775 8.4076855073 8.083401733 7.7080167706 7.2810306983 6.0156308975 
6.2940564045 5.7678727105 5.6790721317 5.7067626628 5.8122208204 6.0987363103 6.3547551545 6.5779746249 6.7062852673 
6.6286647437 6.5561412419 6.4884537393 6.5305773382 6.4829843692 6.3701474391 6.2958767416 6.2613883407 6.3322009709 
6.3822348167 6.6530451683 6.9912184639 7.1906856596 7.245425331 7.4084115438 7.4523819177 7.2340616192 6.9416765561 
6.5929436291 6.2327378178 5.9278590943 4.6762987226 4.8455651547 4.640168869 4.6371529194 4.643762229 4.6857469986 
4.7495623305 4.8268294931 4.9129383784 5.1308132057 5.3129061696 5.5356141907 5.808009184 6.090347977 6.3913013108 
6.6827537431 6.7006375104 6.6832598317 6.6253505202 6.6146341389 6.7669668283 6.917340308 7.0686875783 7.0496936985 
7.1241861056 7.0606016853 7.0035483001 6.9113058484 6.820284538 6.6635207534 6.4467516509 6.3085517015 6.2383851585 
6.3945822949 6.5290816038 6.6502612547 6.7812914745 6.9199039477 7.0568386161 7.1431766848 7.157798496 7.2719462556 
7.2668664279 7.1645151359 6.9766033881 6.8091721545 6.6363003828 6.5777423154 6.4839669964 6.7501689691 7.1704647202 
7.7618773274 7.594463076 5.2407306405 5.8126065213 6.6622347006 6.9557502572 6.3957721829 6.1753384701 5.9968974976 
5.9739003172 6.0901566827 6.3300635658 6.6018013512 6.8124677685 6.9282034822 6.9486467574 6.8974995216 6.8398167548 
6.7724206445 6.7355514217 6.4793945049 6.6497747754 6.3264957931 6.293666569 6.3936601913 6.4740730835 7.5960509507 
7.461112846 7.7021951878 7.7771595586 7.8448068149 7.9356967532 8.0483145246 8.1582801083 8.2060687339 8.2261690263 
8.336777734 8.3908001378 8.3943656875 8.4316998223 8.4181392826 8.3993359137 8.3485473752 8.2404307972 8.0471331135 
7.7285523946 7.4831584129 7.2872145669 7.1189613345 6.8221112843 6.9309617573 6.6739557968 7.1132308988 7.3077775433 
6.9779560242 7.1233960511 6.6951685556 6.7717854481 7.7529303499 7.4782012833 7.2020347789 6.9176395428 6.6041149841 
6.3608262805 6.3149483957 5.8276438021 6.3943160742 5.2996949882 4.952460664 4.6909174946 4.5831060683 4.4865478301 
4.4144596611 4.3801575272 4.3767276128 4.4422115583 4.5095296615 4.6957346833 4.9400544715 5.0707732648 5.1522283822 
5.247525124 5.4244154081 5.6915334693 5.7212838479 5.7199120041 5.6910492451 5.7544753664 5.9322220039 6.0894134034 
6.2488714045 6.0108444493 6.1362455944 6.1430749442 6.1184139179 6.0704168299 5.976152606 5.8619730558 5.6757025014 
5.6097933164 5.6441418715 5.8344988535 6.0413728969 6.2510886782 6.4114232596 6.5636179854 6.6475405074 6.7409245785 
6.7614666587 6.9525036496 6.9378992872 6.8817334669 6.7194536142 6.6217941644 6.5334945062 6.5085127403 6.5772029577 
6.7353488351 7.0473530138 7.4108002533 7.8220688317 7.6207129422 7.9053154414 7.8528386371 7.5893017517 7.3260941732 
7.0834538869 6.8103619397 6.9113860151 6.5823583649 7.2108631483 7.4297678253 7.643589468 7.4632720335 7.8331404079 
7.9140765047 7.8649132578 7.7378761916 7.526921764 7.3005023046 7.0787478828 6.806699107 6.5801577154 6.4712450038 
6.3382655293 6.2880836752 6.3480887373 6.5049356874 6.7479834366 6.9701144384 7.1003071727 7.1808020387 7.1565131949 
7.0703026881 6.9992829676 6.9235269456 6.8647811312 6.849554358 6.7943002357 6.8071557238 6.6903831928 6.5526348852 
6.4757522225 6.3617030819 6.3478009105 6.3986135537 6.4903120791 6.5136490002 6.5752941705 6.740936791 6.7035931279 
6.8567655072 7.0227267789 7.3007650795 7.5770512944 7.748366547 7.853192593 7.8853131324 7.9280873297 8.0017561238 
8.0085393224 7.9844073107 7.9744656714 8.0051665388 8.2202075825 8.3839861868 8.4216136996 8.1970898032 8.1362980984 
8.1202351567 8.1046292969 8.036573567 7.9171383707 7.7788313365 7.6628522569 7.4669571248 7.2320765579 6.966083601 
6.6927802743 6.636284085 6.6341957288 6.534303835 8.4616425479 8.4855696938 6.9692331206 6.7196649467 6.5981020979 
7.1981967745 5.9709079786 5.5321957964 5.2378504497 4.9837890998 4.8531696967 4.6535314449 4.5012221482 4.3607549976 
4.2847332697 4.288573071 4.3780876921 4.5020328632 4.6560735514 4.6801633588 4.7239701733 4.7193002909 4.8654890515 
4.8417331829 4.8828823039 4.9430400091 4.9531904712 5.0437785686 5.2273998826 5.4296135436 5.6535095996 5.4913949861 
5.2565439137 5.328323378 5.293763217 5.3352655574 5.2716730697 5.1963575836 5.084640158 5.0661313929 5.2495970717 
5.4404023501 5.6496199291 5.7971968069 5.9551352909 6.1307551852 6.271106763 6.4036941308 6.4928101157 6.3157614114 
6.3533306599 6.1207235907 6.5691992308 6.6872573899 6.6878407715 6.6205501333 6.4829246778 6.4534947671 6.510605761 
5.2749295626 5.0348256046 7.3279746671 7.7681281657 7.5377291773 8.091131375 6.8139455411 6.1714066708 5.742217116 
5.6169143376 5.4174057104 5.1824335372 4.9239207124 4.664730818 4.4250908901 4.3573887766 4.3715060034 4.5070526492 
4.7334453518 4.6949380497 4.6395017521 4.5144269593 4.4068113662 4.4563439533 4.4983628545 4.5013352081 4.5145436475 
4.490582784 4.5282651424 4.6297421372 4.8745578281 5.1311502516 5.0476410139 4.7871996886 4.7209609442 4.7517209247 
4.7059693026 4.7094292111 4.6895091409 4.7651904094 4.8173781374 4.7807366926 4.724569468 4.7557291606 4.8710636928 
5.079662354 5.2761853941 5.4437566134 5.4984890909 5.5738714469 5.6848851994 5.9165665377 6.1445323662 5.9413922951 
5.9771090447 5.7746809087 6.1934876167 6.4241597243 6.544155558 6.4991232481 6.449683022 6.3941966181 6.4441322057 
6.4586317027 6.3855390311 6.4057892827 6.5494827629 6.7430381611 6.9453970177 7.1170408417 7.1862353258 7.1608578251 
7.1031517901 7.006956673 6.9072159579 6.8713478074 6.855269993 6.839948572 6.7197841026 6.6626416784 6.4069214907 
6.7356647939 6.6734514817 6.5272655377 6.4041299582 6.3175320526 6.2825662386 6.315710147 6.3835244756 6.4183069118 
6.4953766645 6.5990205187 6.7967237173 7.0527372918 7.3719320701 7.6380280611 7.6932694691 7.6617463167 7.6241279726 
7.5793263155 7.6355274777 7.6704619134 7.7183163927 7.8319666907 7.9657337305 8.2720368106 8.7511042443 8.6354295946 
8.7861475684 8.673631886 8.4991941967 8.2826380068 8.0927302883 8.0098808642 7.9594440987 7.9044990165 7.8681940619 
7.8315548426 7.6983948102 7.5335040514 7.1832988281 6.8191995057 6.5298069891 6.3644283569 6.2802621744 6.5118294309 
6.4428532821 6.3310359798 6.2366229157 6.0057786789 5.7012958852 5.3193336278 4.9637409004 4.6259368856 4.5466966561 
4.5182870225 4.6795459278 4.9266530205 4.7551200579 4.909251584 4.6287519571 4.4738905819 4.4966509726 4.5225880201 
4.5795771894 4.5961755393 4.5244913971 4.4506183155 4.4280641258 4.4988423259 4.6686818411 4.7943457973 4.7360011257 
4.8765126119 4.9750325325 5.267283201 4.6854331825 4.612566411 4.4538366176 4.4292850385 4.4474188161 4.490388511 
4.5587771191 4.6782544319 4.7967633775 4.9415682853 5.1808218737 5.3727405468 5.3976715467 5.4388329268 5.4644741798 
5.5665647335 5.7532238842 5.1076294713 5.3041561974 5.653288953 5.7273037766 5.7214483305 5.8096633697 5.9992217098 
6.2999160422 6.300604522 6.2969311936 6.4241323062 6.5534976496 6.7086605467 6.8572104528 6.9640180914 6.9755671278 
6.9350487877 6.8211032583 6.6699103116 6.5598433542 6.571233125 6.6143462278 5.930691589 5.9620120797 5.3256756192 
6.3439980976 6.5769426777 6.5756906553 6.49313747 6.2888625135 6.1052795069 6.068768689 6.0824969477 6.1338600414 
6.1622057768 6.192362701 6.1943701781 6.3088028391 6.5343628982 6.7734921899 6.9887390274 7.051047003 6.9901200533 
6.8610171387 6.9547622812 7.0383827558 7.1981511691 7.2877139692 7.4646460124 7.6987939423 8.0608902614 8.4352786392 
8.8721848669 8.6762626235 9.0355448499 8.9727125694 8.9115392895 8.6391679259 8.3325145038 8.056092089 7.9419223611 
7.8309493923 7.6577825836 7.6967200022 7.7216174625 7.5683960133 7.3464659564 7.0166889468 6.6490053545 6.3634247289 
6.2326800687 6.0732337244 6.110510715 6.195321549 6.7102693202 7.0593638645 7.2432408104 7.4049769548 7.5660389858 
7.629051631 7.7797366073 7.9093860399 7.9557286451 8.0020616378 7.9119883059 7.6675863953 8.1165460542 8.499558005 
8.3398450379 8.6800971419 7.7910947402 6.9030973596 6.1247969803 6.0881232022 6.1895679241 6.3605619005 6.5133646666 
6.5693003366 6.5763794039 6.5926182431 6.5646940744 6.4555734915 6.0760646118 5.9527255512 5.9148691058 4.7731389198 
4.6380057501 4.7872383846 5.4074635525 5.9631474227 6.2675631366 6.4306956918 6.3795704316 6.0597285979 5.8741111762 
5.8174486067 5.75776098 5.724150259 5.6430652787 5.7156127169 5.5849719162 5.6646320505 5.8574506914 6.0241295648 
6.1757002498 6.2000727498 6.1368439148 5.8229234678 6.4338672027 6.1722439768 6.6939689327 6.9154675763 7.1111849462 
7.4646718734 7.7672164582 8.0747424354 8.319145665 5.6861251177 5.4786044752 5.5052282143 5.6150315486 6.3052363828 
6.294735058 6.3910330405 6.719988457 6.984741079 7.1806465535 7.4559804913 6.8001891248 6.368116328 5.8612448646 
5.4182906954 5.068312996 4.9360444067 4.8706551381 4.9558682604 5.2019270251 5.5951715431 5.2978970491 5.2175266611 
5.0997842795 4.9133846168 4.7847897403 4.8064313131 4.7646230522 4.7598213508 4.7587412348 4.7262871013 4.6616070072 
4.518624517 4.4724010825 4.6027793247 4.7579012584 4.8673654302 5.1042658981 5.5540220059 5.378745512 5.7393326751 
4.9654666811 4.6543179124 4.5442064625 4.5886652529 8.3897370463 8.7435765153 9.0155853533 8.9849079398 8.9552213909 
8.9001450901 8.5610909461 8.1883171007 7.9110874483 7.7283881511 7.676352532 5.0084430252 5.1478861665 5.3273129252 
5.5373700202 5.5955481458 5.8103705794 5.7816890435 6.072931438 5.6031462117 5.5655698295 5.5406286942 5.5792415393 
5.5864850355 5.7916593397 5.9168614575 6.0778962357 5.7929931996 5.8152023019 7.9189463626 8.0844813727 8.4048219022 
7.6506484583 5.6027196323 5.5309939551 5.3592565317 5.1932163455 5.0687162663 5.0525192996 5.1040351112 5.1400619009 
5.1509591121 5.0033665176 4.811315881 4.7207214183 5.2725280156 4.9960643636 5.4581509075 5.8605363182 4.9952488791 
7.0483412361 6.4720832548 6.0550918841 5.76248278 5.4941999999 5.3089933895 5.2363606521 5.5839859 5.8185618234 
6.112335256 6.3726295749 6.6413050066 6.9828325202 7.4223217764 7.7773577246 5.8331597984 5.8548385477 5.7934904347 
6.1059124036 6.2261298101 5.8980617583 5.5439123975 5.5822854946 5.4631282781 5.4799885346 5.2347638599 6.1919732183 
6.2472245295 6.1950963573 6.1575022545 8.8552079968 6.1936085934 5.1843928529 5.2355087773 5.1268956042 6.4499251925 
6.7706252844 6.5773224885 6.0818152591 5.9062241596 4.9319083559 4.8295292059 5.6318072973 
VAJ 1 1114 double
1 1 0 0 0.99999881155 0 1.0000000427 0 1.0000013454 
0 0.99999967501 0 0.99999809768 0 1.0000010742 0 1.0000010751 0 
1 0 1.000000481 0 1.0000015243 0 1 0 1 
0 1 0 1 0 1 0 1.0000000581 0 
1.0000000321 0 0.99999988331 0 1 0 1 0 1 
0 1 0 1 0 1 0 1 0 
1 0 1 0 1 0 1 0 1 
0 1 0 1 0 1 0 1 0 
1 0 1 0 1 0 1 0 1 
0 1 0 0 0 0 0 0 0 
0 0 0 0 0 0 0 0 0 
0 0 0 0 0 0 0 0 0 
0 0 0 0 0 0 0 0 0 
0 0 0 0 0 0 0 0 0 
0 0 0 0 0 0 0 0 0 
0 0 0 0 0 0 0 0 0 
0 0 0 0 0 0 0 0 0 
0 0 0 0 0 0 0 0 0 
0 0 0 0 0 0 0 0 0 
0 0 0 0 0 0 0 0 0 
0 0 0 0 0 0 0 0 0 
0 0 0 0 0 0 0 0 0 
0 0 0 0 0 0 0 0 0 
0 0 0 0 0 0 0 0 0 
0 0 0 0 0 0 0 0 0 
0 0 0 0 0 0 0 0 0 
0 0 0 0 0 0 0 0 0 
0 0 0 0 0 0 0 0 0 
0 0 0 0 0 0 0 0 0 
0 0 0 0 0 0 0 0 0 
0 0 0 0 0 0 0 0 0 
0 0 0 0 0 0 0 0 0 
0 0 0 0 0 0 0 0 0 
0 0 0 0 0 0 0 0 0 
0 0 0 0 0 0 0 0 0 
0 0 0 0 0 0 0 0 0 
0 0 0 0 0 0 0 0 0 
0 0 0 0 0 0 0 0 0 
0 0 0 0 0 0 0 0 0 
0 0 0 0 0 0 0 0 0 
0 0 0 0 0 0 0 0 0 
0 0 0 0 0 0 0 0 0 
0 0 0 0 0 0 0 0 0 
0 0 0 0 0 0 0 0 0 
0 0 0 0 0 0 0 0 0 
0 0 0 0 0 0 0 0 0 
0 0 0 0 0 0 0 0 0 
0 0 0 0 0 0 0 0 0 
0 0 0 0 0 0 0 0 0 
0 0 0 0 0 0 0 0 0 
0 0 0 0 0 0 0 0 0 
0 0 0 0 0 0 0 0 0 
0 0 0 0 0 0 0 0 0 
0 0 0 0 0 0 0 0 0 
0 0 0 0 0 0 0 0 0 
0 0 0 0 0 0 0 0 0 
0 0 0 0 0 0 0 0 0 
0 0 0 0 0 0 0 0 0 
0 0 0 0 0 0 0 0 0 
0 0 0 0 0 0 0 0 0 
0 0 0 0 0 0 0 0 0 
0 0 0 0 0 0 0 0 0 
0 0 0 0 0 0 0 0 0 
0 0 0 0 0 0 0 0 0 
0 0 0 0 0 0 0 0 0 
0 0 0 0 0 0 0 0 0 
0 0 0 0 0 0 0 0 0 
0 0 0 0 0 0 0 0 0 
0 0 0 0 0 0 0 0 0 
0 0 0 0 0 0 0 0 0 
0 0 0 0 0 0 0 0 0 
0 0 0 0 0 0 0 0 0 
0 0 0 0 0 0 0 0 0 
0 0 0 0 0 0 0 0 0 
0 0 0 0 0 0 0 0 0 
0 0 0 0 0 0 0 0 0 
0 0 0 0 0 0 0 0 0 
0 0 0 0 0 0 0 0 0 
0 0 0 0 0 0 0 0 0 
0 0 0 0 0 0 0 0 0 
0 0 0 0 0 0 0 0 0 
0 0 0 0 0 0 0 0 0 
0 0 0 0 0 0 0 0 0 
0 0 0 0 0 0 0 0 0 
0 0 0 0 0 0 0 0 0 
0 0 0 0 0 0 0 0 0 
0 0 0 0 0 0 0 0 0 
0 0 0 0 0 0 0 0 0 
0 0 0 0 0 0 0 0 0 
0 0 0 0 0 0 0 0 0 
0 0 0 0 0 0 0 0 0 
0 0 0 0 0 0 0 0 0 
0 0 0 0 0 0 0 0 0 
0 0 0 0 0 0 0 0 0 
0 0 0 0 0 0 0 0 0 
0 0 0 0 0 0 0 0 0 
0 0 0 0 0 0 0 0 0 
0 0 0 0 0 0 0 0 0 
0 0 0 0 0 0 0 0 0 
0 0 0 0 0 0 0 0 0 
0 0 0 0 0 0 0 0 0 
0 0 0 0 0 0 0 0 0 
0 0 0 0 0 0 0 0 0 
0 0 0 0 0 0 0 0 0 
0 0 0 0 0 0 0 0 0 
0 0 0 0 0 0 0 0 0 
0 0 0 0 0 0 0 0 0 
0 0 0 0 0 0 0 0 0 
0 0 0 0 0 0 0 0 0 
0 0 0 0 0 0 0 0 0 
0 0 0 0 0 0 0 0 0 
0 0 0 0 0 0 0 0 0 
0 0 0 0 0 0 0 0 0 
0 0 0 0 0 0 0 0 0 
0 0 0 0 0 0 0 0 0 
0 0 0 0 0 0 0 0 0 
0 0 0 0 0 0 0 0 0 
0 0 0 0 0 0 0 0 0 
0 0 0 0 0 0 0 0 0 
0 0 0 0 0 0 0 0 0 
0 0 0 0 0 0 0 0 0 
0 0 0 0 0 0 0 0 0 
0 0 0 0 0 0 0 0 0 
0 0 0 0 0 0 0 
vtkValidPointMask 1 1114 char
1 1 1 1 1 1 1 1 1 
1 1 1 1 1 1 1 1 1 
1 1 1 1 1 1 1 1 1 
1 1 1 1 1 1 1 1 1 
1 1 1 1 1 1 1 1 1 
1 1 1 1 1 1 1 1 1 
1 1 1 1 1 1 1 1 1 
1 1 1 1 1 1 1 1 1 
1 1 1 1 1 1 1 1 1 
1 1 1 1 1 1 1 1 1 
1 1 1 1 1 1 1 1 1 
1 1 1 1 1 1 1 1 1 
1 1 1 1 1 1 1 1 1 
1 1 1 1 1 1 1 1 1 
1 1 1 1 1 1 1 1 1 
1 1 1 1 1 1 1 1 1 
1 1 1 1 1 1 1 1 1 
1 1 1 1 1 1 1 1 1 
1 1 1 1 1 1 1 1 1 
1 1 1 1 1 1 1 1 1 
1 1 1 1 1 1 1 1 1 
1 1 1 1 1 1 1 1 1 
1 1 1 1 1 1 1 1 1 
1 1 1 1 1 1 1 1 1 
1 1 1 1 1 1 1 1 1 
1 1 1 1 1 1 1 1 1 
1 1 1 1 1 1 1 1 1 
1 1 1 1 1 1 1 1 1 
1 1 1 1 1 1 1 1 1 
1 1 1 1 1 1 1 1 1 
1 1 1 1 1 1 1 1 1 
1 1 1 1 1 1 1 1 1 
1 1 1 1 1 1 1 1 1 
1 1 1 1 1 1 1 1 1 
1 1 1 1 1 1 1 1 1 
1 1 1 1 1 1 1 1 1 
1 1 1 1 1 1 1 1 1 
1 1 1 1 1 1 1 1 1 
1 1 1 1 1 1 1 1 1 
1 1 1 1 1 1 1 1 1 
1 1 1 1 1 1 1 1 1 
1 1 1 1 1 1 1 1 1 
1 1 1 1 1 1 1 1 1 
1 1 1 1 1 1 1 1 1 
1 1 1 1 1 1 1 1 1 
1 1 1 1 1 1 1 1 1 
1 1 1 1 1 1 1 1 1 
1 1 1 1 1 1 1 1 1 
1 1 1 1 1 1 1 1 1 
1 1 1 1 1 1 1 1 1 
1 1 1 1 1 1 1 1 1 
1 1 1 1 1 1 1 1 1 
1 1 1 1 1 1 1 1 1 
1 1 1 1 1 1 1 1 1 
1 1 1 1 1 1 1 1 1 
1 1 1 1 1 1 1 1 1 
1 1 1 1 1 1 1 1 1 
1 1 1 1 1 1 1 1 1 
1 1 1 1 1 1 1 1 1 
1 1 1 1 1 1 1 1 1 
1 1 1 1 1 1 1 1 1 
1 1 1 1 1 1 1 1 1 
1 1 1 1 1 1 1 1 1 
1 1 1 1 1 1 1 1 1 
1 1 1 1 1 1 1 1 1 
1 1 1 1 1 1 1 1 1 
1 1 1 1 1 1 1 1 1 
1 1 1 1 1 1 1 1 1 
1 1 1 1 1 1 1 1 1 
1 1 1 1 1 1 1 1 1 
1 1 1 1 1 1 1 1 1 
1 1 1 1 1 1 1 1 1 
1 1 1 1 1 1 1 1 1 
1 1 1 1 1 1 1 1 1 
1 1 1 1 1 1 1 1 1 
1 1 1 1 1 1 1 1 1 
1 1 1 1 1 1 1 1 1 
1 1 1 1 1 1 1 1 1 
1 1 1 1 1 1 1 1 1 
1 1 1 1 1 1 1 1 1 
1 1 1 1 1 1 1 1 1 
1 1 1 1 1 1 1 1 1 
1 1 1 1 1 1 1 1 1 
1 1 1 1 1 1 1 1 1 
1 1 1 1 1 1 1 1 1 
1 1 1 1 1 1 1 1 1 
1 1 1 1 1 1 1 1 1 
1 1 1 1 1 1 1 1 1 
1 1 1 1 1 1 1 1 1 
1 1 1 1 1 1 1 1 1 
1 1 1 1 1 1 1 1 1 
1 1 1 1 1 1 1 1 1 
1 1 1 1 1 1 1 1 1 
1 1 1 1 1 1 1 1 1 
1 1 1 1 1 1 1 1 1 
1 1 1 1 1 1 1 1 1 
1 1 1 1 1 1 1 1 1 
1 1 1 1 1 1 1 1 1 
1 1 1 1 1 1 1 1 1 
1 1 1 1 1 1 1 1 1 
1 1 1 1 1 1 1 1 1 
1 1 1 1 1 1 1 1 1 
1 1 1 1 1 1 1 1 1 
1 1 1 1 1 1 1 1 1 
1 1 1 1 1 1 1 1 1 
1 1 1 1 1 1 1 1 1 
1 1 1 1 1 1 1 1 1 
1 1 1 1 1 1 1 1 1 
1 1 1 1 1 1 1 1 1 
1 1 1 1 1 1 1 1 1 
1 1 1 1 1 1 1 1 1 
1 1 1 1 1 1 1 1 1 
1 1 1 1 1 1 1 1 1 
1 1 1 1 1 1 1 1 1 
1 1 1 1 1 1 1 1 1 
1 1 1 1 1 1 1 1 1 
1 1 1 1 1 1 1 1 1 
1 1 1 1 1 1 1 1 1 
1 1 1 1 1 1 1 1 1 
1 1 1 1 1 1 1 1 1 
1 1 1 1 1 1 1 1 1 
1 1 1 1 1 1 1 1 1 
1 1 1 1 1 1 1 1 1 
1 1 1 1 1 1 1 
Stress_X_Pt 1 1114 double
0.021426135674 0.017643213272 0.015380996745 0.020437401719 0.0096300910227 0.009230375872 0.0049113265704 0.0057730909903 0.00088461849373 
0.002854408056 0.0014626457123 0.0022936280002 0.0022913023586 0.0032028805808 -0.00012148593487 0.0032496433569 0.00058109247766 0.0042487707906 
0.0024708810961 0.0061152763083 0.0043401514413 0.0084432187141 0.0053256256506 0.010279369075 0.0062755327672 0.01134595694 0.0075927083381 
0.012249323307 0.0086477235891 0.013268030016 0.0095354379155 0.014178466285 0.0098679801449 0.014551702887 0.0095625491813 0.013915242627 
0.0086239213124 0.012261995114 0.0073130889796 0.010277285473 0.006606035633 0.008588658995 0.0070997725707 0.00761560502 0.0081721283495 
0.007348138839 0.0089939711615 0.0070991406683 0.0094852838665 0.0069744595094 0.0084156158846 0.006086584006 0.0051506084856 0.0041695123655 
0.0022179267835 0.0032044919208 0.00077921555203 0.003181504122 0.00013842896897 0.0033819511177 -0.00047059864573 0.0037939076087 -0.0015213825682 
0.0040960716578 -0.0021532312967 0.0043860939331 -0.0020473821787 0.0052080026944 -0.001592265151 0.0065596801287 -0.00053083051898 0.0080723930478 
0.0011681527903 0.0092763777393 0.0037371922517 0.010383033019 0.0077915845904 0.012461566483 0.012916307896 0.015815209597 0.017291553784 
0.019328748574 0.019681406207 0.021238584071 0.012587367091 0.0078414366581 0.014760148013 0.01795707061 0.0043878176948 0.012178944598 
0.001911417814 0.010460001067 0.00010008705431 0.0093546903954 -0.0010435134463 0.0085299759958 -0.0011196824489 0.0078720609308 -0.00059285995667 
0.0075467047136 2.2277759854e-05 0.0075048131694 0.00096650861087 0.0078595188534 0.0028894917923 0.0089167904516 0.0065223816782 0.0098063796759 
0.010073159356 0.0099909019191 0.011337099597 0.0096964127151 0.010760526638 0.0087134601781 0.0095234396867 0.0072326740483 0.0090205282904 
0.0062734365347 0.0097498544492 0.0063071641489 0.01090853475 0.0065041601774 0.011889462359 0.0066740495095 0.011643193662 0.0067438861297 
0.0097082033753 0.0070145890932 0.0070928800851 0.0078091188334 0.0043873422546 0.0078355359728 0.0018930826045 0.0082519920426 8.1672013039e-05 
0.0071452866105 0.00065903645009 0.0083682513796 0.0038835931919 0.012015941291 0.0085470350459 0.016757463571 0.0140299513 0.020683966344 
0.019260104746 0.023389259353 0.024239853024 0.025652423501 0.028927447274 0.027622081805 0.032406637445 0.029385267291 0.030050265603 
0.028122039046 0.021748295054 0.021967594046 0.012921257876 0.014776409604 0.0053825312061 0.0094542665756 -0.0026145308511 0.0049880146398 
-0.006303434493 0.0030284317909 -0.0053116367199 0.0039460535627 -0.0051143444143 0.004568641074 -0.0043342278805 0.0043787580216 -0.0032723745098 
0.0039637357113 -0.00051891611656 0.004130785499 0.0033063839073 0.004158154683 0.0052219079807 0.0041855482268 0.0056695763487 0.0046045843628 
0.0058248045389 0.0046878815629 0.0057805366814 0.0047756712884 0.0062293459196 0.0056638726965 0.0079006971791 0.0074028683593 0.010544417426 
0.0095674332697 0.014095245395 0.012696338352 0.017349559814 0.016121471766 0.019902034663 0.019205710385 0.020817560144 0.021186062135 
0.017895068508 0.02060819394 0.013520602486 0.019763087854 0.0086167867994 0.0051741744857 0.0031821221346 0.0036195330904 0.0053257512627 
0.0072413892485 0.0098991554696 0.013522935798 0.016795578878 0.018066009041 0.018288708758 0.019114481751 0.020120001864 0.020652247593 
0.0201492575 0.018195505254 0.015165184624 0.011721232207 0.0085584180197 0.0061694263713 0.0046742520062 0.0045209052041 0.0041642955621 
0.0031046559452 0.0035864479141 0.0047687877668 0.0060093352804 0.007771780598 0.0099090628792 0.011839331361 0.014004855184 0.016571746441 
0.018659072462 0.019393289462 0.018845158629 0.018020100426 0.018364576157 0.020328662824 0.022582584061 0.02317456482 0.0234102658 
0.023860501591 0.02322937781 0.022977320943 0.021822064649 0.019475368783 0.017397260526 0.016335617751 0.015698956093 0.015332717448 
0.013838303508 0.011146884877 0.0089029363589 0.0069387945114 0.0048771073925 0.003517159319 0.0031680460088 0.0028586744447 0.0025458162127 
0.0030525952752 0.0050904342788 0.0081504253903 0.010389839998 0.011918398086 0.015627723886 0.013876538724 0.019642249681 0.02377666859 
0.026174006984 0.02665537782 0.02593240561 0.024718591478 0.022838064283 0.023695698474 0.020824150182 0.01667736331 0.014147422509 
0.013189558405 0.013194387546 0.013946019579 0.014018484857 0.012203329941 0.0098561802879 0.0075188272167 0.0047494511819 0.0033148095827 
0.0033718760242 0.0034392888192 0.0038975146599 0.0051593665266 0.0069939022651 0.0091556801926 0.012109352741 0.01561683719 0.019274351653 
0.02237983793 0.023953658529 0.024249350652 0.01332450565 0.01391909807 0.0032678282005 0.0039797292557 0.0035620261333 0.0052687252173 
0.0082920466084 0.012053904822 0.016553015215 0.020568013191 0.021930728573 0.02152515389 0.021601862274 0.022220423445 0.022905195132 
0.023089084774 0.021779402159 0.018715276849 0.014784761705 0.010824012221 0.0071164417313 0.00449318561 0.0035321999458 0.0028278244426 
0.0041180375265 0.0027840230032 0.0038951970055 0.0056410901016 0.0080451950198 0.011014529271 0.014085183386 0.017111143563 0.020047815051 
0.022221650928 0.022941727657 0.021997868083 0.019461494312 0.017050433671 0.017398926197 0.019553831313 0.023595314007 0.024901714642 
0.019581467845 0.004805322038 0.0042865165742 0.015033323551 0.01509887143 0.017616000492 0.020149471704 0.021983311046 0.022566315252 
0.02190410113 0.020369577222 0.017979065189 0.018126943149 0.018833171111 0.016339536523 0.014769864734 0.013635819545 0.013590332819 
0.014505817322 0.013673929963 0.010745373089 0.0082456070231 0.0063903704286 0.0044036656036 0.0032054045005 0.0031269100728 0.0034454494016 
0.0040220606024 0.0050619682297 0.0069223915925 0.0095305242576 0.012519773329 0.015660909005 0.019211598672 0.022275173571 0.023847646546 
0.025019703899 0.026604108047 0.028567166533 0.030272204895 0.030510557815 0.028326740954 0.024239360821 0.020544208121 0.01850544475 
0.017147649545 0.015903378604 0.014581420459 0.012533675879 0.010024331743 0.00747861329 0.0052230415749 0.003716377914 0.0033804323757 
0.0035406195093 0.0038101983955 0.0045445804717 0.0060919951648 0.0079514122335 0.0099042456131 0.012353717815 0.01420850982 0.014615941094 
0.014615357295 0.013799953507 0.017474918626 0.015534380451 0.0043244909612 0.005233998294 0.0032138267998 0.0023845051182 0.0025594796753 
0.0039149849326 0.0061280749505 0.0091167676728 0.012626433745 0.016084404895 0.019261098467 0.022208346985 0.02435425669 0.025395367295 
0.025090002455 0.023504073266 0.01453628554 0.015744472621 0.014640445122 0.017043978674 0.019665537868 0.018497617217 0.0028563168016 
0.0033945690375 0.0036918747355 0.0062157475622 0.01006882987 0.014976057457 0.020490849391 0.024892305955 0.025965553243 0.02471324103 
0.023980474845 0.024041591678 0.024738485459 0.02504543215 0.024037449155 0.021696148906 0.018289957428 0.01440415578 0.010436145356 
0.0067040863796 0.0046213686583 0.0051681293407 0.0063495045761 0.0048028027522 0.005914659705 0.0035070285085 0.0056372595718 0.0043979930924 
0.0069414096652 0.0053171034281 0.018239164725 0.021680886392 0.015774736879 0.01695130812 0.017458674731 0.017257695552 0.016425503651 
0.015409932705 0.014405771857 0.014215905918 0.013430869905 0.01506719063 0.015902368352 0.016098045744 0.015332303941 0.014163604705 
0.01272814977 0.011882375227 0.012227847008 0.011401768075 0.0088821579702 0.0074704928556 0.0066117978422 0.0044947824208 0.0029492289759 
0.0031760528218 0.0037777845864 0.0041233128286 0.0048748826375 0.0064915331313 0.0088047045283 0.011387211271 0.01402274915 0.017074104398 
0.019680792 0.021097817644 0.024348285049 0.027275570203 0.030855939724 0.034003430046 0.034739820287 0.032329876907 0.027997369878 
0.024039214011 0.021252917591 0.018963056616 0.01672237087 0.014536913717 0.012304418487 0.0099805409554 0.007652587723 0.0057400667574 
0.0045134088141 0.0033714736346 0.0031693491619 0.0041361388285 0.0052385156741 0.0068656912772 0.0087749799713 0.010328051634 0.01161198318 
0.012334485538 0.012726657558 0.013012375683 0.013070491841 0.012585179182 0.012759198202 0.013176858425 0.014434080105 0.015441251453 
0.015506701311 0.015038436744 0.010452701943 0.009912384674 0.011036450276 0.010290100123 0.010957558872 0.009286479908 0.012221142184 
0.012132771313 0.011985997204 0.012999065453 0.014508248074 0.015048250556 0.014563923702 0.0033287215629 0.0038507221616 0.0024603516213 
0.0021651271381 0.002801456314 0.004393684736 0.006892063655 0.010234777816 0.013943351805 0.017465595854 0.020693444647 0.023443361744 
0.025506835897 0.027087177616 0.02772899624 0.02663140744 0.024710371159 0.020002936479 0.023031213786 0.017151312437 0.01485868427 
0.01323135104 0.012221909827 0.012521840399 0.01372413733 0.01381648588 0.014315950451 0.012099046726 0.010097443126 0.0093474957393 
0.006750042201 0.0049871711526 0.0037129185512 0.0026871935697 0.0024972754763 0.0035782416235 0.0060934396461 0.010235491442 0.016226544976 
0.023178715724 0.02774183685 0.0278660818 0.02574633155 0.023724569939 0.027277122717 0.026724768337 0.027389748022 0.02637450723 
0.024081163574 0.020875545219 0.017307175789 0.013611687114 0.0097415486816 0.0074044369394 0.0070747855352 0.0070424454752 0.0064265565015 
0.0040395287506 0.0046316911175 0.003910085361 0.0028492500423 0.025164538994 0.022068449762 0.013204898918 0.014070953941 0.012410379713 
0.011938260403 0.013307432411 0.014246765524 0.014685316244 0.014530523447 0.013717217604 0.01239670068 0.010669611394 0.0092014168622 
0.0085996149573 0.0076634456636 0.0064289467409 0.0065094599267 0.0067653380102 0.0049585055094 0.0030345752602 0.0030693972367 0.0038478205097 
0.0042175330454 0.0045837580692 0.0057046090951 0.0075629256899 0.0096868100809 0.011773944134 0.013985384954 0.015779441455 0.016637586523 
0.02707394585 0.023414897267 0.031085902359 0.034502045251 0.035611120984 0.034208448604 0.031484107021 0.0286602946 0.025608045049 
0.021971689072 0.018151610624 0.014651830774 0.011775861261 0.0094310594723 0.0074066490633 0.0058270723093 0.004980028607 0.0046849499922 
0.0034545171657 0.0042847634177 0.0027069376665 0.0028643467813 0.0035928434227 0.0044138522353 0.0058422060683 0.0076661707135 0.0095920399763 
0.020022211131 0.01706874813 0.013484700583 0.011799234431 0.010540246265 0.010171514004 0.011358259246 0.012315491214 0.01320400058 
0.013254454127 0.012940230547 0.011822287226 0.010266545229 0.0084859743947 0.0070360690588 0.006539999973 0.0059791204985 0.0054899109527 
0.006510897167 0.0067536683055 0.0051180984592 0.0031547369435 0.0030063519953 0.0037139311898 0.003956699511 0.0039457544335 0.0046674381592 
0.0060113212094 0.0075122058624 0.0090840436751 0.010759033961 0.012407178059 0.013756480999 0.01491340925 0.017768256366 0.016212427989 
0.019985075109 0.022836564109 0.026220375206 0.029841993935 0.033050152473 0.034730727784 0.03488891013 0.033958500251 0.031883298419 
0.028698788024 0.024895161763 0.019616116304 0.015033670934 0.011634058319 0.0090686909389 0.0071341686416 0.0057253105333 0.0053906204412 
0.0038393546711 0.0049566407688 0.0031593670137 0.0025750664063 0.002793499191 0.0036789570004 0.0044317513821 0.0058478239225 0.0078548862599 
0.0022002487676 0.0024658872862 0.0034827864729 0.0052607793477 0.0078707514331 0.011186710326 0.014848611085 0.018778498285 0.022505582776 
0.025121263694 0.026905370411 0.028523004148 0.029287284706 0.028236260172 0.02654816707 0.026147598401 0.021442674566 0.02518399898 
0.018510372378 0.016114440514 0.014078543521 0.012518293923 0.011172925355 0.010059988592 0.0096956394846 0.0095538625028 0.0089108169777 
0.0075689455261 0.0057573980885 0.0041292509413 0.002993132337 0.0024691008148 0.002791416191 0.004287850752 0.0068591085728 0.010473556817 
0.016124635236 0.023045860231 0.027014278341 0.026164372452 0.023523953743 0.020942123141 0.018469701521 0.020429631229 0.016595147084 
0.024700266775 0.028224735055 0.029707542155 0.029264911544 0.02748188423 0.02468026476 0.021036634222 0.016991807148 0.013432519976 
0.010526093422 0.0085630922113 0.0076085841283 0.0068401499884 0.0063956006197 0.0057780245552 0.0033409034077 0.0047652611393 0.0029026622651 
0.0030406321748 0.0023255979177 0.011944907019 0.011574585224 0.010325320531 0.0087381688645 0.0074080312625 0.0064206396928 0.0060969841434 
0.0061542955227 0.006489182706 0.0075000225333 0.0051807484706 0.0069792672293 0.0034456950962 0.0032228209311 0.0035181434941 0.0034587697592 
0.0034390345681 0.0039496309473 0.0048563990276 0.0059730341891 0.0073355496861 0.0090412158752 0.01094242814 0.012533807894 0.01390080573 
0.01500899205 0.017118878197 0.015366996173 0.01866736263 0.02047250187 0.022589208093 0.025137682445 0.028175288346 0.031118772458 
0.033029232174 0.033722374588 0.033325853758 0.031651088968 0.02933630906 0.027692405973 0.015544567956 0.020315852482 0.011695874156 
0.0088325277902 0.0068340607686 0.0076660272898 0.0083225384587 0.0065473725554 0.0047597846715 0.0064274835167 0.003581979021 0.003605845198 
0.0035560069955 0.0022701896378 0.0030712694279 0.0043384539895 0.0061292222235 0.008597529144 0.01161516225 0.015089679509 0.019498129375 
0.024053324945 0.027135457844 0.029090502299 0.030693554319 0.031054631341 0.029235977679 0.029490302503 0.02389092464 0.02757708542 
0.020105678122 0.017326097004 0.015452052932 0.01390771498 0.01217230875 0.010152784642 0.008345752256 0.0071036362788 0.0060064016841 
0.0060714924475 0.0056897635804 0.0046517277951 0.0033315732144 0.0024910299107 0.0027393688215 0.0039077198599 0.0056681262213 0.0077916210284 
0.010437321849 0.01472095307 0.020014404785 0.022977490909 0.021990003996 0.019405851606 0.017287304858 0.015330597991 0.013477531495 
0.014897236368 0.011881903512 0.018645080738 0.022144181654 0.025251092389 0.027324464172 0.026839520782 0.024307079613 0.021427047905 
0.017909873044 0.0131700119 0.011072060326 0.0096888107558 0.0086355290841 0.0079918334959 0.0072746269871 0.0067776690703 0.006222281605 
0.0054149240023 0.0040149175329 0.004732010304 0.0029571810155 0.0088706673123 0.0090358923189 0.0084422241198 0.009348605643 0.010907686083 
0.010772578884 0.011662158882 0.011992493644 0.012310721213 0.012068349635 0.012553830398 0.013553635916 0.011395135196 0.010470442474 
0.0094581197482 0.010886597214 0.0095373445656 0.01065704436 0.0038001262001 0.0025849944795 0.0052501112223 0.0068959498312 0.0089945396176 
0.011516884435 0.014666508883 0.019176868256 0.02437780099 0.028354902286 0.030770491809 0.032499153167 0.032276222482 0.026482998207 
0.029716116066 0.030582065694 0.022659793962 0.019312235527 0.016659092857 0.014853403671 0.013619437814 0.012026165053 0.0098871919326 
0.0078062737593 0.0062406886136 0.0051894914359 0.0042439380777 0.0043388731428 0.0036163042532 0.0027089137002 0.0024722737144 0.0035816103336 
0.0055491417297 0.0071205901913 0.0082846633159 0.0097261290997 0.015963874292 0.012727039633 0.017873706995 0.017168356339 0.015244670212 
0.013873833697 0.012641373789 0.011190884514 0.0099632772617 0.0044227184262 0.0048375524348 0.024543883279 0.02682955144 0.0045602041646 
0.0056321370648 0.0068624927662 0.0077815251425 0.0080602004891 0.0083668308798 0.0093799880706 0.010259131901 0.0092993963044 0.0081127964659 
0.0074947945541 0.0071595321642 0.0070468456252 0.0073451668723 0.0080533222063 0.0090448816773 0.0083338669501 0.0081538663556 0.0075828933623 
0.0058329486055 0.0040227670106 0.0030847209273 0.0027856368106 0.002948050329 0.0032671428053 0.0037078476744 0.0045444894349 0.0056670277845 
0.0069428274874 0.0085163383046 0.010356629966 0.011989972321 0.012908778153 0.013203354552 0.01315834932 0.01704161102 0.015066376189 
0.019124288112 0.021080790088 0.022453511134 0.023846767377 0.011881132144 0.012493276969 0.013270591851 0.01653766376 0.019581871107 
0.019697045907 0.020221331622 0.020075040869 0.016492342018 0.015168210724 0.014249032984 0.03161607217 0.032252720557 0.031775006559 
0.030320165213 0.028997616842 0.028830956202 0.024934562389 0.027122770436 0.023638296251 0.020256709773 0.015899591381 0.011892474955 
0.0087525458075 0.0089981072582 0.006066443515 0.0077089029364 0.0044690931682 0.0032079124358 0.013450307772 0.014665915165 0.0144047359 
0.0093877172098 0.007796192891 0.0062912665308 0.0042450900073 0.0027513339301 0.0023555524531 0.0029182331637 0.003456421895 0.0037657194189 
0.0043754904764 0.0052971462719 0.0063910915051 0.0077377754496 0.011367716128 0.011765967123 0.019108668901 0.01663737488 0.021752135362 
0.0091091564391 0.0087754828855 0.0088404389098 0.0091402581893 0.0094498486724 0.0095634141471 0.0094391874348 0.010801646626 0.012440599268 
0.013165397802 0.012629718753 0.011590971611 0.010872004321 0.010356441839 0.009967961659 0.021042637527 0.016519069439 0.012498618569 
0.0146660998 0.013511143935 0.013229859294 0.0079027784523 0.0097644682974 0.0063209779328 0.0054229844051 0.005638200324 0.023017339874 
0.0090912440792 0.010707252892 0.013626808533 0.015536987223 0.017901082523 0.0084248910425 0.010008433368 0.0068517421605 0.012760310899 
0.0082842123229 0.014672229687 0.0023247574572 0.0032035854529 0.011056523537 0.009469790617 0.01132891397 
Stress_Y_Pt 1 1114 double
0.02588706743 0.022931040265 0.022194894031 0.024737323634 0.0075130178375 0.01024153129 0.00077702609269 0.0027923931375 -0.0020928055164 
-0.00033126221388 -0.0017438468058 -0.0012752450129 -0.0025344735477 -0.0028584537795 -0.0073628136888 -0.0060436628992 -0.0061440072022 -0.0053032009746 
-0.0035118438536 -0.0024024905288 -0.0015912026865 0.00016737589613 -0.0011208764045 0.0012241715449 -0.00058764235291 0.0014236329371 0.00066482079274 
0.0019953777155 0.002018685278 0.0032960211684 0.0038659620332 0.0050073942984 0.0052307446022 0.0064453136874 0.0061283071991 0.0071092671715 
0.0044489243301 0.0053846497904 0.0011043595641 0.0024348691468 0.00035408545773 0.0013454896934 0.0012739180238 0.0018338017107 0.0033106413903 
0.0036827345029 0.0062846159562 0.0061958789593 0.0087749892846 0.0081292808754 0.0087264697067 0.0078817077447 0.0044479651842 0.0039320171927 
-0.0009045607876 -0.00092984165531 -0.0040788562037 -0.0038691089139 -0.005300759105 -0.0050893533044 -0.0059231142513 -0.0053452744614 -0.0063661884051 
-0.0051641746541 -0.0060634473339 -0.0048365152907 -0.0057452430483 -0.0045725251548 -0.0058175662998 -0.0044727680506 -0.0062937929761 -0.0048909705365 
-0.0075800337363 -0.0062327560154 -0.0084223719314 -0.0073281518416 -0.0067208271939 -0.0061482283054 -0.0013295802055 -0.0011615886469 0.007498810417 
0.0076932034572 0.016696312465 0.017269254895 0.0062923231162 0.0034409770742 0.0037561899517 0.0067351526814 0.0029588442994 0.00317584601 
0.0038239561254 0.0041254488169 0.003458470339 0.0040021117311 0.0010990835071 0.0019690123991 -0.00065311126673 -0.00024245973691 -0.0015591555857 
-0.0013410563988 -0.0016130245058 -0.001041404259 1.3326352928e-05 0.00095450791196 0.0039448050666 0.0054258480959 0.009007145185 0.010137476027 
0.012086254545 0.012288211146 0.011661605909 0.011793366168 0.01012110617 0.010147105902 0.009955720976 0.0095065545756 0.011459771544 
0.010770276655 0.014489894267 0.013305960689 0.017361448146 0.015301660867 0.018287475221 0.016095032915 0.016520027537 0.015486702789 
0.013331268448 0.014042706462 0.009300342761 0.011477001477 0.0027251755237 0.0055378012767 -0.0033083286253 -0.0010396795929 -0.0063296956941 
-0.0047858238104 -0.00619277847 -0.0040124979587 -0.0011577846017 0.0015092564845 0.0063242914621 0.0088082741713 0.011573062278 0.012817773735 
0.012703792658 0.012641043402 0.012748294976 0.011674663518 0.014170831535 0.011899975361 0.017589728814 0.014536513016 0.019379815087 
0.01648594928 0.012140162522 0.011179015972 0.0019680407713 0.002981229889 -0.0015865679597 -0.00055371118651 0.00033885188168 0.00072524037387 
0.0053639316466 0.0053037509788 0.0083552221768 0.0097256947774 0.0081870891154 0.01137563982 0.0081914705224 0.011206596391 0.0088075646199 
0.011419998482 0.0095849796198 0.012275967747 0.01004227018 0.012165945489 0.010576083791 0.012201084755 0.010830102023 0.01224643481 
0.011039565783 0.011570833158 0.010780476499 0.010692180833 0.010063173715 0.009917864576 0.010271457955 0.010124531342 0.011621994898 
0.011162315728 0.013195027132 0.012491089059 0.013474953827 0.012922672089 0.013838408981 0.013351136586 0.014115164056 0.01349512185 
0.011074380949 0.010858433321 0.011434423504 0.017657723511 0.0055292574398 0.0030218407977 0.0007432179118 -0.0012536831637 -0.0026398299233 
-0.0023832657726 1.0694016055e-05 0.0029554786743 0.0046987355454 0.0044547722791 0.0038285981282 0.0046405923786 0.0060596390394 0.007328075124 
0.0076968453359 0.0065227820305 0.0048150475486 0.0037323770812 0.0036728112609 0.004542596289 0.0053927369881 0.0059308134019 0.0059007472009 
0.0029084420821 -0.0005839302903 -0.0027631979028 -0.0036133668618 -0.0031965753005 -0.002192599206 -0.0016984465128 -0.0014436920392 -0.0011612342059 
-0.0013067696855 -0.0022375423869 -0.0031063809756 -0.0027849315288 0.00049572059334 0.0070823420538 0.013942599064 0.018450405682 0.0043670319719 
0.0048443536507 0.0054100003326 0.0057600258151 0.0042818374932 0.0015699074429 0.00016125585535 0.0011287661946 0.0036898629369 0.0080241142423 
0.011669537751 0.012484321836 0.01168950717 0.010101736058 0.0090804854408 0.0097309667617 0.011125714052 0.011915576877 0.012486778665 
0.013320755912 0.014194633812 0.013965917286 0.010129934293 0.004954247459 -0.00041479573883 -0.0026653653088 0.0054797612811 0.011631163768 
0.013961114921 0.012457693228 0.0101994453 0.0090720343869 0.0097044009715 0.011646766681 0.0091414265335 0.0046790594934 0.0019993666938 
0.0021716024639 0.0057616656413 0.011774916667 0.015621693106 0.01544736186 0.014534059679 0.01478168671 0.014622708084 0.01430121297 
0.013423589291 0.011644925922 0.010379007785 0.009607255226 0.0096257065888 0.010040464811 0.010588379344 0.010874997592 0.011275532655 
0.011440859409 0.0098505914211 0.0071950703859 -0.00067853626388 0.0031267531012 0.0030524655012 0.0043049296364 0.001472947115 0.00057312152057 
0.00083879083377 0.0022658054249 0.0046799103729 0.0064416074893 0.0059523431119 0.0045998136047 0.0047171121696 0.0059388290392 0.0070152627304 
0.0073057503905 0.0069452776806 0.0065347477794 0.0062067076797 0.0061034917599 0.0056947628036 0.0045878578676 0.0041113565676 0.0022846520296 
0.0044140378595 0.00013806061543 -0.0010745135041 -0.0012878417706 -0.00049861182333 0.00076938108941 0.001559450995 0.0019046747839 0.0022767935443 
0.0024620470213 0.0023359143815 0.0021596783308 0.002384683846 0.0027348508561 0.0051904305583 0.0070063830935 0.0088078388362 0.010089274496 
0.0084767640801 0.0053382258629 0.0051241941983 0.0019622965192 0.0039810346207 0.0069964421564 0.012168770889 0.013833888108 0.0120396032 
0.0095447483473 0.0082370961318 0.0077230801107 0.0078517775983 0.0088957014959 0.0059529733844 0.0046824804158 0.0042985850596 0.0067862491123 
0.012773647672 0.017053666525 0.016981959343 0.015542793553 0.015096763615 0.015321662184 0.014920861693 0.013042982901 0.010964550311 
0.009904993698 0.0092321848497 0.0089594924357 0.0088052514475 0.0085137928836 0.0082440775586 0.0084776737494 0.0087689829525 0.0081647970947 
0.0070804029237 0.0062141267117 0.0065053722356 0.0078215121757 0.0085813726764 0.0075470770244 0.0050958108623 0.0037425324263 0.0049411190848 
0.0073613784043 0.010043937131 0.011894737836 0.011873420561 0.010851070751 0.0097157859709 0.0090477373451 0.0088308032602 0.0090807606466 
0.0093271005899 0.009896234842 0.011103118304 0.012893419713 0.014240846038 0.013080595061 0.010004357318 0.0074316771934 0.0061571943806 
0.0072388016619 0.0058471825905 0.0081236410188 0.0073600374162 0.0053343215259 0.0059286794858 0.0040013542748 0.0024479924177 0.0011151819381 
0.00047882803847 0.00057125530157 0.0014053635882 0.0026748510427 0.003662095347 0.0042857637163 0.0048849859159 0.0052065798081 0.0055918775033 
0.0060194054386 0.0061973199481 0.0037430556258 0.0041356193251 0.0025553555133 0.0024498376843 0.0042758095951 0.0056509276619 0.0042388659203 
0.0056186353322 0.00273751645 0.0021392579365 0.0024962063762 0.0039331632433 0.0061885985779 0.0075662500458 0.0066966061713 0.0049370597117 
0.0045301938429 0.0060899086529 0.0073182834312 0.007523212349 0.0073606923688 0.0075178145198 0.0076590228127 0.0075768746901 0.0068202230614 
0.0050058063352 0.0040443697944 0.0050492265727 0.0059147615684 0.0054541499121 0.0056462556822 0.004893775098 0.0054466439178 0.0061685574474 
0.0064593167044 0.0065045809994 0.0049601108185 0.007004432031 0.012183935381 0.013416693779 0.011530231219 0.0090898165945 0.0077624587575 
0.0074705679435 0.0071859909222 0.0072086612927 0.0069075237261 0.0075779275503 0.0080368880881 0.0078322639456 0.0071308444021 0.0067179328762 
0.0064594468568 0.0080184440594 0.012718121288 0.016841295175 0.017379436176 0.016490997281 0.016327871475 0.016258593649 0.015169182792 
0.01290537999 0.010761671932 0.0095582159702 0.0088587158825 0.0082943568705 0.0076775013003 0.0069554832298 0.0062924972735 0.006265796721 
0.0065087327966 0.0064936771058 0.0070455410751 0.0074889262905 0.0086564027006 0.010390478652 0.011499237269 0.010990326526 0.0093543748371 
0.0086310367333 0.0095537503948 0.010843079537 0.01149699511 0.011410985375 0.01069703442 0.0098452069797 0.0092720061075 0.0089788476471 
0.008701591054 0.0071238391101 0.0070606031222 0.007964120945 0.0095921661705 0.011952762725 0.014105738373 0.014480145027 0.013228773139 
0.010803394252 0.008392967633 0.0067311294843 0.0061608769465 0.0054476717487 0.0088622011244 0.011871362571 0.012664276641 0.010926955612 
0.0084808231331 0.0072548041353 0.010613590479 0.012757908786 0.0082738925703 0.0061573953135 0.004525758035 0.0044455311145 0.0066285164794 
0.0095352029894 0.01185558131 0.01204684726 0.0098331338959 0.0076580847381 0.0067673175363 0.0075302297482 0.0080807816703 0.0039689796977 
0.0031182671082 0.0023620736029 0.0019305582391 0.0020693909901 0.0028050254332 0.0038760258467 0.0050686991308 0.0063046523137 0.0071930966806 
0.0077151976293 0.0084743465995 0.0092300135875 0.0094006096479 0.009576671524 0.0080888149096 0.010305297561 0.0063323936192 0.0048057384556 
0.0031392147648 0.0011926024999 0.00058019336939 0.0018668095727 0.0037397590932 0.0061663435772 0.0056571008172 0.0064297136851 0.0069087147713 
0.0073122708127 0.0073838535463 0.0072548855096 0.0066590458155 0.0055275727645 0.0042174908449 0.0034997605253 0.0037706997828 0.0053086954285 
0.0075702938484 0.0083187811542 0.0069048067089 0.0051184060285 0.0040768948966 0.008112384472 0.0068490545964 0.0082321151858 0.0078693681862 
0.0077630452579 0.0078613698715 0.0077498429455 0.0072680125013 0.0058492313838 0.0051553347148 0.0062000283506 0.0067640829366 0.0065026199445 
0.0045940295677 0.005262414983 0.0048353617312 0.0044955103658 0.0048651837278 0.0038286990603 0.0065942779183 0.0067934559193 0.0069468761794 
0.0066743214848 0.0072411310393 0.0076004985021 0.0078959771199 0.0080224038102 0.008087594877 0.0082383649424 0.0083140475908 0.0093064187095 
0.012249110732 0.015478078742 0.016785168555 0.016702262219 0.017064363696 0.017044987064 0.015373639762 0.012855275068 0.010840314906 
0.0095256906934 0.0085149010411 0.0076348711737 0.0067644189112 0.0058204433881 0.0049722323893 0.0046294934582 0.0046841574367 0.0049534380669 
0.008846425917 0.0076317638159 0.010458783247 0.012409562478 0.013817070285 0.014057721943 0.013642923674 0.013672099216 0.013958941214 
0.013468759134 0.01209678757 0.010751846945 0.009841442341 0.0093115740456 0.0091194156557 0.008974393364 0.0088213877752 0.008596351603 
0.0069877081551 0.0080212483881 0.0056789402151 0.0053035619203 0.0057243221672 0.0065532373264 0.0088782835519 0.01184832328 0.013784624171 
0.0064631188288 0.0052612792933 0.006417158409 0.0063643208705 0.0069644647883 0.0066068556625 0.0071006849175 0.0073244633386 0.0075953318737 
0.0076285523828 0.0077682064148 0.0082593646366 0.0088331243023 0.0091042765416 0.0096962486859 0.011626687832 0.014019650873 0.015357738128 
0.01553580109 0.016718765255 0.017020154279 0.01533522876 0.01293429709 0.011056492338 0.0095156279858 0.0082523493329 0.0072455325862 
0.0061817668611 0.0050635425141 0.0041940096417 0.0036960037542 0.0034616470803 0.003665419179 0.0040978640318 0.0056440104963 0.0043653836474 
0.0071389152436 0.0085184890777 0.010044667637 0.01187008759 0.013866343535 0.015560000204 0.016764456872 0.017548725009 0.017822509166 
0.017164668534 0.014590415359 0.011558141792 0.0099809505045 0.0093743479811 0.0090930915903 0.0090787664521 0.0089712727349 0.0087838347536 
0.0069287258666 0.008290103171 0.0053040642524 0.0041799374158 0.0044164114321 0.0047537278151 0.0053928865818 0.0081438416382 0.011763550527 
0.0039998781285 0.0037387842895 0.0034587098635 0.0032755978755 0.0034922570921 0.004073123273 0.0048586457851 0.0062617277727 0.0081716172863 
0.0096226201858 0.010791612556 0.011999306269 0.012614523992 0.012250983855 0.0115573816 0.012760837097 0.011021234095 0.013546392554 
0.0086487235967 0.0066175600514 0.0046183690429 0.0025888423843 0.00095555246094 0.00034178261353 0.0011160578179 0.0026690044033 0.0048303321819 
0.0070905184839 0.0082882125862 0.0085335958283 0.0083875593264 0.0080408073263 0.0074326830218 0.0066063805716 0.005983558367 0.0057691701222 
0.0065396606224 0.0081116788788 0.0082367655123 0.0065282923169 0.0050890443381 0.0043690590537 0.004046575923 0.0039679525653 0.004166430328 
0.0051597176353 0.0076409904286 0.0093811240513 0.0094235553406 0.0085256904131 0.0076057030819 0.0071803715546 0.006988330977 0.0067963122856 
0.0063133625081 0.0065539140487 0.0079445739975 0.0085252859863 0.0081708530197 0.0069359984482 0.0042903271387 0.0051360299112 0.004082938889 
0.0045196827268 0.0041859860066 0.0072641361039 0.0072974668583 0.0077943656361 0.0084858946502 0.0089489447419 0.0094197222497 0.010702144587 
0.012542577926 0.013653577771 0.013704708079 0.016400427558 0.016083678929 0.015083659906 0.013218275271 0.011365380138 0.009562124731 
0.0082697470207 0.0070609570248 0.0056664003059 0.0044670131756 0.003633349028 0.003175600199 0.0028228283627 0.0026267473004 0.0030932317022 
0.0035892117303 0.0048637422733 0.0039861379191 0.0062733872328 0.007722193026 0.0090797822922 0.010661098408 0.012532595778 0.014455414144 
0.01632262161 0.018220040947 0.019772104453 0.020151501056 0.019086592365 0.016850301763 0.0094821928069 0.010615457082 0.0091996297706 
0.0091293528676 0.0091025615111 0.014695776859 0.013269288931 0.0090760975145 0.0074639471713 0.0086208570283 0.0055517354631 0.003681083722 
0.0037491453695 0.00401102053 0.0042848321609 0.0045383757679 0.004669273505 0.0049650460714 0.0054006500868 0.0058844906744 0.0071933924919 
0.0094741133507 0.011987773934 0.01451542438 0.016274466878 0.016443664441 0.015057360521 0.016541595571 0.012808202067 0.014445218025 
0.010872393847 0.0086793786613 0.0064811612247 0.0043932286208 0.0023453961767 0.00072491383048 0.00023783591109 0.00072283756526 0.0021710286033 
0.0047177230008 0.0073350328021 0.0091451092158 0.0097139531281 0.0097288135439 0.0098615849856 0.0098340201657 0.009603632614 0.0092066164361 
0.0083123393124 0.0078140792903 0.00806805701 0.0075767438393 0.0060455051716 0.004905257374 0.0045963032171 0.0046148841502 0.0048927223543 
0.0044041736983 0.0053185633151 0.0043337640818 0.0052310830215 0.0073780206731 0.010143915191 0.010885078926 0.0092157139443 0.0071660823887 
0.0059325920884 0.0056000332348 0.0062387029175 0.0063394039559 0.0072145044105 0.0092761246487 0.01038912707 0.010009920457 0.0084941888927 
0.0060693299165 0.0039040117408 0.0039486320456 0.0042120418511 0.012002746575 0.010173919145 0.0076957851416 0.0058977822773 0.0040596149047 
0.0046556863817 0.0071916268207 0.01000064984 0.012129832758 0.011085328646 0.0083585538669 0.0069164893357 0.0061901442241 0.0057473430643 
0.0067336815409 0.0056058538612 0.0071641419781 0.0071112813894 0.0051815621555 0.0041805736255 0.00595533452 0.0062146496493 0.0064184052171 
0.006705388776 0.0069678584114 0.0078780688345 0.0099655929953 0.013331946684 0.017680939846 0.019755896647 0.019239909481 0.012560775876 
0.014367622634 0.015769670019 0.011120192939 0.0097885427531 0.0080970433773 0.0060866943095 0.0044146800064 0.0027295078151 0.001118964894 
0.00062255587545 0.00083603653184 0.0013402937184 0.0078486595303 0.0054396987543 0.009785246104 0.010722121922 0.011271263938 0.011993591208 
0.01258862135 0.012459140038 0.011816809885 0.011045094021 0.0082548749633 0.0092210378498 0.0072552326601 0.0060123881558 0.0051096407697 
0.0049002066953 0.0050338789588 0.0055780630792 0.0063720411854 0.0034649776644 0.0022460034525 0.012256650254 0.013966876315 0.0044974048506 
0.007162653259 0.010105700465 0.011601094157 0.01126316376 0.0092392493971 0.0070569828385 0.0071136814076 0.0073242909275 0.0078281505266 
0.008360191714 0.0088900192641 0.0097902019043 0.010917302687 0.01181201078 0.01196267386 0.013391467044 0.01446207054 0.01540173986 
0.015665487386 0.014745943714 0.013294378761 0.011576642049 0.0099571351893 0.0084792590933 0.0067522538593 0.0050839980831 0.0038702507154 
0.003053039778 0.0026514786878 0.0025031088153 0.0020063084667 0.002007837058 0.0027292433078 0.0032060058438 0.0058207410621 0.0047180992551 
0.0071537186159 0.0083857453428 0.0092759641508 0.010418562219 0.0068613119656 0.0053540624212 0.0045303787338 0.0046812676592 0.0053656105883 
0.0066587352194 0.0097922056448 0.011863514083 0.0094054510817 0.0059490498388 0.0047361285736 0.01802101545 0.02017299505 0.020857401658 
0.019782461226 0.018145178755 0.016145417234 0.011476175161 0.012772253249 0.010941431858 0.010170522844 0.0094806305133 0.009318479104 
0.0093400089536 0.0088753050193 0.0075009141583 0.0077288071625 0.0063588927733 0.0045983556774 0.011113003207 0.012184483232 0.0093508161604 
0.0067813229747 0.014348279452 0.014647707576 0.013823420042 0.012645144016 0.011406719219 0.010148187401 0.00837626867 0.0062244967557 
0.0044354018173 0.0031702335691 0.0023994440562 0.0021058683342 0.0019194438646 0.0014346285413 0.0083699126262 0.0070088987704 0.0095269693993 
0.0065682296408 0.0068117900519 0.0072076845681 0.0077098455513 0.0085484016454 0.0096169870812 0.010582668707 0.010289373808 0.0088028563187 
0.007546702167 0.0065495929448 0.0059074574383 0.0056360255694 0.00558458257 0.0058849185395 0.0099995362107 0.0092987539247 0.0090880701318 
0.0054448317969 0.0044651759478 0.0038411068381 0.0012490183581 0.0016196829383 0.0011786851392 0.0012770752655 0.0017309251707 0.0099551347084 
0.0074977326828 0.0078886348056 0.0081334022107 0.0059792244574 0.0086060252506 0.0018568283704 0.0018607499951 0.0016331092338 0.006236158195 
0.0054139214335 0.0071291994924 0.0038541726535 0.0035197581165 0.0018749665469 0.0022535733588 0.0022897561139 
Stress_Z_Pt 1 1114 double
0.017601390369 0.023251865059 0.018787327688 0.013281430234 0.022510125302 0.02067536395 0.018536617048 0.019435516093 0.014311503153 
0.01813319861 0.0097812802996 0.016001667245 0.0020266533829 0.012129663723 -0.0015445294266 0.010310060417 0.0011251564429 0.010486085215 
0.002752808854 0.009755334584 0.0033198114252 0.0081392144202 0.0029867555713 0.0063433069154 0.0024395990185 0.0048282019561 0.001809531881 
0.0037355631648 0.001296658942 0.0031564485689 0.0012291913736 0.0027812133485 0.0013657869422 0.0027089837531 0.0016445570509 0.0030085632752 
0.0015268679126 0.0033485295426 0.0020571058849 0.004216517962 0.0030409687897 0.0052002398879 0.0048133946257 0.0065893250867 0.0086527254898 
0.0096889726119 0.013167218771 0.013889091089 0.017970880494 0.01820080122 0.019410967827 0.019846978132 0.014401667751 0.016875401139 
0.0076766512357 0.012466849992 0.0032058474608 0.009450412821 0.00042629169184 0.0075129772158 -0.0015883688175 0.0060851101152 -0.0026981409173 
0.0049686703132 -0.0026675752597 0.0040309419273 -0.0024243663065 0.0031962262001 -0.002161632874 0.0025933150318 -0.0020061755786 0.0021541297319 
-0.0021835596999 0.0017707287916 -0.0020025784615 0.0016210726462 -0.0010207805608 0.0017881181411 0.0014436157362 0.0029121550469 0.0059859916801 
0.0056211836054 0.010847655125 0.0086597991176 0.0015016995021 -0.0014875218621 0.0019981906808 0.0038568257878 -0.0031464406056 0.00092646229314 
-0.0036093337694 0.00082489388296 -0.0044517511269 0.00072015431942 -0.0064149261452 -2.6825582609e-06 -0.0082095502876 -0.00087603472639 -0.0094251995906 
-0.0013046538224 -0.009594083298 -0.00099744659383 -0.0082571720704 0.0003429686185 -0.0053015761077 0.0030855322257 -0.001326320431 0.006109787515 
0.0026909730223 0.0088415312493 0.0059775544796 0.011351129622 0.0092799796257 0.013565344852 0.013626233675 0.016573261004 0.019480715506 
0.021053340286 0.02687542513 0.026207081042 0.032634735107 0.029760550708 0.03277863469 0.030278529506 0.026386344805 0.027431812137 
0.01706682751 0.022188631119 0.0090236938559 0.016575949034 0.0040507372469 0.011988552753 0.0013223558926 0.0098822986067 -0.0012940380693 
0.0062755072504 -0.0025328971678 0.0054574242677 -0.00050152238691 0.0061968636874 0.0029879875365 0.0068057992903 0.0052633809391 0.005807520065 
0.0057984208688 0.0042839972011 0.0061695915647 0.0038980667305 0.0069117005914 0.0043946010992 0.010325764306 0.0075918083312 0.013860797975 
0.010667514289 0.0099298921414 0.0084565215511 0.0058443183079 0.0062259139959 0.0075344671495 0.0070560623426 0.0094405612908 0.0077239145758 
0.0073480240535 0.0067330719903 0.0040777914692 0.0064387153834 0.0035625643795 0.0081848760019 0.0045259840554 0.010471128568 0.0063899178058 
0.013602570165 0.0071542600635 0.015854678699 0.0080618157517 0.0166662134 0.011430616491 0.018462196924 0.015908221714 0.02073948225 
0.019608314149 0.021747371648 0.021089468151 0.021367887035 0.020747756585 0.02031102078 0.019887536764 0.019280552398 0.018413103186 
0.017846794799 0.016056091525 0.015755805653 0.012869276106 0.01302712271 0.0098661892116 0.01026477525 0.0075496765785 0.007901975885 
0.0048524601152 0.0057734619477 0.02088049287 0.01821229374 0.021489341278 0.023361700773 0.025025129784 0.025200115517 0.024231593125 
0.021660690662 0.017969737062 0.013694877038 0.009924742626 0.0068695388036 0.0048121899599 0.0040081483312 0.0034869555966 0.0032346774242 
0.0035243852763 0.0042908806354 0.005619158037 0.0070891965879 0.0088318941416 0.011719520669 0.015776230488 0.020453175902 0.021266425028 
0.019711271394 0.017821358051 0.01671452052 0.015963465674 0.015126891201 0.013634013245 0.011234092759 0.0087418290786 0.0066261452157 
0.0050153093762 0.004077182035 0.0038525932468 0.0037216225755 0.0038669403293 0.0052503918414 0.0079756606137 0.012734403252 0.0040784351295 
0.0045865317225 0.0042304630624 0.0048037388478 0.0054954190273 0.0058467187919 0.006524391938 0.0078934204066 0.0095344185829 0.011845142813 
0.014238798758 0.015955275157 0.01714433264 0.01785460813 0.019310785457 0.022075644694 0.024836448021 0.026332910638 0.027180623263 
0.027745022904 0.02666993998 0.023693041876 0.019812448416 0.016687582713 0.01270138938 0.013246984531 0.012276378926 0.010508086765 
0.0072864550748 0.0041623967409 0.002483373537 0.0025703372085 0.00527616092 0.0072464895202 0.0062126000412 0.005789167597 0.0062339140568 
0.0065729302587 0.0078836441971 0.011316288612 0.015231696889 0.01848271396 0.021839455701 0.024776968639 0.026062088087 0.026368927676 
0.025745505001 0.024109823629 0.022343718447 0.020499391481 0.018957486842 0.017608197406 0.015901768347 0.013632234884 0.011197565123 
0.008935398655 0.006890798104 0.0055493136169 0.013488551136 0.014540613862 0.026998276822 0.024548540823 0.027529415675 0.026502768043 
0.024118409492 0.020066919737 0.015488333534 0.011537387734 0.0078931605676 0.0047583014239 0.0032023217063 0.0027376261423 0.0026312909904 
0.0028202042449 0.0034702747362 0.0050862254575 0.007510855794 0.010338412598 0.013402200071 0.017133406829 0.020965143107 0.020761953201 
0.022442732938 0.019350371324 0.018980810884 0.018927411642 0.018406895921 0.016817162978 0.013922640821 0.010425483808 0.0072184209712 
0.0046844600583 0.0033010027837 0.0033122461755 0.0036485050339 0.0040375738754 0.006548665755 0.010490560089 0.01610459853 0.021001219284 
0.02181422431 0.023198199458 0.023495289497 0.011979956878 0.01200657431 0.010993347503 0.0099274164531 0.008334150305 0.0059410713147 
0.0038619630504 0.0033135208068 0.0039642977645 0.0051544774324 0.0060671898536 0.0050938077038 0.0063328120159 0.008135991171 0.011505169678 
0.016481754836 0.019842541311 0.021300516557 0.023014957551 0.025138201658 0.026821061969 0.027036083397 0.02572303731 0.024281818885 
0.023085527122 0.021262692753 0.019414429087 0.01793901436 0.01613701391 0.013875822769 0.011777444277 0.0097008640878 0.0069659709698 
0.0046508358791 0.0034655931522 0.0031180720543 0.0033217881573 0.0039439986576 0.0049929190427 0.0058936441783 0.0069552274654 0.0086823571473 
0.010384985013 0.012202127371 0.014410257572 0.016078640008 0.016775409691 0.017118004616 0.018185491208 0.020088419318 0.023122081533 
0.024693622719 0.025466118939 0.025566788856 0.024624862242 0.022675858811 0.019943806343 0.017464277335 0.015267338371 0.012279708637 
0.0088702006266 0.0092042007018 0.0057374100434 0.0044272812083 0.023155069444 0.023924355395 0.022604843136 0.021769924089 0.02098912932 
0.02091783518 0.021249516867 0.021230802406 0.020094135776 0.017282209359 0.013423994184 0.0097329450073 0.0066933236085 0.0050905518001 
0.0050900408532 0.0053127838764 0.0078100954415 0.0052967329975 0.010582522023 0.014464267762 0.01845445158 0.0194678111 0.023668662645 
0.022386556491 0.024051103275 0.024052621797 0.023173496127 0.020927951671 0.017632449977 0.01416078466 0.010448424262 0.0066198916174 
0.0038909739815 0.0030017776298 0.0031204531551 0.0032698962605 0.0039477880346 0.0060538206017 0.0090961086098 0.012002969161 0.014432202559 
0.01714819693 0.020492559765 0.023840686772 0.024298492819 0.021927558817 0.021018910222 0.021948915441 0.021185760852 0.019960780628 
0.018226650544 0.018124433855 0.0044380933978 0.0050766807981 0.0083006323548 0.0078485207632 0.0063445467968 0.0045205776114 0.0034378800192 
0.0034607383423 0.0036082900479 0.0042799764778 0.0035147873568 0.0048715729499 0.0049572112039 0.0048496529926 0.0054327141261 0.007193049998 
0.0098391810898 0.014057286782 0.018962637521 0.02123451326 0.02147675259 0.02283610357 0.025371884927 0.027252214029 0.027318928391 
0.02603381034 0.024674125481 0.02348626405 0.021812451538 0.019856139552 0.017991866916 0.015873456141 0.013553769793 0.01164307096 
0.0096816974692 0.0062975491397 0.0040871133679 0.0031709189061 0.0030315069598 0.003359762195 0.0041084702243 0.0052952368278 0.006451826077 
0.0077760334825 0.0092642998789 0.010477430187 0.011648935732 0.012962408364 0.014210409019 0.015104684513 0.01563545526 0.016386118485 
0.017141977325 0.022370827384 0.021222647745 0.02331657894 0.023405761458 0.022348653525 0.021107122768 0.020057118808 0.017990114633 
0.015421251068 0.01300482708 0.010707275942 0.0071047808742 0.0083768300246 0.0061859057751 0.0061515615089 0.0064435136737 0.0060736442683 
0.0047497487394 0.0036144291516 0.014296767302 0.01678055618 0.011760856025 0.0088940846035 0.0051866662106 0.0061915495316 0.0048379489454 
0.0044964792905 0.0045146578923 0.0050274922978 0.0051763916854 0.0045590321533 0.0036737626651 0.01943221828 0.017252072692 0.02194337314 
0.021855019033 0.021560492925 0.021422149613 0.021691199392 0.021874169819 0.02113272436 0.019010087941 0.015861012507 0.012310661841 
0.0090929712169 0.0071689030156 0.0066889957525 0.0066068106098 0.0061185326194 0.0048535139067 0.0055826967582 0.0048427162692 0.0057356387842 
0.0074679830577 0.0098939132877 0.013396294322 0.01651353552 0.017418954987 0.01893030107 0.016968625598 0.018567308784 0.016462181695 
0.016595899593 0.017566399183 0.018968911842 0.020012087654 0.020248329267 0.019861212932 0.019593334291 0.019842946902 0.019964545965 
0.018768404145 0.015883939806 0.012193737552 0.0085943946615 0.005789520801 0.0042831757455 0.00398375449 0.0045677181333 0.0054103067378 
0.0076005026931 0.010606379015 0.012999129249 0.01472590887 0.016529590357 0.019352512434 0.022210915107 0.021953218151 0.018694928382 
0.016768835951 0.015257952502 0.018603768665 0.019488129765 0.0037580497446 0.0044527176651 0.0032107412117 0.0032820654451 0.0033690059208 
0.0031474732677 0.003896024893 0.004394959542 0.0045304021332 0.0047572260955 0.0058348508319 0.0079373030458 0.010850075865 0.01473331661 
0.018359051086 0.019545139745 0.019695024937 0.021589016076 0.025269452948 0.028170599137 0.028139525559 0.026477674022 0.025105483364 
0.023869570345 0.021965967491 0.019742844161 0.017742682248 0.015539311105 0.013055331307 0.01082511805 0.0087790571852 0.0064544840716 
0.0031400793814 0.0035566833685 0.0031219747616 0.0034496522858 0.0041424977244 0.005252750474 0.0066058326047 0.0081354217837 0.009209797252 
0.0097080338746 0.010425553657 0.011565582827 0.012793705799 0.0137573299 0.014410378644 0.01506572892 0.015772716142 0.015585171059 
0.016837434843 0.015288295457 0.018609018531 0.020018551964 0.020816765726 0.021487518214 0.021650311537 0.020608960651 0.018957820255 
0.0041574503994 0.0045305534732 0.0034361059079 0.0032468178542 0.003258265031 0.0034343731822 0.0033232130227 0.003571872192 0.0038816207865 
0.0040608918644 0.0047384363133 0.0061781159602 0.0084352119593 0.011154913809 0.014300968498 0.017243393464 0.018209672533 0.018201807979 
0.020310496911 0.024645361584 0.028264274821 0.028312590905 0.026417646091 0.024809093215 0.023081588093 0.020755455364 0.018534904812 
0.016684856731 0.014561719727 0.012084600516 0.0096703253221 0.0076766376151 0.0060240792809 0.0047112822067 0.0036590052187 0.0039572526584 
0.0034711839398 0.003241111408 0.0031793158269 0.003335072659 0.0037396755069 0.0044369500829 0.0056204452412 0.0070151566761 0.0080284924479 
0.0082237424795 0.0086397602223 0.010159077356 0.011261724634 0.012471674243 0.013158257352 0.013699297793 0.014460814651 0.014107468538 
0.015049985144 0.013844219036 0.016699687578 0.018120443448 0.019273926814 0.019505446777 0.019678463694 0.020086737815 0.019035669789 
0.020172737073 0.020640857518 0.020586008672 0.020359734073 0.020493728574 0.020679487847 0.020269370638 0.019208100159 0.017434272915 
0.014466669178 0.011281043524 0.009081278462 0.0078168370528 0.0071781296283 0.0067669663889 0.0066206102492 0.0052427924238 0.0060179954162 
0.0047345968196 0.0047463629162 0.0053553505568 0.0070116998395 0.0097551066428 0.012651846977 0.014541946352 0.014903906034 0.014847207814 
0.015358177945 0.016329083592 0.017706149723 0.019177364651 0.02000946505 0.019851326477 0.018907350022 0.017719829455 0.017219255678 
0.017607855145 0.017604654655 0.015837738523 0.012734179385 0.0098041205201 0.0074742275756 0.0058631355641 0.0043244930566 0.0051473669009 
0.0042826739955 0.0054827302229 0.0065382327884 0.0067503908649 0.0070808937307 0.0084435542813 0.010417050682 0.012047799537 0.013405177509 
0.01495382865 0.016868891427 0.018218427896 0.017912342679 0.016719638836 0.015716122231 0.013723944779 0.015339436708 0.01416578982 
0.015260930639 0.016501170816 0.0037976816529 0.0047336879652 0.0062381942989 0.0082835064968 0.010669590672 0.013102591969 0.015372361522 
0.016840239987 0.017563424073 0.018876654562 0.027801770251 0.024797951803 0.027634891681 0.025618438609 0.023377363104 0.02104388224 
0.018901477568 0.01711192308 0.015485657845 0.013647744665 0.011538614286 0.0094723305665 0.0077233177144 0.0063227136852 0.0054597657872 
0.0047357219737 0.0036352478201 0.0040095048025 0.0033724438981 0.0031456993893 0.003070443403 0.0031753247022 0.0034823525348 0.0039956595865 
0.0047711649677 0.0057726006489 0.0067592053674 0.0072226852644 0.0069917225046 0.00698684901 0.011886139633 0.011039284989 0.012718896847 
0.013103774283 0.01342461328 0.022078431211 0.020764213987 0.013413047884 0.013935885392 0.01371796336 0.015125794336 0.016984909773 
0.018128680997 0.017591640353 0.018278534058 0.018414244987 0.01835751161 0.018566556741 0.018759903032 0.018463437911 0.017988093197 
0.01721138414 0.015123110265 0.012390358839 0.010317413835 0.0086812172085 0.0075091882609 0.0066399529576 0.0048654392594 0.0048151591327 
0.0047051371075 0.0044351741672 0.0043919393793 0.0049174585147 0.0064323075349 0.0086231150199 0.010686877184 0.0117248639 0.012373201177 
0.013830232434 0.015358426608 0.016957201064 0.018740825821 0.020614833571 0.022122050636 0.022472733632 0.021339520812 0.019029923249 
0.016703076195 0.015589836752 0.015384441009 0.014617138542 0.012518170057 0.010131180752 0.0082805982092 0.0068023925414 0.0057185151381 
0.0048353419406 0.0049902034225 0.0047201195266 0.00485192833 0.0060747092357 0.0078061595559 0.0077631943859 0.0069681088207 0.0074586898554 
0.0084982307162 0.0092614727095 0.011436864268 0.013061387775 0.013827029383 0.015023230575 0.015721734613 0.016588313505 0.017416286748 
0.017576553393 0.015682056081 0.017511771992 0.014024960343 0.016046022763 0.012786790263 0.0098762763664 0.0085889935726 0.0055416364339 
0.0031330146594 0.002722263278 0.0030678600888 0.0040438074502 0.0045706211822 0.0043762937421 0.0040058863233 0.0035120312823 0.0036931406939 
0.0040353445802 0.0043802736909 0.0036980979494 0.0036329787108 0.015865068184 0.015483643627 0.016102136113 0.016360554378 0.01673636632 
0.01686546253 0.016514643794 0.016079958295 0.015487699071 0.013966032537 0.011250983737 0.010143847438 0.0084526576102 0.0037499390543 
0.0041765560551 0.0048380213557 0.0037795617245 0.0039005764411 0.0039457071107 0.0039789955481 0.0042998975841 0.0053223896772 0.0074103444349 
0.0088836344657 0.009754009312 0.010732454015 0.015956748277 0.014481070917 0.017528964672 0.019526049495 0.022088936996 0.024880992249 
0.026303946972 0.02487613773 0.02151540434 0.018154986575 0.014304388082 0.015347689623 0.013600862352 0.01207844587 0.010055467021 
0.0083430905361 0.0069264983758 0.0057545395102 0.0048450287431 0.013121117372 0.011902057566 0.0096319157165 0.0082741504302 0.01833735453 
0.019137264695 0.018908814061 0.016965109389 0.014422481647 0.01247133757 0.011322369566 0.0046046683565 0.0059781323653 0.0076553967083 
0.0097254551947 0.011838609353 0.013841312379 0.015572324628 0.016776416916 0.017598896287 0.023185006343 0.023679317286 0.025989706628 
0.028009952512 0.026779029984 0.023793245666 0.020973104052 0.018884486053 0.017339859623 0.015994711779 0.014769717585 0.013385736383 
0.011708530132 0.0099717830308 0.0084050854202 0.0069772553397 0.0060012763133 0.0053164385026 0.0045204362832 0.0034123233636 0.0036238235189 
0.0031788126798 0.0030580614693 0.0030582676797 0.0032237039995 0.0044310999801 0.0044837578898 0.0044784859056 0.004707465996 0.0050452913468 
0.0058332431363 0.006963854772 0.0063025441486 0.0041653959546 0.0047144598211 0.0062043280341 0.0058662937954 0.0070810287725 0.0081353940768 
0.0080479561584 0.0073876112389 0.0091695116134 0.010096093407 0.011507230578 0.010397760818 0.011408127379 0.012463282794 0.013141690753 
0.013375524897 0.01408436317 0.014538904419 0.014981776709 0.014469828224 0.015039954102 0.0031253887185 0.0046210289584 0.0056281573139 
0.0048059345223 0.026488986798 0.02817849163 0.026289543137 0.022695528343 0.019689066801 0.017794662155 0.016462943982 0.015258335508 
0.014106885763 0.01284702518 0.011424607132 0.0099143614061 0.0057470498141 0.0060494832384 0.00326741155 0.003468949697 0.0032364297658 
0.0060439311201 0.0075118925888 0.0093328678049 0.011294479249 0.013306317152 0.015108928783 0.016186264033 0.016008573119 0.014608118683 
0.013191405218 0.011531226337 0.0096766741481 0.007953278604 0.0065330631332 0.0056426185183 0.011642332189 0.012951847631 0.013733827276 
0.0036212854902 0.003753177744 0.0039340159274 0.0079792615725 0.0067455000244 0.009120087605 0.010077269437 0.010665605776 0.013165840646 
0.015575829893 0.015290601877 0.014823162928 0.0054081296548 0.0141793699 0.0081234455574 0.0068018875318 0.0093965909909 0.021260782611 
0.021519024391 0.0033430031811 0.01483117952 0.015779845417 0.0071487845853 0.0085782739334 0.0054311347194 
Stress_XY_Pt 1 1114 double
0.0061806098092 0.0040626722039 0.0014724410539 0.0044973359436 0.00084442034131 -0.00049690328888 -0.00052869721549 -0.00079897152318 -0.0020939165843 
-0.0011463900955 -0.00086017925059 1.8649261619e-05 0.00037780580726 0.0014166996799 -0.00065411421554 0.0014695134406 -0.00076376457582 0.0012607838289 
-3.6906356399e-05 0.0014728235437 8.2760010628e-05 0.001392936746 -0.0007023719354 0.00030842374781 -0.0019179034862 -0.0013131566157 -0.0024936614791 
-0.0021653344156 -0.0026845093817 -0.002462043718 -0.0026395842433 -0.0025434234994 -0.0024842810817 -0.0023980606929 -0.0026110005565 -0.0021557329164 
-0.0016364627809 -0.0012776964868 -0.00098082129261 -0.0010345500195 -0.0010787809151 -0.0014381405199 -0.00076776070637 -0.0015348107117 -0.0014038451773 
-0.0020939884271 -0.0027028284967 -0.0027135151904 -0.0036387040745 -0.0026825917885 -0.0034283524146 -0.0023490625317 -0.0017746193917 -0.0018138596497 
0.00040503492346 -0.00088682086789 0.0016126853297 -0.00028325009043 0.0016097863554 -0.00034033521661 0.0013220309047 -0.00054025853751 0.0015755518689 
-0.00017311540432 0.0021581062465 0.00074042449342 0.0029221588047 0.0019411455978 0.0041400262853 0.0035170950869 0.0056680799462 0.0053985888371 
0.0069159611594 0.0071680553956 0.00702362624 0.0080995118478 0.0058480256703 0.0079071534565 0.0042506156024 0.0069299625466 0.0031836561393 
0.0057641135063 0.0040780524723 0.0053028706461 -0.0043595877942 -0.003068249207 -0.0052680342924 -0.0063010997837 -0.0030686605023 -0.0048418818624 
-0.0033601924079 -0.0046357567771 -0.0035816534655 -0.004171844048 -0.0024447014439 -0.0026294754061 -0.0013148935977 -0.0010295919856 -0.0010988509166 
-0.00019797569985 -0.00066436205816 0.00078281969036 0.00035093216866 0.0023578102919 0.0022745155729 0.0042567389319 0.0041537537472 0.0056320489966 
0.0047518818174 0.0055769965984 0.0044975678902 0.004699507379 0.0041767477524 0.0040031119133 0.0038126301952 0.0033225099323 0.0033796065254 
0.0023557830646 0.0035888272105 0.0015331829418 0.0042271530256 0.0012394086516 0.0045110951178 0.0015754930937 0.0042686641682 0.0024559062003 
0.0034817358246 0.0032635282842 0.0017526731826 0.0030718010385 -0.00051640270976 0.0018472634547 -0.0021307366551 9.5101911211e-05 -0.0027000583941 
-0.0015381679409 -0.002915768302 -0.0021706375264 -0.0033852934139 -0.0033940522699 -0.0048234945862 -0.0053670710768 -0.0057488875464 -0.0063408081187 
-0.0043355756206 -0.0050902108778 -0.0018053642416 -0.0027281000948 0.0014055029314 0.00028853105323 0.0040855898988 0.0034311558993 0.0029754377319 
0.0045381074015 0.0020730356337 0.0045745146053 0.00273561012 0.0043207833078 0.0034098104807 0.0039523341111 0.0048386049457 0.0043376809335 
0.0074120773934 0.0056930469 0.0086767370813 0.0064267928246 0.0063959346153 0.0047576787765 0.004063530243 0.002623229906 0.0031381491572 
0.0013135581466 0.0023633910459 0.00042217361624 0.00039244265645 -0.00085545283218 -0.0011478951492 -0.0018127590447 -0.0016347237979 -0.0019106201362 
-0.0015386432642 -0.0014376372274 -0.00097196348361 -0.00067573589058 -0.00040253151383 -4.9882500207e-05 0.00011958472896 0.00038639966806 -0.00018924417964 
0.00017245265917 -0.0017569631746 -0.0011412011954 -0.0036573081743 -0.0030431789928 -0.0053445056546 -0.0049242874957 -0.0062930572312 -0.0064894945826 
-0.0061203662772 -0.0071500603808 -0.0031211705063 -0.0020064437595 -0.0023708665249 -0.001333125768 0.0007931745422 0.002441035118 0.0034350653877 
0.0033190128743 0.0028172976454 0.0020490246243 0.00054465750145 -0.0010827110309 -0.0018323589175 -0.0019627792935 -0.0019604480476 -0.0017863914254 
-0.0012345407813 -0.00058758596606 -0.00061690037364 -0.0011357554067 -0.0017113307549 -0.0022683869756 -0.0022964942327 -0.0009978740185 -0.00054717923194 
-0.0013546454647 -0.0020570356282 -0.0023321579793 -0.0024677449837 -0.0024489194038 -0.0020009391883 -0.00092126051095 0.00063515093279 0.0024633640132 
0.0044950253214 0.0065800391603 0.0083052024711 0.0092213738244 0.0091446300503 0.0079364733538 0.0056563493563 0.0019030733783 -0.0071921907365 
-0.0078815710731 -0.006360434927 -0.0050802087644 -0.0030109265062 -0.00060849585134 0.0014236267234 0.0033557777351 0.0054882019758 0.0069816428004 
0.0071232435293 0.0060244899942 0.0044449826819 0.003206849331 0.0022250800976 0.00095354708901 -0.00052345935546 -0.0014084580762 -0.0010479280463 
0.00050095467304 0.0024051718938 0.0036987834028 0.0039088099729 0.0027137194265 -0.0017754593428 -0.00064872682621 -0.0038995236391 -0.0061820169212 
-0.0070518224966 -0.0060814114986 -0.0039461959386 -0.0013468037214 0.00191448814 0.0056454747682 0.0066773411818 0.0058040951844 0.004434525501 
0.0036508966004 0.0037692035548 0.0040672649629 0.0034045769135 0.0018419530024 6.2541017542e-05 -0.0012670334618 -0.0019218633533 -0.0020977304375 
-0.0017129434855 -0.0010102970409 -0.00024817447502 0.00033705650912 0.00059883121867 0.00048845884157 -0.00029836055182 -0.0018195823941 -0.0037127959658 
-0.0058273562463 -0.0075027843704 -0.0081308317604 -0.00026861917331 0.00081942048564 0.00051536747196 -0.0015313045151 0.0022171634482 0.0031156628975 
0.0032316381694 0.0024553328694 0.00092451347155 -0.00079545256449 -0.0016780689766 -0.0014737952733 -0.00093457503317 -0.00061332450787 -0.00051226663709 
-0.00028131743966 4.250080201e-05 6.1441076468e-05 -0.00027880371999 -0.00075574591028 -0.0012279456569 -0.0014828115382 -0.0011330305497 -0.00088814092305 
0.00017314567958 -0.0018691805017 -0.0023756679147 -0.0025087587419 -0.002351445728 -0.0019586051349 -0.0011729755061 7.8484190453e-05 0.0016403127156 
0.0033158052247 0.0050205296138 0.0065419265302 0.0071290518157 0.0074640699895 0.0062806615606 0.0039459397667 0.00076156354044 -0.0032554116915 
-0.0054734301521 0.00034577601764 -0.00051082221034 -0.0017856579943 -0.00060739520268 -0.0035659990972 -0.005417763372 -0.0064545415808 -0.0059938451741 
-0.0042471723864 -0.0021228010446 -0.00049549718824 0.0053954524919 0.0044235976529 0.0050351514947 0.0041354632704 0.0034251667093 0.0034669364686 
0.0040458647418 0.0039801269886 0.0027252180153 0.00076325673217 -0.0010514747228 -0.0018553697155 -0.0016558811185 -0.00099614929786 -0.00038771071922 
0.00014346010721 0.00059792041066 0.00079667991668 0.00076787556463 0.00035925937118 -0.00063700249302 -0.0021872087818 -0.0041441551875 -0.0061021522852 
-0.0074528311379 -0.007889618515 -0.0076261591166 -0.0069515707437 -0.0057299245382 -0.0036061827268 -0.00072120982804 0.0023201772128 0.0050040362403 
0.0069953000639 0.0076866560848 0.0067409191979 0.0049871364608 0.0032800865592 0.0020410919678 0.0012441016006 0.0003631255473 -0.00046222061064 
-0.00090452143922 -0.00071381330781 0.0001638743197 0.0014167212285 0.0026703557523 0.0033400660031 0.0030171123799 0.0019374165713 0.00090987029398 
-0.0013538306754 0.00070495892578 0.0020952590421 0.00022286717831 0.0002509248352 -0.00025948784787 -0.00012656480976 -0.00094897975214 -0.0015802013513 
-0.0018699158391 -0.0018939075817 -0.0017287314404 -0.0014453181648 -0.00096658090479 -7.367796934e-05 0.0012201392165 0.0026483599504 0.0041403368232 
0.0054216563003 0.0059835991124 0.0042510355706 0.0055418239208 0.0026478752552 0.00052759828395 -0.0029743633932 -0.0056358035654 -5.0685677706e-05 
-0.0017102768907 0.0013147940008 0.0020452012832 0.0020744264621 0.001205440567 -0.0005037044466 -0.0019534738385 -0.0019596539787 -0.00080986104149 
0.00081389643892 0.0012397578212 0.0011224846057 0.00082384962661 0.00054692133563 0.00030819915992 7.500252832e-05 8.670554962e-06 -6.7257817136e-05 
-0.00030723342934 -0.00058542657644 -0.00078723817569 -0.00054683887447 -0.00034192546627 -0.00012680052623 -0.00025486057166 -0.0033613611595 -0.0031010082457 
-0.0044060339569 -0.0038664375121 0.0059230286861 0.0059854623396 -0.0031627168064 -0.00430384418 -0.0045102054719 -0.0036658967147 -0.0022725886374 
-0.0011366374747 -0.00051590579278 0.00028233960256 -0.00021016987012 0.0013157038193 0.0026028518041 0.0035549784661 0.0039020913537 0.00374549767 
0.003382088209 0.0034364530584 0.0041416810127 0.004224637174 0.0027856956876 0.00053971403031 -0.0013021689119 -0.0020518694946 -0.0017327498645 
-0.00080999272905 6.2483366492e-05 0.00068607087815 0.0011017875077 0.001290930144 0.0013389867963 0.0011027992732 0.00036781192466 -0.00090544877457 
-0.0026383389777 -0.0045526294969 -0.0064041225705 -0.007073265966 -0.0072580201086 -0.0070404495345 -0.0060320885386 -0.0039511014475 -0.00089078352903 
0.0026569829497 0.0058315754868 0.0075324893696 0.0073137622094 0.0056884101359 0.0036776986672 0.002111726877 0.0012212744186 0.00074542341463 
0.00044892357982 -0.00057171157823 -0.00028825147024 -0.0005199534753 -4.2479194235e-05 0.00079626039587 0.0018639819173 0.0026706058998 0.0023535555229 
0.001944802294 0.001645047043 0.0016079152992 0.001312393535 0.0020020164375 0.00031158726779 -0.00084782735212 -0.0018403055001 -0.0024381007534 
-0.0023590551282 -0.0018323062686 0.0013878056488 0.0011511797202 0.0017351360002 0.0022990842408 0.0028506353265 0.0030034499941 0.0025971312134 
0.0020451583405 0.0010522070806 -0.00024286460393 -0.00095225245605 -0.0010926054674 -0.0011251614342 5.8934864455e-05 0.00031541577846 -0.00048065027659 
-0.00082856936206 -0.0010229839536 -0.0010153182229 -0.00086395910694 -0.00066463389851 -0.00056365874082 -0.00045904564104 6.7128567025e-05 0.0010703156659 
0.0023969730828 0.0040251156897 0.0054613052635 0.0061974858399 0.0062825626228 0.005547188106 0.0057997918921 0.0051562500885 0.004406227672 
0.0032190866768 0.0021048523195 0.00066647333597 -0.0016587083387 -0.0037060058385 -0.0058884037426 -0.0046691140742 -0.0051859467058 -0.0047941858647 
-0.0044263603631 -0.0038766172365 -0.0031936242012 -0.002137537871 -0.00088827434593 -3.6488130718e-05 0.00014729365648 -0.00027587929799 -0.0013489287958 
-0.0027984146145 -0.0033039552509 -0.002209871891 -0.00048793684255 0.00092890636734 0.0029101809778 0.003165334696 0.0020509444294 0.0010390565585 
0.00049598105397 0.00055233744206 0.00096030628629 0.0014819202916 0.0015550258468 0.00096227656468 0.00032340035978 0.00037057158897 0.00074771674826 
-4.1718682041e-05 0.00059122357925 -0.00042576956184 -0.00047213038488 0.0025950768322 0.0017516721564 -0.00034971981108 -0.00094585136685 2.0345061785e-05 
0.00014447472972 0.00014208869379 0.00053291508357 0.0012316232605 0.0022592351015 0.0030789052253 0.0032472369494 0.0030589233502 0.003212374344 
0.0035315366695 0.0030289641873 0.0015045138571 -0.00048181686725 -0.0019633839547 -0.0024178000167 -0.001952189632 -0.00091656001314 0.00017319535982 
0.0010128369177 0.0014598163834 0.0016146853159 0.0016978009371 0.0015779450769 0.0010237978131 4.540590453e-06 -0.0013532177982 -0.002520579932 
-0.0063143779989 -0.0055608793627 -0.0066649456276 -0.0064716334455 -0.005380797782 -0.0032910320151 -0.00028353137895 0.003204138804 0.0061612760182 
0.007355476846 0.0064703422831 0.004513576976 0.0027138098958 0.0015531738463 0.00090924066899 0.00059902679641 0.00048083394843 0.0004687621331 
0.00019910035098 0.00042442726772 0.00010969749542 -3.5928839907e-05 -0.00027307253731 -0.00024594547631 -0.00017047147685 0.00029689479925 0.0012659830099 
-0.0043812657823 -0.0029272212414 -0.00035494444342 0.00035703190338 0.00052406145915 0.00078379335173 0.0003037693441 0.00021313200432 0.00028217007033 
0.00077647788567 0.0016340779257 0.002244902018 0.0022965671378 0.0020976207452 0.0020702080219 0.0018067090496 0.0007314624745 -0.00066928689193 
-0.0019943068153 -0.0024667972466 -0.0028343445156 -0.0022194513585 -0.001018279203 0.00011005924898 0.00091404558043 0.0013634940551 0.0015114479465 
0.0015922216699 0.0015230764402 0.0011508327589 0.00045627424333 -0.00038166652303 -0.0011476257641 -0.0015030809736 -0.0025689044851 -0.0012933925173 
-0.0037613892928 -0.0046635826002 -0.0052966943476 -0.0054907422746 -0.0050435508601 -0.0037904767087 -0.0017287870287 0.00088902958669 0.0035218994017 
0.0055112716509 0.0059789706953 0.0052492753603 0.0036666907836 0.0022564803367 0.0013895291195 0.00086751935305 0.00059848745877 0.00062849941605 
0.00038867862168 0.00070488928759 0.00017422925794 0.00016213327126 0.0001080911364 -9.7738797194e-05 -0.00026247119149 -0.0002927879068 0.00020137042957 
-0.00050389148964 -0.00050109558651 -0.00038782805586 -0.0001548138398 0.00016276084716 0.00043054204832 0.00043376726205 0.00022922652352 0.00020136846797 
0.00071662674964 0.0020398169727 0.0039854126517 0.0057461392134 0.0065826824866 0.0065802286069 0.0060064443387 0.0048123865854 0.0045391985914 
0.0046817155089 0.0042580779991 0.0036062566796 0.0028002345935 0.001915216184 0.0007793321879 -0.00079105957184 -0.0023566727468 -0.0035335798166 
-0.0040538718458 -0.0039445171715 -0.0036546923802 -0.003299178381 -0.0026993111533 -0.0018931580416 -0.0014781171485 -0.0017530729383 -0.0025575736945 
-0.0039223411586 -0.005164098402 -0.0048301489442 -0.0029426174005 -0.00096926144761 0.00037371766666 0.0011167806224 0.0022191491153 0.0014685954666 
0.003348419501 0.0045551176881 0.0046797851101 0.0034427668434 0.0018405031442 0.001031092339 0.0013840358151 0.0022175245686 0.0029298067093 
0.0029831521097 0.0022617771465 0.0014945512085 0.0013127942366 0.0012892404338 0.00082566292986 -0.00010917340842 -0.00011769923003 -0.00014306789186 
-0.00039489940536 -0.00049546501396 0.00065093179728 0.0011522954155 0.0012682301167 0.00099326627378 0.00062420746099 0.00029568184254 -0.00033085338509 
-0.0014572942673 -0.0026226573391 -0.0033434361685 -0.0031493688002 -0.002682168677 -0.0026597346878 -0.0013210381512 -9.9600147223e-05 0.00058742255351 
0.00085325115651 0.00090250260109 0.00094452402118 0.0009507634677 0.00081800002954 0.00047896535034 7.8890750046e-05 -0.00033169189101 -0.00054541994177 
-0.00039449936958 -0.00071651704638 0.00010486970496 -0.0018116878928 -0.0028585834661 -0.0035273400717 -0.0037271066685 -0.0035686670453 -0.0029968846648 
-0.0017883104101 -9.5497578513e-05 0.0017057038203 0.0032482664683 0.0042977936682 0.0045922643039 0.002964902902 0.0039330178406 0.0019963388913 
0.0013071536669 0.00088461807172 -0.0026341248886 -0.0033430916374 0.001042869626 0.00075942619151 0.001227763627 0.00022861235993 -0.00022072734137 
-8.1170745034e-05 -0.00038429199776 -0.00012339527166 0.00020479869181 0.00058221223208 0.00096984978882 0.0012556123547 0.001261008656 0.00089947371453 
0.0003893312969 0.00047035915486 0.0016744229943 0.0036092866794 0.0052191085415 0.0059382468462 0.0035687821452 0.0025617541542 0.0013502263719 
0.0033751565497 0.0036268236581 0.00340185198 0.0028789167991 0.0022867834487 0.0016137905477 0.00073060348586 -0.00039131637823 -0.0015571083641 
-0.0026627881743 -0.0031181044178 -0.0031230011955 -0.0030987544451 -0.0031455284334 -0.0031207759748 -0.0028222431429 -0.0026322025806 -0.0029800038319 
-0.0039631720865 -0.005416789325 -0.0064228002448 -0.0058489846997 -0.0039071054198 -0.0019285238232 -0.0004489103485 0.00052771471019 0.00094330342836 
0.0016449485556 0.0011195209081 0.0024838473764 0.0034950194531 0.004815196211 0.0057752698194 0.0050034652813 0.0030657196476 0.0018610837869 
0.0022264293802 0.0033001546748 0.0035910848528 0.0033330043467 0.0029386435053 0.0023377582256 0.0017284745991 0.001132048259 0.00059974513715 
-0.0001031497668 -0.00082411116455 -0.00059927894472 -0.00065433646523 0.00089336077144 0.0017132994253 0.0025955510209 0.0034379751305 0.0030870064511 
0.0033108482603 0.0038818086614 0.0036837977241 0.002706845582 0.0012879151691 0.0002733473375 -0.00014648594879 0.00047225393428 0.00089966105588 
0.00092829826463 0.0011686866928 0.00080714280193 0.00070320990199 0.00025734281735 -0.00025419079975 0.0007398481539 0.0011591013608 0.0015097475844 
0.0017498452798 0.0017819832137 0.0014363552473 0.00076223517317 0.0006424649946 0.0019660077174 0.0031879276503 0.00374711724 -0.0010052058642 
-0.0013101367367 -1.7536380255e-05 0.0006568560857 0.0017277540101 0.0024088740756 0.0026172805228 0.00229910895 0.0015047151712 0.0010750023357 
0.00057238274894 -0.00012018903362 -0.00067945427872 -0.0020068816666 -0.00165254694 -0.0020922470139 -0.0023071223404 -0.0027335561463 -0.0032113277121 
-0.0032847982948 -0.0030959579162 -0.0033328849822 -0.0042605340481 -0.0063215384725 -0.0056821996113 -0.0058109427337 -0.0042977269622 -0.0025981377112 
-0.0011581061881 -4.2554700485e-05 0.00055610479467 0.00083475625433 -0.0010668747564 -0.00055826040625 0.0045730143902 0.0039602164761 -0.00043620375436 
-0.00021657496927 0.0002439097907 0.00084274382607 0.0018649566919 0.0028325250023 0.0034737630049 0.00084918469656 0.00041229929775 -0.0003451921134 
-0.0010521961653 -0.0015564965797 -0.0021928069764 -0.0031400964363 -0.0039852281334 -0.0043755713268 -0.0031404991169 -0.0027833646163 -0.0030180872418 
-0.0033933860832 -0.0030596348806 -0.0018528463988 -0.00067792785558 -5.203474575e-05 4.1237341065e-05 6.1722264945e-05 0.00024044651946 0.00042854468848 
0.00047046709369 0.0003648556376 0.00023941828567 0.00017697185558 0.00014633509272 0.00027608741584 0.00067950237644 2.4084362394e-05 0.0008617017229 
-0.00090750514528 -0.0018841234705 -0.0026087843968 -0.0021069439827 0.00112017629 0.0016965189425 0.0018969171797 0.0029977601953 0.0036434826131 
0.0043586786487 0.00525311823 0.0052806078456 0.0041806230322 0.0027983214823 0.0026133406597 0.001369681826 0.0023491433822 0.0030502326554 
0.0033080338035 0.0033663809299 0.0024735841143 0.0029270470841 0.001602816963 0.0035612306092 0.0029568680911 0.0023852943559 0.0018802569539 
0.0014333800063 0.0017375504365 0.0011304268555 0.0015538221924 0.00059264610536 -7.1940197813e-05 0.0045089242049 0.0041682816227 0.0031212857692 
0.00061380562693 -0.00319205306 -0.0034163070959 -0.003199822444 -0.0023134929652 -0.0014714191493 -0.0010331201775 -0.00094002017431 -0.0007431132799 
-0.00030888699257 2.0854506147e-05 0.00016830140521 0.00023428614077 0.00055435455579 0.00049504672643 0.00024467987214 0.0010819145868 -0.00080216387141 
-0.00017483701413 -0.0012747356959 -0.0023064133129 -0.0031132280128 -0.0037686519208 -0.0042917703977 -0.0045778274847 -0.0051354968455 -0.0053960141959 
-0.0050176528748 -0.0040040534222 -0.0027590062236 -0.0015114372509 -0.00036304690911 0.00028659081969 0.002323090448 0.0021624055807 0.0020261907775 
0.0017399036442 0.0019412569624 0.0013312655938 0.00028370939617 0.00053226551609 -1.2369750038e-05 -0.00029000750995 -0.0001534511357 0.0015411056957 
0.0017812248552 0.001971659105 0.0020772454445 0.0032931794412 0.0019222543924 0.00020523294734 0.00035635761378 9.101804244e-05 -0.0050133021432 
-0.0040615220205 -0.0013880754899 -0.0006425999527 -0.00067905809556 0.00041790244723 0.00029174349038 0.00079194936552 
Stress_YZ_Pt 1 1114 double
0.0052167966496 0.00700627896 0.0047485324649 0.0025322665133 0.0048372772872 0.0052722410474 0.0030413565109 0.0050280663127 0.0039929957129 
0.0059744013706 0.0037252397742 0.0063344264636 0.0061118858866 0.0076474193484 0.0075860868674 0.0075047705323 0.0064071291126 0.0057608656352 
0.0050201639533 0.004389062291 0.0039868850727 0.003177538747 0.0031674763886 0.0019591793534 0.0026198106352 0.0010646091396 0.0025905974908 
0.00078469527944 0.0024937298149 0.00064529615338 0.0020723894122 0.00043534589349 0.0015781534603 0.00029003659438 0.0013766046613 0.00023124863219 
0.001220379374 0.00015059934231 0.0014017777285 0.00049177292567 0.0016886449303 0.0010512772587 0.00078768025742 0.00085164362918 -0.00082792220746 
7.6935460129e-05 -0.0018779268139 -0.00073635580702 -0.0019781836309 -0.0015998921408 -0.0013807291689 -0.0022309594933 -0.0012486345659 -0.0025281862618 
-0.0025077373721 -0.003129005665 -0.0042514775414 -0.004046705144 -0.0054865735583 -0.0047861009371 -0.005859256722 -0.004837599583 -0.005154669052 
-0.0038054008037 -0.0038857067702 -0.0022926337024 -0.0029400819913 -0.0011495137351 -0.0024307770655 -0.00044590444304 -0.002508134814 -0.000341489329 
-0.0033893311629 -0.0010327737691 -0.0043492419645 -0.0019452633496 -0.0042935024248 -0.0022278357428 -0.0024969002116 -0.0013656228311 0.00075414375169 
0.00045784627764 0.0036693825386 0.0018207702742 0.00075620108692 0.0016154869227 0.00098468715441 0.00056882645003 0.0022677424131 0.0013513644299 
0.0022647612495 0.001355383567 0.0023777546594 0.0015317469952 0.003238726873 0.0024866192689 0.0042122493032 0.0038369249087 0.0049017958809 
0.0049274448538 0.0053409598768 0.00555735745 0.0054925668519 0.0057781572687 0.0059626703151 0.0059669197071 0.0063752194401 0.006281369715 
0.0064167578239 0.0064199113986 0.0065453688148 0.0064020408317 0.0069078514352 0.0065884011565 0.0064755554777 0.0064446154283 0.0045957674738 
0.0053926121909 0.0026290120441 0.0037059516471 0.0010731897783 0.0014383822581 -0.00060015334748 -0.0014072126924 -0.0022684992873 -0.0040555277665 
-0.0035871781874 -0.005635445239 -0.0044483707752 -0.0059835937573 -0.0052982626949 -0.0057585842442 -0.0067183796782 -0.0052298349328 -0.0078152846545 
-0.0054576776456 -0.0068873190321 -0.0043147059769 -0.0042643601773 -0.0018339291128 -0.0016415650316 3.4804208553e-05 -7.0679729106e-05 0.00044301235903 
0.00034924395732 4.1689279897e-05 0.00060533406213 -0.00035675844993 0.0013991097512 -0.00044045802497 0.0028892182745 0.00020090478938 0.0032552011544 
0.001331430627 0.0026097279042 0.0026323252823 0.0019007813535 0.0031673344492 0.0015497990535 0.0029072687321 0.0011519110703 0.0025893365237 
0.0019708111358 0.0032749600214 0.0033503717277 0.004174546455 0.0021781502292 0.0030755284242 4.5268563554e-05 0.00081867887275 -0.0020600593416 
-0.0015587225826 -0.0039817495272 -0.0035313295084 -0.0044711364899 -0.004572681617 -0.0042477117386 -0.0051599191502 -0.0053307029884 -0.0060736286687 
-0.0066029371228 -0.00662813487 -0.0064511022065 -0.0060848800931 -0.005060456926 -0.0048821113305 -0.0040705879219 -0.0039560830919 -0.0031822387828 
-0.0029938213993 -0.0015737877693 -0.0014352485887 -0.00047990506573 -0.00017896318604 -0.0002153031528 0.00030346168205 -0.00029694363184 0.00035346349614 
1.4019591617e-05 0.00037048989907 0.0057869718876 0.0027462009202 0.0074596496997 0.0082922785543 0.0086801755242 0.0084133584751 0.007028738386 
0.0051322221989 0.0036719071795 0.0022354559624 0.00063671380485 -0.00059231151681 -0.0011920322868 -0.0012832829379 -0.0010006541561 -0.0006057230039 
-0.0004445030695 -0.00046381573475 -0.00014490634931 0.00057791616746 0.0012429623021 0.0014311180712 0.00068142433156 -0.0007598393131 -0.0023312976991 
-0.0029351408011 -0.0030442051939 -0.0032078512013 -0.0033834655187 -0.0031270642648 -0.0020588668413 -0.0005913200057 0.00060082009622 0.0013399772579 
0.0015152427077 0.0010732772644 0.00038103548104 -0.0002148003714 -0.00062613934824 -0.00084855514251 -0.00083529060794 8.3834860561e-05 -2.202991891e-05 
0.00013753398161 -6.7492037488e-05 0.00015822151909 0.0010083441739 0.0025144926476 0.0040251679602 0.0050964088878 0.0058367355959 0.0062167539727 
0.0064422766445 0.0064106974751 0.0059959492646 0.0056598142255 0.0056035092566 0.0053652534261 0.0039682598435 0.0012304629945 -0.0022445660852 
-0.0056407301454 -0.0077040588949 -0.0078270765953 -0.0066800432978 -0.0050209674519 -0.001167454473 -0.0025467887366 0.00049937029689 0.00095005950789 
0.00032500874295 -0.00046549003309 -0.0012699476792 -0.0020637740963 -0.0023401947692 -0.00066987123137 0.0020710515018 0.0039189918898 0.0041824664222 
0.0041169619653 0.0044110543095 0.0044638432446 0.0036540679866 0.001908315895 -0.00032461434967 -0.0024961935414 -0.0045292184222 -0.0061913806712 
-0.0067613447318 -0.0063438798534 -0.0055534470594 -0.0047203057911 -0.0039112890372 -0.0029124397552 -0.0015235348546 -0.00010806634964 0.0007953610766 
0.001134284772 0.00088800406229 0.00042558333007 -0.0025123441592 -0.0027883936418 0.0073414825602 0.0077119577909 0.0066730382387 0.0058492276585 
0.0047001595376 0.0033492573421 0.0019057775207 0.00045012947157 -0.00067323531039 -0.0012977113074 -0.0012251231819 -0.00059095427878 9.2354184744e-07 
0.00019985845074 0.00016746239862 0.00031607235542 0.00086770917551 0.0016366205236 0.0019039777108 0.0012084845112 0.00058714813713 -0.0013816383289 
-0.0009047807107 -0.001568946318 -0.0017488173326 -0.0018986995856 -0.0018561722536 -0.0014213723189 -0.00060871105961 0.00016806133681 0.00060589015447 
0.00062982047893 0.00020329038671 -0.00043178031956 -0.0012011284547 -0.0016726338654 -0.0022086882382 -0.0013791800557 0.00074629532537 0.0033380062087 
0.0062545216642 0.0001102848837 0.0017208643476 -0.00040488108789 -0.00051207589786 0.00039668492172 -0.00017989763001 -0.00068041012491 -0.00089410692453 
-0.0012277063215 -0.00174610049 -0.0022479143227 0.0010904287228 -0.00091396753487 0.0028146241384 0.0036870618933 0.0040109004476 0.0041350517422 
0.0042407534202 0.0040185692487 0.0030450880586 0.0013378545991 -0.0011607131164 -0.0038616823149 -0.0056895529851 -0.0061510762898 -0.0058940002928 
-0.0054322794313 -0.004838163848 -0.0042258288013 -0.003309434338 -0.0019910231349 -0.00053037145426 0.00067958598356 0.0013094613096 0.0011265909707 
0.00049335163203 -5.5741373217e-05 -0.00043572648428 -0.00059953911114 -0.00044993353367 0.00014177786215 0.0013016879893 0.0028182220703 0.0042726867832 
0.0054854851915 0.0062898615142 0.0064822639106 0.0060096676461 0.0051383710233 0.0043897697469 0.0040800344432 0.0034762564581 0.0024051791988 
9.526249778e-05 -0.0026349281397 -0.0052660540678 -0.0071511316346 -0.0076138048898 -0.0067385436269 -0.0048997621052 -0.002606175025 -0.00075672509047 
0.00013721548021 2.1906978873e-05 -0.0023286016658 -0.0024227838148 0.0014087441668 0.0032154581568 0.00026143028663 -0.00026050151791 -0.00037562513353 
-0.00047119246665 -0.00070273760684 -0.0010204507416 -0.0012533537811 -0.0012241609584 -0.00098902816353 -0.00083180353431 -0.00095160483397 -0.0014068213059 
-0.0020157188992 -0.0024421524431 -0.0020672865794 -0.0024650720879 -0.00025299930348 0.0018786877663 0.0037922218908 0.0060613015667 0.0056376693537 
0.0062985817203 0.0048285928788 0.0041006680694 0.00338426081 0.0024459755223 0.0013428452949 0.00039715546882 -0.00028674233181 -0.00072153364454 
-0.00051269004543 -3.5989305616e-05 0.00044578135112 0.00054837292555 0.00052431636141 0.00070197608875 0.00114567946 0.0017290551914 0.0019113669114 
0.0014775489108 0.001544448256 0.0032882772211 0.0048771880101 0.003246635315 0.0047854098375 0.0017900518433 0.0075493702898 0.006523715565 
0.0068058149191 0.0063859187067 -0.0023888788419 -0.0028076411691 -0.00069093243292 -0.0012813779758 -0.0012493447575 -0.0011411758896 -0.0013392393012 
-0.0016048524121 -0.0016168736038 -0.0019895287114 -0.0013411964028 -0.001926447876 -0.00092679952286 0.00053490281789 0.0019390007074 0.0030125311459 
0.0036412915215 0.0038925471017 0.0043523597415 0.0046752911294 0.0041130779427 0.0027246439713 0.00025684620778 -0.0025954019366 -0.0043507585069 
-0.0049549430842 -0.005219668732 -0.0052682557143 -0.0050184088759 -0.0045471019112 -0.0036730023567 -0.0023832020233 -0.00094524079486 0.00035170918545 
0.0012145338696 0.0012216272298 0.00060294561627 0.00013404610218 -0.00015311985976 -0.0003720349107 -0.0003831590584 3.6352554162e-05 0.0010419218961 
0.0026085594727 0.0041678270209 0.005144607625 0.0055144730723 0.0054561491124 0.004923333996 0.0040769342449 0.0033711300348 0.0029810469132 
0.002626236761 -0.00077222613618 0.00099532060267 -0.0029911258316 -0.0048949533375 -0.0059428850655 -0.006132622133 -0.0058971794012 -0.0040941394982 
-0.0019332618685 -0.00045059507829 0.00030184338357 0.00018107595861 0.00057779537565 -2.0804011001e-05 -0.00066838762723 -0.0011921293772 -0.0010480782657 
-0.00079866153828 -0.00086383521557 -0.00020385365497 -0.0016465001099 0.00077652825712 0.0011292379349 0.00048784039245 0.00073425882147 0.00023444820181 
2.0664041585e-05 -0.00020349635997 -0.00032325549182 -0.00030964730195 -0.00030981743566 -0.00049324760039 0.0019320926076 0.0021113887487 0.00080580865324 
0.00022182496014 1.7377379663e-05 -6.0597851189e-05 -0.00027553865038 -0.00071663511335 -0.0013439273898 -0.0019496196182 -0.002330710704 -0.0025781343866 
-0.0028597420023 -0.00320854038 -0.0035612516804 -0.0037070311955 -0.0036303356756 -0.0030510396464 -0.0034966309904 -0.0027932794765 -0.0023815239838 
-0.0011472184051 0.00094240390899 0.0026164202427 0.003596561437 0.0047604643623 0.0073457671097 0.0056917952606 0.0072471306194 0.0058616573224 
0.00573085621 0.0057162158191 0.0057955052471 0.0055630229181 0.0047068679705 0.0033951943333 0.0020632130236 0.0010205164344 0.0003460959997 
7.9202007328e-05 0.00017733151253 0.00032779940011 0.0002741073331 0.00024816977202 0.00080576253822 0.0004033799205 0.00095515423163 0.0010602370166 
0.0013726635079 0.0016969460412 0.0018643583753 0.0018124147318 0.0013813763508 0.0018170663971 0.0036737865303 0.0050421203487 0.0050840342883 
0.0041643847944 0.0044895670144 0.0027003269352 0.0015196360036 0.00011593769796 0.00046966067566 -0.00060314488837 -0.00091550256911 -0.00080249064922 
-9.9740356745e-05 -0.0012751853501 -0.0011715133005 -0.00050446685054 0.00050228212785 0.0016420964384 0.0026624633465 0.0033493869123 0.0036987150088 
0.0038474373287 0.0038755982532 0.0035837052856 0.0027636550367 0.0010830294923 -0.0011677575239 -0.0028621839883 -0.0037698373199 -0.004329124582 
-0.0046960663749 -0.0046446522465 -0.0042308212142 -0.0035675581894 -0.0025193420297 -0.0012370887416 -4.1899329517e-06 0.0009265087574 0.0012450107024 
0.00038146218503 0.0006310984827 0.0001779957945 -0.00011116998053 -0.00033379485103 -7.1803689934e-05 0.00098731057369 0.0025321985304 0.0036753769964 
0.0040692572366 0.003889130021 0.0036486420431 0.003537545912 0.0032684986363 0.002844378585 0.002475363377 0.0023008531425 0.0021106743079 
0.0015314568591 0.0017934268399 0.00095105481887 -1.9638464437e-06 -0.0011983355507 -0.0027732163726 -0.0040578097687 -0.0041969961603 -0.0038453050074 
0.0008642351313 0.00087414700829 -4.6937168008e-05 0.00054849681874 0.00056913249864 0.0012599472393 -0.00011636397267 -0.00056513378968 -0.00067908246031 
-0.00010369568918 0.00071299812407 0.0015957755095 0.0024207611568 0.0029568945756 0.0030900849961 0.0028701904812 0.0024645322992 0.0020185814792 
0.0015562506742 0.0012377374078 2.2459264073e-05 -0.0013453188603 -0.0025971341238 -0.0034403058817 -0.0036473947112 -0.0034779845155 -0.0032823335496 
-0.0029054567567 -0.0020878853684 -0.0010638356543 -0.00011001157327 0.00051760178394 0.00073061817966 0.0005832753377 0.00039242211642 0.00028286510496 
0.00047304924374 0.00047190320765 0.00035253932219 9.1558311397e-05 -0.00036979502329 -0.00075801714411 -0.00058881026052 0.00031348102857 0.0015733726505 
0.0023460550583 0.0016967775293 0.0019422358237 0.0021793601918 0.0023841749062 0.002555029525 0.0024740493973 0.0022579592187 0.0019289077318 
0.0013889110705 0.0013964053651 0.0010493745795 0.00040692480434 -0.00023273515156 -0.001047723008 -0.0022019257885 -0.0024695632019 -0.0017422819859 
0.00062849315964 -3.7411173253e-05 -0.00035103555911 -0.00038450574903 -0.00043449447912 -0.00072214182001 -0.0013327438064 -0.0022243880667 -0.0033038366237 
-0.004205470439 -0.0046108391252 -0.0047279311111 -0.0047390008112 -0.0045384066179 -0.0042229105408 -0.0041296596755 -0.0032323903288 -0.0036200603936 
-0.002890363452 -0.0025137158809 -0.0018800329708 -0.00066089799157 0.00093486631295 0.001994592807 0.0025084412191 0.0032426899998 0.004008312244 
0.0044166132575 0.0046498240554 0.005017145304 0.0054880520329 0.0053831283003 0.0043311676127 0.002552738355 0.00042515290806 -0.0013199999321 
-0.0020096529915 -0.0015553168705 -0.00044876169359 0.00052963934631 0.00094501346757 0.0010506108811 0.0011891761533 0.0008243601842 0.0013695741072 
0.00049540144391 0.00063132991636 0.0011788920092 0.0017172929365 0.0020102511917 0.0022150145669 0.0021265055402 0.001783683867 0.0014836432529 
0.0011569361086 0.0016014217108 0.0028523618821 0.003564716666 0.003617997223 0.0032299194136 0.0036655596341 0.0026650358632 0.0036987104298 
0.0025861074391 0.0012847427206 0.00014872206793 0.00078130132169 0.0014540112024 0.0020842126978 0.0023756935843 0.0021891716751 0.0016949490528 
0.0010525366888 0.00034746829624 -6.4854641096e-05 0.0011546637088 0.0015604479122 0.00015257754603 -0.0011190305777 -0.0019004814239 -0.0021141297184 
-0.0022393267718 -0.0022653047054 -0.0019184718258 -0.001293401976 -0.00063466021675 -8.1450622019e-05 0.00019786003941 0.00027874062289 0.00029752317278 
0.00019699862605 3.271661808e-05 1.0100851796e-05 9.866427888e-05 0.00019101982787 0.00018084872499 -2.0511879484e-05 -0.00042397195284 -0.00097924760485 
-0.0014748834801 -0.0016412494006 -0.0013562539934 -0.00066991003041 6.0636317357e-05 -0.00027565087021 0.0012504126498 0.00063085707188 0.0015279164363 
0.0017986557505 0.0019459961914 0.0012616312015 0.00024535194098 0.0012532786932 0.00080800226715 0.00053079153804 0.0010739404242 0.00089536098385 
-0.00027263836819 0.00012733352287 -0.00062263345808 -0.00089397617558 -0.0008037690568 -0.00068453956919 -0.00078457129712 -0.0012235658796 -0.0021323743858 
-0.0036335823825 -0.0052014442626 -0.0057134880917 -0.0055268643191 -0.0051720632473 -0.0046645769617 -0.0038715870585 -0.002698131837 -0.0025299440895 
-0.0026898925425 -0.0024763387628 -0.0020262718317 -0.0013649743632 -0.00056266828551 0.00027208105666 0.00081375623995 0.0011785891693 0.0015708398423 
0.002425928571 0.0029648673953 0.0035325136269 0.0043313090573 0.0052117765881 0.0054179271683 0.0043284954154 0.0022047948005 -0.00010083029338 
-0.0020305990765 -0.0030059852288 -0.0025198159565 -0.0010810807982 0.00029183672795 0.0010935923783 0.0014549567713 0.0016702923458 0.0018405826413 
0.0015836050152 0.0019820409943 0.0011621886515 0.00099091397715 0.0012012881489 0.0018892934459 0.0026932801411 0.0027527874918 0.0022446784715 
0.0017077482189 0.0010640355526 0.0010306125623 0.0010239257632 0.0012473845854 0.0015655426687 0.0015429214254 0.0015587849048 0.0015374937357 
0.0012286248857 0.0021837205568 0.00090687265219 0.0026767074596 -0.00025542982257 0.00070759748996 0.00097850587917 0.00071291143831 0.00053602568369 
0.00045245594083 0.00057096217643 0.000660457501 0.00074813932042 0.00077166199844 0.00060877623673 0.00029753055333 0.0010654068174 0.0016852113768 
0.001828532957 0.0019806886849 0.0012486988126 0.00056827724893 -0.00063959801992 0.0001385558171 -0.00086312185158 -0.00078657901031 -0.00066807630355 
-0.00069441736559 -0.0010019192123 -0.0017564838054 -0.0031221002573 -0.0047693613451 -0.0050807983149 -0.0051556507824 -0.0046925863717 -0.0013216745399 
-0.001515285694 -0.0021402308485 -0.0017251708487 -0.0019127358973 -0.001878591167 -0.0015748451406 -0.0010478167969 -0.00044556372595 -2.3824205073e-05 
0.00016593564533 0.00043376832036 0.00054817665296 0.0013971741719 0.00084799197066 0.0021941500308 0.0033989090589 0.0046570355771 0.0052089913515 
0.0043745510047 0.0023514492641 0.0004036053142 -0.0013938655728 -0.0025836295099 -0.0028647442814 -0.0012696868362 0.00011494122737 0.0010591366445 
0.0015368793975 0.0018328176811 0.0020294123678 0.0020595813694 0.00040588626871 7.3063882155e-05 -9.1428863925e-05 -0.0012382420327 -0.00088586320453 
-0.00053848020252 -0.00010003161151 0.00015245924078 0.00053292219309 0.00076145945059 0.00083700580581 0.0010272988729 0.0014783565275 0.0018517561839 
0.0018557232688 0.0015391337802 0.00081442662849 -0.00019495206288 -0.0010902982831 -0.0015775212087 0.0012640808563 0.0017097597398 0.002312238561 
0.0025701033592 0.0020556913114 0.0010054897612 0.00010349230433 -0.00072914874181 -0.0013731849904 -0.0014721560292 -0.0011966846942 -0.00079788593575 
-0.00037331366366 6.6497814259e-06 0.00023048683397 0.00024876859243 0.00019740770949 0.00010095988 -0.0001501688439 -0.00036608068513 -0.00035145024231 
-0.00033230829115 -0.000226955328 -0.00013742512965 -0.00051935516785 0.0013312711817 0.0017061074614 0.0017906234425 0.0014990201453 0.0013449403535 
0.001744546229 0.0024629514955 0.0029909459408 0.0020702110254 0.0012489199216 0.0009565220389 -0.0029157694662 -0.0033368837321 -0.0033969460346 
-0.0028671437758 -0.0021352499025 -0.0031946157687 -0.0014383977541 -0.003097947163 -0.00056757594818 -0.0002696642714 0.00025475654297 0.00068562618731 
0.0010131971721 0.00015382352285 -0.00022616649585 -0.0003810702874 7.3889048508e-05 0.00069020146839 0.0017496580646 0.002120679681 0.0018308094703 
0.0017260980327 0.0026499542873 0.0038547427393 0.0040821200237 0.0032705572085 0.0019714713271 0.00062349901418 -0.00023873063037 -0.00054167687631 
-0.00061698023637 -0.00051435068599 -0.00021707856376 0.00011390040436 0.00020877873067 0.00027766272251 -0.0010554310284 -0.0010825919599 -0.00087377992895 
0.0017755512672 0.0017589962808 0.0014868845465 0.00089111921034 -5.7508767441e-05 -0.0011160188333 -0.0017672406975 -0.0023377909092 -0.0019917055906 
-0.00088222907152 0.00033521398791 0.0011965743906 0.0016325578326 0.0019013546698 0.0020398413762 -0.0011552943324 -0.00064516368252 -8.1663746414e-05 
-0.00097464461578 -0.00083445749866 -0.00047568173613 0.00015105384182 0.00015542222673 0.00020469918672 0.00024828011131 2.5033969905e-05 -0.0021021002322 
-0.00047767386422 -0.00041865425374 -0.00062878560493 0.001731986762 -0.0012584950309 0.00028895314244 0.00037653348409 0.00015786725726 0.0080081493361 
0.0081518858206 -0.0010729397569 0.0014124406225 0.0014969266485 0.00036811081009 0.00032175222441 -7.343859761e-05 
Stress_XZ_Pt 1 1114 double
-0.006018869346 -0.0071062280331 -0.010354775121 -0.0095357139362 -0.0073239244521 -0.0096989865415 -0.0048160845181 -0.0072684599436 -0.0033911195351 
-0.00521338213 -0.0027139709564 -0.0032845798123 0.00059793482069 0.00016751969815 0.0028384414036 0.0026038382202 0.00337972946 0.0039394491469 
0.0038281959714 0.0051311201532 0.0040617943741 0.0055853934027 0.0040200287476 0.0050874826265 0.003450533608 0.0040108559188 0.002695574658 
0.0030284321401 0.0021068018978 0.0023030697776 0.0016096612671 0.0014158831618 0.00097324652597 5.5158656323e-05 2.3744898499e-05 -0.0015800901383 
-0.00061986428045 -0.0029302560506 -0.0021615390724 -0.0041608544561 -0.0037285167491 -0.0049353486975 -0.0039155493723 -0.0051546156756 -0.0037991050631 
-0.0053976303898 -0.0035581272095 -0.0053095016629 -0.0026351194247 -0.0040659638762 -0.00098112042178 -0.0017287010269 0.00083809744683 0.0008571628714 
0.0021608157549 0.0025525738019 0.0025294010993 0.0030122948228 0.0023611846846 0.0030812954064 0.0020330559928 0.0031348679913 0.001600852469 
0.0030657396419 0.00098777993117 0.002742928511 0.00064721170929 0.0023468550207 0.00078366699745 0.0019055098674 0.0010589663871 0.0011583057931 
0.0014738649479 0.0002871118777 0.0015603286447 -0.00054537289543 0.00070747745121 -0.001441376864 -0.00084192730355 -0.0027331578585 -0.0025716896635 
-0.0046494023409 -0.0044752836693 -0.0072181556607 0.0016280334967 0.0028874342097 0.00040198364877 -0.0011427827849 0.0037711663172 0.0014635965053 
0.0040958209429 0.002215463639 0.0036457133247 0.002792649233 0.0029230248183 0.0031351380167 0.0022116444889 0.0032186306489 0.0018000028795 
0.0032793984865 0.0018710548175 0.0035080580565 0.0021841276903 0.0039719424676 0.0023457844509 0.0044983991538 0.0028633180773 0.0052809166373 
0.0040163530502 0.0061299152439 0.0053623525891 0.0065703489818 0.0065052730497 0.0068510537967 0.0071437233128 0.0069357975153 0.0067972382531 
0.00614693854 0.0047838324681 0.0040740696713 0.0010006441153 0.0010255685975 -0.0033335714252 -0.0023183736866 -0.0061701911036 -0.0052245532279 
-0.0067776481155 -0.0070549752563 -0.0059809740633 -0.0073814585339 -0.0052164271474 -0.006980703678 -0.0045593469404 -0.0067767113447 -0.0039713188307 
-0.0053323560278 -0.0039696503663 -0.0054968228214 -0.0042179415468 -0.0060303932987 -0.0043547118548 -0.0059202396078 -0.0042645686772 -0.0049504528288 
-0.0039577177959 -0.0035682029556 -0.0028496333398 -0.0018995120299 -0.00038641219726 0.00040549158075 0.0037236613571 0.0034823332971 0.0070432133507 
0.0058534927666 0.0075112816412 0.0069045382552 0.0063268975355 0.0067874083761 0.0041833153227 0.0053807977238 0.0025800286094 0.0042064098525 
0.0020624303725 0.003805983928 0.0013691222121 0.0036873289064 0.00074852368562 0.0040028661897 0.0011503582646 0.0048245306971 0.0028892286355 
0.0057924478897 0.005402353825 0.0062922589714 0.005823265994 0.0052045506309 0.0042343516834 0.0029190999296 0.0031745376764 0.00096734228572 
0.002024643647 -0.00074964473606 -2.0444742404e-05 -0.00276943465 -0.0023819746566 -0.0047951082524 -0.0046887996141 -0.006637044833 -0.0068497543689 
-0.0084702189779 -0.0080185444094 -0.009738584049 -0.0077946155798 -0.0099476684118 -0.0062171898317 -0.0088876037626 -0.0034788040211 -0.0064983239281 
-0.00054407244897 -0.0035505776032 -0.013627429027 -0.015308699571 -0.01090558432 -0.006909394823 -0.0023826606048 0.0016817857104 0.0048576351255 
0.0073112106184 0.0090065058321 0.0093109696172 0.0079973599641 0.006022076006 0.0045190220699 0.0034464130877 0.0019828839868 -0.00026188560878 
-0.002833770006 -0.0051882661646 -0.0065592667088 -0.0068910542177 -0.0070415445371 -0.0073452950455 -0.0070632402785 -0.0044862656388 -0.001503473497 
0.0015182148782 0.003622136428 0.0046553571592 0.0055081874598 0.0063955713995 0.0070259741042 0.0071179573424 0.0065432635602 0.0051888570888 
0.0029221550794 2.5275308872e-05 -0.0028843110485 -0.0049966408988 -0.0065555765759 -0.0086798985722 -0.01186003047 -0.014816367067 -0.0013628074812 
-0.0030841757834 0.00043402529263 0.0025239254173 0.0044203661964 0.0056887520477 0.0064314495539 0.0069836005569 0.0076722080121 0.0084669439821 
0.009282229119 0.0094878631644 0.0087052009767 0.007780041662 0.006821005838 0.0051747952239 0.0029860183131 0.00076372725562 -0.0016714862813 
-0.0046732043265 -0.0076731853187 -0.0093879350461 -0.00985716586 -0.010144297965 -0.0085476106033 -0.0077372669863 -0.0089504435891 -0.0082189901732 
-0.0064159482718 -0.0041373607819 -0.0017665691666 0.00058070621526 0.002660276508 0.0043227793067 0.0058599930489 0.0071505582891 0.0073125505587 
0.0074536030879 0.0079551003873 0.0086542669451 0.0095182950608 0.010121434694 0.0098366672173 0.0082436585799 0.0056981382077 0.0026487108509 
-0.00035230220675 -0.0028490618424 -0.005125855736 -0.0071254251525 -0.0087273255922 -0.010288351448 -0.011597263394 -0.012175319949 -0.011733413674 
-0.010067759315 -0.0075657482957 -0.0050868830876 -0.009061478544 -0.010491279652 -8.664818597e-05 -0.0039730225399 0.0042250191909 0.0080286891898 
0.011090198066 0.012835823698 0.01281390572 0.011047916953 0.008618517546 0.006671234034 0.0050982783432 0.0032254162943 0.00077947805039 
-0.0020472465585 -0.0047837843886 -0.0068557157647 -0.007878333563 -0.0079626308288 -0.0077656216454 -0.0070705553517 -0.0049030918162 0.0024243768567 
0.00017064682561 0.0044296752312 0.0060774765443 0.0077249705791 0.0093329930678 0.010551362298 0.010955441976 0.010236335685 0.0083085552324 
0.0052751909243 0.001359405549 -0.0028378982388 -0.0064038391225 -0.0091640806058 -0.011387313018 -0.013932286296 -0.015528549207 -0.015438787173 
-0.014141884865 -0.0015330428787 -0.0025664856657 -0.010136744473 -0.01021064329 -0.0097668296658 -0.0085390139138 -0.0069724147907 -0.0051542193396 
-0.0030001716805 -0.00082650515833 0.00070141202741 0.0053523719544 0.0037537402241 0.0070872042561 0.0083124201046 0.00955250673 0.010897003114 
0.011693877866 0.01174675161 0.011291125091 0.010487778578 0.0090145280119 0.0067984352354 0.004001164285 0.0010501634461 -0.0015789417885 
-0.0041208817274 -0.0065337634878 -0.008556835237 -0.010245084995 -0.011426548008 -0.011903948151 -0.011658093426 -0.010530584725 -0.0086378582055 
-0.0064650229178 -0.0043233695906 -0.0020076269429 0.00068382213067 0.0035844070953 0.0061808123719 0.0079366369173 0.008973245509 0.0097533946391 
0.010496494127 0.011048228014 0.011191820493 0.010685882065 0.0095212140586 0.0081805381924 0.0066525180591 0.0042581498157 0.0020223123283 
6.4115316491e-05 -0.0023026170384 -0.0051557457191 -0.0079062937293 -0.0099161798134 -0.011126203928 -0.011604151689 -0.011267622001 -0.010120124789 
-0.0086311679333 -0.0085660155164 0.0025877789885 0.0012246145707 -0.0002988373808 -0.00153955305 0.0011255828658 0.0028575729812 0.0047130613239 
0.0065758557757 0.008603535709 0.010681226151 0.012328462675 0.012985259993 0.012257403927 0.010133711156 0.0068642215338 0.0027680200001 
-0.0012628950935 -0.0036969602806 -0.0110659739 -0.0091193990083 -0.012466130545 -0.012306648074 -0.011338605545 -0.010661030654 0.00087273625832 
-0.0024858725519 0.0047514273901 0.0085615937132 0.012031812454 0.014567356324 0.015101030236 0.013301322935 0.010666475166 0.0084896931658 
0.0062569700181 0.0037399898865 0.0012933087746 -0.0015115906972 -0.0044456226169 -0.0069150360068 -0.0083993815351 -0.0086088769604 -0.0081644586753 
-0.0074468782404 -0.0058168131509 -0.0040834686952 -0.0031694018107 -0.0012914549734 -0.0023830198916 -9.0269415523e-05 -0.0060767133255 -0.0045969576458 
-0.0064211772988 -0.0054742634917 -0.0067507559434 -0.0039043751312 -0.0074524128577 -0.0064802978886 -0.0052347168094 -0.0036540304427 -0.0020391201251 
-0.00074985967512 -9.5614501333e-05 0.0012295145862 0.00011972912034 0.002363389387 0.0036314586177 0.0052761728875 0.0069709132658 0.0084079933586 
0.0097180644516 0.010702865198 0.010900627822 0.010391362477 0.0097109929193 0.0092540918849 0.0083873266121 0.0067349800374 0.0044463860686 
0.0018120536479 -0.00065222181001 -0.0030343008693 -0.0054290614207 -0.0076024614973 -0.0093283297028 -0.010429499904 -0.010857338784 -0.010703109438 
-0.0097993484233 -0.0075074474327 -0.0058827744797 -0.0039678165922 -0.0015599341787 0.0014943030474 0.0047552260803 0.0074343113229 0.0091855770443 
0.01036257809 0.011340722209 0.012003956828 0.012078791158 0.011402488919 0.010251953267 0.0089427271159 0.0075571405469 0.006112962612 
0.0047077643103 -0.0007454967199 0.00093841007765 -0.0029066933203 -0.0054346309626 -0.007941768039 -0.010009169579 -0.011217155183 -0.011473668041 
-0.011109735817 -0.010071197059 -0.0086555385496 -0.0070115383714 -0.0070810003672 -0.0066289308015 -0.0061587844975 -0.0057719697943 -0.0050649783807 
-0.0039296015748 -0.0025736885727 -0.0099356290884 -0.010422595544 -0.0088149537332 -0.0071968355915 -0.0055764687713 -0.006217964692 -0.0054858790245 
-0.0052763239946 -0.0049549109535 -0.0047501610825 -0.0044573621708 -0.0036462972639 -0.0024325687264 0.0023254612752 0.0034089326509 0.0013653804053 
0.0030330972513 0.0048808985157 0.0068337251432 0.0090020345524 0.011322085047 0.01329834736 0.014275738504 0.013780938694 0.011824490968 
0.0087160082767 0.0049597830221 0.0014966485614 -0.00059401801991 -0.00093273793027 -0.002821109083 -0.00011954164074 -0.0052952661063 -0.0073382831179 
-0.0089686621213 -0.0099062882364 -0.009250876843 -0.0078067129944 -0.0069808873814 -0.0094439483946 -0.0065412705299 -0.0078396345489 -0.0061343665002 
-0.0055853734957 -0.0048855758505 -0.0038821101189 -0.0020492813492 0.00094972687657 0.0045925799641 0.0082413147902 0.011718670838 0.014803718077 
0.016114628874 0.014564883895 0.011796429986 0.0094973023515 0.0074242190458 0.00099571860483 0.0032696633134 -0.0018457895276 -0.0049350528279 
-0.0075286296196 -0.0091250243131 -0.0095091885887 -0.009007751476 -0.0084034629399 -0.0075287215877 -0.0062594743213 -0.0051516186795 -0.0039609076921 
-0.0018817866803 -0.0030880665872 -0.0011401411757 -6.0367863625e-05 0.0046806964092 0.0050919906353 -0.00084024354146 -0.0011901813414 0.00027065583708 
-0.00044686390174 0.0011434320768 0.00222982376 0.0034836521372 0.0049015865079 0.0063605124597 0.0076112030074 0.0084899109788 0.0087692528032 
0.0084523381665 0.007933888468 0.0076690688729 0.0077930873958 0.0075179793639 0.0064867533511 0.0046474303235 0.0021975967538 -9.4748349511e-05 
-0.0021564416238 -0.0041737200809 -0.0061008819612 -0.007694314816 -0.0087511177408 -0.0091378206853 -0.0089109765831 -0.0080708581954 -0.0064512892859 
-0.0022359926224 -0.003825950902 5.2880473959e-05 0.0029859191491 0.0059760397999 0.0082850654144 0.0098158640321 0.010918561602 0.011860181578 
0.012293899432 0.011959991418 0.010945102666 0.0095306066796 0.0081290367525 0.0067924147006 0.005593473441 0.0047985423977 0.0042196458089 
0.0022636577778 0.0035320407478 0.0010887426724 7.6485393947e-05 -0.0014309583421 -0.0035931173479 -0.0059874033323 -0.0083965201629 -0.010345187737 
-0.0045659028692 -0.0044962837128 -0.0018546078645 -0.0011720185139 3.6379107769e-05 -0.00042049668627 0.00053978854703 0.0012490251102 0.001997225685 
0.0028458391607 0.0041571891634 0.0054413812468 0.0063845453551 0.0068429303356 0.0068831404205 0.0067378184758 0.0065315579996 0.0065042077331 
0.0069271621294 0.0067943162285 0.0060122901341 0.0046314565116 0.0024402789422 0.00037045480349 -0.0013634546449 -0.0029749953828 -0.0045187941287 
-0.005837081233 -0.0067755258642 -0.0071900369367 -0.0070417984389 -0.0064800053369 -0.0055572640849 -0.0043758294778 -0.0028646040009 -0.0032529116725 
-0.002375708078 -0.0014995583624 -6.1113692936e-05 0.0019978230848 0.0044397942256 0.0068239391549 0.008753891103 0.0099941967055 0.010635436745 
0.011071201647 0.011360863037 0.011451367289 0.010433991905 0.0090723996982 0.0076509065693 0.0063047197182 0.0051381208468 0.0047140475363 
0.002862464753 0.0043242098764 0.0012669311304 6.6971407705e-05 -0.00047384480422 -0.0017909518501 -0.0039642971242 -0.006277536042 -0.0087452716194 
0.0013530303986 0.0029924162664 0.0047900354257 0.0066928130109 0.008816568763 0.01113111712 0.013325968757 0.014853403671 0.014956403989 
0.013320289087 0.01049982477 0.007249226328 0.0042703141808 0.0021965204578 0.0011731805571 0.0023675387638 0.00083010357912 0.0034033420961 
-0.0016215083947 -0.0037290653563 -0.0054747513495 -0.0070497910492 -0.0079557145946 -0.0072815713938 -0.0057367491536 -0.0046560146147 -0.0043367744074 
-0.0043601815123 -0.0041932670865 -0.0038330304669 -0.0031586501282 -0.0016547484338 0.001115620973 0.0047134936904 0.0082949500065 0.011387581239 
0.013993234606 0.015290844487 0.014010143699 0.011381320888 0.0091090139467 0.0070761155803 0.0049334353535 0.0026393601438 0.0027801551623 
0.0024080042494 0.001697118234 -2.0639941795e-05 -0.0028124810342 -0.0059323752648 -0.008312994265 -0.0096479365602 -0.0099776254501 -0.0095381969586 
-0.0090619588736 -0.0085317874327 -0.0076297399355 -0.0067174740834 -0.005833503441 -0.0048933195649 -0.0025230917963 -0.0038102492108 -0.0017588838236 
-0.0010158283767 8.0388002971e-05 0.0020307554223 0.0033492595539 0.0045423767879 0.0052561582997 0.0056085560936 0.0058595628943 0.0061121566687 
0.0063476413488 0.0066242965404 0.0071729832562 0.0056459825719 0.0065790072549 0.0045141100418 0.002651446237 0.000747661275 -0.00080240110992 
-0.0021194199508 -0.0033675072482 -0.0045003939886 -0.0054066876182 -0.005970819504 -0.0061013044324 -0.0058953703847 -0.0054559365381 -0.0046948175877 
-0.0037478813902 -0.0022585477273 -0.0028167178389 -0.0015798454842 -0.0007873328359 0.00014870794985 0.0014902708353 0.0032878374332 0.0052239578217 
0.0070940194419 0.0087315030396 0.0097656133585 0.010067038937 0.010009895544 0.010106269969 0.010397602106 0.01136688632 0.008976443205 
0.0074526513927 0.0060048220912 0.0071938420879 0.0077049826505 0.0057352094445 0.0040384672466 0.0054873446934 0.0023524107819 -0.00030302034756 
-0.0015757391907 0.0014315973094 0.0029950100579 0.0046674438054 0.0064164011274 0.0083708617603 0.010505463928 0.012663898524 0.01459102123 
0.015406130347 0.014204438077 0.011752730934 0.0091368166031 0.0067334582563 0.0045922523132 0.0063210316002 0.003374003456 0.0052050438826 
0.0013227008981 -0.00074415884455 -0.0026283884654 -0.0041309389635 -0.0053674747469 -0.0060435803607 -0.0054895904614 -0.004265153897 -0.0030723144766 
-0.0026694920089 -0.0027095991827 -0.0027000838891 -0.0024810581235 -0.0019026409864 -0.00058575758158 0.0019472226049 0.0053403195343 0.0085188767407 
0.010862911819 0.012569034239 0.01323323464 0.011997443857 0.0097349709831 0.0077573278686 0.006159605924 0.0045494008227 0.0028167369601 
0.00087234890088 0.0012816324306 0.0005005850544 0.00013411101827 -0.00026435377367 -0.0011767002143 -0.0033806653228 -0.006071228534 -0.0080890906975 
-0.0090712667443 -0.0088248196058 -0.0090523448307 -0.0089564689746 -0.0085067893378 -0.0079957460985 -0.007656122325 -0.0073016200913 -0.0064100357704 
-0.0049486573553 -0.0022631470929 -0.0031150001159 -0.001431857956 -0.0093548065051 -0.0086310531478 -0.0075874113245 -0.007496766746 -0.0068009077804 
-0.005252028117 -0.0046153073199 -0.0042956194375 -0.0039359714719 -0.0038011429715 -0.0036437310046 -0.0029093309422 -0.0020117930835 -0.0010518713243 
0.00044904027527 2.2530977731e-05 0.00076258347326 0.0012757008008 0.0032952319598 0.0017596394755 0.0047994543565 0.0063350284472 0.0079898575787 
0.0097607951611 0.01161759696 0.013540954096 0.014764839085 0.013992102817 0.01158587914 0.01001752913 0.0084824181395 0.0037521906663 
0.00532872711 0.0065373420948 0.0025164688122 0.0012405121088 -0.00027536058042 -0.001920581708 -0.0031618696521 -0.0040631887503 -0.0048718848266 
-0.0045763233211 -0.0039231441333 -0.0033897996764 -0.0013877728634 -0.0017250642995 -0.0012669675343 -0.00097695815748 -0.00021793858286 0.0011721444753 
0.0033574168629 0.0059987501008 0.0081449336139 0.0093741394579 0.011034674477 0.010874766624 0.009785603499 0.0079040069832 0.0062966172118 
0.0051202134928 0.0040218487266 0.0027710240101 0.0015122187906 -0.002465810132 -0.0034206465352 0.011449852027 0.010929180076 -0.0037734084181 
-0.0058087069774 -0.0075934362831 -0.0084275365807 -0.0081925052218 -0.0079622913618 -0.0082750404254 0.0025104082306 0.003638719907 0.004256390559 
0.0046943341149 0.0052906621713 0.0060372838052 0.0068453876302 0.0074929514667 0.0083161806688 0.0074874245329 0.0072061813747 0.0064868265763 
0.0054028787417 0.0041880625649 0.0025163442479 0.00080266818759 -0.00047490284715 -0.0014457543584 -0.0025365928013 -0.0037339926348 -0.0047744534677 
-0.0054862066172 -0.0058056317503 -0.0057335867314 -0.0056033399887 -0.0051922771381 -0.0043553934083 -0.0034978640615 -0.0012121178042 -0.0019641300023 
-0.00041225705718 0.00036622765037 0.00089646248186 0.0019060372724 -0.0027580627066 -0.0017284604546 -0.00058603886282 -0.00098864048778 -0.0011127982095 
-0.0015824694419 -0.0020677466237 -0.0031932770507 -0.0047600972932 -0.006571078673 -0.0077401983241 0.0080671404721 0.0093012517318 0.0099626448937 
0.010041147936 0.0099730258808 0.011112138163 0.011827666545 0.012752215378 0.011675283002 0.011397766648 0.010589713231 0.0090939300135 
0.0073580434546 0.0074642015621 0.0051609296352 0.0066104808357 0.0037389807403 0.0020993250655 -0.0037439495791 -0.003235794371 -0.0028716493864 
0.0020217167214 0.0063285172218 0.0047046048567 0.0030469633348 0.0014814965489 0.00025311012178 -0.00045494121878 -0.00097529540653 -0.0017907991423 
-0.0029661988083 -0.0041066469857 -0.0048990155337 -0.0053507445846 -0.004809219623 -0.0053578861989 0.00060302203565 -0.0004110115151 0.0014257427683 
0.0031570217106 0.0038061223458 0.0044318061555 0.0054093087092 0.0066825991962 0.0078940164531 0.0083486195654 0.0093332475517 0.0092855524272 
0.0080204597907 0.0064164994983 0.0050980808446 0.0042139421566 0.0034363254672 0.0027384461525 0.011825156398 0.010987480637 0.009495199658 
-0.0016042655916 -0.0025029689229 -0.0028094468289 -0.0044791580876 -0.0046065653441 -0.0041932942695 -0.0038967540798 -0.0042163896724 0.013206156669 
0.0077492894294 0.0088210405083 0.010422805091 -0.0020103989518 0.012089175172 -0.0048620605376 -0.0048828619765 -0.0047145856079 -0.011616696604 
-0.0085741052171 -0.0014985387291 0.00010081029177 -9.8710879683e-05 -0.0054011590546 -0.0053934811149 -0.0042625969509 
Disp_X 1 1114 double
0 0 0.0027219781186 -0.0013957474148 0.004612472374 0.0017270620447 0 -0.0089596752077 0 
-0.02600589022 -0.012203121558 -0.039941728115 -0.0087954970077 -0.04249227047 0 -0.036923006177 0 -0.029922880232 
0 -0.022893466055 0 -0.016833337024 0 -0.013676988892 0 -0.011944478378 0 
-0.0096399206668 0 -0.0066923177801 0 -0.0039210817777 0 -0.0016879200703 0 2.4809118258e-05 
0 0.001361802686 0.00032794117578 0.003778450191 0 0.0060650520027 0 0.007329412736 0 
0.0075183962472 0 0.0057232240215 0 0.0037696878426 0 0.0044407797977 0 0.010985787958 
0 0.017498197034 0 0.020893612877 0 0.022061791271 0 0.021708019078 0 
0.021079333499 0 0.020143609494 0 0.018727129325 0 0.016755716875 0 0.014289993793 
0 0.011700184084 0 0.0078320754692 0 0.0025761015713 0 -0.0024677703623 0 
-0.0050303619355 0 -0.0044600842521 0 0 -0.0031178649515 -0.0067354557104 0 0.001277904259 
0 0.0055052833632 0 0.0085916882381 0 0.011780441739 0 0.015609588474 0 
0.019401473925 0 0.022680023685 0 0.02500716038 0 0.025720849633 0 0.024529349059 
0 0.022456264123 0 0.021098334342 0 0.020321011543 0 0.020270362496 0 
0.018463097513 0 0.014309263788 0 0.010693702847 0 0.011431218125 0 0.016522865742 
0 0.024090101942 0 0.032015230507 0 0.041054338217 0 0.050493426621 0 
0.032505534589 0 0.025173952803 0 0.018968708813 0 0.013478905894 0 0.0098572727293 
0 0.0059458059259 0 0.00090801564511 0 -0.0040344991721 0 -0.0078278919682 0 
-0.0039675734006 0 -0.0058925626799 -0.012408266775 -0.015552656725 -0.017563635483 -0.025794021785 -0.016222553328 -0.032342571765 
0 -0.03780842945 0 -0.03907212615 0 -0.04134177044 0 -0.044615168124 0 
-0.048245351762 0 -0.049297198653 0 -0.044011943042 0 -0.036454021931 0 -0.028108183295 
0 -0.02209783718 0 -0.018897060305 0 -0.017535934225 0 -0.015661515296 0 
-0.014294032939 0 -0.012054026127 0 -0.009916770272 0 -0.0077799810097 0 -0.0073552834801 
0 -0.0076809432358 0.0045860782266 0.0063613397069 -0.011145500466 -0.042722035199 -0.065072238445 -0.0716348961 -0.067439608276 
-0.056025922298 -0.040929120034 -0.027499116957 -0.020949833095 -0.018695428967 -0.014776980504 -0.0093966508284 -0.0049069249071 -0.0015561647015 
0.00037357801921 0.0022209293675 0.0054149329662 0.0094039710239 0.012742614374 0.013341830112 0.0097076632082 0.0040343194269 0.0085534714162 
0.01910385862 0.027733907104 0.032942667603 0.035404518247 0.035820260644 0.035563681275 0.034958351403 0.032966911793 0.029566532001 
0.025066932663 0.019840879366 0.013567849994 0.0066547258757 0.0002202410833 -0.0046236878261 -0.0061341822147 -0.0010091911536 -0.0011037667282 
-0.0076451920904 0.0055755609646 0.012442759238 0.019485577941 0.027218110859 0.035308539867 0.041135568172 0.043869938701 0.044107019901 
0.041362136602 0.037860818207 0.034918241203 0.033104985952 0.031864568591 0.028485938907 0.022242609411 0.018390610814 0.020084945485 
0.027176285163 0.038350448012 0.052006691694 0.066000774503 0.079101607203 0.043226506561 0.048726093024 0.031654428691 0.017954111099 
0.0091188848019 0.0035896939225 -0.00095868797507 -0.005879404489 -0.0086574219167 -0.0060491655022 -0.009882866405 -0.019959636033 -0.031385704875 
-0.041349519044 -0.04963388294 -0.054693143815 -0.058329716325 -0.065616212785 -0.075240805745 -0.079915329814 -0.074458904564 -0.061234563589 
-0.045621652156 -0.033733446151 -0.028078695759 -0.025616832078 -0.023295190185 -0.02068253234 -0.017352962866 -0.01445876807 -0.012408169918 
-0.012948416173 -0.013809459284 -0.01238720119 0.067448072135 0.088761262596 -0.089595243335 -0.073986306787 -0.096442982554 -0.091252140701 
-0.07628788799 -0.056067124009 -0.036866758019 -0.026210978627 -0.022896615788 -0.018148278818 -0.010783979669 -0.004679386504 -0.0012675733306 
9.9628101452e-05 0.0016617981018 0.0061779646203 0.012163073756 0.017005797476 0.018309110776 0.015097678639 0.0089549599215 0.025304561481 
0.01484162081 0.034273676574 0.040178246796 0.043404191732 0.044758088887 0.045336730778 0.045492585748 0.044000640512 0.040217429399 
0.034424755722 0.027212992311 0.019297229126 0.01000537537 0.00067294063047 -0.0061718202196 -0.0056616771035 0.0018786834553 0.011235466227 
0.0080651529133 0.0070390095934 0.0066804918461 0.064220577478 0.08651740849 0.047590859234 0.023625548929 0.0066624633037 -0.0018017361872 
-0.0046145264059 -0.0069864583202 -0.0083079133183 -0.013371155597 -0.007965114899 -0.022946691141 -0.033770065755 -0.044920489192 -0.054575074464 
-0.060263875872 -0.066519729793 -0.079860985279 -0.096492782235 -0.10453345627 -0.098270595074 -0.080534905195 -0.060121446848 -0.041892208159 
-0.032317947596 -0.028146181256 -0.024854736403 -0.021228216588 -0.017715485767 -0.014798537828 -0.012937443331 -0.014808674343 -0.017182694748 
-0.015904815868 -0.010302297771 -0.0025340844877 0.0057255476713 0.014566512778 0.024987285957 0.036638528109 0.048127125949 0.056028291583 
0.059257481247 0.058535452932 0.054168500006 0.048054393381 0.04328705743 0.040196936578 0.037688080221 0.032269001007 0.023487668484 
0.019702447578 0.022216318175 0.031619232148 0.046917408705 0.064713291824 0.079789616168 0.094198420644 0.10399528593 0.10498845577 
0.06775200367 0.095935992897 -0.0076540336013 -0.0082812551409 0.013008789159 0.0090424176306 0.020940810442 0.030049471185 0.038166195154 
0.04406574741 0.047698035836 0.049732778221 0.051068667322 0.052224494517 0.051492057741 0.048050135374 0.041703887284 0.032567054033 
0.023398410529 0.014097601175 -0.0093672778457 -0.0049389428459 -0.0066904323176 0.0029398985207 0.011820611544 0.0089032063261 -0.11153338104 
-0.097646817565 -0.11676254123 -0.1096394062 -0.092111796141 -0.068928748369 -0.046655640006 -0.032322928309 -0.025920182467 -0.020013960078 
-0.010183385573 -0.0033731164876 -0.0012267990969 -0.0013791926904 0.00046460123849 0.0068788523786 0.015480506234 0.022372111678 0.025334998965 
0.023818779737 0.018807370216 0.013933068141 0.012108970433 0.012531585991 0.013149051927 0.017495075241 -0.061163507402 -0.083079650998 
-0.055032808334 -0.072659619153 -0.00025192392059 0.0041097924113 0.02920012176 0.0056301415898 -0.006390674971 -0.008851069957 -0.0088450433686 
-0.008559669368 -0.0083644436672 -0.0077670998871 -0.0078418543562 -0.0075301905163 -0.0095313917845 -0.014583816752 -0.023286802694 -0.033286601305 
-0.043860726058 -0.053210470825 -0.059102036059 -0.070499747992 -0.091361775994 -0.11264365166 -0.12284421921 -0.11684653908 -0.09663580358 
-0.072465017438 -0.049713429064 -0.035897679627 -0.028979551047 -0.024163387716 -0.019830092788 -0.01643203944 -0.014084016904 -0.012820527889 
-0.01528510917 -0.019885839894 -0.017721742392 -0.012289540842 -0.0044268644415 0.0043191886507 0.014852571301 0.027986321598 0.04307801649 
0.057071916759 0.066357143223 0.070197597146 0.068349592388 0.062707304955 0.055201619864 0.048805903643 0.04434004426 0.041007041931 
0.036947660148 0.019320994616 0.021435841918 0.023399598897 0.035803809762 0.055347632617 0.07434169203 0.085351116955 0.097623355687 
0.10895213485 0.11372686177 0.10900045931 0.080372855067 0.096170954406 0.055707596242 0.025090742856 0.0027844873257 -0.0088041005656 
-0.011179726571 -0.010267272592 0.11169970781 0.10284286737 0.11126146466 0.10219599307 0.078344866633 0.085988387465 0.061750009656 
0.039326760918 0.014978271909 -0.0052788094617 -0.012409076095 -0.012886459008 -0.010029189289 0.027574762702 0.033479146659 0.025063976645 
0.033406224102 0.041035622358 0.046909376979 0.050744690001 0.053293753415 0.05525746569 0.056795332581 0.056947510689 0.054539568722 
0.048013202846 0.037507858127 0.02619734779 0.015937834978 0.0069347550161 -0.0051350416616 -0.00047199457185 -0.0099479556084 -0.013559779152 
-0.012369124219 -0.0070692715235 0.0032290902454 0.0093620130792 0.0049026240595 -0.0064579229802 -0.01001068484 -0.031014654785 -0.032429471612 
-0.056720044464 -0.078706167638 -0.097364254296 -0.11539641768 -0.12895803154 -0.13331522048 -0.12540720403 -0.10657533258 -0.081589944661 
-0.056601766497 -0.039171781391 -0.028885558248 -0.021484576166 -0.013679291122 -0.0026362207718 -0.0020277353469 -0.0036501220893 -0.00015959185839 
0.009378021583 0.021385092288 0.030842883512 0.035367246717 0.035979032516 0.033986393362 0.029418038204 0.024942170829 0.021312193945 
0.015426871367 0.019441019744 0.016034774482 0.020667707548 -0.0041836746968 -0.0072938189842 -0.0080498429015 -0.0086347414181 -0.0072654993273 
-0.0071939984336 -0.0076772174798 -0.0084175709635 -0.010264457203 -0.013727374375 -0.020645642653 -0.029519757256 -0.039214551449 -0.048046287149 
-0.056520488113 -0.073905445635 -0.10009899735 -0.12578237057 -0.13757516444 -0.13138416409 -0.11010497808 -0.084194660187 -0.058207955211 
-0.040377244353 -0.030792623758 -0.023784158751 -0.018605113029 -0.015066493303 -0.01327740401 -0.01291573979 -0.015537652187 -0.020146032795 
-0.01406328287 -0.019157508388 -0.0062031303532 0.0025535945315 0.013984681107 0.02948210761 0.04675475508 0.062641374767 0.073576971889 
0.078028455377 0.074983283877 0.067487873137 0.059305693954 0.052554305643 0.046990655363 0.04303380847 0.039579350501 0.038502417505 
0.02982901223 0.036715254188 0.023815644905 0.019564703107 0.018689511344 0.024032821879 0.039718002081 0.065235152841 0.088591881096 
-0.023051887751 -0.02387117222 -0.0090952599421 -0.0080086626112 -0.0065424302593 -0.006712670438 -0.0070499801077 -0.0078691756353 -0.0084671834484 
-0.0093995016068 -0.011296788231 -0.016608685255 -0.024225972593 -0.033285785466 -0.042679850012 -0.055236779153 -0.075596965849 -0.10413481295 
-0.13669355214 -0.14844685793 -0.14129385352 -0.12006547302 -0.092950284481 -0.066613644361 -0.046421807259 -0.034082442522 -0.025101037696 
-0.018496533856 -0.014393771999 -0.01277506724 -0.013171617873 -0.015864158049 -0.019948013127 -0.023522978649 -0.026360664517 -0.026183836162 
-0.02409324795 -0.020027443767 -0.014976738952 -0.0070872455835 0.001502449275 0.013382874429 0.029008021578 0.046323515475 0.062856249511 
0.075870119035 0.082085639238 0.076066315174 0.067659921944 0.060150101781 0.053976900876 0.048475913703 0.043489396572 0.043169610202 
0.0343949534 0.042402196676 0.025913028046 0.020535130054 0.018715981394 0.018111042678 0.023663789034 0.039908152074 0.074854470789 
0.027853563428 0.035924527794 0.04346087575 0.049413926899 0.053365394473 0.056239116937 0.058379307389 0.059832204133 0.061214566231 
0.060135826468 0.053717736155 0.042245551944 0.029176367447 0.017541570589 0.0096293278039 0.0046931062825 -0.0079989433289 -0.0018027856713 
-0.012499473989 -0.015675639734 -0.018310742453 -0.015413457528 -0.0075578116812 0.0016138304491 0.0057441079989 0.00075366062811 -0.013955165632 
-0.036245826632 -0.060838289559 -0.085197478533 -0.10742607713 -0.12738241255 -0.14157612622 -0.14552515745 -0.13691490889 -0.11710733175 
-0.090622134507 -0.063684329391 -0.04393478483 -0.030816389248 -0.02146948874 -0.014442556538 -0.0090758586302 -0.0042230174877 -0.0057331291027 
-0.0029769148678 -0.0036132310051 -0.0058127064258 -0.0062068342231 0.0012996436562 0.015391561203 0.031085196882 0.043725445867 0.049107685685 
0.050034191459 0.050818733871 0.049188960344 0.044034276158 0.036482471973 0.027802430093 0.018763657659 0.021733522415 0.01728451252 
0.018268389627 0.022472705692 -0.0084785465151 -0.0088718906045 -0.012874935754 -0.019667908549 -0.02846881561 -0.038390498608 -0.052554074675 
-0.072916649282 -0.098319903016 -0.12346589565 -0.14668111503 -0.1548730582 -0.1270584166 -0.10072919726 -0.074722394347 -0.053028739989 
-0.038450315595 -0.027444045991 -0.019346605986 -0.014385895804 -0.012626315467 -0.012997676618 -0.015188403428 -0.01894270815 -0.021459836513 
-0.023808639497 -0.026749214157 -0.02570842579 -0.025443399325 -0.022906195372 -0.020486572757 -0.015551135875 -0.008078658022 -1.683633127e-05 
0.010622364469 0.024770054966 0.042412478477 0.059234451503 0.071907348931 0.078522264957 0.065153352916 0.070897914469 0.059294816107 
0.054259385914 0.048864990473 -0.15065421164 -0.14229415357 0.049081981182 0.041578192264 0.049366991967 0.031719755381 0.020292306319 
0.017667269334 0.029721686617 0.038146939129 0.045612618327 0.051499050111 0.055322110653 0.058337643743 0.060519888997 0.06175377965 
0.063941121101 0.064979545772 0.059028554708 0.046288881451 0.030065476894 0.015433141962 0.011955626309 -0.0070369457826 0.00025223472039 
-0.014231478795 -0.018899682909 -0.020506726578 -0.021289905533 -0.017370948568 -0.0098216319457 -0.0022148748394 0.00094945920864 -0.0043129147962 
-0.018880330026 -0.040431067348 -0.064586803317 -0.089705228806 -0.11364210397 -0.1346412003 -0.14915296435 -0.15316423774 -0.14474831522 
-0.12443933636 -0.096316210926 -0.068304426968 -0.045935038477 -0.031671386212 -0.021211177111 -0.014038190246 -0.0095106856897 -0.0067593520507 
-0.0049622301012 -0.0054466156289 -0.0046202712692 -0.0051342635415 -0.0075603323057 -0.0098103331402 -0.0075656566769 0.0056240148842 0.024271275848 
0.042249698192 0.063070513308 0.064601793885 0.061222568154 0.066517196596 0.069740585983 0.065521731973 0.054683517665 0.040120512247 
0.026939533651 0.01871994324 0.018727546558 0.019010670483 0.098048120737 0.10328119248 0.098043017089 0.084961295128 0.066692553461 
0.058411173522 0.041632894427 0.02419385314 0.004079577513 -0.012308714911 -0.015497224405 -0.012460307218 -0.010174354538 -0.007960954681 
-0.0058201621287 -0.0058754947968 -0.0062406370416 -0.0073394184001 0.039824616164 0.030951350927 0.047181963921 0.052816927433 0.056250020862 
0.059182517231 0.061303928494 0.06253991276 0.065073557198 0.069223448634 0.066697902977 0.050385657698 0.031687464565 -0.0067231692374 
-0.00012970327225 0.0079806186259 -0.012746566907 -0.01854201965 -0.02203306742 -0.023916477337 -0.023339917883 -0.019710551947 -0.012724111788 
-0.0067021800205 -0.0044226078317 -0.006140475627 -0.043946716934 -0.025654617697 -0.066124513745 -0.091315641999 -0.11564468592 -0.13747324049 
-0.15238164365 -0.15729478002 -0.14995454252 -0.12785623968 -0.069875746965 -0.096811443567 -0.047572683543 -0.032358147204 -0.021112855524 
-0.01380365435 -0.008974683471 -0.0070270579308 -0.0058046933264 -0.014084197581 -0.0098105212674 0.07782793045 0.078467801213 0.020925758407 
0.033752050251 0.055613461882 0.075484335423 0.086444534361 0.086203791201 0.078343510628 -0.0072579835542 -0.0096047511324 -0.015342725441 
-0.024104759097 -0.034796275198 -0.049700990319 -0.06799916923 -0.08917221427 -0.10846635699 -0.15411537886 -0.15547397733 -0.15714778006 
-0.14997427166 -0.13276927173 -0.10855427384 -0.083097323775 -0.059525523335 -0.042358096689 -0.02916751802 -0.019850689918 -0.01435658522 
-0.01241631154 -0.012416606769 -0.01409369614 -0.017257751897 -0.019636923447 -0.021332634613 -0.022819170728 -0.025813214481 -0.026860594749 
-0.02367470786 -0.021182052791 -0.019257331267 -0.015019855462 -0.014261675067 -0.0095755811781 -0.0064650997519 -0.007006754633 -0.0077180149965 
-0.011137856171 -0.012956094928 -0.0063172527589 0.01690919511 0.037950120866 0.049524068832 0.02040297538 0.037287194282 0.054455921054 
0.067281216383 0.074384994805 0.075294986367 0.073016986251 0.071898452938 0.072057887912 0.067275956273 0.062939718366 0.058754757047 
0.054332122207 0.055729035288 0.048360943794 0.053629308939 0.0407105349 0.031195448712 0.011732243001 -0.0040692971088 -0.014811902307 
-0.0063732308336 -0.15821881592 -0.15214726329 -0.13655766845 -0.11413262039 -0.08936110884 -0.064458094537 -0.04436866194 -0.028900401667 
-0.018362883478 -0.013011481613 -0.01148655545 -0.011657808907 -0.018941892311 -0.018724709749 -0.021446932107 -0.024244671687 -0.018076555803 
-0.008279771544 -0.013531599194 -0.021756377071 -0.032545953989 -0.048415794969 -0.065831117332 -0.08093316108 -0.089341104031 -0.068036854267 
-0.047976315022 -0.032316595316 -0.021149115637 -0.013358221389 -0.0086638173088 -0.0066656796262 0.066132865846 0.062609918416 0.059562508017 
-0.025481615216 -0.02542556636 -0.024379491806 -0.010271443985 -0.014492156915 -0.008151373826 -0.0079410867766 -0.0096684331074 0.065593570471 
0.056359950453 0.058781106025 0.060972206295 -0.011665692553 0.062732845545 -0.0121233752 -0.015463688411 -0.010346984491 -0.0073274774477 
-0.033828567713 -0.0091432249174 0.023394668475 0.022333940491 -0.016085250303 -0.013086644933 -0.019560793415 
Disp_Y 1 1114 double
0 0 0.018046269193 0.016823578626 0.01772323437 0.011764293537 0 0.0024259889033 0 
-0.010695533827 -0.011580999941 -0.015208617784 -0.012669024058 -0.018593728542 0 -0.016911007464 0 -0.013327909634 
0 -0.010727207176 0 -0.0066989092156 0 -0.0039486973546 0 -0.0022753728554 0 
-0.0010070645949 0 0.001119716675 0 0.0032731869724 0 0.0047979648225 0 0.0052394950762 
0 0.0059136394411 0.0063071516342 0.0055532124825 0 0.0033083567396 0 0.0024578343146 0 
0.00300237583 0 0.0046792584471 0 0.0060438462533 0 0.0043775103986 0 0.0018979483284 
0 -0.00038978399243 0 -0.0021177674644 0 -0.0034685232677 0 -0.0045482548885 0 
-0.0059199929237 0 -0.0068725738674 0 -0.0083641801029 0 -0.0085205351934 0 -0.0094115706161 
0 -0.0091945193708 0 -0.0075891069137 0 -0.0057248980738 0 -0.0012596587185 0 
0.0047274255194 0 0.011251041666 0 0 -0.014020763338 -0.011668516323 0 -0.01391883567 
0 -0.015025882982 0 -0.014044973068 0 -0.011599670164 0 -0.011196918786 0 
-0.010112075135 0 -0.0093377800658 0 -0.010337212123 0 -0.0099288336933 0 -0.011816617101 
0 -0.0099783297628 0 -0.0084311952814 0 -0.0059908740222 0 -0.006325930357 0 
-0.0062173921615 0 -0.0064531709068 0 -0.0066514173523 0 -0.0066306232475 0 -0.0057895747013 
0 -0.0051593086682 0 -0.0024526808411 0 0.0023549799807 0 0.0096596898511 0 
0.0093815401196 0 0.010787389241 0 0.0070560504682 0 0.0021827376913 0 -0.0018825192237 
0 -0.0035817052703 0 -0.0037064889912 0 -0.0040498687886 0 -0.0054327128455 0 
-0.0036671052221 0 -0.0058068172075 -0.016795832664 -0.010434144177 -0.01963554509 -0.015252037905 -0.020141890272 -0.015978133306 
0 -0.014687317424 0 -0.013310697861 0 -0.013446029276 0 -0.011869237758 0 
-0.0099226022139 0 -0.0075170453638 0 -0.0070153400302 0 -0.006633293815 0 -0.0068113952875 
0 -0.0080412114039 0 -0.0082926144823 0 -0.0085256984457 0 -0.0075015826151 0 
-0.0089393770322 0 -0.00984255597 0 -0.01105396729 0 -0.012359749526 0 -0.012537346222 
0 -0.012817471288 0.015777502209 0.026061654091 -0.00081328197848 -0.020146816969 -0.029509322718 -0.032847963274 -0.030757950619 
-0.025718640536 -0.018953762949 -0.011804478243 -0.0053166206926 -0.0012948368676 0.0014713071287 0.0041088121943 0.0065603284165 0.0080041354522 
0.008027930744 0.0064000324346 0.0031665763818 0.00025850854581 -0.00091576093109 -0.00031890533864 0.0021265500691 0.0056817354634 0.0045603718609 
0.0011646482162 -0.001478401944 -0.0035191390198 -0.0051185386255 -0.0067040687427 -0.0089885443449 -0.010734557174 -0.012797142379 -0.014680943452 
-0.015952656046 -0.015088847838 -0.012139648199 -0.0083119450137 -0.0015983425546 0.0063905450515 0.015344544314 0.024805275723 -0.020850814879 
-0.019930804148 -0.021855890751 -0.022326555103 -0.021659851074 -0.020054975525 -0.018307840452 -0.016994638368 -0.017627190799 -0.016362817958 
-0.015180132352 -0.013953637332 -0.011230038479 -0.008682529442 -0.0076769310981 -0.0077255987562 -0.0086324810982 -0.009467673488 -0.0096311457455 
-0.0086946059018 -0.0058914409019 -0.00035240629222 0.0047634472139 0.0091638779268 0.0155711025 0.01377374772 0.012734004296 0.008108207956 
0.0014245805796 -0.002804802265 -0.0037499291357 -0.0036198135931 -0.0036606581416 -0.0035243236925 -0.0047705993056 -0.007220222149 -0.010959064588 
-0.014044023119 -0.017740793526 -0.019382216036 -0.01849103719 -0.015245480463 -0.012470833957 -0.011072851717 -0.0093946196139 -0.0093198241666 
-0.0087951635942 -0.010257073678 -0.011917283759 -0.012923376635 -0.013223130256 -0.014541771263 -0.015809198841 -0.017205666751 -0.018737830222 
-0.019427772611 -0.019340844825 -0.018658261746 0.014184191823 0.012094505131 -0.041921880096 -0.036350123584 -0.043902922422 -0.041015978903 
-0.033235978335 -0.023515889421 -0.014491754584 -0.006291479338 -0.00063764798688 0.0029954442289 0.0061079720035 0.0084209032357 0.0094586182386 
0.00816995278 0.0040564797819 -0.0014627070632 -0.0062165716663 -0.0086020110175 -0.0083728311583 -0.0062081399374 -0.0024352979381 -0.00056343665347 
0.0019189870218 -0.0031306955498 -0.0051585524343 -0.0067265569232 -0.0084149688482 -0.010653888807 -0.013390210457 -0.016564242542 -0.019431559369 
-0.021252160892 -0.021104160696 -0.019040770829 -0.016457958147 -0.007080017589 0.0029294204433 0.014586877078 0.024648206308 0.025313910097 
0.014286561869 0.0026452110615 -0.0011614472605 0.015638366342 0.011403424665 0.015654746443 0.012783152983 0.0060547455214 -0.0003250905138 
-0.0032212862279 -0.0032880660146 -0.002493693959 -0.0041701328009 -0.0030752790626 -0.0059291427024 -0.0087988246232 -0.01281181071 -0.017654586583 
-0.0208371263 -0.018903994933 -0.015037010424 -0.015466844663 -0.015465150587 -0.013150011189 -0.010792749934 -0.0084616998211 -0.010159912519 
-0.012677646242 -0.014772319235 -0.016007268801 -0.017245251685 -0.018384631723 -0.019603725523 -0.021152801812 -0.022249577567 -0.022738061845 
-0.022843781859 -0.02407916449 -0.025594135746 -0.026742735878 -0.026929395273 -0.026373185217 -0.024670284241 -0.022879512981 -0.021643925458 
-0.020192662254 -0.018504939973 -0.016664577648 -0.015190047212 -0.012788970955 -0.010260148905 -0.0088837733492 -0.0090015204623 -0.010179282166 
-0.011284317821 -0.011220618151 -0.0091845784336 -0.004971915856 0.00087900983635 0.0044452822767 0.007001131773 0.0071486691013 0.0039667375386 
0.0083862449974 -0.0012996452861 -0.0026832954027 -0.0021935373079 0.00024504054454 -0.0018346017459 -0.00068640656536 -0.0027288247366 -0.0051132440567 
-0.0073185828514 -0.0091181742027 -0.010691007599 -0.012835318223 -0.015830824152 -0.019324572757 -0.023412225768 -0.026269217953 -0.027142867446 
-0.026311060414 -0.025443462655 -0.0012238160707 -0.011569116265 0.010213530622 0.019003435969 0.019262161106 0.0094245495275 -0.048407174647 
-0.043998610228 -0.049255702645 -0.046044796705 -0.038113396615 -0.027191670612 -0.016431985423 -0.0077723045833 -0.0013599788072 0.0025825724006 
0.0062761795707 0.0094001237303 0.0095162475482 0.0057904245332 -0.0013836934231 -0.009510518983 -0.015978779644 -0.019659422338 -0.019353348762 
-0.017020983621 -0.013678906485 -0.010028692894 -0.0086280964315 -0.0035225790925 -0.0080497376621 -0.0019530643476 -0.031758848578 -0.037931825966 
-0.028872894123 -0.034005973488 -0.02005013451 -0.026035446674 0.009340970777 0.0058494433761 0.00090919277864 -0.0025087092072 -0.003215678269 
-0.0028231537435 -0.0024956855923 -0.0024520941079 -0.0028905984946 -0.0026803482324 -0.0036438971292 -0.0050735045224 -0.0067620677873 -0.0092512797564 
-0.012819568627 -0.017074374482 -0.01873501949 -0.016396660358 -0.015226285905 -0.017974821851 -0.020012132823 -0.017844688147 -0.013932428323 
-0.0096930759028 -0.009861510247 -0.011688827537 -0.01425555069 -0.015903215855 -0.017312614247 -0.01865501143 -0.019885122776 -0.021243281662 
-0.022674417123 -0.024272779003 -0.025572346523 -0.027065420523 -0.028520509601 -0.0295626726 -0.029574025422 -0.028662705794 -0.027471099049 
-0.02628833428 -0.025107396767 -0.022976111621 -0.020683499053 -0.018025027588 -0.015700561926 -0.013286449946 -0.011328661814 -0.0098243216053 
-0.0093415379524 -0.011615742929 -0.01096007321 -0.011095374823 -0.0084778498858 -0.0038833888248 0.00095412187511 0.0034792642109 0.0035054096952 
0.0013007810339 -0.0029431751464 -0.008441506885 -0.0091851959005 -0.014442205429 -0.0031523026992 0.00018731028831 -2.5810404622e-05 -0.0015695830807 
-0.003198368242 -0.0035397554748 -0.0084024844691 -0.0032776836306 -0.013955825008 -0.019119527191 -0.019790330902 -0.023407921195 -0.016282239929 
-0.012460903265 -0.0091940462589 -0.0074375919066 -0.0055095725693 -0.0047529037111 -0.004186028149 -0.0099317291752 -0.0091746095568 -0.0026454890613 
-0.0045664310455 -0.0070110708475 -0.0094345556572 -0.011438124813 -0.013142611831 -0.01509838365 -0.017745727673 -0.021444521844 -0.026333579794 
-0.030437588692 -0.032205782831 -0.031835637987 -0.030635837466 -0.030111756176 -0.02715588361 -0.030473137274 -0.022469703108 -0.0154849682 
-0.0055718603544 0.0045082345605 0.010791868903 0.0099205719307 0.0026029057335 -0.005299565848 -0.008748463355 -0.018608622253 -0.019678400829 
-0.028410336003 -0.035171017051 -0.040775392205 -0.046541929245 -0.050784014165 -0.051505338401 -0.04835922271 -0.041311912239 -0.03069717437 
-0.01926532574 -0.010005014949 -0.0039473809302 -0.00010799001029 0.0020694939885 0.0071695181541 0.0089938286692 0.00037405485637 -0.009603719227 
-0.019639728591 -0.02682549879 -0.030885731801 -0.029892109334 -0.027566300705 -0.024282058701 -0.020323196426 -0.018110217527 -0.014903486706 
-0.0082047991455 -0.011347336695 -0.0049952762201 -0.003463415429 0.0064800702967 0.0023167878389 -0.0039154659025 -0.0033820753451 -0.0039458349347 
-0.0048742303625 -0.0034637148492 -0.0037829028443 -0.005047280807 -0.0067028547637 -0.0084456754848 -0.010672497563 -0.013266793452 -0.015786187723 
-0.015740880743 -0.013953560963 -0.016164703295 -0.022046398371 -0.025034260005 -0.022637084126 -0.017118537799 -0.011002723128 -0.010011673905 
-0.010297682136 -0.012263228185 -0.013904726133 -0.015693183988 -0.017357150093 -0.018788188696 -0.020264005288 -0.021910205483 -0.023641100153 
-0.029105585068 -0.02762860246 -0.030338134617 -0.031422544271 -0.031919565052 -0.032138023525 -0.031744211912 -0.030165743083 -0.027916511521 
-0.025568939745 -0.022761996835 -0.01944293268 -0.015993477777 -0.013295981102 -0.011464886367 -0.010108130984 -0.0095033254474 -0.009095533751 
-0.0086454106495 -0.0082476735115 -0.0095205558464 -0.010579900816 -0.011132479645 -0.010427112691 -0.0080097410828 -0.0040925629437 0.00039247106179 
-0.026403378695 -0.025131823495 -0.0049513485283 -0.0060115256347 -0.0061854012311 -0.0067780623212 -0.0053793843836 -0.0049040568992 -0.0048861461692 
-0.0061666620895 -0.0079186698422 -0.0094827385619 -0.011394843459 -0.013088584878 -0.014115385711 -0.014292586595 -0.015190533362 -0.02015293017 
-0.029107877985 -0.030293045565 -0.027738077566 -0.020533157513 -0.012905668467 -0.010075435042 -0.0090669868514 -0.010293456726 -0.011858907528 
-0.013671703637 -0.015569302253 -0.017385356128 -0.019161434844 -0.02104611136 -0.022713625804 -0.024036753923 -0.026426551864 -0.025130212307 
-0.027440592647 -0.028706276789 -0.030077660456 -0.031420540065 -0.033038139343 -0.034629561007 -0.035978566855 -0.035749465227 -0.033831980079 
-0.030812839046 -0.027729470283 -0.023698838428 -0.019681209698 -0.015648785979 -0.012579040602 -0.010797599331 -0.0096107861027 -0.0087753133848 
-0.0071151689626 -0.007921308279 -0.007603529375 -0.0088345846161 -0.0097435982898 -0.0098289977759 -0.0096029918641 -0.008705355227 -0.0082778604701 
-0.0039448500611 -0.005611393135 -0.0081116268411 -0.010652881116 -0.012814158574 -0.014599062502 -0.01646688208 -0.018591590226 -0.022055435926 
-0.027567695826 -0.032912474126 -0.035701688379 -0.035499349236 -0.033888928592 -0.032505616546 -0.033644493669 -0.031262822449 -0.035179391503 
-0.027862407267 -0.023579090834 -0.018175598234 -0.010338929482 -0.0025855447166 0.0014189650537 0.00039621905307 -0.0052039134316 -0.012294827029 
-0.020462494344 -0.027450866997 -0.034090742469 -0.04016527161 -0.046251624823 -0.050969980657 -0.052278261632 -0.050083775073 -0.044199571013 
-0.034820273519 -0.023351335898 -0.013314371929 -0.0071318703704 -0.0034084299114 -0.0015181057388 -0.0011663316982 0.0012947723735 -0.001838077791 
0.0044177025557 0.0053678094409 0.0016733204247 -0.0076262708753 -0.018324291334 -0.027487572283 -0.033433787525 -0.036606505513 -0.035471104085 
-0.033045455813 -0.030340500176 -0.027619374916 -0.024385476485 -0.020055606961 -0.014286558144 -0.0087224626914 -0.0099698174745 -0.0078091640025 
-0.0056042671204 -0.0041845883243 -0.0065144374967 -0.0082503575832 -0.0095441238955 -0.011163167655 -0.012512613088 -0.013250655495 -0.014163736254 
-0.016779836267 -0.023157306015 -0.032026782632 -0.032980773598 -0.036741435528 -0.025129467249 -0.017265079543 -0.012063474394 -0.0092787910253 
-0.0098929833621 -0.011190014891 -0.012741295621 -0.014585244469 -0.016401825473 -0.018338734284 -0.019979255274 -0.021642496809 -0.022559156641 
-0.023218562827 -0.025837700814 -0.024129511788 -0.026923578233 -0.027940647677 -0.029283605516 -0.030519079417 -0.032295383513 -0.034372389317 
-0.036667041481 -0.038800008595 -0.039179541171 -0.037659253925 -0.034815706313 -0.031333174556 -0.018553622067 -0.022474560887 -0.014793745242 
-0.011835793965 -0.010010104626 -0.037988457829 -0.040378835052 -0.0094224773347 -0.0070708715357 -0.0087278019637 -0.0058247847483 -0.0061029074714 
-0.0083960928023 -0.0044874241576 -0.0060122008435 -0.0084699261934 -0.01089911256 -0.012948894873 -0.014605845325 -0.016323501244 -0.018014447764 
-0.021192131564 -0.02733948268 -0.0340430215 -0.037892889231 -0.038504905999 -0.036595989019 -0.039853248745 -0.034858379513 -0.037376716733 
-0.031923562288 -0.028645733371 -0.024663640186 -0.020237086341 -0.014871166088 -0.010031374171 -0.0073851333 -0.0079902773723 -0.011760684662 
-0.014813860878 -0.019777292386 -0.024992350489 -0.030855221674 -0.037227876484 -0.043660644442 -0.04885256663 -0.051330443472 -0.050041083246 
-0.044596429914 -0.036133050919 -0.026020424441 -0.01633734256 -0.010056809522 -0.0064544603229 -0.0043518515304 -0.0038083384279 -0.0043487185612 
-0.0034159650095 -0.0053855166771 -0.00094027625164 0.0009184925002 -0.00049391383072 -0.0060764783993 -0.016188142821 -0.02565680258 -0.031070452183 
-0.033624842763 -0.034213390201 -0.034581258893 -0.034178636968 -0.032024580985 -0.030453076586 -0.02641431056 -0.020794605836 -0.015162260272 
-0.010591591708 -0.0063083907589 -0.0076523572206 -0.0057984828018 -0.013959862292 -0.019273983315 -0.024203702807 -0.029399350286 -0.028880164027 
-0.024535661563 -0.022241391242 -0.01866854541 -0.016176708043 -0.012914230116 -0.0084790252149 -0.0062579028308 -0.0070412443019 -0.0073895929381 
-0.0071291122586 -0.0065226331353 -0.0072849248536 -0.0069006686099 -0.0060697183944 -0.004476161208 -0.0083588594571 -0.01050616242 -0.012283352204 
-0.013605520129 -0.015199963003 -0.0168054346 -0.019670946524 -0.026115134358 -0.035905100405 -0.041121829301 -0.042171660811 -0.03340389207 
-0.03499859944 -0.037495855242 -0.032998263836 -0.031383421272 -0.028632152826 -0.025690505281 -0.022247117013 -0.019192306325 -0.015357682481 
-0.013200029731 -0.013073357753 -0.013354527764 -0.017351984978 -0.015302276239 -0.020531032234 -0.025839777663 -0.032183777541 -0.039234519005 
-0.045532383025 -0.049014151096 -0.048178330064 -0.041651889682 -0.025547834113 -0.033807259053 -0.017785796896 -0.012201703154 -0.0088122412562 
-0.006700810045 -0.0058313980699 -0.0059739933349 -0.0067086881027 -0.014476154931 -0.01430145558 -0.025918750092 -0.028103386983 -0.0089508350939 
-0.01013093628 -0.013360670768 -0.018300732598 -0.024001859128 -0.028487473726 -0.032627996057 -0.0080900816247 -0.0090915337205 -0.010536139831 
-0.0119035393 -0.01301452145 -0.014744590037 -0.018146589398 -0.024445515126 -0.032050419599 -0.045342259109 -0.042085137218 -0.0415051952 
-0.037574447691 -0.029747834429 -0.021302359179 -0.015169141814 -0.011442830786 -0.011232445948 -0.011934117414 -0.012969487347 -0.014199263416 
-0.015584046021 -0.017154179513 -0.018613733351 -0.020143046975 -0.021064640954 -0.021476715803 -0.021965710446 -0.026639342308 -0.025331318378 
-0.027815110981 -0.028834123164 -0.029543301091 -0.030719740316 -0.0093423491344 -0.0076884967275 -0.0055139483884 -0.0039514708333 -0.0024844014551 
-0.0054976264946 -0.012393526733 -0.020932106301 -0.026402423158 -0.028839860111 -0.030730325729 -0.040888208896 -0.042534645647 -0.041512139142 
-0.038376696408 -0.034178301692 -0.031384885311 -0.023644467816 -0.024486005306 -0.023537011817 -0.020637989044 -0.017091352493 -0.013967753388 
-0.011297468096 -0.010846649297 -0.0082768416032 -0.010118401609 -0.0063442080282 -0.0047452100553 -0.022378163412 -0.02003948018 -0.013314967044 
-0.0075244531035 -0.045737244189 -0.041767317802 -0.034457329661 -0.026501979679 -0.020183401182 -0.01551971212 -0.013961165212 -0.013722879812 
-0.013852389529 -0.014256265946 -0.015086587518 -0.016373954713 -0.020202297717 -0.020313734189 -0.029627399519 -0.027874216437 -0.030611177906 
-0.0081199621782 -0.0094274599105 -0.011079682037 -0.01298417151 -0.015977075323 -0.019905716181 -0.024211792275 -0.028545815498 -0.0227904208 
-0.017341677099 -0.013031299226 -0.010254490189 -0.0083043491468 -0.0072937584482 -0.0069426633418 -0.01936503686 -0.015863807872 -0.013216106221 
-0.025905251503 -0.024177635089 -0.022981759161 -0.016065184027 -0.017902927473 -0.015229411423 -0.014573307708 -0.014908703975 -0.018794426695 
-0.011511976831 -0.012276637368 -0.013903655112 -0.0074237543158 -0.015760894865 -0.016921041533 -0.018557561561 -0.015971127898 -0.0030085826293 
-0.019309040159 -0.0032560441177 -0.0040064109489 -0.0041994587518 -0.018970493227 -0.017530512065 -0.020115798339 
Disp_Z 1 1114 double
0 0 0.0010967741255 0.0014767347602 0.00035243868479 -0.0021709806751 0 -0.003527688561 0 
0.00026366050588 0.0064712013118 0.0098402285948 0.012309717946 0.016782181337 0 0.022518880665 0 0.023618917912 
0 0.024190112948 0 0.022826660424 0 0.021268665791 0 0.021083649248 0 
0.022291792557 0 0.022588741034 0 0.021773960441 0 0.020182520151 0 0.018540045246 
0 0.017765406519 0.0048816986382 0.014985939488 0 0.012200773694 0 0.0078560858965 0 
0.002609372139 0 -0.0015675870236 0 -0.0032253337558 0 -0.00012902464368 0 0.00063833058812 
0 -0.0048218104057 0 -0.010795165785 0 -0.015724645928 0 -0.019211705774 0 
-0.02198474668 0 -0.024508425966 0 -0.027185305953 0 -0.029594287276 0 -0.030956368893 
0 -0.032188411802 0 -0.031614154577 0 -0.02809804678 0 -0.020583972335 0 
-0.011316288263 0 -0.0032683429308 0 0 -0.033274907619 -0.027256947011 0 -0.037871908396 
0 -0.041804548353 0 -0.044553350657 0 -0.046549472958 0 -0.047115959227 0 
-0.045983809978 0 -0.042919952422 0 -0.03829947114 0 -0.03297958523 0 -0.029284846038 
0 -0.025324370712 0 -0.021988123655 0 -0.017511179671 0 -0.013275125064 0 
-0.007364728488 0 -0.0021621456835 0 -0.00021814872161 0 0.00042139782454 0 0.0025624781847 
0 0.0082818698138 0 0.015748919919 0 0.026540469378 0 0.046570781618 0 
0.041237227619 0 0.042149141431 0 0.043289389461 0 0.039375524968 0 0.033610768616 
0 0.029112512246 0 0.024330373853 0 0.019327491522 0 0.014716314152 0 
0.012860756367 0 0.021444717422 0.010175684467 0.02667183429 0.012233262882 0.028686540201 0.010411132127 0.027845179662 
0 0.02749264054 0 0.026665786281 0 0.026843311265 0 0.026441410184 0 
0.024081464857 0 0.02024808526 0 0.013333271258 0 0.005583065562 0 0.0015381239355 
0 0.00098841404542 0 0.00080410798546 0 -0.0010356281418 0 -0.0038078122307 0 
-0.0068469992839 0 -0.010021638125 0 -0.012554660439 0 -0.015198138542 0 -0.017469462007 
0 -0.02175382711 -0.0011207859498 0.006308330223 -0.0063116783276 -0.00072524364805 0.013284595683 0.026775300503 0.036898173392 
0.043127793819 0.044053595513 0.040016062558 0.034364335239 0.032183174044 0.032653003931 0.03211806342 0.029732681811 0.026827594265 
0.024530064315 0.023310022429 0.021886643022 0.018587224185 0.012679965235 0.0041681728326 -0.0037207021378 -0.004098192323 0.0019023772329 
4.1641658754e-05 -0.0077166059054 -0.016477255151 -0.024429000914 -0.031122276559 -0.036109410226 -0.041370496154 -0.046896345913 -0.051441922784 
-0.054421149194 -0.055601198226 -0.053366590291 -0.045487400144 -0.031690694392 -0.014865806326 -0.00019344856264 0.0079175168648 -0.061165720224 
-0.052082359791 -0.068350188434 -0.07444113493 -0.079264856875 -0.081478729844 -0.07920242846 -0.072576880455 -0.063080377877 -0.052012141794 
-0.042388871312 -0.035270921886 -0.029214337468 -0.023602750152 -0.016869122162 -0.0086856829002 -0.002330387244 -0.00083134631859 -0.00047637466923 
0.0015415938105 0.0075610820204 0.017618844286 0.036119651049 0.062225896865 0.072433128953 0.06478112936 0.073882482946 0.066549785435 
0.054925646633 0.044824380428 0.037052150816 0.030453028157 0.025709779933 0.025366468355 0.032996077091 0.039076685905 0.04228175804 
0.043181844056 0.042602226138 0.041998427361 0.043794322759 0.045436304063 0.041529674083 0.031128332019 0.016658874229 0.003495918354 
-0.0034303450957 -0.0034780935384 -0.0020621651784 -0.0027857923415 -0.0058171390556 -0.0094088567421 -0.012883431278 -0.015676371753 -0.018810790032 
-0.022984134033 -0.03119283542 -0.041509974748 0.076903760433 0.088551148772 0.021480299532 0.0086737601086 0.037110723555 0.05093947798 
0.058172397316 0.05807139352 0.051689844579 0.042441889644 0.037330947816 0.036373246461 0.034907985479 0.031564049423 0.028166934848 
0.025934807956 0.025890991092 0.026058021933 0.023340445012 0.01659511961 0.0066566257738 -0.0030979237054 -0.0065929633565 -0.0032714316621 
0.0011474422645 -0.012073554099 -0.021970631555 -0.031323619187 -0.039572887123 -0.046592503786 -0.05360904336 -0.061156511307 -0.067979842424 
-0.072407081723 -0.07344327122 -0.069955930114 -0.058958947659 -0.035431623459 -0.01214459911 0.0065443199128 0.016899062321 0.013911229558 
0.0043556327 5.8341756812e-05 -0.0039954697713 0.095619075 0.11082949489 0.1021559462 0.091541014612 0.073057368398 0.055418044329 
0.043663203716 0.036279045045 0.032514534891 0.041750594974 0.03490460664 0.047811832279 0.051611553878 0.053013723344 0.051978446543 
0.052616696805 0.057853989303 0.061314690858 0.055932004005 0.041600305587 0.021581826732 0.0030582216568 -0.0081223836169 -0.0077314949594 
-0.0044255354442 -0.0031155401375 -0.0053893523291 -0.0081208804622 -0.010784414597 -0.013543550856 -0.01696386002 -0.021747458726 -0.033415786922 
-0.048831135035 -0.063129119575 -0.075725421309 -0.086725108325 -0.09668264538 -0.10528694838 -0.10910986364 -0.1057567969 -0.095478639007 
-0.080625958741 -0.064085282385 -0.048980303109 -0.03823293373 -0.03074830398 -0.024756001309 -0.01720665209 -0.0075305700302 -0.0014013915788 
-0.0013022270286 -0.0018202483188 -0.0013367523206 0.0054396949708 0.016977423802 0.037119857967 0.061624828726 0.087242722511 0.111214526 
0.12529030442 0.12697555125 0.031286895275 0.032983615994 0.00055674044415 -0.00096052896697 -0.0012676580809 -0.0070673064329 -0.015619166195 
-0.025358716026 -0.034942071885 -0.044156908989 -0.052448961884 -0.060841273516 -0.070421919227 -0.07893320173 -0.085024476051 -0.086598172784 
-0.08316886425 -0.075887188315 -0.0061760791577 -0.029886377975 0.013182473369 0.021528616548 0.018257947639 0.008069159463 0.031254164875 
0.01783590205 0.047488465905 0.061459567398 0.068538963795 0.066874422133 0.058269586414 0.047302022576 0.039562899619 0.036441776901 
0.033010400832 0.029456706718 0.026453284547 0.025905661285 0.028427900746 0.030892336741 0.029302729294 0.022650808096 0.012809823267 
0.0018529046793 -0.005908830557 -0.0073652351275 -0.0053430455737 -0.00017417487106 -0.0028115918394 -4.8230590437e-06 0.0017969226465 0.0098677473143 
-0.00057335983729 0.0039939517155 -0.051369719207 -0.068549476564 0.10990677774 0.086423493922 0.064381316304 0.048710737377 0.040016420186 
0.036162834615 0.035497415811 0.035797674209 0.036455761641 0.036840405315 0.041299361736 0.047768287361 0.053720936179 0.058103121817 
0.059955921024 0.059664659202 0.062660880387 0.070832401514 0.074215985835 0.066805228591 0.049806572497 0.026698425412 0.0047918781638 
-0.0093689728528 -0.0099739450961 -0.0068507036194 -0.0037077921443 -0.0044493624009 -0.0059897010215 -0.0075489873998 -0.0097295055166 -0.012768257409 
-0.017548037693 -0.031131798401 -0.051998130977 -0.068443790078 -0.082868851721 -0.096746765077 -0.11051744223 -0.12212275714 -0.12699064612 
-0.12233569473 -0.10886926204 -0.089530847967 -0.068923979998 -0.050791252404 -0.037834085524 -0.029172195122 -0.023841107264 -0.016891054809 
-0.010656642728 -0.0018296029884 -0.00057704938808 -0.0032322888728 -0.0028746724129 0.0052966582589 0.018848476931 0.03420708701 0.049776528031 
0.073106378317 0.097144655883 0.11486646533 0.13115514815 0.12211792171 0.12892363966 0.11449856311 0.09210626781 0.067826293409 
0.050813801587 0.041899807751 0.0719223544 0.046053804457 0.092286720872 0.10317254066 0.11931148171 0.10412407666 0.12538509071 
0.12196626514 0.1081719771 0.088196128607 0.0645859465 0.048958200961 0.040744829923 -0.0021034954116 -0.0054488726892 -0.0024972474203 
-0.008379551582 -0.016314869747 -0.02576691471 -0.035812690854 -0.045491017401 -0.055095240474 -0.065190300345 -0.075969658792 -0.086152859032 
-0.094426237047 -0.097543403506 -0.094536237419 -0.087708964944 -0.08091674 -0.06195769459 -0.076517552137 -0.043800637126 -0.022796113044 
-0.0018050658982 0.01562144421 0.021450994536 0.018593814224 0.0093963397667 -0.0018881855067 -0.0004941340303 -0.003268180415 -0.0046510649845 
-0.0027937029954 0.0026587101165 0.012194704264 0.024665491655 0.039333835244 0.055542044342 0.068910613656 0.075508072972 0.073093608022 
0.063358142972 0.051171619445 0.042338401079 0.037051800638 0.032903786749 0.02486506477 0.025535603985 0.027966696769 0.034794662148 
0.040418375283 0.04043340683 0.034311205149 0.02417591773 0.012234405614 0.0024417191744 -0.0036683750805 -0.006687280722 -0.0055315280333 
-0.0019250671612 -0.0032744240016 -0.00041511573363 -0.00017712800764 0.027496602386 0.029074124992 0.037257261574 0.037601053715 0.038009680808 
0.03718258813 0.0388238132 0.040508106351 0.044644799083 0.050975922495 0.056938461959 0.062103476375 0.06495039165 0.067048572004 
0.073159821332 0.083316281438 0.085869506001 0.075707644224 0.055815860629 0.030413351953 0.0058080577292 -0.01062011905 -0.011103867553 
-0.009062083438 -0.0050482042134 -0.0046805390157 -0.0045505519956 -0.0047796252184 -0.005912091583 -0.0081762652844 -0.011431772262 -0.018412118778 
-0.071316219866 -0.05557577312 -0.086257755756 -0.10185885429 -0.11787247658 -0.13103075325 -0.13615527749 -0.13030081987 -0.1142155081 
-0.090730212629 -0.066690474749 -0.049010824412 -0.036052759737 -0.027414506301 -0.021829281002 -0.015934459865 -0.012004295364 -0.0091707613319 
-0.0017392985756 -0.0057366988622 -9.9881290225e-05 -0.00035683569149 -0.002347240923 -0.0046167355031 -0.0033176953439 0.0091072041541 0.028323139995 
-0.039778191596 -0.026043312624 0.038729265332 0.036492388695 0.037418518215 0.03481804952 0.03964215517 0.041273329407 0.042479783297 
0.045657146722 0.051140114665 0.057021141052 0.062942877412 0.06756478548 0.073028579354 0.080510884523 0.091359145939 0.094799287617 
0.084630057216 0.059257242829 0.032610535622 0.0063867536373 -0.01138633769 -0.013804009184 -0.011894618161 -0.0076257698238 -0.0059825894423 
-0.0046356800012 -0.0034555220045 -0.0032392747235 -0.0042406874709 -0.0062415748835 -0.010532196611 -0.016094230115 -0.032813072205 -0.021710366011 
-0.045270122588 -0.059094581753 -0.073465749621 -0.08822388202 -0.10383918136 -0.11980043352 -0.13291187584 -0.13862651587 -0.13380508125 
-0.11710327119 -0.087512008846 -0.060573872179 -0.045317605138 -0.034207832068 -0.025638723746 -0.01971728541 -0.01365990378 -0.011701817624 
-0.0026647679042 -0.0094783008099 0.00090720911976 0.0011498226086 -4.6360091801e-05 -0.0024048890918 -0.0052167354152 -0.0036929200869 0.015487583354 
-0.0025711264461 -0.0075856018811 -0.015227084979 -0.024465849623 -0.034645549953 -0.044466484338 -0.054766949266 -0.065783843398 -0.076953813434 
-0.089443922043 -0.10095476359 -0.1063548848 -0.10409797728 -0.096679121256 -0.089275985956 -0.089041143656 -0.071528486907 -0.086695604026 
-0.055959127843 -0.038052551448 -0.018310990185 0.00087153789354 0.015511577018 0.020105710253 0.017130851746 0.0079451538622 -0.001626326819 
-0.0073327128775 -0.006026297342 0.00040746913874 0.012054474093 0.02665989846 0.043427601457 0.060661673546 0.074329711497 0.081472143531 
0.079858578742 0.070338524878 0.057125490159 0.046893242747 0.040023136884 0.034912694246 0.031165136024 0.025694606826 0.028450461105 
0.023694645613 0.023241441697 0.026463881135 0.03506391868 0.047278035432 0.056334327906 0.058188389987 0.053286187351 0.040488388389 
0.027051487938 0.017117414623 0.0083227539435 0.0011776654283 -0.0030478551053 -0.0036590162199 -0.0024682937656 -0.0034993623849 -0.0020503082778 
-0.00041183913709 0.00061056163395 0.044118288904 0.048929598182 0.054563250393 0.061046026647 0.067394718528 0.07579819113 0.084898985922 
0.096528440714 0.10030522943 0.097198732197 0.032482534647 0.056233260781 0.0078861005604 -0.0077986884862 -0.014113422483 -0.015060560778 
-0.010188042186 -0.0073726559058 -0.005133070983 -0.0028448232915 -0.00146656367 -0.0014091560151 -0.0024731999729 -0.0051177386194 -0.0092597482726 
-0.013500837609 -0.027832981199 -0.017941687256 -0.038787465543 -0.050347086042 -0.061828017235 -0.074359565973 -0.088703818619 -0.10312341899 
-0.11677900702 -0.12940481305 -0.13665953279 -0.13409101963 -0.12054233253 -0.10018351674 -0.042878307402 -0.055200446397 -0.033425997943 
-0.025107776746 -0.018446266651 0.075746029615 0.087727665901 -0.017454026267 -0.0072598126717 -0.015468501486 -0.00028960581403 0.0018082043389 
-0.0011621633312 -0.0014469469897 -0.0059885131195 -0.013665858656 -0.022966558114 -0.032782737166 -0.042096041143 -0.052069481462 -0.062959864736 
-0.07420810312 -0.088482901454 -0.10449998826 -0.11362944543 -0.11165302992 -0.10160300881 -0.10653930902 -0.080607704818 -0.096596293151 
-0.065697319806 -0.049896355718 -0.033343590796 -0.015736151487 0.00072642893065 0.013540759683 0.017138836905 0.014367427677 0.0048139072023 
-0.0048015397042 -0.010643781163 -0.010695029981 -0.0048255361617 0.0075425477698 0.02376415208 0.043085280806 0.062120050192 0.077314227819 
0.085854068398 0.085550509393 0.077504463494 0.065214455128 0.053430888802 0.045392662287 0.039186719805 0.03457596153 0.031854502857 
0.026871092618 0.030585799366 0.024067163467 0.02300805971 0.02455278486 0.032615214586 0.048461269587 0.065664157271 0.075140438974 
0.077217705548 0.076663374901 0.054894339293 0.039123829454 0.035378448665 0.026252774522 0.016095595434 0.0064585246146 -0.00081017526099 
-0.0038941972889 -0.0015012937365 -0.0030061253347 -0.00058741495013 0.042094584554 0.064116604626 0.07804915309 0.082202993333 0.097946874797 
0.10805906355 0.11061035097 0.10713987797 0.094062916934 0.07361163944 0.054618876427 0.043298546225 0.037253037095 0.032716270536 
0.034250903875 0.030514258891 0.038146506995 0.041558772326 -0.0047628497705 -3.3817024814e-05 -0.013063092716 -0.022240972146 -0.030866622925 
-0.038593105972 -0.047660958022 -0.057747226208 -0.06791049242 -0.082535378635 -0.10566607863 -0.12059485912 -0.11987064034 -0.086895793676 
-0.10020333529 -0.10976328701 -0.073236353695 -0.059347316623 -0.044838104397 -0.029991377145 -0.01542355027 -0.0026531056501 0.0093137985095 
0.012456516735 0.011123420671 0.0069035091437 -0.013429379091 -0.008224000223 -0.014913831837 -0.010239946656 0.0018272640882 0.018180705607 
0.039142999798 0.059725720435 0.07812871784 0.092424556613 0.083676874638 0.091480135918 0.072381235659 0.060330949724 0.051785778254 
0.044479675591 0.039078492671 0.035886775702 0.034851528704 -0.0026670934167 0.0022290325724 -0.068671658635 -0.080163545907 -0.0048606130295 
-0.0035868950654 0.0054512522183 0.02123966068 0.037414096296 0.050887212157 0.056977838278 0.044851671904 0.051050338894 0.058328125626 
0.065922454 0.075172461569 0.085184536874 0.095893204212 0.099996738136 0.099558733404 0.073811031878 0.067692436278 0.05310023576 
0.031690880656 0.0083567425609 -0.0084717450663 -0.016243364662 -0.018189877272 -0.01265927311 -0.008618414402 -0.004989775829 -0.0017923671985 
0.00027279549977 0.00086194195319 0.00023188565683 -0.0014051730977 -0.0046853120439 -0.0068694790825 -0.0093528879806 -0.033648118377 -0.022984636948 
-0.044949460775 -0.055623937398 -0.063353247941 -0.072487860918 0.041076660156 0.031224869192 0.027228651568 0.025300744921 0.024813530967 
0.028705924749 0.042492441833 0.064083002508 0.08775433898 0.092706359923 0.090408585966 -0.12097148597 -0.12968586385 -0.12887383997 
-0.11748234928 -0.10407884419 -0.090022772551 -0.064288593829 -0.072204746306 -0.061478696764 -0.052794098854 -0.042966157198 -0.034458450973 
-0.02567528747 -0.026655262336 -0.013700678945 -0.022653279826 -0.0053081433289 0.00045561935985 0.091852560639 0.077573895454 0.050959613174 
0.040091991425 0.055689819157 0.034244522452 0.012281359173 -0.0046112691052 -0.015105690807 -0.018709471449 -0.014482305385 -0.0093406978995 
-0.0046479976736 -0.00032394612208 0.0021965841297 0.0029536520597 -0.0013932771981 -0.0013747051125 -0.052430965006 -0.039667747915 -0.063942313194 
0.047008268535 0.054406449199 0.062694728374 0.07254152 0.082687854767 0.092092327774 0.09771438688 0.09602175653 0.088865175843 
0.078591711819 0.067354746163 0.057801507413 0.049904379994 0.04381396994 0.039813160896 -0.054739844054 -0.045646395534 -0.036982357502 
-0.027509517968 -0.018026012927 -0.013000524603 0.008277002722 0.0057393671013 0.0082880947739 0.006823678501 0.0044570192695 -0.060435499996 
-0.029208887368 -0.03407844156 -0.042464263737 0.030253194273 -0.051318459213 0.0050047058612 0.0029795020819 0.0054193115793 -0.0049800556153 
-0.0044380347244 0.038304444402 0.0016110098222 0.0018694836181 0.0010471728165 0.0024947996717 -0.0010174013441 
Disp_FEB 3 1114 double
0 0 0 0 0 0 0.0027219781186 0.018046269193 0.0010967741255 
-0.0013957474148 0.016823578626 0.0014767347602 0.004612472374 0.01772323437 0.00035243868479 0.0017270620447 0.011764293537 -0.0021709806751 
0 0 0 -0.0089596752077 0.0024259889033 -0.003527688561 0 0 0 
-0.02600589022 -0.010695533827 0.00026366050588 -0.012203121558 -0.011580999941 0.0064712013118 -0.039941728115 -0.015208617784 0.0098402285948 
-0.0087954970077 -0.012669024058 0.012309717946 -0.04249227047 -0.018593728542 0.016782181337 0 0 0 
-0.036923006177 -0.016911007464 0.022518880665 0 0 0 -0.029922880232 -0.013327909634 0.023618917912 
0 0 0 -0.022893466055 -0.010727207176 0.024190112948 0 0 0 
-0.016833337024 -0.0066989092156 0.022826660424 0 0 0 -0.013676988892 -0.0039486973546 0.021268665791 
0 0 0 -0.011944478378 -0.0022753728554 0.021083649248 0 0 0 
-0.0096399206668 -0.0010070645949 0.022291792557 0 0 0 -0.0066923177801 0.001119716675 0.022588741034 
0 0 0 -0.0039210817777 0.0032731869724 0.021773960441 0 0 0 
-0.0016879200703 0.0047979648225 0.020182520151 0 0 0 2.4809118258e-05 0.0052394950762 0.018540045246 
0 0 0 0.001361802686 0.0059136394411 0.017765406519 0.00032794117578 0.0063071516342 0.0048816986382 
0.003778450191 0.0055532124825 0.014985939488 0 0 0 0.0060650520027 0.0033083567396 0.012200773694 
0 0 0 0.007329412736 0.0024578343146 0.0078560858965 0 0 0 
0.0075183962472 0.00300237583 0.002609372139 0 0 0 0.0057232240215 0.0046792584471 -0.0015675870236 
0 0 0 0.0037696878426 0.0060438462533 -0.0032253337558 0 0 0 
0.0044407797977 0.0043775103986 -0.00012902464368 0 0 0 0.010985787958 0.0018979483284 0.00063833058812 
0 0 0 0.017498197034 -0.00038978399243 -0.0048218104057 0 0 0 
0.020893612877 -0.0021177674644 -0.010795165785 0 0 0 0.022061791271 -0.0034685232677 -0.015724645928 
0 0 0 0.021708019078 -0.0045482548885 -0.019211705774 0 0 0 
0.021079333499 -0.0059199929237 -0.02198474668 0 0 0 0.020143609494 -0.0068725738674 -0.024508425966 
0 0 0 0.018727129325 -0.0083641801029 -0.027185305953 0 0 0 
0.016755716875 -0.0085205351934 -0.029594287276 0 0 0 0.014289993793 -0.0094115706161 -0.030956368893 
0 0 0 0.011700184084 -0.0091945193708 -0.032188411802 0 0 0 
0.0078320754692 -0.0075891069137 -0.031614154577 0 0 0 0.0025761015713 -0.0057248980738 -0.02809804678 
0 0 0 -0.0024677703623 -0.0012596587185 -0.020583972335 0 0 0 
-0.0050303619355 0.0047274255194 -0.011316288263 0 0 0 -0.0044600842521 0.011251041666 -0.0032683429308 
0 0 0 0 0 0 -0.0031178649515 -0.014020763338 -0.033274907619 
-0.0067354557104 -0.011668516323 -0.027256947011 0 0 0 0.001277904259 -0.01391883567 -0.037871908396 
0 0 0 0.0055052833632 -0.015025882982 -0.041804548353 0 0 0 
0.0085916882381 -0.014044973068 -0.044553350657 0 0 0 0.011780441739 -0.011599670164 -0.046549472958 
0 0 0 0.015609588474 -0.011196918786 -0.047115959227 0 0 0 
0.019401473925 -0.010112075135 -0.045983809978 0 0 0 0.022680023685 -0.0093377800658 -0.042919952422 
0 0 0 0.02500716038 -0.010337212123 -0.03829947114 0 0 0 
0.025720849633 -0.0099288336933 -0.03297958523 0 0 0 0.024529349059 -0.011816617101 -0.029284846038 
0 0 0 0.022456264123 -0.0099783297628 -0.025324370712 0 0 0 
0.021098334342 -0.0084311952814 -0.021988123655 0 0 0 0.020321011543 -0.0059908740222 -0.017511179671 
0 0 0 0.020270362496 -0.006325930357 -0.013275125064 0 0 0 
0.018463097513 -0.0062173921615 -0.007364728488 0 0 0 0.014309263788 -0.0064531709068 -0.0021621456835 
0 0 0 0.010693702847 -0.0066514173523 -0.00021814872161 0 0 0 
0.011431218125 -0.0066306232475 0.00042139782454 0 0 0 0.016522865742 -0.0057895747013 0.0025624781847 
0 0 0 0.024090101942 -0.0051593086682 0.0082818698138 0 0 0 
0.032015230507 -0.0024526808411 0.015748919919 0 0 0 0.041054338217 0.0023549799807 0.026540469378 
0 0 0 0.050493426621 0.0096596898511 0.046570781618 0 0 0 
0.032505534589 0.0093815401196 0.041237227619 0 0 0 0.025173952803 0.010787389241 0.042149141431 
0 0 0 0.018968708813 0.0070560504682 0.043289389461 0 0 0 
0.013478905894 0.0021827376913 0.039375524968 0 0 0 0.0098572727293 -0.0018825192237 0.033610768616 
0 0 0 0.0059458059259 -0.0035817052703 0.029112512246 0 0 0 
0.00090801564511 -0.0037064889912 0.024330373853 0 0 0 -0.0040344991721 -0.0040498687886 0.019327491522 
0 0 0 -0.0078278919682 -0.0054327128455 0.014716314152 0 0 0 
-0.0039675734006 -0.0036671052221 0.012860756367 0 0 0 -0.0058925626799 -0.0058068172075 0.021444717422 
-0.012408266775 -0.016795832664 0.010175684467 -0.015552656725 -0.010434144177 0.02667183429 -0.017563635483 -0.01963554509 0.012233262882 
-0.025794021785 -0.015252037905 0.028686540201 -0.016222553328 -0.020141890272 0.010411132127 -0.032342571765 -0.015978133306 0.027845179662 
0 0 0 -0.03780842945 -0.014687317424 0.02749264054 0 0 0 
-0.03907212615 -0.013310697861 0.026665786281 0 0 0 -0.04134177044 -0.013446029276 0.026843311265 
0 0 0 -0.044615168124 -0.011869237758 0.026441410184 0 0 0 
-0.048245351762 -0.0099226022139 0.024081464857 0 0 0 -0.049297198653 -0.0075170453638 0.02024808526 
0 0 0 -0.044011943042 -0.0070153400302 0.013333271258 0 0 0 
-0.036454021931 -0.006633293815 0.005583065562 0 0 0 -0.028108183295 -0.0068113952875 0.0015381239355 
0 0 0 -0.02209783718 -0.0080412114039 0.00098841404542 0 0 0 
-0.018897060305 -0.0082926144823 0.00080410798546 0 0 0 -0.017535934225 -0.0085256984457 -0.0010356281418 
0 0 0 -0.015661515296 -0.0075015826151 -0.0038078122307 0 0 0 
-0.014294032939 -0.0089393770322 -0.0068469992839 0 0 0 -0.012054026127 -0.00984255597 -0.010021638125 
0 0 0 -0.009916770272 -0.01105396729 -0.012554660439 0 0 0 
-0.0077799810097 -0.012359749526 -0.015198138542 0 0 0 -0.0073552834801 -0.012537346222 -0.017469462007 
0 0 0 -0.0076809432358 -0.012817471288 -0.02175382711 0.0045860782266 0.015777502209 -0.0011207859498 
0.0063613397069 0.026061654091 0.006308330223 -0.011145500466 -0.00081328197848 -0.0063116783276 -0.042722035199 -0.020146816969 -0.00072524364805 
-0.065072238445 -0.029509322718 0.013284595683 -0.0716348961 -0.032847963274 0.026775300503 -0.067439608276 -0.030757950619 0.036898173392 
-0.056025922298 -0.025718640536 0.043127793819 -0.040929120034 -0.018953762949 0.044053595513 -0.027499116957 -0.011804478243 0.040016062558 
-0.020949833095 -0.0053166206926 0.034364335239 -0.018695428967 -0.0012948368676 0.032183174044 -0.014776980504 0.0014713071287 0.032653003931 
-0.0093966508284 0.0041088121943 0.03211806342 -0.0049069249071 0.0065603284165 0.029732681811 -0.0015561647015 0.0080041354522 0.026827594265 
0.00037357801921 0.008027930744 0.024530064315 0.0022209293675 0.0064000324346 0.023310022429 0.0054149329662 0.0031665763818 0.021886643022 
0.0094039710239 0.00025850854581 0.018587224185 0.012742614374 -0.00091576093109 0.012679965235 0.013341830112 -0.00031890533864 0.0041681728326 
0.0097076632082 0.0021265500691 -0.0037207021378 0.0040343194269 0.0056817354634 -0.004098192323 0.0085534714162 0.0045603718609 0.0019023772329 
0.01910385862 0.0011646482162 4.1641658754e-05 0.027733907104 -0.001478401944 -0.0077166059054 0.032942667603 -0.0035191390198 -0.016477255151 
0.035404518247 -0.0051185386255 -0.024429000914 0.035820260644 -0.0067040687427 -0.031122276559 0.035563681275 -0.0089885443449 -0.036109410226 
0.034958351403 -0.010734557174 -0.041370496154 0.032966911793 -0.012797142379 -0.046896345913 0.029566532001 -0.014680943452 -0.051441922784 
0.025066932663 -0.015952656046 -0.054421149194 0.019840879366 -0.015088847838 -0.055601198226 0.013567849994 -0.012139648199 -0.053366590291 
0.0066547258757 -0.0083119450137 -0.045487400144 0.0002202410833 -0.0015983425546 -0.031690694392 -0.0046236878261 0.0063905450515 -0.014865806326 
-0.0061341822147 0.015344544314 -0.00019344856264 -0.0010091911536 0.024805275723 0.0079175168648 -0.0011037667282 -0.020850814879 -0.061165720224 
-0.0076451920904 -0.019930804148 -0.052082359791 0.0055755609646 -0.021855890751 -0.068350188434 0.012442759238 -0.022326555103 -0.07444113493 
0.019485577941 -0.021659851074 -0.079264856875 0.027218110859 -0.020054975525 -0.081478729844 0.035308539867 -0.018307840452 -0.07920242846 
0.041135568172 -0.016994638368 -0.072576880455 0.043869938701 -0.017627190799 -0.063080377877 0.044107019901 -0.016362817958 -0.052012141794 
0.041362136602 -0.015180132352 -0.042388871312 0.037860818207 -0.013953637332 -0.035270921886 0.034918241203 -0.011230038479 -0.029214337468 
0.033104985952 -0.008682529442 -0.023602750152 0.031864568591 -0.0076769310981 -0.016869122162 0.028485938907 -0.0077255987562 -0.0086856829002 
0.022242609411 -0.0086324810982 -0.002330387244 0.018390610814 -0.009467673488 -0.00083134631859 0.020084945485 -0.0096311457455 -0.00047637466923 
0.027176285163 -0.0086946059018 0.0015415938105 0.038350448012 -0.0058914409019 0.0075610820204 0.052006691694 -0.00035240629222 0.017618844286 
0.066000774503 0.0047634472139 0.036119651049 0.079101607203 0.0091638779268 0.062225896865 0.043226506561 0.0155711025 0.072433128953 
0.048726093024 0.01377374772 0.06478112936 0.031654428691 0.012734004296 0.073882482946 0.017954111099 0.008108207956 0.066549785435 
0.0091188848019 0.0014245805796 0.054925646633 0.0035896939225 -0.002804802265 0.044824380428 -0.00095868797507 -0.0037499291357 0.037052150816 
-0.005879404489 -0.0036198135931 0.030453028157 -0.0086574219167 -0.0036606581416 0.025709779933 -0.0060491655022 -0.0035243236925 0.025366468355 
-0.009882866405 -0.0047705993056 0.032996077091 -0.019959636033 -0.007220222149 0.039076685905 -0.031385704875 -0.010959064588 0.04228175804 
-0.041349519044 -0.014044023119 0.043181844056 -0.04963388294 -0.017740793526 0.042602226138 -0.054693143815 -0.019382216036 0.041998427361 
-0.058329716325 -0.01849103719 0.043794322759 -0.065616212785 -0.015245480463 0.045436304063 -0.075240805745 -0.012470833957 0.041529674083 
-0.079915329814 -0.011072851717 0.031128332019 -0.074458904564 -0.0093946196139 0.016658874229 -0.061234563589 -0.0093198241666 0.003495918354 
-0.045621652156 -0.0087951635942 -0.0034303450957 -0.033733446151 -0.010257073678 -0.0034780935384 -0.028078695759 -0.011917283759 -0.0020621651784 
-0.025616832078 -0.012923376635 -0.0027857923415 -0.023295190185 -0.013223130256 -0.0058171390556 -0.02068253234 -0.014541771263 -0.0094088567421 
-0.017352962866 -0.015809198841 -0.012883431278 -0.01445876807 -0.017205666751 -0.015676371753 -0.012408169918 -0.018737830222 -0.018810790032 
-0.012948416173 -0.019427772611 -0.022984134033 -0.013809459284 -0.019340844825 -0.03119283542 -0.01238720119 -0.018658261746 -0.041509974748 
0.067448072135 0.014184191823 0.076903760433 0.088761262596 0.012094505131 0.088551148772 -0.089595243335 -0.041921880096 0.021480299532 
-0.073986306787 -0.036350123584 0.0086737601086 -0.096442982554 -0.043902922422 0.037110723555 -0.091252140701 -0.041015978903 0.05093947798 
-0.07628788799 -0.033235978335 0.058172397316 -0.056067124009 -0.023515889421 0.05807139352 -0.036866758019 -0.014491754584 0.051689844579 
-0.026210978627 -0.006291479338 0.042441889644 -0.022896615788 -0.00063764798688 0.037330947816 -0.018148278818 0.0029954442289 0.036373246461 
-0.010783979669 0.0061079720035 0.034907985479 -0.004679386504 0.0084209032357 0.031564049423 -0.0012675733306 0.0094586182386 0.028166934848 
9.9628101452e-05 0.00816995278 0.025934807956 0.0016617981018 0.0040564797819 0.025890991092 0.0061779646203 -0.0014627070632 0.026058021933 
0.012163073756 -0.0062165716663 0.023340445012 0.017005797476 -0.0086020110175 0.01659511961 0.018309110776 -0.0083728311583 0.0066566257738 
0.015097678639 -0.0062081399374 -0.0030979237054 0.0089549599215 -0.0024352979381 -0.0065929633565 0.025304561481 -0.00056343665347 -0.0032714316621 
0.01484162081 0.0019189870218 0.0011474422645 0.034273676574 -0.0031306955498 -0.012073554099 0.040178246796 -0.0051585524343 -0.021970631555 
0.043404191732 -0.0067265569232 -0.031323619187 0.044758088887 -0.0084149688482 -0.039572887123 0.045336730778 -0.010653888807 -0.046592503786 
0.045492585748 -0.013390210457 -0.05360904336 0.044000640512 -0.016564242542 -0.061156511307 0.040217429399 -0.019431559369 -0.067979842424 
0.034424755722 -0.021252160892 -0.072407081723 0.027212992311 -0.021104160696 -0.07344327122 0.019297229126 -0.019040770829 -0.069955930114 
0.01000537537 -0.016457958147 -0.058958947659 0.00067294063047 -0.007080017589 -0.035431623459 -0.0061718202196 0.0029294204433 -0.01214459911 
-0.0056616771035 0.014586877078 0.0065443199128 0.0018786834553 0.024648206308 0.016899062321 0.011235466227 0.025313910097 0.013911229558 
0.0080651529133 0.014286561869 0.0043556327 0.0070390095934 0.0026452110615 5.8341756812e-05 0.0066804918461 -0.0011614472605 -0.0039954697713 
0.064220577478 0.015638366342 0.095619075 0.08651740849 0.011403424665 0.11082949489 0.047590859234 0.015654746443 0.1021559462 
0.023625548929 0.012783152983 0.091541014612 0.0066624633037 0.0060547455214 0.073057368398 -0.0018017361872 -0.0003250905138 0.055418044329 
-0.0046145264059 -0.0032212862279 0.043663203716 -0.0069864583202 -0.0032880660146 0.036279045045 -0.0083079133183 -0.002493693959 0.032514534891 
-0.013371155597 -0.0041701328009 0.041750594974 -0.007965114899 -0.0030752790626 0.03490460664 -0.022946691141 -0.0059291427024 0.047811832279 
-0.033770065755 -0.0087988246232 0.051611553878 -0.044920489192 -0.01281181071 0.053013723344 -0.054575074464 -0.017654586583 0.051978446543 
-0.060263875872 -0.0208371263 0.052616696805 -0.066519729793 -0.018903994933 0.057853989303 -0.079860985279 -0.015037010424 0.061314690858 
-0.096492782235 -0.015466844663 0.055932004005 -0.10453345627 -0.015465150587 0.041600305587 -0.098270595074 -0.013150011189 0.021581826732 
-0.080534905195 -0.010792749934 0.0030582216568 -0.060121446848 -0.0084616998211 -0.0081223836169 -0.041892208159 -0.010159912519 -0.0077314949594 
-0.032317947596 -0.012677646242 -0.0044255354442 -0.028146181256 -0.014772319235 -0.0031155401375 -0.024854736403 -0.016007268801 -0.0053893523291 
-0.021228216588 -0.017245251685 -0.0081208804622 -0.017715485767 -0.018384631723 -0.010784414597 -0.014798537828 -0.019603725523 -0.013543550856 
-0.012937443331 -0.021152801812 -0.01696386002 -0.014808674343 -0.022249577567 -0.021747458726 -0.017182694748 -0.022738061845 -0.033415786922 
-0.015904815868 -0.022843781859 -0.048831135035 -0.010302297771 -0.02407916449 -0.063129119575 -0.0025340844877 -0.025594135746 -0.075725421309 
0.0057255476713 -0.026742735878 -0.086725108325 0.014566512778 -0.026929395273 -0.09668264538 0.024987285957 -0.026373185217 -0.10528694838 
0.036638528109 -0.024670284241 -0.10910986364 0.048127125949 -0.022879512981 -0.1057567969 0.056028291583 -0.021643925458 -0.095478639007 
0.059257481247 -0.020192662254 -0.080625958741 0.058535452932 -0.018504939973 -0.064085282385 0.054168500006 -0.016664577648 -0.048980303109 
0.048054393381 -0.015190047212 -0.03823293373 0.04328705743 -0.012788970955 -0.03074830398 0.040196936578 -0.010260148905 -0.024756001309 
0.037688080221 -0.0088837733492 -0.01720665209 0.032269001007 -0.0090015204623 -0.0075305700302 0.023487668484 -0.010179282166 -0.0014013915788 
0.019702447578 -0.011284317821 -0.0013022270286 0.022216318175 -0.011220618151 -0.0018202483188 0.031619232148 -0.0091845784336 -0.0013367523206 
0.046917408705 -0.004971915856 0.0054396949708 0.064713291824 0.00087900983635 0.016977423802 0.079789616168 0.0044452822767 0.037119857967 
0.094198420644 0.007001131773 0.061624828726 0.10399528593 0.0071486691013 0.087242722511 0.10498845577 0.0039667375386 0.111214526 
0.06775200367 0.0083862449974 0.12529030442 0.095935992897 -0.0012996452861 0.12697555125 -0.0076540336013 -0.0026832954027 0.031286895275 
-0.0082812551409 -0.0021935373079 0.032983615994 0.013008789159 0.00024504054454 0.00055674044415 0.0090424176306 -0.0018346017459 -0.00096052896697 
0.020940810442 -0.00068640656536 -0.0012676580809 0.030049471185 -0.0027288247366 -0.0070673064329 0.038166195154 -0.0051132440567 -0.015619166195 
0.04406574741 -0.0073185828514 -0.025358716026 0.047698035836 -0.0091181742027 -0.034942071885 0.049732778221 -0.010691007599 -0.044156908989 
0.051068667322 -0.012835318223 -0.052448961884 0.052224494517 -0.015830824152 -0.060841273516 0.051492057741 -0.019324572757 -0.070421919227 
0.048050135374 -0.023412225768 -0.07893320173 0.041703887284 -0.026269217953 -0.085024476051 0.032567054033 -0.027142867446 -0.086598172784 
0.023398410529 -0.026311060414 -0.08316886425 0.014097601175 -0.025443462655 -0.075887188315 -0.0093672778457 -0.0012238160707 -0.0061760791577 
-0.0049389428459 -0.011569116265 -0.029886377975 -0.0066904323176 0.010213530622 0.013182473369 0.0029398985207 0.019003435969 0.021528616548 
0.011820611544 0.019262161106 0.018257947639 0.0089032063261 0.0094245495275 0.008069159463 -0.11153338104 -0.048407174647 0.031254164875 
-0.097646817565 -0.043998610228 0.01783590205 -0.11676254123 -0.049255702645 0.047488465905 -0.1096394062 -0.046044796705 0.061459567398 
-0.092111796141 -0.038113396615 0.068538963795 -0.068928748369 -0.027191670612 0.066874422133 -0.046655640006 -0.016431985423 0.058269586414 
-0.032322928309 -0.0077723045833 0.047302022576 -0.025920182467 -0.0013599788072 0.039562899619 -0.020013960078 0.0025825724006 0.036441776901 
-0.010183385573 0.0062761795707 0.033010400832 -0.0033731164876 0.0094001237303 0.029456706718 -0.0012267990969 0.0095162475482 0.026453284547 
-0.0013791926904 0.0057904245332 0.025905661285 0.00046460123849 -0.0013836934231 0.028427900746 0.0068788523786 -0.009510518983 0.030892336741 
0.015480506234 -0.015978779644 0.029302729294 0.022372111678 -0.019659422338 0.022650808096 0.025334998965 -0.019353348762 0.012809823267 
0.023818779737 -0.017020983621 0.0018529046793 0.018807370216 -0.013678906485 -0.005908830557 0.013933068141 -0.010028692894 -0.0073652351275 
0.012108970433 -0.0086280964315 -0.0053430455737 0.012531585991 -0.0035225790925 -0.00017417487106 0.013149051927 -0.0080497376621 -0.0028115918394 
0.017495075241 -0.0019530643476 -4.8230590437e-06 -0.061163507402 -0.031758848578 0.0017969226465 -0.083079650998 -0.037931825966 0.0098677473143 
-0.055032808334 -0.028872894123 -0.00057335983729 -0.072659619153 -0.034005973488 0.0039939517155 -0.00025192392059 -0.02005013451 -0.051369719207 
0.0041097924113 -0.026035446674 -0.068549476564 0.02920012176 0.009340970777 0.10990677774 0.0056301415898 0.0058494433761 0.086423493922 
-0.006390674971 0.00090919277864 0.064381316304 -0.008851069957 -0.0025087092072 0.048710737377 -0.0088450433686 -0.003215678269 0.040016420186 
-0.008559669368 -0.0028231537435 0.036162834615 -0.0083644436672 -0.0024956855923 0.035497415811 -0.0077670998871 -0.0024520941079 0.035797674209 
-0.0078418543562 -0.0028905984946 0.036455761641 -0.0075301905163 -0.0026803482324 0.036840405315 -0.0095313917845 -0.0036438971292 0.041299361736 
-0.014583816752 -0.0050735045224 0.047768287361 -0.023286802694 -0.0067620677873 0.053720936179 -0.033286601305 -0.0092512797564 0.058103121817 
-0.043860726058 -0.012819568627 0.059955921024 -0.053210470825 -0.017074374482 0.059664659202 -0.059102036059 -0.01873501949 0.062660880387 
-0.070499747992 -0.016396660358 0.070832401514 -0.091361775994 -0.015226285905 0.074215985835 -0.11264365166 -0.017974821851 0.066805228591 
-0.12284421921 -0.020012132823 0.049806572497 -0.11684653908 -0.017844688147 0.026698425412 -0.09663580358 -0.013932428323 0.0047918781638 
-0.072465017438 -0.0096930759028 -0.0093689728528 -0.049713429064 -0.009861510247 -0.0099739450961 -0.035897679627 -0.011688827537 -0.0068507036194 
-0.028979551047 -0.01425555069 -0.0037077921443 -0.024163387716 -0.015903215855 -0.0044493624009 -0.019830092788 -0.017312614247 -0.0059897010215 
-0.01643203944 -0.01865501143 -0.0075489873998 -0.014084016904 -0.019885122776 -0.0097295055166 -0.012820527889 -0.021243281662 -0.012768257409 
-0.01528510917 -0.022674417123 -0.017548037693 -0.019885839894 -0.024272779003 -0.031131798401 -0.017721742392 -0.025572346523 -0.051998130977 
-0.012289540842 -0.027065420523 -0.068443790078 -0.0044268644415 -0.028520509601 -0.082868851721 0.0043191886507 -0.0295626726 -0.096746765077 
0.014852571301 -0.029574025422 -0.11051744223 0.027986321598 -0.028662705794 -0.12212275714 0.04307801649 -0.027471099049 -0.12699064612 
0.057071916759 -0.02628833428 -0.12233569473 0.066357143223 -0.025107396767 -0.10886926204 0.070197597146 -0.022976111621 -0.089530847967 
0.068349592388 -0.020683499053 -0.068923979998 0.062707304955 -0.018025027588 -0.050791252404 0.055201619864 -0.015700561926 -0.037834085524 
0.048805903643 -0.013286449946 -0.029172195122 0.04434004426 -0.011328661814 -0.023841107264 0.041007041931 -0.0098243216053 -0.016891054809 
0.036947660148 -0.0093415379524 -0.010656642728 0.019320994616 -0.011615742929 -0.0018296029884 0.021435841918 -0.01096007321 -0.00057704938808 
0.023399598897 -0.011095374823 -0.0032322888728 0.035803809762 -0.0084778498858 -0.0028746724129 0.055347632617 -0.0038833888248 0.0052966582589 
0.07434169203 0.00095412187511 0.018848476931 0.085351116955 0.0034792642109 0.03420708701 0.097623355687 0.0035054096952 0.049776528031 
0.10895213485 0.0013007810339 0.073106378317 0.11372686177 -0.0029431751464 0.097144655883 0.10900045931 -0.008441506885 0.11486646533 
0.080372855067 -0.0091851959005 0.13115514815 0.096170954406 -0.014442205429 0.12211792171 0.055707596242 -0.0031523026992 0.12892363966 
0.025090742856 0.00018731028831 0.11449856311 0.0027844873257 -2.5810404622e-05 0.09210626781 -0.0088041005656 -0.0015695830807 0.067826293409 
-0.011179726571 -0.003198368242 0.050813801587 -0.010267272592 -0.0035397554748 0.041899807751 0.11169970781 -0.0084024844691 0.0719223544 
0.10284286737 -0.0032776836306 0.046053804457 0.11126146466 -0.013955825008 0.092286720872 0.10219599307 -0.019119527191 0.10317254066 
0.078344866633 -0.019790330902 0.11931148171 0.085988387465 -0.023407921195 0.10412407666 0.061750009656 -0.016282239929 0.12538509071 
0.039326760918 -0.012460903265 0.12196626514 0.014978271909 -0.0091940462589 0.1081719771 -0.0052788094617 -0.0074375919066 0.088196128607 
-0.012409076095 -0.0055095725693 0.0645859465 -0.012886459008 -0.0047529037111 0.048958200961 -0.010029189289 -0.004186028149 0.040744829923 
0.027574762702 -0.0099317291752 -0.0021034954116 0.033479146659 -0.0091746095568 -0.0054488726892 0.025063976645 -0.0026454890613 -0.0024972474203 
0.033406224102 -0.0045664310455 -0.008379551582 0.041035622358 -0.0070110708475 -0.016314869747 0.046909376979 -0.0094345556572 -0.02576691471 
0.050744690001 -0.011438124813 -0.035812690854 0.053293753415 -0.013142611831 -0.045491017401 0.05525746569 -0.01509838365 -0.055095240474 
0.056795332581 -0.017745727673 -0.065190300345 0.056947510689 -0.021444521844 -0.075969658792 0.054539568722 -0.026333579794 -0.086152859032 
0.048013202846 -0.030437588692 -0.094426237047 0.037507858127 -0.032205782831 -0.097543403506 0.02619734779 -0.031835637987 -0.094536237419 
0.015937834978 -0.030635837466 -0.087708964944 0.0069347550161 -0.030111756176 -0.08091674 -0.0051350416616 -0.02715588361 -0.06195769459 
-0.00047199457185 -0.030473137274 -0.076517552137 -0.0099479556084 -0.022469703108 -0.043800637126 -0.013559779152 -0.0154849682 -0.022796113044 
-0.012369124219 -0.0055718603544 -0.0018050658982 -0.0070692715235 0.0045082345605 0.01562144421 0.0032290902454 0.010791868903 0.021450994536 
0.0093620130792 0.0099205719307 0.018593814224 0.0049026240595 0.0026029057335 0.0093963397667 -0.0064579229802 -0.005299565848 -0.0018881855067 
-0.01001068484 -0.008748463355 -0.0004941340303 -0.031014654785 -0.018608622253 -0.003268180415 -0.032429471612 -0.019678400829 -0.0046510649845 
-0.056720044464 -0.028410336003 -0.0027937029954 -0.078706167638 -0.035171017051 0.0026587101165 -0.097364254296 -0.040775392205 0.012194704264 
-0.11539641768 -0.046541929245 0.024665491655 -0.12895803154 -0.050784014165 0.039333835244 -0.13331522048 -0.051505338401 0.055542044342 
-0.12540720403 -0.04835922271 0.068910613656 -0.10657533258 -0.041311912239 0.075508072972 -0.081589944661 -0.03069717437 0.073093608022 
-0.056601766497 -0.01926532574 0.063358142972 -0.039171781391 -0.010005014949 0.051171619445 -0.028885558248 -0.0039473809302 0.042338401079 
-0.021484576166 -0.00010799001029 0.037051800638 -0.013679291122 0.0020694939885 0.032903786749 -0.0026362207718 0.0071695181541 0.02486506477 
-0.0020277353469 0.0089938286692 0.025535603985 -0.0036501220893 0.00037405485637 0.027966696769 -0.00015959185839 -0.009603719227 0.034794662148 
0.009378021583 -0.019639728591 0.040418375283 0.021385092288 -0.02682549879 0.04043340683 0.030842883512 -0.030885731801 0.034311205149 
0.035367246717 -0.029892109334 0.02417591773 0.035979032516 -0.027566300705 0.012234405614 0.033986393362 -0.024282058701 0.0024417191744 
0.029418038204 -0.020323196426 -0.0036683750805 0.024942170829 -0.018110217527 -0.006687280722 0.021312193945 -0.014903486706 -0.0055315280333 
0.015426871367 -0.0082047991455 -0.0019250671612 0.019441019744 -0.011347336695 -0.0032744240016 0.016034774482 -0.0049952762201 -0.00041511573363 
0.020667707548 -0.003463415429 -0.00017712800764 -0.0041836746968 0.0064800702967 0.027496602386 -0.0072938189842 0.0023167878389 0.029074124992 
-0.0080498429015 -0.0039154659025 0.037257261574 -0.0086347414181 -0.0033820753451 0.037601053715 -0.0072654993273 -0.0039458349347 0.038009680808 
-0.0071939984336 -0.0048742303625 0.03718258813 -0.0076772174798 -0.0034637148492 0.0388238132 -0.0084175709635 -0.0037829028443 0.040508106351 
-0.010264457203 -0.005047280807 0.044644799083 -0.013727374375 -0.0067028547637 0.050975922495 -0.020645642653 -0.0084456754848 0.056938461959 
-0.029519757256 -0.010672497563 0.062103476375 -0.039214551449 -0.013266793452 0.06495039165 -0.048046287149 -0.015786187723 0.067048572004 
-0.056520488113 -0.015740880743 0.073159821332 -0.073905445635 -0.013953560963 0.083316281438 -0.10009899735 -0.016164703295 0.085869506001 
-0.12578237057 -0.022046398371 0.075707644224 -0.13757516444 -0.025034260005 0.055815860629 -0.13138416409 -0.022637084126 0.030413351953 
-0.11010497808 -0.017118537799 0.0058080577292 -0.084194660187 -0.011002723128 -0.01062011905 -0.058207955211 -0.010011673905 -0.011103867553 
-0.040377244353 -0.010297682136 -0.009062083438 -0.030792623758 -0.012263228185 -0.0050482042134 -0.023784158751 -0.013904726133 -0.0046805390157 
-0.018605113029 -0.015693183988 -0.0045505519956 -0.015066493303 -0.017357150093 -0.0047796252184 -0.01327740401 -0.018788188696 -0.005912091583 
-0.01291573979 -0.020264005288 -0.0081762652844 -0.015537652187 -0.021910205483 -0.011431772262 -0.020146032795 -0.023641100153 -0.018412118778 
-0.01406328287 -0.029105585068 -0.071316219866 -0.019157508388 -0.02762860246 -0.05557577312 -0.0062031303532 -0.030338134617 -0.086257755756 
0.0025535945315 -0.031422544271 -0.10185885429 0.013984681107 -0.031919565052 -0.11787247658 0.02948210761 -0.032138023525 -0.13103075325 
0.04675475508 -0.031744211912 -0.13615527749 0.062641374767 -0.030165743083 -0.13030081987 0.073576971889 -0.027916511521 -0.1142155081 
0.078028455377 -0.025568939745 -0.090730212629 0.074983283877 -0.022761996835 -0.066690474749 0.067487873137 -0.01944293268 -0.049010824412 
0.059305693954 -0.015993477777 -0.036052759737 0.052554305643 -0.013295981102 -0.027414506301 0.046990655363 -0.011464886367 -0.021829281002 
0.04303380847 -0.010108130984 -0.015934459865 0.039579350501 -0.0095033254474 -0.012004295364 0.038502417505 -0.009095533751 -0.0091707613319 
0.02982901223 -0.0086454106495 -0.0017392985756 0.036715254188 -0.0082476735115 -0.0057366988622 0.023815644905 -0.0095205558464 -9.9881290225e-05 
0.019564703107 -0.010579900816 -0.00035683569149 0.018689511344 -0.011132479645 -0.002347240923 0.024032821879 -0.010427112691 -0.0046167355031 
0.039718002081 -0.0080097410828 -0.0033176953439 0.065235152841 -0.0040925629437 0.0091072041541 0.088591881096 0.00039247106179 0.028323139995 
-0.023051887751 -0.026403378695 -0.039778191596 -0.02387117222 -0.025131823495 -0.026043312624 -0.0090952599421 -0.0049513485283 0.038729265332 
-0.0080086626112 -0.0060115256347 0.036492388695 -0.0065424302593 -0.0061854012311 0.037418518215 -0.006712670438 -0.0067780623212 0.03481804952 
-0.0070499801077 -0.0053793843836 0.03964215517 -0.0078691756353 -0.0049040568992 0.041273329407 -0.0084671834484 -0.0048861461692 0.042479783297 
-0.0093995016068 -0.0061666620895 0.045657146722 -0.011296788231 -0.0079186698422 0.051140114665 -0.016608685255 -0.0094827385619 0.057021141052 
-0.024225972593 -0.011394843459 0.062942877412 -0.033285785466 -0.013088584878 0.06756478548 -0.042679850012 -0.014115385711 0.073028579354 
-0.055236779153 -0.014292586595 0.080510884523 -0.075596965849 -0.015190533362 0.091359145939 -0.10413481295 -0.02015293017 0.094799287617 
-0.13669355214 -0.029107877985 0.084630057216 -0.14844685793 -0.030293045565 0.059257242829 -0.14129385352 -0.027738077566 0.032610535622 
-0.12006547302 -0.020533157513 0.0063867536373 -0.092950284481 -0.012905668467 -0.01138633769 -0.066613644361 -0.010075435042 -0.013804009184 
-0.046421807259 -0.0090669868514 -0.011894618161 -0.034082442522 -0.010293456726 -0.0076257698238 -0.025101037696 -0.011858907528 -0.0059825894423 
-0.018496533856 -0.013671703637 -0.0046356800012 -0.014393771999 -0.015569302253 -0.0034555220045 -0.01277506724 -0.017385356128 -0.0032392747235 
-0.013171617873 -0.019161434844 -0.0042406874709 -0.015864158049 -0.02104611136 -0.0062415748835 -0.019948013127 -0.022713625804 -0.010532196611 
-0.023522978649 -0.024036753923 -0.016094230115 -0.026360664517 -0.026426551864 -0.032813072205 -0.026183836162 -0.025130212307 -0.021710366011 
-0.02409324795 -0.027440592647 -0.045270122588 -0.020027443767 -0.028706276789 -0.059094581753 -0.014976738952 -0.030077660456 -0.073465749621 
-0.0070872455835 -0.031420540065 -0.08822388202 0.001502449275 -0.033038139343 -0.10383918136 0.013382874429 -0.034629561007 -0.11980043352 
0.029008021578 -0.035978566855 -0.13291187584 0.046323515475 -0.035749465227 -0.13862651587 0.062856249511 -0.033831980079 -0.13380508125 
0.075870119035 -0.030812839046 -0.11710327119 0.082085639238 -0.027729470283 -0.087512008846 0.076066315174 -0.023698838428 -0.060573872179 
0.067659921944 -0.019681209698 -0.045317605138 0.060150101781 -0.015648785979 -0.034207832068 0.053976900876 -0.012579040602 -0.025638723746 
0.048475913703 -0.010797599331 -0.01971728541 0.043489396572 -0.0096107861027 -0.01365990378 0.043169610202 -0.0087753133848 -0.011701817624 
0.0343949534 -0.0071151689626 -0.0026647679042 0.042402196676 -0.007921308279 -0.0094783008099 0.025913028046 -0.007603529375 0.00090720911976 
0.020535130054 -0.0088345846161 0.0011498226086 0.018715981394 -0.0097435982898 -4.6360091801e-05 0.018111042678 -0.0098289977759 -0.0024048890918 
0.023663789034 -0.0096029918641 -0.0052167354152 0.039908152074 -0.008705355227 -0.0036929200869 0.074854470789 -0.0082778604701 0.015487583354 
0.027853563428 -0.0039448500611 -0.0025711264461 0.035924527794 -0.005611393135 -0.0075856018811 0.04346087575 -0.0081116268411 -0.015227084979 
0.049413926899 -0.010652881116 -0.024465849623 0.053365394473 -0.012814158574 -0.034645549953 0.056239116937 -0.014599062502 -0.044466484338 
0.058379307389 -0.01646688208 -0.054766949266 0.059832204133 -0.018591590226 -0.065783843398 0.061214566231 -0.022055435926 -0.076953813434 
0.060135826468 -0.027567695826 -0.089443922043 0.053717736155 -0.032912474126 -0.10095476359 0.042245551944 -0.035701688379 -0.1063548848 
0.029176367447 -0.035499349236 -0.10409797728 0.017541570589 -0.033888928592 -0.096679121256 0.0096293278039 -0.032505616546 -0.089275985956 
0.0046931062825 -0.033644493669 -0.089041143656 -0.0079989433289 -0.031262822449 -0.071528486907 -0.0018027856713 -0.035179391503 -0.086695604026 
-0.012499473989 -0.027862407267 -0.055959127843 -0.015675639734 -0.023579090834 -0.038052551448 -0.018310742453 -0.018175598234 -0.018310990185 
-0.015413457528 -0.010338929482 0.00087153789354 -0.0075578116812 -0.0025855447166 0.015511577018 0.0016138304491 0.0014189650537 0.020105710253 
0.0057441079989 0.00039621905307 0.017130851746 0.00075366062811 -0.0052039134316 0.0079451538622 -0.013955165632 -0.012294827029 -0.001626326819 
-0.036245826632 -0.020462494344 -0.0073327128775 -0.060838289559 -0.027450866997 -0.006026297342 -0.085197478533 -0.034090742469 0.00040746913874 
-0.10742607713 -0.04016527161 0.012054474093 -0.12738241255 -0.046251624823 0.02665989846 -0.14157612622 -0.050969980657 0.043427601457 
-0.14552515745 -0.052278261632 0.060661673546 -0.13691490889 -0.050083775073 0.074329711497 -0.11710733175 -0.044199571013 0.081472143531 
-0.090622134507 -0.034820273519 0.079858578742 -0.063684329391 -0.023351335898 0.070338524878 -0.04393478483 -0.013314371929 0.057125490159 
-0.030816389248 -0.0071318703704 0.046893242747 -0.02146948874 -0.0034084299114 0.040023136884 -0.014442556538 -0.0015181057388 0.034912694246 
-0.0090758586302 -0.0011663316982 0.031165136024 -0.0042230174877 0.0012947723735 0.025694606826 -0.0057331291027 -0.001838077791 0.028450461105 
-0.0029769148678 0.0044177025557 0.023694645613 -0.0036132310051 0.0053678094409 0.023241441697 -0.0058127064258 0.0016733204247 0.026463881135 
-0.0062068342231 -0.0076262708753 0.03506391868 0.0012996436562 -0.018324291334 0.047278035432 0.015391561203 -0.027487572283 0.056334327906 
0.031085196882 -0.033433787525 0.058188389987 0.043725445867 -0.036606505513 0.053286187351 0.049107685685 -0.035471104085 0.040488388389 
0.050034191459 -0.033045455813 0.027051487938 0.050818733871 -0.030340500176 0.017117414623 0.049188960344 -0.027619374916 0.0083227539435 
0.044034276158 -0.024385476485 0.0011776654283 0.036482471973 -0.020055606961 -0.0030478551053 0.027802430093 -0.014286558144 -0.0036590162199 
0.018763657659 -0.0087224626914 -0.0024682937656 0.021733522415 -0.0099698174745 -0.0034993623849 0.01728451252 -0.0078091640025 -0.0020503082778 
0.018268389627 -0.0056042671204 -0.00041183913709 0.022472705692 -0.0041845883243 0.00061056163395 -0.0084785465151 -0.0065144374967 0.044118288904 
-0.0088718906045 -0.0082503575832 0.048929598182 -0.012874935754 -0.0095441238955 0.054563250393 -0.019667908549 -0.011163167655 0.061046026647 
-0.02846881561 -0.012512613088 0.067394718528 -0.038390498608 -0.013250655495 0.07579819113 -0.052554074675 -0.014163736254 0.084898985922 
-0.072916649282 -0.016779836267 0.096528440714 -0.098319903016 -0.023157306015 0.10030522943 -0.12346589565 -0.032026782632 0.097198732197 
-0.14668111503 -0.032980773598 0.032482534647 -0.1548730582 -0.036741435528 0.056233260781 -0.1270584166 -0.025129467249 0.0078861005604 
-0.10072919726 -0.017265079543 -0.0077986884862 -0.074722394347 -0.012063474394 -0.014113422483 -0.053028739989 -0.0092787910253 -0.015060560778 
-0.038450315595 -0.0098929833621 -0.010188042186 -0.027444045991 -0.011190014891 -0.0073726559058 -0.019346605986 -0.012741295621 -0.005133070983 
-0.014385895804 -0.014585244469 -0.0028448232915 -0.012626315467 -0.016401825473 -0.00146656367 -0.012997676618 -0.018338734284 -0.0014091560151 
-0.015188403428 -0.019979255274 -0.0024731999729 -0.01894270815 -0.021642496809 -0.0051177386194 -0.021459836513 -0.022559156641 -0.0092597482726 
-0.023808639497 -0.023218562827 -0.013500837609 -0.026749214157 -0.025837700814 -0.027832981199 -0.02570842579 -0.024129511788 -0.017941687256 
-0.025443399325 -0.026923578233 -0.038787465543 -0.022906195372 -0.027940647677 -0.050347086042 -0.020486572757 -0.029283605516 -0.061828017235 
-0.015551135875 -0.030519079417 -0.074359565973 -0.008078658022 -0.032295383513 -0.088703818619 -1.683633127e-05 -0.034372389317 -0.10312341899 
0.010622364469 -0.036667041481 -0.11677900702 0.024770054966 -0.038800008595 -0.12940481305 0.042412478477 -0.039179541171 -0.13665953279 
0.059234451503 -0.037659253925 -0.13409101963 0.071907348931 -0.034815706313 -0.12054233253 0.078522264957 -0.031333174556 -0.10018351674 
0.065153352916 -0.018553622067 -0.042878307402 0.070897914469 -0.022474560887 -0.055200446397 0.059294816107 -0.014793745242 -0.033425997943 
0.054259385914 -0.011835793965 -0.025107776746 0.048864990473 -0.010010104626 -0.018446266651 -0.15065421164 -0.037988457829 0.075746029615 
-0.14229415357 -0.040378835052 0.087727665901 0.049081981182 -0.0094224773347 -0.017454026267 0.041578192264 -0.0070708715357 -0.0072598126717 
0.049366991967 -0.0087278019637 -0.015468501486 0.031719755381 -0.0058247847483 -0.00028960581403 0.020292306319 -0.0061029074714 0.0018082043389 
0.017667269334 -0.0083960928023 -0.0011621633312 0.029721686617 -0.0044874241576 -0.0014469469897 0.038146939129 -0.0060122008435 -0.0059885131195 
0.045612618327 -0.0084699261934 -0.013665858656 0.051499050111 -0.01089911256 -0.022966558114 0.055322110653 -0.012948894873 -0.032782737166 
0.058337643743 -0.014605845325 -0.042096041143 0.060519888997 -0.016323501244 -0.052069481462 0.06175377965 -0.018014447764 -0.062959864736 
0.063941121101 -0.021192131564 -0.07420810312 0.064979545772 -0.02733948268 -0.088482901454 0.059028554708 -0.0340430215 -0.10449998826 
0.046288881451 -0.037892889231 -0.11362944543 0.030065476894 -0.038504905999 -0.11165302992 0.015433141962 -0.036595989019 -0.10160300881 
0.011955626309 -0.039853248745 -0.10653930902 -0.0070369457826 -0.034858379513 -0.080607704818 0.00025223472039 -0.037376716733 -0.096596293151 
-0.014231478795 -0.031923562288 -0.065697319806 -0.018899682909 -0.028645733371 -0.049896355718 -0.020506726578 -0.024663640186 -0.033343590796 
-0.021289905533 -0.020237086341 -0.015736151487 -0.017370948568 -0.014871166088 0.00072642893065 -0.0098216319457 -0.010031374171 0.013540759683 
-0.0022148748394 -0.0073851333 0.017138836905 0.00094945920864 -0.0079902773723 0.014367427677 -0.0043129147962 -0.011760684662 0.0048139072023 
-0.018880330026 -0.014813860878 -0.0048015397042 -0.040431067348 -0.019777292386 -0.010643781163 -0.064586803317 -0.024992350489 -0.010695029981 
-0.089705228806 -0.030855221674 -0.0048255361617 -0.11364210397 -0.037227876484 0.0075425477698 -0.1346412003 -0.043660644442 0.02376415208 
-0.14915296435 -0.04885256663 0.043085280806 -0.15316423774 -0.051330443472 0.062120050192 -0.14474831522 -0.050041083246 0.077314227819 
-0.12443933636 -0.044596429914 0.085854068398 -0.096316210926 -0.036133050919 0.085550509393 -0.068304426968 -0.026020424441 0.077504463494 
-0.045935038477 -0.01633734256 0.065214455128 -0.031671386212 -0.010056809522 0.053430888802 -0.021211177111 -0.0064544603229 0.045392662287 
-0.014038190246 -0.0043518515304 0.039186719805 -0.0095106856897 -0.0038083384279 0.03457596153 -0.0067593520507 -0.0043487185612 0.031854502857 
-0.0049622301012 -0.0034159650095 0.026871092618 -0.0054466156289 -0.0053855166771 0.030585799366 -0.0046202712692 -0.00094027625164 0.024067163467 
-0.0051342635415 0.0009184925002 0.02300805971 -0.0075603323057 -0.00049391383072 0.02455278486 -0.0098103331402 -0.0060764783993 0.032615214586 
-0.0075656566769 -0.016188142821 0.048461269587 0.0056240148842 -0.02565680258 0.065664157271 0.024271275848 -0.031070452183 0.075140438974 
0.042249698192 -0.033624842763 0.077217705548 0.063070513308 -0.034213390201 0.076663374901 0.064601793885 -0.034581258893 0.054894339293 
0.061222568154 -0.034178636968 0.039123829454 0.066517196596 -0.032024580985 0.035378448665 0.069740585983 -0.030453076586 0.026252774522 
0.065521731973 -0.02641431056 0.016095595434 0.054683517665 -0.020794605836 0.0064585246146 0.040120512247 -0.015162260272 -0.00081017526099 
0.026939533651 -0.010591591708 -0.0038941972889 0.01871994324 -0.0063083907589 -0.0015012937365 0.018727546558 -0.0076523572206 -0.0030061253347 
0.019010670483 -0.0057984828018 -0.00058741495013 0.098048120737 -0.013959862292 0.042094584554 0.10328119248 -0.019273983315 0.064116604626 
0.098043017089 -0.024203702807 0.07804915309 0.084961295128 -0.029399350286 0.082202993333 0.066692553461 -0.028880164027 0.097946874797 
0.058411173522 -0.024535661563 0.10805906355 0.041632894427 -0.022241391242 0.11061035097 0.02419385314 -0.01866854541 0.10713987797 
0.004079577513 -0.016176708043 0.094062916934 -0.012308714911 -0.012914230116 0.07361163944 -0.015497224405 -0.0084790252149 0.054618876427 
-0.012460307218 -0.0062579028308 0.043298546225 -0.010174354538 -0.0070412443019 0.037253037095 -0.007960954681 -0.0073895929381 0.032716270536 
-0.0058201621287 -0.0071291122586 0.034250903875 -0.0058754947968 -0.0065226331353 0.030514258891 -0.0062406370416 -0.0072849248536 0.038146506995 
-0.0073394184001 -0.0069006686099 0.041558772326 0.039824616164 -0.0060697183944 -0.0047628497705 0.030951350927 -0.004476161208 -3.3817024814e-05 
0.047181963921 -0.0083588594571 -0.013063092716 0.052816927433 -0.01050616242 -0.022240972146 0.056250020862 -0.012283352204 -0.030866622925 
0.059182517231 -0.013605520129 -0.038593105972 0.061303928494 -0.015199963003 -0.047660958022 0.06253991276 -0.0168054346 -0.057747226208 
0.065073557198 -0.019670946524 -0.06791049242 0.069223448634 -0.026115134358 -0.082535378635 0.066697902977 -0.035905100405 -0.10566607863 
0.050385657698 -0.041121829301 -0.12059485912 0.031687464565 -0.042171660811 -0.11987064034 -0.0067231692374 -0.03340389207 -0.086895793676 
-0.00012970327225 -0.03499859944 -0.10020333529 0.0079806186259 -0.037495855242 -0.10976328701 -0.012746566907 -0.032998263836 -0.073236353695 
-0.01854201965 -0.031383421272 -0.059347316623 -0.02203306742 -0.028632152826 -0.044838104397 -0.023916477337 -0.025690505281 -0.029991377145 
-0.023339917883 -0.022247117013 -0.01542355027 -0.019710551947 -0.019192306325 -0.0026531056501 -0.012724111788 -0.015357682481 0.0093137985095 
-0.0067021800205 -0.013200029731 0.012456516735 -0.0044226078317 -0.013073357753 0.011123420671 -0.006140475627 -0.013354527764 0.0069035091437 
-0.043946716934 -0.017351984978 -0.013429379091 -0.025654617697 -0.015302276239 -0.008224000223 -0.066124513745 -0.020531032234 -0.014913831837 
-0.091315641999 -0.025839777663 -0.010239946656 -0.11564468592 -0.032183777541 0.0018272640882 -0.13747324049 -0.039234519005 0.018180705607 
-0.15238164365 -0.045532383025 0.039142999798 -0.15729478002 -0.049014151096 0.059725720435 -0.14995454252 -0.048178330064 0.07812871784 
-0.12785623968 -0.041651889682 0.092424556613 -0.069875746965 -0.025547834113 0.083676874638 -0.096811443567 -0.033807259053 0.091480135918 
-0.047572683543 -0.017785796896 0.072381235659 -0.032358147204 -0.012201703154 0.060330949724 -0.021112855524 -0.0088122412562 0.051785778254 
-0.01380365435 -0.006700810045 0.044479675591 -0.008974683471 -0.0058313980699 0.039078492671 -0.0070270579308 -0.0059739933349 0.035886775702 
-0.0058046933264 -0.0067086881027 0.034851528704 -0.014084197581 -0.014476154931 -0.0026670934167 -0.0098105212674 -0.01430145558 0.0022290325724 
0.07782793045 -0.025918750092 -0.068671658635 0.078467801213 -0.028103386983 -0.080163545907 0.020925758407 -0.0089508350939 -0.0048606130295 
0.033752050251 -0.01013093628 -0.0035868950654 0.055613461882 -0.013360670768 0.0054512522183 0.075484335423 -0.018300732598 0.02123966068 
0.086444534361 -0.024001859128 0.037414096296 0.086203791201 -0.028487473726 0.050887212157 0.078343510628 -0.032627996057 0.056977838278 
-0.0072579835542 -0.0080900816247 0.044851671904 -0.0096047511324 -0.0090915337205 0.051050338894 -0.015342725441 -0.010536139831 0.058328125626 
-0.024104759097 -0.0119035393 0.065922454 -0.034796275198 -0.01301452145 0.075172461569 -0.049700990319 -0.014744590037 0.085184536874 
-0.06799916923 -0.018146589398 0.095893204212 -0.08917221427 -0.024445515126 0.099996738136 -0.10846635699 -0.032050419599 0.099558733404 
-0.15411537886 -0.045342259109 0.073811031878 -0.15547397733 -0.042085137218 0.067692436278 -0.15714778006 -0.0415051952 0.05310023576 
-0.14997427166 -0.037574447691 0.031690880656 -0.13276927173 -0.029747834429 0.0083567425609 -0.10855427384 -0.021302359179 -0.0084717450663 
-0.083097323775 -0.015169141814 -0.016243364662 -0.059525523335 -0.011442830786 -0.018189877272 -0.042358096689 -0.011232445948 -0.01265927311 
-0.02916751802 -0.011934117414 -0.008618414402 -0.019850689918 -0.012969487347 -0.004989775829 -0.01435658522 -0.014199263416 -0.0017923671985 
-0.01241631154 -0.015584046021 0.00027279549977 -0.012416606769 -0.017154179513 0.00086194195319 -0.01409369614 -0.018613733351 0.00023188565683 
-0.017257751897 -0.020143046975 -0.0014051730977 -0.019636923447 -0.021064640954 -0.0046853120439 -0.021332634613 -0.021476715803 -0.0068694790825 
-0.022819170728 -0.021965710446 -0.0093528879806 -0.025813214481 -0.026639342308 -0.033648118377 -0.026860594749 -0.025331318378 -0.022984636948 
-0.02367470786 -0.027815110981 -0.044949460775 -0.021182052791 -0.028834123164 -0.055623937398 -0.019257331267 -0.029543301091 -0.063353247941 
-0.015019855462 -0.030719740316 -0.072487860918 -0.014261675067 -0.0093423491344 0.041076660156 -0.0095755811781 -0.0076884967275 0.031224869192 
-0.0064650997519 -0.0055139483884 0.027228651568 -0.007006754633 -0.0039514708333 0.025300744921 -0.0077180149965 -0.0024844014551 0.024813530967 
-0.011137856171 -0.0054976264946 0.028705924749 -0.012956094928 -0.012393526733 0.042492441833 -0.0063172527589 -0.020932106301 0.064083002508 
0.01690919511 -0.026402423158 0.08775433898 0.037950120866 -0.028839860111 0.092706359923 0.049524068832 -0.030730325729 0.090408585966 
0.02040297538 -0.040888208896 -0.12097148597 0.037287194282 -0.042534645647 -0.12968586385 0.054455921054 -0.041512139142 -0.12887383997 
0.067281216383 -0.038376696408 -0.11748234928 0.074384994805 -0.034178301692 -0.10407884419 0.075294986367 -0.031384885311 -0.090022772551 
0.073016986251 -0.023644467816 -0.064288593829 0.071898452938 -0.024486005306 -0.072204746306 0.072057887912 -0.023537011817 -0.061478696764 
0.067275956273 -0.020637989044 -0.052794098854 0.062939718366 -0.017091352493 -0.042966157198 0.058754757047 -0.013967753388 -0.034458450973 
0.054332122207 -0.011297468096 -0.02567528747 0.055729035288 -0.010846649297 -0.026655262336 0.048360943794 -0.0082768416032 -0.013700678945 
0.053629308939 -0.010118401609 -0.022653279826 0.0407105349 -0.0063442080282 -0.0053081433289 0.031195448712 -0.0047452100553 0.00045561935985 
0.011732243001 -0.022378163412 0.091852560639 -0.0040692971088 -0.02003948018 0.077573895454 -0.014811902307 -0.013314967044 0.050959613174 
-0.0063732308336 -0.0075244531035 0.040091991425 -0.15821881592 -0.045737244189 0.055689819157 -0.15214726329 -0.041767317802 0.034244522452 
-0.13655766845 -0.034457329661 0.012281359173 -0.11413262039 -0.026501979679 -0.0046112691052 -0.08936110884 -0.020183401182 -0.015105690807 
-0.064458094537 -0.01551971212 -0.018709471449 -0.04436866194 -0.013961165212 -0.014482305385 -0.028900401667 -0.013722879812 -0.0093406978995 
-0.018362883478 -0.013852389529 -0.0046479976736 -0.013011481613 -0.014256265946 -0.00032394612208 -0.01148655545 -0.015086587518 0.0021965841297 
-0.011657808907 -0.016373954713 0.0029536520597 -0.018941892311 -0.020202297717 -0.0013932771981 -0.018724709749 -0.020313734189 -0.0013747051125 
-0.021446932107 -0.029627399519 -0.052430965006 -0.024244671687 -0.027874216437 -0.039667747915 -0.018076555803 -0.030611177906 -0.063942313194 
-0.008279771544 -0.0081199621782 0.047008268535 -0.013531599194 -0.0094274599105 0.054406449199 -0.021756377071 -0.011079682037 0.062694728374 
-0.032545953989 -0.01298417151 0.07254152 -0.048415794969 -0.015977075323 0.082687854767 -0.065831117332 -0.019905716181 0.092092327774 
-0.08093316108 -0.024211792275 0.09771438688 -0.089341104031 -0.028545815498 0.09602175653 -0.068036854267 -0.0227904208 0.088865175843 
-0.047976315022 -0.017341677099 0.078591711819 -0.032316595316 -0.013031299226 0.067354746163 -0.021149115637 -0.010254490189 0.057801507413 
-0.013358221389 -0.0083043491468 0.049904379994 -0.0086638173088 -0.0072937584482 0.04381396994 -0.0066656796262 -0.0069426633418 0.039813160896 
0.066132865846 -0.01936503686 -0.054739844054 0.062609918416 -0.015863807872 -0.045646395534 0.059562508017 -0.013216106221 -0.036982357502 
-0.025481615216 -0.025905251503 -0.027509517968 -0.02542556636 -0.024177635089 -0.018026012927 -0.024379491806 -0.022981759161 -0.013000524603 
-0.010271443985 -0.016065184027 0.008277002722 -0.014492156915 -0.017902927473 0.0057393671013 -0.008151373826 -0.015229411423 0.0082880947739 
-0.0079410867766 -0.014573307708 0.006823678501 -0.0096684331074 -0.014908703975 0.0044570192695 0.065593570471 -0.018794426695 -0.060435499996 
0.056359950453 -0.011511976831 -0.029208887368 0.058781106025 -0.012276637368 -0.03407844156 0.060972206295 -0.013903655112 -0.042464263737 
-0.011665692553 -0.0074237543158 0.030253194273 0.062732845545 -0.015760894865 -0.051318459213 -0.0121233752 -0.016921041533 0.0050047058612 
-0.015463688411 -0.018557561561 0.0029795020819 -0.010346984491 -0.015971127898 0.0054193115793 -0.0073274774477 -0.0030085826293 -0.0049800556153 
-0.033828567713 -0.019309040159 -0.0044380347244 -0.0091432249174 -0.0032560441177 0.038304444402 0.023394668475 -0.0040064109489 0.0016110098222 
0.022333940491 -0.0041994587518 0.0018694836181 -0.016085250303 -0.018970493227 0.0010471728165 -0.013086644933 -0.017530512065 0.0024947996717 
-0.019560793415 -0.020115798339 -0.0010174013441 
