# vtk DataFile Version 5.1
vtk output
ASCII
DATASET POLYDATA
POINTS 1114 double
77.883888245 63.633712769 45.870170593 76.773333956 63.759042593 46.914537704 76.65212859 64.925041763 46.544442598 
77.750616978 64.853534064 45.520242658 76.052685314 63.742539141 48.241610567 75.810015367 64.991351171 47.801084573 
75.645244427 63.810728703 49.69871468 75.341683762 65.173899728 49.25141003 75.554734073 63.972231077 51.204890887 
75.231742779 65.431409692 50.880525284 75.706403021 64.097291744 52.717641114 75.485983432 65.513694014 52.587317628 
75.937207929 64.015878561 54.227555696 75.712302452 65.432651943 54.206497634 76.507160437 63.921378574 55.643157781 
76.145280917 65.379340445 55.706058979 77.041176383 63.9893319 57.069868407 76.705912183 65.392521195 57.187980011 
77.687672929 64.077753906 58.441439573 77.367284422 65.42255396 58.615012059 78.537834663 64.115911402 59.709814494 
78.248686271 65.474482877 59.914146521 79.524997629 64.209041705 60.864075682 79.318322358 65.553100232 61.055360895 
80.773618795 64.217482177 61.729630471 80.594578142 65.628149907 61.952220788 82.194266183 64.296340511 62.290326254 
82.012955141 65.720117846 62.623539679 83.653443003 64.357193878 62.714732344 83.532643835 65.819816915 63.000326814 
85.172110587 64.424088021 62.851153267 85.093141173 65.862822575 63.165600804 86.70059268 64.422940754 62.904962665 
86.656871273 65.867144347 63.157350616 88.211586248 64.415493907 62.757999455 88.193521347 65.851372633 63.013348193 
89.689888952 64.461040356 62.375866788 89.672089876 65.894598653 62.610206704 91.168900575 64.551039963 62.005494507 
91.109015759 65.960460809 62.073582645 92.647833129 64.648399989 61.675763489 92.519402883 65.981814457 61.547005488 
93.883115126 64.710640095 60.775793704 93.786653043 66.021718042 60.681104249 94.978504605 64.635316943 59.71793585 
94.949959109 66.034413065 59.667254115 95.836845387 64.56474155 58.477284646 95.917327042 66.040072778 58.480653399 
96.426778912 64.53703061 57.073815221 96.661894883 66.072471309 56.999695286 96.770356718 64.521312615 55.588570604 
96.982414397 65.85616885 55.398109559 96.496693872 64.095107748 54.145241427 96.732822345 65.560132277 53.906334131 
96.110096576 63.780277154 52.701914084 96.232427276 65.276762206 52.462420262 95.549691724 63.539747892 51.306576541 
95.609595645 65.033892715 51.08194464 94.839226187 63.344262843 49.966942103 94.900930259 64.829148722 49.754906524 
94.05979962 63.177045951 48.661964402 94.107462054 64.661523374 48.476557592 93.143121763 63.095765823 47.440147598 
93.197399297 64.54305482 47.2865555 92.012151216 62.974508533 46.431543568 92.101996849 64.456663967 46.256464261 
90.744721026 62.917566069 45.590515886 90.882290181 64.419059012 45.362068548 89.38377626 62.946203916 44.898867815 
89.520126742 64.452150618 44.684751151 87.94505292 62.988807811 44.381179575 88.097427226 64.520031886 44.123551683 
86.466563396 63.125891989 44.015371083 86.585970722 64.652934878 43.775711201 84.955811085 63.193054034 43.800198767 
85.022238181 64.792976535 43.621483729 83.433736043 63.293541137 43.753079774 83.441753264 64.896633486 43.557304403 
81.925030236 63.429659877 43.917356593 81.876662934 64.91406318 43.733751396 80.452650087 63.504456898 44.298166224 
80.364026307 64.871654069 44.088578666 79.066386115 63.503596276 44.908656401 78.945554258 64.80846025 44.621823514 
78.394554138 88.998214722 37.739414215 79.94793385 88.9803362 37.552772427 79.93683386 87.391216754 37.798728005 
78.378033372 87.376742982 37.890331196 81.499705556 88.957122121 37.472893773 81.492521525 87.399654179 37.770712126 
83.046802354 88.918396133 37.703404341 83.048531069 87.398229795 37.930358527 84.598482841 88.887464742 37.899217477 
84.596005959 87.386212122 38.12625265 86.154197192 88.863392968 38.064495226 86.132935466 87.367841789 38.374761404 
87.659142973 88.889521145 38.487304216 87.628010689 87.397589971 38.824282009 89.13084009 88.953344403 39.002014441 
89.089795361 87.456083435 39.359328831 90.553534205 89.073357615 39.642078197 90.501835643 87.543835453 40.00322593 
91.847936713 89.200396762 40.505951903 91.807970315 87.65833603 40.831342758 92.993838164 89.314410758 41.539355885 
93.053864495 87.779943534 41.731569364 93.94075645 89.406624836 42.78152562 94.153901548 87.891229022 42.809156594 
94.911466589 89.538733994 44.001449174 95.282776231 88.055291617 43.877682446 95.882878038 89.670725915 45.220903809 
96.312516412 88.199727671 45.051558738 96.827620898 89.79258893 46.457099595 97.236830064 88.301940299 46.333710537 
97.433851849 89.819700779 47.89928277 97.881067093 88.279785779 47.801202189 97.97745738 89.844231133 49.365391634 
98.476685562 88.304725145 49.318527316 98.43575501 89.880436479 50.856251488 98.972268442 88.45833592 50.849345196 
98.640201475 89.983774837 52.404045452 99.249977984 88.641826222 52.421109067 98.50148612 90.036561189 53.942683816 
99.151258461 88.738212344 54.017414316 98.143919913 90.062885822 55.460298182 98.719484761 88.748709464 55.525721439 
97.497419331 90.079046687 56.885050494 97.981148515 88.697403745 56.925272763 96.705091192 90.087544397 58.228603793 
97.137576864 88.64275814 58.264733832 95.8219156 90.096302196 59.519602595 96.194393462 88.484748734 59.572367159 
94.867565778 90.131937054 60.758993535 95.08258554 88.088521917 61.115981215 93.844097239 90.154501761 61.94015879 
93.893906617 88.695222605 62.251838644 92.769338267 90.167209308 63.074295007 92.888601427 88.738698322 63.275638183 
91.432639641 90.1261911 63.886512722 91.654858393 88.650289832 64.137114015 90.023403954 90.103145525 64.527880445 
90.307700848 88.631019159 64.891226357 88.509215585 90.10610426 64.922048122 88.851918683 88.66516433 65.516052982 
87.004487728 90.097138083 65.350343373 87.318964723 88.66168273 66.011006947 85.495272886 90.084592833 65.752417426 
85.731497985 88.654466435 66.416140644 83.940568464 90.072104894 65.928148866 84.103053848 88.663609394 66.703120512 
82.3812759 90.087486744 66.009991594 82.372202926 88.648919703 66.798416993 80.817298624 90.131324969 65.995969501 
80.681676978 88.826932573 66.64816197 79.473562931 90.09424758 65.259278453 79.308635127 88.728552117 65.780009492 
78.18652372 90.049858013 64.373636125 78.028483036 88.646492346 64.79800104 76.994954399 90.037799779 63.359653641 
76.820470602 88.564941335 63.754470631 75.789318922 89.983838333 62.364759111 75.653542344 88.465148217 62.687151724 
74.572542007 89.896257411 61.385008004 74.509136634 88.352708412 61.609631965 73.398589531 89.806672181 60.354496773 
73.371378301 88.257345178 60.526881456 72.344136051 89.673558394 59.224268978 72.361762278 88.121854922 59.357260888 
71.477897921 89.471885515 57.936983897 71.493700138 87.954851419 58.065800372 70.797122026 89.232386503 56.554993075 
70.787599554 87.765016239 56.678593243 70.192267869 88.999583484 55.133968582 70.128973528 87.636080135 55.247022388 
69.656665451 89.160854386 53.672713959 69.492980726 87.66014655 53.790483079 69.165587257 89.254693077 52.195101872 
68.898422237 87.709963769 52.31299437 68.771733841 89.201284246 50.681771005 68.477579838 87.714017506 50.790849702 
68.749895201 89.160779409 49.154829971 68.445310657 87.669826647 49.194139672 69.034997634 89.130921371 47.61665949 
68.701656235 87.63491525 47.62403707 69.549654092 89.075712353 46.145090127 69.241821252 87.573167709 46.116061538 
70.140680504 89.014648987 44.701212275 69.861736726 87.54070961 44.636691579 71.154967877 88.967733225 43.510765568 
70.830814017 87.479851127 43.380977572 72.171076557 88.934675772 42.3216402 71.839202013 87.448092684 42.149694099 
73.192309079 88.940605587 41.136232127 72.9343738 87.427924113 41.001319396 74.348433058 88.955000908 40.102087804 
74.142619329 87.407062119 39.976963694 75.641778882 88.978007986 39.221820469 75.428599233 87.387066255 39.051954562 
77.004904788 88.990172068 38.458408879 76.887398468 87.361799803 38.407924834 75.435751065 66.176655084 47.174325003 
76.378247219 66.108200983 46.024850702 74.796539096 66.439424871 48.622525469 74.496100352 67.030426398 50.478796313 
74.834863751 66.873000871 52.608130079 75.178929201 66.788333766 54.309327107 75.680880093 66.767824715 55.876226186 
76.260581904 66.769309041 57.379412864 76.95859206 66.783492926 58.841803949 77.82884098 66.81603248 60.224537764 
78.964610244 66.906118733 61.405251763 80.299423519 67.021144998 62.337570685 81.788863205 67.1740038 63.025382947 
83.371427564 67.280587318 63.50414152 85.014550649 67.278624395 63.719126144 86.656056158 67.234205058 63.745627814 
88.267311957 67.181497069 63.624377493 89.81424376 67.192784631 63.252377052 91.297046624 67.248252802 62.699333398 
92.717756345 67.308514498 62.022949403 94.043221235 67.372873763 61.149758492 95.28480745 67.405442887 60.15441689 
96.505741609 67.452957121 58.96254627 97.597929161 67.787367179 57.099703138 97.512645137 67.318294588 55.093676348 
97.089673855 66.992209272 53.520406129 96.522870586 66.711644826 52.101546479 95.855943586 66.462921243 50.738915184 
95.106577456 66.257922193 49.438555522 94.27731293 66.098206851 48.197676584 93.376835437 65.968472583 47.011593387 
92.276058001 65.903225809 45.99349026 91.058029994 65.886351163 45.101157836 89.725342389 65.925668953 44.360804726 
88.294103062 66.015951659 43.770945973 86.74854785 66.175790701 43.406507992 85.145536447 66.36343167 43.272796003 
83.421856813 66.508983667 43.206299504 81.774299431 66.429529909 43.502797961 80.159727312 66.257237329 43.8879456 
78.746305353 66.08177523 44.285866037 77.467798401 66.010564012 45.004260125 81.515993739 85.844428145 37.70624468 
79.920270411 85.805918985 37.672731253 83.088052212 85.861916271 37.884098556 84.62812864 85.857598473 38.195814745 
86.139215284 85.85563672 38.603221693 87.6365168 85.877201766 39.067792176 89.104144648 85.921661132 39.604848736 
90.537381907 85.997525546 40.227489592 91.880918596 86.109424609 41.010012136 93.233684154 86.252055856 41.786757038 
94.572393805 86.449171831 42.585506185 95.808105064 86.653463785 43.573102996 96.980619549 86.867373584 44.684480931 
97.947674292 86.964263695 45.997173035 98.685829264 86.939260494 47.501790326 99.358246628 86.91008728 49.145472243 
99.848509844 87.153771838 50.831659979 100.03160497 87.334635527 52.482999138 99.859767408 87.420576522 54.138265533 
99.384707381 87.427246761 55.661169324 98.660587043 87.393056686 57.069536908 97.822425397 87.32636264 58.373216601 
96.862067167 87.006307422 59.491401258 95.948393216 86.406182044 60.687286244 93.11303403 87.390516799 63.515926839 
93.826919626 87.608292224 62.683732191 92.013163231 87.225945116 64.460617783 90.742442008 87.209621406 65.450245821 
89.301253025 87.304213837 66.25728391 87.753992846 87.42285629 66.935545804 86.146969313 87.478362709 67.422712858 
84.418780719 87.453601974 67.815019241 82.302858015 87.206428858 68.152408453 80.278666102 87.531278757 67.442062104 
78.852450645 87.473600776 66.471423183 77.587739484 87.370664964 65.461877688 76.410344963 87.210318312 64.358843837 
75.240614702 87.091067854 63.266879341 74.146894236 86.937023137 62.108912281 73.022947388 86.827531801 60.980192024 
72.046850611 86.666937886 59.734504362 71.21146411 86.482946922 58.387644753 70.557716602 86.300190625 56.92526383 
69.955919581 86.174818498 55.424600876 69.246458027 86.152728128 53.957015258 68.600099355 86.164402559 52.444615072 
68.015835773 86.210897837 50.933853766 67.889808732 86.190874927 49.213630402 68.176262582 86.146985755 47.591614085 
68.787018707 86.076025353 46.035998503 69.508013155 86.03161325 44.546145451 70.445350322 85.980046462 43.216799746 
71.433442515 85.958032348 41.921446731 72.526217166 85.932382899 40.719216251 73.803246213 85.86248424 39.682942288 
75.16979675 85.791867846 38.778837908 76.721056567 85.715295783 38.176715941 78.314758651 85.764435549 37.736559959 
94.495517972 86.755767535 62.288546761 95.257097105 85.487468809 61.88795745 74.250054459 68.23276426 52.947425432 
73.88058536 68.461357559 51.313574624 74.653224425 68.160835668 54.546813104 75.15677853 68.139734641 56.098016228 
75.826813426 68.163231093 57.580886347 76.6092314 68.207005103 59.017580022 77.488141337 68.251111371 60.4206575 
78.603320487 68.325333558 61.680803625 79.911991293 68.447141833 62.701200782 81.432075204 68.629463255 63.484817789 
83.167072634 68.793356328 64.140764279 84.999372392 68.687031905 64.431579947 86.706131314 68.585792718 64.470682963 
88.39245531 68.493441685 64.350597941 90.005583579 68.466525999 64.011583373 91.548132993 68.499654263 63.457136774 
93.027306131 68.53309537 62.776949386 94.430682051 68.57678445 61.929777671 95.740428094 68.645091455 60.934423351 
96.987276579 68.791485719 59.877310734 98.033375707 69.356070496 58.4907846 97.465211776 68.412070258 53.016867171 
97.966471469 68.798882693 54.439062683 96.84844123 68.104138055 51.636998052 96.142551061 67.853681428 50.323411205 
95.351155271 67.656203769 49.072621536 94.509204683 67.499055217 47.859551035 93.59192908 67.377890908 46.698468697 
92.530132263 67.311928665 45.649306924 91.330923322 67.309205721 44.733843093 90.009638465 67.365507352 43.95809402 
88.579518325 67.4749349 43.333706613 87.06112104 67.631491059 42.87989216 85.39436827 67.870097999 42.566077341 
83.338434179 68.244476837 42.184679214 81.33780429 67.808354084 42.635790752 79.669992607 67.330103812 42.951958227 
78.21628546 67.048388056 43.45165452 76.939725712 66.92856516 44.197140545 75.914631262 67.144184435 45.261244242 
74.993246752 67.326374243 46.425356185 98.413044475 69.38652702 55.934948984 98.815274455 70.341108016 57.251206012 
93.650170104 86.07885945 63.428166407 94.360468674 84.58307051 63.089155897 92.552414414 85.649984321 64.713288003 
91.215823886 85.700592579 65.986291684 89.779187797 85.863777348 67.004243017 88.235167042 86.106051692 67.842170432 
86.633567717 86.255881891 68.395788938 85.03774367 86.264017453 68.834365777 83.497606519 85.949610879 69.307139486 
78.235930518 86.293254561 67.23207131 79.544509675 86.283835958 68.179435676 76.965530114 86.19986943 66.225497741 
75.743470213 86.087639121 65.167858501 74.685641004 85.819999627 63.960384519 73.634946211 85.602570518 62.736821162 
72.583652478 85.429810296 61.509250168 71.667716145 85.21539565 60.168777103 70.921636346 84.977157253 58.742892487 
70.455171929 84.749398511 57.14445741 69.915425468 84.632365487 55.558856831 69.210269299 84.592157097 54.037081776 
68.461301176 84.576355358 52.530750494 67.694045646 84.564347339 51.056783112 67.540696055 84.541658324 49.255538028 
67.802157492 84.518942829 47.5778403 68.440391483 84.506807845 45.981853901 69.164594187 84.481752991 44.45893977 
70.035658801 84.457570094 43.048410234 71.043097469 84.435467536 41.729379672 72.146383574 84.396185644 40.490774343 
73.449605446 84.290417541 39.411014867 74.838678525 84.172961517 38.445756819 76.536976714 84.019021921 37.797257495 
78.312895785 84.148416077 37.394645252 79.958061323 84.247621969 37.377733983 81.589515827 84.315651828 37.482495933 
83.175625996 84.341088719 37.732684965 84.721873204 84.337462241 38.083030397 86.23490258 84.323425711 38.541992256 
87.747055634 84.333212357 39.026028346 89.241310359 84.36760221 39.557447841 90.711304216 84.432299696 40.18038788 
92.181866871 84.565922777 40.814535025 93.624044582 84.752357213 41.516709144 95.046019019 85.006210682 42.253576822 
96.386197698 85.261260131 43.191480007 97.648296235 85.518969914 44.261159208 98.655266234 85.631790172 45.561324188 
99.50427343 85.561655523 47.102556441 100.38232508 85.194613549 48.972765671 100.74275098 85.745085388 50.950236902 
100.70417646 85.935787956 52.704009177 100.5243592 86.038926935 54.347517116 100.06947971 86.077848107 55.881679372 
99.297966259 86.058004537 57.262657125 98.494119892 86.056521721 58.502155468 97.54810832 85.795748057 59.411299041 
96.812519679 85.127246227 60.330109573 96.101253214 84.219878538 61.292428803 95.215658435 83.20596096 62.304135156 
93.05308467 83.543861109 64.664652549 94.261953981 82.047953385 63.375333046 81.004987503 85.934784403 69.059924223 
82.236280418 85.057511557 69.754165361 98.964660534 70.662662792 55.004631411 99.441744759 71.392545605 56.218149066 
98.531233033 70.109678147 53.670350214 97.935914431 69.74962189 52.366212152 97.291961929 69.416250147 51.064914969 
96.554745801 69.16400904 49.803445697 95.744311984 68.97313668 48.59919195 94.838399525 68.847311301 47.448691114 
93.894425148 68.744354376 46.320394568 92.84401309 68.697148471 45.275066732 91.649066309 68.724207635 44.365437631 
90.385366275 68.773444441 43.502342896 88.98611052 68.888900689 42.815653142 87.506761804 69.013591564 42.236413855 
86.025460422 69.17363413 41.693335339 84.531202617 69.452345723 41.042396478 78.965301536 67.981486975 41.779871062 
80.502321398 68.60947661 41.345649156 77.476640914 67.507952375 42.318979036 76.179566558 67.546560833 43.169611518 
75.143081207 67.896904367 44.291611352 74.276881831 68.226102227 45.496507802 73.865522002 69.602283976 53.244027425 
73.468017844 69.718285095 51.790743549 74.301783895 69.573685833 54.737571015 74.81139907 69.583528902 56.25136618 
75.487036817 69.625231138 57.704766736 76.321119596 69.675094789 59.099449835 77.254756797 69.720656081 60.457447418 
78.283771509 69.78293074 61.733309181 79.503541496 69.912599889 62.896531973 80.944947154 70.156040299 63.89536731 
82.872066308 70.569362146 65.001302024 85.102010086 70.130768171 65.271879268 86.922281177 69.928449784 65.281271842 
88.614107307 69.807516698 65.144955162 90.249158735 69.7724744 64.782678449 91.821442557 69.798965331 64.219613369 
93.322978128 69.830425952 63.521139954 94.764608196 69.868885095 62.703781922 96.047924227 69.957458445 61.718553422 
97.239549654 70.171912424 60.637066714 98.301204876 70.696282237 59.456591199 99.044237791 71.459718737 58.302618732 
99.757398248 72.327015546 57.293532513 100.20891115 72.252392518 55.331734231 100.47469628 73.136082358 56.339771581 
99.798990495 71.666164864 54.135453732 73.425088974 68.979560721 49.971576806 73.108527926 69.950738121 50.541017185 
72.90531685 69.587461711 49.046962174 72.7473162 70.079749643 49.737471209 82.072429481 69.104862292 40.783329564 
83.326558174 69.966814466 40.11231901 91.431353081 83.917911664 66.402248272 89.974871456 84.271684854 67.61000376 
88.53443908 84.635421631 68.573039375 87.0230716 84.943133377 69.189107432 85.505898346 85.033701848 69.591977448 
84.224598047 84.808674742 69.836992749 83.212013645 84.067552564 70.241680841 81.250589458 83.983073284 70.084540867 
82.299937869 83.07542044 70.439381534 80.058616649 84.767424443 69.612062026 78.818661949 85.087865591 68.834782155 
77.544899918 85.154187192 68.001655177 76.334133224 85.000523203 66.989892111 75.117226847 84.839325496 65.920000989 
74.095343847 84.543637904 64.685145257 73.080685918 84.279242523 63.410794218 72.063004495 84.052830923 62.118593378 
71.315540142 83.717551738 60.617688746 70.740473137 83.394634551 59.047094979 70.342123616 83.133181741 57.375708622 
69.914404016 83.043259026 55.688358036 69.244700954 83.010004857 54.09455393 68.503002475 82.980483723 52.541328955 
67.712866401 82.947100205 51.058958435 67.513703251 82.929428249 49.277193857 67.613282303 82.913827278 47.56784833 
68.199195891 82.902484172 45.934393423 68.867961719 82.895956062 44.380600108 69.671420167 82.900401649 42.918217572 
70.602912541 82.905133599 41.531375541 71.684501231 82.868397893 40.253810771 72.948464045 82.731310369 39.146751066 
74.374614994 82.514986217 38.075876368 76.338082206 81.979941997 37.0687633 78.478539559 82.472109983 36.90036939 
80.170025933 82.736798371 36.88937412 81.772988985 82.832267855 37.089548008 83.339758458 82.853513373 37.41988745 
84.874001936 82.83437709 37.826524616 86.401503419 82.811235472 38.265904221 87.92267997 82.801217206 38.761941266 
89.455258299 82.821793448 39.291418584 90.989748952 82.874221447 39.885626043 92.563674316 83.027326926 40.42362873 
94.096978197 83.2769652 41.071373723 95.588760449 83.576211104 41.802211273 96.985135646 83.855312449 42.734484228 
98.318311807 84.15324856 43.792483565 99.227317481 84.225165728 45.149233226 100.07633345 84.196764992 46.521587941 
100.71641807 83.794490504 47.804300436 101.34874761 84.527748614 53.015148211 101.52016628 84.310454872 51.459763476 
101.052634 84.564459123 54.618226506 100.55633734 84.577128602 56.155174659 99.729256986 84.653087543 57.56908887 
98.865946376 84.812778516 58.703286491 98.063345407 84.929886494 59.377176649 97.67322265 84.131037865 59.89243754 
97.024444608 83.112346585 60.583661296 96.190600807 82.007137836 61.431405084 95.259836264 80.858586355 62.30306188 
93.45012372 80.589805567 64.261807366 94.373659516 79.602925112 63.127287884 92.425475018 81.546568604 65.552800424 
91.207657416 82.106197538 67.010606661 89.895715478 82.532777092 68.159459919 88.465727422 83.001627596 69.082271111 
87.028332636 83.467183907 69.726890958 85.669044846 83.791359574 70.077239225 97.313973098 80.933569769 60.620110145 
98.269002716 82.172955564 59.852047453 96.338597833 79.770175889 61.434277667 95.390339739 78.555492578 62.199946191 
93.544464147 78.262076335 63.766855737 94.430059014 77.284615317 62.772772145 92.709919434 79.120986513 64.952522612 
91.851548389 79.858053323 66.242976485 90.776212374 80.382771208 67.535342892 89.626597192 80.797168269 68.781611982 
88.135020772 81.383630427 69.590142623 86.726908764 81.987393854 70.187229844 85.292637751 82.580532613 70.399021217 
101.41302186 83.697338123 49.913703495 101.36630121 82.78278695 48.635042997 99.34092008 71.156469251 52.868874508 
98.697637794 70.833147733 51.605107268 97.98312897 70.543347781 50.361862409 97.181174945 70.317472344 49.164443613 
96.289126782 70.172536545 48.027124514 95.345189132 70.078709618 46.916932463 94.321475833 70.043926866 45.855344729 
93.24979752 70.037504583 44.827778987 92.093897481 70.066040997 43.854272068 90.850681164 70.135095571 42.950704451 
89.482977216 70.252591134 42.19289279 88.055431956 70.347138741 41.541179635 86.658637833 70.444034072 40.909233493 
85.360942112 70.570430986 40.254382334 84.306740577 70.868292113 39.521539017 82.421130633 70.589504671 39.062793208 
83.559442123 71.507954747 38.683805205 81.147887448 69.71146977 39.524867534 79.728453876 68.995340284 39.963994178 
78.183634005 68.592211796 40.559454398 76.638205411 68.211426957 41.220519389 75.365685638 68.37258788 42.178100279 
74.262009514 68.707629509 43.316103123 73.377129108 69.076470667 44.602533131 73.574221204 68.514296704 46.761334136 
72.696171937 69.3963721 45.97277001 73.198982342 69.027413082 48.013487426 72.308370976 69.827549367 47.299277303 
72.158182272 70.326174295 48.520056005 72.171620922 70.724559933 49.632138995 72.537276996 70.894046737 50.738147306 
73.00774125 70.937040452 52.025312016 73.436314265 70.940168639 53.418728772 73.925113772 70.972481186 54.874497022 
74.475431181 71.027055638 56.339845576 75.140836669 71.091589187 57.783561912 75.98530215 71.14019557 59.149968779 
76.900687348 71.156757799 60.501289597 77.857543765 71.195457469 61.82864988 78.872453791 71.279046249 63.092705581 
80.055279334 71.538029957 64.235741324 81.31574466 71.939265794 65.434725496 87.237590783 71.288099664 66.051388617 
85.584278566 71.496326691 66.161520702 88.904524949 71.20802355 65.82689347 90.497868966 71.22742085 65.378926499 
92.034464948 71.241847895 64.778448009 93.512562035 71.271873702 64.043395595 94.937883129 71.329240055 63.227670931 
96.129360588 71.385580378 62.220062354 97.225273727 71.578130526 61.187589253 98.150740343 72.095016989 60.132921064 
98.896181058 72.796882215 59.049748901 99.770710885 73.545663094 58.131430126 100.57901877 74.275963599 57.162475103 
101.20907778 73.786802126 55.511794894 101.30882505 74.864568577 56.124016079 100.95843899 73.149231455 54.522793366 
100.67766355 72.605157513 53.351091793 83.875495512 71.941000738 66.254041715 82.35877299 72.692469826 66.61498081 
83.401147416 82.148859589 70.691302645 84.13035887 83.181037641 70.422766243 81.395028819 82.015423204 70.568116164 
82.48219165 81.018588219 70.710629069 80.402585081 82.932596465 70.27443536 79.465633779 83.594102203 69.755433936 
78.340450471 83.81199764 69.245612113 76.991163995 83.890885638 68.668402866 75.83110257 83.706027962 67.714935022 
74.611350885 83.504625237 66.653626283 73.596036084 83.195151286 65.401582615 72.579685144 82.910239881 64.094558085 
71.661347267 82.590916045 62.689426174 70.965651878 82.196105029 61.085026279 70.577821648 81.775046081 59.419840599 
70.374726496 81.430163333 57.590425881 69.993118713 81.423240262 55.734569237 69.335931351 81.426606516 54.113381142 
68.562570544 81.384617512 52.545440366 67.750065244 81.318572399 51.056225076 67.628025405 81.292124715 49.265133096 
67.595998814 81.273577896 47.509831749 68.091300309 81.264670601 45.899207187 68.589744478 81.290493388 44.292731728 
69.314992243 81.31169168 42.805504489 70.149978994 81.350012637 41.366664084 71.146894762 81.350228405 40.055666051 
72.306236583 81.250004289 38.851389063 73.517482823 80.990459711 37.739065272 74.957641308 80.359477258 36.81921744 
80.550832802 81.238091229 36.447510712 79.002542125 80.938579254 36.329676515 82.038058526 81.354134938 36.769709305 
83.549554883 81.381276277 37.112390254 85.047845716 81.340796682 37.527679265 86.54358707 81.275949514 38.008427955 
88.074884879 81.249424501 38.494953119 89.654113178 81.262101179 38.97079209 91.245117165 81.328505045 39.448553252 
92.954141213 81.463830399 39.943497566 94.637721847 81.793004778 40.596756999 96.118994706 82.093809196 41.41399387 
97.520233679 82.353746678 42.424397361 98.795212096 82.61873163 43.495907115 99.713162142 82.787670293 44.89050498 
100.46273808 82.920629177 46.153762298 100.81681454 82.916276207 47.154088292 101.21546147 82.014771081 47.521562563 
101.9320825 81.55505933 49.350171018 101.62292686 80.733663315 48.064243471 102.04166088 82.396846216 50.605473719 
102.02900229 83.01052837 51.895407082 101.86354072 83.122503944 53.275866863 101.53146476 83.121554404 54.812549411 
100.85288767 83.056273489 56.39701654 99.856735148 83.119866063 57.953115728 98.761459055 83.559149913 59.217997314 
77.49578858 80.284141607 36.139399512 76.183601358 79.234634416 36.110659827 84.634272954 81.319002517 70.622614013 
83.727959005 80.094436351 70.751758358 81.397346373 79.949273818 70.685377999 82.624599166 78.952230717 70.647955768 
80.368428927 81.062892985 70.597474719 79.548208772 82.051839558 70.278258912 79.015499951 82.787885784 69.97563265 
78.081531836 82.670095512 69.736127727 76.810966194 82.491998925 69.225258128 75.686767452 82.219108085 68.282419762 
74.497355017 81.920421334 67.224616262 73.449346089 81.621598888 65.978600871 72.41748565 81.325450891 64.637827231 
71.660612408 80.998840759 63.135511407 71.016461328 80.56783549 61.557038654 70.665654583 80.068358016 59.858168366 
70.503407289 79.368346076 57.777870302 70.065923521 79.775418132 55.685636386 69.524882674 79.873492202 53.983137004 
68.706667938 79.810480766 52.46093168 67.877027439 79.674740955 50.914192614 67.655468673 79.634158621 49.220393264 
67.599361145 79.619154329 47.487214506 67.958176713 79.611576786 45.857248795 68.394929243 79.634790961 44.24631894 
68.980549315 79.682816048 42.711837105 69.723597616 79.764519947 41.244692597 70.600492424 79.828596509 39.887950541 
71.640894799 79.764542572 38.646394039 72.723774164 79.489902966 37.525647396 74.028622794 78.846300883 36.668177672 
75.197468991 78.028446499 36.119497136 77.239847617 78.042536383 35.704597491 76.210827857 77.051284659 35.791882194 
78.354144295 78.938201017 35.845278367 79.618038002 79.507819797 36.025283542 80.969942834 79.797491267 36.220519715 
82.340091543 79.880852718 36.579563632 83.743926071 79.915454123 36.915450745 85.154394464 79.827565914 37.361215599 
86.611599453 79.713791747 37.829970087 88.132024086 79.667397054 38.298848483 89.67246168 79.635499576 38.801985888 
91.29651187 79.626787079 39.315041335 93.230641181 79.462149016 39.801159411 95.124544432 80.141954239 40.487930046 
96.600655415 80.486172305 41.376389297 97.92936256 80.747946279 42.453558675 99.200816388 80.992664704 43.589887798 
100.10011369 81.283008804 44.934020039 100.85019348 81.623578989 46.280707839 101.06228716 80.179245229 46.716416112 
101.95738638 79.34202242 48.728317323 101.23935067 78.688062449 47.319268554 102.36960363 80.206736936 50.19241206 
102.55049612 81.292446131 51.34046954 102.29410166 82.009563099 52.177163721 102.21294154 81.77429203 53.265122694 
101.92811062 81.590362184 54.800133687 101.14334521 81.399292958 56.425878027 99.754806343 81.162422378 58.42475872 
100.21253564 72.166751354 52.078958199 99.569922398 71.82745751 50.819316116 98.767862834 71.582602099 49.613554442 
97.915955164 71.35551368 48.456152527 96.964952025 71.235597551 47.363984743 96.000204174 71.174001112 46.276120689 
94.943065716 71.202700386 45.245559941 93.841275064 71.243767141 44.226015757 92.678290247 71.305489775 43.219199546 
91.390907245 71.466412852 42.330076487 90.013129437 71.627586953 41.523040445 88.567363396 71.712428321 40.829917431 
87.152933987 71.737747933 40.205729622 85.885767594 71.689845902 39.624162505 84.954645745 71.631857851 39.209879057 
84.648651018 72.324576779 38.521479585 82.811606698 72.299160264 37.783611966 84.057687537 73.353734559 37.674562813 
81.595909117 71.322429163 38.083857469 80.282678289 70.519746196 38.50146696 78.891477824 69.795528493 38.824180692 
77.355202151 69.380041665 39.379508318 75.815289362 69.120497253 40.157469292 74.500896987 69.232703818 41.164809107 
73.318560787 69.527673506 42.34532682 72.232205185 69.905753715 43.671794498 71.591881351 70.292606845 45.220724314 
71.262715876 70.704249433 46.780771996 71.229756108 71.192302572 48.163315438 71.400941985 71.59771821 49.501954834 
71.823673007 71.920672617 50.771886362 72.331800423 72.100125633 52.119655654 72.839979538 72.222468954 53.53186735 
73.351036585 72.313143572 54.996558083 73.843419485 72.389753111 56.49755646 74.452697444 72.454090834 57.987844016 
75.263775219 72.470993348 59.392074078 76.145891477 72.474150342 60.772487681 77.038702798 72.461340793 62.13618933 
77.963357661 72.471416652 63.47496494 78.996057677 72.624880753 64.716076526 80.030618985 72.956410285 65.944233942 
81.035845299 73.485111235 67.113410213 83.263924791 73.568850877 67.660369798 81.971452774 74.255650504 68.137013875 
84.617627358 73.030898434 67.233401331 86.100629421 72.791182766 66.944717741 87.623152028 72.697508514 66.682820931 
89.17989743 72.704683155 66.301438514 90.66442967 72.777338974 65.660372524 92.111156034 72.795874116 64.95999724 
93.486723993 72.839402918 64.167095358 94.81577649 72.966772632 63.285406299 96.015649399 72.879023163 62.305452462 
96.979791045 72.916724433 61.427523175 97.80436408 73.413589601 60.548944415 98.631494429 74.104966219 59.665694826 
99.522678661 74.861978339 58.769417326 100.43922099 75.603662913 57.801853545 101.23914968 76.215784834 56.601063869 
101.99844185 75.20767536 55.098942074 102.01779473 76.568567922 55.328174636 101.71908122 74.28605897 54.853714163 
101.67684663 73.998966441 53.946044799 101.584383 73.562559491 52.728784237 78.444707665 81.481072584 70.040768878 
77.038708293 81.060595923 69.670640932 75.933781585 80.66147743 68.662355634 74.770073527 80.34067277 67.573293236 
73.702610853 80.035814476 66.328486312 72.620036842 79.719580331 65.039211324 71.867077944 79.400044329 63.588372865 
71.210246669 78.997956715 62.052228243 71.022823997 78.462444521 60.537287916 71.018624643 77.672820884 59.029521981 
69.763829073 78.402252358 53.767710303 70.266331014 78.286980467 55.29037569 68.976655679 78.296859072 52.341832383 
68.326674723 78.161232834 50.805735822 67.91694434 78.05368118 49.182992571 67.662411622 77.975218439 47.470407834 
68.003027879 77.949044871 45.859041352 68.380880679 77.959600328 44.253635413 68.82958834 78.017219666 42.691192327 
69.423432833 78.127359036 41.176706241 70.250474567 78.261583578 39.856425389 71.192371425 78.242549543 38.616643679 
72.272713267 77.914447532 37.612338918 73.391509642 77.451391243 36.744656749 74.51202589 76.811543548 36.386155976 
75.474448619 75.983037203 36.155634626 77.201907317 76.023509933 35.78516917 76.361947926 75.035018907 36.037252434 
78.121265016 76.962123421 35.804636439 79.094369618 77.751996051 35.882601036 80.107168261 78.315361817 35.906908091 
81.264288485 78.460756863 36.119950328 82.587189018 78.432020932 36.438955735 83.873407499 78.533828376 36.772206181 
85.13458836 78.35428901 37.199710655 86.534081761 78.149505951 37.705832983 88.002403789 78.04060206 38.368464863 
89.502169238 78.030441201 38.972389795 90.986913269 78.012125481 39.423140721 92.345578865 77.814052501 39.840501334 
96.875453989 78.966330783 41.701152621 95.539476243 78.691405841 40.90205211 98.139528674 79.15595967 42.769516463 
99.382337093 79.35987722 43.944226134 100.30330032 79.730550382 45.31981507 70.704250307 77.856802975 56.701434808 
71.251011519 76.722761978 57.669246494 100.38601789 78.163869962 45.863887213 101.37096759 77.174120124 47.964387313 
100.502759 76.582735383 46.475904887 102.10712539 77.807110917 49.557525592 102.75580391 78.658996711 51.536708629 
102.57669964 80.45787433 52.685879713 101.08035599 73.251778123 51.351112991 100.40871616 72.888882508 50.030169078 
99.517984107 72.655767282 48.859033495 98.607867404 72.414384925 47.734652283 97.643820369 72.268711383 46.706003692 
96.702665528 72.241099806 45.639372847 95.658431141 72.303422806 44.615544985 94.530832837 72.39643982 43.606661882 
93.322405474 72.544241268 42.622888864 92.027926698 72.797022168 41.726023207 90.549047362 73.086074476 40.866830812 
88.971004235 73.171720561 40.157009785 87.440935796 73.084018908 39.434067831 85.943334287 72.873513943 38.832145885 
85.640186918 74.587446882 37.93312365 83.015702412 74.37813155 37.052331525 84.085720717 75.635226377 37.079725481 
81.931894144 73.225907394 37.024978795 80.746103624 72.16610686 37.191983796 79.480427741 71.385519179 37.567512707 
78.11167218 70.756735341 37.879140244 76.584537287 70.434333885 38.373233876 75.002480042 70.151767559 39.109506251 
73.685111694 70.23101649 40.121308304 72.412493902 70.511796505 41.285293295 70.953221235 71.212004463 42.58432819 
70.432840589 71.473894466 44.646843608 70.213579882 71.804138404 46.390181448 70.214951839 72.183558747 47.925595992 
70.43847708 72.560445725 49.401706192 70.91874875 72.907965392 50.805811674 71.481421688 73.169874407 52.204439689 
72.083437243 73.396530183 53.608281024 72.562172477 73.527623602 55.113664808 72.978153 73.636009038 56.636341258 
73.53646572 73.758461636 58.246633589 74.374351377 73.657509714 59.75910637 75.204295087 73.573663821 61.162121161 
76.007483594 73.47247263 62.576685762 76.885279503 73.477046917 63.937021252 77.827848019 73.580406622 65.239186509 
78.815566781 73.852684946 66.462259099 79.79921846 74.339678009 67.617455014 80.744635309 75.059160158 68.597236373 
82.911129977 75.163414998 68.97124074 81.663005331 75.945457207 69.467102219 84.130928618 74.46704334 68.515623435 
85.249112387 74.017870598 68.018220092 86.486797891 73.915139904 67.767770788 87.908644472 74.069926396 67.319961299 
89.40485926 74.233794239 66.715821568 90.81878814 74.354928468 65.879690108 92.131471865 74.280333767 64.961190978 
93.313402729 74.279125655 64.076981498 94.644924208 74.77557418 63.017905007 95.989840556 74.246638876 62.10518537 
96.792493848 73.904036604 61.522699483 97.327282737 74.543480916 60.953743058 98.192307435 75.337435206 60.291085641 
99.090325251 76.183666209 59.398531992 99.992736667 76.975712425 58.334725896 100.95610257 77.674064448 57.083184484 
101.8186939 78.1001444 55.628420135 102.49087206 76.670107761 53.704800772 102.5006641 78.388968646 53.876273097 
102.22183778 75.163564867 53.735594793 98.530390306 79.791112622 59.809942852 97.407835512 78.627786583 60.689769383 
96.396265017 77.490218926 61.447984815 95.492019362 76.265365583 62.183208613 93.689206105 76.136768598 63.502064022 
92.728035956 76.958363261 64.259292979 91.866689888 77.66681457 65.444510143 91.121743597 78.406937215 66.601320189 
90.200027379 78.750284355 67.833620476 88.967003922 79.031370295 69.171769263 87.466952068 79.784874063 70.021180487 
86.015539633 80.563723338 70.486304307 85.03252819 79.219392339 70.547356917 83.937110849 78.026949746 70.461883698 
81.461632695 77.888904446 70.409452876 82.754360322 76.955512397 70.081838731 80.13920773 78.924093573 70.494241208 
79.152438866 80.238330046 70.347376173 101.07638673 74.186945488 49.287054047 101.77089435 74.530202811 50.705294326 
100.08848966 73.882429703 48.121731179 99.13454113 73.541168175 47.03413982 98.215092017 73.294149003 46.137745154 
97.399052422 73.341930883 45.125640879 96.391786601 73.4678165 44.111143948 95.257225528 73.583041443 43.103033358 
94.069401037 73.79301675 42.149017454 92.776985725 74.160061183 41.213286237 91.230189143 74.883554083 40.255543075 
89.272001795 74.749027325 39.507730147 87.612766449 74.686055109 38.748272212 82.729630511 76.791872849 36.622391535 
83.839089384 77.416522705 36.841991861 84.848945783 76.962403699 37.238495725 81.880902353 75.358213852 36.547425714 
80.943115206 74.1973009 36.48884001 79.884046015 73.178728897 36.62854665 78.758977776 72.337757872 36.83978233 
77.524027525 71.795783106 37.122356686 75.908040172 71.963435073 37.385537522 74.311760061 71.45964534 38.264059333 
73.106600625 71.438419986 39.266988974 71.923867492 71.651022604 40.19981048 70.954271593 72.270924353 41.036464875 
69.275986522 73.192181231 46.146280362 69.471756385 73.033655682 44.459238272 69.250282122 73.420054341 47.738176409 
69.502477619 73.689286576 49.347162533 70.017885496 74.002095382 50.819266533 70.599412613 74.259610692 52.265910935 
71.271844474 74.537664446 53.650952822 71.756029754 74.727133311 55.101522399 72.093824087 74.925094911 56.651188584 
72.328044084 75.248716986 58.576310486 74.221557315 74.57196242 61.662863574 73.399459192 74.762552624 60.248333849 
74.990230311 74.474221776 63.051981852 75.835393165 74.511749681 64.403557411 76.686340626 74.570254805 65.736722158 
77.690158691 74.859966224 66.935715857 78.657563671 75.21770577 68.106403563 79.584024582 75.914283617 68.973987418 
80.329447771 76.833945095 69.819187752 69.740677258 73.04959994 42.768600569 70.174690614 73.485882625 41.271611059 
94.322730446 78.130985869 40.278073909 93.416902735 77.112180337 40.266484266 102.38113673 80.078919824 54.390239745 
101.51468535 79.723658013 56.041894324 100.47305414 79.278418915 57.651425122 99.358967319 78.386646074 58.973058499 
98.355136361 77.442453882 60.010842995 97.368609003 76.43232394 60.825706609 96.590264503 75.39171725 61.582160263 
77.750529496 79.540341868 69.949025207 76.367152772 79.083781224 68.964209932 75.17513199 78.747195253 67.85633508 
74.125769207 78.470878584 66.569959442 73.153160842 78.201295233 65.269419759 72.400007087 77.957023081 63.858459217 
71.791253904 77.606059996 62.48357661 71.627336911 77.236652365 61.1285488 71.763888605 76.427884983 59.932973465 
71.319271512 76.117721276 56.347812215 70.83972938 77.006309162 56.017572335 70.53279878 77.059337042 54.992762127 
70.048064529 77.01350233 53.655263467 69.285044548 76.831021865 52.31160617 68.588954502 76.613750244 50.828303818 
68.150273982 76.445371026 49.237911647 67.884222748 76.293629124 47.513045514 68.204341553 76.276151441 45.899969461 
68.545728932 76.272298728 44.296500312 68.965790669 76.369217724 42.7456038 69.498959042 76.511078307 41.273685768 
70.265388132 76.68089531 40.012406846 71.113480227 76.663867573 38.832400397 72.10283708 76.51559934 37.909932139 
73.02888344 76.198487093 37.092953616 74.01208408 75.805634052 36.67191327 74.797686105 75.049567694 36.524649701 
75.596284268 74.123642682 36.496592642 78.097024639 75.070621317 35.989054605 77.28006607 74.104114723 36.067296014 
78.958990185 76.010545309 35.983867853 79.788011326 76.824022861 35.999332077 80.397958802 77.451656733 36.013638837 
81.29108477 77.22506542 36.232130446 86.432776112 78.215891122 70.175578224 85.138610266 77.069799051 69.97016749 
83.982753385 76.05682602 69.676820821 84.971846267 75.359521662 69.028560389 85.616631302 74.795317008 68.517076746 
86.629529273 75.005854249 68.508082239 88.077499238 75.438906083 68.104759065 89.579326225 75.747835264 67.230416667 
90.977527659 76.128321126 65.975209049 92.171247157 75.691734932 64.761654097 93.033570326 75.374119839 64.093113032 
86.25823692 76.523271283 37.775539403 87.825879652 76.411949141 38.478602318 89.354392976 76.435896053 39.168763921 
90.828919074 76.533847834 39.65394938 91.911350423 76.786856035 39.955843321 92.6161317 76.010287468 40.331638404 
94.430052353 76.45717626 40.733149856 93.692374525 75.360127493 40.914690991 94.826031435 77.350906235 40.77017194 
95.693854293 77.44708726 41.318020462 96.872768156 77.521037189 42.099335162 98.074504665 77.606216862 43.151891548 
99.33567019 77.756775646 44.463220401 99.15457049 75.883741103 45.007144712 100.42376758 75.161102266 47.342349362 
99.421556113 74.690273177 46.288480184 101.36810577 75.645880071 48.639750656 102.08743098 76.115323181 50.143981248 
90.585693869 77.25407318 66.812999871 89.712891188 77.203301905 67.798756264 87.947659631 77.155248933 69.035993102 
78.737153899 77.844742256 69.865721201 71.052740397 75.908226421 55.019967384 70.553582779 75.732775425 53.651530573 
69.841794005 75.476611232 52.302878805 69.181809779 75.212214628 50.852316524 68.670290352 74.966787763 49.318310588 
68.398173596 74.747748363 47.617154985 68.584894658 74.683407263 45.980261499 68.872685661 74.654975706 44.362953988 
69.209591309 74.718494217 42.776385364 69.739581539 74.951044356 41.324396516 70.41293755 75.169467573 40.136836781 
71.152671647 75.256815882 39.027420097 74.097570425 74.306172209 36.904252509 73.653461043 75.062177209 36.888874626 
79.943218466 75.099813576 36.183908766 79.015887024 74.147451309 36.2503323 80.743742242 76.130768973 36.177484466 
77.04146949 77.53157795 68.90950495 75.845818103 77.23836886 67.768659497 74.795861442 76.987836415 66.513208807 
73.873205814 76.768312663 65.227756835 73.15180002 76.6461785 63.814988482 72.556519027 76.498836627 62.562144838 
72.175250683 76.407972744 61.577133133 72.617760112 75.705509686 60.965258549 73.302542677 75.508708312 62.189541504 
74.000235983 75.478849437 63.516912863 74.789150957 75.538922837 64.87543625 75.668209276 75.679635532 66.184077777 
76.666942988 75.92131701 67.412166353 77.676858544 76.228711672 68.493075438 78.629406897 76.601752271 69.237549272 
95.423590569 76.219473125 41.507723393 96.588350731 76.106978667 42.370100419 97.806777375 76.040734198 43.476641844 
78.099790399 73.278738976 36.392117828 77.334980669 72.684320009 36.56331626 76.479902587 73.21121081 36.529073653 
72.640898937 72.670907742 38.657220626 73.649778846 72.750104215 37.763567681 71.69969511 72.720290195 39.484244327 
71.095071699 72.9382952 40.221493276 70.715671947 73.867702713 40.196747199 94.822501245 74.989420504 41.774055818 
98.61808759 74.153023604 45.716300667 98.118540869 74.463152376 44.771291354 97.102501991 74.668070077 43.720098996 
86.147947533 76.038699762 69.309172736 95.988215808 74.802010622 42.689186577 72.299130697 73.934760591 38.368843101 
73.187693927 74.004266836 37.542617109 71.393217045 73.91558466 39.185922404 74.195633446 67.525835694 47.682936984 
73.792237341 68.112696075 48.987736763 84.679269406 83.938041631 70.129841789 102.3191696 74.825611261 52.171210413 
102.67258447 76.509615684 51.809117766 72.95697152 75.114559043 37.40256792 72.10608234 75.200200012 38.162588965 
74.766491818 73.215222601 36.991834773 
POLYGONS 1065 4256
OFFSETS vtktypeint64
0 4 8 12 16 20 24 28 32 
36 40 44 48 52 56 60 64 68 
72 76 80 84 88 92 96 100 104 
108 112 116 120 124 128 132 136 140 
144 148 152 156 160 164 168 172 176 
180 184 188 192 196 200 204 208 212 
216 220 224 228 232 236 240 244 248 
252 256 260 264 268 272 276 280 284 
288 292 296 300 304 308 312 316 320 
324 328 332 336 340 344 348 352 356 
360 364 368 372 376 380 384 388 392 
396 400 404 408 412 416 420 424 428 
432 436 440 444 448 452 456 460 464 
468 472 476 480 484 488 492 496 500 
504 508 512 516 520 524 528 532 536 
540 544 548 552 556 560 564 568 572 
576 580 584 588 592 596 600 604 608 
612 616 620 624 628 632 636 640 644 
648 652 656 660 664 668 672 676 680 
684 688 692 696 700 704 708 712 716 
720 724 728 732 736 740 744 748 752 
756 760 764 768 772 776 780 784 788 
792 796 800 804 808 812 816 820 824 
828 832 836 840 844 848 852 856 860 
864 868 872 876 880 884 888 892 896 
900 904 908 912 916 920 924 928 932 
936 940 944 948 952 956 960 964 968 
972 976 980 984 988 992 996 1000 1004 
1008 1012 1016 1020 1024 1028 1032 1036 1040 
1044 1048 1052 1056 1060 1064 1068 1072 1076 
1080 1084 1088 1092 1096 1100 1104 1108 1112 
1116 1120 1124 1128 1132 1136 1140 1144 1148 
1152 1156 1160 1164 1168 1172 1176 1180 1184 
1188 1192 1196 1200 1204 1208 1212 1216 1220 
1224 1228 1232 1236 1240 1244 1248 1252 1256 
1260 1264 1268 1272 1276 1280 1284 1288 1292 
1296 1300 1304 1308 1312 1316 1320 1324 1328 
1332 1336 1340 1344 1348 1352 1356 1360 1364 
1368 1372 1376 1380 1384 1388 1392 1396 1400 
1404 1408 1412 1416 1420 1424 1428 1432 1436 
1440 1444 1448 1452 1456 1460 1464 1468 1472 
1476 1480 1484 1488 1492 1496 1500 1504 1508 
1512 1516 1520 1524 1528 1532 1536 1540 1544 
1548 1552 1556 1560 1564 1568 1572 1576 1580 
1584 1588 1592 1596 1600 1604 1608 1612 1616 
1620 1624 1628 1632 1636 1640 1644 1648 1652 
1656 1660 1664 1668 1672 1676 1680 1684 1688 
1692 1696 1700 1704 1708 1712 1716 1720 1724 
1728 1732 1736 1740 1744 1748 1752 1756 1760 
1764 1768 1772 1776 1780 1784 1788 1792 1796 
1800 1804 1808 1812 1816 1820 1824 1828 1832 
1836 1840 1844 1848 1852 1856 1860 1864 1868 
1872 1876 1880 1884 1888 1892 1896 1900 1904 
1908 1912 1916 1920 1924 1928 1932 1936 1940 
1944 1948 1952 1956 1960 1964 1968 1972 1976 
1980 1984 1988 1992 1996 2000 2004 2008 2012 
2016 2020 2024 2028 2032 2036 2040 2044 2048 
2052 2056 2060 2064 2068 2072 2076 2080 2084 
2088 2092 2096 2100 2104 2108 2112 2116 2120 
2124 2128 2132 2136 2140 2144 2148 2152 2156 
2160 2164 2168 2172 2176 2180 2184 2188 2192 
2196 2200 2204 2208 2212 2216 2220 2224 2228 
2232 2236 2240 2244 2248 2252 2256 2260 2264 
2268 2272 2276 2280 2284 2288 2292 2296 2300 
2304 2308 2312 2316 2320 2324 2328 2332 2336 
2340 2344 2348 2352 2356 2360 2364 2368 2372 
2376 2380 2384 2388 2392 2396 2400 2404 2408 
2412 2416 2420 2424 2428 2432 2436 2440 2444 
2448 2452 2456 2460 2464 2468 2472 2476 2480 
2484 2488 2492 2496 2500 2504 2508 2512 2516 
2520 2524 2528 2532 2536 2540 2544 2548 2552 
2556 2560 2564 2568 2572 2576 2580 2584 2588 
2592 2596 2600 2604 2608 2612 2616 2620 2624 
2628 2632 2636 2640 2644 2648 2652 2656 2660 
2664 2668 2672 2676 2680 2684 2688 2692 2696 
2700 2704 2708 2712 2716 2720 2724 2728 2732 
2736 2740 2744 2748 2752 2756 2760 2764 2768 
2772 2776 2780 2784 2788 2792 2796 2800 2804 
2808 2812 2816 2820 2824 2828 2832 2836 2840 
2844 2848 2852 2856 2860 2864 2868 2872 2876 
2880 2884 2888 2892 2896 2900 2904 2908 2912 
2916 2920 2924 2928 2932 2936 2940 2944 2948 
2952 2956 2960 2964 2968 2972 2976 2980 2984 
2988 2992 2996 3000 3004 3008 3012 3016 3020 
3024 3028 3032 3036 3040 3044 3048 3052 3056 
3060 3064 3068 3072 3076 3080 3084 3088 3092 
3096 3100 3104 3108 3112 3116 3120 3124 3128 
3132 3136 3140 3144 3148 3152 3156 3160 3164 
3168 3172 3176 3180 3184 3188 3192 3196 3200 
3204 3208 3212 3216 3220 3224 3228 3232 3236 
3240 3244 3248 3252 3256 3260 3264 3268 3272 
3276 3280 3284 3288 3292 3296 3300 3304 3308 
3312 3316 3320 3324 3328 3332 3336 3340 3344 
3348 3352 3356 3360 3364 3368 3372 3376 3380 
3384 3388 3392 3396 3400 3404 3408 3412 3416 
3420 3424 3428 3432 3436 3440 3444 3448 3452 
3456 3460 3464 3468 3472 3476 3480 3484 3488 
3492 3496 3500 3504 3508 3512 3516 3520 3524 
3528 3532 3536 3540 3544 3548 3552 3556 3560 
3564 3568 3572 3576 3580 3584 3588 3592 3596 
3600 3604 3608 3612 3616 3620 3624 3628 3632 
3636 3640 3644 3648 3652 3656 3660 3664 3668 
3672 3676 3680 3684 3688 3692 3696 3700 3704 
3708 3712 3716 3720 3724 3728 3732 3736 3740 
3744 3748 3752 3756 3760 3764 3768 3772 3776 
3780 3784 3788 3792 3796 3800 3804 3808 3812 
3816 3820 3824 3828 3832 3836 3840 3844 3848 
3852 3856 3860 3864 3868 3872 3876 3880 3884 
3888 3892 3896 3900 3904 3908 3912 3916 3920 
3924 3928 3932 3936 3940 3944 3948 3952 3956 
3960 3964 3968 3972 3976 3980 3984 3988 3992 
3996 4000 4004 4008 4012 4016 4020 4024 4028 
4032 4036 4040 4044 4048 4052 4056 4060 4064 
4068 4072 4076 4080 4084 4088 4092 4096 4100 
4104 4108 4112 4116 4120 4124 4128 4132 4136 
4140 4144 4148 4152 4156 4160 4164 4168 4172 
4176 4180 4184 4188 4192 4196 4200 4204 4208 
4212 4216 4220 4224 4228 4232 4236 4240 4244 
4248 4252 4256 
CONNECTIVITY vtktypeint64
0 1 2 3 1 4 5 2 4 
6 7 5 6 8 9 7 8 10 
11 9 10 12 13 11 12 14 15 
13 14 16 17 15 16 18 19 17 
18 20 21 19 20 22 23 21 22 
24 25 23 24 26 27 25 26 28 
29 27 28 30 31 29 30 32 33 
31 32 34 35 33 34 36 37 35 
36 38 39 37 38 40 41 39 40 
42 43 41 42 44 45 43 44 46 
47 45 46 48 49 47 48 50 51 
49 50 52 53 51 52 54 55 53 
54 56 57 55 56 58 59 57 58 
60 61 59 60 62 63 61 62 64 
65 63 64 66 67 65 66 68 69 
67 68 70 71 69 70 72 73 71 
72 74 75 73 74 76 77 75 76 
78 79 77 78 80 81 79 80 82 
83 81 82 0 3 83 84 85 86 
87 85 88 89 86 88 90 91 89 
90 92 93 91 92 94 95 93 94 
96 97 95 96 98 99 97 98 100 
101 99 100 102 103 101 102 104 105 
103 104 106 107 105 106 108 109 107 
108 110 111 109 110 112 113 111 112 
114 115 113 114 116 117 115 116 118 
119 117 118 120 121 119 120 122 123 
121 122 124 125 123 124 126 127 125 
126 128 129 127 128 130 131 129 130 
132 133 131 132 134 135 133 134 136 
137 135 136 138 139 137 138 140 141 
139 140 142 143 141 142 144 145 143 
144 146 147 145 146 148 149 147 148 
150 151 149 150 152 153 151 152 154 
155 153 154 156 157 155 156 158 159 
157 158 160 161 159 160 162 163 161 
162 164 165 163 164 166 167 165 166 
168 169 167 168 170 171 169 170 172 
173 171 172 174 175 173 174 176 177 
175 176 178 179 177 178 180 181 179 
180 182 183 181 182 184 185 183 184 
186 187 185 186 188 189 187 188 190 
191 189 190 192 193 191 192 194 195 
193 194 196 197 195 196 198 199 197 
198 84 87 199 2 5 200 201 5 
7 202 200 7 9 203 202 9 11 
204 203 11 13 205 204 13 15 206 
205 15 17 207 206 17 19 208 207 
19 21 209 208 21 23 210 209 23 
25 211 210 25 27 212 211 27 29 
213 212 29 31 214 213 31 33 215 
214 33 35 216 215 35 37 217 216 
37 39 218 217 39 41 219 218 41 
43 220 219 43 45 221 220 45 47 
222 221 47 49 223 222 49 51 224 
223 51 53 225 224 53 55 226 225 
55 57 227 226 57 59 228 227 59 
61 229 228 61 63 230 229 63 65 
231 230 65 67 232 231 67 69 233 
232 69 71 234 233 71 73 235 234 
73 75 236 235 75 77 237 236 77 
79 238 237 79 81 239 238 81 83 
240 239 83 3 241 240 3 2 201 
241 86 89 242 243 89 91 244 242 
91 93 245 244 93 95 246 245 95 
97 247 246 97 99 248 247 99 101 
249 248 101 103 250 249 103 105 251 
250 105 107 252 251 107 109 253 252 
109 111 254 253 111 113 255 254 113 
115 256 255 115 117 257 256 117 119 
258 257 119 121 259 258 121 123 260 
259 123 125 261 260 125 127 262 261 
127 129 263 262 129 131 264 263 131 
133 265 264 135 137 266 267 137 139 
268 266 139 141 269 268 141 143 270 
269 143 145 271 270 145 147 272 271 
147 149 273 272 149 151 274 273 151 
153 275 274 153 155 276 275 155 157 
277 276 157 159 278 277 159 161 279 
278 161 163 280 279 163 165 281 280 
165 167 282 281 167 169 283 282 169 
171 284 283 171 173 285 284 173 175 
286 285 175 177 287 286 177 179 288 
287 179 181 289 288 181 183 290 289 
183 185 291 290 185 187 292 291 187 
189 293 292 189 191 294 293 191 193 
295 294 193 195 296 295 195 197 297 
296 197 199 298 297 199 87 299 298 
87 86 243 299 133 135 267 300 265 
133 300 301 203 204 302 303 204 205 
304 302 205 206 305 304 206 207 306 
305 207 208 307 306 208 209 308 307 
209 210 309 308 210 211 310 309 211 
212 311 310 212 213 312 311 213 214 
313 312 214 215 314 313 215 216 315 
314 216 217 316 315 217 218 317 316 
218 219 318 317 219 220 319 318 220 
221 320 319 221 222 321 320 222 223 
322 321 224 225 323 324 225 226 325 
323 226 227 326 325 227 228 327 326 
228 229 328 327 229 230 329 328 230 
231 330 329 231 232 331 330 232 233 
332 331 233 234 333 332 234 235 334 
333 235 236 335 334 236 237 336 335 
237 238 337 336 238 239 338 337 239 
240 339 338 240 241 340 339 241 201 
341 340 201 200 342 341 223 224 324 
343 322 223 343 344 301 300 345 346 
300 267 266 345 266 268 347 345 268 
269 348 347 269 270 349 348 270 271 
350 349 271 272 351 350 272 273 352 
351 273 274 353 352 275 276 354 355 
276 277 356 354 277 278 357 356 278 
279 358 357 279 280 359 358 280 281 
360 359 281 282 361 360 282 283 362 
361 283 284 363 362 284 285 364 363 
285 286 365 364 286 287 366 365 287 
288 367 366 288 289 368 367 289 290 
369 368 290 291 370 369 291 292 371 
370 292 293 372 371 293 294 373 372 
294 295 374 373 295 296 375 374 296 
297 376 375 297 298 377 376 298 299 
378 377 299 243 379 378 243 242 380 
379 242 244 381 380 244 245 382 381 
245 246 383 382 246 247 384 383 247 
248 385 384 248 249 386 385 249 250 
387 386 250 251 388 387 251 252 389 
388 252 253 390 389 253 254 391 390 
254 255 392 391 255 256 393 392 256 
257 394 393 257 258 395 394 258 259 
396 395 259 260 397 396 260 261 398 
397 261 262 399 398 262 263 400 399 
263 264 401 400 264 265 402 401 265 
301 403 402 301 346 404 403 346 405 
406 404 346 345 347 405 274 275 355 
407 353 274 407 408 344 343 409 410 
343 324 411 409 324 323 412 411 323 
325 413 412 325 326 414 413 326 327 
415 414 327 328 416 415 328 329 417 
416 329 330 418 417 330 331 419 418 
331 332 420 419 332 333 421 420 333 
334 422 421 334 335 423 422 335 336 
424 423 337 338 425 426 338 339 427 
425 339 340 428 427 340 341 429 428 
341 342 430 429 303 302 431 432 302 
304 433 431 304 305 434 433 305 306 
435 434 306 307 436 435 307 308 437 
436 308 309 438 437 309 310 439 438 
310 311 440 439 311 312 441 440 312 
313 442 441 313 314 443 442 314 315 
444 443 315 316 445 444 316 317 446 
445 317 318 447 446 318 319 448 447 
319 320 449 448 320 321 450 449 321 
322 451 450 322 344 452 451 344 410 
453 452 410 454 455 453 410 409 456 
454 457 303 432 458 459 457 458 460 
336 337 426 461 424 336 461 462 347 
348 463 405 348 349 464 463 349 350 
465 464 350 351 466 465 351 352 467 
466 352 353 468 467 353 408 469 468 
408 470 471 469 408 407 472 470 407 
355 473 472 355 354 474 473 354 356 
475 474 356 357 476 475 357 358 477 
476 358 359 478 477 359 360 479 478 
360 361 480 479 361 362 481 480 362 
363 482 481 363 364 483 482 364 365 
484 483 365 366 485 484 366 367 486 
485 367 368 487 486 368 369 488 487 
369 370 489 488 370 371 490 489 371 
372 491 490 372 373 492 491 373 374 
493 492 374 375 494 493 375 376 495 
494 376 377 496 495 377 378 497 496 
378 379 498 497 379 380 499 498 380 
381 500 499 381 382 501 500 382 383 
502 501 383 384 503 502 384 385 504 
503 385 386 505 504 386 387 506 505 
387 388 507 506 388 389 508 507 389 
390 509 508 390 391 510 509 391 392 
511 510 392 393 512 511 393 394 513 
512 395 396 514 515 396 397 516 514 
397 398 517 516 398 399 518 517 399 
400 519 518 400 401 520 519 401 402 
521 520 402 403 522 521 403 404 523 
522 404 406 524 523 406 525 526 524 
406 405 527 525 405 463 528 527 463 
464 529 528 464 465 530 529 465 466 
531 530 466 467 532 531 522 523 533 
534 523 524 535 533 524 526 536 535 
526 537 538 536 526 525 539 537 525 
527 540 539 527 528 541 540 528 529 
542 541 529 530 543 542 530 531 544 
543 531 532 545 544 394 395 515 546 
513 394 546 547 409 411 548 456 411 
412 549 548 412 413 550 549 413 414 
551 550 414 415 552 551 415 416 553 
552 416 417 554 553 417 418 555 554 
418 419 556 555 419 420 557 556 420 
421 558 557 421 422 559 558 422 423 
560 559 423 424 561 560 424 462 562 
561 462 563 564 562 462 461 565 563 
461 426 566 565 426 425 567 566 425 
427 568 567 427 428 569 568 428 429 
570 569 429 430 571 570 430 572 573 
571 572 574 575 573 574 459 576 575 
459 460 577 576 460 458 578 577 458 
432 579 578 432 431 580 579 431 433 
581 580 433 434 582 581 434 435 583 
582 435 436 584 583 436 437 585 584 
437 438 586 585 438 439 587 586 439 
440 588 587 440 441 589 588 442 443 
590 591 443 444 592 590 444 445 593 
592 445 446 594 593 446 447 595 594 
447 448 596 595 448 449 597 596 449 
450 598 597 450 451 599 598 451 452 
600 599 452 453 601 600 453 455 602 
601 455 603 604 602 455 454 605 603 
454 456 606 605 441 442 591 607 589 
441 607 608 469 471 609 610 471 611 
612 609 471 470 613 611 470 472 614 
613 472 473 615 614 473 474 616 615 
474 475 617 616 475 476 618 617 476 
477 619 618 477 478 620 619 478 479 
621 620 479 480 622 621 480 481 623 
622 481 482 624 623 482 483 625 624 
483 484 626 625 484 485 627 626 485 
486 628 627 486 487 629 628 487 488 
630 629 488 489 631 630 489 490 632 
631 490 491 633 632 491 492 634 633 
492 493 635 634 493 494 636 635 494 
495 637 636 495 496 638 637 497 498 
639 640 498 499 641 639 499 500 642 
641 500 501 643 642 501 502 644 643 
502 503 645 644 503 504 646 645 504 
505 647 646 505 506 648 647 506 507 
649 648 507 508 650 649 508 509 651 
650 509 510 652 651 510 511 653 652 
511 512 654 653 512 513 655 654 513 
547 656 655 547 657 658 656 547 546 
659 657 546 515 660 659 515 514 661 
660 514 516 662 661 516 517 663 662 
517 518 664 663 518 519 665 664 519 
520 521 665 496 497 640 666 638 496 
666 667 610 609 668 545 609 612 669 
668 612 670 671 669 612 611 672 670 
611 613 673 672 613 614 674 673 614 
615 675 674 615 616 676 675 616 617 
677 676 617 618 678 677 618 619 679 
678 619 620 680 679 620 621 681 680 
621 622 682 681 622 623 683 682 623 
624 684 683 624 625 685 684 625 626 
686 685 626 627 687 686 627 628 688 
687 628 629 689 688 629 630 690 689 
630 631 691 690 631 632 692 691 632 
633 693 692 633 634 694 693 634 635 
695 694 635 636 696 695 636 637 697 
696 637 638 698 697 638 667 699 698 
667 700 701 699 667 666 702 700 666 
640 703 702 640 639 704 703 639 641 
705 704 641 642 706 705 642 643 707 
706 643 644 708 707 644 645 709 708 
645 646 710 709 646 647 711 710 647 
648 712 711 648 649 713 712 649 650 
714 713 650 651 715 714 651 652 716 
715 652 653 717 716 653 654 718 717 
654 655 656 718 656 658 719 718 658 
720 721 719 658 657 722 720 657 659 
723 722 659 660 724 723 660 661 725 
724 661 662 726 725 662 663 727 726 
663 664 728 727 664 665 534 728 665 
521 522 534 456 548 729 606 548 549 
730 729 549 550 731 730 550 551 732 
731 551 552 733 732 552 553 734 733 
553 554 735 734 554 555 736 735 555 
556 737 736 556 557 738 737 557 558 
739 738 558 559 740 739 559 560 741 
740 560 561 742 741 561 562 743 742 
562 564 744 743 564 745 746 744 564 
563 747 745 563 565 748 747 565 566 
749 748 566 567 750 749 567 568 751 
750 568 569 752 751 569 570 753 752 
570 571 754 753 571 573 755 754 573 
575 756 755 575 576 757 756 576 577 
758 757 577 578 759 758 578 579 760 
759 579 580 761 760 580 581 762 761 
581 582 763 762 582 583 764 763 583 
584 765 764 584 585 766 765 585 586 
767 766 586 587 768 767 587 588 769 
768 588 589 770 769 589 608 771 770 
608 772 773 771 608 607 774 772 607 
591 775 774 591 590 776 775 590 592 
777 776 592 593 778 777 593 594 779 
778 594 595 780 779 595 596 781 780 
596 597 782 781 597 598 783 782 598 
599 784 783 599 600 785 784 600 601 
786 785 601 602 787 786 602 604 788 
787 604 789 790 788 604 603 791 789 
603 605 792 791 605 606 793 792 674 
675 794 673 675 676 795 794 676 677 
796 795 677 678 797 796 678 679 798 
797 679 680 799 798 680 681 800 799 
681 682 801 800 682 683 802 801 683 
684 803 802 685 686 804 805 686 687 
806 804 687 688 807 806 688 689 808 
807 689 690 809 808 690 691 810 809 
691 692 811 810 692 693 812 811 693 
694 813 812 694 695 814 813 695 696 
815 814 696 697 816 815 697 698 817 
816 698 699 818 817 699 701 819 818 
701 820 821 819 701 700 822 820 700 
702 823 822 702 703 824 823 703 704 
825 824 704 705 826 825 705 706 827 
826 706 707 828 827 707 708 829 828 
708 709 830 829 709 710 831 830 710 
711 832 831 711 712 833 832 713 714 
834 835 714 715 836 834 715 716 837 
836 716 717 838 837 717 718 719 838 
684 685 805 839 803 684 839 840 719 
721 841 838 721 842 843 841 721 720 
844 842 720 722 845 844 722 723 846 
845 723 724 725 846 606 729 847 793 
729 730 848 847 730 731 849 848 731 
732 850 849 732 733 851 850 733 734 
852 851 734 735 853 852 735 736 854 
853 736 737 855 854 737 738 856 855 
738 739 857 856 739 740 858 857 740 
741 859 858 741 742 860 859 744 746 
861 860 746 862 863 861 746 745 864 
862 745 747 865 864 747 748 866 865 
748 749 867 866 749 750 868 867 750 
751 869 868 751 752 870 869 752 753 
871 870 753 754 872 871 754 755 873 
872 755 756 874 873 756 757 875 874 
757 758 876 875 758 759 877 876 759 
760 878 877 760 761 879 878 761 762 
880 879 762 763 881 880 763 764 882 
881 764 765 883 882 765 766 884 883 
766 767 885 884 767 768 886 885 768 
769 887 886 769 770 888 887 770 771 
889 888 771 773 890 889 773 891 892 
890 773 772 893 891 772 774 894 893 
774 775 895 894 775 776 896 895 776 
777 897 896 777 778 898 897 778 779 
899 898 779 780 900 899 780 781 901 
900 781 782 902 901 782 783 903 902 
783 784 904 903 784 785 905 904 785 
786 906 905 786 787 907 906 787 788 
908 907 788 790 909 908 790 910 911 
909 791 792 912 789 534 533 913 728 
533 535 914 913 535 536 915 914 536 
538 916 915 538 917 901 916 538 537 
918 917 537 539 919 918 539 540 920 
919 540 541 921 920 541 542 922 921 
542 543 923 922 543 544 924 923 544 
545 668 924 668 669 925 924 669 671 
926 925 671 927 928 926 671 670 929 
927 670 672 930 929 672 673 794 930 
847 848 931 932 848 849 933 931 849 
850 934 933 850 851 935 934 851 852 
936 935 852 853 937 936 853 854 938 
937 854 855 939 938 855 856 940 939 
856 857 941 940 857 858 942 941 858 
859 943 942 859 860 861 943 863 944 
945 946 863 862 947 944 862 864 948 
947 864 865 949 948 865 866 950 949 
866 867 951 950 867 868 952 951 868 
869 953 952 869 870 954 953 870 871 
955 954 871 872 956 955 873 874 957 
958 874 875 959 957 875 876 960 959 
876 877 961 960 877 878 962 961 878 
879 963 962 879 880 964 963 880 881 
965 964 881 882 966 965 883 884 967 
968 884 885 969 967 885 886 970 969 
886 887 971 970 887 888 972 971 888 
889 973 972 889 890 974 973 890 892 
975 974 892 928 927 975 882 883 968 
966 872 873 958 976 956 872 976 977 
712 713 835 978 833 712 978 979 725 
726 980 846 726 727 981 980 727 728 
982 981 728 913 983 982 913 914 984 
983 914 915 985 984 915 916 986 985 
916 901 902 986 794 795 987 930 795 
796 988 987 796 797 989 988 797 798 
990 989 798 799 991 990 799 800 992 
991 800 801 993 992 801 802 994 993 
802 803 995 994 803 840 966 995 966 
840 996 965 840 839 997 996 839 805 
998 997 805 804 999 998 804 806 1000 
999 806 807 1001 1000 807 808 1002 1001 
808 809 1003 1002 809 810 1004 1003 810 
811 1005 1004 811 812 1006 1005 812 813 
1007 1006 813 814 1008 1007 814 815 1009 
1008 815 816 1010 1009 816 817 1011 1010 
817 818 1012 1011 818 819 1013 1012 819 
821 1014 1013 821 820 1015 1016 820 822 
1017 1015 822 823 1018 1017 823 824 1019 
1018 824 825 1020 1019 825 826 944 1020 
826 827 945 944 827 828 946 945 902 
903 904 986 924 925 1021 923 925 926 
1022 1021 926 928 1023 1022 928 892 891 
1023 891 893 1024 1023 893 894 1025 1024 
894 895 1026 1025 895 896 1027 1026 896 
897 1028 1027 897 898 1029 1028 898 899 
1030 1029 899 900 1031 1030 900 901 917 
1031 828 829 1032 946 829 830 1033 1032 
830 831 1034 1033 831 832 1035 1034 832 
833 1036 1035 833 979 1037 1036 979 1038 
1039 1037 979 978 1040 1038 978 835 1041 
1040 835 834 1042 1041 834 836 1043 1042 
836 837 1044 1043 837 838 841 1044 904 
905 985 986 917 918 1030 1031 841 843 
1045 1044 843 1046 1047 1045 843 842 1048 
1046 842 844 1049 1048 845 846 980 911 
980 981 909 911 981 982 908 909 982 
983 907 908 984 985 905 906 906 907 
983 984 918 919 1029 1030 919 920 1050 
1029 920 921 1051 1050 921 922 1052 1051 
922 923 1021 1052 927 929 1053 975 929 
930 987 1053 965 996 1054 964 998 999 
1055 1054 999 1000 1056 1055 1000 1001 1057 
1056 1001 1002 1058 1057 1002 1003 1059 1058 
1003 1004 1060 1059 1004 1005 1061 1060 1005 
1006 1062 1061 1006 1007 1063 1062 1007 1008 
1064 1063 1008 1009 1065 1064 1012 1013 1066 
1067 1015 1017 1068 1069 1017 1018 1070 1068 
1018 1019 1020 1070 1020 944 947 1070 987 
988 1071 1053 988 989 1072 1071 989 990 
1073 1072 990 991 1074 1073 991 992 1075 
1074 992 993 1076 1075 993 994 1077 1076 
994 995 1078 1077 995 966 968 1078 947 
948 1068 1070 968 967 1079 1078 967 969 
1080 1079 969 970 1081 1080 970 971 1082 
1081 971 972 1083 1082 972 973 1084 1083 
973 974 1085 1084 974 975 1053 1085 948 
949 1069 1068 1040 1041 1086 1038 1041 1042 
1087 1086 1042 1043 1088 1087 1043 1044 1045 
1088 949 950 1089 1069 950 951 1090 1089 
951 952 1091 1090 953 954 1092 1093 954 
955 1094 1092 955 956 1095 1094 956 977 
1096 1095 977 1063 1064 1096 977 976 1062 
1063 976 958 1061 1062 958 957 1060 1061 
957 959 1059 1060 959 960 1058 1059 960 
961 1057 1058 1032 1033 943 861 1033 1034 
942 943 1034 1035 941 942 1035 1036 1037 
941 1037 1039 940 941 789 912 910 790 
932 931 1048 1049 931 933 1046 1048 940 
1039 1097 939 1039 1038 1086 1097 961 962 
1056 1057 933 934 1047 1046 1045 1047 1098 
1099 1047 934 935 1098 935 936 1099 1098 
962 963 1055 1056 936 937 1100 1099 1023 
1024 1101 1022 1024 1025 1026 1101 1026 1027 
1052 1101 1027 1028 1051 1052 1028 1029 1050 
1051 937 938 1102 1100 939 1097 1102 938 
1086 1087 1102 1097 1021 1022 1101 1052 1053 
1071 1084 1085 1071 1072 1083 1084 1089 1090 
1091 1016 1093 1092 1103 1104 1092 1094 1105 
1103 1094 1095 1096 1105 1064 1065 1105 1096 
1072 1073 1082 1083 1073 1074 1081 1082 1074 
1075 1080 1081 1079 1080 1075 1076 1076 1077 
1078 1079 342 1106 572 430 1106 1107 574 
572 1107 457 459 574 1106 342 200 202 
1107 1106 202 203 457 1107 203 303 467 
468 1108 532 468 469 610 1108 1108 610 
545 532 743 744 860 742 861 863 946 
1032 792 793 1109 912 793 847 932 1109 
1109 932 1049 1110 912 1109 1110 910 910 
1110 845 911 1110 1049 844 845 1016 1015 
1069 1089 1016 1091 1014 821 1067 1111 1011 
1012 1111 1112 1010 1011 1112 1065 1009 1010 
1065 1112 1103 1105 1102 1087 1088 1100 1100 
1088 1045 1099 1054 1055 963 964 1054 996 
997 998 1104 1066 1113 1093 1066 1013 1014 
1113 1113 1014 1091 952 1093 1113 952 953 
1104 1103 1112 1111 1111 1067 1066 1104 
CELL_DATA 1064
FIELD FieldData 6
Stress_X 1 1064 double
0.0069018783979 0.0039029563777 0.0019656557124 0.0010426898953 -0.00053017196478 0.0013849928509 -2.7352454708e-05 -0.00014999935229 0.00039071840001 
0.0010008816607 0.0015210763086 0.0016014779685 0.0021064071916 0.0024182731286 0.0027688702103 0.0029762028717 0.0029805884697 0.0027931076474 
0.002391166985 0.002009605756 0.0019908698741 0.0023075526115 0.0026443763636 0.0028197010979 0.0029735646676 0.0022044477519 0.00099294469692 
0.00039873685455 9.3937196652e-05 -1.7160647985e-05 -0.00030424262513 -0.00068561465014 -0.00072057568468 -0.00065302278381 -0.000469201128 -1.9932782379e-05 
0.00057934905635 0.0015824381262 0.0030902379658 0.0047402600758 0.005793647375 0.0062355198897 0.0029329131357 0.0017361016944 0.00079861097038 
0.00018067138444 -0.00033889149199 -0.00051736197202 -0.00037269608583 -0.00018279906362 2.1319403459e-05 0.00041455970495 0.0012216316536 0.0026661765296 
0.003423998598 0.003470964497 0.0030991581734 0.002729576081 0.0027977088466 0.0031871194951 0.0035194032826 0.0037844635081 0.0033441067208 
0.0025552583393 0.0016768556088 0.00084068387514 0.00013719958952 -0.00027108885115 0.00046845365432 0.0016639280366 0.0032682267483 0.0050035333261 
0.0065094991587 0.0080994386226 0.0094108618796 0.010248504579 0.008004440926 0.0051799188368 0.0025940835476 0.00058421801077 -0.0022580104414 
-0.001720593893 -0.0017612571828 -0.0016384100309 -0.001293640933 -0.0010090579744 0.00043333871872 0.0014680345776 0.0016922873911 0.001756546204 
0.0017876154743 0.0017204054166 0.0020549949259 0.0027346611023 0.0036595789716 0.0049008666538 0.0056494981982 0.0064503317699 0.00618546037 
0.0046462705359 0.0029965862632 0.0022343252786 0.0016905850498 0.0011652304092 0.00070183520438 0.0018062605523 0.0022278374527 0.0025434293784 
0.0032947070431 0.004188337829 0.0048936465755 0.0049054920673 0.0052044950426 0.0055142594501 0.0057761999778 0.0057663298212 0.0051846727729 
0.0043349824846 0.0035804717336 0.0027205790393 0.002109259367 0.0017478368245 0.001301837503 0.0013005890651 0.00090150994947 0.00098761124536 
0.0015235466417 0.0018344757846 0.0021517951973 0.0026849417482 0.0031189478468 0.0033736487385 0.0039996290579 0.0046877097338 0.0051616211422 
0.0051257396117 0.0049915364943 0.0052465987392 0.0060159359127 0.0069138803519 0.0069048651494 0.0048209074885 0.0061513041146 0.0057699335739 
0.0055291950703 0.0054875751957 0.0052040936425 0.004758651834 0.0045350608416 0.0043892939575 0.0044593261555 0.0045684110373 0.0033711923752 
0.0026354615111 0.0022258097306 0.0017807092518 0.0011755004525 0.00091762316879 0.0007688216283 0.00044965583947 0.00038385536755 0.00071044353535 
0.0019416997675 0.0033126089256 0.0036143292673 0.0043924399652 0.0052133696154 0.0068450090475 0.0081544108689 0.0083116702735 0.008275995031 
0.008037016727 0.0078174686059 0.0080575319007 0.0077212150209 0.0056487391703 0.004379728809 0.0037901725154 0.003810346825 0.0036245179363 
0.0043059019372 0.004276368767 0.0036409967579 0.0031823220197 0.0022192392498 0.00090654619271 0.0010746800108 0.0011098351097 0.0010370038217 
0.0012062467868 0.0018232642906 0.002294113161 0.0028381475713 0.0039253272116 0.0050122421235 0.0061164577492 0.0068572475575 0.0071804681793 
0.00684038084 0.0041191605851 0.0035892364103 0.00095855095424 0.0010050309356 0.00090225983877 0.0015125827631 0.0023706266657 0.0035505376291 
0.0050366572104 0.0058789248578 0.0058820229024 0.0058913971297 0.0063103344291 0.0065510184504 0.0067022358999 0.0065242587589 0.0057686539367 
0.0044748047367 0.0032363520004 0.0021396614611 0.0013173113111 0.0011141221039 0.0010184417479 0.00079560931772 0.001004079706 0.0013879584149 
0.0018692208687 0.0026315322611 0.0034135947935 0.0041836071759 0.0050483690575 0.0058735981584 0.0063478332013 0.0063316477463 0.0059433514252 
0.0053394064307 0.0054536024109 0.0061306315474 0.0073086097836 0.0088870534673 0.0070478338748 0.0017123143189 0.0012088599615 0.0043070386164 
0.0039317570627 0.0051227551885 0.0063322414644 0.0072186160833 0.007805285044 0.0076958560385 0.0072107678279 0.0066818315536 0.0062813870609 
0.0054231570102 0.0046379142441 0.0042642042972 0.0040732175112 0.0044299373403 0.0044834869914 0.0038824931253 0.0029759807512 0.0021743967663 
0.001614227891 0.0011202414753 0.00101335207 0.0009386484744 0.001065697521 0.0013423659839 0.0017728416715 0.0024572636466 0.0033587359358 
0.004382646177 0.0054189106449 0.0066107735038 0.0073226075619 0.0074375891127 0.007669037208 0.0079475631937 0.0081257494166 0.0082700122148 
0.0080252867192 0.0071605085395 0.0059570660815 0.005411922466 0.0051593729295 0.0048490287736 0.0046449899673 0.0041773598641 0.0033133523539 
0.0025733401999 0.001764880144 0.0011144067394 0.00097425712738 0.0010968809947 0.0010712658986 0.0011109304614 0.0014653443359 0.0020982718561 
0.0026374890003 0.003133909544 0.004091986455 0.0047118952498 0.0044349273667 0.0045723714866 0.0064600855112 0.005301236175 0.0015393777285 
0.00128339394 0.00092532054987 0.00066443119431 0.00090010307031 0.001417880645 0.0021328795701 0.003039161209 0.0041007772088 0.0050994898193 
0.0060125952587 0.0068500600755 0.0072708330117 0.0072645810433 0.0066217416897 0.0045645344071 0.0046949940734 0.0052939835005 0.0068371128291 
0.0072358129546 0.0010365513153 0.00091913930373 0.0014743171632 0.0024115939159 0.0035403231159 0.0048019145615 0.0062608695589 0.0073434561491 
0.0071320184506 0.0069268778898 0.0068423501216 0.0070177628659 0.0072651659139 0.0072607803158 0.0066227815114 0.0056314477697 0.0044422433712 
0.0032092959154 0.00187734887 0.0010261281859 0.00080315914238 0.0015554201091 0.0018093681429 0.0014131130883 0.0012674520258 0.001517751487 
0.0050450717099 0.0060924850404 0.0050215297379 0.005559165962 0.005775843747 0.0057822344825 0.0055744242854 0.0049462355673 0.0045896414667 
0.0042290282436 0.0044360114262 0.0047264019959 0.0051255407743 0.0049317898229 0.0046327705495 0.0042352769524 0.0038862940855 0.0040733930655 
0.0046313665807 0.0036189309321 0.0025480675977 0.0022793295793 0.0016783473548 0.00093269720674 0.00082626694348 0.00100930396 0.001136522973 
0.0012695010519 0.0016527388943 0.0023804556113 0.0031968629919 0.0040462049656 0.0049191284925 0.0060920813121 0.0066964640282 0.0071602268144 
0.0077637392096 0.0085387313738 0.0096248406917 0.010205828585 0.0099474191666 0.0086429808289 0.0071081025526 0.0060121016577 0.0055528222583 
0.0050465394743 0.0046412786469 0.0041544516571 0.0035022688098 0.0027096823324 0.0019536816981 0.0014271074906 0.0010001991177 0.0010865480872 
0.0013288088376 0.0015965291532 0.0022371257655 0.0026929231826 0.003559385892 0.0041421339847 0.0041178562678 0.0041857389733 0.003973455634 
0.0037891298998 0.0039077992551 0.0043155699968 0.0045863906853 0.0046900729649 0.0045397100039 0.0033476441167 0.0035134654026 0.0037666235585 
0.0032545165159 0.0038832349237 0.0038163457066 0.0035983801354 0.0038345905486 0.004458790645 0.004671015311 0.0045782844536 0.00096583913546 
0.0010622331174 0.00099463399965 0.00067802518606 0.00061344518326 0.0009170686244 0.0014906859724 0.002341947984 0.0034406001214 0.0045421929099 
0.0054588834755 0.0063585476018 0.0071758814156 0.0076456144452 0.0080373259261 0.008007934317 0.0073818890378 0.0067086955532 0.0057563427836 
0.0048946025781 0.0042942599393 0.0037861245219 0.0036448463798 0.0045425365679 0.0049933674745 0.0046799434349 0.0036199230235 0.0025050379336 
0.0018231562572 0.0013945875689 0.00099003245123 0.00065343407914 0.00071684515569 0.0012399854604 0.0022280975245 0.0037377018016 0.0056884223595 
0.0076871193014 0.0085504967719 0.0082133635879 0.0075274733827 0.007591644302 0.0079098911956 0.0077220350504 0.0073657189496 0.0065705175512 
0.0054790009744 0.0043310169131 0.0032505793497 0.0019608028233 0.0017546010204 0.0020698269363 0.0021985149942 0.0016672440106 0.0014616902918 
0.0011364803649 0.0075187780894 0.0073525235057 0.0040528769605 0.0037614447065 0.0039749261923 0.004322592169 0.0045050806366 0.0046453881077 
0.0045485957526 0.0042350669391 0.0038641525898 0.00329641602 0.0030737021007 0.0030406867154 0.0025418251753 0.0020253779367 0.0021732361056 
0.0018904468743 0.00092626846163 0.00083905772772 0.0011423268588 0.0012674082536 0.0012732697651 0.00162683893 0.002088051755 0.002847102005 
0.003518570913 0.0042945267633 0.0051397858188 0.0056454623118 0.0076570534147 0.0087835844606 0.01008477807 0.010869001038 0.010607422329 
0.0094991875812 0.0082327229902 0.00741219474 0.0065035172738 0.0056822621264 0.0047548473813 0.0039633973502 0.0032131376211 0.0026035094634 
0.0019444917561 0.0015666616382 0.0013497908367 0.0011852006428 0.001009396743 0.0009399568662 0.00088783394312 0.0010916469619 0.0015085688792 
0.0019133604364 0.0025621487293 0.0031340334099 0.006637387909 0.0054664527997 0.0041422066279 0.003792330157 0.003227658337 0.0034266435541 
0.0036238397006 0.0039446568117 0.0042192600667 0.0041468804702 0.0039923386648 0.0035831383429 0.0030899590347 0.0024538843427 0.0021604725625 
0.00205144356 0.0015809953911 0.0015452592634 0.002076596953 0.0020572980866 0.0011051414767 0.00073547515785 0.00095755746588 0.0012750322931 
0.0012622921495 0.0013265052112 0.0017663396429 0.0023207643535 0.0028802587185 0.0033772576135 0.003911015112 0.0041757035069 0.0046179532073 
0.0047973617911 0.0055484301411 0.0063275713474 0.0074542616494 0.0086002834141 0.0098560946062 0.010616490617 0.010656690225 0.010296525434 
0.0097777387127 0.0090301632881 0.0078669646755 0.0063882605173 0.0050069671124 0.0038917355705 0.0030950431246 0.0024370993488 0.0019247404998 
0.0015633176081 0.0015176174929 0.0013393226545 0.0010916002793 0.0008425002452 0.00043170317076 0.0011726606172 0.0011934456415 0.0015618894249 
0.0020857455675 0.0026819382329 0.0031817457639 0.00071096332977 0.00059035577578 0.0007299304707 0.0011159840506 0.0017667361535 0.0026914670598 
0.003815749893 0.004906238988 0.0059649320319 0.0069035012275 0.0075149680488 0.0080979783088 0.008593400009 0.008563590236 0.007965285331 
0.0075599309057 0.0071343714371 0.0061823911965 0.0052739153616 0.0045503233559 0.0039765266702 0.0036991399247 0.0033722654916 0.0033056016546 
0.0035736227874 0.0034034403507 0.0029347559903 0.0022347485647 0.0015410820488 0.0011595766991 0.00077116454486 0.00062038883334 0.00081950268941 
0.0013392015826 0.0023062173277 0.0037925739307 0.0060696490109 0.0083278371021 0.0088697131723 0.0080470126122 0.0073439716361 0.006417542696 
0.005704394076 0.0070723672397 0.0083980569616 0.0087086623535 0.0086505766958 0.0087264021859 0.0080129252747 0.0071681961417 0.0060844495893 
0.0051320060156 0.0038415563758 0.0027760972735 0.0024430118501 0.0022123947274 0.0019605732523 0.0019016879378 0.0014582102885 0.00054473342607 
0.0011923074489 0.00093780877069 0.0036354756448 0.0037920700852 0.003479818115 0.0030012144707 0.002495505847 0.0019825450145 0.0017095217481 
0.0018460771535 0.0016419640742 0.0017461989773 0.0019440540345 0.0010395933641 0.00085391028551 0.0010410246905 0.0012010658393 0.0010283136507 
0.0011025011772 0.0013597877696 0.0017044906272 0.002035674639 0.0025267626625 0.0030159002636 0.0037140336353 0.0039422223344 0.0045003546402 
0.0048939734697 0.00525195105 0.0056891734712 0.0063676442951 0.0072104511783 0.0081775709987 0.0091808279976 0.010040322319 0.010425986722 
0.010587209836 0.010232779197 0.0093831606209 0.0083144474775 0.0052171973512 0.0039793257602 0.003033059882 0.0023478523362 0.0018720916705 
0.002078168327 0.0022849307861 0.0017466582358 0.0016516393516 0.0012133250711 0.00095478701405 0.00088970566867 0.00090887129772 0.00065722141881 
0.00068619404919 0.00095077278093 0.0013845397625 0.0020547572058 0.002944371663 0.0039764950052 0.0051010469906 0.0065149590373 0.0075619649142 
0.0081165442243 0.0085381874815 0.0090122483671 0.0090092392638 0.0083093112335 0.0080929128453 0.0066648251377 0.0056753298268 0.0049963882193 
0.0044265487231 0.0038389628753 0.0033959033899 0.0028095070738 0.0024495369289 0.0022273289505 0.0022658123635 0.0021437960677 0.0018146630609 
0.0013120818185 0.00086196471239 0.00063754379516 0.00072176894173 0.00097686203662 0.0018215879099 0.0025836499408 0.0037112967111 0.0056685856543 
0.0076477280818 0.0077969646081 0.0069419573992 0.0060737384483 0.005351963453 0.0046283104457 0.004199903924 0.0052368482575 0.0064404653385 
0.0077561149374 0.0090889064595 0.0092989848927 0.0085529526696 0.0078223096207 0.0067817117088 0.0053896033205 0.0039441520348 0.003330336418 
0.002758577466 0.0022990284488 0.0021361135878 0.0018646074459 0.0019455605652 0.0016601603711 0.0015076668933 0.00087515654741 0.0026492998004 
0.0029238015413 0.0028763930313 0.0022211337928 0.0029011445586 0.0025014167186 0.0032433934975 0.0034863157198 0.0034581555519 0.0033342775423 
0.003846429754 0.0043200110085 0.0043808920309 0.0037598602939 0.0032342686318 0.0026956563815 0.0028442326002 0.0029945455026 0.0034628470894 
0.00082541781012 0.0012081676396 0.0016567470739 0.0022640838288 0.0030637183227 0.0039629847743 0.0050740926526 0.0067227752879 0.0081092528999 
0.0088772661984 0.0095335906371 0.0099240466952 0.0094688609242 0.0086223445833 0.0075224898756 0.0063707605004 0.0053430707194 0.0046938639134 
0.0043535861187 0.0040026400238 0.0032881924417 0.0025850269012 0.0020526791923 0.0016926556127 0.0014963626163 0.0013783848844 0.0010512602748 
0.00067854783265 0.00064547441434 0.0010934774764 0.0017427583225 0.0021507637575 0.0027026673779 0.0048145609908 0.0059835775755 0.006335331127 
0.0054729036056 0.004837485496 0.0043980046175 0.0038516700733 0.0032825167291 0.0030137174763 0.0034400457516 0.0013734950917 0.0013760653092 
0.0070206206292 0.0079331072047 0.0011765864911 0.0014445397537 0.0019767503254 0.0023814409506 0.0026068461593 0.0022897077724 0.0025401725434 
0.0033669050317 0.0033238946926 0.0031584918033 0.0025946691167 0.0022192753386 0.002015752485 0.0018405748997 0.0018047422636 0.0020147277974 
0.0023175843526 0.0026026621927 0.002654653741 0.0024328019936 0.0024225392845 0.0019728543703 0.0012412975775 0.00094054656802 0.0010007942328 
0.00097691558767 0.00094487972092 0.001025309437 0.0012030863436 0.0014975527301 0.0018540809397 0.0023053737823 0.0029309305828 0.0034197994974 
0.003933947999 0.0042926352471 0.0043288222514 0.004949007649 0.0054539786652 0.005996549502 0.0064846333116 0.0070033567026 0.0077436408028 
0.0087069598958 0.0094513921067 0.0026182252914 0.0036732037552 0.0028152351733 0.003578275675 0.0035148991738 0.004718140699 0.0058246105909 
0.0064425817691 0.0069504943676 0.0074307709001 0.0069206422195 0.0058729471639 0.0052525582723 0.0040681310929 0.0098007842898 0.0097760111094 
0.0095369303599 0.0089730890468 0.0086867874488 0.0084742512554 0.0081207333133 0.0078723514453 0.0068176337518 0.0054725017399 0.00408601854 
0.0030005543958 0.0022577208001 0.0026277166326 0.0033977101557 0.0022194844205 0.0021844217554 0.0016634097556 0.0011759212939 0.0013222804992 
0.0015979178715 0.0018024274614 0.0020898119546 0.0024578266311 0.002207729267 0.0035223793238 0.0035008320119 0.0037449600641 0.0040800417773 
0.0030659742188 0.0025471558329 0.0028585162945 0.0024197068997 0.0022425183561 0.001545829 0.0010574257467 0.00064998085145 0.00066597713158 
0.00091694458388 0.00099124014378 0.0011777711334 0.0015276181512 0.001873140689 0.0022496113088 0.0035988043528 0.0053932908922 0.0061080949381 
0.006707389839 0.0071599739604 0.0027917441912 0.0024142244365 0.0022989558056 0.0022668491583 0.0023108024616 0.002382340841 0.002540146932 
0.0027509841602 0.003152745543 0.0061390735209 0.0038599318359 0.0045700985938 0.004668015521 0.0041711078957 0.0037419907749 0.0035008371342 
0.0031906259246 0.0028508980758 0.0052771684714 0.0067310268059 0.0054431450553 0.0041862269863 0.0030609404203 0.0046072066762 0.004106498789 
0.0038275446277 0.0026152089704 0.0020272133406 0.0016246696468 0.0014455881901 0.0015727725113 0.0013383718906 0.0011614377145 0.0011353231966 
0.0010559268994 0.00081028061686 0.00061162357451 0.0095725655556 0.0099679529667 0.0098391054198 0.0090931644663 0.0091498531401 0.0011383533711 
0.0010131453164 0.0014909241581 0.0081069935113 0.0073980744928 0.00088913802756 0.0019355767872 0.0027149077505 0.0024236789905 0.003055250505 
0.0015486003831 0.0037612214219 0.0038648147602 0.0052209743299 0.0048392573372 0.0049019306898 0.0047291493975 0.0048425272107 0.006447813008 
0.0058283512481 0.0044929953292 0.0027285562828 0.0027511077933 0.0041926605627 0.002668625908 0.0021128773224 0.0017489226302 0.0019291812787 
0.0028371568769 0.0030178858433 0.0032458079513 0.0033275526948 0.0031972879078 0.00541899167 0.0035789876711 0.0024641933851 0.00390642602 
0.0024227304384 0.0014458840014 0.0045311478898 0.0043150573038 0.0042734947056 0.0083716074005 0.0088963015005 0.00064834515797 0.00053997605573 
0.00069568824256 0.00088809605222 0.0013232778292 0.00094127783086 0.0046471985988 0.0042731082067 0.0036684460938 0.0033593431581 0.0026928978041 
0.0023772765417 0.0044555710629 0.0033476320095 0.0022235163487 0.0025256173685 0.0030822025146 0.0036237472668 0.0035463441163 0.0033096317202 
0.0029103411362 0.0033221512567 
Stress_Y 1 1064 double
0.0096303420141 0.0046072131954 4.8425110435e-05 0.00045088797924 -0.001735737198 0.00065991719021 -0.0022513109725 -0.0024273961317 -0.0015134502901 
-0.00074680626858 -0.00026073589106 -0.00035436419421 0.00015404293663 0.00046136957826 0.00098472344689 0.0015442060539 0.0017479370581 0.0020189001225 
0.0006804895238 -2.4418366593e-05 0.00020909085288 0.00052058306755 0.0014400264481 0.0023230449297 0.0029733066913 0.0023324878421 0.0004197950766 
-0.00087406276725 -0.0014816453913 -0.00162097055 -0.0018818607787 -0.0019237115048 -0.0017466389108 -0.001778938924 -0.0018227787223 -0.0020744360518 
-0.002561646048 -0.0025096440222 -0.0014559961855 0.00082672853023 0.0039756065235 0.006467031315 0.001239108853 0.00086557056056 0.00093530205777 
0.0013542283559 0.00068045547232 -8.1423844676e-05 -0.00036967237247 -0.00060739909532 -0.00037086193333 0.000395843148 0.0020047144499 0.0034545517992 
0.0038684685715 0.003198696766 0.0029407232068 0.0031012638938 0.003854689654 0.0049454844557 0.0056007681414 0.0055027673952 0.0045079956762 
0.0035283614416 0.0019998212811 -0.00052825472085 -0.0016934280284 -0.0023558693938 -0.0016086034011 0.0006948307273 0.0029743467458 0.003965257667 
0.0037280626129 0.0040293084458 0.0046234768815 0.0061412244104 0.0057567809708 0.0017374228919 -0.00049940118333 -0.00046179248602 0.00071448134258 
0.0026596146636 0.0025118200574 0.0024661018979 0.002425047569 0.0027468097396 0.0028514410369 0.0030609811656 0.0032149611507 0.0032321512699 
0.0033748394344 0.0031125452369 0.0029744310305 0.003266665386 0.0037934957072 0.0042073517106 0.0039601963945 0.0044255410321 0.0041279611178 
0.0025906788651 0.0056820656173 0.002401439473 0.00058188923867 0.0002411432215 -0.00086446403293 -0.001348285703 -0.0019547927659 -0.0012020349968 
0.00011473686754 0.00092864822363 0.0012609428959 0.0009554180433 0.0012455746764 0.0017114790389 0.0021608006209 0.0025637876242 0.0023514828645 
0.0014517193194 0.0007929498679 0.00057972123614 0.00082768953871 0.0015783266863 0.0020530070178 0.0024099617731 0.0018304935656 0.00028403761098 
-0.00078776909504 -0.001353925094 -0.0015429408522 -0.0013262087014 -0.0011100249831 -0.001169879688 -0.0010430885013 -0.0010546022095 -0.0012739185477 
-0.0018500806764 -0.0019833657425 -0.0013407081133 0.00090399442706 0.0041556828655 0.0070207268 0.0076505527832 0.00083376944531 0.0011955874506 
0.0014386350522 0.0012315509375 0.00037560286 -0.00037938187597 -0.00037755214726 4.9755075452e-05 0.0010835913708 0.0030980983283 0.0037269154564 
0.003832496237 0.0033728475682 0.0027658897452 0.0027035719249 0.0033970025834 0.0039514731616 0.004084893968 0.0043597221375 0.0044181873091 
0.0045169102959 0.0036783900578 0.0011681254255 -0.0013425002107 -0.00015071536473 0.0023613520898 0.0042971628718 0.0041722576134 0.0034512847196 
0.002976502059 0.0028596988413 0.0041018943302 0.004149585031 0.002072596224 0.00037503612111 -7.0287147537e-05 0.00075939850649 0.0024444297887 
0.0043105860241 0.0045041264966 0.0039936606772 0.004254783038 0.0045118425041 0.0039242445491 0.0043244897388 0.0038600601256 0.003388763871 
0.0029734286945 0.0029125609435 0.0031199040823 0.0033587829676 0.0037694217172 0.0037073593121 0.0040690959431 0.0037163551897 0.0027191673871 
0.0016130520962 -0.001018488314 -0.00026089622406 0.00079194863793 0.00043809905765 -0.00031602339004 -0.00039210697287 -0.00015498776338 0.00070719659561 
0.0016277342802 0.001946708071 0.0014844691614 0.0012817915995 0.0016948244302 0.0020044383127 0.0022604607511 0.0021401545964 0.0018898929702 
0.0016212698538 0.0014495826326 0.0015198788606 0.0014868036378 0.0012693733443 0.0011712543201 0.00030914889066 -0.00039409357123 -0.0006975242286 
-0.00070122251054 -0.00028544908855 -1.1800113498e-05 5.9441768826e-05 0.00013218737149 0.00020751223201 0.00017431532615 -3.2446150726e-05 1.5972662368e-05 
4.2699808546e-05 0.0012884764001 0.0026777063031 0.0035312706605 0.0046372013167 0.0039072278887 0.0016854719725 0.001354715554 0.0003198175109 
-0.00066683144541 0.00089456909336 0.0029423816595 0.0041710999794 0.0041816770099 0.003276656149 0.0026345981751 0.0024853092618 0.0028520836495 
0.0020197695121 0.0012187983375 0.00090447923867 0.0010506067192 0.0027667782269 0.0048118494451 0.0053138150834 0.0047321678139 0.0042058154941 
0.0044144117273 0.0044874791056 0.0043860934675 0.0035337698646 0.0031616827473 0.0029133746866 0.0027480118442 0.0028285838198 0.0028152230661 
0.0028295512311 0.0028049731627 0.0030100403819 0.0029999525286 0.002449672902 0.0018847587053 0.0014783975203 0.0017090849578 0.0021068595815 
0.0020371009596 0.0013068161206 0.00035042996751 0.00040156467003 0.0011725308141 0.0021268592682 0.003417146625 0.0038959872909 0.0036412321497 
0.003252239665 0.0027708820999 0.0026969364844 0.0029456357006 0.0031549539417 0.0032329147216 0.0034493708517 0.0039217723534 0.0043362835422 
0.0042835469358 0.0028081107885 0.0016878988827 0.0012916747946 0.0013873414136 0.0010692715878 0.0029957070947 0.0021845828742 0.0018304288387 
0.0014596468536 0.00098055857234 0.00033331490704 -2.7607029551e-05 -0.00014010352606 -3.043856168e-06 0.00036732261651 0.00078689766815 0.00091879279353 
0.0010016688611 0.001176693826 0.0011912108166 0.0013397316216 0.0012614756124 0.0011390027357 0.001358690206 0.00098949111998 0.0015350846807 
0.0022798911668 0.0014059011592 0.00073048524791 0.00038188725011 0.00034399077413 0.0005791252479 0.001195398625 0.002027711831 0.0023149673361 
0.0016872526612 0.0013659195974 0.0015691698063 0.0020346867386 0.0022001683246 0.0021621556953 0.002110515954 0.002204770688 0.0021738461219 
0.0021906513721 0.0016202878905 0.0010281450814 0.0011106039165 0.0017046680441 0.0017778049223 0.0017211707309 0.0016374014085 0.0017743684584 
0.0010188949527 0.0013834250858 0.003025704762 0.0043456940912 0.0039847544394 0.003107738914 0.0024821637198 0.0022769127972 0.0022801002488 
0.0021044278983 0.0021949179936 0.0023427635897 0.0024992676917 0.0020808654372 0.0018421167042 0.001658319612 0.0015618775506 0.0028468575329 
0.0051011857577 0.0054754386656 0.0049590384588 0.0046318378299 0.0046403915621 0.004735596478 0.0043358118273 0.0034369744826 0.0030023122672 
0.0027655481827 0.0026283639017 0.0025467027444 0.0023711770773 0.0021781877149 0.0020480591338 0.0022677150555 0.0022006253712 0.0021263111848 
0.0020227381028 0.0020467629656 0.0025449399836 0.0030048110057 0.003100159578 0.0024740044028 0.0017728222301 0.0017714151181 0.0024988225196 
0.0030822358094 0.0035442572553 0.0035304746125 0.0032440619543 0.0028936371673 0.0027304971591 0.0026497817598 0.0023548849858 0.0024737189524 
0.0027628005482 0.003273807466 0.0040809269994 0.0045209443197 0.0040552215651 0.0031510486733 0.0022537638433 0.0018200407503 0.0015132810222 
0.0016929164995 0.0031070287805 0.0040609752759 0.0038069342263 0.0030394745991 0.0023122376297 0.0031925071962 0.00234486931 0.0018497211859 
0.0012503124308 0.0013938002521 0.0023096820805 0.0032432915177 0.0038022766821 0.0036447788589 0.0027370045427 0.0021262224764 0.0024455578532 
0.002494385466 0.0013625323772 0.00098757620435 0.00063571654027 0.00039188627852 0.00032793759601 0.00046902013128 0.00082140869927 0.0012008416234 
0.0014414902544 0.0017119254917 0.0018904089229 0.0019272092031 0.0022553901654 0.0024537718855 0.0024695242755 0.0026129030157 0.0020583539736 
0.0015891423682 0.0012949284865 0.00070933729876 -0.00011383480887 0.00037126144161 0.0009077443392 0.0016379258595 0.0020925465506 0.0020680569578 
0.0021281819791 0.0020644709002 0.0019992457237 0.0016129401047 0.0010375020793 0.00065491721034 0.00063944392605 0.00096134177875 0.0017350736307 
0.0025182797108 0.0024693494197 0.0018523231847 0.0012552047847 0.0021576655563 0.0023847375996 0.0022070687264 0.0022766769398 0.0023988473695 
0.0024196715094 0.0023248370271 0.0020356271416 0.0012284494005 0.0013180845417 0.0017516716616 0.0017375816824 0.001678487286 0.0014945440926 
0.0014930253383 0.0016248443862 0.0011509950273 0.0020290045068 0.0019695749506 0.0020934946369 0.0021776391659 0.0023194674868 0.00244911341 
0.0023576801177 0.0022614765912 0.0022683732677 0.0022403758485 0.0030108070932 0.0044538695365 0.0053970050067 0.0051462911069 0.0049911020324 
0.0051934318617 0.0048985513858 0.0043125222437 0.0034848959185 0.0029996568337 0.0026606218889 0.0025325680617 0.0021976181306 0.0020185299218 
0.0016734647797 0.0015345581342 0.0015414488735 0.0016662511043 0.0022695278749 0.0026054258924 0.0031747980975 0.0037610500585 0.0039491169155 
0.00361965294 0.003248448018 0.0034731780179 0.003727650037 0.0037956230808 0.0034745351877 0.0031945407391 0.0028618739452 0.0027765450068 
0.0026835480239 0.0026696398854 0.002580429893 0.0023943725973 0.002160839038 0.0018742872635 0.0017326752422 0.0019393324619 0.0023714522831 
0.0031538007315 0.0039672665298 0.0045215208083 0.0019738816191 0.0016336529516 0.001892161672 0.0019338645507 0.0019312683726 0.0020679410081 
0.002105665626 0.002228440484 0.0023279916495 0.0023440737277 0.0024655172601 0.002592449775 0.0027055714745 0.0026989548933 0.0032103559934 
0.0041335206479 0.0047780801542 0.0049340701662 0.0049268803559 0.0052791316994 0.0050891609862 0.0042597809806 0.0034908484668 0.0030835997313 
0.0026722098701 0.0023016936611 0.002035508398 0.0017231975216 0.0013964292593 0.0011753598228 0.0011126457248 0.0011112722568 0.0013591240859 
0.0013450408587 0.001815258991 0.0021999606397 0.0026168408804 0.0030650312547 0.0036938132253 0.0043055689894 0.0046369000338 0.004713200964 
0.0048129344359 0.0049170176499 0.0047312751412 0.0040265116841 0.0032852813601 0.0029371927958 0.0027642184868 0.0027125771157 0.0027139792219 
0.0026431204751 0.0026224979665 0.0024247379042 0.0020860647783 0.0016445231158 0.0010248795152 0.0016262830468 0.0014912175247 0.0020271143876 
0.0031574966852 0.0040866546333 0.0040984842926 0.0012541990727 0.0011081199627 0.00095806387253 0.00078955094796 0.00073859532131 0.00088143791072 
0.0011430702871 0.0014591378858 0.0019745009486 0.0024471050128 0.0026043988764 0.0028814587276 0.0032063000835 0.0033204455394 0.0032128680032 
0.0033490729984 0.0036295345053 0.0028841593303 0.002218515845 0.0017602996668 0.0011083616409 0.00057652889518 8.5034989752e-05 0.00015309732407 
0.00066782050999 0.0012287308928 0.0019056518795 0.0023866326082 0.0023729512468 0.0024459145498 0.0022624705452 0.0020264876075 0.0016716895625 
0.0012598499889 0.0011759629706 0.0013802144676 0.002145585604 0.0028077461757 0.0024639093317 0.001761120744 0.0014513493516 0.0011197960703 
0.0011401243974 0.0011902801925 0.0019069389673 0.002547693206 0.0025897501037 0.0025788769126 0.0022664333228 0.0023089807946 0.0022863044869 
0.0022637932561 0.0020694499835 0.0016035122098 0.0019173702458 0.0023459990043 0.00220869435 0.0021230906714 0.0015513040125 0.00088505924214 
0.0013574499171 0.0013746662298 0.002229724545 0.0022298342083 0.0022848194931 0.0025393695105 0.0026924097911 0.0027457920369 0.0029490615707 
0.0037495947909 0.0043394356035 0.0044828103855 0.0051551549695 0.004936281126 0.0042505254969 0.0036745672114 0.0031111072749 0.0025652255863 
0.0023068564478 0.0019251945196 0.0015522257891 0.0011872949544 0.0010415370343 0.00087691587396 0.00084054260515 0.00089416926494 0.0011397245107 
0.0011120915879 0.0014804699458 0.0019831843674 0.0024296990596 0.0028614217881 0.0034398483112 0.0040336092934 0.004666515626 0.0051808296703 
0.0057342676446 0.0059600640088 0.0058617196046 0.0052493317053 0.0029041357338 0.002794906497 0.0026777801104 0.0026868097484 0.0027130104136 
0.0046441368759 0.0042577227578 0.002687944565 0.0025651995093 0.0021534890402 0.0015249217395 0.00097717205063 0.0012345657451 0.0011929996544 
0.0011546463938 0.0011686020298 0.0011329693953 0.0011665624334 0.0013083299855 0.0014775273157 0.0017035824712 0.002373396419 0.0030606996734 
0.0035284990445 0.0040690880269 0.0044287987985 0.0044074985199 0.0045237606391 0.004465714097 0.0037529105321 0.0030065837782 0.0022747439798 
0.001659273752 0.00094635644928 0.00035673199454 -4.9856189435e-05 1.2598113244e-05 0.00031482297345 0.00086116383318 0.0017806862015 0.0025348816998 
0.0028111736756 0.0027610219549 0.0026730853133 0.0026240113657 0.0023582635913 0.0022694533691 0.0020970527548 0.0019918074831 0.0022380584851 
0.00266755349 0.002172368113 0.0016229252797 0.0013787139906 0.0013252082281 0.0012405520538 0.0014069271274 0.001140363398 0.0012382460991 
0.0018348543672 0.0028657366056 0.0031869946979 0.0028330180794 0.0024346520659 0.0020274927374 0.001925744582 0.0018452410586 0.0019071850693 
0.001915335306 0.002353588352 0.0028902739286 0.0028003221378 0.0026920342352 0.0019425816135 0.0013409749372 0.0013500747737 0.0039386823773 
0.0030645821244 0.0023032554891 0.0015518957516 0.0012342934497 0.00089046603534 0.0014555717353 0.0024525478948 0.0032754333224 0.0039379079826 
0.0032114596106 0.0023157480173 0.0020391771104 0.0017726588994 0.0019055921584 0.0018312614411 0.0021396889351 0.0021051354706 0.0021477958653 
0.0012375675142 0.0014530454064 0.0015627365792 0.0016176875215 0.0017521593254 0.0018445557216 0.0019610964227 0.0025675797369 0.0034144870006 
0.0045079421252 0.0055195628665 0.005786545109 0.0054032565095 0.0042718425393 0.0037877347786 0.0033955071121 0.0028738686815 0.0022083653603 
0.0015600681072 0.0010092796292 0.00036073653609 1.0979097169e-05 8.8677996246e-05 0.00021849734185 0.0018559515011 0.0026767232921 0.0030905380845 
0.003147458192 0.0031917535234 0.0033357948996 0.0033230779227 0.0033053690568 0.0031111256685 0.0025059871841 0.0023639004212 0.0020327840466 
0.0015257315245 0.0013966995757 0.0014030215098 0.0015193435829 0.0016246685991 0.0018709111027 0.0025800378062 0.0010811445536 0.00053019635379 
0.0036768955179 0.0043515549041 0.0012570247054 0.001642431831 0.0029987704474 0.0036255482119 0.0037966640666 0.0029009233695 0.0022141856607 
0.001794097363 0.0020791811403 0.0021711748559 0.0023360913619 0.0025440875906 0.0026748026721 0.0028953349683 0.003316441318 0.0038074539043 
0.0038698473945 0.0038219490089 0.0036809348967 0.004044525791 0.0045900265686 0.0048755565658 0.0047620576806 0.0042905379087 0.00381811033 
0.0031615993939 0.0026777698658 0.0023179757409 0.0017850275617 0.0013401370961 0.0010485999519 0.0008376276237 0.00081800011685 0.00063783617225 
0.00058438529959 0.00090702285524 0.00096882064827 0.0013552990276 0.0017492825864 0.0021731497254 0.0025451660622 0.0029462005477 0.0034737698734 
0.0040805134922 0.0046325083822 0.0018054799875 0.0021717799827 0.0015259393258 0.0015299606603 0.0013685119338 0.001268838183 0.0014742881758 
0.0016759441933 0.0024418665562 0.0036409362219 0.003342068987 0.002362484578 0.0016589097213 0.0013559877407 0.0052562709898 0.0059177167714 
0.006376883015 0.0062314863317 0.0057712318376 0.0050059529021 0.0040243370458 0.0034828763455 0.0032559880055 0.0028728293255 0.0027170411777 
0.0027536829002 0.0027507829946 0.0024961037561 0.0010722960578 0.0027804544661 0.0025549635757 0.0023179084528 0.001783355372 0.00090672652004 
0.0015140012838 0.0024665095843 0.0031458365265 0.0033779595979 0.0034527943935 0.0018520531012 0.0026546539739 0.0035446826369 0.0038791745901 
0.0024068627972 0.0021151835099 0.0021429779008 0.0038878617343 0.0046745920554 0.0045310193673 0.0042468775064 0.0037695027422 0.0032902567182 
0.0028944823425 0.002240401227 0.0016147072893 0.0011610545916 0.00086262013065 0.00067005772144 0.0004545164411 0.0020792514551 0.0024451923091 
0.0027788069565 0.0032297698781 0.0021380155813 0.0021312788595 0.002320708707 0.0024185380898 0.0026414224412 0.0029395974707 0.0031711098272 
0.0034520542249 0.003232420655 0.0028900445905 0.0027288075071 0.002380724065 0.0020131545607 0.0016802748432 0.0015220671194 0.0015278118663 
0.0015454445966 0.0019399932353 0.0025148584973 0.0031106835231 0.0028972660657 0.0027778760996 0.0028182268143 0.0020181345753 0.0014053952182 
0.0012096457649 0.00020091451006 0.0002158901043 0.00023255315318 0.0003689325531 0.00060685892822 0.00093753542751 0.0014132183278 0.0020647926722 
0.0028277079109 0.0032672297675 0.0035180007108 0.0057888189331 0.0064389253967 0.0062893605791 0.0056933746673 0.004798617214 0.0012614659499 
0.001474832301 0.0019089165144 0.0033896986861 0.0031783913728 0.0037961681373 0.0020804856904 0.0024451813661 0.0020653449465 0.0021470750216 
0.0041242935695 0.0021918164566 0.0011629001237 0.0016384314513 0.0022038819734 0.003481377149 0.0037977281027 0.002265694784 0.0025973992888 
0.0027412972413 0.0021451846696 0.0017813375453 0.0018150600372 0.0013260336127 0.00048375179176 0.00036634260323 0.00035228754859 0.00048673214042 
0.0018602829659 0.0019904838409 0.0021726016421 0.0025345827453 0.0030004398432 0.002045074245 0.0017928101588 0.0019737163093 0.0022372484673 
0.0016541304067 0.0012741300743 0.0022135449108 0.0021315603517 0.0020255160052 0.0039805937558 0.0049060923047 0.0012391322525 0.0011134707602 
0.0010618914384 0.0010984191904 0.00088142976165 0.0010558486683 0.0016662197886 0.0011948227184 0.0002759466006 0.00071250501787 0.00061913795071 
0.00050866726087 0.0026226099581 0.0025645825081 0.0042620319873 0.0042951619253 0.00048892659834 0.00075650762301 0.00074200099334 0.00057379866485 
0.00064206152456 0.00042149701039 
Stress_Z 1 1064 double
0.006814325694 0.0073911901563 0.0062882644124 0.0049096713774 0.0036651322152 0.0021278664935 -0.0010860174662 -0.00010036510503 0.0005310846027 
0.00091393804178 0.00092266476713 0.00077282823622 0.00064853695221 0.00043688729056 0.00036534809624 0.00040434967377 0.00044201637502 0.00055804586736 
0.00034875347046 0.00085785513511 0.00093360006576 0.0019367221976 0.0032645503525 0.0046675344929 0.0061699235812 0.0055392645299 0.0031389722135 
0.0014654034749 0.00041990936734 -0.00023922882974 -0.00082094990648 -0.00092382979346 -0.00080483121565 -0.00077165744733 -0.0006380827981 -0.00067170517286 
-0.00073657970643 -0.00054314587032 -0.0001079608046 0.0010047662072 0.0027060420252 0.0039661643095 -8.211122622e-05 -0.00079786026618 -0.0011259653838 
-0.0011246923823 -0.0016787786735 -0.0023461419623 -0.0027852221392 -0.0030839820392 -0.0028719292022 -0.0022660626564 -0.0011034825584 0.00012128447997 
0.0013390404638 0.0021441234276 0.0033736890182 0.0048038559034 0.0069452738389 0.0092978067696 0.010424024425 0.0093453740701 0.0064998650923 
0.0036585396156 0.0016078562476 0.00064581778133 -7.4033276178e-05 -0.00098854734097 -0.00083208177239 0.00028822105378 0.0013700019335 0.0017540779663 
0.0017473497428 0.0020085112192 0.00222847634 0.0041447868571 0.0044468268752 0.0017813625745 0.0018845760496 0.0027034780942 0.0029919946101 
0.0014421851374 0.0010057011386 0.0010534935864 0.0015065557091 0.0020858705975 0.0018854137743 0.0026429223362 0.00398946926 0.0054303277284 
0.0063334261067 0.0064266449772 0.0061940797605 0.0059427404776 0.0053012329154 0.0044886991382 0.0033483272418 0.0026574786752 0.0019439819735 
0.0010311112273 0.0053160940297 0.0059817130677 0.0061922636814 0.0069315829314 0.0062958761118 0.0069015049376 0.006306136027 0.0055460277945 
0.004477432929 0.0032888632268 0.0025351401418 0.0017965751467 0.0015842728317 0.0013972356683 0.0011696540751 0.0012317431392 0.0013626692817 
0.0017103902064 0.0020765634254 0.0022814827971 0.0026746308431 0.0036978558637 0.0049983239733 0.0059771104716 0.0061197197065 0.0054423455149 
0.0048707858659 0.0044942633249 0.0041956719942 0.0039740586653 0.003525946755 0.0028540533967 0.002407412976 0.0020044071134 0.001808782923 
0.0016486188397 0.0015008512419 0.0012307430152 0.0013581776293 0.0017621302977 0.0020701356698 0.0032268497162 0.0014672782272 0.0015335635981 
0.0016326783225 0.0019046525704 0.001894098823 0.0018713144818 0.0020648650825 0.0023296198342 0.0028967850376 0.0038977412041 0.00417832518 
0.004783262033 0.005232270807 0.0054668327793 0.0062396870926 0.0073385490105 0.0079940650612 0.0081487633288 0.0085367551073 0.0085640717298 
0.0078094345517 0.0066337571479 0.0052701104432 0.004036239814 0.0040798205882 0.00379152596 0.0027591560502 0.0011695349822 0.0005140483845 
0.00042636482976 0.0006519369781 0.0022324342281 0.0022480473854 0.0019707246684 0.0020626368932 0.0019586817361 0.0016855251743 0.001997896703 
0.0033172445837 0.0044337543659 0.0054827239364 0.0070776371285 0.0077314623632 0.0074888784438 0.0078656971455 0.0075448788702 0.0068338164128 
0.0061754132621 0.0057604601607 0.005454398226 0.0049217911437 0.0043514184654 0.0035499474034 0.002830772195 0.0021021235734 0.0019030327676 
0.0018209578702 0.0042714420706 0.0044250157662 0.0079283155501 0.0086896140128 0.0081523535773 0.0075998818502 0.0064897146076 0.0050354292616 
0.0036460838746 0.0024695370812 0.0014605288161 0.00091828271979 0.00086863239994 0.00069555453956 0.00072945834836 0.00084008456906 0.0011568684131 
0.0017048268346 0.002336616395 0.003203897737 0.0043873121031 0.005735786166 0.0063512511551 0.0056446776725 0.0053433501162 0.0052524269558 
0.0050907209516 0.0047410670668 0.0039658700116 0.0030132858083 0.0021436517127 0.0013746293262 0.00084178289399 0.0006054812111 0.00085915857926 
0.00082744361134 0.0011480249232 0.0019476806046 0.0036786354613 0.0061896308325 0.0070748408325 0.0069453078322 0.0068856989965 0.0038313798141 
0.0036162831821 0.003598185489 0.0034922689665 0.0028442125767 0.0021721757948 0.001215211465 0.00080483109923 0.0011544808513 0.001867099083 
0.0014271672117 0.0015915824333 0.0019885322545 0.0023511368781 0.0035149997566 0.0048852171749 0.0058262208477 0.0066310600378 0.007193361409 
0.0078817671165 0.0083033815026 0.0081158513203 0.0074887163937 0.0071444613859 0.0067038019188 0.005979064852 0.0055607478134 0.0051922639832 
0.0046054655686 0.0038246696349 0.0031884945929 0.0025542762596 0.0016722948058 0.001236087759 0.00096635724185 0.00093240203569 0.0010031004203 
0.0012347470038 0.0014935026411 0.001587272156 0.0020642436575 0.0027611639816 0.0032471150625 0.004040859174 0.0048934640363 0.005238625221 
0.0052813217044 0.005414084997 0.0060239718296 0.0068665328436 0.0075917481445 0.0078537622467 0.008060653694 0.0080961007625 0.0074475272559 
0.006407612469 0.0052961683832 0.0048635709099 0.0042048920877 0.0029278090224 0.0033641306218 0.0023735391442 0.0014953444479 0.007099349983 
0.0068954303861 0.0066926418804 0.0061767231673 0.0060088988394 0.0061230016872 0.0061886999756 0.005995079875 0.0053912536241 0.004251497332 
0.003034862224 0.0020581448916 0.00130303693 0.0011710192775 0.0013082074001 0.0016696298262 0.0029997229576 0.0038297381252 0.0055154166184 
0.0063802474178 0.0076399967074 0.007921253331 0.0081154089421 0.0078708343208 0.0069990055636 0.0056134099141 0.0043666595593 0.0034484164789 
0.0021637529135 0.0011994079687 0.00085090706125 0.00084398657782 0.00084757676814 0.00090144650312 0.0011812746525 0.0019825766794 0.002936081728 
0.0039009652101 0.0045608244836 0.0058412351646 0.0066924621351 0.0075616887771 0.0071154688485 0.0069818724878 0.0067039066926 0.0055654565804 
0.0011289390968 0.0012957649305 0.0028500189073 0.0028648055159 0.0022541962098 0.0015861402499 0.0010702919681 0.00095404533204 0.0011609088397 
0.0011712689884 0.0014959203545 0.0015498030698 0.0015289325966 0.0014025351265 0.0017480647657 0.0023506940342 0.0031846668571 0.0049236803316 
0.0066860797815 0.0066809901036 0.0066910120659 0.0073276949115 0.0079292608425 0.0082147726789 0.0079413857311 0.007416378241 0.0071474276483 
0.0067463242449 0.0061028539203 0.0056493636221 0.0051044933498 0.0044291052036 0.0037452175748 0.0033152305987 0.0025199218653 0.0015529604862 
0.0010653198697 0.00085879623657 0.00098658516072 0.0010913627921 0.0014246071223 0.0018194162985 0.0020959400572 0.0024781369139 0.0029948789161 
0.0033631564584 0.0039194743149 0.004383363761 0.0047245626338 0.0048261000775 0.0049596629106 0.0053613465279 0.0069053811021 0.0072073559277 
0.0073388307355 0.0070460364223 0.0067847338505 0.0063635185361 0.005623314064 0.004925377667 0.0041085258126 0.0032957997173 0.0025721730199 
0.0020485774148 0.0020261551253 0.0022331418004 0.0021289926954 0.0017194201937 0.0011008299189 0.0042994744144 0.0036299079657 0.0031017630827 
0.0021405788139 0.0020155142993 0.0016992156161 0.0015115878778 0.0015415342059 0.0018307708669 0.001662841998 0.0012729590526 0.0063108573668 
0.0054735266604 0.0068573849276 0.0067112636752 0.0065625174902 0.0064524263144 0.0065300022252 0.0066750249825 0.0066395713948 0.0061029680073 
0.0049914419651 0.0038098280784 0.0027369328309 0.0018759381492 0.001700021443 0.0018950877711 0.001857115305 0.0015316606732 0.0013767535565 
0.0014612412779 0.0020158647094 0.0025824483018 0.0031232265756 0.0047397878952 0.0054280576296 0.0054676616564 0.005276826676 0.005021662917 
0.0051231784746 0.0054629826918 0.0059357569553 0.0062204445712 0.0062267356552 0.0062577985227 0.0063989344053 0.0064624049701 0.0060924384743 
0.0052283988334 0.0041278027929 0.0029632577207 0.001734437421 0.00095207820414 0.0010842374759 0.0010529240826 0.0015678125201 0.0025422743056 
0.0035096933134 0.0041317543946 0.0047888811678 0.0054411818273 0.0066875410266 0.0077413613908 0.0067664897069 0.00528833922 0.0060025374405 
0.0062070959248 0.00096736388514 0.0011671297252 0.00097787578125 0.00094043026911 0.0011299517937 0.0013463820796 0.0014646967174 0.0014127027243 
0.0014880353119 0.0019071082352 0.0026726217475 0.0036817674991 0.0052174190059 0.0061228647828 0.0062249577604 0.0064210584387 0.0071838614531 
0.0081855459139 0.0085301948711 0.0082355169579 0.0077538313344 0.0073632788844 0.0069802673534 0.0063900765963 0.005707450211 0.0051200399175 
0.0043598129414 0.0036810548045 0.0031722087879 0.0025487588719 0.00097351783188 0.00087411346612 0.0009154114523 0.0010588840814 0.0013779527508 
0.0017418871867 0.0020715275314 0.0026543599088 0.0029496375937 0.0032097692601 0.0034082951024 0.0037509768736 0.0040957829915 0.0043810396455 
0.0045037413947 0.004747884348 0.0048898314126 0.0048024849966 0.0054309708066 0.0060042012483 0.0061373985372 0.006469940301 0.0068227299489 
0.0067076650448 0.0060773151927 0.0058802133426 0.0012613894651 0.0014936645748 0.0009712157771 0.00097174983239 0.00090514053591 0.00095730292378 
0.0010109209688 0.0011842228705 0.0012715939665 0.0012831720524 0.001524954685 0.002080909675 0.0028693233617 0.0038217348047 0.0050219148397 
0.0057638129219 0.0054652630351 0.005671731662 0.0067815193906 0.0083344066516 0.008943349123 0.0082447174937 0.0076931053773 0.0074360962026 
0.0069633815438 0.0061060753651 0.005532881245 0.0049383416772 0.0042068264447 0.0033775363117 0.0027078257408 0.0020512272604 0.0016012454871 
0.0011324674124 0.0011646173662 0.0010274196975 0.00097221182659 0.00093484239187 0.0010303629097 0.001156483544 0.0014017634094 0.0018072924577 
0.0023381670471 0.0027267888654 0.0027053540107 0.0027045598254 0.0030580649618 0.0035133739002 0.0038549993187 0.0040550469421 0.0042418623343 
0.0044793989509 0.0044178804383 0.0042647779919 0.0047438144684 0.0051185688935 0.00567256473 0.0060957032256 0.0061464030296 0.0061936476268 
0.0060871765018 0.0056604710408 0.0048892786726 0.0063081900589 0.006473579444 0.006496550981 0.0063791796565 0.0063676172867 0.0064924946055 
0.006495826412 0.0061889095232 0.0055921585299 0.0046831062064 0.0035546489526 0.0027258491609 0.0022750096396 0.0021437848918 0.0020348986145 
0.0019216865767 0.0017395715695 0.0015005951282 0.0013718927512 0.001525389147 0.001779661281 0.0024564415216 0.0035610243212 0.0045544533059 
0.0050623933785 0.0049043218605 0.004641589243 0.0047136582434 0.0049276123755 0.0053881802596 0.0056919399649 0.005738361273 0.0055784396827 
0.0052284272388 0.0051886369474 0.0055086417124 0.0058564986102 0.005489488598 0.0044523086399 0.0033289624844 0.0024841865525 0.0017043751432 
0.001466924441 0.0011139907874 0.0013490284327 0.0015747661237 0.0015555757564 0.0017949678004 0.0021021685097 0.0029904691037 0.0038181345444 
0.0042823785916 0.0045843259431 0.0051078838296 0.0060551851057 0.0062098358758 0.0056121083908 0.0046798242256 0.0042785508558 0.0039174961857 
0.0047854166478 0.0052435039543 0.0010242409771 0.0012888181955 0.0015848339535 0.0022065958474 0.0029472033493 0.0037454485428 0.0046019628644 
0.0053595397621 0.0053290370852 0.0054478673264 0.0080821728334 0.0087367566302 0.0082531617954 0.0076950383373 0.0070981611498 0.0063139577396 
0.0055979373865 0.0050389217213 0.0045100147836 0.0037889417727 0.0030779624358 0.0023807664402 0.0020125433803 0.0015089930966 0.0013618398225 
0.001160554355 0.0010612407932 0.0009995783912 0.00094130437355 0.00092709524324 0.00098106637597 0.0010770721128 0.0012579782633 0.0015477678971 
0.0020434788894 0.0022995716427 0.0023112788331 0.0020854179747 0.003152214922 0.0036267433316 0.0038263800088 0.0039225993678 0.0040975827724 
0.0064913122915 0.0061654169112 0.0040269610472 0.0039843125269 0.0042153075337 0.0047244336456 0.005349079147 0.0054953242652 0.0055679511279 
0.0058124214411 0.0059509235434 0.0058510475792 0.0058187139221 0.0059135635383 0.0059347334318 0.0057487385347 0.0055858758278 0.0051393550821 
0.0040529910475 0.0032554266509 0.0026817847975 0.00231027673 0.0021673212759 0.0017408054555 0.0016130543081 0.0014245577622 0.0013355753617 
0.0013861416373 0.0016336343251 0.002432001289 0.0031645006966 0.003866631072 0.0039694625884 0.0039258897305 0.0042785746045 0.0047115324996 
0.0051517174579 0.0056616347283 0.006068568211 0.0061651878059 0.0058500450104 0.0054965452291 0.0048895203508 0.0047582867555 0.0048569370992 
0.0049415738322 0.0042650932446 0.0034270337783 0.0027092790697 0.0022210669704 0.0017606297042 0.0016193659976 0.0014282298507 0.0012746218126 
0.0014926127624 0.0022569585126 0.0025210534222 0.0022490264382 0.0023737507872 0.0027295199689 0.0030521582812 0.0033800890669 0.0038889532443 
0.004392107483 0.004681986291 0.0048808339052 0.0047303657047 0.0049447272904 0.0048442725092 0.0049828896299 0.0039185215719 0.0050261584111 
0.0039268429391 0.0031886671204 0.0019886947703 0.0021085552871 0.00096092827152 0.00088982406305 0.0010204195278 0.0010239338735 0.0012534266571 
0.0013880666811 0.001366906683 0.0012234648457 0.00098159129266 0.0010433378629 0.0010825522477 0.0010781962192 0.00095603527734 0.0010520974174 
0.004975807853 0.0051040747203 0.0051145185716 0.0051824036054 0.0053157126531 0.0053135999478 0.0051423166879 0.0051157185808 0.0048504173756 
0.0041709449142 0.0034840502776 0.0030700166244 0.0024471441284 0.0012964407215 0.0012018976267 0.0013087681727 0.0012850504136 0.0012269455474 
0.0012471864466 0.001549780136 0.0020200547297 0.0026674505789 0.0030957811978 0.0031128211413 0.0044344030321 0.0049381647259 0.0054943175055 
0.0061341435649 0.0067957495339 0.0073563791811 0.0073251388967 0.0066147232428 0.0055454452522 0.004287072923 0.0042492505163 0.0040549379773 
0.0033269564155 0.0027866072487 0.0023188143969 0.0019508231198 0.0016039221082 0.0014400146902 0.0046043498442 0.0038861129433 0.0036031748168 
0.003121800255 0.0021901801229 0.005550684873 0.005584881641 0.0060995318927 0.0054667596705 0.004621102009 0.0033620814793 0.0030665672384 
0.0029483521357 0.0011835002806 0.0016133568715 0.0020531967748 0.0026961576659 0.0033908630721 0.003981241025 0.0045155100524 0.0050316001289 
0.0053091263399 0.0057807555422 0.006191755645 0.0068206698634 0.0070785945281 0.0081940162927 0.0084988214076 0.0078531242907 0.0071089467965 
0.0062793004327 0.0056419656612 0.0051735150628 0.0047410479747 0.004282805603 0.0037657741923 0.0031703624409 0.0026872721501 0.002137522446 
0.0018817990785 0.0017586061731 0.0013688247418 0.0010843463242 0.0010417355224 0.00092617655173 0.00088972196681 0.00091780727962 0.00099323235918 
0.0011561833089 0.0013497432228 0.0034333113581 0.0012749372981 0.00092958396999 0.0013790901285 0.0013715788955 0.0014560783748 0.0015889731003 
0.0015495620901 0.002070754068 0.0025636979844 0.0019552244339 0.0017294038553 0.00209272746 0.0023037914652 0.0016304078745 0.0017755900044 
0.0020508114249 0.0020149734337 0.0019098769408 0.0020642390009 0.002672303468 0.0028515611775 0.0032659699209 0.0035778135061 0.0037663874682 
0.0039088572375 0.0039380909875 0.0039991005324 0.0011112361681 0.0040185325779 0.0041833366267 0.0041434033774 0.0042560994625 0.0052501629107 
0.0055173435248 0.0056846830994 0.0053469892591 0.0043723471463 0.0047822264023 0.00059761136072 0.0005788700073 0.00091706810053 0.0015789846657 
0.0012504761107 0.0012344109127 0.0011536704842 0.0073778061196 0.0085544427857 0.0085269240662 0.0074301590212 0.0062919897027 0.0055609080009 
0.0052056373097 0.004784503486 0.0044800247997 0.0042068064213 0.0037983474322 0.0033037378453 0.0016583106481 0.00092973944265 0.00090467347763 
0.00095118663739 0.0010268052574 0.0015535886632 0.0019036979647 0.0024571518879 0.0030451777857 0.0037149025593 0.0043421168812 0.0047755697742 
0.0050240177661 0.0050074271858 0.0010171906324 0.004352862481 0.0040992270224 0.0037887908984 0.0032633009832 0.0026896735653 0.0022508774418 
0.0018357459921 0.0015476318076 0.0010585461278 0.0031461482868 0.0035716756247 0.0039073550142 0.0040541109629 0.0011159093119 0.0011186543852 
0.0011785106035 0.0022729183547 0.0025812201202 0.0028718269896 0.0032510005403 0.0035059745423 0.0038936412893 0.0043197623454 0.0046801017597 
0.0050397054292 0.005531063769 0.0062777567655 0.0021055208053 0.0026332587004 0.0031105449889 0.0025916704908 0.0035696327686 0.0041926964186 
0.0043820138089 0.0044504581019 0.0041605005972 0.0033037336543 0.0073359934613 0.0045388638973 0.0044363196939 0.0046964376234 0.0048015271313 
0.008412106894 0.0047277184203 0.0012080183951 0.0014550387859 0.0019799056463 0.0017527723685 0.0012169962283 0.004560188856 0.0044162161648 
0.0038067002315 0.0018962430768 0.0017011978198 0.0020505378488 0.0010508124251 0.0021464040037 0.0025310944766 0.0029225305188 0.0030959094875 
0.0025218452793 0.0030687681865 0.0036043436266 0.0041949264705 0.0047488035634 0.0059908404946 0.0058588515967 0.0059901452623 0.0066666761413 
0.0068853953853 0.0069502550177 0.0010172203183 0.0010241529671 0.00097484659636 0.0021561053582 0.0015987842344 0.0042152954265 0.0046477443539 
0.0044402736239 0.004348970484 0.0051896958612 0.0048488345928 0.0010203673737 0.0011743913637 0.0018739870284 0.002449584892 0.0027845306322 
0.0027025786694 0.0041143479757 0.0042683202773 0.0084711872041 0.0074612824246 0.0017546676099 0.001560001052 0.0012727773283 0.0018815934891 
0.0023390736897 0.0018953979015 
Stress_XY 1 1064 double
0.0022258081008 0.00033850362524 0.0002171156375 -0.00049070175737 -0.00075445300899 0.00022606772836 -1.0735345313e-05 -0.00041068517021 -7.4087191024e-05 
4.0034912672e-05 -7.3343517215e-07 -0.00043713487685 -0.00074376229895 -0.00080385652836 -0.00088007183513 -0.00078907189891 -0.00078660051804 -0.00085665099323 
-0.00017932728224 -0.00044268264901 -0.0002351821895 -0.00025644883863 -0.00062379968585 -0.0010543550598 -0.0012075545965 -0.00094145775074 -0.00020593967929 
0.00038665838656 0.00053620379185 0.00040139164776 0.00037701884867 0.00056209333707 0.00073457031976 0.0010289334459 0.0014720291365 0.0019527527038 
0.0022264695726 0.0020202801097 0.001522829989 0.0010675683152 0.00090122094844 0.0016523594968 -0.00091110932408 -0.00096600718098 -0.00090045464458 
-0.0011285919463 -0.0010232488858 -0.00044648288167 -0.00035881384974 -0.00033163110493 -0.00010082527297 0.00029629911296 0.0010951225413 0.0014683299232 
0.0014781494392 0.0013160542585 0.0012789779576 0.0010961748194 0.0010207648156 0.0012312391773 0.0014178836718 0.0014088001335 0.0012642715592 
0.00090768845985 0.0001672849321 -0.00053653406212 -0.00085410889005 -0.00087140448159 -0.00093185954029 -0.0010847419035 -0.001767932903 -0.0016656077933 
-0.00094558642013 -0.00014978597756 0.00099858979229 0.0014749452239 0.00031261550612 0.00094357837224 0.00074794620741 0.0013576309429 0.0015443142038 
0.0028421722818 0.0023161398713 0.0014782639919 0.00091458216775 0.00092512328411 0.00045607905486 -0.00025805621408 -0.00048230346874 -0.00056066107936 
-0.00042383201071 -0.00021274571191 -7.3232760769e-05 0.00010684692825 -0.00025742413709 -0.00084153038915 -0.0014118087711 -0.0018700909568 -0.0019898130558 
-0.0017570770578 -0.00073938653804 -0.00039327330887 -0.00027041006251 0.00012827593309 0.00038991894689 0.0010633100756 0.0010728160851 0.00087744370103 
0.0009016590775 0.00070372154005 3.9995637053e-05 -0.00054263649508 -0.00065369845834 -0.00079096719855 -0.00077295425581 -0.00069141248241 -0.00037967693061 
-0.00020076146757 -0.00047026036191 -0.0006226390833 -0.00078014348401 -0.00092695519561 -0.00075465068221 -0.00032876309706 -0.00048469743342 -0.00068794714753 
-0.00067781691905 -0.00067634234438 -0.00073318794603 -0.00073519395664 -0.00043771817582 2.3198816052e-05 0.00056553055765 0.0012113216799 0.0019435106078 
0.0026274295524 0.0030248865951 0.0031154470053 0.0028186603449 0.0023534928914 0.0016962783411 3.2869433198e-05 -0.0021514208056 -0.0019477007445 
-0.0017199314898 -0.0012296772329 -0.00052498973673 1.6772719391e-05 0.00033865534351 0.00094160041772 0.0016547932755 0.0021321200766 0.0022462406196 
0.0017342590727 0.0013283059234 0.0010600095848 0.00070594676072 0.00014219083823 -0.00042081493302 -0.00059466343373 -0.00016206153668 0.00065399723826 
0.0013127808925 0.0014358538901 0.0011196783744 -0.00028503220528 -0.00064015894895 -0.0014136264799 -0.0021329449955 -0.0020610515494 -0.0015117888106 
-0.00074751599459 0.00020696640422 0.0014649113873 0.0022520511411 0.0020733273122 0.0015546306968 0.0012229995336 0.0011555620003 0.0013017297024 
0.0012628129916 0.00064417091198 8.5442690761e-05 -0.00038672040682 -0.00055888295174 -0.00078607193427 -0.00081523362314 -0.00060950627085 -0.00027060302091 
6.2580174927e-06 0.0001668932091 0.0002258601744 9.1168454674e-05 -0.00042581523303 -0.0010784737533 -0.0017068188172 -0.0024237039033 -0.0026204250753 
-0.0024600434117 -5.5707299907e-05 0.00024474912789 -0.00013366449275 0.00058396212989 0.00093453447334 0.0010992168682 0.00096344371559 0.00064783653943 
0.0001730886579 -0.00036963375169 -0.00059301219881 -0.00060069269966 -0.00050342601025 -0.0004595395294 -0.00035292570828 -0.00013494199084 -2.1564290364e-05 
-5.8953341068e-05 -0.00022387402714 -0.000460847863 -0.00062011560658 -0.00054539355915 -6.3509549364e-05 -0.00048196787247 -0.00071802199818 -0.00081896124175 
-0.00082203204511 -0.00073811836774 -0.00057805806864 -0.00018063474272 0.00033175502904 0.00088839035016 0.0014742908534 0.0020687470678 0.0025370391086 
0.0027147373185 0.0026508399751 0.001982120797 0.00093281827867 -0.00037140466156 -0.0014563885052 0.00013527968258 -0.00012344644347 -0.00028307948378 
-0.00038602203131 -0.00093127199216 -0.0017294184072 -0.002163895173 -0.0021725397091 -0.0016675064107 -0.00093087484129 -0.00022773511591 0.0018958651926 
0.0019136079354 0.0015582117485 0.00112197001 0.0010177601362 0.0011806972325 0.0012382282875 0.00099516485352 0.000508057361 -0.00014116421517 
-0.00050914514577 -0.00059980340302 -0.00050581851974 -0.00030246685492 -0.00015086395433 6.2017832533e-05 0.00016260758275 0.00017379692872 9.9070442957e-05 
-0.00014608500351 -0.00060363154626 -0.0012020100839 -0.0018698239001 -0.0023491866887 -0.0026058719959 -0.0025259589311 -0.0022929629777 -0.001940632239 
-0.0014180819271 -0.00058270565933 0.00026119299582 0.0010143298423 0.0016965079121 0.0023373416625 0.0024033060763 0.0020009875298 0.001501642284 
0.00098284636624 0.00063478475204 0.00038469664287 -5.9708195295e-06 -0.00028589981957 -0.00033395653008 -7.4523653893e-05 0.0003462152672 0.00079141603783 
0.0010920673376 0.0011247457005 0.00073105411138 0.00020556316304 -9.5599112683e-05 -0.00063169683563 0.0012431241339 0.00017655387637 0.00012473690731 
0.0002016294311 -0.00011674760026 -0.00045241467888 -0.00065447390079 -0.00074425723869 -0.00073553179391 -0.00066315795993 -0.00052478723228 -0.00026505198912 
0.00011216670828 0.00060925871367 0.001071654493 0.0015822652495 0.0019258379471 0.0018283358077 0.0012400990818 0.00064097036375 -0.00032711643144 
-0.0018923003227 -0.00018320478557 0.00043902010657 0.00084206071915 0.0010089154821 0.00091829238227 0.00046256897622 -0.0002134811366 -0.00067966402275 
-0.00056763715111 -0.00020443616086 2.069731454e-05 7.4812713137e-05 3.1784358725e-05 7.8373959695e-05 0.00013231478806 4.0883114707e-05 -8.3525919763e-05 
-0.00015001122665 -0.00027900675195 -0.00039706117241 -0.00037883376353 -0.00032302530599 -0.00015008669288 -2.4634513466e-05 -0.00072536384687 -0.0011599084828 
0.0020113571081 0.0018541733734 -0.0010367593495 -0.0016094577732 -0.0018583321944 -0.001582949888 -0.0010150669841 -0.0004551243037 -0.00014061185357 
-2.9144626751e-05 0.00023111951305 0.00086776126409 0.0013428345555 0.0013863891363 0.0012553901179 0.0011039801175 0.00095705379499 0.0011056179646 
0.0014209642541 0.0011825928232 0.00061406422174 -7.2128503234e-05 -0.00060204399051 -0.0006307947915 -0.00038001959911 -0.00010715814278 3.544613719e-05 
0.00020670425147 0.00030309634167 0.00034660304664 0.00032647215994 0.00015505909687 -0.00020171597134 -0.00070153427077 -0.001348998514 -0.0019658403471 
-0.0022819763981 -0.0023479398806 -0.0022991904989 -0.0021171153057 -0.0016591950553 -0.00083775242092 0.00021737288625 0.0012972145341 0.002088253852 
0.0024453925434 0.0022624949925 0.0016513539013 0.0010270774364 0.00057509483304 0.00036752963206 0.00018779303355 -0.00017135612143 -0.00026035634801 
-0.00013765635958 0.00014816981275 0.0005356122274 0.00091574282851 0.00097161764279 0.0008338887128 0.00055237853667 0.00040836600238 0.00041614868678 
9.3389964604e-05 -0.00042175877024 -0.00076077593258 -0.00097516993992 -0.0010581073584 -0.00082315522013 0.00048932246864 0.0005594821414 0.00057726330124 
0.00081431533908 0.00062348641222 0.00041923674871 0.00024435503292 -0.00011078793614 -0.00039038772229 -0.00054338568589 -0.00046437981655 -5.5169060943e-05 
9.6297051641e-05 -4.8520691053e-05 -0.00022182424436 -0.00038324727211 -0.00045696328743 -0.00046553419088 -0.00043940532487 -0.00038761927863 -0.00033938142587 
-0.00021182607452 0.00012967720977 0.00053261202993 0.00097606307827 0.0014579074923 0.0017486750148 0.001887186314 0.0018631845014 0.001778694219 
0.0016524995444 0.0013025843073 0.0008126264438 0.00053096428746 -0.00018267882115 -0.0012027956545 -0.0016600256786 -0.0016498939367 -0.0015019053826 
-0.0013060095953 -0.0010775647825 -0.00080013117986 -0.00030797513318 0.00010156038479 0.00034607981797 0.00040830578655 0.00026526115835 -0.00016806233907 
-0.00076285994146 -0.0008680758765 -0.00046049553202 7.0693735324e-05 0.0006412724033 0.00054545508465 0.00030663589132 0.00013955167378 7.0924645115e-05 
7.681628631e-05 0.00018309420557 0.00018204189837 0.00013885913359 -6.7636130552e-05 -0.00019759770657 -1.160271313e-05 0.0001369578531 -0.00014662496687 
-0.00012874091044 0.00067800912075 0.00052622315707 -0.00017795950407 -4.8471873015e-05 -2.8779628337e-05 0.00015192908177 0.00033672168502 0.00060220627347 
0.00096302491147 0.0011000394588 0.0010583946714 0.00098129583057 0.0011555503588 0.001388057135 0.0011758886976 0.00043850269867 -0.00030955471448 
-0.00060566974571 -0.00070419203257 -0.00046154417214 -8.391332085e-05 0.00021416388336 0.00038597299135 0.00047026594984 0.00047672959045 0.00049395521637 
0.00036640916369 0.00011139456183 -0.00034682877595 -0.00086670176825 -0.0019888360985 -0.0021272546146 -0.0022351155058 -0.0021123297047 -0.0016309248749 
-0.00080990366405 0.00027775811031 0.0014353400329 0.0023295453284 0.0023933954071 0.001900020754 0.0012015782995 0.00067127565853 0.00035836914321 
0.00023810524726 0.00015865910973 0.00013789288641 0.0001172725315 5.142180089e-05 5.9493629578e-07 -0.00010048666445 -0.00013583961118 -6.4795945946e-05 
4.377098594e-05 0.00028523651417 0.0005708943936 -0.0016537575284 -0.0011645868653 -0.00022778951097 -6.1013815866e-06 0.00014536714298 6.2061517383e-05 
2.6817311664e-05 2.0901115931e-05 0.00014357116015 0.00041113788029 0.00073854648508 0.00088907597819 0.00085029180627 0.00080297188833 0.00097877765074 
0.0008092354401 0.00034892460098 -9.6428477264e-05 -0.00058122212067 -0.00086573424051 -0.00077792385127 -0.00047285345499 -0.00012396177044 0.00020971044432 
0.00045478434185 0.00050856126472 0.00054348591948 0.00056658952963 0.00049003958702 0.00025884498609 -5.2020190196e-05 -0.00041950799641 -0.00064596364973 
-0.00067229894921 -0.0010986325797 -0.001448390889 -0.0017425842816 -0.001935931854 -0.0019661639817 -0.0017430809094 -0.0012383320136 -0.00046658885549 
0.00057659304002 0.0016086696414 0.0021784792189 0.0021268778946 0.0015363652492 0.00092811341165 0.00055724359117 0.00034615895129 0.00020050475723 
0.00016475655138 0.0001694898383 0.00016117471387 7.0373236667e-05 4.7966382226e-06 8.2862694399e-05 -1.6856354705e-05 -6.7722779932e-05 -1.6083915398e-05 
-0.00015726733545 0.00020052627951 0.00049660966033 -0.00014175305841 -0.00020151851641 -0.0002307863615 -0.00021293383907 -0.000160615411 -7.9995385022e-05 
-3.9461909182e-05 -9.7740121419e-05 -0.00010929481505 8.5544299509e-05 0.00041328245425 0.00092326937011 0.0015498254215 0.0019642950501 0.0020447762217 
0.0019426643848 0.001685356372 0.0016258896794 0.0015329563757 0.0013436242007 0.0010801770259 0.0007347142091 0.00051864131819 1.7824255337e-05 
-0.00056212575873 -0.0010236436501 -0.0013325214386 -0.0013630628819 -0.0012352222111 -0.0011051793117 -0.00087241863366 -0.00053380843019 -0.00021019605629 
-0.00013970659347 -0.00031212516478 -0.00062310998328 -0.0011243215995 -0.0014579053968 -0.0011107361643 -0.00044340890599 8.2074097008e-05 0.00035187829053 
0.00048354873434 0.00071644969285 0.00117805216 0.001287129242 0.00099250522908 0.00058537779842 0.00018879705749 0.00018434326921 0.00034441941534 
0.00059464335209 0.00090365868527 0.00075335532892 0.00044087067363 0.00029625493335 0.00040679622907 0.00039025960723 0.00014242221368 4.3537325837e-05 
-0.00010348639626 -0.00016734219389 9.9873141153e-05 0.00028304290026 0.00051969813649 0.00053456990281 0.00047967382125 0.00039925309829 0.00034391312511 
8.5987856437e-05 -0.00033534472459 -0.00070197763853 -0.00089402787853 -0.00089922302868 -0.00057148677297 -7.8999597463e-05 0.00015126394283 0.00034623523243 
0.000408326654 0.00042461737758 0.00042445183499 0.0003728014126 0.00026367578539 5.8743273257e-05 -7.8481767559e-05 -0.00027180134202 -0.000251850317 
-0.00018379972607 -0.00047285761684 -0.00089256680803 -0.0011601985898 -0.0013733543456 -0.0014802882215 -0.0014245356433 -0.0011558833066 -0.00063005648553 
0.00010551659216 0.00079713453306 0.0012950274395 0.0016557864146 0.0012507663341 0.00080539181363 0.00050012854626 0.00031820757431 0.00021440157434 
-0.00060330977431 -0.00097725808155 0.00022477495077 0.00028474774444 0.00017233814287 5.2938517911e-05 7.3129638622e-05 3.4697568481e-05 -0.00016924862575 
-0.00013686963939 -8.3885010099e-05 1.9820998887e-07 0.00011055230425 0.00022452528356 0.00027719815262 0.0002061798732 6.87038264e-05 -6.7378755375e-06 
0.00021759863012 0.00083418394206 0.0015239851782 0.0019993791357 0.0016595833004 0.0009310230962 0.0012665323447 0.0013028255198 0.0012521503959 
0.0010604048148 0.00091064808657 0.00070155924186 0.00042477421812 7.3738810897e-05 -0.00038652445073 -0.00080160656944 -0.0010809159139 -0.0011274771532 
-0.0010611872422 -0.0010308722267 -0.00096519535873 -0.00082754099276 -0.00060379464412 -0.00070424278965 -0.00085979653522 -0.0012498121941 -0.0017969325418 
-0.0020310161635 -0.001462541637 -0.00073903641896 -0.00021042364824 0.00014631016529 0.00032602949068 0.00035368846147 0.00059334246907 0.00088173022959 
0.0012663223315 0.0017594640376 0.0015771947801 0.00094316678587 0.00043824780732 0.00038418037002 0.00075362634379 0.0010393698467 0.0011110848282 
0.00098248489667 0.0007130104932 0.0004886573879 0.0004846866068 0.00032526627183 0.00015282699314 -0.00020412755839 -8.8406959549e-05 0.00023081694962 
0.00044187821914 0.00057799502974 0.00087153119966 0.0010570612503 0.00092650851002 0.0010710809147 0.00098032853566 0.00077492115088 0.00031972411671 
-0.00014709426614 -0.00010107767594 -0.00024725651019 1.4052235201e-05 0.00025288993493 0.00027937392588 0.00025441739126 0.00016046698147 0.00011570380593 
-5.087295358e-05 7.3118724686e-05 0.00019824133778 0.00031987400143 0.00042103763553 0.00047050637659 0.00041233710363 0.00020972909988 2.3645934562e-06 
0.00019895279547 0.00068687577732 0.0013085855171 0.0015338363592 -7.5648742495e-05 0.00026198991691 0.00064604810905 0.00089281622786 0.00096526194829 
0.00085655518342 0.00067678932101 0.00051465205615 0.00037039443851 9.7729782283e-05 -0.00016648678866 -0.00075791735435 -0.00077682646224 -0.00079846265726 
-0.00084794021677 -0.00093774357811 -0.00099240802228 -0.00089890044183 -0.00086334219668 -0.001080513699 -0.0019917411264 -0.0020928059239 -0.0016771161463 
-0.0010129152797 -0.00048553332454 -6.7464679887e-05 0.00018331679166 0.00024114082044 0.00030726901605 -0.001560899429 -0.00052666699048 -0.00037954872823 
0.0015330953756 0.0016534985043 -6.7758948717e-05 -0.00016674696235 -1.5982122932e-05 6.3662337197e-05 0.00039662519703 0.00074217148358 0.001051519881 
0.0012763099512 0.0002819604706 0.00028685986763 0.00016839106684 4.3906275096e-06 -0.00013209256576 -0.00025010399986 -0.0005822260282 -0.00094708014512 
-0.0011970029445 -0.0011511502089 -0.0010724086314 -0.00079205771908 -0.00074445968494 -0.00094230315881 -0.0010670230258 -0.00070557382423 -0.00024354025663 
9.3319824373e-05 0.00019062805222 0.00016420290922 0.00015707037528 0.00017536476662 0.0001967469143 0.00016099309141 8.8622633484e-05 1.1288202586e-05 
-7.837760495e-05 -6.8622633989e-05 2.265724288e-05 4.6738678066e-05 -0.00026034493931 -0.00058151996927 -0.00086260179523 -0.00093471672153 -0.00080907938536 
-0.00071792234667 -0.00045711256098 0.0010429522954 0.00012238991621 0.00015570242249 0.00038758831215 0.00043066908256 0.00060921028489 0.00092522532213 
0.0011540201958 0.0016302290605 0.0019800735172 0.0014807677362 0.00075119326357 0.00059173704358 0.00092844909523 -4.4060827349e-05 0.00035689564538 
0.00074884406058 0.0010788526852 0.0012031818042 0.0010925361421 0.00081939127995 0.0012595056323 0.0011397211347 0.00089531030972 0.00068889831891 
0.00045817275532 0.00032655548421 0.00097840721719 0.00080691074254 0.00041863395018 0.00044531546882 0.00030883270665 0.00012467616762 -0.00014593954256 
-0.00016120298824 7.6830103353e-05 0.00019086648535 0.00079810468014 0.00043247151189 0.0011408366263 0.0014277263544 0.0012005523313 0.00091328384588 
0.00042102171574 0.0002615742269 0.00028036587173 -0.00092638836941 -0.00096791668329 -0.0011040983954 -0.00083202146925 -0.00044932373567 -0.00017208233476 
-0.00010145772103 -0.00012613549188 -5.3969506553e-05 6.173553993e-05 0.00011714874563 0.00011270292453 0.00014895694039 -3.2378038668e-06 -0.00025871576509 
-0.00060563976876 -0.00025027841912 0.00015290762531 -0.00013144005788 -0.00047208217438 -0.00068682606798 -0.00083666329738 -0.0010181759717 -0.0012982301414 
-0.0014169731876 -0.0015371172922 0.00012280578085 -0.0018274447648 -0.0018434150843 -0.0015518572181 -0.0010758870048 -0.00065176055068 -0.00025368868955 
3.5866258258e-05 0.00016352933017 0.00043485520291 0.00085204601055 0.0007066440885 0.00060141546419 0.00052535132272 0.00063451007009 0.00071711617056 
0.0005447010044 0.00021825818112 7.3203467764e-05 -7.2774491855e-05 -0.00013642606791 -2.9432436349e-05 -7.8338700405e-05 -0.00024192505225 -0.00040878471918 
-0.00043390420615 -0.00048447327572 -0.00063216354465 0.00080033042468 0.00088997767307 0.00094593636459 0.00077382067684 0.00029949506279 -0.00025311164791 
3.2317693694e-05 0.00021164628561 0.00015472497034 0.00060866138665 -0.00086107529933 0.00035838334588 0.00056140660308 0.00045833887998 0.00054262223421 
-0.001055305358 0.00057880510576 0.00087339669699 0.0012274743058 0.0012444978347 0.0014517722884 0.0013962546363 0.00056609453168 0.00039421624388 
0.00060749583645 0.00062848173548 2.217076144e-05 -0.0002873314952 0.00050755753182 4.8132391385e-05 5.2692877944e-05 -1.0851091247e-05 3.4211869206e-05 
-0.00067439075792 -0.00098955642898 -0.0013059740886 -0.0014634995023 -0.0014775524614 -0.0021382928826 -0.0017902426189 -0.0014358928893 -0.001286781393 
-0.00098781415727 -0.00079123984324 -0.00051428074948 -0.00032140998519 -0.00046662226669 0.0020802279469 0.00048868084559 -0.00015060800069 -0.0001498216443 
-0.00018053140957 -0.00033798531513 -0.00024162563204 -0.0001043986631 0.00025197063223 0.00024254554592 0.00017347405083 0.00010306582408 8.6673717306e-05 
7.188229938e-05 0.00065401179017 0.0006267032004 -0.00095836928813 -0.00093221158022 0.00016637268709 0.0002380888036 0.00033003193676 0.00024414685322 
0.00010712628864 0.00013136926282 
Stress_YZ 1 1064 double
0.0017872303724 0.0025914870203 0.00041830391274 0.0014482090482 0.0010018909816 0.0012768681627 0.0024859542027 0.0021826319862 0.0017355250893 
0.0013309011701 0.0010969784344 0.00081644632155 0.0007385656354 0.00076645507943 0.0006602932699 0.00051069865003 0.00037479883758 0.00040742394049 
0.00030430167681 0.00053736410337 0.00048273408902 -6.3893289735e-06 -0.00049652840244 -0.00065385154448 -0.00057735817973 -0.00031415087869 -0.00049998657778 
-0.0010625948198 -0.0015455514658 -0.0018027822953 -0.0017661297461 -0.0013784079347 -0.0010042806389 -0.00081033702008 -0.00069821526995 -0.00085739453789 
-0.0012303534895 -0.0014268266968 -0.0011605705367 -0.00028409209335 0.00085433130153 0.0014963429421 0.00030088124913 0.00060198677238 0.00069510855246 
0.00060202518944 0.00077273906209 0.001134400256 0.0013619911624 0.0015404707519 0.001609816798 0.0016155419871 0.0018901753938 0.0018764726119 
0.0019365728367 0.0019740066491 0.0021680518985 0.0017181325238 0.0010321497684 0.00053059763741 9.9841367046e-05 -0.00046243105317 -0.00087898102356 
-0.001225013868 -0.0013810961973 -0.0017686161445 -0.0023109870963 -0.0024912953377 -0.0017756688176 -0.00088543322636 -0.000124464088 0.00012862216681 
0.00016140601656 0.00029624006129 0.00066059135133 0.0012397975661 0.00093099731021 0.00084314169362 0.00040309361066 0.00053815677529 0.00015285765403 
0.0010973248864 0.0010200940305 0.00034260991379 -0.00030838671955 -0.0009411702631 -0.0014678017469 -0.0012516886927 -0.0013690079795 -0.0019440074684 
-0.0021589167882 -0.0018548694206 -0.0013110917062 -0.0012500492157 -0.00077162421076 -0.00027282859082 -0.0001026532409 -0.00011134053057 -0.00015559881285 
7.8864650277e-05 0.0015191429993 0.0020620978903 0.0023001565132 0.0026090126485 0.0029130885378 0.0028309579939 0.0018656781176 0.001358235837 
0.00097137462581 0.00046418150305 -3.7360430724e-05 -0.00029889203142 -0.00036741583608 -0.00041137204971 -0.00035981979454 -0.00028010786627 -0.00030255116872 
-0.00027204546495 1.6608859369e-05 0.0002451200271 0.00032773052226 0.00028483473579 -3.3256990719e-05 -0.0007265835302 -0.0011911699548 -0.0011833378812 
-0.001161935972 -0.0012498911237 -0.0013226760784 -0.0010944762034 -0.00050060311332 -2.7641503038e-05 0.00031892798143 0.00052739330567 0.00050014728913 
0.00022260945116 -1.813959534e-05 -0.00012237414194 -1.3117647541e-05 0.00015771700419 -0.00012388385949 7.8459917859e-05 0.00011471145262 0.00014434300829 
0.00013808000949 0.00031755343662 0.00080930249533 0.0013857901795 0.0017046402209 0.0018500607694 0.0018416560488 0.0017647460336 0.0019622640684 
0.0019177942304 0.0018794503994 0.001929619466 0.0019623120315 0.0017852454912 0.0010974404868 -3.4900873288e-05 -0.0013479373883 -0.0022259019315 
-0.0024276319891 -0.0020871164743 -0.0016521031503 -0.00095621979563 -0.00024892095826 0.00053295184625 0.00053835945437 0.00013827519433 -0.00020786871028 
-0.000531444035 -0.00081819383195 -0.00066297099693 0.00035067403223 0.0013255741214 0.00143067725 0.0012092533289 0.0012827911414 0.0015675461618 
0.0015682947123 0.00094822439132 9.5928910014e-05 -0.00069567136234 -0.0011861147359 -0.0017148297047 -0.0020689715166 -0.0022006151266 -0.0019892149139 
-0.0016268624458 -0.0013521321816 -0.0010792377871 -0.00070226209937 -0.00014788853878 0.00017033977201 0.00028146750992 0.00027519150171 0.00011016638746 
7.6230564446e-05 -0.0010578553192 -0.001219917438 0.002685619751 0.0024822861888 0.0022444028873 0.0018825043226 0.0013169116573 0.00088618206792 
0.00037515978329 -9.6180992841e-05 -0.00036334973993 -0.00049506936921 -0.00035976996878 -0.00015054034884 -6.2167687247e-06 -1.1373894267e-05 -2.7484102247e-05 
7.9662153439e-05 0.00035821137135 0.00059291167418 0.00054802570958 2.667679837e-05 -0.00059006013907 -0.00069305836223 -0.00077417504508 -0.00085314415628 
-0.00085601385217 -0.00071237632073 -0.00037588429404 2.0098834284e-05 0.00027798052179 0.00039611337706 0.00033439492108 0.0001642977295 6.9677666943e-06 
-0.00019514467567 -0.00045172209502 -0.00070352386683 -0.00030436919769 0.00053692498477 0.001362789073 -0.00038667794433 -7.2721501056e-05 -0.00042640493484 
-0.00047513921163 5.6585686252e-05 0.00016918848269 -3.6805802665e-05 -0.00011303206702 -0.00024885928724 -0.00045413678163 -0.00063583691372 9.6509735158e-05 
0.00084289087681 0.0012620488415 0.0012719869846 0.0013374577975 0.0013088885462 0.0011636639247 0.00094984431053 0.00047184291179 -0.0001764124172 
-0.0009667359991 -0.0017199725844 -0.0021781795658 -0.0019889136311 -0.0017871499294 -0.0016015128931 -0.0013830261305 -0.0011269369861 -0.00077919993782 
-0.00033395443461 9.577030869e-05 0.00034660400706 0.00039716428728 0.00021066142654 4.1676521505e-05 -0.00011891756003 -0.00019450816035 -0.00017755923909 
-5.8127716329e-05 0.00023994132061 0.00074800569564 0.0011759719346 0.0015359594254 0.0018765000859 0.0020341810305 0.0020135794766 0.0018598117167 
0.0016184638953 0.0014504223363 0.0014591128565 0.0012865898898 0.00060340046184 -0.00023949718161 -0.001179826213 -0.0021542678587 -0.0025431464892 
-0.0023641544394 -0.0019233874045 -0.0012949021766 -0.00048130794312 -4.5749434321e-06 0.00028048455715 -0.00051779858768 -0.0008497153176 0.00051924260333 
5.7019526139e-05 -0.0001935671753 -0.00024339529045 -0.00027454894735 -0.00034021399915 -0.00041136750951 -0.00044743419858 -0.00034836988198 -0.00015492792591 
-1.2935519408e-05 4.9519392633e-05 -4.0569721023e-06 -0.00023422908271 -0.00047420678311 -0.00083866954083 -0.0007299061399 7.3412629717e-05 0.00069891352905 
0.0016013785498 0.0019832919352 0.0018259681528 0.0016694526421 0.0014623720199 0.001175699872 0.00074612774188 0.00028536326136 -8.6767038738e-05 
-0.00033809567685 -0.00042492046487 -0.0002426342835 -1.6714963067e-06 0.0001071867373 8.2540245785e-05 8.4319071902e-05 0.00018439396808 0.00039184972411 
0.00062557065394 0.00053055590251 0.00033602470648 0.00038156277151 0.0012210202403 0.0013718736591 0.00077130686259 0.0021832720377 0.0021205653902 
-0.00059953721939 -0.00061052758247 -4.0787763282e-05 -0.00029229515349 -0.00034825177863 -0.00032740586903 -0.00040882211761 -0.00057520833798 -0.0006330179167 
-0.00059963524109 -0.00083707994781 -0.0005858851946 -5.2652048907e-05 0.00049309316091 0.00087716820417 0.0011335773161 0.0012128336821 0.0012748215813 
0.0015437112888 0.0013637111988 0.0010359721491 0.00039634422865 -0.00060890760506 -0.001418261556 -0.0016920879716 -0.0017659791047 -0.0018109508092 
-0.0016066074604 -0.0014804300154 -0.0013109532883 -0.00093340134481 -0.0004584788694 1.3049148038e-06 0.00034892687108 0.00046401430154 0.00025159149664 
4.1314018745e-05 -8.6975873273e-05 -0.00018134379934 -0.00022938053007 -0.00012802807032 0.00011187104974 0.00052920385497 0.00104002445 0.0014866538113 
0.0017733988352 0.00193112134 0.0018597585149 0.001543420949 0.0012146191439 0.001054745866 0.00099101406522 0.00024643164943 -0.00056601240067 
-0.0012930386001 -0.0018295897171 -0.0021728151478 -0.0021122507751 -0.0016907774843 -0.00097301835194 -0.00038589921314 -2.6064673875e-05 2.9821794669e-05 
5.5878586863e-05 -5.9776746639e-05 -0.00044923019595 -0.00048449481255 -0.00036147134961 -0.00027394026984 -0.00021109273075 0.00010626812582 0.00027828259044 
0.00030140869785 0.00011671901302 5.8053272369e-05 -4.4874617743e-05 -0.00025961568463 -0.00028282491257 -0.00016260839766 -0.00017236504937 0.0007340204902 
0.00077686761506 0.00036294647725 9.6004252555e-05 6.7319915615e-06 -1.5496075321e-06 -5.3291958466e-05 -0.00018418315449 -0.00035632171785 -0.0005238262238 
-0.00057638966246 -0.00052412552759 -0.00054084917065 -0.00064188434044 -0.00080352125224 -0.00093233794905 -0.0009594198782 -0.00096122303512 -0.00086617545458 
-0.00082938245032 -0.00073252531001 -0.00019248695753 0.00061556010041 0.0010222521378 0.0014102531131 0.0019572866149 0.0020710418466 0.0019537054468 
0.0018886384787 0.0018477760023 0.0018008374609 0.0016762161395 0.0013516796753 0.0010418288875 0.00086626090342 0.0006718239747 0.00040768535109 
0.00016538306954 5.8449841163e-05 -3.1429404771e-05 -0.00010302015289 0.00016352937382 0.00021994137205 0.00018422829453 0.00021194740839 0.00030744232936 
0.00045733884326 0.00058918877039 0.00054159126012 0.00033910979982 0.00075453828322 0.0015672494192 0.0017160158604 0.0015734464396 0.0011246806243 
0.00066391483415 1.2295906345e-05 -2.8744569136e-05 -0.00034484182834 -0.00022933245054 -0.00045228528325 -0.000515614287 -0.00038002143265 -7.9403507698e-05 
0.00031362552545 0.00069225812331 0.0009822890861 0.0011320000049 0.0011648858199 0.001372793573 0.0014658306027 0.00121042924 0.00077020254685 
-0.00015953011462 -0.00093887466937 -0.0012696395861 -0.0013779904693 -0.0015168060781 -0.0016176509671 -0.0015411676141 -0.0013192433398 -0.00099193886854 
-0.00056784471963 -0.00014983188885 0.0002150546643 0.00043070680113 0.00012202844664 3.6349360016e-05 -1.4429926523e-05 -0.00010215268412 -8.4502193204e-05 
9.8928685475e-05 0.00053666089661 0.0011103426805 0.001463231747 0.0015291526215 0.0014416067861 0.0013683608267 0.0011940435506 0.0010015221778 
0.00083499273751 0.00074428721564 0.00066839624196 0.00057659170125 0.00052069476806 0.00027631322155 -0.00010086585098 -0.00058391835773 -0.0012616387103 
-0.0016136114718 -0.0016109434655 -0.0015056703705 0.00027608385426 0.00039679888869 -0.00014049833408 -2.1810545149e-05 0.00016961593064 -5.0320730224e-05 
-0.00024558760924 -0.00032899188227 -0.0001836084557 4.3990192353e-05 0.00033371281461 0.00064995355206 0.00090722279856 0.0010515415343 0.0011561680585 
0.00098582508508 0.00088331231382 0.00081914331531 0.00062740466092 0.00016654231877 -0.00042147131171 -0.00082579313312 -0.0011328142136 -0.0012989053503 
-0.0013628553133 -0.0012130587129 -0.0011384650134 -0.00093053589808 -0.00059294659877 -0.00019708016771 0.00012928998331 0.00034473676351 0.00032649360946 
0.00015973034897 0.00017115866649 0.00018416388775 0.00015162912314 0.00011288208771 2.8702088457e-05 -0.00011997458932 -0.0001796582801 2.4816130463e-05 
0.00054385373369 0.00093008752447 0.00098996318411 0.00095253007021 0.00077415478881 0.00082879461115 0.00090399046894 0.00087932712631 0.00075097708032 
0.00068242382258 0.00062902545324 0.00051871081814 0.00043696639477 0.00029304815689 1.7638214558e-05 -0.00024969663355 -0.00057647185167 -0.00099955301266 
-0.0010936342878 -0.0007787689683 -0.00072479888331 0.00037343995064 0.00014713245037 6.511079846e-06 -3.2269475923e-05 -6.1439815909e-05 -0.00014388212003 
-0.00031931840931 -0.00057097885292 -0.00081236701226 -0.00099428929389 -0.0011066189036 -0.0011852841126 -0.0012543837074 -0.0013281591237 -0.0012756913202 
-0.0011844903929 -0.0010847494705 -0.00095559546025 -0.00086438335711 -0.00077877752483 -0.00049278856022 0.00010211636254 0.00072776677553 0.00093896850012 
0.0011026355205 0.001385397627 0.001559595461 0.0015917108394 0.0015873779776 0.0016821735771 0.0017514501233 0.0015309051378 0.0011261502514 
0.00055841123685 -9.8974269349e-06 -0.00034485629294 -0.00038710283116 -0.00017690956884 9.2703710834e-05 0.00023645437614 0.00021922166343 0.00021689882851 
0.00029918696964 8.8296314061e-05 6.3713014242e-05 0.00022490331321 0.00032501330134 0.00038674176903 0.00047648730106 0.00065242807614 0.00062436028384 
0.00056874594884 0.00046531949192 0.00027443660656 0.00075334770372 0.0012866869802 0.0014718144666 0.0013553261524 0.0010699044215 0.0014102447312 
0.00092536036391 0.00054930552142 -9.8208067357e-05 0.00011432322935 0.0003626801772 0.00057536462555 0.00079381663818 0.0008256539586 0.00069890380837 
0.00060838618083 0.00047169011668 0.00025809180806 0.00031369866338 4.0123115468e-05 -0.00036973756505 -0.00080450042151 -0.00095409376081 -0.00084515032358 
-0.00083253293997 -0.00081651855726 -0.0006436521071 -0.0003586334351 -0.00012665434042 7.8639553976e-05 8.5953739472e-05 0.00013170378224 9.5572955615e-05 
4.7750309022e-05 5.6925837271e-05 9.375904483e-05 0.00012027289631 0.00010289084457 4.1904084355e-05 -0.0001022949873 -0.00030790659366 -0.00037396204425 
-0.00022291085043 4.4827724196e-05 0.00043329564505 0.00051976804389 0.00049455452245 0.00053833791753 0.00063106091693 0.00070138991578 0.00068279140396 
0.00045763805974 0.00022470791009 0.00050789059605 0.00030366500141 0.00035564092104 0.00035326808575 0.00015577793238 -1.6650996258e-05 0.00024899732671 
-9.7909705801e-06 -0.00019803170289 -0.00022996994085 -0.00019624680863 -0.00020559814584 -0.00030891253846 -0.00052944297204 -0.00089043483604 -0.001395428204 
-0.00166490837 -0.0016698307591 -0.0016401743051 -0.0015288142022 -0.0013383793412 -0.00097080972046 -0.00094393832842 -0.00085677596508 -0.00074269837933 
-0.00057682750048 -0.00034549846896 2.6367024475e-05 0.00038114920608 0.00047579262173 0.00061114964774 0.00090181216365 0.0010775052942 0.0011944206199 
0.0013421844924 0.0015606371453 0.0017457149224 0.0015442026779 0.0010281312279 0.00029934945633 -0.00046475668205 -0.00094886822626 -0.00093355972786 
-0.00054721871857 -2.3065273126e-05 0.00028467984521 0.00039230415132 0.00044824244105 0.00048458288074 0.00052161084022 0.00035881740041 0.00025853645639 
0.00018742558314 0.00027677201433 0.00059788953513 0.00079822511179 0.00082504464081 0.00077593507012 0.00054371153237 0.00041115275235 0.00031271146145 
0.00028419922455 0.00053067551926 0.00077002111357 0.00068292295327 0.0007866123924 0.00064417539397 0.00055941333994 0.0010143992258 -0.00025248064776 
0.0001172279517 0.00043949286919 0.00034466863144 0.00013120040239 0.00010245221347 0.00010020357149 5.6799661252e-05 -7.7862569015e-06 7.3555769632e-05 
6.4532840042e-05 -7.8876246334e-06 -3.93198643e-05 0.00013620938989 0.00036699254997 0.00057784508681 0.00039931008359 0.00015910080401 -9.7588354038e-06 
-0.00020463512919 -0.0003440194705 -0.0003289594606 -0.00025775149697 -0.00022817145509 -0.00028078371543 -0.00044494026224 -0.00080082198838 -0.0013933625305 
-0.0019232847262 -0.001721585053 -0.0016993011814 -0.0014130222844 -0.00057739834301 -0.00061051768716 -0.00068399938755 -0.00068910891423 -0.00061664136592 
-0.0004225395387 -0.00021601056505 -5.721094567e-05 6.5731976065e-05 0.00014171609655 0.00026553837233 0.00059720920399 0.00080001854803 0.0010337295244 
0.0014178870479 0.0017058824887 0.0016509208363 0.0010166331194 0.00023113969655 -0.00033552953391 -0.0010613302002 -0.00068306509638 -0.00018483074382 
0.00020698418666 0.00041705413605 0.00050184357679 0.00058931624517 0.00063164363382 0.00064708775608 -0.00088603579206 0.00042822386604 0.0002479434479 
0.00010465031664 -2.3630091164e-05 -0.00047476103646 -0.00066553009674 -0.00027264922392 -0.00026719327434 5.2007690101e-05 0.00020075724751 0.00014653026301 
0.0001852872083 0.00016894683358 0.00028569932329 0.00052034365945 0.00061825674493 0.00061580649344 0.00046743702842 0.00021358925733 -8.8482272986e-05 
-0.0002698196331 -0.00032176406239 6.3279301685e-05 0.00029920149245 0.00055523746414 0.00060513080098 0.00050705682952 8.3093436842e-05 -0.00021339922387 
-0.00030140316812 -0.00044333410915 -0.00057442014804 -0.00049386470346 -0.00033806165447 -0.00019560249348 -5.9167588915e-05 3.5037101043e-05 6.2147206336e-05 
7.3554416304e-05 7.618694508e-05 4.8105812311e-05 -1.6892870917e-05 -1.4276475667e-05 7.2736770562e-06 2.5321271096e-05 -2.1971938622e-05 -0.00014145014575 
-0.00031688899617 -0.0004877311585 0.00027305341791 0.0002607513743 0.00051410577726 0.00057226233184 0.00059734500246 0.00044159500976 0.00035366480006 
0.00040771346539 0.00059773947578 0.00086219521472 0.0010921958601 0.00071641872637 0.00047013899893 0.00030275300378 -0.00065558229107 -0.0007647186867 
-0.00070766103454 -0.00056725065224 -0.00029736966826 -0.00054827687563 -0.0007655544905 -0.00020415331528 -3.6325440306e-05 0.00017352764553 0.00030830758624 
0.00038720286102 0.0004772193206 0.0003204466193 0.00011277997692 0.00023223346216 4.537840141e-06 9.6550560556e-05 0.0002155463153 -3.2787702366e-05 
6.2472827267e-05 0.00018964831543 0.00017642044986 0.00015494781837 0.00013645674335 0.00026430594153 0.00031661274261 0.00047676413669 0.00039022412966 
0.00041209408664 0.00058171263663 0.00036239041947 0.00043299226672 0.00096525467234 0.0011018096702 0.00089321914129 0.00054155656835 0.00016990593576 
-0.00024812313495 -0.00034126272658 -0.00031658442458 -0.00024700723588 -0.00014012011525 -1.8156148144e-05 5.2868406783e-05 -0.00018538939185 -0.0001616657828 
-0.00011020155944 -0.0003275522613 0.00041331557441 0.00055405823514 0.00052629015408 0.00044505964615 0.00026646390324 -5.5312801123e-05 -0.00040292253834 
-0.00064056407427 -0.00074801011942 -0.00040923984488 -0.00091289466945 -0.00062241300475 -0.00017546556774 0.00021066657791 0.00041102751857 0.0005199368461 
0.00060440029483 0.0006263468531 -0.00045305932872 -0.00030456509558 -0.00017891249445 3.3030419218e-06 0.00013887244859 -0.00042349679279 -0.00035075392225 
-0.00019085695385 8.1591169874e-06 5.019341188e-05 0.00012777817028 8.1716934801e-05 -8.2494632807e-05 -0.00010159759404 -2.5003520932e-05 9.2471396783e-05 
0.00028510627453 0.00063564773882 0.0011425709818 -0.0012530244421 -0.0013458580943 -0.0015202092472 -0.0011096360395 -0.0014830696164 0.00092676404165 
-4.1740324377e-05 -0.00018441854627 -0.0010369283846 -0.00050465035019 0.0015013554366 -0.00020171074721 -9.1225134383e-05 -0.00019378376601 -0.00017124591977 
0.0015546892537 -0.00020926207071 0.00055591587443 0.00046798767289 0.00066287984373 0.00091677712044 0.0008410945884 -0.00032988778548 -0.00060459383531 
-0.00043272401672 0.00041991408216 0.00061832083156 0.00055421225261 -0.00015281274682 0.00011660628661 6.9547575549e-05 6.0911872424e-05 2.8528429539e-05 
0.00047485745745 0.00030728804995 -2.3313736165e-05 -0.00037223304389 -0.00063892413164 0.0024995824788 0.0024851253256 0.0023599152919 0.0022945136297 
0.002600948792 0.0025540916249 -0.00034711920307 -0.00037512936979 -0.00024730831501 -0.0013617750956 -0.00088457867969 0.00063111714553 0.00012069015793 
0.00029880122747 0.00066065043211 0.00048946216702 0.00036284991074 -0.00016847798543 -1.8391037884e-05 6.7024768214e-05 0.00012986223737 8.6345004092e-05 
9.0885790996e-05 -0.00018528776127 -6.3982384745e-05 0.0010979538783 0.0006997223245 0.0001006918028 -1.4371158613e-05 -0.00013863797358 2.7160367608e-05 
0.00013091787696 0.00016486088862 
Stress_XZ 1 1064 double
-0.001912338892 -0.0023123724386 -0.002098607365 -0.00081303121988 -0.0012025041506 -0.0004131757305 0.00078882667003 0.00095912592951 0.0010972268647 
0.0011907902081 0.0012177687604 0.0011627819622 0.00088958255947 0.00073309405707 0.00056029949337 0.0004498026974 0.00018303877732 -0.00012073839025 
-0.00021012366051 -0.0010569040896 -0.0011584274471 -0.0011694367277 -0.0010851834668 -0.0010222720448 -0.00052303972188 -2.2718351829e-05 0.00056613417109 
0.0007662482094 0.00078336003935 0.00065675546648 0.00057182111777 0.00038267436321 0.00019397796132 0.00017676764401 0.00028514771839 0.0003619241761 
0.0005548360059 0.00042067767936 3.5925124394e-05 -0.00051672948757 -0.00099629198667 -0.00165088207 0.00077713682549 0.0010422305204 0.0013064205414 
0.0012349531753 0.0010214288486 0.00077461177716 0.00057637441205 0.00052087794757 0.00060850701993 0.00068893039133 0.0006825797027 0.00098883314058 
0.0013883444481 0.0018260681536 0.0021038635168 0.0022264479194 0.0018917528214 0.00099646521267 -0.00040414283285 -0.0016182721592 -0.0020988222677 
-0.0019642557018 -0.0016154563054 -0.0015295933699 -0.0012606495293 -0.0011999275303 -0.0012455026153 -0.0013104598038 -0.0013113793684 -0.0012715049088 
-0.0011415428016 -0.00060268345987 0.00036824579001 0.001919663744 0.0023744031787 0.0022205091082 0.0016736135585 0.00088044005679 0.00066385895479 
0.00053526833653 0.00022495180019 0.0001489441056 0.00047026423272 0.0012389876647 0.0020564650185 0.0015261268709 0.0011084281141 0.00092157587642 
0.00044095003977 -0.00032065398409 -0.0010141028324 -0.0017455612542 -0.0023494153284 -0.0024667910766 -0.0022047318053 -0.0014893766493 -0.00052336096996 
0.00029646558687 -0.0039058243856 -0.0033447821625 -0.0024528612848 -0.0017006308772 -0.00054835068295 0.00042643991765 0.0009747078293 0.0016539078206 
0.0021235700697 0.0020692476537 0.0015759078087 0.0011467132717 0.0008650625241 0.00063038931694 9.2540270998e-05 -0.00062593119219 -0.0012975847349 
-0.0018465680769 -0.001832762151 -0.0018310742453 -0.0019852097612 -0.0021950379014 -0.0020285304636 -0.0012558256276 -0.00021369438036 0.00076415832154 
0.001034209854 0.0010871853447 0.001199606224 0.001320682466 0.0013472689316 0.0012830564519 0.0010741673177 0.00068846251816 5.1123766752e-05 
-0.00055577635067 -0.00096216559177 -0.0011072894558 -0.0016011539847 -0.0024160896428 -0.0036037252285 -0.0043114149012 -0.00034852555837 -8.2022816059e-05 
0.00035218414268 0.00085969729116 0.0011638392461 0.0013545836555 0.0014638780849 0.0015736471396 0.0018237433396 0.0021110046655 0.0024735936895 
0.0024685787503 0.0022140101064 0.0021274539176 0.0019368355861 0.0013888536487 0.00065029034158 -1.0677873433e-05 -0.00078128179302 -0.0018258852651 
-0.002627127571 -0.0026726131327 -0.0025742598809 -0.0019335605903 -0.0022728482727 -0.0024436204694 -0.0020917649381 -0.0013505407842 -0.00060495000798 
1.1984948287e-05 0.00070876249811 0.0012604001677 0.0015858884435 0.0022638014052 0.0021634348668 0.0018485210603 0.0016939848429 0.0016532265581 
0.0019394273404 0.0023876265623 0.002690204652 0.0025355338585 0.0018157912418 0.00099218264222 2.178270006e-05 -0.00072673131945 -0.0013621067628 
-0.0019384010229 -0.0023891092278 -0.0027739459183 -0.0033022505231 -0.003602866549 -0.0036873412319 -0.0032656826079 -0.0024368998129 -0.0014567147009 
-0.00082780903904 -0.0020686758216 -0.0027670105919 -0.0009744791314 0.00051905633882 0.0016954840394 0.0026943201665 0.0033267696854 0.003556229407 
0.0032967654988 0.0025751169305 0.0019023454515 0.0015111548128 0.0011313109426 0.00051637802972 -0.00031168240821 -0.0011719614267 -0.0018935496919 
-0.002257455606 -0.0023007525597 -0.0022894651629 -0.0023103589192 -0.0019165051635 0.0002683372586 0.0010565654375 0.0015533941332 0.0019613425247 
0.0023781207856 0.0027408578899 0.0029313638806 0.0028513427824 0.002508450998 0.0018505451735 0.00087720120791 -0.00030129530933 -0.0015494434629 
-0.0022761714645 -0.0028115487657 -0.0035873653833 -0.0047252918594 -0.0052855242975 -0.0049401642755 -0.00055751355831 -0.00091967039043 -0.0030762031674 
-0.0029549915344 -0.0031108765397 -0.0029636987019 -0.0024546789937 -0.0019066827372 -0.0011905047577 -0.00038718688302 0.00035681703594 0.001334928791 
0.0019543946255 0.0023287327494 0.0025593072642 0.0029521079268 0.003336120164 0.0035148272291 0.0036209379323 0.0035005477257 0.0031677798834 
0.0025021368638 0.0016766820336 0.00062466261443 -0.0002394439507 -0.0010187904118 -0.0017910564784 -0.0024192661513 -0.0028962544166 -0.0033945781179 
-0.0036494522355 -0.0037007473875 -0.00343554141 -0.0029143912252 -0.0021964760963 -0.0015124514466 -0.00088204164058 -0.00018983984774 0.00055572349811 
0.0013348251814 0.0019597788341 0.0023035472259 0.0025136913173 0.0027280894574 0.0029769691173 0.0031637207139 0.0033476536628 0.003099080408 
0.0026948570739 0.002338352846 0.0018217784818 0.0010962758679 0.00047016827739 -0.00018739442748 -0.0010522984667 -0.0020187182818 -0.0028269812465 
-0.0031991470605 -0.0033952863887 -0.0034203261603 -0.0033028533217 -0.0028059072793 -0.0030500041321 0.0010723094456 0.00062254391378 -0.00033065504977 
3.6956156691e-05 0.00052912731189 0.001127679483 0.0016496506287 0.0021897328552 0.0027747591957 0.0032972157933 0.0036363743711 0.0036354903132 
0.0031838025898 0.0023376194295 0.0012099731248 -0.00017572275829 -0.0013967171544 -0.0033223237842 -0.0039921938442 -0.0045103342272 -0.0041828979738 
-0.0040901214816 -0.00037814199459 0.00086441129679 0.0020394984167 0.0031629358418 0.0040304139256 0.0043887188658 0.0040552704595 0.0032890941948 
0.0025819514412 0.0020449894946 0.0014616014669 0.00077782076551 -3.3277854527e-05 -0.00091994571267 -0.0017287571682 -0.0023200898431 -0.0025531733409 
-0.00239372137 -0.0023186742328 -0.0019434700953 -0.0010865732329 -0.00069184636232 -0.00056032824796 -0.00020085075812 -0.0012774042552 -0.0017172623193 
-0.0026085008867 -0.0018189473776 -0.0026504837442 -0.0022427747026 -0.0018171392148 -0.0013168839505 -0.00074214627966 -0.00023745380167 9.4041351986e-05 
0.00016797376156 0.00057465501595 0.00083466665819 0.0012783537386 0.0019001695327 0.0023958173115 0.0027883227449 0.0032802915666 0.0036383890547 
0.0036775509361 0.0034276021179 0.0031573770102 0.0029173465446 0.0023873255122 0.0017651767703 0.00090599880787 0.00010379859305 -0.00063486886211 
-0.0014195494587 -0.002158236457 -0.0027653649449 -0.0032221365254 -0.0034352974035 -0.0034837850835 -0.0033378845546 -0.0028996430337 -0.0022864528 
-0.0016732942313 -0.0010161396349 -0.00021662208019 0.00075568194734 0.0017018844374 0.0024203434587 0.0027970955707 0.0030847000889 0.0033044817392 
0.0035270189401 0.0035551860929 0.0033512681257 0.0030285518151 0.0026170983911 0.0021834473591 0.0016520858044 0.00017282532644 -0.0003909052466 
-0.0011582439765 -0.0020001190715 -0.0026934111957 -0.0032268282957 -0.0035541735124 -0.0035421960056 -0.0032061049715 -0.0027531825472 -0.0023102820851 
-0.0023238989525 -0.0021013575606 -0.0019565986004 -0.0017595258541 -0.0013859827304 -0.00095108948881 -0.0031954604201 -0.0028299125843 -0.0023652883247 
-0.0018007736653 -0.0018942365423 -0.0018058199203 -0.0016846868675 -0.0016219017562 -0.0015612469288 -0.0013523176312 -0.0010319104185 0.00068050797563 
0.0011361680226 0.00020714003767 0.00066029850859 0.0011982806027 0.0017635368276 0.0023614936508 0.0030521315057 0.0037193307653 0.0041360361502 
0.0041430303827 0.0036998542491 0.0028890811373 0.0017511346377 0.00047594736679 -0.00050534919137 -0.00080763263395 -0.00060777692124 -0.0014940268593 
-0.0022194965277 -0.0028158421628 -0.003171632532 -0.0033240308985 -0.0027327651624 -0.0024895814713 -0.0023763875943 -0.0022347180638 -0.001987978816 
-0.0017616410041 -0.0014417686034 -0.0010321134469 -0.00022741490102 0.00082423101412 0.0019506431418 0.0030477144755 0.0041100992821 0.0048957872204 
0.004769070074 0.0038677137345 0.0031123186927 0.002521595452 0.00079662923235 4.3769679905e-05 -0.0008800267824 -0.0018027344486 -0.002468788065 
-0.0027774681803 -0.0026529503521 -0.0024843018036 -0.0022503756918 -0.0017368848203 -0.0013709648047 -0.0011284423526 -0.00061804568395 -0.00049011182273 
-0.00024322664831 0.0014955976512 0.0019510230049 -0.00015803934366 -8.8150154625e-05 0.00019580763183 0.00051512342179 0.00089179206407 0.0013387593208 
0.001815887983 0.0022765428293 0.0026727649383 0.0029789598193 0.0030068824999 0.0028315561358 0.0026461281814 0.002561168978 0.0026046426501 
0.0022819852456 0.0018012064975 0.0010392999975 0.00027368805604 -0.00040082875057 -0.0010735031683 -0.0017740498297 -0.0023635660764 -0.0027972187381 
-0.003020305885 -0.003044439014 -0.0029210848734 -0.0025347927585 -0.0012897072593 -0.00068483653013 0.00014621150331 0.0011982917786 0.0021137795411 
0.0027118504513 0.0030888116453 0.0034473531414 0.0037598337512 0.0038073693868 0.0035976660438 0.0031628787983 0.0027402248234 0.0023328172974 
0.0019292329671 0.0015659438213 0.0012863520533 0.00099728326313 0.00065486697713 0.00030014797812 -4.8954945669e-05 -0.00064741255483 -0.0013068452245 
-0.0020692422986 -0.002784387907 -0.0033313769381 -0.0017214397667 -0.0017197952839 -0.00046452032984 -0.00032443733653 -0.00016230221081 9.1283072834e-06 
0.00017581222346 0.0004520631046 0.00078502279939 0.0011358099291 0.0015675101895 0.0019565613475 0.0022142853122 0.0023006699048 0.0021962379105 
0.0020794246811 0.0019971330184 0.0020871823654 0.0022017250303 0.0020265362691 0.0018091902602 0.0011087452294 0.0003726813884 -0.00022910338885 
-0.00076026300667 -0.0012893107487 -0.0018047646154 -0.0021923955064 -0.0024223795626 -0.002407748485 -0.0022428121883 -0.0019050214905 -0.0014965820592 
-0.0010501196375 -0.0010374017293 -0.00090462976368 -0.00057422241662 -2.4611719709e-05 0.0007468884578 0.0016143856337 0.002352088457 0.0028417350259 
0.0031836091075 0.003412890248 0.0036364821717 0.0035544764251 0.0033731360454 0.0029687841889 0.0025311238132 0.002124059014 0.0017466348363 
0.0014563304139 0.0013074773597 0.0011566900648 0.00075995334191 0.00028136413312 4.2227984522e-05 -0.00022813417308 -0.00081644527381 -0.0015544065973 
-0.0022521000355 -0.0029683106113 -0.0033341173548 0.00018070808437 0.00065246812301 0.001196462079 0.0017659218283 0.0023707528599 0.0030692704022 
0.0037863503676 0.0043479753658 0.0045309900306 0.0041857222095 0.0034268274903 0.0023817333858 0.0012968342053 0.00045407391735 7.670771447e-05 
0.00019628221344 0.00055691757007 -0.00024672065047 -0.0010084056994 -0.0016081763897 -0.002132684458 -0.002614322817 -0.0027679423802 -0.0022328423802 
-0.0018038909184 -0.001594239031 -0.0015815006336 -0.0015497975983 -0.0014295936562 -0.0012666857801 -0.00094614963746 -0.00027995518758 0.00077106029494 
0.0018801108235 0.0029138284735 0.0039148936048 0.0048258788884 0.0048922258429 0.0040192171 0.0032306867652 0.0026093660854 0.0018983968766 
0.0011604253668 0.0011509828037 0.0010959857609 0.00060144800227 -0.00020046399732 -0.0011619265424 -0.0021074814722 -0.002725149272 -0.0030717414338 
-0.0030116939452 -0.0027645975351 -0.0026878416538 -0.0024389664177 -0.001993842423 -0.0016708195908 -0.0012907850323 -0.0010811560787 -0.00067498738645 
-0.00042781871161 -0.0001710109791 0.00053201976698 0.00092283543199 0.0013189819874 0.0016398226144 0.0017937682569 0.0018265219405 0.0018394633662 
0.0018873667577 0.0018542783801 0.001911540865 0.0018086043419 0.0016797599383 0.0011310378322 0.00046887659119 -4.3935360736e-05 -0.00048421547399 
-0.00092196936021 -0.0013048859546 -0.0016087796539 -0.0018184098881 -0.0018950770609 -0.0018214368029 -0.0017243128968 -0.0014622588642 -0.0011596813565 
-0.00088109268108 -0.00072223355528 -0.00052692840109 -0.00027090645744 7.2697112046e-05 0.00058622501092 0.0012387433089 0.0018871155335 0.0024880822748 
0.002953694202 0.0031039395835 0.0031088341493 0.0031407582574 0.0032472242601 0.0028903677594 0.00246255612 0.0020360697526 0.0016385378549 
0.0021849221084 0.0021009126212 0.0015374876093 0.0014430205338 0.0010363546899 0.00046546416706 -1.1884628293e-05 -0.00026230546064 0.00018766568974 
0.00063119537663 0.0011432988103 0.0016749635106 0.0022494029254 0.0029167584144 0.0036127595231 0.0042833420448 0.004720732104 0.0045851473697 
0.003857553238 0.0029767905362 0.00205015135 0.0013095692266 0.0013643013081 0.0015288308496 0.00075950060273 2.2309330234e-05 -0.00063686433714 
-0.0011533154175 -0.0016134759644 -0.0020532228518 -0.002085795626 -0.0016081610229 -0.0011536895763 -0.00094006961444 -0.0010321424343 -0.001071411767 
-0.0010234430665 -0.0009420933784 -0.00070737168426 -0.00013498027693 0.00088666472584 0.0020249281079 0.0030781025998 0.0037515964359 0.0043402812444 
0.0043645873666 0.0035964453127 0.0028386500198 0.0022627103608 0.0017204184551 0.0011291422416 0.00055051059462 0.00047993435874 0.00040465631173 
0.00030184176285 0.00011591577641 -0.00047754988191 -0.0015219082125 -0.0023783864453 -0.0028530114796 -0.0030275033787 -0.0029662356246 -0.0028123427182 
-0.0027160660829 -0.0024792011827 -0.0022913422436 -0.0021154540591 -0.0019047425594 -0.0015719395597 -0.0011181376176 -0.00045837782091 -0.0029832576402 
-0.0028441958129 -0.0024292794988 -0.0019142880337 -0.0021555840503 -0.0014793679584 -0.0014087093296 -0.0014081748668 -0.0013938921038 -0.00120528962 
-0.0012686825357 -0.001142928144 -0.00085344229592 -0.0006038993015 -0.00033839818207 -6.9130088377e-05 3.5626162571e-05 0.00012419908307 0.00029817374889 
0.00067300297087 0.0011504419381 0.001634779037 0.002141406294 0.0027383237612 0.0033454073127 0.0039802496321 0.0045777969062 0.0046828142367 
0.0040052640252 0.0033366749994 0.0026621213183 0.0021244799718 0.0016110221623 0.0011821471853 0.00073216820601 0.00019639517996 -0.00037670208258 
-0.00090298312716 -0.0012151396368 -0.0015044747852 -0.0015671165893 -0.0012734284392 -0.001004971331 -0.00055294163758 -0.00058171572164 -0.00059193256311 
-0.00047038082266 -0.00022731657373 0.00028866363573 0.0012165567605 0.002234242158 0.0029045885894 0.0037107078824 0.0035396385938 0.0029063031543 
0.0022857175209 0.0018384727882 0.0014838511124 0.0010497651529 0.00058948347578 0.0002457346709 0.0033742452506 -0.00061300978996 -0.0007841832703 
0.0035244957544 0.0031458581798 -0.00087089062436 -0.0015337307705 -0.0021908525378 -0.0027110332157 -0.0026555631775 -0.0023653474636 -0.0023214127868 
-0.0025526692625 0.00063392793527 0.0010782261379 0.0013366373023 0.0014471405884 0.0015585635556 0.0016989294672 0.0018227450782 0.0020189567003 
0.00218825927 0.0024680346251 0.0025131504517 0.0022440559696 0.0021836368833 0.0017809043638 0.0015979541931 0.0011561742285 0.00056181935361 
1.6966501789e-05 -0.00035421451321 -0.00068562355591 -0.0010356456041 -0.001361217699 -0.0016158983344 -0.0017615278484 -0.0017765595112 -0.001686048694 
-0.0016075599706 -0.0013365527848 -0.0010474679293 -0.00060779077467 -0.00040196435293 -0.00013302545995 0.00011517990788 0.00040506513324 0.00088088697521 
0.0014131285716 0.0019142068923 -0.0025923084468 -0.00089393201051 -0.00058264267864 -0.00028410780942 0.00011042594997 -0.00010443929932 -0.00015777947556 
-0.00033589015948 -0.00031630284502 -0.00064869003836 -0.0013858659659 -0.002043500077 -0.0024936676491 -0.0025632299948 0.0024073687382 0.0027926382609 
0.0029792895075 0.0029323885683 0.0028167136479 0.0029641028959 0.003380086273 0.0035401997156 0.003460533917 0.0033572607208 0.0029424738605 
0.002446080558 0.0019738681149 -0.0024777904619 -0.0019057308091 0.0019076047465 0.0018339678645 0.0013779834844 0.00097405351698 -0.00077975314343 
-0.0013685974991 -0.0018811101327 -0.0023227971978 -0.0023784297518 -0.0024095787667 -0.0014416434569 -0.0012408961775 -0.0010828359518 -0.00099182606209 
-0.0010369980009 0.00028069171822 0.00041871078429 0.0021858336404 0.0017649471993 0.0014239825541 0.00096919335192 0.00043858579011 2.1362606276e-05 
-0.00018723840185 -0.00043409655336 -0.00081264233449 -0.0011983049335 -0.0014900288079 -0.0016630626051 -0.0015060701407 -3.5976117942e-05 0.00019769795472 
0.00040058145532 0.00076098926365 0.00079749024007 0.0010435233125 0.0011564764427 0.0013401831966 0.0016327456106 0.0020114651415 0.0023346184753 
0.0024728041608 0.0029170741327 0.00049732840853 0.0031469727401 0.0029006260447 0.0023672471289 0.0018190933624 0.0014728651149 0.0012100997847 
0.00096047075931 0.0006295031053 0.00019179620722 0.0034496679436 0.0033516404219 0.0030169587117 0.0024766644929 -0.00023571275233 -0.00069986475864 
-0.00090177962556 -0.001368000987 -0.001230126014 -0.0011375736212 -0.0010711943032 -0.0012380385306 -0.00094424712006 -0.00053407688392 -0.00029650618671 
-0.00019530554709 -0.00014824385289 2.4958444556e-05 0.0025502713397 0.0029635997489 0.0031384595204 0.0031533066649 0.0037841647863 -0.00079424597789 
0.00085378665244 0.0012672209414 0.0043543507345 0.0037428075448 0.00039787145215 0.0016920841299 0.0022650454193 0.0021175551228 0.0025754785165 
0.00093527149875 0.0030430569313 -0.00042095826939 -0.00047109689331 -0.00069915637141 -0.00072645943146 -0.0010296156397 0.0035752987023 0.0041371383704 
0.003587449668 -0.00076550338417 0.00078683998436 0.0010249632178 -0.00059059186606 -0.0013749769423 -0.0013582976535 -0.0012577484595 -0.0014423426474 
0.0011913316557 0.0014767427929 0.0019116122276 0.002394459676 0.0027315390762 -0.0037237391807 -0.0029259584844 -0.0022072410211 -0.0041493973695 
-0.0030555783305 -0.0019762690645 -0.00053618568927 -0.00023770224652 -0.00059272354702 0.00078591937199 0.0021025743335 -0.00014115947124 0.00023041087843 
0.00034890705138 -0.0003204169916 -0.00049466901692 0.0003308125888 -0.00030713080196 -0.00076297717169 -0.0017262486508 -0.0016508800909 -0.0017191093648 
-0.0015583017375 0.0031908100937 0.0026791680139 0.001576807932 0.0021157187875 -0.0013818759471 -0.0012827676255 -0.0010449041147 -0.0013573908946 
-0.0015065133339 -0.0015539202141 
POINT_DATA 1114
FIELD FieldData 31
Circ_Strain_Pt 1 1114 double
0.94436204061 0.96975952108 0.97891380056 0.95714596977 1.0037972188 0.99714778596 1.0202539095 1.0094951228 1.0085436282 
0.99466477553 0.97752218679 0.96648407351 0.94842050285 0.92938213944 0.92707611325 0.90348036222 0.92786777029 0.9142517484 
0.95758073738 0.95499901292 1.011007433 1.0022081752 1.0615538747 1.0450745892 1.0762835921 1.046708687 1.0544878365 
1.0429204631 1.0524590808 1.0437989688 1.031543028 1.0100358129 1.0293333625 1.0053966311 1.0370791896 1.0170281891 
1.0291150259 1.02402589 1.0228477276 1.0297229423 1.0251416021 1.0290168068 1.0386772169 1.0296435429 1.0463116461 
1.0343094138 1.0485890643 1.0386359055 1.040328383 1.0385701369 1.0125387403 1.0153546822 0.98324640204 0.98709169486 
0.9569209315 0.95110461815 0.93904437679 0.93123665378 0.93331055988 0.93225200175 0.94199604654 0.94243732143 0.9632605445 
0.95539536334 0.97356568118 0.96538081297 0.98231341892 0.97128266759 0.99312097466 0.9813340286 1.0043758072 0.98006596823 
0.99943827205 0.99014500005 1.0209515989 0.99512445004 1.0175782343 0.98064374144 0.99430170757 0.97914508796 0.97226940217 
0.97582701828 0.95739605738 0.95886355205 0.95987565427 0.95933133293 0.95061931724 0.95187861757 0.96384714825 0.95513720819 
0.9830741455 0.97703822656 0.99828624528 1.0010319493 1.0099650448 1.0303187609 1.0147946526 1.0256865652 1.0199856013 
1.0218505534 1.0263464749 1.0238736388 1.0202270916 1.0181724546 1.0109324831 1.0077824656 0.99969891053 0.99798296958 
0.97999861994 0.98351404704 0.96932105941 0.96968224588 0.96786079427 0.96953245913 0.96698732378 0.97119195565 0.96409767923 
0.96352952105 0.96143375082 0.94556702965 0.96577874784 0.95273184697 0.96891314071 0.96423659913 0.97513765184 0.97836679514 
1.002000841 0.99693867198 1.0245810631 1.015739169 1.0445966569 1.0333126809 1.0631517631 1.0401199229 1.0613837889 
1.0465559117 1.0466471917 1.0341492047 1.0108587884 1.0121041 0.98112478479 0.98860368708 0.9601507925 0.97016805391 
0.95758936503 0.95850566301 0.96169512423 0.95110430244 0.97278944466 0.95990299943 0.96481023685 0.96805603233 0.93735605383 
0.96084977244 0.95309610811 0.97237220193 0.97511589708 0.98348838672 0.99172632651 0.99369855814 1.0020438637 1.0027015978 
1.0072588621 1.0087128672 0.99597081232 0.99961612581 0.98280049018 0.98607131272 0.96666551926 0.96858532624 0.95606020423 
0.9562261289 0.94846260786 0.94845310067 0.95662317005 0.96725856392 0.96793803059 0.98179216919 0.98614073624 0.99620626258 
1.0029833365 1.0115556402 1.0187037442 1.027623327 1.0173551099 1.0313135432 1.0120116464 1.02575057 1.0149417937 
1.0262064568 1.0175022761 1.0270414061 1.0190227889 1.0274985879 1.0178387102 1.0221591061 1.0139033153 1.0062963326 
0.99057509599 0.97909200926 0.98625262286 0.97091836198 1.0000136103 0.99906849251 0.96077254985 0.91112518558 0.89080815269 
0.90575642617 0.93952371471 0.98112711389 1.0114558456 1.0201201233 1.0273045761 1.0173411166 1.0005530352 0.98917407015 
0.99314311547 1.010344267 1.0235900493 1.024161305 1.0278245877 1.0310670349 1.0337842275 1.0376255352 1.0216246714 
0.99116785836 0.95687086515 0.93787752434 0.93374429346 0.9381481694 0.94581769288 0.95436468395 0.96639166664 0.96497146446 
0.96817588551 0.97287040334 0.97058686377 0.95044622356 0.96269642712 0.96752065012 0.96714685387 0.95885345361 0.93759304709 
0.93100496417 0.95425755255 0.98378602531 1.0160099351 1.0347274668 1.0319681775 1.0198297055 1.0184374872 1.0003201679 
0.98645880395 0.97918356299 0.97266100801 0.96553180173 0.96326647304 0.95505759216 0.95245595693 0.95132014159 0.96283028123 
0.97933371437 0.99262598891 1.0033898145 1.014682826 1.019903476 1.0382109522 1.0393215558 1.0195253085 0.99929930364 
0.98004106308 0.96723446804 0.95837679285 0.96801949259 0.98589850071 0.98287002777 0.984098137 0.98377716054 0.98758871044 
0.99920875394 1.0078403865 1.0003871754 0.98445859614 0.96795105493 0.95719138479 0.95174002708 0.96749951422 0.98500889903 
0.99213071904 1.0044743226 1.0344540566 1.0424539899 1.0378370569 1.0321099777 1.031772392 1.0360736279 1.0234632151 
1.0044845995 0.9683256235 0.94089975169 1.0328894366 1.0077916383 0.96145234809 0.9924337965 0.92481903523 0.89643643587 
0.89840537166 0.92274961927 0.96072895213 0.99025691209 0.99806615525 1.0083109398 0.99670528386 0.99079769924 0.98526326558 
0.97599425351 0.98630006422 1.001875847 1.009744308 1.0173544595 1.0223498322 1.0262430087 1.0373510212 0.99990526567 
1.026745064 0.96378704702 0.9430133434 0.93902320666 0.93720314423 0.94039152583 0.95122176773 0.96141732875 0.95751816528 
0.95611766769 0.95572318448 0.94747168719 0.94507271325 0.9499757085 0.95317164321 0.95940944805 0.95656186726 0.96620327905 
0.97870251477 1.0441239687 1.0436117393 1.025646887 1.008937728 1.0187634399 1.0045643277 0.99208712566 0.98108605006 
0.9749558632 0.98093807625 0.99730326111 0.9836837466 0.9891107321 0.98533138539 0.98953663293 0.99470444762 0.99904195387 
0.99217773062 0.97637147955 0.95656137355 0.95046006492 0.95605647295 0.97138529012 0.97791480515 0.97603754818 0.99215445291 
1.0132763078 1.033334674 1.045640649 1.0393389535 1.0344683533 1.0268474605 1.0074603737 0.97833466099 0.94202512462 
0.91484800102 0.90905053814 0.92368966861 0.95209039174 0.98299733959 1.0195485968 1.0345673703 1.0301508431 1.0190278704 
1.0026332194 0.99012614844 0.98153922005 0.9777341702 0.97625995984 0.97276385949 0.96406776765 0.94924736109 0.94553590274 
0.95196580982 0.96311276005 0.97914771833 0.9934208003 1.0040387874 1.0042264715 1.0019827047 0.99592804207 0.98644388812 
1.0168731151 0.98283093756 0.99752948275 1.01107281 1.0407725668 1.0390733792 1.013390326 0.98136530728 0.95482852778 
0.94755779189 0.94770539057 0.95418933868 0.95207785827 0.96005129425 0.95723685518 0.95553616417 0.95648623817 0.94749956174 
0.93780933484 0.94079364769 0.94885503798 0.94714031172 0.95208829654 0.95766141344 0.96306557951 0.97350110101 0.95126003939 
0.97863723313 0.92439165339 0.90420689452 0.90482604473 0.92530398049 0.95194088533 0.9737733388 0.98649714137 0.99162099568 
0.98552714742 0.98849208099 0.9757010725 0.96814557109 0.96955699796 0.98156021396 0.99517902589 1.0049258122 1.0063134426 
1.0067541282 1.0258287595 1.0275741562 1.02227521 1.0324268327 1.0211257463 1.0221438626 0.99852954543 0.98774278774 
0.98848375205 0.98278328528 0.95537611449 0.95257996912 1.0069166619 0.99874213814 0.99140055603 0.98716894711 0.99103446403 
0.99974885312 1.0161603649 1.0245044905 1.0319118687 1.0111186711 0.99552463958 0.99218848512 0.98487571476 0.98068326259 
0.98904443977 0.99106252391 0.975008575 0.95589307212 0.9494649129 0.95328418325 0.9623308381 0.97857221208 0.98866129637 
0.99658762402 1.0192372363 1.0461228812 1.052133886 1.049242475 1.0420884367 1.0303343125 1.0110094926 0.97987447954 
0.93859158059 0.90732159238 0.89324591104 0.90825704208 0.93169228554 0.96185339551 0.98898084176 1.0153452967 1.0242905747 
1.0225570944 1.0067662186 0.99095992871 0.97717543108 0.96973150508 0.97035624915 0.97406543333 0.97909420256 0.97493775711 
0.97107246679 0.95787903262 0.94720031583 0.9696313029 0.98181605272 0.98817226555 0.99522647893 0.99807753543 0.99041470617 
0.97337691318 0.96288749527 0.96128669751 0.99013553838 0.95509269216 1.0081199602 1.0138611716 1.0020382351 0.99149152719 
0.99456607876 0.99967444101 0.94315260711 0.95639317103 0.9295746183 0.93869799042 0.96935718705 0.93150248554 0.98819350907 
1.0008409631 1.0017375036 0.99161831574 0.98709884825 0.98701652757 1.0093778259 0.95617958253 0.96939936748 1.0039667167 
0.98322991657 0.96685642971 0.95189242948 0.95668098711 0.96530160886 0.96779482047 0.96556631141 0.9630903495 0.96642415072 
0.97381276179 0.96196179768 0.94987755463 0.95022345482 0.95295315386 0.9624897143 0.96249199719 0.96769363337 0.97232412588 
0.95846424404 0.95798478963 0.96957351387 0.97942492459 0.98414314996 0.98188648213 0.9847491213 0.98626282096 0.98191632576 
0.98065612609 0.9786753748 0.97817663942 0.97295948704 0.95464386721 0.93497828986 0.91845651896 0.91092111637 0.91981569196 
0.93808951645 0.96127073228 0.97677574477 0.98504718118 0.99519246926 0.97741971556 0.99765785982 0.96769744799 0.96860905426 
0.96974854245 0.97921280414 0.98738808919 0.98650230117 0.98689408149 0.98787742681 0.999022441 0.99935701288 0.99841970996 
1.0205399881 1.0030022431 1.0261476899 1.0237570531 1.0108535484 1.0203909395 1.0283891002 1.0243410013 1.0434437289 
1.0517551496 1.0239588892 1.0122312047 0.99847335303 0.978182033 0.97335812649 0.9810677568 0.99211610189 0.9972619323 
0.97820321759 0.95760419956 0.94497031314 0.95002371892 0.97134235749 0.98989826617 0.98901398663 0.98732270375 1.0160345854 
1.0414635472 1.0485300224 1.0504568402 1.0453615499 1.0373751639 1.0232538817 0.99239610089 0.9460376299 0.90220524012 
0.90999702148 0.90038830675 0.92904029996 0.95121715262 0.98125983581 1.0060122897 1.0171853516 1.0135182517 1.0007418026 
0.97846984456 0.96191215607 0.95903131222 0.96623863657 0.97978298534 0.98457418122 0.98632555923 0.97999827782 0.98726865941 
0.9809739001 0.99671496028 0.96116724445 0.95556506729 0.96363608148 0.97516396873 0.9816239906 0.97711270017 0.97617050113 
0.88856713774 0.88587336989 1.0163743694 1.0531331633 1.0620409193 1.0530082928 1.052360396 1.0343973873 1.0102233774 
1.0005465342 0.98729609068 0.97674514449 0.96953426134 0.99221403764 1.0087271399 1.0015354139 0.98457763173 0.96307612516 
0.96622826064 0.98150760697 0.98244403549 0.98698761753 0.99550769577 1.0059636474 1.021816198 1.0372992117 1.0471931981 
1.0528694281 1.0474847432 1.0347229484 1.0048410142 0.97312985207 0.91964460588 0.9046895219 0.90274532824 0.90494558719 
0.90289246649 0.90575796696 0.91799589577 0.93608666506 0.95767987852 0.97939046091 1.0003600009 1.0064410733 1.0082757805 
1.0014351692 0.97645121722 0.95887432175 0.94804624264 0.9563418463 0.96870197182 0.98422513452 0.99402303339 1.00239766 
1.0026761701 1.0039794297 0.98962182183 0.97346738911 0.9630538428 0.96825237076 0.97650414092 0.9790302754 0.9638603215 
1.0094491276 0.98242543447 0.96182851068 0.95802796856 0.96431107207 0.97073048838 0.97185501341 0.97170098903 0.97488690061 
0.98067743826 0.97836759385 0.97009246053 0.96284704852 0.95889437241 0.95732620239 0.96455096828 0.96935600524 0.97224796003 
0.971731907 0.97430899677 0.98033993675 0.98098330756 0.98061304595 0.99307430587 1.0007282156 1.0015977383 0.99436469468 
0.98599693286 0.97938998497 0.97906956306 0.98101854482 0.97815085711 0.97007884871 0.95530232176 0.94072197727 0.92900553199 
0.92651339469 0.93780324733 0.95616618898 0.97045006674 0.98284239967 0.99562358564 1.023584945 1.046180143 1.0563502584 
1.0355208106 1.0126569197 0.9953760085 0.97903691223 0.96764993751 0.96720057022 0.96620473134 0.96429961772 0.96205546459 
0.96311978849 0.96443801394 0.9616258672 0.97599084048 0.98164143406 0.98794383375 1.0089094773 0.99621229471 1.017589209 
1.0229291366 1.0180645616 1.020302923 0.9806969095 0.98280318541 0.98848670366 1.0054701707 1.0211554891 1.0040590004 
0.98632519643 0.97593289908 0.96898372945 0.99212780767 0.98822149435 0.99104672048 0.99421367705 1.0022042303 1.014253435 
1.0385707531 1.0557627514 1.056526769 1.0502368399 1.0298672427 0.99942199246 0.95798951849 0.93101764417 0.93585617008 
0.92410244793 0.92686344554 0.94617112497 0.91488877002 0.92027604888 0.92997182497 0.94196081908 0.95762083043 0.97101283693 
0.98386634887 0.99568039964 0.99840378572 1.0017039334 0.99668727415 0.98667279057 0.94992054269 0.95331546001 0.96114826387 
0.9796509094 0.99693594069 0.98145925974 0.9730661866 0.98683269955 1.006761038 0.9905560058 1.0116966772 1.0032911538 
0.98402263963 0.99986109606 0.98093411765 0.96905738782 0.95954991676 0.96128915587 0.96512650487 0.97131608723 0.97955029841 
0.98933415029 0.98961263366 0.98490242453 0.97627296367 0.96818784851 0.96522408465 0.97662117 0.96974199827 0.97799245214 
0.97439723624 0.97635216842 0.98068091001 0.98407707825 0.98441877093 0.98810348181 0.99755804442 1.0104235315 1.0191566476 
1.0070374467 0.99678785201 0.98958850373 0.98696769651 0.98849162806 0.9880851884 0.98520499014 0.97784446595 0.96490229953 
0.94036870797 0.94050086424 0.94630744823 0.9565115646 0.97069605278 0.98310346667 1.0014245463 1.0303543317 1.0480800381 
1.063919613 1.0723335524 1.0549973829 1.0306133087 1.010831374 0.99572342536 0.98350066405 0.98050869735 0.9762121578 
0.9642640218 0.93730330017 0.94222181943 0.94756569025 0.94202324358 0.949046304 0.95022640227 0.96215654187 0.97443856787 
0.98669161667 1.0061370578 0.99869640219 1.0131226035 0.94131624415 0.92790444143 0.91844329947 0.92858172706 0.95369521518 
0.97229355824 0.98437318173 0.99107331693 0.98992845871 0.98522380208 0.99565263116 1.0081472433 1.0219227741 1.0608436535 
1.0717069892 1.07119232 1.0703886768 1.031989321 0.99618517892 1.0075321968 0.97363152554 0.95876603663 0.96017444684 
0.96297886586 0.97229507571 0.98078103722 0.98587056305 0.98683921708 0.99253690681 0.98362922973 0.98034205734 0.95638299683 
0.96497733 0.97352614517 0.96485290496 0.96606803215 0.97253238511 0.97775823006 0.98266102203 0.98470677839 0.99352140954 
1.0069172049 1.0178022298 1.0222601219 1.0098690838 1.026729882 0.99403560176 0.9869153087 0.98697434378 0.99579695943 
0.99883953232 0.98970160986 0.97799578927 0.96188223399 0.95969262045 0.95411391549 0.97065036325 0.97662903198 0.9868319302 
0.99641003375 1.0110652701 1.0422579298 1.0668148683 1.0333430812 1.0375879596 0.96462143153 0.97568208799 0.98210671091 
0.97702749885 0.96850908782 0.95445768531 0.93900887486 0.92484024635 0.92571488581 1.0220281823 1.0018958237 0.98256401047 
1.0018860832 1.0198319816 1.0182599341 1.0102136362 0.98997676435 0.97424620959 0.9798811415 0.98825200738 0.99322757094 
0.99554425275 0.99618053425 0.9952039984 0.99276031934 0.99874951224 1.0186017647 1.038434058 1.05324322 1.0556920753 
1.047800652 1.0320808736 0.99882651673 0.96691271521 0.94522052833 0.9471819862 0.96008907518 0.94948065052 0.95847698924 
0.94108529914 0.93038847576 0.93277137804 0.94055009 1.0060406159 1.0386427848 1.0551738941 1.0486087142 1.0377278156 
1.0256519716 0.99298501626 0.99772150025 0.99744003328 0.97588995932 0.96219039514 0.98741039642 0.98806200897 0.99280946785 
0.99320525888 0.99010076394 0.98326294278 0.96587260599 0.98187873925 0.96429249837 0.95833285475 0.95520889823 0.96035777248 
0.968592645 0.9635034714 0.97777764998 0.96676991421 1.0017881532 1.0133767157 0.99566813329 0.99801291245 1.0042314893 
1.0275448343 0.99521918996 1.0003720083 0.99804110983 0.99352784078 0.98782503652 0.99325470985 1.0128578013 1.0340662103 
1.0455024848 1.0484910813 1.0306569304 1.0156100449 0.96374983945 0.94745810828 0.9572679097 0.96109651765 0.94885402275 
0.99601171052 0.99565873338 1.001578382 1.0107305504 1.0074626044 0.99295129094 0.98162191211 0.97668094988 0.98279907836 
0.98955666019 0.99539176557 0.99145105499 0.99405927068 1.0145773223 1.0386907336 0.96481784733 0.96281770878 0.95965970793 
0.96985288226 0.9754835971 0.97038786615 1.0040109204 0.99330183285 1.019339817 1.0269486264 1.0371543213 0.97647355518 
0.95933376433 0.95706231883 0.9659409525 1.0143127582 0.9702486067 1.0101950713 0.98923596253 1.0260159648 0.9872584531 
0.99563606413 1.0042248925 1.0187568728 1.0150324036 0.96485702224 0.98859015684 0.98321017407 
Circumferential 3 1114 double
0.79358564266 -0.098704155666 -0.60039929832 0.68525854698 -0.10456992218 -0.7173956823 0.64441752524 -0.10376320717 -0.74991944892 
0.79095036529 -0.042612288592 -0.60736057163 0.45373711772 -0.13330052976 -0.86369045155 0.45738539554 -0.15936607994 -0.8625158899 
0.20679685355 -0.1547474061 -0.9555842885 0.21477221696 -0.22703515801 -0.94305348754 -6.5806296421e-05 -0.15092806195 -0.98372081087 
0.0047503129604 -0.25278999135 -0.96565152139 -0.15054955479 -0.126857535 -0.9794528459 -0.10430076932 -0.22750475351 -0.96736814031 
-0.24344611856 -0.110691781 -0.963484949 -0.21479123163 -0.16982378841 -0.95994482865 -0.3469497324 -0.13648253549 -0.92558559048 
-0.31225018302 -0.14752564286 -0.9377772803 -0.41282112405 -0.12852259355 -0.90105265456 -0.40352443847 -0.13360475328 -0.90309573466 
-0.49101108567 -0.10001326185 -0.8617664647 -0.51114398177 -0.11532568841 -0.85012176181 -0.60563701766 -0.067688275804 -0.79023984287 
-0.62652854781 -0.10713874094 -0.76890322389 -0.71969176811 -0.042783790605 -0.68610435937 -0.76010534567 -0.08718608106 -0.64118590747 
-0.86293086955 -0.039591131241 -0.49892790242 -0.8731284791 -0.064270897985 -0.4799873271 -0.93783703088 -0.00012524002745 -0.33895000727 
-0.94512177884 -0.04768283846 -0.31824471409 -0.98249520049 0.026355956815 -0.16546781308 -0.98863698513 -0.024543020086 -0.13898958337 
-0.99674760255 0.060460043468 -0.032463121234 -0.99838038695 0.030015494566 0.0017821385036 -0.99516737608 0.07370370481 0.049628229006 
-0.98899869291 0.10179991693 0.086626228438 -0.97442453813 0.077694405187 0.18889142064 -0.95886468052 0.13158154182 0.2373493415 
-0.95769592064 0.089507849031 0.27346618045 -0.91727204599 0.15930587145 0.36087844658 -0.95038546498 0.054504207529 0.29917490345 
-0.88996757666 0.19553218229 0.40608278672 -0.92711942679 -0.023624151049 0.36508222238 -0.86390908336 0.19616977619 0.45912603731 
-0.79900233201 0.0099293851687 0.58937629224 -0.77757882507 0.18096399361 0.5935085977 -0.67223957432 0.031516663876 0.73142685869 
-0.6635728242 0.19016844352 0.71501227563 -0.51242198099 0.046586266775 0.84658956957 -0.49525915448 0.17906576239 0.83736205414 
-0.31519746894 0.061885800759 0.94025159734 -0.26865774109 0.13514268073 0.94589201778 -0.097774170297 0.087238529845 0.99019705668 
0.019103247276 0.076093329335 0.9933932468 0.16326945097 0.10916842994 0.97179120239 0.24516502926 0.079950768514 0.96245653532 
0.33873375492 0.13204745963 0.92661374237 0.3969576925 0.099509697586 0.90899038672 0.45602860457 0.14569332061 0.87573830426 
0.50526957428 0.11205182982 0.85390807584 0.53950926485 0.14800138751 0.82774932071 0.57645172506 0.12597741688 0.80625230249 
0.60915867323 0.14344517777 0.77957687244 0.64208436045 0.13891648888 0.75363233746 0.69413249976 0.14099675933 0.7036495905 
0.72736292752 0.12541133478 0.6717185832 0.79013412534 0.12655718638 0.59124853818 0.81681833299 0.10600002292 0.56068218332 
0.87409995314 0.10133491917 0.46600230745 0.89078405273 0.086904233828 0.44229737596 0.93441817727 0.072210967236 0.34635521994 
0.93977047485 0.060787203589 0.33371610384 0.96397032432 0.059285638462 0.25862747708 0.97009492172 0.039317604438 0.23731751415 
0.98443780026 0.039322391048 0.16607638125 0.99173085719 0.025589128795 0.11528991762 0.99586607048 0.022009629519 0.072045751114 
0.9986893115 0.010605535239 0.032678432351 0.99787455998 -0.011468489329 -0.024615221937 0.99639255649 -0.0024169615165 -0.0577558512 
0.98685437628 -0.038961677849 -0.13834487754 0.98330168197 -0.023018664243 -0.17223509417 0.95640182002 -0.046121380879 -0.27467967659 
0.95034313002 -0.028488093503 -0.28515201107 0.89722752021 -0.052193643657 -0.42872731941 0.8826162885 -0.032014455215 -0.4590246765 
0.97207656075 -0.061768886805 -0.22638852592 0.98708426783 -0.018908468057 -0.06351440386 0.99281049416 -0.029452190456 -0.02931437051 
0.98510561643 -0.065802089947 -0.15475395977 0.99728984241 0.0069794301153 0.067669749432 0.99600254483 0.001647023419 0.081229429538 
0.99353432269 -0.016476366538 0.10672261671 0.9907090983 -0.0088754464001 0.129932408 0.98685045755 -0.023679032121 0.15426477217 
0.98316545307 -0.0035370041466 0.17815067259 0.97758950948 -0.016578171109 0.20927790407 0.9728536315 0.019596476388 0.23018155417 
0.95317758275 0.0052763626568 0.29394186334 0.95049648842 0.030009409466 0.30366313301 0.91943381676 0.02778529066 0.38520746707 
0.92152067952 0.040342404879 0.38142406035 0.87201413981 0.050074153286 0.48451738188 0.88146926593 0.048360671699 0.46825123856 
0.77947913581 0.081059160597 0.60938951564 0.82537852424 0.081483973856 0.55190559876 0.69982602153 0.11051585747 0.7042721385 
0.7734423772 0.11761859374 0.62155459789 0.6508097456 0.13554261466 0.74672991888 0.73342855573 0.13508220619 0.66428177104 
0.62520568252 0.1510242836 0.7653913254 0.65926278352 0.16998918083 0.72865086125 0.55302362448 0.18372837493 0.80660278095 
0.55710111092 0.19056556634 0.80372453898 0.43693357144 0.22893187916 0.8693223228 0.42896564048 0.17901972112 0.883844649 
0.34724626487 0.21421774218 0.91085469419 0.32872331397 0.18795711986 0.92324436582 0.25328595176 0.21048756438 0.94141861948 
0.2531023617 0.20956686773 0.94234396148 0.13730232061 0.20558909692 0.96348887942 0.15986223194 0.21897235527 0.96198771012 
-0.07876393759 0.16282014773 0.97403196491 -0.06019411355 0.17869830691 0.96896040093 -0.26229749775 0.14742526994 0.94448391015 
-0.27016236194 0.14523198936 0.94166120761 -0.41920563664 0.14605704071 0.89466885307 -0.44919856977 0.12493328824 0.88344005851 
-0.51576127488 0.14849643867 0.8408247402 -0.5533629514 0.12480368618 0.81871098344 -0.58321527101 0.1526979679 0.79635382583 
-0.6236009047 0.13715093962 0.76877560982 -0.63276728134 0.15651624118 0.75805517945 -0.65237190746 0.16113342592 0.73986662324 
-0.66950058545 0.15218695644 0.7263564183 -0.66733266542 0.16841107988 0.72517574638 -0.72955678263 0.13432133226 0.66499827173 
-0.72211230496 0.15479752461 0.67102706897 -0.80365942189 0.10862962183 0.58391058033 -0.78081915268 0.13756244408 0.60905429535 
-0.87976035167 0.090423517387 0.45081922588 -0.83980007574 0.1180101503 0.52223547885 -0.93266413011 0.071116801293 0.35122079821 
-0.89422272523 0.096143128794 0.43300119561 -0.95200433137 0.050217628287 0.30008273607 -0.93279372687 0.082758476314 0.34480585957 
-0.96764730852 0.040501597169 0.24431274915 -0.95883764352 0.064009661881 0.270140799 -0.98170619703 0.030999036026 0.18316285507 
-0.97836953184 0.040615984086 0.19947019556 -0.99284009541 0.0019475505445 0.097287923288 -0.99171449618 0.022019717564 0.096286789107 
-0.99818920995 0.010235960507 0.028739016016 -0.98625522983 -0.032260745862 -0.054815548979 -0.99763178635 0.05665017129 -0.022119200067 
-0.93199320476 -0.1407105802 -0.31711089313 -0.90285022422 -0.071086968155 -0.2929069896 -0.85441807801 -0.18143395967 -0.46832173073 
-0.80740272444 -0.19999733934 -0.55475548801 -0.78757138883 -0.20038543773 -0.58220801031 -0.78874273437 -0.18669668797 -0.58504686483 
-0.76387531623 -0.18637440973 -0.61714190518 -0.77380661521 -0.17057058183 -0.60962435085 -0.74798577108 -0.17258384812 -0.64062845005 
-0.7616435254 -0.15226798022 -0.6298025379 -0.73636588813 -0.16059878603 -0.65697992411 -0.68481405074 -0.16113756218 -0.70559778573 
-0.6770840375 -0.15720056586 -0.71583456926 -0.59753695994 -0.16490880879 -0.77965841013 -0.59969049596 -0.15661761142 -0.78067135259 
-0.49380448623 -0.16064998816 -0.85098693828 -0.51086823537 -0.15040449594 -0.84386651224 -0.42647546561 -0.16086425378 -0.88875851364 
-0.4585070571 -0.14760588785 -0.87558926416 -0.37370331997 -0.16181766858 -0.91319325482 -0.42597415965 -0.14294487352 -0.89293358862 
-0.32816732256 -0.14434536341 -0.93246292831 -0.37826306908 -0.12614856066 -0.91562679272 -0.24276018982 -0.13162209414 -0.95386748928 
-0.30107755925 -0.11170249334 -0.94224719732 -0.070288938991 -0.12926899914 -0.97993387124 -0.11920503096 -0.12189903162 -0.9751780937 
0.090564500349 -0.11880923095 -0.98089231042 0.063838234645 -0.13162278808 -0.98209578008 0.24183234326 -0.101660828 -0.96113474754 
0.21903333342 -0.13086244227 -0.9634849408 0.3813789641 -0.13059762806 -0.90480607612 0.35725196777 -0.12607809624 -0.91822170408 
0.51503659262 -0.16831169109 -0.84019121774 0.49519216343 -0.1181937279 -0.86003496012 0.58012160035 -0.13627820702 -0.79974444451 
0.57339989501 -0.12649021564 -0.80594436553 0.64625750838 -0.11058563676 -0.75266891867 0.64017378406 -0.12412354972 -0.75606080262 
0.71534989066 -0.10273181687 -0.68694487203 0.71473221191 -0.10981885936 -0.68612164196 0.78120688385 -0.09864404481 -0.6104757585 
0.79012358622 -0.10305205889 -0.59738655982 0.84377259326 -0.098387382964 -0.52307594591 0.86307489705 -0.10024001403 -0.48883893598 
0.90767125002 -0.082961121193 -0.38446493679 0.93068196122 -0.084448287597 -0.31977949667 0.52367310231 -0.088920192005 -0.83916906096 
0.70587217872 -0.0059539657399 -0.70337857912 0.24262986472 -0.20951423571 -0.94076055806 0.011586628613 -0.22945131786 -0.97112500323 
-0.10680664528 -0.1763744129 -0.97782312028 -0.23111417951 -0.1703021211 -0.95686771905 -0.35100919597 -0.15627511924 -0.92230285483 
-0.42205873637 -0.12532750513 -0.89653212263 -0.51039679091 -0.10447617154 -0.85142485645 -0.62150642197 -0.08583512551 -0.77433441343 
-0.74624622158 -0.087686555552 -0.65529345243 -0.85708767075 -0.080304279588 -0.50427656423 -0.93556624853 -0.065163037187 -0.34010683013 
-0.98064921978 -0.032789441713 -0.17977130515 -0.99764823732 0.017473786147 -0.024893937509 -0.99073497013 0.08800595393 0.087683579384 
-0.9603458995 0.12004756909 0.24487548246 -0.90765923477 0.13248420461 0.39612121635 -0.85820993584 0.17522096 0.48225298662 
-0.785506676 0.18985945908 0.5856452413 -0.7033487639 0.19720468039 0.67943174099 -0.61502283551 0.18818954857 0.76065697576 
-0.45326743867 0.14168584468 0.87269077709 -0.15497331375 0.044182930916 0.97784629652 0.14236273943 0.031185111112 0.98697967141 
0.30908602644 0.047158724461 0.94870276812 0.42505689311 0.073212527354 0.89976038016 0.51277651283 0.095510211328 0.85070589689 
0.58700553571 0.11552426972 0.79971300471 0.64631322136 0.12823131955 0.7514872816 0.71653512668 0.11848713243 0.68633428442 
0.80517150617 0.10320356798 0.5788439543 0.88108551202 0.078012948926 0.46115793268 0.93248309018 0.055634595023 0.3547663219 
0.96823168969 0.032173920778 0.24397732871 0.99196123951 0.013147119754 0.11171494635 0.99930150797 0.0072026501286 0.021647715843 
0.99603335342 0.02603172655 -0.066680260457 0.98224605998 0.036589585577 -0.18013125338 0.95586000121 0.13266611355 -0.24835108414 
0.89366570797 0.1505504293 -0.39793295173 0.81256968984 0.062122831004 -0.57721981427 0.99351443696 -0.060723578386 0.074550976577 
0.99230886346 -0.081762559749 -0.037142534068 0.98566308886 -0.040829371945 0.15867401595 0.97391742393 -0.025809302756 0.22113556663 
0.96453374573 -0.0035106893791 0.26344959712 0.95229722117 0.0081589461618 0.30438022547 0.93368615086 0.022075178654 0.35431495923 
0.9116185695 0.043779333837 0.40831895933 0.88333377121 0.072854459782 0.45978139118 0.85618753836 0.10615464317 0.49867444571 
0.81099663855 0.15460670489 0.56127102228 0.72555804856 0.181397015 0.65237016161 0.59174921981 0.19444259166 0.77708588044 
0.42136236638 0.17385432125 0.88332728042 0.30854818828 0.17745004739 0.93298298359 0.2362335691 0.20088056958 0.94968025609 
0.13600723619 0.21585744935 0.96488666658 -0.035421623349 0.18727263369 0.97728841699 -0.23854729296 0.1539343586 0.9494548712 
-0.42014210211 0.11380712543 0.89655964705 -0.54392294252 0.093574080194 0.82890171854 -0.64965256595 0.089545956389 0.75216450906 
-0.69884572165 0.12168581921 0.70286968479 -0.69634899442 0.15106937489 0.70148066888 -0.72745029234 0.16490370556 0.66581110077 
-0.70311471662 0.16860578989 0.68961372843 -0.76945403815 0.16006604647 0.61425691583 -0.81848398421 0.15511475931 0.55077837496 
-0.86977653416 0.14095793232 0.46224671294 -0.9303412459 0.12238294809 0.33385332404 -0.9706788442 0.083292612604 0.2194664265 
-0.98920166674 0.034913259331 0.093092732613 -0.97819602895 -0.070790699648 -0.11530867619 -0.94066274514 -0.13885496439 -0.2921471744 
-0.85650719866 -0.21251289887 -0.45929734885 -0.80219087673 -0.21896533137 -0.55282188687 -0.75988463771 -0.2123467973 -0.61285614654 
-0.73746545478 -0.2007354819 -0.64328311514 -0.71751228077 -0.16178113266 -0.67701713544 -0.68163494269 -0.14420502031 -0.71604570903 
-0.60909094322 -0.15005775816 -0.77502212949 -0.51733504738 -0.15976897378 -0.83827012479 -0.45593383732 -0.15131625674 -0.87495844843 
-0.41631139515 -0.1366638917 -0.89874176236 -0.40128736869 -0.10766322275 -0.90895020664 -0.35701098685 -0.10531122798 -0.92197962894 
-0.30614071262 -0.05104061536 -0.94202949684 -0.17179652343 -0.028594512109 -0.94005721595 0.20694810599 -0.12130992784 -0.95564836047 
0.35662111622 -0.12594437181 -0.92211478266 0.45555919698 -0.11193757497 -0.88142318592 0.5434498972 -0.11035662057 -0.82938840116 
0.61707289638 -0.10813939112 -0.7766507667 0.68738501608 -0.11246461998 -0.71528942639 0.77107855798 -0.10791146078 -0.61794891899 
0.85311185204 -0.10076409812 -0.50876668363 0.92311426412 -0.10576057436 -0.3488828569 0.97385524434 -0.09618865026 -0.18960043843 
-0.69322321492 0.16662925759 0.70076655091 -0.68569059733 0.1547561514 0.71112512301 -0.18054192931 -0.13734133676 -0.97187799444 
-0.094341824327 -0.17931379135 -0.97801034464 -0.2879137092 -0.11868469599 -0.94787035886 -0.39184656742 -0.11462173878 -0.91232703696 
-0.45300394365 -0.11064759841 -0.88303889366 -0.51149101724 -0.11129634482 -0.85065084647 -0.59844233915 -0.095788618874 -0.79393044808 
-0.71962398915 -0.094423848945 -0.68467167961 -0.82899922226 -0.082614981932 -0.54716958069 -0.91595495352 -0.067624762007 -0.39000330304 
-0.96537494312 -0.015681280776 -0.24878383594 -0.99407743864 0.031907344489 -0.070626898815 -0.99194877323 0.089680778189 0.066552221863 
-0.97111690872 0.13172559625 0.19072669662 -0.93034697587 0.12880432882 0.34216173985 -0.87930560641 0.14200783855 0.45139568048 
-0.81312488717 0.14948845425 0.55637077717 -0.7270721533 0.1526732804 0.66530353696 -0.64327596066 0.15060984041 0.7488972229 
-0.49187624057 0.10575890567 0.85838803069 -0.29092224154 0.060893754042 0.94190308784 0.31914764982 0.023174092584 0.94572842062 
0.19813526688 0.013920407331 0.97602813739 0.4293868239 0.037754374573 0.90130047145 0.5310010916 0.045636382624 0.84422433442 
0.61863589644 0.070506297294 0.78118749859 0.67166204916 0.093794332604 0.73438386711 0.7415409069 0.10381195287 0.66023243128 
0.81532709649 0.096527952333 0.56585586392 0.87912734784 0.073996747067 0.46810056494 0.92184301216 0.060121256217 0.38105190299 
0.95576006642 0.0642414272 0.28421444286 0.98324824138 0.036568630219 0.1721216168 0.99366732194 0.06803831423 0.053408707973 
0.98055578368 0.16013315395 -0.077916512804 0.92509612809 0.21310161519 -0.27379427733 0.89830557661 0.26528022949 -0.32020392622 
0.81591347462 0.19162788385 -0.52601717867 0.74236112325 0.02037299902 -0.66561418294 0.63718096792 -0.048618541511 -0.76110654792 
0.51643132758 -0.092042631063 -0.84213383678 0.080842846904 -0.00286380407 0.99164069931 -0.14971367642 0.033128321963 0.98399842993 
-0.70128044853 0.15821601771 0.69458981851 -0.67523397199 0.14253264856 0.72352181925 -0.70822151129 0.15746453407 0.68769503435 
-0.74613806087 0.1611253601 0.64356656311 -0.7953569103 0.17474916177 0.57394119178 -0.86035051046 0.16870052941 0.46587112754 
-0.93206553078 0.13307136389 0.31695592719 -0.97515154176 0.074872743692 0.17259342492 -0.99593629147 -0.0043338073372 0.028174619562 
-0.86704759147 -0.2139826751 -0.44523839757 -0.93022235322 -0.13990733142 -0.31602665554 -0.80821061128 -0.22633269511 -0.53803082614 
-0.75633029469 -0.23372058254 -0.61057310361 -0.7039441265 -0.20949343409 -0.67450989909 -0.66561145232 -0.176919211 -0.72414655084 
-0.63855418649 -0.1539920252 -0.7524117546 -0.55457461868 -0.15624086479 -0.80966932994 -0.4342700492 -0.1712851036 -0.88083163731 
-0.36991105733 -0.16824765901 -0.91210319259 -0.38584029657 -0.15675932019 -0.9084645312 -0.40967791651 -0.15855362612 -0.89826427644 
-0.41932461568 -0.12713206538 -0.897263598 -0.42977517788 -0.067526465083 -0.89886895032 -0.16328369651 -0.076704795354 -0.93509076127 
0.18409899242 -0.11373886149 -0.97400549179 0.31464835013 -0.11102730587 -0.93640360883 0.43678897551 -0.10898243963 -0.89139688207 
0.52542217556 -0.10351852375 -0.8432914402 0.61249814372 -0.10517162358 -0.78005786515 0.70034233511 -0.11394980762 -0.70099785486 
0.7843222254 -0.12550336123 -0.60039950773 0.86243886355 -0.137733613 -0.4826856864 0.92310753475 -0.1303300625 -0.3396505223 
0.9742523986 -0.1193017607 -0.16535382517 0.99065215491 -0.11196398184 -0.016960222406 0.98835195393 -0.082361583701 0.10229794757 
0.97622232739 -0.053932526447 0.20248286674 0.96309556909 -0.040366176754 0.26368696169 0.95434773312 -0.0067777722042 0.29829484446 
0.94918702888 0.0061414330924 0.31423773881 0.9394678963 0.024446460935 0.34069178153 0.92745876905 0.053017035751 0.36943343406 
0.91951493174 0.096668599153 0.37894147545 0.89746600676 0.14030059455 0.41199331409 0.85841867465 0.20176697336 0.46850054886 
0.77671419638 0.21654525148 0.57917959058 0.66835603872 0.21601930564 0.70457476815 0.50042824345 0.19456938219 0.83529712298 
0.34720238826 0.17496851162 0.91592558699 0.22320860079 0.17856316159 0.95730116485 0.13080682547 0.19952958225 0.97038806785 
-0.058471198069 0.17548119359 0.97384281005 -0.2401009555 0.14315906437 0.95365208801 -0.39371232216 0.10465403793 0.90974069734 
-0.54289324419 0.083224598178 0.82598728588 -0.67025003433 0.068547107766 0.73793135837 -0.71256038856 0.08390022648 0.69391480445 
-0.74755046062 0.10844931865 0.65510701037 -0.70647321996 0.13972534276 0.69318070448 -0.68039382922 0.1233893416 0.72174677173 
-0.64313812611 0.10490284068 0.75832888646 -0.6470389324 0.098456695713 0.75528426294 -0.96835379294 -0.094854412995 -0.19918683158 
-0.99260221009 -0.049681467026 -0.060629610572 0.064856818885 -0.0020558530257 0.99662168622 -0.046680383295 0.027698797604 0.99590321075 
0.19158373323 -0.0088025977438 0.97967338233 0.31513940638 -0.037304570126 0.94591759142 0.41957464305 -0.03116062767 0.90623263625 
0.51996874606 -0.0103681642 0.84959285039 0.60843881222 0.013925136288 0.78930956023 0.6817731231 0.039601437724 0.72881667365 
0.73374716969 0.064383982079 0.67371338928 0.80966044818 0.069660951653 0.57904607143 0.86612530848 0.059097030533 0.49284991023 
0.91061504398 0.052555517853 0.40927124578 0.94633566707 0.051494368355 0.31287003119 0.9692834744 0.075918127613 0.22547976142 
0.97848895098 0.12963639558 0.14099991382 0.97248407856 0.21532562061 0.072404703675 0.84888231988 0.31819772395 -0.41592104173 
0.88538802024 0.31492740778 -0.32696069178 0.81080213777 0.19329934111 -0.5283637759 0.71638826748 -0.01259235156 -0.68862702585 
0.5869007419 -0.10980452706 -0.79984288849 0.47071467669 -0.14768844319 -0.86693330972 -0.28441457864 -0.1291568441 -0.94841566275 
-0.22093377499 -0.16008340233 -0.96139786932 -0.35403881525 -0.11223182719 -0.9273713134 -0.42649545434 -0.10928228398 -0.89739569329 
-0.50357981792 -0.11914607855 -0.85469027588 -0.54511356222 -0.1109325107 -0.83066219692 -0.5931809965 -0.09774755461 -0.79758363623 
-0.66428130715 -0.086468681983 -0.73812599343 -0.77981505515 -0.060870919173 -0.61968633773 -0.88661021059 -0.042184975975 -0.45885433703 
-0.95413001467 0.0093388742821 -0.28875556361 -0.99528108369 0.027283807007 -0.060251710071 -0.9943870318 0.056317571586 0.071513519108 
-0.97562643969 0.08054665112 0.20020128249 -0.94768124303 0.090417273404 0.30339456938 -0.91077360618 0.097852829039 0.39626550432 
-0.86038978675 0.10301008771 0.49384301227 -0.79124470674 0.10257111616 0.59772893435 -0.70175840829 0.10049390251 0.70158897842 
-0.58926066213 0.066448757926 0.79662550429 -0.3929192369 0.024681646395 0.91275588437 -0.32160368539 0.067445962593 0.93657661216 
-0.30303768274 0.11055024742 0.94158877668 -0.066648997363 0.088521230957 0.99214563143 -0.22000026231 0.10823812614 0.95903743401 
0.077544869526 0.029868222604 0.99342501939 -0.069694375312 -0.24226923315 -0.96594786476 -0.14726484521 -0.23465241876 -0.95546962436 
-0.019053424868 -0.27782384482 -0.95672591567 -0.085229716374 -0.26709279025 -0.95613221574 0.94742134939 0.27738054497 -0.14358009614 
0.94742216352 0.2977466214 0.014885718748 -0.68295129882 0.10839404928 0.72222820796 -0.75757096702 0.11971596038 0.63298715102 
-0.83722318836 0.11795768933 0.52242536494 -0.91574781499 0.08670917389 0.37224969119 -0.96640274935 0.040986176702 0.22544207454 
-0.98621400164 -0.0038642222031 0.12399171921 -0.99718227719 -0.053197982684 0.033320796729 -0.98525442516 -0.073769736833 -0.12453860902 
-0.99132112091 -0.084792130914 -0.057132552731 -0.96167214903 -0.1020390572 -0.24198451215 -0.90687428878 -0.15649104331 -0.37926619499 
-0.8450485202 -0.20236419875 -0.49198631682 -0.77423561024 -0.22375392952 -0.58365192136 -0.70320506437 -0.23700313015 -0.66946537803 
-0.65989492516 -0.22128923485 -0.71595009908 -0.62044124574 -0.19249390387 -0.75719403144 -0.52734840884 -0.19309103765 -0.82208543466 
-0.3992110536 -0.20094631989 -0.88587708574 -0.28383297811 -0.1792090277 -0.93882065247 -0.29280729627 -0.16709717223 -0.94076816534 
-0.33820958139 -0.15935662755 -0.92687148877 -0.40333569228 -0.16198667492 -0.89963587341 -0.32956995224 -0.16230478063 -0.91782021928 
-0.20014966182 -0.15453061546 -0.95898480642 -0.0057444268416 -0.14300990755 -0.98048482492 0.18351430039 -0.12371457343 -0.97226732413 
0.31483191282 -0.10863352001 -0.93933871307 0.4239277372 -0.099211025433 -0.89962271508 0.51851530511 -0.09942615673 -0.84524276669 
0.61133480322 -0.10770205206 -0.77840758594 0.70330358742 -0.12868091047 -0.69305324694 0.78778523186 -0.15106873238 -0.58525201966 
0.86732122743 -0.17624874887 -0.46133731207 0.91881942461 -0.18374157044 -0.33593142731 0.9784029207 -0.15120425351 -0.098493114549 
0.98235438273 -0.1452932337 0.051027613555 0.97593963098 -0.11826998925 0.16287750279 0.96398997035 -0.071497862823 0.24827412695 
0.9571113148 -0.0431456891 0.28537585845 0.95225645464 -0.020924376627 0.30452712363 0.947885496 0.0096483604242 0.31747324838 
0.94642666002 0.042708127493 0.31861069892 0.94805262409 0.076562454382 0.30842435397 0.93296075453 0.13053802071 0.33097867527 
0.90768591967 0.16296816044 0.38256478483 0.86031294134 0.18245696647 0.4714832975 0.78092249945 0.19225701905 0.58483365276 
0.66300037903 0.18817806891 0.7217545558 0.52012355442 0.16698317553 0.82998842936 0.38736825834 0.15036133267 0.90633244008 
0.31298282469 0.16192536238 0.93216883263 -0.16340240175 0.12608074836 0.96942804761 0.017452293305 0.1571392614 0.98419881532 
-0.32371670717 0.10988275755 0.93406740818 -0.4666336818 0.097676729922 0.87304370382 -0.60508967594 0.081148938582 0.78041072129 
-0.70793631779 0.075142438668 0.69820477207 -0.73011730017 0.086711617695 0.67639389793 -0.73269555029 0.10421641495 0.6714611958 
-0.76104756928 0.11409867077 0.63745155676 -0.74204635507 0.12308623321 0.65646148239 -0.69179220272 0.10344677161 0.71127285491 
-0.60302296734 0.044982281228 0.79510504695 -0.69171601622 0.06145723517 0.71783844929 -0.5995308313 0.05417635331 0.79764953242 
-0.64222405207 0.070765141347 0.76030967911 -0.73686859333 0.063117995436 0.66200570116 -0.84036047868 0.031477051648 0.5257890103 
-0.91798833278 0.0077971330893 0.36640853369 -0.965739437 -0.017714276897 0.23410973433 -0.76524956582 0.10673487675 0.63412186212 
-0.75894985753 0.1201046454 0.63980330587 -0.77646196558 0.079305578327 0.62424998334 -0.73944755562 0.056495616326 0.66815906303 
-0.66994238806 0.014033507838 0.73979905424 -0.77651522726 0.040233895688 0.62864214863 -0.6175962252 -0.0057084850955 0.78607312163 
-0.61113215531 -0.033530625334 0.79023292244 -0.65202613574 -0.013284015357 0.75346231451 -0.71437803336 0.0232182264 0.69704747796 
-0.82113662107 -0.012067536912 0.54162553086 -0.92108084947 -0.054691612087 0.37523709169 -0.9710512903 -0.059978343836 0.20537915308 
0.18585757979 0.17695502052 0.96338585811 0.26623233338 0.15335026516 0.95147679404 0.17521320811 0.010930751514 0.98377570789 
0.28040956758 -0.0032825820885 0.95574572513 0.3879340366 -0.015511288283 0.91758075784 0.51400604882 -0.031480094339 0.85530343926 
0.61554533773 -0.034737856257 0.78355227334 0.69420832802 -0.018793926732 0.71842395897 0.75542817334 0.01042488122 0.65267392319 
0.80391081636 0.038723980188 0.59127469746 0.84775219381 0.053117416482 0.52584047652 0.89240453755 0.061749527593 0.44538261652 
0.93182294542 0.070553909107 0.35434328811 0.94748058914 0.09891424896 0.29947016538 0.95177071767 0.16489738449 0.25737623615 
0.95182217613 0.23018815136 0.18303089586 0.94456599561 0.29077974139 0.14691313585 0.94383605389 0.3214213692 0.025977702553 
0.93541851827 0.30826625694 0.14601955576 0.937605872 0.31685270469 -0.096944957298 0.91495415478 0.3158310852 -0.24241688808 
0.87159830436 0.26039067987 -0.40007756252 0.80773948196 0.12946504083 -0.55589920927 0.68323933728 -0.028589567873 -0.71683663423 
0.56147622754 -0.11664070682 -0.81129767758 0.44567610409 -0.16009100988 -0.87739549924 0.26518890521 -0.23908811984 -0.92731257872 
0.30310949347 -0.19834178299 -0.9275214697 0.10292233243 -0.26945001134 -0.94855879746 0.1284487592 -0.26966202 -0.94561739603 
-0.023984566425 -0.32084984587 -0.94103289511 -0.13442938897 -0.33099165966 -0.92923175185 -0.20114186122 -0.28569818406 -0.93144643949 
-0.2638026162 -0.23005619976 -0.9345118967 -0.31957470966 -0.17283638508 -0.92905694104 -0.37853715423 -0.1406156812 -0.91415203016 
-0.42445945343 -0.13774190649 -0.89429107195 -0.48200824284 -0.1244254749 -0.86649131415 -0.52276448418 -0.10930310819 -0.84483951121 
-0.55666058278 -0.058118537078 -0.82656320532 -0.6051698382 0.0034951363173 -0.79274480631 -0.6888133125 0.049982290057 -0.72216322155 
-0.81309191892 0.050610716184 -0.57387140644 -0.91177849962 0.0081041582762 -0.39693064103 -0.99130921868 0.029899736123 0.12011033909 
-0.99691305912 0.0090414323943 0.00510595041 -0.9684541891 0.035650783428 0.24352111473 -0.93712607458 0.022156385565 0.3448996796 
-0.91393563619 0.016502636832 0.40297033006 -0.87522259121 0.011231736702 0.47905119456 -0.82652251492 -0.0067736108243 0.56162146167 
-0.75416449016 -0.022668905192 0.65144409125 -0.68015332016 -0.024823319872 0.72743025496 -0.5974563874 -0.00083734574448 0.80019936435 
-0.49527989492 0.05232892177 0.85729586743 -0.48648173154 0.10794667626 0.85989332676 -0.48451581898 0.15301529334 0.85423641542 
-0.20666541506 0.12884783243 0.96324642486 -0.3805554758 0.12701649334 0.90534371764 -0.0391158344 0.10573816702 0.98933600023 
0.058486959042 0.093952621443 0.98988700055 -0.98856962936 -0.028077955499 -0.11655555884 -0.96311726377 -0.022403103942 -0.25276953939 
-0.99364711671 -0.084101859304 0.061153647738 -0.98749087728 -0.071498939959 0.073808015057 -0.99256333809 -0.077855220222 -0.054907628017 
-0.99305114434 -0.092469980787 -0.0056104507193 -0.97853276348 -0.093485936349 -0.17484347379 -0.953828887 -0.10467612159 -0.25787552896 
-0.91525235649 -0.12834801911 -0.35829254625 -0.85606577698 -0.16058394859 -0.48553564152 -0.7748336634 -0.20260922363 -0.58664871612 
-0.68536917923 -0.24737307592 -0.68346337535 -0.62136696009 -0.23744101345 -0.74284112021 -0.55341555632 -0.21951715586 -0.80198106965 
-0.4440352116 -0.20421337325 -0.86556137395 -0.31702498838 -0.19707504288 -0.9234471682 -0.21242323926 -0.18132814801 -0.95815771585 
-0.21490295627 -0.16313302303 -0.96263374438 -0.29278109291 -0.14832555175 -0.94149194624 -0.37172069971 -0.15331638776 -0.91376334053 
-0.36395597636 -0.14794574493 -0.91829823839 -0.29875897878 -0.13722818444 -0.94250062285 -0.062184604311 -0.13228113105 -0.97547994932 
0.13123226752 -0.11188902502 -0.98388279881 0.24900756821 -0.098044190585 -0.95813469121 0.3506525728 -0.090213810756 -0.93037234446 
0.43757894802 -0.084962716152 -0.89118835163 0.53353952064 -0.090029869155 -0.83665245776 0.62764360717 -0.10895958434 -0.76651308683 
0.71910391099 -0.13441435888 -0.67298387274 0.81306117183 -0.17729143357 -0.54479241432 0.90068426343 -0.20120487943 -0.34874379363 
0.98306349229 -0.12795449188 0.11134263889 0.97512276185 -0.17212426431 0.011654960152 0.97417201503 -0.099445751489 0.18968589776 
0.96326594776 -0.065042023218 0.2576843051 0.95418005144 -0.034857784537 0.29568044067 0.95149335208 0.0078993891454 0.30651284778 
0.95504814254 0.038198664386 0.29364458512 0.95937612771 0.05749343363 0.27487887104 0.96199659252 0.099434362914 0.25263852015 
0.93995928296 0.13365107877 0.30617975224 0.90233237184 0.14918490331 0.39776082361 0.84708526379 0.14683923375 0.50423462918 
0.75417676804 0.13639395617 0.62769978198 0.64694304573 0.12103303848 0.74995435406 0.50973197417 0.11642295527 0.84223414627 
0.39403680725 0.11895670348 0.90993579898 0.33612291415 0.13138964724 0.9297194267 0.34342689891 0.1322865237 0.92815860295 
0.25714142899 0.15308908988 0.95077786557 0.35599095053 0.13506840973 0.92227025117 0.080827581497 0.13552137094 0.97932607708 
-0.0048951493334 0.14879160766 0.98150370559 -0.16637068884 0.12155438179 0.97125190189 -0.33956240464 0.10166954947 0.92931718468 
-0.48663052409 0.1043275977 0.86262469306 -0.60732144328 0.098334216386 0.78167041259 -0.70281826587 0.094011354375 0.70371887539 
0.96940375291 -0.19337847419 -0.10961911534 0.95308580121 -0.13561957628 -0.25281989394 -0.97768775842 -0.082722632794 0.15827643084 
-0.99160874288 -0.1031076159 0.052304374936 -0.9906341963 -0.092265155007 -0.068356178396 -0.99188814704 -0.099390623763 0.031891196011 
-0.98911993664 -0.076860258608 -0.12114708884 -0.97387217088 -0.08365391822 -0.1809346839 -0.95451607426 -0.099492386532 -0.26607333328 
-0.93124934726 -0.10766810937 -0.33166036666 -0.8822106715 -0.12522879295 -0.43506274554 -0.79395928714 -0.15529194366 -0.55962774183 
-0.69782304606 -0.1849258131 -0.69026036765 -0.62262940838 -0.18690033171 -0.75419077176 -0.54034077702 -0.18410888032 -0.81789486701 
-0.43759183814 -0.16204979808 -0.87773722362 -0.31889426064 -0.1485137632 -0.93134134926 -0.19325882419 -0.14145644515 -0.96724629742 
-0.13902002852 -0.11952119263 -0.98265489793 -0.28827080633 -0.14292554219 -0.94327445433 -0.38651846161 -0.17339786308 -0.9044151085 
-0.35399930046 -0.18161798447 -0.91403877936 -0.272987716 -0.17691916041 -0.94175593888 -0.12585781335 -0.12769039761 -0.97613126296 
0.026681632989 -0.10126066553 -0.99015514971 0.16698624846 -0.10534200517 -0.9735714495 0.28433810732 -0.098955998615 -0.95159689304 
0.36809080745 -0.07734875922 -0.92444473122 0.47363407584 -0.072971113723 -0.87254709507 0.58612722113 -0.077933853616 -0.80425034883 
0.68388863672 -0.10111775415 -0.71140411764 0.7690880195 -0.12158670651 -0.61414906371 0.88385795125 -0.12371015718 -0.42834293158 
0.94338928978 -0.13659158366 -0.23043331778 0.97974306545 -0.15318970682 -0.030466412422 0.97318101438 -0.032426337616 -0.19597798368 
0.98207053894 -0.15865220082 0.0089996638923 0.98361309327 -0.1260435215 0.046640915958 0.98268590504 -0.10510671221 0.13841701955 
0.96963184277 -0.07308795981 0.21680126843 0.95765096232 -0.038944436327 0.28458657322 0.95104407406 -0.023763244301 0.30692222995 
0.94771385496 0.0060756627405 0.31832727443 0.95211247129 0.03035020337 0.3028748688 0.95972916566 0.051223822308 0.27452217589 
0.97162939591 0.057734951105 0.22829759739 0.95832103414 0.091686456949 0.2581548653 0.91184652755 0.10794251334 0.37984730625 
0.85321707119 0.099345435146 0.50854842201 0.77815170282 0.096274160294 0.61108376937 0.69513826502 0.094374721931 0.71045049389 
0.57600810255 0.11032214013 0.7985727689 0.44503791515 0.12073587804 0.88490426948 0.42249173916 0.10281321637 0.89805410102 
0.35286778237 0.10772386406 0.92873771781 0.4516674689 0.086536464387 0.88537024043 0.21134920871 0.13095135486 0.95941704472 
0.12321588467 0.1586805871 0.9782255311 -0.058198106536 0.13046998835 0.98219384575 -0.16867006799 0.12394184799 0.96860553861 
-0.3294268981 0.1080837185 0.93155488794 -0.49475396675 0.099961667577 0.8563244486 -0.64458903671 0.10995743041 0.75065234669 
0.18377866745 0.055281385188 0.97479427717 0.32769737072 -0.0034797187024 0.94122333527 0.4534950653 -0.035603884186 0.88538766402 
0.55236102376 -0.059727786852 0.82998023787 0.63387025812 -0.056817530657 0.76675662 0.70854469926 -0.049811812048 0.70235849224 
0.76181657411 -0.027816694555 0.64469375795 0.81165096048 -0.0055616630189 0.58048487166 0.86069780404 0.020556438224 0.50784393851 
0.90015004278 0.040778619496 0.42983663279 0.92611919788 0.071264882753 0.36731783512 0.93912753311 0.11656002212 0.32076379309 
0.93575323639 0.18590433656 0.29644430446 0.93166307628 0.24671119123 0.25618562433 0.93040820397 0.28678737085 0.21694592922 
0.93286170112 0.25703667645 0.24566304885 0.94908488062 0.24342438267 0.19185652878 0.92946699994 0.19126516332 0.31429679497 
0.94393455867 0.32293942569 0.0088532542537 0.93795237885 0.32657604315 -0.081858596533 0.93090386218 0.28339195273 -0.22385477024 
0.86869050811 0.17278912313 -0.42268675905 0.78718860865 0.061507175491 -0.60410678715 0.6664285675 -0.040184452587 -0.73258750892 
0.5331313467 -0.11935994136 -0.82844832058 0.39443788464 -0.17206948215 -0.90055265715 0.23061210262 -0.22030589502 -0.93693756626 
0.084837387429 -0.27767185777 -0.9500730352 -0.029804529762 -0.3209983472 -0.94021001512 -0.13386632893 -0.33048199833 -0.93174451989 
-0.20556103901 -0.31942011475 -0.92199804377 -0.2719736102 -0.27479311966 -0.9204919781 -0.32027772003 -0.2072879202 -0.92257628147 
-0.34228942401 -0.15880052608 -0.92557702523 -0.36946597708 -0.11729483621 -0.92115036901 -0.43452098471 -0.099518568701 -0.89483889646 
-0.49726440448 -0.070929862769 -0.86218003758 -0.53623137734 0.0006104179233 -0.84021315 -0.59986239963 0.068786281874 -0.79619570484 
-0.69870922182 0.073555736169 -0.706887931 -0.79055304025 0.058097538139 -0.60118143648 -0.87060957515 0.039831800317 -0.48275630845 
-0.9366286815 -0.02403352886 -0.33597110272 -0.9876018984 -0.076953857889 -0.097903042705 -0.97663536175 -0.096611967517 -0.17336818881 
-0.99615594568 -0.045063099823 -0.027047565716 -0.99287049462 -0.037943015787 0.08165959397 -0.97738184122 -0.021095485803 0.19383797449 
-0.93868800766 -0.02756790172 0.33399452032 -0.89397067272 -0.025153493765 0.44424442802 -0.86484275883 -0.035416335952 0.49973181065 
-0.837319204 -0.053136779639 0.54162298584 -0.78710556898 -0.060165441447 0.61362948926 -0.73792757423 -0.042798223185 0.67076086091 
-0.68858562058 -0.017353750946 0.72316011992 -0.66615187941 0.035351279957 0.74099206013 -0.65815499077 0.098969187764 0.74474203451 
-0.60265135418 0.086565478102 0.78710033526 -0.55723348105 0.080145019123 0.82427370396 -0.49570844653 0.086267633394 0.85943587275 
-0.25828635511 0.12312368123 0.95643279237 -0.39372357458 0.092884211804 0.90986568734 -0.22169492187 0.14607417963 0.95712363165 
-0.064854542719 0.11926581607 0.9818113405 0.11013185568 0.068340421522 0.98806059255 -0.94968921189 -0.09115507919 -0.27556507882 
-0.8510625115 -0.12927520511 -0.50237903741 -0.7524896267 -0.14343071306 -0.62710385042 -0.66269380965 -0.14875577119 -0.73325384234 
-0.58385439659 -0.14801650236 -0.79251804388 -0.50058605932 -0.14816077009 -0.85160768356 -0.37079334155 -0.13662671972 -0.90935709212 
-0.25191339553 -0.11798822673 -0.95976772004 -0.19840446839 -0.075217601594 -0.97483532316 -0.17083273766 -0.03021864418 -0.98412435579 
-0.36345761858 -0.17054193901 -0.91471595765 -0.25211452347 -0.12588871086 -0.95517359975 -0.36515975769 -0.18741593697 -0.91058502811 
-0.27842073212 -0.18681944148 -0.93738028918 -0.10606441782 -0.14355567133 -0.96871986477 0.062323292517 -0.10913905758 -0.98941789134 
0.17186468326 -0.10635989012 -0.97403532399 0.27690518227 -0.10040286594 -0.95273468351 0.3772022856 -0.084913886696 -0.91662691616 
0.48940988317 -0.073720890077 -0.86320268769 0.59972856568 -0.078871406138 -0.78641537547 0.70971083563 -0.087485665153 -0.68676013377 
0.80241929049 -0.083340558219 -0.56603462724 0.87299108519 -0.064089889633 -0.46823512379 0.89182441972 -0.018312106731 -0.40283750931 
0.9531088221 0.020413216204 -0.26088363357 0.99028938089 0.04761065028 -0.064473763405 0.97829719008 0.087851137946 -0.10829699961 
0.98492330827 -0.0023993690486 -0.034379524762 0.98052879219 -0.068247126137 0.091237404052 0.97607985743 -0.075863776796 0.18012807679 
0.9691518794 -0.062408595184 0.23375530417 0.9582206913 -0.04797747682 0.27655204979 0.94910852756 -0.033688555703 0.31293174718 
0.94087500359 -0.0035118040275 0.33627533791 0.93281274407 0.03462480991 0.35795055537 0.93925807669 0.045364308972 0.33829542116 
0.95389477995 0.04682018259 0.29328947334 0.96943649534 0.02702469482 0.23957413128 0.96737716825 0.010975348107 0.24755417608 
0.81561657168 0.048568450769 0.57552184262 0.87708697769 0.047045236362 0.46819086545 0.72859323162 0.054676140983 0.67368237781 
0.62059360799 0.060952226415 0.78040826275 0.50922793716 0.077566516082 0.85140727064 -0.17613302738 -0.085032799499 -0.97979226926 
-0.19553068795 -0.028914214242 -0.97965686645 0.5571459316 0.065241359278 0.82395671328 0.42880185167 0.093320086508 0.89540517504 
0.53007772959 0.080627550046 0.84241226166 0.34043745313 0.10010033129 0.93107308044 0.15597398524 0.11305816235 0.97770135634 
-0.083830815651 0.12938810595 0.97736704237 0.2811904569 0.016442839165 0.94972615846 0.40513671655 -0.017474637052 0.91315880217 
0.49103063171 -0.01608071951 0.86689634041 0.5677390273 -0.011432708962 0.82206141505 0.63640433553 -0.020066933506 0.76639826698 
0.70564966458 -0.023911699187 0.70628956798 0.7616168613 -0.021791719239 0.64434830614 0.8158884744 -0.012144348775 0.57526550596 
0.86561576927 -0.0013047721324 0.49919492659 0.91091444519 0.0075948792664 0.40847416054 0.93242232405 0.045533239431 0.35646698473 
0.93537714469 0.10480729436 0.3374843289 0.92436380163 0.1650144305 0.34149070723 0.92282538534 0.2099593068 0.32229359547 
0.93007960602 0.12643950187 0.34248547785 0.9538360593 0.1323283833 0.26107450571 0.94112159212 0.060774036184 0.33205283749 
0.95912356836 0.1733711475 0.21429780149 0.96073185204 0.24135341102 0.067111394258 0.9474036342 0.27125965884 -0.12716026041 
0.93586881369 0.27321516555 -0.2103176015 0.89893039475 0.21614278644 -0.3557332729 0.83009608321 0.14845442118 -0.51790542764 
0.71048348988 0.059785905222 -0.68326324122 0.57204514576 -0.025318487754 -0.80923692736 0.35602649886 -0.11898132608 -0.9228191506 
0.15593764662 -0.18570031397 -0.96114540541 0.0070288333801 -0.24409120282 -0.96585846113 -0.095547246654 -0.30154280653 -0.94327293416 
-0.18329030199 -0.32901407126 -0.92495691579 -0.2442584767 -0.32616836505 -0.91152222704 -0.29409145343 -0.29293914428 -0.90761255001 
-0.33190835747 -0.22145294052 -0.91502437288 -0.33029529183 -0.15202249737 -0.9299443237 -0.3297340851 -0.090456071283 -0.93901019807 
-0.39064362607 -0.056012981651 -0.91782524004 -0.45931503256 -0.012985198579 -0.88573183909 -0.51312708367 0.049947296234 -0.85431413461 
-0.57033355085 0.10935754022 -0.81331225215 -0.65932889215 0.11543370797 -0.73755968077 -0.74868240744 0.091986571367 -0.65026646406 
-0.83980243265 0.031777661027 -0.53162843523 -0.91270794495 -0.048093429881 -0.38359909866 -0.95038508454 -0.069740469451 -0.2840707815 
-0.98473192261 -0.093064288426 -0.092050686974 -0.98391397608 -0.1109692593 -0.11877564401 -0.99289289011 -0.11341957736 0.013433028102 
-0.97764925349 -0.12705436205 0.11942454346 -0.96049524679 -0.13093344444 0.23671592503 -0.92244196652 -0.12020334517 0.35311117967 
-0.87733830765 -0.094892048612 0.46586219515 -0.81397356863 -0.049659129414 0.57451810554 -0.7981634291 -0.02049628334 0.59798873085 
-0.79762195746 -0.024387132365 0.60122789536 -0.79271002221 -0.030165265544 0.60860512086 -0.76525698829 -0.025525699664 0.64239053196 
-0.74432432468 -0.011850107635 0.66598003405 -0.72683754915 0.0019951492583 0.67956289085 -0.704307857 0.013917361562 0.70560559872 
-0.69885730103 0.045024745959 0.71011829907 -0.65714490855 0.067969733503 0.74657589098 -0.56330016652 0.096682207188 0.81690171879 
-0.40173812431 0.10747679583 0.8974378935 -0.1881017676 0.10133750387 0.95848937271 -0.1516006632 0.1124308667 0.96383407165 
-0.076158762675 0.1021322774 0.97646719479 -0.73933045143 0.1214607995 0.66085661215 -0.7717166842 0.086643311227 0.62846489876 
-0.79721778365 0.061903181923 0.60045675743 -0.78984184125 0.00026780130866 0.61287959556 -0.75362219405 0.00071791347929 0.65569169559 
-0.69552764009 -0.025336586143 0.71714371628 -0.64535883407 -0.0826280615 0.75720074396 -0.63853200104 -0.14176436597 0.75494217434 
-0.70122450666 -0.13997476617 0.6892195167 -0.79476019126 -0.09946042009 0.58340397774 -0.90870829192 -0.071675473277 0.36972459885 
-0.96732508608 -0.082839100412 0.22581800919 -0.97038603921 -0.093962282921 0.18581609964 -0.99060365362 -0.095507609515 0.075861150739 
-0.98749860522 -0.087855132197 -0.091975315836 -0.98934433033 -0.10748831221 -0.011675898221 -0.98531102173 -0.095505000806 -0.10988005278 
-0.94706227136 -0.091896805828 -0.25912597547 0.42026408412 0.052753977723 0.90273701831 0.297792117 0.06747180261 0.94412234229 
0.52282230548 0.013837540656 0.84760378401 0.61336518784 -0.0010622804916 0.78816188463 0.67763251922 -0.021536927483 0.73058193423 
0.73348055054 -0.02731648948 0.67784533302 0.78099185257 -0.024897653922 0.62026922887 0.8267851505 -0.025502184139 0.56000028825 
0.86351223715 -0.022860846692 0.50165340183 0.90740027996 -0.0093105677024 0.41462525618 0.94804799399 0.016952892224 0.31692160003 
0.92825922809 0.079340238836 0.36243756456 0.922842902 0.10745563661 0.36910707608 0.96369236066 0.057732691326 0.25550966953 
0.95322103377 0.036039962864 0.29680199877 0.94530508415 0.067750842048 0.31699561216 0.9622244463 0.068857378405 0.25649829235 
0.97789016448 0.11142348517 0.16979926117 0.97383987958 0.16561723286 0.078413444907 0.96523876062 0.22613053984 -0.043008730042 
0.94775416917 0.22129111973 -0.21054172723 0.91468399623 0.1831665921 -0.32986116935 0.82755418934 0.10167312513 -0.54135625082 
0.72117638107 0.04004158209 -0.6757984767 0.61905253495 -0.0058841925191 -0.77873239442 0.54193156239 -0.017173338347 -0.82422311216 
0.059065007971 -0.14721461497 -0.9823768618 0.16389201351 -0.10519462079 -0.97603152637 -0.034775550105 -0.21226137696 -0.97168141353 
-0.16003567779 -0.25455518946 -0.94810739463 -0.26850970841 -0.28426372625 -0.91774094269 -0.3395850899 -0.27558848508 -0.89780033715 
-0.34326571261 -0.20938308907 -0.91442899767 -0.30900326656 -0.13835685544 -0.9390199138 -0.27216503673 -0.07106235801 -0.95920662054 
-0.30218975114 -0.012042965006 -0.95196297512 -0.49165518066 0.066068921918 -0.86644934862 -0.41606641254 0.033482114796 -0.90598039907 
-0.55833256603 0.095066338235 -0.82263500277 -0.62936145203 0.10333481838 -0.76636298891 -0.71181810035 0.090651152424 -0.69592246718 
-0.79123553539 0.050861207268 -0.59926712807 -0.86558900224 0.0083263209399 -0.49371419693 -0.93855818949 -0.078347960649 -0.32099107389 
-0.97115535196 -0.10262121995 -0.18965427841 0.31459071154 -0.071874517195 -0.93912601951 0.4172920955 -0.052121136116 -0.89440063729 
0.94121485986 0.013280083594 0.33267324553 0.95638190552 0.0052756722769 0.28922815613 -0.3583137723 0.077012242452 0.92508948483 
-0.51241023789 0.09298848938 0.84385880421 -0.62766610227 0.10886933855 0.76913617006 -0.68288843435 0.095082533522 0.72178686027 
-0.73516199067 0.070548741559 0.67215761078 -0.77926281886 0.01923425558 0.62460124255 -0.77542452669 -0.043522569661 0.62864654829 
-0.93044376273 -0.094517554631 -0.34129520249 -0.82990931706 -0.097807088747 -0.51230060872 -0.70784574415 -0.097993429837 -0.69446768866 
-0.61918689709 -0.083978572058 -0.7753319627 -0.53354499795 -0.069951555952 -0.84068556023 -0.44026332857 -0.055622633873 -0.89038344722 
-0.35137992835 -0.033287934652 -0.93434780013 -0.28584635012 -0.0023906251258 -0.95530612908 -0.25289137542 0.014195354686 -0.96623312873 
-0.22279299675 -0.063810872906 -0.9713815212 -0.24024464177 -0.093525362042 -0.96395451698 -0.3034647975 -0.13342940705 -0.93939422293 
-0.37367600279 -0.16532117094 -0.91161234425 -0.4011368765 -0.16277933084 -0.90039980186 -0.37970141996 -0.15776129524 -0.90533567007 
-0.23561320364 -0.13220961118 -0.95329798941 -0.051607279307 -0.10409219569 -0.98498050223 0.12633660327 -0.095024879717 -0.98019581874 
0.2331855679 -0.089896332019 -0.96607296356 0.30936173216 -0.092342519665 -0.94343481519 0.41631845724 -0.077398364408 -0.89894735848 
0.52353565883 -0.059832597441 -0.8384292231 0.63627161866 -0.041694979015 -0.76416598392 0.72725951441 -0.024864962686 -0.66940518648 
0.81971614912 -0.0023595059325 -0.56555133732 0.8916699387 0.020038674536 -0.42570283927 0.93548722488 0.065395681192 -0.28142120815 
0.94020402703 0.087686554235 -0.29314138116 0.98943641967 0.089864148686 0.03810998703 0.98274122358 0.11029658682 -0.11628392239 
0.98816192871 0.067257107361 0.085598177891 0.98563635017 0.040115699079 0.10687799368 0.9816562771 0.000548631058 0.17225626729 
0.9764695915 0.028798472426 0.20217566101 -0.94402841272 -0.10631264318 0.29969117596 -0.97442821226 -0.12028608536 0.16026157876 
-0.98925497009 -0.12131344597 0.068744568688 -0.98256549163 -0.11951479598 0.099554256449 -0.97694376059 -0.12697594299 0.1331175594 
-0.9660372189 -0.13657711539 0.21501009507 -0.8908041974 -0.15118158266 0.42153390805 -0.77771502726 -0.18451251542 0.59509341423 
-0.69774738799 -0.10026278288 0.70732109561 -0.7330405337 -0.015053318544 0.67841584758 -0.76976224635 -0.01164269617 0.63741669551 
0.92919484238 0.075163230034 0.36132920021 0.92660916077 0.068742788882 0.36913867776 0.94220005071 0.056787060266 0.32821496311 
0.96092478994 0.026721002557 0.27092979407 0.96686014507 0.011507618884 0.25334397937 0.94648966062 0.021672384288 0.30971406084 
0.90450082764 0.026771369748 0.4237935815 0.92731942641 -0.018716412445 0.36868533133 0.91538650006 0.0091263559618 0.38870375651 
0.87259241356 0.024076083905 0.477052482 0.81662087698 0.034783045687 0.57437700424 0.75006018517 0.041767382072 0.65587951299 
0.65612487283 0.055275026456 0.74703967452 0.67057074709 0.046382958324 0.73577888162 0.55591655127 0.052473399882 0.82727705412 
0.61459908991 0.039855907095 0.7846369899 0.46881125253 0.075969571305 0.87818294827 0.32054122316 0.084851104233 0.9379125513 
-0.68332700675 -0.14444280582 0.71207769658 -0.75888020781 -0.16316390713 0.6237825022 -0.87936631463 -0.15014752333 0.42283593424 
-0.90542261108 -0.066167070587 -0.37601040271 -0.32524234184 -0.13835711255 -0.93154210566 -0.40105390782 -0.20255734691 -0.89319583396 
-0.37531531159 -0.22899587773 -0.89691588551 -0.32866566155 -0.23157098664 -0.91176858585 -0.21896167679 -0.19220040072 -0.94843129291 
-0.049628343412 -0.14936020595 -0.98082179038 0.094600613103 -0.11230113554 -0.98603869804 0.20543327855 -0.098987756446 -0.97101164708 
0.32483780232 -0.081288625215 -0.93684381615 0.47803378205 -0.059705379665 -0.87198096477 0.59543482191 -0.042803204588 -0.78991312718 
0.68742555799 -0.026899119973 -0.72352605529 0.89039457106 0.057774453858 -0.43332221477 0.90183369344 0.045062216823 -0.42416099805 
0.97964546707 0.075735593043 0.15711675273 0.98364091951 0.11313725595 0.030285901275 0.97758138722 0.051586490908 0.20144074565 
-0.81586211022 -0.036926312321 -0.56697348844 -0.71425464294 -0.024045098166 -0.6886138157 -0.62046950079 -0.011246972831 -0.78008308368 
-0.5397757209 -0.00030458565676 -0.83850480889 -0.46890646511 0.0064883468033 -0.88174209139 -0.39065501758 0.023356054897 -0.91723013077 
-0.33041756517 0.022174353106 -0.94323230668 -0.38149563592 0.03028723259 -0.92198158963 -0.46080250947 0.063788503299 -0.88223478239 
-0.52485430442 0.076052962213 -0.84430648348 -0.59328645227 0.073996834305 -0.79544359549 -0.67519850788 0.060426035219 -0.72930759943 
-0.76318566638 0.01584487315 -0.63596254057 -0.86156458864 -0.032832969613 -0.48954030671 -0.92549441767 -0.082288782253 -0.34817679711 
0.86072055015 0.026662468279 0.49947836653 0.81234861137 0.026464568576 0.58181040287 0.75749905288 0.036719953035 0.64861668462 
0.97494730967 0.15410751239 -0.082727840938 0.96711494619 0.19488608617 -0.14441347975 0.95373514584 0.12947295923 -0.23900974251 
0.74812732856 0.035516404082 -0.65258889729 0.82482786488 0.076585544393 -0.54598937614 0.66559331749 0.010540146328 -0.74323886354 
0.5771172893 -0.016675581283 -0.80650601284 0.53682728461 -0.035289076255 -0.83185036878 0.87515945129 -0.014467860473 0.47571238786 
0.65553888357 0.023572293623 0.7516803638 0.69869376182 0.029177452746 0.71423674677 0.76807101534 0.013657664051 0.6363600085 
-0.93901682524 -0.15889904003 0.28045887104 0.82293397734 0.001705062389 0.56704131652 0.72781355506 0.0066437125781 -0.67018316044 
0.81351875491 0.031704878889 -0.56805030032 0.64368831953 -0.01670868796 -0.7609677808 0.33654710705 -0.15370192453 -0.9239512813 
0.10917282295 -0.19257946916 -0.96705749461 -0.9817944771 -0.038552216258 0.15309721703 0.13823641154 0.091393042527 0.98266582342 
0.089017689477 0.10000894725 0.98490348684 0.84743344773 0.028409023748 -0.50860913646 0.7715422835 0.0010388421798 -0.61223317132 
0.87932919158 0.0829754987 -0.43555637669 
Curv_Gaussian 1 1114 double
3.789728558 3.4331480966 -0.030647605349 -0.01796017523 3.9729482928 -0.031345389645 4.2502460463 -0.031890468954 4.017144902 
-0.024360096024 3.7036395776 -0.0029023667552 4.0503657185 -0.021359786877 4.5605137418 -0.0084153199954 4.5149007545 -0.0029031314404 
4.2786695259 -0.0064683946446 4.1381017483 -0.0062076249818 4.0765176257 -0.019959552556 4.5307972889 -0.016991785663 4.6639755981 
-0.0082471034905 5.0125843445 -0.013684802262 5.0135367748 -0.01097282336 5.0320841858 -0.009748362575 5.4588946766 -0.026275286604 
5.7798475949 -0.012196783911 5.8751608936 -0.01530203663 6.0162685564 -0.071449057786 6.029984918 -0.040643642442 5.9977974253 
-0.054088945309 5.7530342814 -0.057773408605 5.1732666562 -0.0386882999 4.1994399787 -0.041725721211 4.227094326 -0.017795855489 
4.0623783758 -0.010408770415 3.7717084452 -0.010490850427 3.517496057 -0.0060398843205 3.518461368 -0.0046153402155 3.6038740797 
-0.009168695367 3.8525885563 -0.009159654213 4.075591149 -0.003179476132 4.1972272434 -0.0053661912617 4.2333171023 -0.006186339704 
3.9922046814 -0.007119297899 3.9039915098 -0.0033776142642 3.6516651519 -0.010737227024 3.2300478774 -0.0011207243381 3.1187120351 
-0.014586548451 3.5379693141 -0.02976667286 5.1808988467 5.2228070414 -0.010879609951 -0.01235165604 5.1929189615 -0.0094730228124 
4.9542997475 -0.0068372620768 4.9110114402 -0.0037406119234 5.0396235997 -0.0014642299059 5.017883519 -0.0012332867508 5.0190710961 
-0.0018735933642 5.0700135432 -0.0040799329773 5.4121702703 -0.012118794231 5.7101022116 -0.016534705312 5.8704335198 -0.0056966609962 
6.4803254033 -0.0083488015569 7.0940789091 -0.01318533781 7.5748393661 -0.019881093538 6.6739768342 -0.010657140424 6.1154315723 
-0.0042567511694 5.8608106242 -0.010621125043 6.164352631 -0.0041478646807 5.9584798145 -0.0027199164972 5.5136518851 -0.0060939619781 
5.1217413144 -0.0085544202903 5.0746299712 -0.0077884771784 5.214215862 -0.0012992203911 5.3511517126 -0.00082251895828 5.200694009 
-0.0046175938737 4.8773557857 -0.0093292593515 4.5348273597 -0.011965971069 4.5049098644 -0.014654010782 4.9273039891 -0.010963540757 
5.3289151213 -0.0085938450438 5.6390723227 -0.0070915034499 5.4207514715 -0.012012690673 5.1590540819 -0.019872905735 4.8530671935 
-0.018250235294 5.0724983575 -0.012022690225 5.3689930755 -0.0061808332349 5.6030613511 -0.0035878424638 5.5405349385 -0.0016608036664 
5.2395762415 0.00037756530785 4.7828755904 -0.0076125215978 4.3502944566 -0.011711770804 3.9557024574 -0.0082025899499 3.7464494203 
-0.0048333971686 3.6636882577 -0.0016924497317 4.5817197568 -0.0047512584025 5.2130111563 -0.0066322158932 5.2181660367 -0.015804786917 
5.4346124562 -0.016332192377 5.8253907989 -0.0092155313365 5.4380353465 -0.0076923868613 4.8532299646 -0.0064113477507 4.2836009737 
-0.0035910378678 3.8609049339 -0.0017821469464 3.8515720642 -0.0053590132153 3.9962563798 -0.00594800711 4.2976186867 -0.0035951578476 
4.7168564974 -0.0079441517646 -0.0066677163653 -0.028957934384 -0.018415686034 -0.0050528011083 -0.0010986559812 0.0016098576414 -0.0031736800953 
-0.00027201205934 0.0031857558652 0.01055490797 0.0040759843428 2.5363863391e-05 -0.0030808773079 -0.0059524578155 -0.0049487962024 -0.0077238032321 
-0.006870921819 -0.0048478604478 -0.0042887883922 -0.011948134233 -0.011073009295 -0.0074923784842 -0.0089102199917 -0.0014468438648 -0.0042708811869 
-0.0051444461238 -0.0029136017873 -0.0035947823526 -0.0032605781697 -0.0022119300017 -0.003694903134 -0.0063669008383 -0.0055029112385 -0.0040994651225 
-0.006114668383 -0.007942206242 -0.0038772386801 -0.016636312896 -0.0061297772107 -0.018730726431 -0.056060731637 -0.047343277136 -0.0028791413845 
-0.0031955181525 -0.0020090088596 -0.0025421698311 -0.0035019656024 -0.0028899264047 -0.0038338101947 -0.0041813997651 -0.0057148585637 -0.0082051853986 
-0.0094799540235 -0.0053305290924 0.0004070105525 -0.00027474490013 0.0010979479717 -0.00048403633841 -0.00033647599431 0.0012733402807 -0.00010242152447 
-0.0025142801841 -0.0020762716134 -0.00078082860178 6.9816815183e-05 0.00064671404991 -0.0021761270886 -0.0014737916426 -0.0050189825535 -0.0065605014561 
-0.0062173481058 0.00064483226336 -0.00034658054245 0.00096407210277 0.0020196310994 -0.011965368345 -0.0027660589316 -0.0026766881203 -0.0025323785567 
-0.0037945826841 -0.00079344238715 -0.0027109300874 -0.0049736881777 -0.0030488971666 -0.002617264431 -0.0029430311064 0.0045394933729 0.00019283117986 
0.0060191591948 0.013440194276 0.0054135926987 0.0033558834906 0.00081219668533 0.00074861036631 0.0017752514376 0.0037586211075 0.0010606047003 
-0.0027965206777 -0.0020448694407 -0.004347857957 -0.00073484113868 0.00064952847837 0.0057445383172 -0.0038064312982 0.0084867259845 0.006979141864 
0.0021098575669 0.0010195328833 0.0080462483659 0.0045096334208 0.0025378919865 -0.0022286693075 -0.0045720017531 -0.0033840182553 -0.0021480215923 
-0.0040890537512 -0.0018764749833 -0.00031222776761 -0.00027614518533 0.00094428272258 0.0012988745167 0.0068850697122 0.0056323619623 -0.004437942155 
-0.0046613721459 -0.0076245059297 -0.00783543655 -0.0050075742231 -0.0030013517473 -0.0045550184303 -0.0029121439327 -0.0038014870343 -0.0041153408849 
-0.0054443706449 -0.0065813969785 -0.007198402413 -0.012461307005 0.0050137525368 0.011347910473 -0.040934060933 -0.043365554745 -0.027690105148 
-0.014151640688 0.00033590959678 -0.0095900761562 -0.0016374116987 -0.00071306982933 -0.00085106396981 0.0010155890439 0.00076835941215 0.00077886201177 
0.0015925643532 0.0071388773945 0.012038351755 -0.0027065431759 0.005931931812 -0.00013155268707 0.0026275647424 -0.00049326162538 -0.0014303011155 
-0.0044160511108 -0.0053881392803 -0.0026696622904 0.00055431208416 -0.0016608466563 -0.00090063798978 0.0069921942662 0.022427863336 0.015842472042 
0.001619761336 0.002080897567 0.0010835203176 -0.0012542024854 -0.0020088186497 -0.0025638189557 -0.0022011268695 -0.0013826841359 2.0180994725e-05 
-0.0018951991754 -0.0048522196634 -0.0045209440344 -0.0034462386204 -0.0015682352667 0.00029378402113 -0.0010431224079 -0.0018445589906 -0.0015247825544 
-0.0042353597954 -0.0053012127656 -0.0058711546753 -0.0055615098604 -0.0043719649982 0.0023851282911 0.0042842281736 0.00052822209584 0.0031583113257 
-0.00042681275333 0.0013242421487 0.0084985952483 0.0055669991372 0.0047523141555 -0.00022491932418 -0.0046596048395 -0.0017739415498 -0.0014507419151 
-0.0010501043341 -0.00094324393345 0.012025532037 0.012772382407 -0.010136342148 -0.0092026741043 -0.012751642072 -0.012589722337 -0.012477897741 
-0.011822544157 -0.0090376730856 -0.005703396292 -0.0072785664394 -0.0042798671303 -0.0057067006492 -0.0067467304225 -0.0072359671643 -0.0085465878283 
-0.009922701497 -0.0050269045078 -0.00055740768279 -0.002970996952 0.0058715572624 0.0059614750336 -0.0019946182839 -0.0086744946377 -0.0020567779897 
-0.0034104480512 -0.0012803619048 0.001655112215 -0.00029348454901 -0.001287250882 -0.0010947507296 -0.0085380709818 -0.016495026476 -0.015845586366 
-0.009953449262 -0.0043486331686 8.7874498931e-05 0.0020180309734 0.0047936529404 0.0057018255361 0.0089196709968 0.014787909652 0.012873895599 
0.022038915344 0.021612229479 -0.0026705851144 -0.010702830342 -0.0066796132772 -0.0014422782102 -0.0010942422131 -0.010503248583 -0.010155580341 
-0.010912372581 -0.0084987901844 -0.0074681821825 -0.0016985931393 -0.0025600968453 0.0045540175032 0.01103134326 0.015376709207 0.013859308596 
0.0085458188582 0.0055706339126 0.011955216099 0.0033469447653 0.013954389228 0.0068597648422 0.0021851193813 0.0017792750499 -0.00019581128198 
-0.0011653522738 0.00029289784159 0.00029582681681 -0.0051994379454 -0.0059601185858 -0.0044513143919 -0.0025092774541 -0.00090535585343 -0.0013031995558 
-0.0016286611487 -0.0018426761787 0.0031724303593 0.0011398674232 -0.0015538745954 -0.00024421996244 -0.00019964168587 -0.0017214029702 -0.0043143100529 
-0.0085370062075 -0.000479062181 -0.010635333623 0.00051811249849 0.0035976339701 0.00029322388932 -0.00032183134827 -0.00017260740935 -0.0009620204801 
-0.0012783078849 -0.00061410943513 -0.00040784032984 -0.00082256913694 0.0016201862119 0.0084558597011 0.010759348794 0.0058447644972 0.007917346872 
0.003529343714 0.0019451182591 0.0057975407032 -4.2843201668e-05 0.0074203057799 0.0095632163443 0.0042062704404 0.00061588117589 8.573571951e-05 
-0.0019939400161 -0.00068854748083 -0.00051779090865 -0.0015592420272 -0.0050601115956 -0.0002538617501 0.0041074305186 0.0065595607239 0.0072334594071 
0.012914913795 0.013017302167 0.0016868066515 0.0025386641393 -0.0013386372965 -0.0038246324752 -0.0020412444367 0.010207807098 -0.0015650043821 
0.0031522906467 0.0055551691373 0.0064661447298 0.0056694814231 0.0064586226002 0.009768366974 0.0039719384476 0.00061673040979 -0.0042800964261 
-0.0046050311452 -0.0062252621951 -0.0067962750605 -0.0067871264743 -0.0046862090778 -0.0060498004947 -0.0055322585771 -0.0040953494517 -0.0036710971571 
-0.0013215020419 -0.0014329122885 -0.0033276995103 -0.0015406727998 9.5191749679e-05 0.00045674184313 0.0014791530826 0.0054481066963 0.010044235685 
0.0096200480813 0.010926992595 0.0017302641035 0.00093538877023 -0.0034998976989 -0.016031318271 -0.0095498702806 -0.014799996734 -0.0075838136111 
-0.006647229209 -0.0084308462358 -0.0061714682189 -0.0039619583875 -0.0030452160143 -0.0044070685649 -0.010370292879 -0.0088549414742 -0.0027153003174 
-0.0024409640962 -0.012703477131 -0.028038122029 -0.019230558114 -0.0097581041652 -0.0023766195924 -0.0054003543142 0.0023055043945 0.0043004234991 
0.011598257107 0.012422243225 0.017891111558 0.017673794605 0.016795590029 0.0081642391617 -0.011323600842 -0.0039227830071 0.0034063952891 
0.0090128173368 0.015775442531 0.0013918704436 0.0012460214864 -0.0099644763907 -0.0056965910079 0.0057949292704 0.0079622617316 0.0046877973494 
0.0037678103096 -0.0032737909024 -0.0016302173898 0.00049962561011 0.011495730675 0.014136204844 0.013382065205 0.0062342438888 0.00058846273407 
0.0088257948078 0.0096350416348 0.0026289723701 -0.00056752219102 -0.0017376740255 -0.0025718592464 -0.00020497444962 0.0052449973329 0.0048778401626 
-0.00074674652946 -0.00099114776446 0.0010622646271 0.00089355021036 -0.00054362528279 -0.00088073336928 -0.00041719639429 0.00042087049734 0.0017531101237 
-0.00037208547438 0.0034210892573 0.00020100366685 0.00034516278489 -7.1707613649e-05 0.00028236617407 -0.0002037961831 -0.00086995570431 -0.0032270328012 
0.00023991948842 0.004137971272 0.0067598856992 0.0096025904937 0.010820493323 0.0077270452405 0.0056304133389 0.0037911747533 0.0039361974042 
0.0054537024724 0.0027664614965 0.001987737408 0.0038486260777 0.0017560243363 0.0045632779204 -0.00036017253744 0.0021349699924 0.0044548163895 
0.0035930623529 -0.0040063011624 0.006371970535 0.0029994312955 0.0046750031634 0.0025449827598 0.0044210361921 0.0063513002984 0.0050070458756 
0.013170175662 0.01985500565 0.013462679245 0.0073815175962 0.0085952395118 0.0090168552404 0.0033506478604 0.0046502353873 0.0066935360411 
-0.0026994301105 -0.0077485714552 -0.0042633140374 0.0014555155261 0.0086283911891 0.0033672094111 -0.0017588970087 0.00056483429246 0.0018077767025 
-0.00074881417292 -0.00016106321362 0.0039080608681 0.0081472013046 0.016885364475 0.011898878599 0.018135030701 0.018624098862 0.011284943834 
0.012344308638 0.0019671583887 0.00078876408397 5.7711252071e-05 -0.00039964633633 -0.00052763287595 -0.00045481231452 -0.0033377476679 -0.0039980039529 
-0.0023374610888 0.0099019684164 0.015345624929 0.0098073522908 0.0099349271517 0.011525654322 0.010349376586 0.0079638889868 0.0021823134574 
0.0023961039473 -0.00025947920295 0.0097346702569 0.015343793091 0.0032004672068 0.0021564878295 0.0048569957292 0.0063802844104 0.0019861971095 
0.0016671536718 0.0027232191162 0.0027446154524 0.00069115290302 -0.00044703386415 -0.0019310448186 -0.0020943945938 -0.0015132375084 -0.0010595329776 
-0.00039665638396 -0.00034382770459 -0.00074513542742 -0.00065364809756 -0.00037150591557 7.6860260556e-05 0.0030078674797 0.010985250375 0.004486501572 
0.0022795111014 0.0027426175394 0.0069716182725 0.0047432862328 0.0010581564789 0.002393621025 0.0032876329718 0.0035595129056 0.0063904014591 
0.0041920586389 -0.0010671865026 -0.002075987892 -0.00084580393316 -2.3429087409e-05 -0.0027653694532 -0.0012550020436 -0.0033940258918 -0.0071878660159 
-0.0027534616937 0.0015104166253 -0.0026735577454 -0.0086360528826 -0.0095929527312 -0.0047895280392 0.002608306625 0.00046466684183 0.0047827808029 
-0.0047229943319 -0.0067268121563 -0.0094579137359 -0.011515819337 -0.0081293955351 0.00046656162526 0.0059483189836 0.0058773144461 0.0030320507433 
-0.00095282427972 -0.0053504416494 -0.0068437778597 0.0046882703306 0.0064918648959 0.0064720949872 0.019994605308 0.0092721275591 0.018915891591 
0.013483690206 0.013664528419 0.014699094127 0.016789098584 0.0083211201973 0.00096940515515 0.0052645076862 0.011460548891 0.014651336932 
0.015444159957 0.0098286918787 0.00257597578 -0.0034465205317 -0.004132005501 -0.0032279777373 -0.0093059872486 -0.0022609470276 0.0036727808918 
0.00091684786114 0.0011979187142 0.0091368624222 0.014678423407 0.013564366254 0.013889122627 0.013385478223 0.011883322647 0.0087618412642 
0.0085581413311 0.0066769782225 0.0071126178672 0.0066839250776 0.0092349420497 0.0073968918477 0.0055926328522 0.004861591437 0.0036471517065 
0.0017961046401 -0.00059495033519 -0.0004938111221 -0.00057514325742 -0.00066716378197 -0.00076609695475 0.0042557751215 0.0088490741364 0.0057736822202 
0.0090181168759 0.0044480064623 -0.0065423271736 -0.0030022744141 -0.00051316804381 0.0041885328404 0.00717918694 0.00049796952273 0.0019035790415 
0.0086904828487 0.010888729081 0.0062284252536 0.005071817666 0.0036332132821 0.0032780270801 0.0026837439854 0.0021218587821 0.00088068950025 
-0.00046362177738 0.00056263075722 -3.8432631734e-05 -0.0017774619252 -0.00079519879787 0.00093883623952 0.0011817187911 0.0024172869925 0.0033337692232 
0.014419632937 0.013534851551 0.0050205039482 0.0058157054765 0.012538497819 0.016320404628 0.012999691379 0.01358449133 0.015695726658 
0.011041840571 0.0049099512155 0.0035664945918 0.0021632012364 -0.00097320086302 -0.0018105618146 0.00012005133204 0.00053394475018 -0.00065163527571 
-0.0040626384152 -0.0016727049758 0.00036044555699 -0.0024507496516 -0.0012188879545 -6.1982338178e-06 0.0032022593847 0.0083368047285 0.0038838964141 
0.0027437636623 0.0083806400326 0.0035225581333 -0.0012483983205 -0.0084706444076 -0.0087392382141 -0.009390180094 -0.014757146022 -0.010800132538 
-0.0039007882894 -0.00094711526956 -0.0023675824113 -0.0035921673765 -0.0031672740809 0.0050996356359 0.0029681282525 0.00086457973314 0.0010120529565 
0.0019173611287 0.012139159946 0.0013987030974 0.021107406505 -0.00037167522211 -0.0014976643912 -0.00092911738987 -0.0010036878163 -0.0033791647077 
0.0043973168789 -0.00076451799286 -0.0042995964959 0.0075659160085 0.02671938533 0.020435257878 0.0077137557181 0.0087627181662 0.0065992679846 
0.011066801972 0.010284821429 0.0080201911278 0.010047242341 0.016515672873 0.022567384871 0.004475846523 0.0036509322474 0.0039570425781 
0.0040645461591 0.0029408019904 0.0012545725588 -0.00021168651855 0.0010875131171 -0.004090436712 -0.0056617181844 -0.0016535100516 -6.785460789e-05 
0.00054301471975 -0.0002777424168 0.0037538414897 0.0035182905357 0.010262271132 0.013274717544 0.0081438410714 0.0091570268426 0.011688676863 
0.013708103297 0.01603076365 0.017277030503 0.0046507388788 0.010464725559 0.0023957001636 0.0055922340288 0.0051440546135 0.0012908348593 
-0.0006027532516 -0.0022590500975 -0.003477897894 -0.0015060255499 -0.00079905476193 -0.0025291721645 0.00031350197534 0.00021452331615 0.0021794861802 
0.006855274693 0.0097399744161 0.012135928386 0.013483929286 0.016885066118 0.015978592393 0.0037619536287 -0.0022443713853 0.012580539971 
0.0064084662683 -8.8388389949e-05 -0.0013138790592 -0.0012689069761 -0.00032882838896 -4.2985869094e-05 0.018314740966 0.018459356347 0.0149299119 
0.0096295009913 0.006536984731 0.0091732758248 0.012466515213 0.0076506339452 0.002876427273 -0.0051427550146 -0.0060507864287 -0.0072543741917 
-0.0054587682655 0.0039579318406 0.012160578695 0.016938118224 0.017099520749 0.007082705949 0.0017408639126 0.0014381713116 0.0023946258962 
0.0017812562482 0.0024263617618 0.0045473025922 0.0066636957809 0.0076002188887 0.0067988659695 0.014257303477 0.0053087409899 0.013773408609 
0.0026146419709 0.00089706063485 0.0020457872149 0.00027116715871 0.015261830179 0.0075847740872 0.0085509364311 0.0034688572287 0.0014343964035 
4.6642229301e-05 0.0031955982437 -0.011139704697 -0.004637064715 -0.004905018523 -0.001352425258 0.001057874261 0.0014758061177 -0.0031973027485 
-0.002831822162 -0.0020511266633 0.0037829046616 0.016220757871 0.010632278612 0.0043074059348 0.0050956123237 0.0022373224734 0.001362852135 
0.001410925543 0.008428797439 0.0053010966584 0.0044332829945 0.0064819942521 0.011718788214 -0.0024793474255 0.0026383908552 0.0071469042722 
0.020801451127 -0.0069375063298 -0.0054643514709 0.0011108758225 0.0083726669494 0.015145912155 0.014186125678 0.0040501377896 0.0036854866648 
0.0084879097332 0.0077774261862 0.0056491690056 0.0050846633723 0.013463373532 0.0074325665807 0.004446575603 0.0075270617991 0.0019318958765 
0.022835303359 0.015721951087 0.011750329521 0.010385256455 0.0061284770375 0.0085149029523 0.01112821911 0.0017307309976 -0.00034838946926 
0.0025725892709 0.0047387055119 0.0064115130726 0.011801616821 0.017331922834 0.019315836131 0.011425061226 0.0054134935869 0.0086040843335 
0.012716719045 0.013544066739 0.015775864807 0.016179371521 0.016782121587 0.01235120701 0.014946454885 0.012227137477 0.0062791094715 
0.0041259661356 0.0051764086124 0.00665120184 0.012837929725 0.0037681552428 0.014965357101 0.016798175351 0.011419129611 -0.016375305242 
-0.0048945916674 0.0090102359327 0.02464608317 0.015659968018 0.0068160011247 0.0060602176691 0.019472557756 
Curv_Mean 1 1114 double
0.049091277625 -0.093047236853 0.02264556363 0.071657507991 -0.13900240324 -0.015212448642 -0.1452388315 0.018658979794 -0.10614457412 
0.047031686369 -0.048208051843 0.13155207572 -0.091214572713 0.071617492119 0.09919779401 0.0025949750217 0.049096054762 0.0099790998285 
-0.053393845683 -0.016296168817 -0.070265918467 0.020986792021 -0.11847679179 0.0051082803139 -0.13344699008 0.021496063862 0.0063072431909 
-0.046960345488 -0.17995992719 0.018767768618 -0.037458500382 0.052376314728 -0.099511854883 0.082089010306 -0.14560321474 0.052725501093 
-0.03841151419 0.10992542021 -0.10423051797 0.16990933494 -0.37879641611 0.19302284444 -0.074384151174 0.19776643991 -0.033353841724 
0.16818678405 -0.068241486559 0.12785314592 -0.083289230593 0.092123218923 -0.010037172008 0.0028784498321 0.0046980274814 -0.018009774965 
-0.12283328062 0.0034135317795 -0.10078433213 0.048172629947 0.01105691853 0.0066800019761 -0.10350389194 0.02503715537 -0.10524858846 
0.0031545490306 -0.041601839174 -0.0038111390394 -0.041511925143 -0.038173961728 -0.097470629544 0.013559068927 -0.0054781374982 0.00027381366222 
-0.055446012067 0.0043397379129 -0.074575409644 0.045021044101 -0.054197409043 0.0081550384509 -0.033956551189 0.011486223601 -0.060241590088 
-0.01546990786 -0.092974105751 -0.0073812351223 0.056719754222 -0.13065702464 0.021537708226 -0.013833160554 -0.21961715183 0.048548787862 
-0.022453529529 0.034964399094 0.059306026093 0.011812263129 0.039504526816 -0.010135191814 -0.026986666681 -0.014365696048 -0.051214305956 
-0.013210647358 -0.0035739335942 -0.0026508329529 -0.22404835136 0.0043866885901 -0.36941532058 0.010955047945 -0.33494913268 0.073852838628 
0.0073348535571 0.045482078536 0.13061527374 0.018646816423 0.031123805027 0.048003621061 0.02616030644 0.081709742723 -0.18160654247 
0.080661436163 -0.3892723791 0.044034708488 -0.0073793767256 -0.051117831527 0.15712855599 -0.068573881758 0.18353159267 -0.010499929561 
0.029884988862 0.0003898750934 -0.038713118022 0.009598981242 -0.04664049298 0.011806490033 0.033696239692 0.0013397363205 -0.027167865413 
0.01816781715 -0.17002794484 0.0076518671823 -0.24434646779 0.024649008001 -0.20565533853 0.040717822104 -0.0034524000439 0.037392303194 
-0.14508500139 0.059443062015 -0.31704195571 0.093357721515 -0.035334558704 0.072023572502 0.078907973423 0.05604308704 0.022160951156 
-0.057589660304 0.05111466973 0.0039374451084 0.09431995077 0.064826148549 0.13572883794 0.036686491314 0.14455235408 0.03862227846 
0.12692926398 0.071849560484 0.016280696387 0.051234584695 -0.064559883469 0.038022683737 -0.098451777157 0.023770037203 -0.1533770208 
0.022191009673 -0.20866589954 0.012880053735 -0.12004235188 0.023710093496 -0.099884341551 0.017865968821 -0.22923026623 0.0011405740444 
-0.2117155283 0.00090268128673 -0.073029342198 0.021110196508 -0.075301244245 0.0099193344232 -0.10853822172 -0.020305245368 -0.025659354073 
-0.012886546126 0.013243265622 -0.010630296215 -0.071571504941 0.0091380480356 0.002202261776 0.0028616241844 0.23730434684 -0.039100338255 
0.19897732211 -0.03160585145 -0.048479503223 0.056954872235 -0.038452870206 -0.010682020865 -0.024993975204 -0.074854089318 -0.0010156516102 
-0.030795882495 -0.066599049957 -0.1095131902 -0.075352166199 -0.061008193212 -0.014731409463 -0.022582054814 0.0095724262844 0.037779802141 
-0.015805505559 -0.0021621535538 0.026962610708 0.036755676515 0.056462281147 0.042804780491 -0.03107593003 -0.088548286425 -0.069601376314 
-0.012171986709 -0.017008704013 -0.0061986962956 0.0027167971578 0.0068417647081 -0.032241183172 -0.011918286772 -0.0094612963546 -0.0033567791845 
-0.018940356891 -0.0021972510578 0.071308087035 0.048055066794 0.12790587878 0.15352121131 0.10921017787 0.072811645895 -0.0090163099831 
-0.021185083196 -0.011835374885 0.002134912686 0.039284391735 0.034727776212 0.021084790241 0.02513924572 0.043987182229 0.028688426911 
-0.0095027894122 -0.025327473146 -0.06004840312 -0.052200426848 -0.026500903514 -0.020188794144 -0.048558672442 -0.085583858351 -0.065435639229 
-0.029842882149 -0.034888060114 -0.034140090498 0.013096274336 0.029559180703 0.0009757875723 0.00056065279366 -0.0046539187118 -0.0099170432441 
-0.030573591675 -0.042895941563 -0.01779021014 -0.047203210454 -0.066394594045 -0.031859591431 -0.025311049168 0.027399333167 0.071542782246 
0.037291066933 0.043792109307 0.010159581064 -0.010513573547 -0.018216698432 -0.028721457798 -0.029829764998 -0.065470194255 -0.061400332257 
-0.092287691559 -0.1127026312 -0.07422174029 -0.062669025521 -0.041351594426 -0.039272374321 -0.045562727486 -0.060240415645 -0.050059752649 
-0.030710247931 -0.045829131596 -0.036727043067 -0.00081725943047 -0.02175665102 -0.088409043808 -0.014836748061 -0.1073412493 -0.092277932135 
-0.065778748309 -0.051215141113 -0.093339099369 -0.084817627957 -0.091796842533 -0.026754956424 -0.023693130739 -0.0144894617 -0.00057902487311 
-0.016033458513 -0.01369192769 -0.024359762137 -0.033068868599 -0.038608637059 -0.049096207849 -0.10548814361 -0.10130544623 -0.0031647097617 
-0.018404509267 0.025758451601 0.023501789334 0.022271429605 0.016391696597 -0.0070451441963 -0.036216059782 -0.020435474197 0.0023065360196 
0.00014291676212 -0.0060528057615 0.051965447033 0.056813675135 0.13897948422 0.071771442275 0.064984908091 0.025658052332 0.048213088917 
-0.0010064790648 -0.032638790531 -0.024225446286 -0.018027241393 -0.029443843418 -0.038168743505 -0.06340856503 -0.066774860287 -0.06832070025 
-0.069736868893 -0.091791361517 -0.11445098239 -0.0074113706596 -0.071219678123 -0.023344194405 -0.055373764433 -0.012444276833 0.018129031719 
0.0032183233766 -0.029200338811 -0.064555124134 -0.036757193534 0.0038919205434 -0.0073014706582 -0.054623212018 -0.13519778506 -0.12186392807 
-0.063804561469 -0.05511954941 -0.040231056329 -0.026659054089 -0.017736625824 -0.018541559942 -0.027665055445 -0.037349285211 -0.051454726378 
-0.041924479418 -0.011085748195 0.0026706041862 0.0010899347677 -0.0039245656681 0.039767436247 0.038476027298 0.029287811972 0.042614255189 
0.041539421285 0.031347450062 0.0046004555891 -0.018238852004 -0.038343840364 -0.072416495115 -0.057133422588 -0.03319949915 -0.069333528849 
-0.053013791221 -0.06143451253 -0.09764817524 -0.07822183203 -0.075093091837 -0.045891458769 -0.017610717172 -0.0029369973489 0.0026888364452 
-0.0028116812785 0.0055119195728 -0.11537542934 -0.11776373905 0.050854575637 0.0053328837113 0.045153451111 0.074672511857 0.063619507758 
0.046860014196 0.04008692079 0.057805784848 0.03546025133 -0.017666728882 0.042226994635 0.010324168956 0.0047141946398 0.01431629808 
0.017302887837 -0.013922491529 -0.027946867359 0.079390092691 -0.12991177234 -0.10530547912 -0.014491679697 0.0043834297693 -0.032000188537 
-0.024400401126 -0.022264084313 -0.042457685834 -0.018176980983 0.008396116542 0.0033877414529 -0.0088260702978 -0.00067400629913 0.046307402966 
0.014619398936 -0.013946020946 -0.025334136603 -0.055681136535 -0.071415174533 -0.086601714485 -0.10423225136 -0.13197901248 -0.13104142254 
-0.15746322727 -0.17147788622 -0.10675603978 -0.093571313867 -0.056965631565 -0.091697993047 -0.009243395271 0.0095105764993 0.043956091448 
0.014345066941 0.028220841845 -0.016821866661 -0.039765228305 -0.014784042358 -0.066292451265 -0.10715538479 -0.12546696869 -0.11852624207 
-0.092973754609 -0.077441196791 -0.11050493301 -0.066913265403 -0.1257307484 -0.103428926 -0.063266974246 -0.047722310795 -0.030163724509 
-0.011759376156 -0.011588323329 -0.061293248967 -0.060116727312 -0.01010485772 0.0071718616577 0.011114739593 0.0052045332258 -0.016908337366 
-0.062319661811 -0.062036122198 -0.066594992971 -0.042228236825 -0.017686552892 -0.033198950442 -0.039089170671 -0.032949599637 -0.016813350889 
0.013441524958 -0.044117196604 0.0031812778384 -0.055425500565 -0.057916912929 -0.014607249901 0.0024343444068 0.011301591788 0.013105961792 
0.019176979959 0.042799009922 0.011865295121 -0.0085377472314 -0.041631420956 -0.08755507275 -0.10610376572 -0.081674494397 -0.086453361274 
-0.058849308124 -0.066998501329 -0.087186453002 -0.054097208218 -0.087258373526 -0.097449967901 -0.069025816538 -0.048429974745 -0.023546994819 
-0.0031726444654 0.028573919277 0.032931768997 -0.0015201015691 0.0039876393359 -0.028421380739 -0.071633167353 -0.085969731165 -0.085491384042 
-0.11278848293 -0.11383249908 -0.0075515453021 -0.048484448649 0.0061765132244 0.0093035423382 0.01658822851 0.12158545388 -0.051122036855 
-0.082896438762 -0.098207195427 -0.091901001401 -0.083853981295 -0.086074403213 -0.099029629107 -0.067857524045 -0.027590328642 -0.021977413257 
-0.0083056236675 0.0054194466185 0.013634569745 0.01374221373 0.044220717622 0.049787474643 0.032781809431 0.03560628607 -0.0077127363762 
0.0049068752729 -0.011696253755 -0.020409955603 -0.036665479326 -0.045194154778 -0.038949351591 -0.052412209741 -0.10693978296 -0.15947627392 
-0.086683209102 -0.1192211964 -0.06798560992 -0.049869584379 -0.013005475351 -0.022886999792 -0.026403996027 -0.0066771061502 -0.022203266617 
-0.0042871908175 0.015757341796 0.048739992654 0.068582952688 0.053484047346 0.05520647171 0.060738587289 0.071069237131 0.097816248622 
0.12174127407 0.11476013316 0.059460893415 0.055261050751 0.0067074865301 -0.035621936107 -0.012152457835 -0.075074661145 -0.11294282055 
-0.142943869 -0.13904769639 -0.15987805995 -0.16157224618 -0.1528386842 -0.096440097052 -0.049481180504 -0.067485298941 -0.077051183217 
-0.12242477703 -0.16068510489 -0.053940204143 -0.059362666271 0.0066336983172 -0.019552637064 -0.077522072107 -0.089746623639 -0.072732918371 
-0.066027995168 -0.035047750115 -0.05501883649 -0.074916151236 -0.11783954127 -0.11869600382 -0.12858469669 -0.10057123447 -0.089547275616 
-0.11384182921 -0.10113634476 -0.065225813255 0.01506859565 0.031157771118 -0.020721571167 -0.051027272944 -0.086907158218 -0.075638465038 
-0.042901954074 -0.033500919193 -0.045749604064 -0.046292912704 -0.036559324244 -0.039059149224 -0.044301081337 -0.056005334317 -0.068663072575 
-0.040262244375 -0.065897273005 -0.033006319456 -0.025967760729 -0.037572149707 -0.0081547319991 0.0088514766864 -0.030446888522 -0.041203501369 
-0.061027013627 -0.071343706181 -0.08874764665 -0.10295298456 -0.10445741236 -0.089322864024 -0.078252137347 -0.06139995498 -0.07187955046 
-0.073129812967 -0.074743872412 -0.060504176029 -0.079925005327 -0.066620226805 -0.072256465698 -0.042710062498 -0.059255539172 -0.070565290987 
-0.072140665312 -0.027754333841 -0.08234673022 -0.061054223417 -0.070987444227 -0.059726563868 -0.070606712496 -0.079175308225 -0.071662087697 
-0.10844453542 -0.14039873445 -0.11824506126 -0.096498956326 -0.10258238052 -0.10509972549 -0.078099540508 -0.080399337232 -0.095293552204 
-0.063937993489 -0.013182931192 0.012101299932 -0.042722549241 -0.10031032689 -0.080550532344 -0.053910252903 -0.048017506431 -0.049219480746 
-0.043838631609 -0.046284202775 -0.066550346222 -0.08750483601 -0.12779106255 -0.10465914792 -0.14167615089 -0.14205636968 -0.10768817031 
-0.11168438371 -0.055546728361 -0.041969297767 -0.02058864073 -0.0087126771021 -0.015365848239 -0.0015229105489 -0.034879230158 -0.03595470001 
-0.020504442146 -0.10715238143 -0.13110890557 -0.1080447669 -0.10468158991 -0.10850510882 -0.10523790708 -0.096048984093 -0.057605824952 
-0.051359991731 -0.025984550892 -0.096464204628 -0.12130817377 -0.078616282284 -0.072083052504 -0.079357433676 -0.080848411622 -0.050964747617 
-0.059456850766 -0.057862979608 -0.056774217334 -0.038512158271 -0.022322069436 -0.0028458231257 0.022412839562 0.011292694181 -0.029253639446 
-0.023494604503 -0.01810714468 -0.0062052765723 0.0085337042561 -0.014101381095 -0.036297598108 -0.06994096798 -0.12326844158 -0.099525184969 
-0.049456910188 -0.053673958669 -0.087921578987 -0.087917113677 -0.073652102054 -0.066413081803 -0.064355272043 -0.067095741695 -0.085587590649 
-0.074158811421 -0.03857066912 -0.0068135374623 0.032009883922 0.06072807258 0.054205104523 0.077115177508 0.059544293457 0.041940918142 
0.081663521361 0.095413553492 0.082071504002 0.042107767719 0.021713268785 -0.012824648003 -0.071494460563 -0.043828053545 -0.074259602656 
-0.0014118541144 0.014424603995 -0.0062928905092 -0.041124703331 -0.017717629426 -0.06277180119 -0.098210881099 -0.082331097266 -0.061951763625 
-0.031130711939 -0.0049804631517 0.018164303809 -0.083655845339 -0.093463001337 -0.092196706126 -0.16344209371 -0.10562267617 -0.17920765367 
-0.12375147885 -0.11698779401 -0.11553205462 -0.13364007619 -0.086336569189 -0.043035432822 -0.073005645299 -0.11404769254 -0.12809885593 
-0.13343172093 -0.11999398415 -0.073473529353 0.014056253387 0.015803957887 -0.037485736844 0.00057672817839 -0.04406850866 -0.077354898902 
-0.047181017127 -0.040167778925 -0.089286342516 -0.12394242912 -0.12180395105 -0.12389417205 -0.11816436518 -0.1093130435 -0.096888667311 
-0.096156889369 -0.082551864832 -0.089597053064 -0.072163666443 -0.085511040106 -0.092247623103 -0.086638909479 -0.088457935941 -0.080451468028 
-0.075477207272 -0.055206911634 -0.0091857641994 0.03120780995 0.0053668542065 -0.016388145198 -0.065433899366 -0.085514910435 -0.07848554695 
-0.094329150842 -0.065166268067 -0.027931016803 -0.025251339411 -0.031887218586 -0.064968896998 -0.094798616763 -0.037316852661 -0.080322379569 
-0.098566075272 -0.1051085602 -0.079912631018 -0.07163583777 -0.061776682876 -0.058953340125 -0.053575986446 -0.04951429297 -0.039068692491 
-0.030626929388 -0.042029431738 -0.039496351964 -0.00843581084 -0.040235354818 -0.053669552839 -0.066798080639 -0.057400859963 -0.075577347212 
-0.13885136625 -0.13351027395 -0.076163761459 -0.076937516917 -0.10881053905 -0.12775653491 -0.11647477123 -0.12076443683 -0.12956887682 
-0.11019109491 -0.079246660353 -0.064073803203 -0.043912211506 -0.028822855415 -0.0032126502723 0.030244378447 0.014233778411 -0.0073068689166 
0.01878382806 0.032883744055 0.033904031211 -0.011146003354 -0.027011167535 -0.039745796074 -0.061335086436 -0.10159923394 -0.065155818706 
-0.05671035915 -0.099690638704 -0.071032406163 -0.074473554671 -0.068868828686 -0.035940009837 -0.011550712372 -0.033180023372 0.0023223032736 
0.0010203036745 0.023007676336 -0.00065437079069 -0.0075952460733 -0.027091186995 -0.088629547904 -0.064012347651 -0.042663949574 -0.039444957333 
-0.062395770251 -0.1158826234 -0.077807651448 -0.1483097431 -0.025891210183 -0.012522317877 0.023621086398 0.02510265603 0.025886201589 
0.11115918601 0.015439666755 0.0069069200392 -0.067994103149 -0.16840142234 -0.14244668063 -0.091475267075 -0.08792439331 -0.092637058105 
-0.11813062596 -0.1164336018 -0.090017757021 -0.096943602002 -0.14055315647 -0.16003740572 -0.07578383833 -0.064675686756 -0.064598319192 
-0.064416754323 -0.055106623129 -0.040149241806 -0.028667034121 -0.044113141306 -0.060379962204 -0.066510923688 -0.070979715713 -0.0099613465473 
-0.021072839774 -0.0068135595619 -0.068889266872 -0.064708558979 -0.10908656976 -0.12802579231 -0.094254795066 -0.097626986791 -0.10924021548 
-0.11929428492 -0.12955826864 -0.1325297473 -0.091157714801 -0.10788879594 -0.088204135022 -0.085799211839 -0.062332300475 -0.037360704688 
0.012044870431 0.02563327171 -0.0010222101812 -0.025772712902 0.0011659023656 -0.005732685203 -0.0079108869441 -0.023866216063 -0.050141878412 
-0.0839616125 -0.10425453807 -0.10324858198 -0.12914855197 -0.13125560293 -0.1277293972 -0.075039964246 -0.048922802436 -0.11366706152 
-0.071202513471 -0.029644691043 -0.021233894439 -0.015781861307 0.00051420365247 -0.041118114248 -0.13189875317 -0.14077797501 -0.1364081141 
-0.11145228214 -0.09807911729 -0.10989543075 -0.12578752236 -0.082555743652 -0.10838783942 -0.022854182621 0.0023356997529 0.0015359753837 
-0.020840108071 -0.071227127579 -0.11443995935 -0.13060613254 -0.12870858947 -0.085958761333 -0.055827858727 -0.052780116567 -0.058897166299 
-0.052003794989 -0.054595635835 -0.071489169699 -0.087899424476 -0.092759123387 -0.08908523662 -0.12110748537 -0.078824859902 -0.11798508225 
-0.049708108294 -0.028083662362 -0.04104552855 -0.021286758826 -0.12183244669 -0.099973670587 -0.10075847612 -0.065757728606 -0.055657999382 
-0.04563203441 -0.059575451483 -0.044935087927 0.020066088317 0.043495940149 0.027177192923 -0.036792087171 -0.023718810517 -0.0060464319279 
-0.0071669279258 -0.010485986431 -0.078796843194 -0.12706430949 -0.12630589043 -0.071422733108 -0.063911726161 -0.051781572879 -0.055552591108 
-0.050981884393 -0.097985005583 -0.085857232532 -0.076935153683 -0.094828445267 -0.10038313234 -0.011232794649 -0.055967879601 -0.092350541586 
-0.14936266364 -0.0056785726538 -0.023079528379 -0.062746706956 -0.10024990851 -0.12638166576 -0.12360535196 -0.080520041842 -0.06637355558 
-0.087970639938 -0.090280105107 -0.076502960501 -0.072443782515 -0.11691022238 -0.092475222013 -0.071323868233 -0.086400797448 -0.042859771824 
-0.15636820238 -0.13754426335 -0.12719262512 -0.12613140573 -0.097997480603 -0.11127686034 -0.12281569822 -0.051649242296 -0.039367156352 
-0.053748206333 -0.071171313045 -0.083256672882 -0.12205013992 -0.13604359662 -0.14421360331 -0.1088433566 -0.083862347571 -0.099957768874 
-0.1143205578 -0.12263079777 -0.12719875673 -0.12737735831 -0.12890024563 -0.11360396417 -0.12460381626 -0.11329578311 -0.087258290883 
-0.06992474288 -0.075371929033 -0.086026547028 -0.12309598541 -0.068813808422 -0.12034373543 -0.12760391635 -0.10835374675 -0.066707563783 
-0.057306456314 -0.095097641715 -0.16016698753 -0.12550638012 -0.087817175601 -0.081017876366 -0.14062047169 
Displacement_Root 3 1114 double
-0.0012168884277 -0.15603637695 0.24750518799 -0.0012168884277 -0.15603637695 0.24750518799 -0.0012168884277 -0.15603637695 0.24750518799 
-0.0012168884277 -0.15603637695 0.24750518799 -0.0012168884277 -0.15603637695 0.24750518799 -0.0012168884277 -0.15603637695 0.24750518799 
-0.0012168884277 -0.15603637695 0.24750518799 -0.0012168884277 -0.15603637695 0.24750518799 -0.0012168884277 -0.15603637695 0.24750518799 
-0.0012168884277 -0.15603637695 0.24750518799 -0.0012168884277 -0.15603637695 0.24750518799 -0.0012168884277 -0.15603637695 0.24750518799 
-0.0012168884277 -0.15603637695 0.24750518799 -0.0012168884277 -0.15603637695 0.24750518799 -0.0012168884277 -0.15603637695 0.24750518799 
-0.0012168884277 -0.15603637695 0.24750518799 -0.0012168884277 -0.15603637695 0.24750518799 -0.0012168884277 -0.15603637695 0.24750518799 
-0.0012168884277 -0.15603637695 0.24750518799 -0.0012168884277 -0.15603637695 0.24750518799 -0.0012168884277 -0.15603637695 0.24750518799 
-0.0012168884277 -0.15603637695 0.24750518799 -0.0012168884277 -0.15603637695 0.24750518799 -0.0012168884277 -0.15603637695 0.24750518799 
-0.0012168884277 -0.15603637695 0.24750518799 -0.0012168884277 -0.15603637695 0.24750518799 -0.0012168884277 -0.15603637695 0.24750518799 
-0.0012168884277 -0.15603637695 0.24750518799 -0.0012168884277 -0.15603637695 0.24750518799 -0.0012168884277 -0.15603637695 0.24750518799 
-0.0012168884277 -0.15603637695 0.24750518799 -0.0012168884277 -0.15603637695 0.24750518799 -0.0012168884277 -0.15603637695 0.24750518799 
-0.0012168884277 -0.15603637695 0.24750518799 -0.0012168884277 -0.15603637695 0.24750518799 -0.0012168884277 -0.15603637695 0.24750518799 
-0.0012168884277 -0.15603637695 0.24750518799 -0.0012168884277 -0.15603637695 0.24750518799 -0.0012168884277 -0.15603637695 0.24750518799 
-0.0012168884277 -0.15603637695 0.24750518799 -0.0012168884277 -0.15603637695 0.24750518799 -0.0012168884277 -0.15603637695 0.24750518799 
-0.0012168884277 -0.15603637695 0.24750518799 -0.0012168884277 -0.15603637695 0.24750518799 -0.0012168884277 -0.15603637695 0.24750518799 
-0.0012168884277 -0.15603637695 0.24750518799 -0.0012168884277 -0.15603637695 0.24750518799 -0.0012168884277 -0.15603637695 0.24750518799 
-0.0012168884277 -0.15603637695 0.24750518799 -0.0012168884277 -0.15603637695 0.24750518799 -0.0012168884277 -0.15603637695 0.24750518799 
-0.0012168884277 -0.15603637695 0.24750518799 -0.0012168884277 -0.15603637695 0.24750518799 -0.0012168884277 -0.15603637695 0.24750518799 
-0.0012168884277 -0.15603637695 0.24750518799 -0.0012168884277 -0.15603637695 0.24750518799 -0.0012168884277 -0.15603637695 0.24750518799 
-0.0012168884277 -0.15603637695 0.24750518799 -0.0012168884277 -0.15603637695 0.24750518799 -0.0012168884277 -0.15603637695 0.24750518799 
-0.0012168884277 -0.15603637695 0.24750518799 -0.0012168884277 -0.15603637695 0.24750518799 -0.0012168884277 -0.15603637695 0.24750518799 
-0.0012168884277 -0.15603637695 0.24750518799 -0.0012168884277 -0.15603637695 0.24750518799 -0.0012168884277 -0.15603637695 0.24750518799 
-0.0012168884277 -0.15603637695 0.24750518799 -0.0012168884277 -0.15603637695 0.24750518799 -0.0012168884277 -0.15603637695 0.24750518799 
-0.0012168884277 -0.15603637695 0.24750518799 -0.0012168884277 -0.15603637695 0.24750518799 -0.0012168884277 -0.15603637695 0.24750518799 
-0.0012168884277 -0.15603637695 0.24750518799 -0.0012168884277 -0.15603637695 0.24750518799 -0.0012168884277 -0.15603637695 0.24750518799 
-0.0012168884277 -0.15603637695 0.24750518799 -0.0012168884277 -0.15603637695 0.24750518799 -0.0012168884277 -0.15603637695 0.24750518799 
-0.0012168884277 -0.15603637695 0.24750518799 -0.0012168884277 -0.15603637695 0.24750518799 -0.0012168884277 -0.15603637695 0.24750518799 
-0.0012168884277 -0.15603637695 0.24750518799 -0.0012168884277 -0.15603637695 0.24750518799 -0.0012168884277 -0.15603637695 0.24750518799 
-0.0012168884277 -0.15603637695 0.24750518799 -0.0012168884277 -0.15603637695 0.24750518799 -0.0012168884277 -0.15603637695 0.24750518799 
-0.0012168884277 -0.15603637695 0.24750518799 -0.0012168884277 -0.15603637695 0.24750518799 -0.0012168884277 -0.15603637695 0.24750518799 
-0.0012168884277 -0.15603637695 0.24750518799 -0.0012168884277 -0.15603637695 0.24750518799 -0.0012168884277 -0.15603637695 0.24750518799 
-0.0012168884277 -0.15603637695 0.24750518799 -0.0012168884277 -0.15603637695 0.24750518799 -0.0012168884277 -0.15603637695 0.24750518799 
-0.0012168884277 -0.15603637695 0.24750518799 -0.0012168884277 -0.15603637695 0.24750518799 -0.0012168884277 -0.15603637695 0.24750518799 
-0.0012168884277 -0.15603637695 0.24750518799 -0.0012168884277 -0.15603637695 0.24750518799 -0.0012168884277 -0.15603637695 0.24750518799 
-0.0012168884277 -0.15603637695 0.24750518799 -0.0012168884277 -0.15603637695 0.24750518799 -0.0012168884277 -0.15603637695 0.24750518799 
-0.0012168884277 -0.15603637695 0.24750518799 -0.0012168884277 -0.15603637695 0.24750518799 -0.0012168884277 -0.15603637695 0.24750518799 
-0.0012168884277 -0.15603637695 0.24750518799 -0.0012168884277 -0.15603637695 0.24750518799 -0.0012168884277 -0.15603637695 0.24750518799 
-0.0012168884277 -0.15603637695 0.24750518799 -0.0012168884277 -0.15603637695 0.24750518799 -0.0012168884277 -0.15603637695 0.24750518799 
-0.0012168884277 -0.15603637695 0.24750518799 -0.0012168884277 -0.15603637695 0.24750518799 -0.0012168884277 -0.15603637695 0.24750518799 
-0.0012168884277 -0.15603637695 0.24750518799 -0.0012168884277 -0.15603637695 0.24750518799 -0.0012168884277 -0.15603637695 0.24750518799 
-0.0012168884277 -0.15603637695 0.24750518799 -0.0012168884277 -0.15603637695 0.24750518799 -0.0012168884277 -0.15603637695 0.24750518799 
-0.0012168884277 -0.15603637695 0.24750518799 -0.0012168884277 -0.15603637695 0.24750518799 -0.0012168884277 -0.15603637695 0.24750518799 
-0.0012168884277 -0.15603637695 0.24750518799 -0.0012168884277 -0.15603637695 0.24750518799 -0.0012168884277 -0.15603637695 0.24750518799 
-0.0012168884277 -0.15603637695 0.24750518799 -0.0012168884277 -0.15603637695 0.24750518799 -0.0012168884277 -0.15603637695 0.24750518799 
-0.0012168884277 -0.15603637695 0.24750518799 -0.0012168884277 -0.15603637695 0.24750518799 -0.0012168884277 -0.15603637695 0.24750518799 
-0.0012168884277 -0.15603637695 0.24750518799 -0.0012168884277 -0.15603637695 0.24750518799 -0.0012168884277 -0.15603637695 0.24750518799 
-0.0012168884277 -0.15603637695 0.24750518799 -0.0012168884277 -0.15603637695 0.24750518799 -0.0012168884277 -0.15603637695 0.24750518799 
-0.0012168884277 -0.15603637695 0.24750518799 -0.0012168884277 -0.15603637695 0.24750518799 -0.0012168884277 -0.15603637695 0.24750518799 
-0.0012168884277 -0.15603637695 0.24750518799 -0.0012168884277 -0.15603637695 0.24750518799 -0.0012168884277 -0.15603637695 0.24750518799 
-0.0012168884277 -0.15603637695 0.24750518799 -0.0012168884277 -0.15603637695 0.24750518799 -0.0012168884277 -0.15603637695 0.24750518799 
-0.0012168884277 -0.15603637695 0.24750518799 -0.0012168884277 -0.15603637695 0.24750518799 -0.0012168884277 -0.15603637695 0.24750518799 
-0.0012168884277 -0.15603637695 0.24750518799 -0.0012168884277 -0.15603637695 0.24750518799 -0.0012168884277 -0.15603637695 0.24750518799 
-0.0012168884277 -0.15603637695 0.24750518799 -0.0012168884277 -0.15603637695 0.24750518799 -0.0012168884277 -0.15603637695 0.24750518799 
-0.0012168884277 -0.15603637695 0.24750518799 -0.0012168884277 -0.15603637695 0.24750518799 -0.0012168884277 -0.15603637695 0.24750518799 
-0.0012168884277 -0.15603637695 0.24750518799 -0.0012168884277 -0.15603637695 0.24750518799 -0.0012168884277 -0.15603637695 0.24750518799 
-0.0012168884277 -0.15603637695 0.24750518799 -0.0012168884277 -0.15603637695 0.24750518799 -0.0012168884277 -0.15603637695 0.24750518799 
-0.0012168884277 -0.15603637695 0.24750518799 -0.0012168884277 -0.15603637695 0.24750518799 -0.0012168884277 -0.15603637695 0.24750518799 
-0.0012168884277 -0.15603637695 0.24750518799 -0.0012168884277 -0.15603637695 0.24750518799 -0.0012168884277 -0.15603637695 0.24750518799 
-0.0012168884277 -0.15603637695 0.24750518799 -0.0012168884277 -0.15603637695 0.24750518799 -0.0012168884277 -0.15603637695 0.24750518799 
-0.0012168884277 -0.15603637695 0.24750518799 -0.0012168884277 -0.15603637695 0.24750518799 -0.0012168884277 -0.15603637695 0.24750518799 
-0.0012168884277 -0.15603637695 0.24750518799 -0.0012168884277 -0.15603637695 0.24750518799 -0.0012168884277 -0.15603637695 0.24750518799 
-0.0012168884277 -0.15603637695 0.24750518799 -0.0012168884277 -0.15603637695 0.24750518799 -0.0012168884277 -0.15603637695 0.24750518799 
-0.0012168884277 -0.15603637695 0.24750518799 -0.0012168884277 -0.15603637695 0.24750518799 -0.0012168884277 -0.15603637695 0.24750518799 
-0.0012168884277 -0.15603637695 0.24750518799 -0.0012168884277 -0.15603637695 0.24750518799 -0.0012168884277 -0.15603637695 0.24750518799 
-0.0012168884277 -0.15603637695 0.24750518799 -0.0012168884277 -0.15603637695 0.24750518799 -0.0012168884277 -0.15603637695 0.24750518799 
-0.0012168884277 -0.15603637695 0.24750518799 -0.0012168884277 -0.15603637695 0.24750518799 -0.0012168884277 -0.15603637695 0.24750518799 
-0.0012168884277 -0.15603637695 0.24750518799 -0.0012168884277 -0.15603637695 0.24750518799 -0.0012168884277 -0.15603637695 0.24750518799 
-0.0012168884277 -0.15603637695 0.24750518799 -0.0012168884277 -0.15603637695 0.24750518799 -0.0012168884277 -0.15603637695 0.24750518799 
-0.0012168884277 -0.15603637695 0.24750518799 -0.0012168884277 -0.15603637695 0.24750518799 -0.0012168884277 -0.15603637695 0.24750518799 
-0.0012168884277 -0.15603637695 0.24750518799 -0.0012168884277 -0.15603637695 0.24750518799 -0.0012168884277 -0.15603637695 0.24750518799 
-0.0012168884277 -0.15603637695 0.24750518799 -0.0012168884277 -0.15603637695 0.24750518799 -0.0012168884277 -0.15603637695 0.24750518799 
-0.0012168884277 -0.15603637695 0.24750518799 -0.0012168884277 -0.15603637695 0.24750518799 -0.0012168884277 -0.15603637695 0.24750518799 
-0.0012168884277 -0.15603637695 0.24750518799 -0.0012168884277 -0.15603637695 0.24750518799 -0.0012168884277 -0.15603637695 0.24750518799 
-0.0012168884277 -0.15603637695 0.24750518799 -0.0012168884277 -0.15603637695 0.24750518799 -0.0012168884277 -0.15603637695 0.24750518799 
-0.0012168884277 -0.15603637695 0.24750518799 -0.0012168884277 -0.15603637695 0.24750518799 -0.0012168884277 -0.15603637695 0.24750518799 
-0.0012168884277 -0.15603637695 0.24750518799 -0.0012168884277 -0.15603637695 0.24750518799 -0.0012168884277 -0.15603637695 0.24750518799 
-0.0012168884277 -0.15603637695 0.24750518799 -0.0012168884277 -0.15603637695 0.24750518799 -0.0012168884277 -0.15603637695 0.24750518799 
-0.0012168884277 -0.15603637695 0.24750518799 -0.0012168884277 -0.15603637695 0.24750518799 -0.0012168884277 -0.15603637695 0.24750518799 
-0.0012168884277 -0.15603637695 0.24750518799 -0.0012168884277 -0.15603637695 0.24750518799 -0.0012168884277 -0.15603637695 0.24750518799 
-0.0012168884277 -0.15603637695 0.24750518799 -0.0012168884277 -0.15603637695 0.24750518799 -0.0012168884277 -0.15603637695 0.24750518799 
-0.0012168884277 -0.15603637695 0.24750518799 -0.0012168884277 -0.15603637695 0.24750518799 -0.0012168884277 -0.15603637695 0.24750518799 
-0.0012168884277 -0.15603637695 0.24750518799 -0.0012168884277 -0.15603637695 0.24750518799 -0.0012168884277 -0.15603637695 0.24750518799 
-0.0012168884277 -0.15603637695 0.24750518799 -0.0012168884277 -0.15603637695 0.24750518799 -0.0012168884277 -0.15603637695 0.24750518799 
-0.0012168884277 -0.15603637695 0.24750518799 -0.0012168884277 -0.15603637695 0.24750518799 -0.0012168884277 -0.15603637695 0.24750518799 
-0.0012168884277 -0.15603637695 0.24750518799 -0.0012168884277 -0.15603637695 0.24750518799 -0.0012168884277 -0.15603637695 0.24750518799 
-0.0012168884277 -0.15603637695 0.24750518799 -0.0012168884277 -0.15603637695 0.24750518799 -0.0012168884277 -0.15603637695 0.24750518799 
-0.0012168884277 -0.15603637695 0.24750518799 -0.0012168884277 -0.15603637695 0.24750518799 -0.0012168884277 -0.15603637695 0.24750518799 
-0.0012168884277 -0.15603637695 0.24750518799 -0.0012168884277 -0.15603637695 0.24750518799 -0.0012168884277 -0.15603637695 0.24750518799 
-0.0012168884277 -0.15603637695 0.24750518799 -0.0012168884277 -0.15603637695 0.24750518799 -0.0012168884277 -0.15603637695 0.24750518799 
-0.0012168884277 -0.15603637695 0.24750518799 -0.0012168884277 -0.15603637695 0.24750518799 -0.0012168884277 -0.15603637695 0.24750518799 
-0.0012168884277 -0.15603637695 0.24750518799 -0.0012168884277 -0.15603637695 0.24750518799 -0.0012168884277 -0.15603637695 0.24750518799 
-0.0012168884277 -0.15603637695 0.24750518799 -0.0012168884277 -0.15603637695 0.24750518799 -0.0012168884277 -0.15603637695 0.24750518799 
-0.0012168884277 -0.15603637695 0.24750518799 -0.0012168884277 -0.15603637695 0.24750518799 -0.0012168884277 -0.15603637695 0.24750518799 
-0.0012168884277 -0.15603637695 0.24750518799 -0.0012168884277 -0.15603637695 0.24750518799 -0.0012168884277 -0.15603637695 0.24750518799 
-0.0012168884277 -0.15603637695 0.24750518799 -0.0012168884277 -0.15603637695 0.24750518799 -0.0012168884277 -0.15603637695 0.24750518799 
-0.0012168884277 -0.15603637695 0.24750518799 -0.0012168884277 -0.15603637695 0.24750518799 -0.0012168884277 -0.15603637695 0.24750518799 
-0.0012168884277 -0.15603637695 0.24750518799 -0.0012168884277 -0.15603637695 0.24750518799 -0.0012168884277 -0.15603637695 0.24750518799 
-0.0012168884277 -0.15603637695 0.24750518799 -0.0012168884277 -0.15603637695 0.24750518799 -0.0012168884277 -0.15603637695 0.24750518799 
-0.0012168884277 -0.15603637695 0.24750518799 -0.0012168884277 -0.15603637695 0.24750518799 -0.0012168884277 -0.15603637695 0.24750518799 
-0.0012168884277 -0.15603637695 0.24750518799 -0.0012168884277 -0.15603637695 0.24750518799 -0.0012168884277 -0.15603637695 0.24750518799 
-0.0012168884277 -0.15603637695 0.24750518799 -0.0012168884277 -0.15603637695 0.24750518799 -0.0012168884277 -0.15603637695 0.24750518799 
-0.0012168884277 -0.15603637695 0.24750518799 -0.0012168884277 -0.15603637695 0.24750518799 -0.0012168884277 -0.15603637695 0.24750518799 
-0.0012168884277 -0.15603637695 0.24750518799 -0.0012168884277 -0.15603637695 0.24750518799 -0.0012168884277 -0.15603637695 0.24750518799 
-0.0012168884277 -0.15603637695 0.24750518799 -0.0012168884277 -0.15603637695 0.24750518799 -0.0012168884277 -0.15603637695 0.24750518799 
-0.0012168884277 -0.15603637695 0.24750518799 -0.0012168884277 -0.15603637695 0.24750518799 -0.0012168884277 -0.15603637695 0.24750518799 
-0.0012168884277 -0.15603637695 0.24750518799 -0.0012168884277 -0.15603637695 0.24750518799 -0.0012168884277 -0.15603637695 0.24750518799 
-0.0012168884277 -0.15603637695 0.24750518799 -0.0012168884277 -0.15603637695 0.24750518799 -0.0012168884277 -0.15603637695 0.24750518799 
-0.0012168884277 -0.15603637695 0.24750518799 -0.0012168884277 -0.15603637695 0.24750518799 -0.0012168884277 -0.15603637695 0.24750518799 
-0.0012168884277 -0.15603637695 0.24750518799 -0.0012168884277 -0.15603637695 0.24750518799 -0.0012168884277 -0.15603637695 0.24750518799 
-0.0012168884277 -0.15603637695 0.24750518799 -0.0012168884277 -0.15603637695 0.24750518799 -0.0012168884277 -0.15603637695 0.24750518799 
-0.0012168884277 -0.15603637695 0.24750518799 -0.0012168884277 -0.15603637695 0.24750518799 -0.0012168884277 -0.15603637695 0.24750518799 
-0.0012168884277 -0.15603637695 0.24750518799 -0.0012168884277 -0.15603637695 0.24750518799 -0.0012168884277 -0.15603637695 0.24750518799 
-0.0012168884277 -0.15603637695 0.24750518799 -0.0012168884277 -0.15603637695 0.24750518799 -0.0012168884277 -0.15603637695 0.24750518799 
-0.0012168884277 -0.15603637695 0.24750518799 -0.0012168884277 -0.15603637695 0.24750518799 -0.0012168884277 -0.15603637695 0.24750518799 
-0.0012168884277 -0.15603637695 0.24750518799 -0.0012168884277 -0.15603637695 0.24750518799 -0.0012168884277 -0.15603637695 0.24750518799 
-0.0012168884277 -0.15603637695 0.24750518799 -0.0012168884277 -0.15603637695 0.24750518799 -0.0012168884277 -0.15603637695 0.24750518799 
-0.0012168884277 -0.15603637695 0.24750518799 -0.0012168884277 -0.15603637695 0.24750518799 -0.0012168884277 -0.15603637695 0.24750518799 
-0.0012168884277 -0.15603637695 0.24750518799 -0.0012168884277 -0.15603637695 0.24750518799 -0.0012168884277 -0.15603637695 0.24750518799 
-0.0012168884277 -0.15603637695 0.24750518799 -0.0012168884277 -0.15603637695 0.24750518799 -0.0012168884277 -0.15603637695 0.24750518799 
-0.0012168884277 -0.15603637695 0.24750518799 -0.0012168884277 -0.15603637695 0.24750518799 -0.0012168884277 -0.15603637695 0.24750518799 
-0.0012168884277 -0.15603637695 0.24750518799 -0.0012168884277 -0.15603637695 0.24750518799 -0.0012168884277 -0.15603637695 0.24750518799 
-0.0012168884277 -0.15603637695 0.24750518799 -0.0012168884277 -0.15603637695 0.24750518799 -0.0012168884277 -0.15603637695 0.24750518799 
-0.0012168884277 -0.15603637695 0.24750518799 -0.0012168884277 -0.15603637695 0.24750518799 -0.0012168884277 -0.15603637695 0.24750518799 
-0.0012168884277 -0.15603637695 0.24750518799 -0.0012168884277 -0.15603637695 0.24750518799 -0.0012168884277 -0.15603637695 0.24750518799 
-0.0012168884277 -0.15603637695 0.24750518799 -0.0012168884277 -0.15603637695 0.24750518799 -0.0012168884277 -0.15603637695 0.24750518799 
-0.0012168884277 -0.15603637695 0.24750518799 -0.0012168884277 -0.15603637695 0.24750518799 -0.0012168884277 -0.15603637695 0.24750518799 
-0.0012168884277 -0.15603637695 0.24750518799 -0.0012168884277 -0.15603637695 0.24750518799 -0.0012168884277 -0.15603637695 0.24750518799 
-0.0012168884277 -0.15603637695 0.24750518799 -0.0012168884277 -0.15603637695 0.24750518799 -0.0012168884277 -0.15603637695 0.24750518799 
-0.0012168884277 -0.15603637695 0.24750518799 -0.0012168884277 -0.15603637695 0.24750518799 -0.0012168884277 -0.15603637695 0.24750518799 
-0.0012168884277 -0.15603637695 0.24750518799 -0.0012168884277 -0.15603637695 0.24750518799 -0.0012168884277 -0.15603637695 0.24750518799 
-0.0012168884277 -0.15603637695 0.24750518799 -0.0012168884277 -0.15603637695 0.24750518799 -0.0012168884277 -0.15603637695 0.24750518799 
-0.0012168884277 -0.15603637695 0.24750518799 -0.0012168884277 -0.15603637695 0.24750518799 -0.0012168884277 -0.15603637695 0.24750518799 
-0.0012168884277 -0.15603637695 0.24750518799 -0.0012168884277 -0.15603637695 0.24750518799 -0.0012168884277 -0.15603637695 0.24750518799 
-0.0012168884277 -0.15603637695 0.24750518799 -0.0012168884277 -0.15603637695 0.24750518799 -0.0012168884277 -0.15603637695 0.24750518799 
-0.0012168884277 -0.15603637695 0.24750518799 -0.0012168884277 -0.15603637695 0.24750518799 -0.0012168884277 -0.15603637695 0.24750518799 
-0.0012168884277 -0.15603637695 0.24750518799 -0.0012168884277 -0.15603637695 0.24750518799 -0.0012168884277 -0.15603637695 0.24750518799 
-0.0012168884277 -0.15603637695 0.24750518799 -0.0012168884277 -0.15603637695 0.24750518799 -0.0012168884277 -0.15603637695 0.24750518799 
-0.0012168884277 -0.15603637695 0.24750518799 -0.0012168884277 -0.15603637695 0.24750518799 -0.0012168884277 -0.15603637695 0.24750518799 
-0.0012168884277 -0.15603637695 0.24750518799 -0.0012168884277 -0.15603637695 0.24750518799 -0.0012168884277 -0.15603637695 0.24750518799 
-0.0012168884277 -0.15603637695 0.24750518799 -0.0012168884277 -0.15603637695 0.24750518799 -0.0012168884277 -0.15603637695 0.24750518799 
-0.0012168884277 -0.15603637695 0.24750518799 -0.0012168884277 -0.15603637695 0.24750518799 -0.0012168884277 -0.15603637695 0.24750518799 
-0.0012168884277 -0.15603637695 0.24750518799 -0.0012168884277 -0.15603637695 0.24750518799 -0.0012168884277 -0.15603637695 0.24750518799 
-0.0012168884277 -0.15603637695 0.24750518799 -0.0012168884277 -0.15603637695 0.24750518799 -0.0012168884277 -0.15603637695 0.24750518799 
-0.0012168884277 -0.15603637695 0.24750518799 -0.0012168884277 -0.15603637695 0.24750518799 -0.0012168884277 -0.15603637695 0.24750518799 
-0.0012168884277 -0.15603637695 0.24750518799 -0.0012168884277 -0.15603637695 0.24750518799 -0.0012168884277 -0.15603637695 0.24750518799 
-0.0012168884277 -0.15603637695 0.24750518799 -0.0012168884277 -0.15603637695 0.24750518799 -0.0012168884277 -0.15603637695 0.24750518799 
-0.0012168884277 -0.15603637695 0.24750518799 -0.0012168884277 -0.15603637695 0.24750518799 -0.0012168884277 -0.15603637695 0.24750518799 
-0.0012168884277 -0.15603637695 0.24750518799 -0.0012168884277 -0.15603637695 0.24750518799 -0.0012168884277 -0.15603637695 0.24750518799 
-0.0012168884277 -0.15603637695 0.24750518799 -0.0012168884277 -0.15603637695 0.24750518799 -0.0012168884277 -0.15603637695 0.24750518799 
-0.0012168884277 -0.15603637695 0.24750518799 -0.0012168884277 -0.15603637695 0.24750518799 -0.0012168884277 -0.15603637695 0.24750518799 
-0.0012168884277 -0.15603637695 0.24750518799 -0.0012168884277 -0.15603637695 0.24750518799 -0.0012168884277 -0.15603637695 0.24750518799 
-0.0012168884277 -0.15603637695 0.24750518799 -0.0012168884277 -0.15603637695 0.24750518799 -0.0012168884277 -0.15603637695 0.24750518799 
-0.0012168884277 -0.15603637695 0.24750518799 -0.0012168884277 -0.15603637695 0.24750518799 -0.0012168884277 -0.15603637695 0.24750518799 
-0.0012168884277 -0.15603637695 0.24750518799 -0.0012168884277 -0.15603637695 0.24750518799 -0.0012168884277 -0.15603637695 0.24750518799 
-0.0012168884277 -0.15603637695 0.24750518799 -0.0012168884277 -0.15603637695 0.24750518799 -0.0012168884277 -0.15603637695 0.24750518799 
-0.0012168884277 -0.15603637695 0.24750518799 -0.0012168884277 -0.15603637695 0.24750518799 -0.0012168884277 -0.15603637695 0.24750518799 
-0.0012168884277 -0.15603637695 0.24750518799 -0.0012168884277 -0.15603637695 0.24750518799 -0.0012168884277 -0.15603637695 0.24750518799 
-0.0012168884277 -0.15603637695 0.24750518799 -0.0012168884277 -0.15603637695 0.24750518799 -0.0012168884277 -0.15603637695 0.24750518799 
-0.0012168884277 -0.15603637695 0.24750518799 -0.0012168884277 -0.15603637695 0.24750518799 -0.0012168884277 -0.15603637695 0.24750518799 
-0.0012168884277 -0.15603637695 0.24750518799 -0.0012168884277 -0.15603637695 0.24750518799 -0.0012168884277 -0.15603637695 0.24750518799 
-0.0012168884277 -0.15603637695 0.24750518799 -0.0012168884277 -0.15603637695 0.24750518799 -0.0012168884277 -0.15603637695 0.24750518799 
-0.0012168884277 -0.15603637695 0.24750518799 -0.0012168884277 -0.15603637695 0.24750518799 -0.0012168884277 -0.15603637695 0.24750518799 
-0.0012168884277 -0.15603637695 0.24750518799 -0.0012168884277 -0.15603637695 0.24750518799 -0.0012168884277 -0.15603637695 0.24750518799 
-0.0012168884277 -0.15603637695 0.24750518799 -0.0012168884277 -0.15603637695 0.24750518799 -0.0012168884277 -0.15603637695 0.24750518799 
-0.0012168884277 -0.15603637695 0.24750518799 -0.0012168884277 -0.15603637695 0.24750518799 -0.0012168884277 -0.15603637695 0.24750518799 
-0.0012168884277 -0.15603637695 0.24750518799 -0.0012168884277 -0.15603637695 0.24750518799 -0.0012168884277 -0.15603637695 0.24750518799 
-0.0012168884277 -0.15603637695 0.24750518799 -0.0012168884277 -0.15603637695 0.24750518799 -0.0012168884277 -0.15603637695 0.24750518799 
-0.0012168884277 -0.15603637695 0.24750518799 -0.0012168884277 -0.15603637695 0.24750518799 -0.0012168884277 -0.15603637695 0.24750518799 
-0.0012168884277 -0.15603637695 0.24750518799 -0.0012168884277 -0.15603637695 0.24750518799 -0.0012168884277 -0.15603637695 0.24750518799 
-0.0012168884277 -0.15603637695 0.24750518799 -0.0012168884277 -0.15603637695 0.24750518799 -0.0012168884277 -0.15603637695 0.24750518799 
-0.0012168884277 -0.15603637695 0.24750518799 -0.0012168884277 -0.15603637695 0.24750518799 -0.0012168884277 -0.15603637695 0.24750518799 
-0.0012168884277 -0.15603637695 0.24750518799 -0.0012168884277 -0.15603637695 0.24750518799 -0.0012168884277 -0.15603637695 0.24750518799 
-0.0012168884277 -0.15603637695 0.24750518799 -0.0012168884277 -0.15603637695 0.24750518799 -0.0012168884277 -0.15603637695 0.24750518799 
-0.0012168884277 -0.15603637695 0.24750518799 -0.0012168884277 -0.15603637695 0.24750518799 -0.0012168884277 -0.15603637695 0.24750518799 
-0.0012168884277 -0.15603637695 0.24750518799 -0.0012168884277 -0.15603637695 0.24750518799 -0.0012168884277 -0.15603637695 0.24750518799 
-0.0012168884277 -0.15603637695 0.24750518799 -0.0012168884277 -0.15603637695 0.24750518799 -0.0012168884277 -0.15603637695 0.24750518799 
-0.0012168884277 -0.15603637695 0.24750518799 -0.0012168884277 -0.15603637695 0.24750518799 -0.0012168884277 -0.15603637695 0.24750518799 
-0.0012168884277 -0.15603637695 0.24750518799 -0.0012168884277 -0.15603637695 0.24750518799 -0.0012168884277 -0.15603637695 0.24750518799 
-0.0012168884277 -0.15603637695 0.24750518799 -0.0012168884277 -0.15603637695 0.24750518799 -0.0012168884277 -0.15603637695 0.24750518799 
-0.0012168884277 -0.15603637695 0.24750518799 -0.0012168884277 -0.15603637695 0.24750518799 -0.0012168884277 -0.15603637695 0.24750518799 
-0.0012168884277 -0.15603637695 0.24750518799 -0.0012168884277 -0.15603637695 0.24750518799 -0.0012168884277 -0.15603637695 0.24750518799 
-0.0012168884277 -0.15603637695 0.24750518799 -0.0012168884277 -0.15603637695 0.24750518799 -0.0012168884277 -0.15603637695 0.24750518799 
-0.0012168884277 -0.15603637695 0.24750518799 -0.0012168884277 -0.15603637695 0.24750518799 -0.0012168884277 -0.15603637695 0.24750518799 
-0.0012168884277 -0.15603637695 0.24750518799 -0.0012168884277 -0.15603637695 0.24750518799 -0.0012168884277 -0.15603637695 0.24750518799 
-0.0012168884277 -0.15603637695 0.24750518799 -0.0012168884277 -0.15603637695 0.24750518799 -0.0012168884277 -0.15603637695 0.24750518799 
-0.0012168884277 -0.15603637695 0.24750518799 -0.0012168884277 -0.15603637695 0.24750518799 -0.0012168884277 -0.15603637695 0.24750518799 
-0.0012168884277 -0.15603637695 0.24750518799 -0.0012168884277 -0.15603637695 0.24750518799 -0.0012168884277 -0.15603637695 0.24750518799 
-0.0012168884277 -0.15603637695 0.24750518799 -0.0012168884277 -0.15603637695 0.24750518799 -0.0012168884277 -0.15603637695 0.24750518799 
-0.0012168884277 -0.15603637695 0.24750518799 -0.0012168884277 -0.15603637695 0.24750518799 -0.0012168884277 -0.15603637695 0.24750518799 
-0.0012168884277 -0.15603637695 0.24750518799 -0.0012168884277 -0.15603637695 0.24750518799 -0.0012168884277 -0.15603637695 0.24750518799 
-0.0012168884277 -0.15603637695 0.24750518799 -0.0012168884277 -0.15603637695 0.24750518799 -0.0012168884277 -0.15603637695 0.24750518799 
-0.0012168884277 -0.15603637695 0.24750518799 -0.0012168884277 -0.15603637695 0.24750518799 -0.0012168884277 -0.15603637695 0.24750518799 
-0.0012168884277 -0.15603637695 0.24750518799 -0.0012168884277 -0.15603637695 0.24750518799 -0.0012168884277 -0.15603637695 0.24750518799 
-0.0012168884277 -0.15603637695 0.24750518799 -0.0012168884277 -0.15603637695 0.24750518799 -0.0012168884277 -0.15603637695 0.24750518799 
-0.0012168884277 -0.15603637695 0.24750518799 -0.0012168884277 -0.15603637695 0.24750518799 -0.0012168884277 -0.15603637695 0.24750518799 
-0.0012168884277 -0.15603637695 0.24750518799 -0.0012168884277 -0.15603637695 0.24750518799 -0.0012168884277 -0.15603637695 0.24750518799 
-0.0012168884277 -0.15603637695 0.24750518799 -0.0012168884277 -0.15603637695 0.24750518799 -0.0012168884277 -0.15603637695 0.24750518799 
-0.0012168884277 -0.15603637695 0.24750518799 -0.0012168884277 -0.15603637695 0.24750518799 -0.0012168884277 -0.15603637695 0.24750518799 
-0.0012168884277 -0.15603637695 0.24750518799 -0.0012168884277 -0.15603637695 0.24750518799 -0.0012168884277 -0.15603637695 0.24750518799 
-0.0012168884277 -0.15603637695 0.24750518799 -0.0012168884277 -0.15603637695 0.24750518799 -0.0012168884277 -0.15603637695 0.24750518799 
-0.0012168884277 -0.15603637695 0.24750518799 -0.0012168884277 -0.15603637695 0.24750518799 -0.0012168884277 -0.15603637695 0.24750518799 
-0.0012168884277 -0.15603637695 0.24750518799 -0.0012168884277 -0.15603637695 0.24750518799 -0.0012168884277 -0.15603637695 0.24750518799 
-0.0012168884277 -0.15603637695 0.24750518799 -0.0012168884277 -0.15603637695 0.24750518799 -0.0012168884277 -0.15603637695 0.24750518799 
-0.0012168884277 -0.15603637695 0.24750518799 -0.0012168884277 -0.15603637695 0.24750518799 -0.0012168884277 -0.15603637695 0.24750518799 
-0.0012168884277 -0.15603637695 0.24750518799 -0.0012168884277 -0.15603637695 0.24750518799 -0.0012168884277 -0.15603637695 0.24750518799 
-0.0012168884277 -0.15603637695 0.24750518799 -0.0012168884277 -0.15603637695 0.24750518799 -0.0012168884277 -0.15603637695 0.24750518799 
-0.0012168884277 -0.15603637695 0.24750518799 -0.0012168884277 -0.15603637695 0.24750518799 -0.0012168884277 -0.15603637695 0.24750518799 
-0.0012168884277 -0.15603637695 0.24750518799 -0.0012168884277 -0.15603637695 0.24750518799 -0.0012168884277 -0.15603637695 0.24750518799 
-0.0012168884277 -0.15603637695 0.24750518799 -0.0012168884277 -0.15603637695 0.24750518799 -0.0012168884277 -0.15603637695 0.24750518799 
-0.0012168884277 -0.15603637695 0.24750518799 -0.0012168884277 -0.15603637695 0.24750518799 -0.0012168884277 -0.15603637695 0.24750518799 
-0.0012168884277 -0.15603637695 0.24750518799 -0.0012168884277 -0.15603637695 0.24750518799 -0.0012168884277 -0.15603637695 0.24750518799 
-0.0012168884277 -0.15603637695 0.24750518799 -0.0012168884277 -0.15603637695 0.24750518799 -0.0012168884277 -0.15603637695 0.24750518799 
-0.0012168884277 -0.15603637695 0.24750518799 -0.0012168884277 -0.15603637695 0.24750518799 -0.0012168884277 -0.15603637695 0.24750518799 
-0.0012168884277 -0.15603637695 0.24750518799 -0.0012168884277 -0.15603637695 0.24750518799 -0.0012168884277 -0.15603637695 0.24750518799 
-0.0012168884277 -0.15603637695 0.24750518799 -0.0012168884277 -0.15603637695 0.24750518799 -0.0012168884277 -0.15603637695 0.24750518799 
-0.0012168884277 -0.15603637695 0.24750518799 -0.0012168884277 -0.15603637695 0.24750518799 -0.0012168884277 -0.15603637695 0.24750518799 
-0.0012168884277 -0.15603637695 0.24750518799 -0.0012168884277 -0.15603637695 0.24750518799 -0.0012168884277 -0.15603637695 0.24750518799 
-0.0012168884277 -0.15603637695 0.24750518799 -0.0012168884277 -0.15603637695 0.24750518799 -0.0012168884277 -0.15603637695 0.24750518799 
-0.0012168884277 -0.15603637695 0.24750518799 -0.0012168884277 -0.15603637695 0.24750518799 -0.0012168884277 -0.15603637695 0.24750518799 
-0.0012168884277 -0.15603637695 0.24750518799 -0.0012168884277 -0.15603637695 0.24750518799 -0.0012168884277 -0.15603637695 0.24750518799 
-0.0012168884277 -0.15603637695 0.24750518799 -0.0012168884277 -0.15603637695 0.24750518799 -0.0012168884277 -0.15603637695 0.24750518799 
-0.0012168884277 -0.15603637695 0.24750518799 -0.0012168884277 -0.15603637695 0.24750518799 -0.0012168884277 -0.15603637695 0.24750518799 
-0.0012168884277 -0.15603637695 0.24750518799 -0.0012168884277 -0.15603637695 0.24750518799 -0.0012168884277 -0.15603637695 0.24750518799 
-0.0012168884277 -0.15603637695 0.24750518799 -0.0012168884277 -0.15603637695 0.24750518799 -0.0012168884277 -0.15603637695 0.24750518799 
-0.0012168884277 -0.15603637695 0.24750518799 -0.0012168884277 -0.15603637695 0.24750518799 -0.0012168884277 -0.15603637695 0.24750518799 
-0.0012168884277 -0.15603637695 0.24750518799 -0.0012168884277 -0.15603637695 0.24750518799 -0.0012168884277 -0.15603637695 0.24750518799 
-0.0012168884277 -0.15603637695 0.24750518799 -0.0012168884277 -0.15603637695 0.24750518799 -0.0012168884277 -0.15603637695 0.24750518799 
-0.0012168884277 -0.15603637695 0.24750518799 -0.0012168884277 -0.15603637695 0.24750518799 -0.0012168884277 -0.15603637695 0.24750518799 
-0.0012168884277 -0.15603637695 0.24750518799 -0.0012168884277 -0.15603637695 0.24750518799 -0.0012168884277 -0.15603637695 0.24750518799 
-0.0012168884277 -0.15603637695 0.24750518799 -0.0012168884277 -0.15603637695 0.24750518799 -0.0012168884277 -0.15603637695 0.24750518799 
-0.0012168884277 -0.15603637695 0.24750518799 -0.0012168884277 -0.15603637695 0.24750518799 -0.0012168884277 -0.15603637695 0.24750518799 
-0.0012168884277 -0.15603637695 0.24750518799 -0.0012168884277 -0.15603637695 0.24750518799 -0.0012168884277 -0.15603637695 0.24750518799 
-0.0012168884277 -0.15603637695 0.24750518799 -0.0012168884277 -0.15603637695 0.24750518799 -0.0012168884277 -0.15603637695 0.24750518799 
-0.0012168884277 -0.15603637695 0.24750518799 -0.0012168884277 -0.15603637695 0.24750518799 -0.0012168884277 -0.15603637695 0.24750518799 
-0.0012168884277 -0.15603637695 0.24750518799 -0.0012168884277 -0.15603637695 0.24750518799 -0.0012168884277 -0.15603637695 0.24750518799 
-0.0012168884277 -0.15603637695 0.24750518799 -0.0012168884277 -0.15603637695 0.24750518799 -0.0012168884277 -0.15603637695 0.24750518799 
-0.0012168884277 -0.15603637695 0.24750518799 -0.0012168884277 -0.15603637695 0.24750518799 -0.0012168884277 -0.15603637695 0.24750518799 
-0.0012168884277 -0.15603637695 0.24750518799 -0.0012168884277 -0.15603637695 0.24750518799 -0.0012168884277 -0.15603637695 0.24750518799 
-0.0012168884277 -0.15603637695 0.24750518799 -0.0012168884277 -0.15603637695 0.24750518799 -0.0012168884277 -0.15603637695 0.24750518799 
-0.0012168884277 -0.15603637695 0.24750518799 -0.0012168884277 -0.15603637695 0.24750518799 -0.0012168884277 -0.15603637695 0.24750518799 
-0.0012168884277 -0.15603637695 0.24750518799 -0.0012168884277 -0.15603637695 0.24750518799 -0.0012168884277 -0.15603637695 0.24750518799 
-0.0012168884277 -0.15603637695 0.24750518799 -0.0012168884277 -0.15603637695 0.24750518799 -0.0012168884277 -0.15603637695 0.24750518799 
-0.0012168884277 -0.15603637695 0.24750518799 -0.0012168884277 -0.15603637695 0.24750518799 -0.0012168884277 -0.15603637695 0.24750518799 
-0.0012168884277 -0.15603637695 0.24750518799 -0.0012168884277 -0.15603637695 0.24750518799 -0.0012168884277 -0.15603637695 0.24750518799 
-0.0012168884277 -0.15603637695 0.24750518799 -0.0012168884277 -0.15603637695 0.24750518799 -0.0012168884277 -0.15603637695 0.24750518799 
-0.0012168884277 -0.15603637695 0.24750518799 -0.0012168884277 -0.15603637695 0.24750518799 -0.0012168884277 -0.15603637695 0.24750518799 
-0.0012168884277 -0.15603637695 0.24750518799 -0.0012168884277 -0.15603637695 0.24750518799 -0.0012168884277 -0.15603637695 0.24750518799 
-0.0012168884277 -0.15603637695 0.24750518799 -0.0012168884277 -0.15603637695 0.24750518799 -0.0012168884277 -0.15603637695 0.24750518799 
-0.0012168884277 -0.15603637695 0.24750518799 -0.0012168884277 -0.15603637695 0.24750518799 -0.0012168884277 -0.15603637695 0.24750518799 
-0.0012168884277 -0.15603637695 0.24750518799 -0.0012168884277 -0.15603637695 0.24750518799 -0.0012168884277 -0.15603637695 0.24750518799 
-0.0012168884277 -0.15603637695 0.24750518799 -0.0012168884277 -0.15603637695 0.24750518799 -0.0012168884277 -0.15603637695 0.24750518799 
-0.0012168884277 -0.15603637695 0.24750518799 -0.0012168884277 -0.15603637695 0.24750518799 -0.0012168884277 -0.15603637695 0.24750518799 
-0.0012168884277 -0.15603637695 0.24750518799 -0.0012168884277 -0.15603637695 0.24750518799 -0.0012168884277 -0.15603637695 0.24750518799 
-0.0012168884277 -0.15603637695 0.24750518799 -0.0012168884277 -0.15603637695 0.24750518799 -0.0012168884277 -0.15603637695 0.24750518799 
-0.0012168884277 -0.15603637695 0.24750518799 -0.0012168884277 -0.15603637695 0.24750518799 -0.0012168884277 -0.15603637695 0.24750518799 
-0.0012168884277 -0.15603637695 0.24750518799 -0.0012168884277 -0.15603637695 0.24750518799 -0.0012168884277 -0.15603637695 0.24750518799 
-0.0012168884277 -0.15603637695 0.24750518799 -0.0012168884277 -0.15603637695 0.24750518799 -0.0012168884277 -0.15603637695 0.24750518799 
-0.0012168884277 -0.15603637695 0.24750518799 -0.0012168884277 -0.15603637695 0.24750518799 -0.0012168884277 -0.15603637695 0.24750518799 
-0.0012168884277 -0.15603637695 0.24750518799 -0.0012168884277 -0.15603637695 0.24750518799 -0.0012168884277 -0.15603637695 0.24750518799 
-0.0012168884277 -0.15603637695 0.24750518799 -0.0012168884277 -0.15603637695 0.24750518799 -0.0012168884277 -0.15603637695 0.24750518799 
-0.0012168884277 -0.15603637695 0.24750518799 -0.0012168884277 -0.15603637695 0.24750518799 -0.0012168884277 -0.15603637695 0.24750518799 
-0.0012168884277 -0.15603637695 0.24750518799 -0.0012168884277 -0.15603637695 0.24750518799 -0.0012168884277 -0.15603637695 0.24750518799 
-0.0012168884277 -0.15603637695 0.24750518799 -0.0012168884277 -0.15603637695 0.24750518799 -0.0012168884277 -0.15603637695 0.24750518799 
-0.0012168884277 -0.15603637695 0.24750518799 -0.0012168884277 -0.15603637695 0.24750518799 -0.0012168884277 -0.15603637695 0.24750518799 
-0.0012168884277 -0.15603637695 0.24750518799 -0.0012168884277 -0.15603637695 0.24750518799 -0.0012168884277 -0.15603637695 0.24750518799 
-0.0012168884277 -0.15603637695 0.24750518799 -0.0012168884277 -0.15603637695 0.24750518799 -0.0012168884277 -0.15603637695 0.24750518799 
-0.0012168884277 -0.15603637695 0.24750518799 -0.0012168884277 -0.15603637695 0.24750518799 -0.0012168884277 -0.15603637695 0.24750518799 
-0.0012168884277 -0.15603637695 0.24750518799 -0.0012168884277 -0.15603637695 0.24750518799 -0.0012168884277 -0.15603637695 0.24750518799 
-0.0012168884277 -0.15603637695 0.24750518799 -0.0012168884277 -0.15603637695 0.24750518799 -0.0012168884277 -0.15603637695 0.24750518799 
-0.0012168884277 -0.15603637695 0.24750518799 -0.0012168884277 -0.15603637695 0.24750518799 -0.0012168884277 -0.15603637695 0.24750518799 
-0.0012168884277 -0.15603637695 0.24750518799 -0.0012168884277 -0.15603637695 0.24750518799 -0.0012168884277 -0.15603637695 0.24750518799 
-0.0012168884277 -0.15603637695 0.24750518799 -0.0012168884277 -0.15603637695 0.24750518799 -0.0012168884277 -0.15603637695 0.24750518799 
-0.0012168884277 -0.15603637695 0.24750518799 -0.0012168884277 -0.15603637695 0.24750518799 -0.0012168884277 -0.15603637695 0.24750518799 
-0.0012168884277 -0.15603637695 0.24750518799 -0.0012168884277 -0.15603637695 0.24750518799 -0.0012168884277 -0.15603637695 0.24750518799 
-0.0012168884277 -0.15603637695 0.24750518799 -0.0012168884277 -0.15603637695 0.24750518799 -0.0012168884277 -0.15603637695 0.24750518799 
-0.0012168884277 -0.15603637695 0.24750518799 -0.0012168884277 -0.15603637695 0.24750518799 -0.0012168884277 -0.15603637695 0.24750518799 
-0.0012168884277 -0.15603637695 0.24750518799 -0.0012168884277 -0.15603637695 0.24750518799 -0.0012168884277 -0.15603637695 0.24750518799 
-0.0012168884277 -0.15603637695 0.24750518799 -0.0012168884277 -0.15603637695 0.24750518799 -0.0012168884277 -0.15603637695 0.24750518799 
-0.0012168884277 -0.15603637695 0.24750518799 -0.0012168884277 -0.15603637695 0.24750518799 -0.0012168884277 -0.15603637695 0.24750518799 
-0.0012168884277 -0.15603637695 0.24750518799 -0.0012168884277 -0.15603637695 0.24750518799 -0.0012168884277 -0.15603637695 0.24750518799 
-0.0012168884277 -0.15603637695 0.24750518799 -0.0012168884277 -0.15603637695 0.24750518799 -0.0012168884277 -0.15603637695 0.24750518799 
-0.0012168884277 -0.15603637695 0.24750518799 -0.0012168884277 -0.15603637695 0.24750518799 -0.0012168884277 -0.15603637695 0.24750518799 
-0.0012168884277 -0.15603637695 0.24750518799 -0.0012168884277 -0.15603637695 0.24750518799 -0.0012168884277 -0.15603637695 0.24750518799 
-0.0012168884277 -0.15603637695 0.24750518799 -0.0012168884277 -0.15603637695 0.24750518799 -0.0012168884277 -0.15603637695 0.24750518799 
-0.0012168884277 -0.15603637695 0.24750518799 -0.0012168884277 -0.15603637695 0.24750518799 -0.0012168884277 -0.15603637695 0.24750518799 
-0.0012168884277 -0.15603637695 0.24750518799 -0.0012168884277 -0.15603637695 0.24750518799 -0.0012168884277 -0.15603637695 0.24750518799 
-0.0012168884277 -0.15603637695 0.24750518799 -0.0012168884277 -0.15603637695 0.24750518799 -0.0012168884277 -0.15603637695 0.24750518799 
-0.0012168884277 -0.15603637695 0.24750518799 -0.0012168884277 -0.15603637695 0.24750518799 -0.0012168884277 -0.15603637695 0.24750518799 
-0.0012168884277 -0.15603637695 0.24750518799 -0.0012168884277 -0.15603637695 0.24750518799 -0.0012168884277 -0.15603637695 0.24750518799 
-0.0012168884277 -0.15603637695 0.24750518799 -0.0012168884277 -0.15603637695 0.24750518799 -0.0012168884277 -0.15603637695 0.24750518799 
-0.0012168884277 -0.15603637695 0.24750518799 -0.0012168884277 -0.15603637695 0.24750518799 -0.0012168884277 -0.15603637695 0.24750518799 
-0.0012168884277 -0.15603637695 0.24750518799 -0.0012168884277 -0.15603637695 0.24750518799 -0.0012168884277 -0.15603637695 0.24750518799 
-0.0012168884277 -0.15603637695 0.24750518799 -0.0012168884277 -0.15603637695 0.24750518799 -0.0012168884277 -0.15603637695 0.24750518799 
-0.0012168884277 -0.15603637695 0.24750518799 -0.0012168884277 -0.15603637695 0.24750518799 -0.0012168884277 -0.15603637695 0.24750518799 
-0.0012168884277 -0.15603637695 0.24750518799 -0.0012168884277 -0.15603637695 0.24750518799 -0.0012168884277 -0.15603637695 0.24750518799 
-0.0012168884277 -0.15603637695 0.24750518799 -0.0012168884277 -0.15603637695 0.24750518799 -0.0012168884277 -0.15603637695 0.24750518799 
-0.0012168884277 -0.15603637695 0.24750518799 -0.0012168884277 -0.15603637695 0.24750518799 -0.0012168884277 -0.15603637695 0.24750518799 
-0.0012168884277 -0.15603637695 0.24750518799 -0.0012168884277 -0.15603637695 0.24750518799 -0.0012168884277 -0.15603637695 0.24750518799 
-0.0012168884277 -0.15603637695 0.24750518799 -0.0012168884277 -0.15603637695 0.24750518799 -0.0012168884277 -0.15603637695 0.24750518799 
-0.0012168884277 -0.15603637695 0.24750518799 -0.0012168884277 -0.15603637695 0.24750518799 -0.0012168884277 -0.15603637695 0.24750518799 
-0.0012168884277 -0.15603637695 0.24750518799 -0.0012168884277 -0.15603637695 0.24750518799 -0.0012168884277 -0.15603637695 0.24750518799 
-0.0012168884277 -0.15603637695 0.24750518799 -0.0012168884277 -0.15603637695 0.24750518799 -0.0012168884277 -0.15603637695 0.24750518799 
-0.0012168884277 -0.15603637695 0.24750518799 -0.0012168884277 -0.15603637695 0.24750518799 -0.0012168884277 -0.15603637695 0.24750518799 
-0.0012168884277 -0.15603637695 0.24750518799 -0.0012168884277 -0.15603637695 0.24750518799 -0.0012168884277 -0.15603637695 0.24750518799 
-0.0012168884277 -0.15603637695 0.24750518799 -0.0012168884277 -0.15603637695 0.24750518799 -0.0012168884277 -0.15603637695 0.24750518799 
-0.0012168884277 -0.15603637695 0.24750518799 -0.0012168884277 -0.15603637695 0.24750518799 -0.0012168884277 -0.15603637695 0.24750518799 
-0.0012168884277 -0.15603637695 0.24750518799 -0.0012168884277 -0.15603637695 0.24750518799 -0.0012168884277 -0.15603637695 0.24750518799 
-0.0012168884277 -0.15603637695 0.24750518799 -0.0012168884277 -0.15603637695 0.24750518799 -0.0012168884277 -0.15603637695 0.24750518799 
-0.0012168884277 -0.15603637695 0.24750518799 -0.0012168884277 -0.15603637695 0.24750518799 -0.0012168884277 -0.15603637695 0.24750518799 
-0.0012168884277 -0.15603637695 0.24750518799 -0.0012168884277 -0.15603637695 0.24750518799 -0.0012168884277 -0.15603637695 0.24750518799 
-0.0012168884277 -0.15603637695 0.24750518799 -0.0012168884277 -0.15603637695 0.24750518799 -0.0012168884277 -0.15603637695 0.24750518799 
-0.0012168884277 -0.15603637695 0.24750518799 -0.0012168884277 -0.15603637695 0.24750518799 -0.0012168884277 -0.15603637695 0.24750518799 
-0.0012168884277 -0.15603637695 0.24750518799 -0.0012168884277 -0.15603637695 0.24750518799 -0.0012168884277 -0.15603637695 0.24750518799 
-0.0012168884277 -0.15603637695 0.24750518799 -0.0012168884277 -0.15603637695 0.24750518799 -0.0012168884277 -0.15603637695 0.24750518799 
-0.0012168884277 -0.15603637695 0.24750518799 -0.0012168884277 -0.15603637695 0.24750518799 -0.0012168884277 -0.15603637695 0.24750518799 
-0.0012168884277 -0.15603637695 0.24750518799 -0.0012168884277 -0.15603637695 0.24750518799 -0.0012168884277 -0.15603637695 0.24750518799 
-0.0012168884277 -0.15603637695 0.24750518799 -0.0012168884277 -0.15603637695 0.24750518799 -0.0012168884277 -0.15603637695 0.24750518799 
-0.0012168884277 -0.15603637695 0.24750518799 -0.0012168884277 -0.15603637695 0.24750518799 -0.0012168884277 -0.15603637695 0.24750518799 
-0.0012168884277 -0.15603637695 0.24750518799 -0.0012168884277 -0.15603637695 0.24750518799 -0.0012168884277 -0.15603637695 0.24750518799 
-0.0012168884277 -0.15603637695 0.24750518799 -0.0012168884277 -0.15603637695 0.24750518799 -0.0012168884277 -0.15603637695 0.24750518799 
-0.0012168884277 -0.15603637695 0.24750518799 -0.0012168884277 -0.15603637695 0.24750518799 -0.0012168884277 -0.15603637695 0.24750518799 
-0.0012168884277 -0.15603637695 0.24750518799 -0.0012168884277 -0.15603637695 0.24750518799 -0.0012168884277 -0.15603637695 0.24750518799 
-0.0012168884277 -0.15603637695 0.24750518799 -0.0012168884277 -0.15603637695 0.24750518799 -0.0012168884277 -0.15603637695 0.24750518799 
-0.0012168884277 -0.15603637695 0.24750518799 -0.0012168884277 -0.15603637695 0.24750518799 -0.0012168884277 -0.15603637695 0.24750518799 
-0.0012168884277 -0.15603637695 0.24750518799 -0.0012168884277 -0.15603637695 0.24750518799 -0.0012168884277 -0.15603637695 0.24750518799 
-0.0012168884277 -0.15603637695 0.24750518799 -0.0012168884277 -0.15603637695 0.24750518799 -0.0012168884277 -0.15603637695 0.24750518799 
-0.0012168884277 -0.15603637695 0.24750518799 -0.0012168884277 -0.15603637695 0.24750518799 -0.0012168884277 -0.15603637695 0.24750518799 
-0.0012168884277 -0.15603637695 0.24750518799 -0.0012168884277 -0.15603637695 0.24750518799 -0.0012168884277 -0.15603637695 0.24750518799 
-0.0012168884277 -0.15603637695 0.24750518799 -0.0012168884277 -0.15603637695 0.24750518799 -0.0012168884277 -0.15603637695 0.24750518799 
-0.0012168884277 -0.15603637695 0.24750518799 -0.0012168884277 -0.15603637695 0.24750518799 -0.0012168884277 -0.15603637695 0.24750518799 
-0.0012168884277 -0.15603637695 0.24750518799 -0.0012168884277 -0.15603637695 0.24750518799 -0.0012168884277 -0.15603637695 0.24750518799 
-0.0012168884277 -0.15603637695 0.24750518799 -0.0012168884277 -0.15603637695 0.24750518799 -0.0012168884277 -0.15603637695 0.24750518799 
-0.0012168884277 -0.15603637695 0.24750518799 -0.0012168884277 -0.15603637695 0.24750518799 -0.0012168884277 -0.15603637695 0.24750518799 
-0.0012168884277 -0.15603637695 0.24750518799 -0.0012168884277 -0.15603637695 0.24750518799 -0.0012168884277 -0.15603637695 0.24750518799 
-0.0012168884277 -0.15603637695 0.24750518799 -0.0012168884277 -0.15603637695 0.24750518799 -0.0012168884277 -0.15603637695 0.24750518799 
-0.0012168884277 -0.15603637695 0.24750518799 -0.0012168884277 -0.15603637695 0.24750518799 -0.0012168884277 -0.15603637695 0.24750518799 
-0.0012168884277 -0.15603637695 0.24750518799 -0.0012168884277 -0.15603637695 0.24750518799 -0.0012168884277 -0.15603637695 0.24750518799 
-0.0012168884277 -0.15603637695 0.24750518799 -0.0012168884277 -0.15603637695 0.24750518799 -0.0012168884277 -0.15603637695 0.24750518799 
-0.0012168884277 -0.15603637695 0.24750518799 -0.0012168884277 -0.15603637695 0.24750518799 -0.0012168884277 -0.15603637695 0.24750518799 
-0.0012168884277 -0.15603637695 0.24750518799 -0.0012168884277 -0.15603637695 0.24750518799 -0.0012168884277 -0.15603637695 0.24750518799 
-0.0012168884277 -0.15603637695 0.24750518799 -0.0012168884277 -0.15603637695 0.24750518799 -0.0012168884277 -0.15603637695 0.24750518799 
-0.0012168884277 -0.15603637695 0.24750518799 -0.0012168884277 -0.15603637695 0.24750518799 -0.0012168884277 -0.15603637695 0.24750518799 
-0.0012168884277 -0.15603637695 0.24750518799 -0.0012168884277 -0.15603637695 0.24750518799 -0.0012168884277 -0.15603637695 0.24750518799 
-0.0012168884277 -0.15603637695 0.24750518799 -0.0012168884277 -0.15603637695 0.24750518799 -0.0012168884277 -0.15603637695 0.24750518799 
-0.0012168884277 -0.15603637695 0.24750518799 -0.0012168884277 -0.15603637695 0.24750518799 -0.0012168884277 -0.15603637695 0.24750518799 
-0.0012168884277 -0.15603637695 0.24750518799 -0.0012168884277 -0.15603637695 0.24750518799 -0.0012168884277 -0.15603637695 0.24750518799 
-0.0012168884277 -0.15603637695 0.24750518799 -0.0012168884277 -0.15603637695 0.24750518799 -0.0012168884277 -0.15603637695 0.24750518799 
-0.0012168884277 -0.15603637695 0.24750518799 -0.0012168884277 -0.15603637695 0.24750518799 -0.0012168884277 -0.15603637695 0.24750518799 
-0.0012168884277 -0.15603637695 0.24750518799 -0.0012168884277 -0.15603637695 0.24750518799 -0.0012168884277 -0.15603637695 0.24750518799 
-0.0012168884277 -0.15603637695 0.24750518799 -0.0012168884277 -0.15603637695 0.24750518799 -0.0012168884277 -0.15603637695 0.24750518799 
-0.0012168884277 -0.15603637695 0.24750518799 -0.0012168884277 -0.15603637695 0.24750518799 -0.0012168884277 -0.15603637695 0.24750518799 
-0.0012168884277 -0.15603637695 0.24750518799 -0.0012168884277 -0.15603637695 0.24750518799 -0.0012168884277 -0.15603637695 0.24750518799 
-0.0012168884277 -0.15603637695 0.24750518799 -0.0012168884277 -0.15603637695 0.24750518799 -0.0012168884277 -0.15603637695 0.24750518799 
-0.0012168884277 -0.15603637695 0.24750518799 -0.0012168884277 -0.15603637695 0.24750518799 -0.0012168884277 -0.15603637695 0.24750518799 
-0.0012168884277 -0.15603637695 0.24750518799 -0.0012168884277 -0.15603637695 0.24750518799 -0.0012168884277 -0.15603637695 0.24750518799 
-0.0012168884277 -0.15603637695 0.24750518799 -0.0012168884277 -0.15603637695 0.24750518799 -0.0012168884277 -0.15603637695 0.24750518799 
-0.0012168884277 -0.15603637695 0.24750518799 -0.0012168884277 -0.15603637695 0.24750518799 -0.0012168884277 -0.15603637695 0.24750518799 
-0.0012168884277 -0.15603637695 0.24750518799 -0.0012168884277 -0.15603637695 0.24750518799 -0.0012168884277 -0.15603637695 0.24750518799 
-0.0012168884277 -0.15603637695 0.24750518799 -0.0012168884277 -0.15603637695 0.24750518799 -0.0012168884277 -0.15603637695 0.24750518799 
-0.0012168884277 -0.15603637695 0.24750518799 -0.0012168884277 -0.15603637695 0.24750518799 -0.0012168884277 -0.15603637695 0.24750518799 
-0.0012168884277 -0.15603637695 0.24750518799 -0.0012168884277 -0.15603637695 0.24750518799 -0.0012168884277 -0.15603637695 0.24750518799 
-0.0012168884277 -0.15603637695 0.24750518799 -0.0012168884277 -0.15603637695 0.24750518799 -0.0012168884277 -0.15603637695 0.24750518799 
-0.0012168884277 -0.15603637695 0.24750518799 -0.0012168884277 -0.15603637695 0.24750518799 -0.0012168884277 -0.15603637695 0.24750518799 
-0.0012168884277 -0.15603637695 0.24750518799 -0.0012168884277 -0.15603637695 0.24750518799 -0.0012168884277 -0.15603637695 0.24750518799 
-0.0012168884277 -0.15603637695 0.24750518799 -0.0012168884277 -0.15603637695 0.24750518799 -0.0012168884277 -0.15603637695 0.24750518799 
-0.0012168884277 -0.15603637695 0.24750518799 -0.0012168884277 -0.15603637695 0.24750518799 -0.0012168884277 -0.15603637695 0.24750518799 
-0.0012168884277 -0.15603637695 0.24750518799 -0.0012168884277 -0.15603637695 0.24750518799 -0.0012168884277 -0.15603637695 0.24750518799 
-0.0012168884277 -0.15603637695 0.24750518799 -0.0012168884277 -0.15603637695 0.24750518799 -0.0012168884277 -0.15603637695 0.24750518799 
-0.0012168884277 -0.15603637695 0.24750518799 -0.0012168884277 -0.15603637695 0.24750518799 -0.0012168884277 -0.15603637695 0.24750518799 
-0.0012168884277 -0.15603637695 0.24750518799 -0.0012168884277 -0.15603637695 0.24750518799 -0.0012168884277 -0.15603637695 0.24750518799 
-0.0012168884277 -0.15603637695 0.24750518799 -0.0012168884277 -0.15603637695 0.24750518799 -0.0012168884277 -0.15603637695 0.24750518799 
-0.0012168884277 -0.15603637695 0.24750518799 
Displacement_Total 3 1114 double
-0.073532104492 -0.16405487061 0.56466674805 -0.088608749834 -0.23675110693 0.53374070715 -0.078212992724 -0.32363730037 0.56271386755 
-0.066105334769 -0.26750075087 0.60038466139 -0.084459167442 -0.26908756646 0.52236645411 -0.081698947505 -0.37307775483 0.55475506 
-0.07258106559 -0.32024848425 0.558456501 -0.067933982035 -0.4367584861 0.57584415766 -0.043969746826 -0.38610552007 0.59657880491 
-0.036889553185 -0.51570294121 0.60086917223 -0.0013188965839 -0.43314568065 0.59292797658 0.010109548682 -0.5700963864 0.59949611212 
0.020356311415 -0.43152579557 0.56919261047 0.067720496013 -0.57939822451 0.56616181037 0.076178631455 -0.42099108519 0.48255621793 
0.1286887329 -0.55236306887 0.46877490216 0.1393361486 -0.42252246706 0.39226349734 0.17541751932 -0.54012969291 0.36841049848 
0.18836892456 -0.41403138008 0.32964086118 0.22656270659 -0.50413174065 0.28235696491 0.21824472514 -0.38635455438 0.30878289035 
0.27269519154 -0.47918449836 0.23846976129 0.26327896332 -0.36707858901 0.31346337831 0.29016858524 -0.45581301632 0.24732105072 
0.32865755101 -0.3556798662 0.36618963986 0.32899285252 -0.432166711 0.27058161447 0.37043900788 -0.31155107635 0.37686617404 
0.36835503222 -0.40894604302 0.27199676194 0.41992561126 -0.27847901862 0.36559463746 0.39928383663 -0.37253569233 0.26344324292 
0.45143355259 -0.24541940774 0.32796261925 0.43017031477 -0.33022099925 0.20964913339 0.48009856922 -0.22743820272 0.27878555044 
0.42694825809 -0.29811033096 0.16147460852 0.51256689926 -0.22284806006 0.22428207295 0.4313771766 -0.28091667567 0.12095341515 
0.50857706205 -0.2281014225 0.16170809404 0.43276091002 -0.28254237417 0.070901702406 0.50771510473 -0.24068071785 0.11088373346 
0.43322748991 -0.29753587499 0.034515135708 0.53337425226 -0.25344245002 0.081451876541 0.45862043158 -0.31460019521 0.021146851572 
0.54995365146 -0.23738995119 0.048939728602 0.45642776594 -0.33068260189 -0.010972460879 0.5650991233 -0.20145255716 0.0039257407277 
0.46620995921 -0.30842118323 -0.039884315661 0.57487246029 -0.15558879364 -0.041605062751 0.47324694066 -0.27006019328 -0.078010480017 
0.57318268111 -0.10838959796 -0.085223760739 0.46386462211 -0.22280662759 -0.12913889561 0.55251914735 -0.06992410036 -0.1281040203 
0.46162282508 -0.16175627514 -0.16765620779 0.5432528431 0.0020371760412 -0.10922843821 0.43217081414 -0.10697909367 -0.16839572708 
0.49404768517 0.047710676931 -0.063041313468 0.38827801747 -0.07500010245 -0.11625092172 0.4253367345 0.072526183034 0.019171709006 
0.31980729588 -0.048623515234 -0.025976361626 0.35191648839 0.079047543304 0.12100970079 0.24783775052 -0.05523949883 0.073700341702 
0.28234420871 0.066659485962 0.20923778434 0.16700756619 -0.038196021629 0.18377501137 0.20762975155 0.032716885397 0.30871128988 
0.091186839579 -0.061834003046 0.27464354574 0.15098559432 0.027293086873 0.38220313009 0.031716887468 -0.071294887677 0.36943442033 
0.10514248616 0.02119596769 0.45766708283 -0.01589147456 -0.076593596921 0.46464888339 0.06553914843 0.0055332123773 0.54075004208 
-0.050684060106 -0.073079313878 0.54177002971 0.028627019098 -0.0074809997752 0.61027579956 -0.07973565966 -0.077523009606 0.61908540799 
-0.013338529769 0.00079214366175 0.65530438658 -0.080379253638 -0.087116366353 0.6735808818 -0.027667831625 -0.0039136108457 0.70191460594 
-0.098933639286 -0.09597964171 0.71090243603 -0.057712090101 0.0031441323863 0.7234358503 -0.093748846105 -0.11475682862 0.7344656976 
-0.078625634801 -0.0028062439875 0.72069207944 -0.075681457354 -0.12845738893 0.74400809808 -0.075217018112 -0.034610357603 0.68658908222 
-0.072424831167 -0.15275094989 0.71885539963 -0.066656081396 -0.084939259807 0.62080397454 -0.078131411626 -0.20378223101 0.66738522485 
0.1236038208 -0.034477233887 -0.24098968506 0.076936812171 -0.0323381106 -0.23161297593 0.0747357337 -0.089281564317 -0.24773804636 
0.12395661262 -0.10371902725 -0.26878408881 0.036511998834 -0.029523266398 -0.21923024188 0.029966262293 -0.078112200006 -0.22521969829 
0.014234930741 -0.024743919251 -0.19810818269 -0.0063847500182 -0.071229198973 -0.20626713636 0.0056299574408 -0.029206025324 -0.19127066434 
-0.01773498256 -0.080846679116 -0.19334916717 0.0090570763326 -0.041801048762 -0.19700421979 -0.0079599950955 -0.10175731143 -0.18717865612 
0.026694876102 -0.072432952353 -0.22482109274 0.032501773542 -0.14365026736 -0.20240520041 0.04917709088 -0.10846997525 -0.25313206752 
0.063459848225 -0.19001307588 -0.22269928586 0.07821238303 -0.15163068057 -0.28033442514 0.078013214952 -0.24138635481 -0.24997768282 
0.13409537383 -0.18605929761 -0.30804294752 0.1300552208 -0.28756130712 -0.27299365109 0.19233692878 -0.21648707928 -0.33438188079 
0.17671447177 -0.32788746956 -0.29838724365 0.24783855699 -0.24280862213 -0.35848388014 0.21423310281 -0.36325384596 -0.32303595854 
0.29333979299 -0.27779759105 -0.39745160605 0.23863647054 -0.38598211946 -0.34828365409 0.314431771 -0.30694752743 -0.43263972238 
0.25145251932 -0.40339538776 -0.3788856082 0.31528993542 -0.33015800041 -0.46204428577 0.2316519593 -0.42653956846 -0.41083247256 
0.3457029128 -0.35632210596 -0.47646276314 0.2279858851 -0.44367113429 -0.42142323557 0.34589309286 -0.3792152311 -0.49746598735 
0.22939128116 -0.46740584111 -0.43979087303 0.3337388172 -0.40358502629 -0.52132743811 0.23733471702 -0.48380825442 -0.47012756564 
0.34631211111 -0.44499812126 -0.54066309757 0.23663337726 -0.51589843496 -0.50514543294 0.34558756751 -0.47674828575 -0.56106613006 
0.23387038036 -0.55886410074 -0.52584427879 0.33501776821 -0.50350249593 -0.57888607711 0.23179132214 -0.60676024458 -0.53429393904 
0.30559930923 -0.52866248578 -0.57930228029 0.22418805504 -0.62847963281 -0.52828970989 0.26697228506 -0.51921218065 -0.58966107769 
0.19414414996 -0.6284366377 -0.52649887076 0.21900828921 -0.48908569706 -0.60149458175 0.12221218339 -0.60947321432 -0.52838517979 
0.14465323824 -0.44745129771 -0.58947788343 0.030196100454 -0.55828899242 -0.524559073 0.082988311064 -0.39780994979 -0.56583716321 
0.0013918777141 -0.46483256156 -0.53017075849 0.030765434319 -0.34457376477 -0.53428517139 -0.033872280753 -0.41611567754 -0.50873498704 
0.027301549487 -0.32317173751 -0.47761151577 -0.032766571253 -0.39389623188 -0.45328152843 0.041784527415 -0.30271179096 -0.41543451798 
-0.020378622799 -0.36978495107 -0.39020511475 0.082234526232 -0.2836149255 -0.3452948248 0.023440833428 -0.36122441967 -0.30418833075 
0.12572404183 -0.28353360457 -0.29038967499 0.077611053118 -0.37104095078 -0.22067013086 0.16869171143 -0.29062741987 -0.23857048976 
0.13680480134 -0.38989301843 -0.1411744557 0.20274930726 -0.30673505239 -0.17745801131 0.18804952136 -0.4233663981 -0.076995934355 
0.2281130983 -0.3293632204 -0.1381543649 0.22117539931 -0.46539940797 -0.025763134697 0.24460010312 -0.3586491638 -0.12111856838 
0.24189410824 -0.47677118777 -0.0074167459756 0.26175843624 -0.36898000179 -0.11904656652 0.25129221198 -0.49779814573 0.0065529333624 
0.27483841798 -0.37479754044 -0.1154248276 0.25802273368 -0.51448673418 0.016933247229 0.26701097801 -0.37422493846 -0.091353308573 
0.25559776961 -0.5302475618 0.036393415675 0.26142052854 -0.37867121464 -0.085717931252 0.25285519737 -0.54078798242 0.039047482241 
0.2575525586 -0.38701464395 -0.094842640343 0.2464184777 -0.54397025558 0.032258619925 0.23195677871 -0.3564584416 -0.095338682589 
0.22417174575 -0.52682381581 0.028846082777 0.20527142417 -0.31800381756 -0.083651837816 0.19332543561 -0.49033866168 0.037376775765 
0.17686994913 -0.26710888645 -0.052776494161 0.14733745561 -0.42864027688 0.058214096067 0.16181373483 -0.20065714516 -0.024347834021 
0.13048815603 -0.34662166882 0.089295571639 0.15459457034 -0.12690415621 0.0018976954689 0.12762663344 -0.24975117021 0.11950688003 
0.19604741875 -0.030174988313 0.0054852989811 0.17065353584 -0.14346134877 0.11523089153 0.23227611009 0.054553503621 0.0080993379568 
0.20949711823 -0.045860258021 0.099195026148 0.2570971346 0.11307686596 0.0085874646134 0.23615099298 0.024493974551 0.083016515399 
0.26424969648 0.16542519074 -0.00039727705916 0.24376796898 0.073391390745 0.056481257919 0.25682440501 0.21267863013 -0.01719787053 
0.23991813217 0.10671943677 0.030712499685 0.23500111516 0.21672752639 -0.047036196862 0.22536946747 0.11170030991 -0.016247598159 
0.20933398477 0.20857300476 -0.080012532127 0.20815312139 0.11405451677 -0.067583249174 0.17945392964 0.17198334358 -0.10871497417 
0.18345229318 0.089845817558 -0.10087003735 0.15582517643 0.13294053546 -0.13307981157 0.16459721953 0.058356435371 -0.13022989992 
0.14978307044 0.086996344233 -0.1452417633 0.1600997849 0.013611528869 -0.16185756547 0.14120126069 0.053114353112 -0.16696730355 
0.15699798916 -0.021052264565 -0.1921588353 0.13003587117 0.031502949091 -0.19842165319 0.15649457176 -0.045099671265 -0.22279803388 
0.12555033766 0.00033002660776 -0.22132986482 0.14401541939 -0.076004932474 -0.24908809478 -0.080278985238 -0.48081249255 0.55191591489 
-0.071116237443 -0.44307128864 0.57009461604 -0.068937264815 -0.53804669084 0.56288180677 -0.0034719301452 -0.64634329822 0.6044252931 
0.066568731529 -0.69234322218 0.60714627362 0.13298823921 -0.71091023615 0.55947879035 0.20350006648 -0.70598675743 0.44411606438 
0.2519125206 -0.6635372723 0.33011174716 0.29843683284 -0.61207608386 0.23747553482 0.32394202063 -0.5614609304 0.17638794832 
0.33435156361 -0.52207094427 0.17485228737 0.33826902304 -0.50046767414 0.18752444417 0.36327344305 -0.4948367787 0.17784304861 
0.39091379445 -0.44153598095 0.15898674688 0.40159591998 -0.39939375346 0.10607374504 0.40080898405 -0.35135067716 0.054478764961 
0.38124354785 -0.33922959311 0.024579892985 0.36592959085 -0.33017535483 -0.0046302409255 0.36808259828 -0.36351175953 -0.021490658227 
0.37786735451 -0.39365986533 -0.024468577178 0.38645141634 -0.41335420683 -0.035111939676 0.39762800866 -0.40576486282 -0.060803106436 
0.39886737601 -0.37020221902 -0.099033399909 0.36429984044 -0.34204849266 -0.16971399872 0.34895979236 -0.25172694107 -0.20792375351 
0.31253080074 -0.22639511451 -0.21244518045 0.26505728886 -0.20382825886 -0.15941634728 0.19748210801 -0.18229026788 -0.067924061529 
0.12134626999 -0.16418254768 0.038773302548 0.039282055341 -0.15346844055 0.14670868517 -0.036839471877 -0.15877758329 0.25092441644 
-0.093967842878 -0.14857293979 0.355078411 -0.14021351224 -0.14580001707 0.45040654881 -0.17204327145 -0.1514794277 0.53568968485 
-0.17664862937 -0.16105162204 0.60182505112 -0.18006938427 -0.18050268847 0.65177812137 -0.18372546704 -0.20295308608 0.68340091483 
-0.13955714281 -0.23998478237 0.69443720363 -0.10045406252 -0.27383005969 0.69936697134 -0.078329743351 -0.30356327329 0.68668613219 
-0.06921497606 -0.33643471731 0.6553481243 -0.067975393331 -0.38962951635 0.61310693575 -0.0050830428775 -0.1814283125 -0.1800388753 
0.050421495226 -0.19945988069 -0.20694873077 -0.038797190835 -0.18159525409 -0.15051680117 -0.07085551556 -0.18992731592 -0.12757026852 
-0.08343440718 -0.20478689957 -0.1121298851 -0.036423350287 -0.25689501573 -0.11972913409 -0.001092542374 -0.30724881965 -0.12904456139 
0.02343349279 -0.36172582527 -0.15109153057 0.080981272853 -0.41130914917 -0.17780303881 0.11116048252 -0.45759588642 -0.2198744334 
0.12535663997 -0.48678579541 -0.25994780066 0.1324007692 -0.50628980577 -0.29071553937 0.1459552042 -0.51413157943 -0.33095779635 
0.12484308073 -0.50930620063 -0.35437986133 0.10514394827 -0.51676119212 -0.36934796919 0.085174926948 -0.53548233285 -0.3904595584 
0.10003847183 -0.56464728121 -0.43001929902 0.12037972937 -0.60542514224 -0.46522265994 0.11923021445 -0.65975328455 -0.48060105916 
0.12260059468 -0.72285227706 -0.47785652917 0.11767479342 -0.75073191104 -0.47627362826 0.094622120133 -0.76156351714 -0.47142567354 
0.040323125929 -0.73654371553 -0.45892600258 -0.029430037421 -0.70648746272 -0.44182806576 -0.093767287166 -0.49428823935 -0.47215622895 
-0.057966931633 -0.51677934188 -0.49493556368 -0.080564985612 -0.47154502751 -0.40907855295 -0.047984042626 -0.44870706164 -0.33793262131 
0.025348579585 -0.44913148737 -0.25607007885 0.087578461464 -0.44964687586 -0.15487066054 0.14690001698 -0.46271842027 -0.053714632743 
0.20465952656 -0.49700387536 0.0212734019 0.24007297642 -0.56904831578 0.096767720289 0.23265044175 -0.60441046273 0.095965282077 
0.25168850177 -0.63235255091 0.10071241475 0.2648466475 -0.6662077971 0.10300012244 0.28100912514 -0.69192839565 0.11169556363 
0.28959856361 -0.71167950692 0.10906643301 0.28506980112 -0.72902924094 0.10549623607 0.24864502345 -0.70860372284 0.10851127675 
0.21403857764 -0.66441869504 0.13080998998 0.17621974911 -0.58624984506 0.15998859823 0.14449284637 -0.48786076831 0.19032994668 
0.12186103866 -0.3818317539 0.21675399804 0.15767620827 -0.27277381952 0.21647623557 0.18454361414 -0.17423190175 0.20534409394 
0.22013136951 -0.092345222638 0.17786688124 0.23168887629 -0.033069046165 0.13779455812 0.22110934918 0.0076127923971 0.079513800365 
0.2060555989 0.0062073057396 0.025901971647 0.1911725084 -0.0076516080148 -0.027122088095 0.1756300122 -0.026086126331 -0.064023655923 
0.17277203823 -0.050585527001 -0.098210340244 0.18090075815 -0.098896129565 -0.12686101317 0.18749366732 -0.14238434548 -0.16338253387 
0.18969518129 -0.17905202799 -0.20217582977 0.15353395781 -0.20103893265 -0.21947250796 0.10815888881 -0.2106963149 -0.23101941909 
-0.072051224654 -0.59518294039 -0.46972975454 -0.083498648826 -0.71093084387 -0.41512265613 0.15893133201 -0.79579560186 0.56910031662 
0.099562447805 -0.76143580289 0.57378104289 0.23556061012 -0.81000963227 0.50736941908 0.32185677107 -0.79485669941 0.40311326026 
0.37191287523 -0.75005364807 0.26974435029 0.39522607085 -0.69345116035 0.17423467479 0.39593580192 -0.6279008111 0.1082043212 
0.38239131848 -0.5802996705 0.1013236863 0.36389203465 -0.5593019845 0.11406561381 0.3681338759 -0.55276584072 0.10832314269 
0.38169269766 -0.50783034609 0.082181698623 0.38066915501 -0.454984904 0.02620777965 0.37803269724 -0.40570451469 -0.018804947405 
0.35521467667 -0.37667629947 -0.04278823403 0.32917047784 -0.38884523323 -0.072985283727 0.32829328461 -0.40990637975 -0.059359122794 
0.32617483215 -0.44507861648 -0.057326824538 0.32543156395 -0.47431408945 -0.055434635816 0.33910410105 -0.48841563525 -0.063470850233 
0.3311625981 -0.46303736099 -0.085817751774 0.2923351877 -0.45223846492 -0.12829392885 0.17936837164 -0.33058135717 -0.22636933119 
0.20957805026 -0.35793625009 -0.2321056103 0.13531743335 -0.30774050133 -0.17341896018 0.072271431466 -0.28582318853 -0.094997814394 
-0.00065435642878 -0.2711455247 0.010005584975 -0.078664058632 -0.25586459844 0.11664728157 -0.14868927752 -0.22716516343 0.22852944752 
-0.20186245086 -0.21522512964 0.33284152928 -0.24844535041 -0.21890485344 0.42719789949 -0.27927711798 -0.22901967057 0.51360195444 
-0.2726853163 -0.23076702851 0.56470770922 -0.25955493418 -0.26310708924 0.59760625592 -0.23262583083 -0.29048107539 0.61297033301 
-0.19314220507 -0.35532014135 0.60171760072 -0.13126295788 -0.38612132942 0.62010636844 -0.11472611402 -0.38738675141 0.62947610888 
-0.098423852913 -0.41162850786 0.61250486969 -0.099052887259 -0.4564113076 0.57587711102 -0.087662267343 -0.51879809911 0.55164526268 
-0.076827056365 -0.56358511869 0.54029554391 0.22571858959 -0.40162098918 -0.20866052695 0.21624879472 -0.46799666755 -0.1714523947 
-0.088349533263 -0.58141028377 -0.4232237789 -0.09257185062 -0.70169177728 -0.37087795893 -0.066352349234 -0.5603960495 -0.35758294192 
-0.016908002766 -0.53079324026 -0.28405813257 0.059880035271 -0.5212752114 -0.17402127223 0.12970405688 -0.5124208945 -0.073966135291 
0.18578198775 -0.5159299609 0.012876180448 0.22349693412 -0.54653281893 0.084279346333 0.25386771152 -0.595854966 0.14586505747 
0.27965876624 -0.73267153386 0.14332100729 0.24561903897 -0.69676231838 0.13952202529 0.29606657405 -0.77740004508 0.14568724704 
0.31584487855 -0.8174373358 0.15073497221 0.3181638314 -0.84962373831 0.15942206442 0.31366579354 -0.86863334224 0.16493327231 
0.292124079 -0.84849572095 0.17760978032 0.25643236498 -0.79887862185 0.2010257582 0.2134459025 -0.71829082273 0.23181651267 
0.16579530479 -0.62526244228 0.26848051102 0.11981885488 -0.52109159273 0.30027685878 0.13479206005 -0.407457057 0.30315432752 
0.16329951806 -0.31053935386 0.29194196666 0.19404382686 -0.23349165838 0.26940009766 0.20301896856 -0.17237400669 0.2182579379 
0.19794700067 -0.13256164537 0.15868017482 0.18066810286 -0.13477861484 0.091162432507 0.16730821909 -0.14674633787 0.03039689684 
0.17333319635 -0.17166164904 -0.011271816407 0.17720633055 -0.19150744407 -0.043989847441 0.19401764991 -0.23945175415 -0.069898279669 
0.19272118351 -0.29082256262 -0.0876108313 0.18894520383 -0.33694196365 -0.10943771837 0.13327076418 -0.36915844201 -0.10330295813 
0.071478220276 -0.36856923748 -0.11080655136 -0.010484793632 -0.35174209147 -0.087947800748 -0.073708523028 -0.32296727914 -0.060198051678 
-0.13109811099 -0.30846744967 -0.025128129264 -0.15727058871 -0.31801937432 0.0079370925774 -0.16445462253 -0.33599759631 0.03301553558 
-0.14181854679 -0.37400808117 0.039393389204 -0.097565282443 -0.43082444502 0.026555355862 -0.058049667501 -0.4946782501 -0.0020004502438 
-0.029938339961 -0.55145750186 -0.062696624266 -0.0012067700468 -0.59416529488 -0.12133525884 0.023178020567 -0.61502947232 -0.18462503062 
0.025618460223 -0.61287477826 -0.23208497251 0.022977113184 -0.60392425182 -0.27167818067 0.0080178105402 -0.60176974168 -0.28510033804 
-0.011982268031 -0.58724063417 -0.29993104634 -0.05649222583 -0.59280155731 -0.30971150648 -0.023467747582 -0.61406099363 -0.38510417807 
0.0025086321727 -0.68141060186 -0.40392159662 0.020539145086 -0.75292036951 -0.41904805324 0.047240317861 -0.84344769651 -0.4234086362 
0.032761394815 -0.8783176262 -0.41591925661 0.011872501846 -0.89637508933 -0.41033073475 -0.018594890629 -0.85213967453 -0.39897703782 
-0.074685007675 -0.84917599047 -0.36870914877 -0.11273220886 -0.86279186633 -0.34593021196 -0.076035138865 -0.83815547111 -0.32160090093 
-0.021403642442 -0.66896015379 -0.28715948231 -0.0072749645103 -0.81885757801 -0.2673025571 0.23972301656 -0.66450722419 0.15199891481 
0.26607939447 -0.66613304653 0.18024706335 0.12525330908 -0.44620536717 -0.23737203909 0.12260957978 -0.46524009965 -0.19376831653 
0.11514095423 -0.41377411133 -0.24668147288 0.078513979443 -0.39970190362 -0.23540152437 0.04493192747 -0.38354478725 -0.19332431841 
-0.018372057952 -0.35464911639 -0.1076600596 -0.084812935953 -0.33484986348 -0.0093386756211 -0.15655520137 -0.31690782033 0.095922710857 
-0.23522833776 -0.28666025954 0.19212991847 -0.28207649245 -0.27629387735 0.29350853961 -0.33547319938 -0.28186357056 0.38997778751 
-0.35322427539 -0.27569518869 0.47755699471 -0.35670299352 -0.30013072746 0.52827653097 -0.33796995402 -0.33047793367 0.55558857345 
-0.30385719264 -0.35961102666 0.56019334954 -0.26954459509 -0.38944298135 0.54538386363 -0.14686633658 -0.42475322057 0.56234409328 
-0.16418394101 -0.43681398918 0.55640679402 -0.14226204194 -0.42301564812 0.5495470593 -0.14209487981 -0.48101502808 0.52279359392 
-0.13171873998 -0.55270773522 0.49657693631 -0.12345559211 -0.60462776736 0.48906520351 0.28387629466 -0.87807518186 0.49190268315 
0.19548850231 -0.83676913066 0.51777211169 0.3753184512 -0.89383649441 0.42513822988 0.45828938699 -0.88151555314 0.33067934976 
0.52041436949 -0.83411246937 0.19758716811 0.52438141164 -0.77088860997 0.098317864471 0.49602903073 -0.70190963826 0.042135848907 
0.4517447372 -0.64266347381 0.032573098656 0.39812577139 -0.6041337769 0.056910327004 0.38151288169 -0.59228707492 0.070642975292 
0.37040488178 -0.55842932769 0.047485342409 0.37437257439 -0.49087633299 -0.026133546605 0.37327741457 -0.44077754418 -0.078236421744 
0.3475821181 -0.40821080783 -0.08892802234 0.31481073989 -0.41213330692 -0.094820361584 0.29670963501 -0.45203753186 -0.07695468996 
0.29066294781 -0.5019126141 -0.064480055375 0.29093903973 -0.54290220144 -0.062902980408 0.28756796315 -0.55725107906 -0.07323179256 
0.27956288826 -0.5504263793 -0.089760931985 0.24772551378 -0.5487787294 -0.10462691937 0.17139896705 -0.53657666708 -0.13817192417 
0.097683105394 -0.53231165139 -0.15976739367 0.058434372216 -0.45651961314 -0.20241581552 0.036849231884 -0.51945508975 -0.16110306028 
0.055191032219 -0.43675873195 -0.23260841738 0.056372843776 -0.7359346444 0.53048316023 0.14533571811 -0.79093380413 0.48517155366 
0.03345466301 -0.71934757015 0.48977026796 0.090513679864 -0.7557784751 0.47563395677 -0.20283651115 -0.42579725821 0.54166072335 
-0.25079333978 -0.45542092631 0.52011701455 0.053155822738 -0.61003405915 -0.19527592897 0.14151035045 -0.57738750389 -0.093848285583 
0.20709292672 -0.55473507811 -0.0071829469243 0.24071461575 -0.55471553098 0.065417732019 0.26653350987 -0.58284230643 0.12512503469 
0.28079863611 -0.6334061875 0.16019232004 0.30807798553 -0.69642567396 0.19579457578 0.27823295353 -0.74123118381 0.19894449707 
0.31316654636 -0.75813841763 0.20990499711 0.24758721744 -0.73141942756 0.18646102991 0.24434118726 -0.75167324126 0.17283170619 
0.25510504844 -0.79975984288 0.1644565274 0.27800998324 -0.8461779679 0.17894543426 0.30386048022 -0.89293845223 0.19121351874 
0.32403849985 -0.9222015793 0.20161552622 0.32716011804 -0.94399563168 0.21145577604 0.30514962821 -0.92417079997 0.22021095013 
0.28136508313 -0.88872329521 0.25427941308 0.23955383556 -0.82399955567 0.2948154532 0.19907791932 -0.7433220123 0.33453104534 
0.16569951163 -0.64300578623 0.3615249936 0.14461713616 -0.53577701337 0.36670674945 0.14367690509 -0.45024931827 0.36001585252 
0.16282019457 -0.37393182265 0.33870822195 0.1657654498 -0.33002998677 0.29911653477 0.15725938064 -0.30083005167 0.24329404428 
0.14373754874 -0.30324776153 0.16999427323 0.13566113014 -0.30525932373 0.10747165077 0.14554261841 -0.31970464445 0.059630020701 
0.15975340882 -0.34925091442 0.022847082079 0.17924323108 -0.40412631704 0.0052653616726 0.18154028337 -0.45930755997 0.010459526302 
0.17514288091 -0.51832012634 0.037866238002 0.072399639349 -0.61189692228 0.10502331174 -0.0093706211331 -0.55317995369 0.083671783816 
-0.082515826244 -0.50833857115 0.080674153896 -0.1467080828 -0.47797924987 0.10118395484 -0.20295852325 -0.45224972576 0.1359551074 
-0.23471584431 -0.45103287695 0.17076856791 -0.25636821298 -0.45798271093 0.2041383607 -0.23125579346 -0.50820290818 0.20774402315 
-0.20067058149 -0.56391064738 0.18818704609 -0.15883841688 -0.62567135219 0.14686309741 -0.13153926377 -0.67737796973 0.061946153534 
-0.11153296119 -0.70742624205 -0.024308664304 -0.098220505189 -0.71795637171 -0.096316248156 -0.099794048125 -0.70823134315 -0.1506092568 
-0.10078167807 -0.69494667043 -0.19796682291 -0.10226523387 -0.64595700487 -0.21373073377 -0.11510103974 -0.62455539548 -0.22615185229 
-0.15931904033 -0.6218786597 -0.21620853272 -0.056275199106 -0.75199940208 -0.33628343114 -0.091348762838 -0.67969536559 -0.31090480346 
-0.039245228158 -0.83610206906 -0.34415339166 -0.037658027442 -0.93365793875 -0.33494106131 -0.052213618239 -0.98721856434 -0.34341945997 
-0.066520357432 -0.99895694022 -0.35589771362 -0.070993576558 -0.94667416139 -0.3611118138 -0.10342307859 -0.97640546279 -0.33222886848 
-0.12370624158 -0.98858952141 -0.30274565847 -0.10820098115 -0.97116883742 -0.27387764894 -0.032419067873 -0.93246401898 -0.23747023357 
0.099994203963 -0.79310773448 -0.20111610009 0.072574035496 -0.87855736689 -0.19447544553 0.13039441541 -0.71575638057 -0.17253065245 
0.18704314628 -0.64922032047 -0.1053183749 0.25695984939 -0.62650227328 -0.013332129525 0.30558284819 -0.61369150748 0.06550956056 
0.32110173914 -0.61094373109 0.1179364641 0.325491529 -0.62768525386 0.15516192107 -0.12674835123 -1.0513933543 -0.23393722727 
-0.17777741391 -1.0838296267 -0.25373630105 -0.065039890169 -1.0018483426 -0.21686699914 0.035231213482 -0.93862009125 -0.18831076024 
0.17095838259 -0.8190931749 -0.15375775931 0.15463027965 -0.86116588521 -0.16470876156 0.20075964034 -0.75467759093 -0.1379967832 
0.23464478318 -0.70325564203 -0.10820361205 0.28416284056 -0.66894344557 -0.039282436522 0.34009490411 -0.65463422586 0.047023912816 
0.37633215377 -0.6672045394 0.10717567125 0.39720414465 -0.67793163171 0.1535650207 0.37178542575 -0.69399278565 0.17141761042 
-0.1467646418 -0.64216151688 -0.24525355324 -0.2096595336 -0.6166906858 -0.18337142318 0.047087178862 -0.42762766709 -0.25261274366 
0.017154459863 -0.41425024422 -0.2287636811 -0.016295486549 -0.40683495937 -0.18907718358 -0.064997352564 -0.40193033358 -0.11573953878 
-0.12587428159 -0.37270003617 -0.031743397728 -0.19490208701 -0.35186314074 0.066389514431 -0.26206797923 -0.33140013635 0.15602249551 
-0.31955117059 -0.32656708074 0.25469340743 -0.36418326771 -0.32682698403 0.34971377098 -0.37150165563 -0.33859498768 0.4236802904 
-0.38613274478 -0.36810902635 0.4854517785 -0.37239643747 -0.38754809158 0.50683309163 -0.35028575674 -0.42096139813 0.52479117129 
-0.31440227484 -0.4578266086 0.51458310186 -0.29251105337 -0.48545481098 0.49344396587 -0.25764966866 -0.50179943246 0.48040440582 
-0.28946440723 -0.52368860864 0.45705883535 -0.22413152557 -0.47083196395 0.49902659813 -0.19924295168 -0.45936640282 0.50190880817 
-0.18662039802 -0.47220930115 0.4875770072 -0.18393394506 -0.46985166879 0.47002414238 -0.18914898021 -0.52619473662 0.44465301145 
-0.17577384058 -0.57809555068 0.44060845347 -0.15541022584 -0.62632146051 0.44248390255 -0.081290402165 -0.64007246597 0.4926067581 
-0.11642950292 -0.63943468058 0.45005417325 -0.021030874014 -0.68184563303 0.49364748584 -0.05986036908 -0.66870772688 0.45583960532 
0.012382285239 -0.7070512361 0.45051894868 0.092044617635 -0.74797416493 0.44020270658 0.1798147273 -0.80766968737 0.43423707498 
0.2749960223 -0.87005105219 0.42815718692 0.38597821517 -0.92032398332 0.39766191948 0.49615107309 -0.93796073039 0.32865021896 
0.59373324323 -0.93275249673 0.24200761104 0.62908879992 -0.90076668879 0.1356398337 0.62120049448 -0.83378646707 0.05038074166 
0.57454774528 -0.76336535256 0.0017567044376 0.5025959582 -0.69944935194 -0.001201193936 0.41517557386 -0.63703877469 0.043146205514 
0.3704542576 -0.62138825293 0.087568501002 0.3313555004 -0.61192230815 0.12356771023 0.36938044767 -0.47880284055 -0.067539780851 
0.37405707198 -0.51883083288 -0.01337564499 0.33403180604 -0.46026216581 -0.10515089464 0.31006119334 -0.45887624759 -0.1104096777 
0.2798048079 -0.49583549643 -0.10382351856 0.26069882266 -0.55165140363 -0.092458074847 0.25022067624 -0.60612872635 -0.08681242595 
0.23652582566 -0.63662036281 -0.092082341502 0.21003062612 -0.64790386359 -0.097909363857 0.16201763663 -0.65530484689 -0.10252369709 
0.10818421152 -0.64398573656 -0.12121315719 0.045098708065 -0.61939894779 -0.12310373574 -0.013616214595 -0.5962401112 -0.12432343922 
-0.0065858626974 -0.49656042882 -0.15919906722 -0.046855840767 -0.56789350315 -0.1340972393 -0.004010754404 -0.46522039763 -0.18963040435 
-0.0086454242861 -0.43353649759 -0.22698897443 0.36174506235 -0.57163273315 0.057687326414 0.31705117095 -0.6390528791 0.16223202017 
0.37809837902 -0.77660938251 0.20078465899 0.33786373298 -0.70446596289 0.18883868936 0.32063385667 -0.81673448752 0.22912632992 
0.38646200132 -0.82655873676 0.2153365557 0.28049046555 -0.80879420043 0.21910647922 0.26278218128 -0.80274300293 0.20544989226 
0.25147762524 -0.81487492199 0.20200575975 0.24022649126 -0.83214589123 0.21296665734 0.25811798825 -0.87009437985 0.24054638807 
0.27502148986 -0.90117603195 0.27466535099 0.29754900702 -0.93767853033 0.27402077978 0.30561552889 -0.96570788466 0.27045515776 
0.29627922606 -0.95204858816 0.26865168911 0.28085175651 -0.92285675431 0.29600282318 0.2567160811 -0.88389596545 0.34236117525 
0.22689937263 -0.83726589539 0.3829123199 0.18217032423 -0.74933502258 0.40171468112 0.13260878564 -0.65931209093 0.40792630901 
0.12837875126 -0.58532299982 0.39386278564 0.13072737476 -0.51978862322 0.38391068054 0.12838339501 -0.48434770942 0.35630205148 
0.11264022258 -0.46701646999 0.31278354139 0.098470230584 -0.46993086808 0.24435869119 0.089009373659 -0.46803147794 0.18654799218 
0.10003989464 -0.4765978776 0.14265403434 0.12083667652 -0.49735951285 0.10484890344 0.15597058421 -0.53556451937 0.086083500789 
0.17501775371 -0.59091857236 0.096219990754 0.16804169479 -0.65943557643 0.12720310075 0.086359716867 -0.72679739636 0.19293291547 
-0.16112571607 -0.6336911867 0.24150292147 -0.097774646862 -0.68083874472 0.23923170375 -0.21844677086 -0.60536335138 0.25957974538 
-0.27795841632 -0.58214757361 0.28576667817 -0.30624244508 -0.57942893232 0.31950854243 -0.32069618595 -0.59220417907 0.34795163183 
-0.29597543641 -0.6423140632 0.34771601778 -0.27519093983 -0.69046532584 0.3235162372 -0.24571037671 -0.74007861161 0.28026547546 
-0.22787745704 -0.79005336833 0.18902154256 -0.21264724994 -0.81325846155 0.081349127383 -0.20592529878 -0.80356517935 -0.019098328928 
-0.20408927559 -0.78148246568 -0.091119660882 -0.19929837888 -0.75106358072 -0.15048724568 -0.20152484492 -0.69856302578 -0.16585066502 
-0.20669361019 -0.65680644286 -0.17562326656 -0.21069932289 -0.6447227176 -0.18084153842 -0.23724484682 -0.63482896512 -0.15062570509 
-0.22957093737 -0.61907338777 -0.14597995582 -0.26879054591 -0.61969951232 -0.12131138208 -0.17336717693 -0.66072825481 -0.20294767865 
-0.13081111228 -0.70086904388 -0.24716882913 -0.1042756089 -0.76944470573 -0.2610384071 -0.088537621462 -0.85134226984 -0.25728079921 
-0.10195979753 -0.95952943668 -0.24843166561 -0.1260953992 -1.0348690182 -0.26487248911 -0.12917809343 -1.0611976533 -0.30325578191 
-0.046343045634 -0.74739658408 0.25529705544 -0.0027999756841 -0.79938253066 0.27035666815 0.41710595616 -0.7635665018 0.1826236138 
0.44133146722 -0.81974650437 0.19934863042 0.35153417328 -0.86862543462 0.26041970761 0.40953369361 -0.85681481641 0.24085739892 
0.30412915683 -0.86533097293 0.25370335051 0.27340991308 -0.84360804565 0.25379006555 0.24921320534 -0.82504408975 0.24935232471 
0.23172601956 -0.83552777307 0.26812604478 0.21868713919 -0.85375568034 0.29775341892 0.2358601128 -0.88200157088 0.33931401622 
0.25430696212 -0.90896181823 0.37593465231 0.2718318522 -0.92064920285 0.35711169835 0.28793693752 -0.9300399976 0.33399767584 
0.29287117939 -0.9313735233 0.30526654343 0.29927260149 -0.92520026618 0.30706946199 0.30617107566 -0.91369088641 0.34180886367 
0.28066779913 -0.90127392702 0.37559888386 0.20982239759 -0.82816005288 0.41187274888 0.15374673586 -0.77142728906 0.41684595062 
0.12798613408 -0.71543028503 0.42859783855 0.10760794234 -0.65281263942 0.43666587229 0.073332578422 -0.62220219873 0.41308634715 
0.049776129509 -0.59868133534 0.37719471295 0.032688319768 -0.6005010974 0.33416347105 0.023714974823 -0.60061646287 0.27946287982 
0.034571624532 -0.60396342808 0.21474436899 0.062508318538 -0.61380411164 0.17155084698 0.11524115063 -0.63052806762 0.15235466387 
0.14779323603 -0.67503364131 0.15263072463 0.15879807608 -0.73469629903 0.17355305262 0.10435132612 -0.78475789271 0.21826366795 
0.0094741325233 -0.80901981673 0.26134706733 -0.094341797954 -0.81355447836 0.30278851199 -0.069833201894 -0.82023851533 0.29440831558 
-0.13310360546 -0.78457768845 0.31498802648 -0.17918711962 -0.7585185792 0.330534183 -0.23163306178 -0.72881156245 0.3454435106 
-0.2720236433 -0.70427548323 0.36553477374 -0.32298940727 -0.68231454819 0.3908125933 -0.34667512541 -0.68414803138 0.41989780846 
-0.36526105337 -0.69513809779 0.44887641378 -0.35418609579 -0.73739927138 0.44588575505 -0.33402183629 -0.77850688941 0.41568028018 
-0.30225261271 -0.82071717434 0.34853231881 -0.29966932713 -0.8561761766 0.25119258913 -0.27711364033 -0.85388589909 0.12711151077 
-0.26461367089 -0.83452321462 0.029380426466 -0.26016342927 -0.79697962124 -0.050762469595 -0.25380162768 -0.75695384432 -0.12282696548 
-0.2635479874 -0.71004198199 -0.12130718994 -0.26179697506 -0.66445190654 -0.12939447366 -0.280386249 -0.64180972469 -0.11635732467 
-0.29037442148 -0.59104914816 -0.11053822182 -0.28261940825 -0.61015240282 -0.119805002 -0.24370464188 -0.61490677419 -0.12596409429 
-0.18393201461 -0.64359245243 -0.15604418828 -0.14895857224 -0.69768893944 -0.19518513854 -0.1352722708 -0.73280898107 -0.17964391768 
-0.12175245655 -0.80565568866 -0.16925233725 -0.13860007813 -0.93019922303 -0.16355925506 -0.18600424422 -1.0483515454 -0.19806071311 
-0.022083661295 -0.42594628915 -0.24457732465 -0.043797046358 -0.43860862664 -0.23644968189 -0.065046816463 -0.44105273631 -0.19263099562 
-0.095465026005 -0.4295491105 -0.12867217392 -0.14843212793 -0.40617694146 -0.048681737694 -0.20410849158 -0.38336453812 0.031431136889 
-0.26367357161 -0.37351089584 0.12233283661 -0.3146533805 -0.37841358105 0.21784277235 -0.35827242001 -0.39606576753 0.30863641507 
-0.38604883288 -0.42085453304 0.37271655708 -0.39702527595 -0.45315809905 0.43281107803 -0.39218121594 -0.4799382793 0.48081915857 
-0.37202229566 -0.48696954675 0.48757994896 -0.34446288166 -0.49821254631 0.48395165949 -0.31953744637 -0.50855428312 0.47367495572 
-0.31797895344 -0.55524440188 0.44940481522 -0.28682756685 -0.57996162397 0.406951314 -0.30918901561 -0.63072497119 0.4315425725 
-0.25362061672 -0.54271273473 0.4313590684 -0.23883461395 -0.52562170196 0.45112479452 -0.22071234498 -0.50779741962 0.45090226869 
-0.22230420505 -0.50719495156 0.42515773153 -0.22372345979 -0.52509465069 0.40158484969 -0.22905215204 -0.56329945706 0.38048309985 
-0.22768229146 -0.59702634417 0.3792714973 -0.22376895659 -0.62360718808 0.39285746276 -0.16945807187 -0.63320517595 0.41193346474 
-0.099495654017 -0.65799862736 0.42078552515 -0.019543314543 -0.69690928845 0.41438374763 0.07642501894 -0.74635752857 0.40252697963 
0.18440631612 -0.80788485735 0.3827977553 0.30199196583 -0.87023782162 0.36391104567 0.43640121848 -0.91780864078 0.33388725864 
0.5441828122 -0.94186832101 0.26964340011 0.6509473075 -0.93790577314 0.19832189821 0.70583655601 -0.91092494997 0.11447311359 
0.67737017742 -0.86432603037 0.059682758153 0.60975321342 -0.79746819526 0.023316760546 0.52746114753 -0.71821795928 0.017184631756 
0.42497857858 -0.66725192081 0.072619953571 0.34468601429 -0.65708222804 0.14774574207 0.28203116846 -0.66554023011 0.22901759976 
0.26493690181 -0.70477109747 0.27536735548 0.33694095213 -0.65901551195 0.18234853141 0.29334334275 -0.72847097854 0.28706702072 
0.37594698732 -0.59681370608 0.082086230901 0.39321035998 -0.54411104803 0.010888352695 0.38129314147 -0.5164667391 -0.043056549117 
0.35463118487 -0.50140729352 -0.092414927941 0.31909265327 -0.51637090406 -0.11841204894 0.28734248739 -0.56319693128 -0.12275119013 
0.25489818863 -0.6214092467 -0.12417745294 0.23116296494 -0.6914161628 -0.11839454602 0.19994190777 -0.71310412551 -0.1111460653 
0.16978851049 -0.72144714102 -0.10767325005 0.11404611354 -0.73287411884 -0.10684847682 0.049260472775 -0.74556979166 -0.10769571712 
-0.013687789136 -0.72675044477 -0.11675931366 -0.06074883551 -0.70990769971 -0.10713411513 -0.089548545667 -0.65950050101 -0.096670538515 
-0.07241048662 -0.51280501228 -0.12539385421 -0.106688748 -0.58761890959 -0.090128021739 -0.04080527734 -0.4787203274 -0.16239231791 
-0.054242461254 -0.45569592751 -0.18576713433 -0.074921550677 -0.42059261041 -0.22651241854 0.24805255807 -0.865370555 0.28903937586 
0.2066615564 -0.87393633669 0.37248749805 0.2158029944 -0.88332196019 0.41969229972 0.22263504624 -0.88743948613 0.46156395825 
0.24740471662 -0.88879354891 0.43168564794 0.27167479191 -0.89305584356 0.39894229586 0.29389510248 -0.88653604799 0.35427718255 
0.31530174196 -0.87900892423 0.32296591204 0.35379484109 -0.88461987377 0.33135699137 0.40671471136 -0.8924525825 0.32763080696 
0.17594588283 -0.8208080162 0.41070051549 0.2503665583 -0.85642360566 0.39239083492 0.14948572528 -0.78466539819 0.42624399797 
0.10036066305 -0.75210872894 0.43300086576 0.063797476797 -0.71778687559 0.44316500109 0.026619042826 -0.6902795518 0.4416449964 
-0.008144282954 -0.69462930137 0.39752743919 -0.030042239199 -0.69608029987 0.34515168264 -0.02538207205 -0.69557050911 0.27671268972 
0.00064578483185 -0.69876998667 0.22104938576 0.063046556759 -0.70861216513 0.19873485657 0.10570846072 -0.73161607381 0.19045606692 
0.10725405052 -0.76506136525 0.20550103799 0.086174826959 -0.79129263834 0.22488496617 0.0033887740103 -0.79881513534 0.25730076128 
-0.0932942098 -0.7860892597 0.28540261912 -0.15101457056 -0.77728889116 0.31094176195 -0.15579695394 -0.73352855698 0.2955998481 
-0.15319642283 -0.80959613691 0.32487962365 -0.17474849348 -0.79867118275 0.33678903162 -0.20825975369 -0.79236852396 0.36543888139 
-0.25230537826 -0.77760547673 0.38830571638 -0.30506562326 -0.75986615794 0.41304305095 -0.35195680471 -0.73919766516 0.43432449553 
-0.36696455073 -0.74805536058 0.45909721594 -0.38122442835 -0.75164866711 0.48203827899 -0.37380359337 -0.78334512503 0.46046371447 
-0.36137002463 -0.81172074583 0.4348293 -0.33860231687 -0.84433965799 0.37765575084 -0.33093801397 -0.85875127284 0.31045922957 
-0.31146561776 -0.81165012896 0.037412077995 -0.30397720596 -0.84040496636 0.12131204378 -0.30434859256 -0.77120928357 -0.032488790403 
-0.29969439805 -0.72720277603 -0.10010020189 -0.29167110705 -0.67890189111 -0.10803113651 0.33014482759 -0.9048480657 0.37605387502 
0.4436488712 -0.90418658064 0.31646776445 -0.28188302429 -0.6445420667 -0.13026654501 -0.26072813599 -0.56953631304 -0.14086228682 
-0.24914264645 -0.60245118897 -0.1556122677 -0.26073969153 -0.55083289903 -0.1218152366 -0.22425038902 -0.57209141822 -0.11731802167 
-0.17736496526 -0.6696373495 -0.13205184071 -0.094393211261 -0.43286281436 -0.23624160387 -0.10571119273 -0.44792685663 -0.23351696126 
-0.11812989686 -0.4526718448 -0.18595459851 -0.12981299457 -0.45621992019 -0.13961392719 -0.16157153486 -0.44277554306 -0.073760752641 
-0.20218017268 -0.43195158212 -0.0024117768712 -0.24887259607 -0.43159543759 0.082954624152 -0.29482341241 -0.4460721202 0.16978049729 
-0.33965585865 -0.48273067613 0.25273144865 -0.37194372134 -0.53083322403 0.31932928492 -0.39436712467 -0.57782434582 0.38707128368 
-0.39667950321 -0.58993425328 0.44046613104 -0.38059323038 -0.57664096242 0.4556563278 -0.35157672783 -0.57578653417 0.46168921056 
-0.35887236979 -0.6875637747 0.43616839182 -0.3066905139 -0.68943569756 0.38360386514 -0.34237423696 -0.72864233798 0.41506089523 
-0.28393139496 -0.64804929058 0.36967698203 -0.25380299365 -0.59852443703 0.37638459401 -0.24071617754 -0.57236829533 0.40173289574 
-0.23254818005 -0.5653492611 0.41025825993 -0.23571453392 -0.56493537365 0.37730423418 -0.24055511328 -0.56898176385 0.34862808767 
-0.24751126531 -0.60229806859 0.33150074144 -0.26206106846 -0.6270803613 0.33134095396 -0.27401325313 -0.66779378388 0.34771400506 
-0.2056693979 -0.668667552 0.3875941562 -0.12985829119 -0.68187010011 0.40783548158 -0.039340959541 -0.70119381049 0.40616064667 
0.06304280882 -0.74071630059 0.39502769037 0.1730849654 -0.79707747763 0.37368381213 0.28659619818 -0.85409356586 0.3464464881 
0.40400795592 -0.9113678073 0.31090040825 0.53645094867 -0.9342960673 0.27342212683 0.64889735252 -0.93175320714 0.22832044451 
0.68737434683 -0.90035855089 0.15168333273 0.67372187455 -0.84575037071 0.089516852505 0.61527513117 -0.78620069965 0.060701748917 
0.51104162449 -0.72395613301 0.079780055373 0.40173147721 -0.6818240874 0.14669582758 0.30212603006 -0.6767009465 0.2343080537 
0.23805448513 -0.71733355624 0.32087602441 0.22446898517 -0.76138837893 0.3647727613 0.26159624236 -0.79865773665 0.36153795673 
0.34890325762 -0.75253655205 0.2658044589 0.30778893245 -0.82882273929 0.3315669922 0.38410316136 -0.67861190357 0.18279891938 
0.38946228905 -0.61486998721 0.10984234549 0.40118807149 -0.56794831812 0.041856249505 0.38209827149 -0.54704038228 -0.022089796284 
0.35109709962 -0.54067182255 -0.081237439481 0.31295785792 -0.56272016233 -0.12080090857 0.28598683172 -0.60319427911 -0.12353756148 
0.25625415847 -0.66558229686 -0.13684243737 0.20661424802 -0.75915239406 -0.14298567456 0.16150027378 -0.77037487243 -0.12965582278 
0.13459055703 -0.7684065177 -0.12103329021 0.090980147421 -0.79951365927 -0.12146093381 0.010151541559 -0.83171744246 -0.12444437687 
-0.065380131892 -0.85104799544 -0.12364432954 -0.11829793139 -0.83141726488 -0.11435650641 -0.14329363291 -0.78785759472 -0.087789218746 
-0.14142103972 -0.69910558291 -0.075147773355 -0.142682186 -0.53440697758 -0.10816511741 -0.16035153868 -0.62045536162 -0.081074725921 
-0.10792726737 -0.47821886911 -0.15164784349 -0.18467451082 -1.0594192931 -0.18679950473 -0.093098064165 -1.0106752305 -0.17830802457 
0.01493906565 -0.96508563303 -0.16699424856 0.12258233114 -0.86163164648 -0.15034634189 0.22634171669 -0.76968902705 -0.13685857128 
0.25241931837 -0.74099480093 -0.13065010743 0.27390581071 -0.69744175797 -0.10248827695 0.3029981469 -0.67096306666 -0.072922143614 
0.35591970054 -0.66129627118 -0.010041398694 0.42042614786 -0.66202692002 0.062495941818 0.45343923684 -0.70408209934 0.11829368982 
0.4507492672 -0.73515932981 0.15953431599 0.46461610975 -0.78593349507 0.17720350706 0.44691523784 -0.82065854462 0.20901628522 
0.34395036195 -0.89269714048 0.30691621904 0.38204544263 -0.83111627851 0.27415462737 0.30318023839 -0.89816490602 0.33303886436 
0.26411611943 -0.8879196716 0.3232582041 -0.16435736552 -0.49419967704 -0.2101293418 -0.15783858675 -0.46950873718 -0.20188734889 
-0.15737453394 -0.50190905571 -0.19484331675 -0.1628798972 -0.4934523895 -0.15060012541 -0.17395050127 -0.49113906677 -0.092273850139 
-0.19590485646 -0.50174728537 -0.033587767247 -0.23633038918 -0.51020738679 0.042842080921 -0.27774931817 -0.52992328498 0.12363888732 
-0.32087281076 -0.58078549196 0.20092423936 -0.35469888142 -0.64848534192 0.27674940228 -0.36445303184 -0.72370781815 0.34615886939 
-0.38513128075 -0.70647804913 0.42460247326 -0.38010797206 -0.69436936305 0.44876348497 -0.3223670586 -0.75780664703 0.40590185817 
-0.36028099009 -0.74716786243 0.43682752326 -0.36837731823 -0.74554896513 0.4479779912 -0.27813739555 -0.74342056493 0.36103881903 
-0.25865050286 -0.68748132071 0.34590020846 -0.25131586085 -0.65231143709 0.34964426175 -0.24225258435 -0.6251963865 0.36163188856 
-0.23426758182 -0.61248313597 0.37162546638 -0.23274350325 -0.61917425287 0.33516139389 -0.24359899872 -0.60481900931 0.31479312325 
-0.25989324963 -0.6240928002 0.3037830886 -0.27133455247 -0.6495759776 0.2962624406 -0.26819595685 -0.67543024961 0.31195612121 
-0.11848764346 -0.70293868795 0.4157858583 -0.17843384707 -0.69471093805 0.38488234172 -0.052861431403 -0.71113558523 0.4186120073 
0.035647884702 -0.74358487963 0.40427464083 0.14258939674 -0.79878868046 0.37799445689 0.25009523717 -0.84861568833 0.34657448534 
0.36038465829 -0.88785244423 0.31721101467 0.47101208567 -0.91167100636 0.2883583066 0.56555821465 -0.92261606838 0.26347557067 
0.59748439132 -0.87174110846 0.22900992721 0.57109334656 -0.79041409923 0.1403181288 0.61604593695 -0.8354215932 0.15829140577 
0.47916053243 -0.73766911871 0.16899669763 0.37929457562 -0.72063447185 0.23367505528 0.26810149571 -0.710900198 0.32186723093 
0.21736558331 -0.77719465122 0.38082823107 0.17676966978 -0.83242723878 0.44038637622 0.22160084927 -0.85293335322 0.41523496686 
0.26899140878 -0.89347601098 0.38172118136 -0.23355593787 -0.69765157844 0.3451303518 -0.22509792865 -0.69893402709 0.30455315662 
-0.32367098197 -0.86295771007 0.20366713386 -0.33804953587 -0.83789090328 0.24725144574 -0.13867586562 -0.71636364196 -0.10192892351 
-0.14617071141 -0.830327895 -0.10368235619 -0.15119194773 -0.93211129618 -0.11710976357 -0.13919146337 -0.96138051575 -0.13768730058 
-0.09253598038 -0.95409675126 -0.14751013521 0.0023810155477 -0.9036699067 -0.14788605311 0.091261023732 -0.85595604206 -0.13896268019 
0.20748204508 -0.89975984175 0.42021158305 0.18781136153 -0.89589746679 0.4739787759 0.18689993248 -0.8835736082 0.50274218595 
0.2226812786 -0.8628796065 0.47292606914 0.26714372486 -0.84136523709 0.42110744318 0.30674001282 -0.83882713083 0.36300934979 
0.35538409335 -0.8401838673 0.30550786674 0.41272455933 -0.85713811403 0.29241455901 0.49557508908 -0.85652932596 0.26676461957 
0.44777978915 -0.91136326742 0.31708180414 0.35426010603 -0.9041281836 0.35777183532 0.28980950444 -0.88977556936 0.3751163301 
0.22025336795 -0.86204942492 0.39522727261 0.16198734496 -0.81652995864 0.41856302067 0.10192504357 -0.77412896343 0.43918099846 
0.052648062831 -0.74729764757 0.45095841987 -0.0070499957898 -0.72521495825 0.4542793597 -0.049351789732 -0.72766648813 0.41589656559 
-0.08231088363 -0.72628807414 0.37524092615 -0.080394595422 -0.72057059074 0.31696453763 -0.064690512206 -0.72199833461 0.26682922255 
-0.0093780567596 -0.72902502347 0.23087540074 0.027638627728 -0.74115571852 0.20931117758 0.033750575231 -0.75923464296 0.22014456574 
0.024530555251 -0.76937071089 0.23215546546 -0.036094833738 -0.76824880198 0.25462514472 -0.10693578857 -0.73838915025 0.27056851178 
-0.14861992088 -0.70628463764 0.28766294227 -0.19473994959 -0.73275879757 0.31420051206 -0.1944668707 -0.70179601327 0.31210809306 
-0.21266704027 -0.76190887446 0.33065640167 -0.22154569536 -0.78890769373 0.34678294592 -0.23298869723 -0.78822774533 0.3602544336 
-0.26899103273 -0.77808794627 0.37824228165 0.47881008216 -0.73033612778 0.14100347612 0.44724242633 -0.75173198812 0.17973954928 
0.41784279269 -0.75323592111 0.21531013233 0.4135947408 -0.68738711991 0.16225714839 0.41037190764 -0.63566044975 0.11950540182 
0.42807768493 -0.60561256831 0.075839736047 0.39949182013 -0.60918591445 0.0096893468152 0.3572738604 -0.59119460651 -0.038747154522 
0.33941438832 -0.61742403621 -0.093483026176 0.28586623726 -0.6631396931 -0.12542997447 0.26242372981 -0.70092716166 -0.14188769346 
-0.37456272276 -0.73967331904 0.46230737965 -0.37283184351 -0.77268813697 0.44733152477 -0.37193604065 -0.79074828012 0.41050165691 
-0.35120032491 -0.81788665512 0.36234061612 -0.33939329573 -0.83597795754 0.32155101216 -0.33740411304 -0.79136747602 0.28261624865 
-0.32457445014 -0.79649037213 0.19404004784 -0.32949892503 -0.74172922923 0.22967348391 -0.32637217715 -0.82532254896 0.17095264933 
-0.31589285547 -0.79986271503 0.11219137654 -0.30522282618 -0.76335436306 0.038977052001 -0.29529909351 -0.72372599097 -0.024000887167 
-0.27844501891 -0.683497598 -0.094313569101 -0.24210914091 -0.61852870962 -0.10907120403 -0.20732261392 -0.54984406898 -0.17924006539 
-0.20473697703 -0.54884455275 -0.13879290862 -0.21304184504 -0.52666550514 -0.18110824064 -0.21779433303 -0.49723588794 -0.16334214619 
0.35035177673 -0.63820680703 -0.049834078783 0.37071343182 -0.62409113196 -0.0075277340362 0.42035903266 -0.66272280803 0.066637895574 
0.22242815783 -0.92550271629 0.43124076314 0.37611153028 -0.90225879528 0.32801408426 0.29122694691 -0.8910084666 0.34793568728 
0.20400216094 -0.84016095916 0.3755234499 0.11192644015 -0.78825259963 0.40433221519 0.027165696834 -0.74415572284 0.43174817798 
-0.038155298488 -0.72306225853 0.4469646976 -0.089332798822 -0.72713882452 0.43546034839 -0.14258820904 -0.72450869992 0.39601599117 
-0.17043738163 -0.72284346616 0.33993125854 -0.16143194445 -0.72419591002 0.29043790466 -0.10986316122 -0.72810611794 0.25497344688 
-0.071167432549 -0.72944563776 0.22831080576 -0.11643834492 -0.70870337788 0.26817247497 -0.068364118949 -0.74367075184 0.25274619915 
-0.23136928658 -0.73916193482 0.32912526784 -0.22303300603 -0.69109532445 0.32745174861 -0.24974399613 -0.77124972118 0.34685131572 
0.18072524405 -0.89775263603 0.48228027932 0.19354803262 -0.85651901376 0.49386457037 0.24211695316 -0.82369911004 0.45485030584 
0.29861231262 -0.79651112535 0.3859693194 0.37297128226 -0.80482582636 0.32181294757 0.4329374724 -0.81776898911 0.27280287124 
0.46655829758 -0.83097177874 0.25874681568 0.53675762258 -0.82897617547 0.21639163064 0.50380245024 -0.79472238716 0.20686031613 
0.42632729642 -0.76132957099 0.25298253031 0.3353688404 -0.74865734937 0.32060137381 0.25002494752 -0.76540025981 0.40008860092 
0.19198168245 -0.82261838441 0.46386263194 0.16883211156 -0.87324045364 0.47366843645 0.19179911907 -0.89683635497 0.4537458458 
-0.30987592799 -0.74650563826 0.12976956767 -0.29382355781 -0.69710459587 0.054603846537 -0.26895764206 -0.66347554204 -0.023050640013 
-0.22459498713 -0.66779107166 0.33464823196 -0.22613352949 -0.64998064505 0.34329911942 -0.20920220614 -0.67096690791 0.3120773916 
-0.22363797633 -0.66074719168 0.28349515941 -0.20643944998 -0.64855453163 0.28863043866 -0.2329721093 -0.67187394916 0.2724922394 
-0.23144557193 -0.68393916482 0.28297669416 -0.19276788531 -0.69943125298 0.27197129444 -0.31169221061 -0.67470079417 0.15905728379 
-0.19819378219 -0.53043948721 -0.09941080883 -0.21996254785 -0.5520335872 -0.059668676944 -0.25620879785 -0.58437849771 0.011492730958 
0.44379804182 -0.68647928262 0.1144948789 -0.2818012111 -0.61976701397 0.082263602493 -0.15163581894 -0.68772441853 0.25826691064 
-0.13531401939 -0.68707837065 0.26579489887 -0.16553260326 -0.69692611448 0.24833260479 -0.069216172418 -0.59426063495 0.53678096447 
-0.010350802856 -0.66402426546 0.54912463134 0.32129437485 -0.65390088211 0.17335328722 -0.13938461821 -0.43839725322 -0.19118324212 
-0.18830022501 -0.4919379983 -0.14199709687 -0.060507632917 -0.73947423754 0.24381523145 -0.06386051617 -0.73588166878 0.2363657175 
-0.18945486011 -0.66102449109 0.2934909632 
Displacement_Wall 3 1114 double
-0.072315216064 -0.0080184936523 0.31716156006 -0.087391861406 -0.080714729973 0.28623551916 -0.076996104296 -0.16760092342 0.31520867956 
-0.064888446342 -0.11146437392 0.3528794734 -0.083242279014 -0.11305118951 0.27486126612 -0.080482059078 -0.21704137788 0.30724987202 
-0.071364177162 -0.1642121073 0.31095131301 -0.066717093607 -0.28072210914 0.32833896967 -0.042752858398 -0.23006914311 0.34907361692 
-0.035672664757 -0.35966656425 0.35336398424 -0.00010200815615 -0.2771093037 0.34542278859 0.01132643711 -0.41406000945 0.35199092413 
0.021573199843 -0.27548941862 0.32168742248 0.068937384441 -0.42336184756 0.31865662238 0.077395519883 -0.26495470824 0.23505102994 
0.12990562133 -0.39632669192 0.22126971417 0.14055303703 -0.2664860901 0.14475830935 0.17663440775 -0.38409331596 0.12090531049 
0.18958581298 -0.25799500313 0.082135673193 0.22777959501 -0.3480953637 0.034851776927 0.21946161357 -0.23031817743 0.061277702363 
0.27391207997 -0.32314812141 -0.0090354266933 0.26449585175 -0.21104221206 0.065958190319 0.29138547367 -0.29977663936 -0.00018413727084 
0.32987443943 -0.19964348925 0.11868445187 0.33020974095 -0.27613033405 0.02307642648 0.37165589631 -0.15551469939 0.12936098605 
0.36957192065 -0.25290966606 0.024491573953 0.42114249969 -0.12244264166 0.11808944947 0.40050072505 -0.21649931538 0.015938054932 
0.45265044102 -0.089383030788 0.080457431264 0.4313872032 -0.1741846223 -0.037856054595 0.48131545765 -0.071401825762 0.031280362451 
0.42816514652 -0.14207395401 -0.08603057947 0.51378378768 -0.066811683104 -0.02322311504 0.43259406503 -0.12488029871 -0.12655177284 
0.50979395048 -0.072065045545 -0.085797093948 0.43397779845 -0.12650599722 -0.17660348558 0.50893199316 -0.0846443409 -0.13662145452 
0.43444437834 -0.14149949803 -0.21299005228 0.53459114069 -0.097406073063 -0.16605331145 0.45983732001 -0.15856381826 -0.22635833642 
0.55117053989 -0.081353574237 -0.19856545939 0.45764465437 -0.17464622494 -0.25847764887 0.56631601172 -0.045416180205 -0.24357944726 
0.46742684764 -0.15238480627 -0.28738950365 0.57608934872 0.00044758331013 -0.28911025074 0.47446382908 -0.11402381632 -0.32551566801 
0.57439956954 0.04764677899 -0.33272894873 0.46508151053 -0.06677025064 -0.3766440836 0.55373603577 0.086112276594 -0.37560920829 
0.4628397135 -0.0057198981825 -0.41516139578 0.54446973153 0.15807355299 -0.3567336262 0.43338770257 0.04905728328 -0.41590091507 
0.49526457359 0.20374705388 -0.31054650146 0.3894949059 0.081036274503 -0.36375610971 0.42655362293 0.22856255999 -0.22833347898 
0.32102418431 0.10741286172 -0.27348154961 0.35313337682 0.23508392026 -0.1264954872 0.24905463894 0.10079687812 -0.17380484629 
0.28356109713 0.22269586291 -0.038267403646 0.16822445462 0.11784035532 -0.063730176615 0.20884663998 0.18875326235 0.061206101893 
0.092403728006 0.094202373907 0.02713835775 0.15220248275 0.18332946383 0.1346979421 0.032933775895 0.084741489276 0.12192923234 
0.10635937459 0.17723234464 0.21016189484 -0.014674586132 0.079442780032 0.21714369541 0.066756036857 0.16156958933 0.29324485409 
-0.049467171678 0.082957063075 0.29426484172 0.029843907526 0.14855537718 0.36277061157 -0.078518771233 0.078513367348 0.37158022 
-0.012121641342 0.15682852061 0.40779919859 -0.07916236521 0.0689200106 0.42607569381 -0.026450943197 0.15212276611 0.45440941795 
-0.097716750858 0.060056735243 0.46339724804 -0.056495201673 0.15918050934 0.47593066231 -0.092531957677 0.04127954833 0.48696050961 
-0.077408746373 0.15323013297 0.47318689145 -0.074464568927 0.027578988018 0.49650291009 -0.074000129685 0.12142601935 0.43908389423 
-0.071207942739 0.0032854270615 0.47135021164 -0.065439192968 0.071097117146 0.37329878655 -0.076914523199 -0.047745854052 0.41988003687 
0.12482070923 0.12155914307 -0.48849487305 0.078153700598 0.12369826635 -0.47911816392 0.075952622128 0.066754812637 -0.49524323435 
0.12517350104 0.052317349706 -0.5162892768 0.037728887262 0.12651311056 -0.46673542987 0.031183150721 0.077924176947 -0.47272488628 
0.015451819169 0.1312924577 -0.44561337067 -0.0051678615905 0.08480717798 -0.45377232435 0.0068468458685 0.12683035163 -0.43877585233 
-0.016518094132 0.075189697837 -0.44085435516 0.01027396476 0.11423532819 -0.44450940778 -0.0067431066677 0.054279065522 -0.43468384411 
0.027911764529 0.0836034246 -0.47232628073 0.03371866197 0.012386109595 -0.44991038839 0.050393979308 0.047566401702 -0.50063725551 
0.064676736652 -0.033976698931 -0.47020447385 0.079429271458 0.004405696381 -0.52783961313 0.07923010338 -0.085349977852 -0.49748287081 
0.13531226225 -0.030022920658 -0.55554813551 0.13127210922 -0.13152493016 -0.52049883907 0.19355381721 -0.060450702322 -0.58188706877 
0.17793136019 -0.17185109261 -0.54589243164 0.24905544542 -0.086772245173 -0.60598906813 0.21544999124 -0.20721746901 -0.57054114653 
0.29455668141 -0.12176121409 -0.64495679404 0.23985335896 -0.22994574251 -0.59578884208 0.31564865943 -0.15091115048 -0.68014491037 
0.25266940774 -0.2473590108 -0.62639079618 0.31650682384 -0.17412162346 -0.70954947375 0.23286884773 -0.27050319151 -0.65833766055 
0.34691980123 -0.200285729 -0.72396795113 0.22920277352 -0.28763475734 -0.66892842356 0.34710998128 -0.22317885415 -0.74497117534 
0.23060816959 -0.31136946416 -0.68729606102 0.33495570563 -0.24754864933 -0.76883262609 0.23855160544 -0.32777187747 -0.71763275362 
0.34752899954 -0.28896174431 -0.78816828556 0.23785026568 -0.35986205801 -0.75265062093 0.34680445594 -0.3207119088 -0.80857131805 
0.23508726879 -0.40282772378 -0.77334946677 0.33623465663 -0.34746611897 -0.8263912651 0.23300821057 -0.45072386762 -0.78179912703 
0.30681619765 -0.37262610882 -0.82680746828 0.22540494347 -0.47244325586 -0.77579489788 0.26818917349 -0.3631758037 -0.83716626568 
0.19536103839 -0.47240026075 -0.77400405875 0.22022517763 -0.33304932011 -0.84899976974 0.12342907182 -0.45343683737 -0.77589036778 
0.14587012667 -0.29141492075 -0.83698307142 0.031412988881 -0.40225261546 -0.77206426099 0.084205199492 -0.24177357284 -0.8133423512 
0.0026087661418 -0.30879618461 -0.77767594647 0.031982322747 -0.18853738782 -0.78179035938 -0.032655392325 -0.26007930059 -0.75624017503 
0.028518437915 -0.16713536056 -0.72511670376 -0.031549682826 -0.23785985492 -0.70078671642 0.043001415843 -0.14667541401 -0.66293970597 
-0.019161734372 -0.21374857412 -0.63771030274 0.08345141466 -0.12757854855 -0.59280001279 0.024657721855 -0.20518804271 -0.55169351874 
0.12694093026 -0.12749722762 -0.53789486298 0.078827941546 -0.21500457383 -0.46817531885 0.16990859986 -0.13459104292 -0.48607567775 
0.13802168977 -0.23385664147 -0.38867964369 0.20396619568 -0.15069867544 -0.42496319929 0.18926640979 -0.26733002115 -0.32450112234 
0.22932998673 -0.17332684345 -0.38565955289 0.22239228774 -0.30936303102 -0.27326832269 0.24581699154 -0.20261278684 -0.36862375637 
0.24311099667 -0.32073481081 -0.25492193396 0.26297532467 -0.21294362484 -0.36655175451 0.2525091004 -0.34176176877 -0.24095225463 
0.27605530641 -0.21876116349 -0.36293001559 0.25923962211 -0.35845035722 -0.23057194076 0.26822786644 -0.2181885615 -0.33885849656 
0.25681465804 -0.37421118485 -0.21111177231 0.26263741697 -0.22263483768 -0.33322311924 0.2540720858 -0.38475160546 -0.20845770575 
0.25876944703 -0.23097826699 -0.34234782833 0.24763536613 -0.38793387863 -0.21524656806 0.23317366714 -0.20042206464 -0.34284387058 
0.22538863418 -0.37078743886 -0.21865910521 0.2064883126 -0.16196744061 -0.3311570258 0.19454232404 -0.33430228473 -0.21012841222 
0.17808683756 -0.1110725095 -0.30028168215 0.14855434404 -0.27260389992 -0.18929109192 0.16303062326 -0.044620768205 -0.27185302201 
0.13170504445 -0.19058529187 -0.15820961635 0.15581145876 0.029132220747 -0.24560749252 0.12884352187 -0.093714793256 -0.12799830795 
0.19726430718 0.12586138864 -0.24201988901 0.17187042426 0.012575028182 -0.13227429646 0.23349299852 0.21058988057 -0.23940585003 
0.21071400665 0.11017611893 -0.14831016184 0.25831402303 0.26911324291 -0.23891772337 0.23736788141 0.1805303515 -0.16448867259 
0.26546658491 0.32146156769 -0.24790246505 0.24498485741 0.2294277677 -0.19102393007 0.25804129343 0.36871500709 -0.26470305852 
0.2411350206 0.26275581372 -0.2167926883 0.23621800359 0.37276390334 -0.29454138485 0.2265863559 0.26773668686 -0.26375278615 
0.21055087319 0.36460938172 -0.32751772012 0.20937000981 0.27009089372 -0.31508843716 0.18067081807 0.32801972053 -0.35622016216 
0.18466918161 0.24588219451 -0.34837522534 0.15704206486 0.28897691242 -0.38058499956 0.16581410796 0.21439281232 -0.37773508791 
0.15099995886 0.24303272119 -0.39274695129 0.16131667333 0.16964790582 -0.40936275346 0.14241814911 0.20915073007 -0.41447249154 
0.15821487758 0.13498411239 -0.43966402329 0.13125275959 0.18753932604 -0.44592684118 0.15771146019 0.11093670569 -0.47030322187 
0.12676722608 0.15636640356 -0.46883505281 0.14523230781 0.080031444479 -0.49659328277 -0.07906209681 -0.3247761156 0.3044107269 
-0.069899349016 -0.28703491169 0.32258942805 -0.067720376387 -0.38201031389 0.31537661878 -0.0022550417175 -0.49030692127 0.35692010511 
0.067785619956 -0.53630684523 0.35964108564 0.13420512764 -0.55487385919 0.31197360236 0.20471695491 -0.54995038048 0.19661087639 
0.25312940903 -0.50750089535 0.082606559168 0.29965372127 -0.4560397069 -0.01002965317 0.32515890906 -0.40542455345 -0.071117239672 
0.33556845204 -0.36603456732 -0.072652900615 0.33948591147 -0.34443129718 -0.059980743816 0.36449033148 -0.33880040175 -0.069662139381 
0.39213068288 -0.28549960399 -0.08851844111 0.40281280841 -0.2433573765 -0.14143144295 0.40202587248 -0.1953143002 -0.19302642303 
0.38246043628 -0.18319321615 -0.222925295 0.36714647928 -0.17413897788 -0.25213542891 0.36929948671 -0.20747538258 -0.26899584621 
0.37908424294 -0.23762348838 -0.27197376517 0.38766830476 -0.25731782988 -0.28261712766 0.39884489709 -0.24972848586 -0.30830829442 
0.40008426443 -0.21416584206 -0.3465385879 0.36551672887 -0.18601211571 -0.4172191867 0.35017668079 -0.095690564113 -0.4554289415 
0.31374768917 -0.07035873756 -0.45995036844 0.26627417728 -0.047791881902 -0.40692153527 0.19869899644 -0.026253890928 -0.31542924952 
0.12256315842 -0.0081461707238 -0.20873188544 0.040498943768 0.0025679364034 -0.10079650282 -0.03562258345 -0.0027412063379 0.0034192284519 
-0.09275095445 0.0074634371663 0.10757322301 -0.13899662381 0.010236359878 0.20290136082 -0.17082638302 0.0045569492496 0.28818449686 
-0.17543174094 -0.0050152450902 0.35431986313 -0.17885249584 -0.024466311513 0.40427293338 -0.18250857861 -0.046916709127 0.43589572684 
-0.13834025438 -0.083948405419 0.44693201564 -0.099237174092 -0.11779368274 0.45186178335 -0.077112854924 -0.14752689633 0.4391809442 
-0.067998087633 -0.18039834036 0.40784293631 -0.066758504903 -0.23359313939 0.36560174776 -0.0038661544497 -0.025391935544 -0.42754406329 
0.051638383654 -0.04342350374 -0.45445391876 -0.037580302408 -0.025558877132 -0.39802198916 -0.069638627132 -0.033890938967 -0.37507545651 
-0.082217518753 -0.048750522615 -0.35963507309 -0.035206461859 -0.10085863877 -0.36723432208 0.00012434605372 -0.1512124427 -0.37654974938 
0.024650381218 -0.20568944832 -0.39859671856 0.082198161281 -0.25527277222 -0.4253082268 0.11237737095 -0.30155950946 -0.46737962139 
0.1265735284 -0.33074941845 -0.50745298865 0.13361765763 -0.35025342881 -0.53822072735 0.14717209263 -0.35809520247 -0.57846298434 
0.12605996916 -0.35326982368 -0.60188504932 0.1063608367 -0.36072481517 -0.61685315718 0.086391815376 -0.3794459559 -0.63796474639 
0.10125536025 -0.40861090426 -0.677524487 0.1215966178 -0.44938876529 -0.71272784793 0.12044710288 -0.5037169076 -0.72810624715 
0.12381748311 -0.56681590011 -0.72536171716 0.11889168185 -0.59469553408 -0.72377881625 0.095839008561 -0.60552714018 -0.71893086153 
0.041540014357 -0.58050733857 -0.70643119057 -0.028213148993 -0.55045108577 -0.68933325375 -0.092550398738 -0.3382518624 -0.71966141694 
-0.056750043205 -0.36074296492 -0.74244075167 -0.079348097184 -0.31550865056 -0.65658374094 -0.046767154198 -0.29267068469 -0.5854378093 
0.026565468012 -0.29309511042 -0.50357526684 0.088795349892 -0.29361049891 -0.40237584853 0.14811690541 -0.30668204332 -0.30121982073 
0.20587641499 -0.3409674984 -0.22623178609 0.24128986485 -0.41301193883 -0.1507374677 0.23386733017 -0.44837408578 -0.15153990591 
0.2529053902 -0.47631617395 -0.14679277323 0.26606353592 -0.51017142014 -0.14450506555 0.28222601357 -0.5358920187 -0.13580962436 
0.29081545204 -0.55564312996 -0.13843875498 0.28628668955 -0.57299286399 -0.14200895192 0.24986191188 -0.55256734589 -0.13899391124 
0.21525546607 -0.50838231809 -0.116695198 0.17743663754 -0.43021346811 -0.087516589756 0.1457097348 -0.33182439136 -0.057175241304 
0.12307792709 -0.22579537695 -0.03075118995 0.1588930967 -0.11673744257 -0.03102895242 0.18576050256 -0.018195524795 -0.042161094046 
0.22134825793 0.063691154315 -0.069638306749 0.23290576472 0.12296733079 -0.10971062987 0.22232623761 0.16364916935 -0.16799138762 
0.20727248732 0.16224368269 -0.22160321634 0.19238939683 0.14838476894 -0.27462727608 0.17684690062 0.12995025062 -0.31152884391 
0.17398892666 0.10545084995 -0.34571552823 0.18211764658 0.057140247388 -0.37436620116 0.18871055574 0.013652031469 -0.41088772186 
0.19091206972 -0.023015651032 -0.44968101776 0.15475084623 -0.045002555695 -0.46697769595 0.10937577724 -0.054659937951 -0.47852460708 
-0.070834336227 -0.43914656344 -0.71723494253 -0.082281760398 -0.55489446691 -0.66262784412 0.16014822044 -0.63975922491 0.32159512864 
0.10077933623 -0.60539942593 0.3262758549 0.23677749855 -0.65397325532 0.25986423109 0.32307365949 -0.63882032245 0.15560807227 
0.37312976366 -0.59401727112 0.022239162303 0.39644295928 -0.53741478339 -0.073270513199 0.39715269035 -0.47186443414 -0.13930086678 
0.3836082069 -0.42426329355 -0.14618150169 0.36510892308 -0.40326560755 -0.13343957418 0.36935076433 -0.39672946376 -0.13918204529 
0.38290958609 -0.35179396914 -0.16532348936 0.38188604343 -0.29894852705 -0.22129740834 0.37924958567 -0.24966813773 -0.26631013539 
0.3564315651 -0.22063992252 -0.29029342202 0.33038736627 -0.23280885628 -0.32049047172 0.32951017304 -0.25387000279 -0.30686431078 
0.32739172058 -0.28904223953 -0.30483201253 0.32664845238 -0.3182777125 -0.3029398238 0.34032098947 -0.3323792583 -0.31097603822 
0.33237948653 -0.30700098404 -0.33332293976 0.29355207613 -0.29620208797 -0.37579911684 0.18058526006 -0.17454498022 -0.47387451918 
0.21079493869 -0.20189987314 -0.47961079829 0.13653432178 -0.15170412438 -0.42092414816 0.073488319893 -0.12978681158 -0.34250300238 
0.00056253199896 -0.11510914775 -0.23749960301 -0.077447170204 -0.09982822149 -0.13085790642 -0.14747238909 -0.071128786478 -0.018975740467 
-0.20064556243 -0.059188752684 0.085336341288 -0.24722846198 -0.062868476488 0.1796927115 -0.27806022955 -0.072983293619 0.26609676645 
-0.27146842787 -0.07473065156 0.31720252124 -0.25833804575 -0.10707071229 0.35010106793 -0.23140894241 -0.13444469844 0.36546514503 
-0.19192531664 -0.1992837644 0.35421241273 -0.13004606945 -0.23008495246 0.37260118045 -0.11350922559 -0.23135037446 0.38197092089 
-0.097206964485 -0.25559213091 0.3649996817 -0.097835998831 -0.30037493065 0.32837192303 -0.086445378916 -0.36276172215 0.30414007469 
-0.075610167937 -0.40754874174 0.29279035592 0.22693547802 -0.24558461222 -0.45616571494 0.21746568314 -0.3119602906 -0.41895758269 
-0.087132644835 -0.42537390681 -0.67072896689 -0.091354962193 -0.54565540033 -0.61838314692 -0.065135460806 -0.40435967255 -0.60508812991 
-0.015691114339 -0.37475686331 -0.53156332056 0.061096923699 -0.36523883445 -0.42152646022 0.1309209453 -0.35638451755 -0.32147132328 
0.18699887618 -0.35989358395 -0.23462900754 0.22471382255 -0.39049644198 -0.16322584166 0.25508459995 -0.43981858904 -0.10164013052 
0.28087565467 -0.57663515691 -0.1041841807 0.2468359274 -0.54072594142 -0.1079831627 0.29728346248 -0.62136366813 -0.10181794095 
0.31706176698 -0.66140095884 -0.096770215783 0.31938071983 -0.69358736135 -0.088083123568 0.31488268197 -0.71259696528 -0.082571915674 
0.29334096743 -0.692459344 -0.069895407669 0.25764925341 -0.6428422449 -0.046479429786 0.21466279093 -0.56225444578 -0.015688675314 
0.16701219322 -0.46922606533 0.020975323036 0.12103574331 -0.36505521577 0.052771670796 0.13600894847 -0.25142068005 0.055649139536 
0.16451640648 -0.1545029769 0.044436778668 0.19526071529 -0.077455281423 0.021894909672 0.20423585698 -0.016337629741 -0.029247250083 
0.1991638891 0.023474731587 -0.088825013167 0.18188499129 0.021257762116 -0.15634275548 0.16852510752 0.0092900390821 -0.21710829115 
0.17455008478 -0.015625272087 -0.2587770044 0.17842321898 -0.035471067115 -0.29149503543 0.19523453834 -0.083415377196 -0.31740346766 
0.19393807193 -0.13478618567 -0.33511601929 0.19016209226 -0.1809055867 -0.35694290636 0.13448765261 -0.21312206506 -0.35080814611 
0.072695108704 -0.21253286052 -0.35831173935 -0.0092679052043 -0.19570571452 -0.33545298874 -0.0724916346 -0.16693090218 -0.30770323967 
-0.12988122256 -0.15243107271 -0.27263331725 -0.15605370028 -0.16198299737 -0.23956809541 -0.1632377341 -0.17996121936 -0.21448965241 
-0.14060165836 -0.21797170421 -0.20811179878 -0.096348394015 -0.27478806807 -0.22094983213 -0.056832779073 -0.33864187315 -0.24950563823 
-0.028721451533 -0.3954211249 -0.31020181225 1.011838089e-05 -0.43812891793 -0.36884044683 0.024394908995 -0.45899309537 -0.43213021861 
0.026835348651 -0.4568384013 -0.4795901605 0.024194001612 -0.44788787487 -0.51918336866 0.0092346989679 -0.44573336473 -0.53260552603 
-0.010765379603 -0.43120425722 -0.54743623433 -0.055275337402 -0.43676518036 -0.55721669447 -0.022250859155 -0.45802461668 -0.63260936606 
0.0037255206004 -0.52537422491 -0.65142678461 0.021756033514 -0.59688399256 -0.66655324123 0.048457206289 -0.68741131956 -0.67091382419 
0.033978283243 -0.72228124925 -0.66342444459 0.013089390274 -0.74033871237 -0.65783592274 -0.017378002201 -0.69610329757 -0.64648222581 
-0.073468119248 -0.69313961352 -0.61621433676 -0.11151532043 -0.70675548937 -0.59343539994 -0.074818250437 -0.68211909416 -0.56910608892 
-0.020186754014 -0.51292377684 -0.5346646703 -0.0060580760826 -0.66282120105 -0.51480774509 0.24093990498 -0.50847084724 -0.095506273174 
0.2672962829 -0.51009666957 -0.067258124643 0.1264701975 -0.29016899022 -0.48487722707 0.12382646821 -0.3092037227 -0.44127350452 
0.11635784266 -0.25773773438 -0.49418666086 0.07973086787 -0.24366552666 -0.48290671235 0.046148815898 -0.22750841029 -0.4408295064 
-0.017155169524 -0.19861273943 -0.35516524758 -0.083596047526 -0.17881348653 -0.25684386361 -0.15533831294 -0.16087144338 -0.15158247713 
-0.23401144933 -0.13062388259 -0.055375269514 -0.28085960402 -0.1202575004 0.046003351621 -0.33425631095 -0.1258271936 0.14247259953 
-0.35200738696 -0.11965881173 0.23005180673 -0.35548610509 -0.1440943505 0.28077134298 -0.33675306559 -0.17444155671 0.30808338547 
-0.30264030422 -0.20357464971 0.31268816155 -0.26832770666 -0.2334066044 0.29787867564 -0.14564944815 -0.26871684362 0.31483890529 
-0.16296705258 -0.28077761222 0.30890160604 -0.14104515351 -0.26697927117 0.30204187131 -0.14087799139 -0.32497865113 0.27528840593 
-0.13050185155 -0.39667135826 0.24907174832 -0.12223870368 -0.4485913904 0.24156001553 0.28509318309 -0.72203880491 0.24439749516 
0.19670539074 -0.68073275371 0.2702669237 0.37653533963 -0.73780011746 0.17763304189 0.45950627542 -0.72547917619 0.083174161768 
0.52163125791 -0.67807609242 -0.049918019877 0.52559830007 -0.61485223302 -0.14918732352 0.49724591916 -0.54587326131 -0.20536933908 
0.45296162562 -0.48662709686 -0.21493208933 0.39934265982 -0.44809739994 -0.19059486098 0.38272977012 -0.43625069797 -0.1768622127 
0.37162177021 -0.40239295073 -0.20001984558 0.37558946282 -0.33483995604 -0.27363873459 0.37449430299 -0.28474116723 -0.32574160973 
0.34879900653 -0.25217443087 -0.33643321033 0.31602762832 -0.25609692997 -0.34232554957 0.29792652344 -0.29600115491 -0.32445987795 
0.29187983624 -0.34587623715 -0.31198524336 0.29215592816 -0.38686582448 -0.3104081684 0.28878485158 -0.4012147021 -0.32073698055 
0.28077977669 -0.39439000235 -0.33726611997 0.24894240221 -0.39274235245 -0.35213210735 0.17261585548 -0.38054029012 -0.38567711215 
0.098899993822 -0.37627527444 -0.40727258166 0.059651260644 -0.30048323619 -0.44992100351 0.038066120311 -0.36341871279 -0.40860824827 
0.056407920647 -0.280722355 -0.48011360537 0.057589732203 -0.57989826745 0.28297797224 0.14655260654 -0.63489742718 0.23766636567 
0.034671551438 -0.5633111932 0.24226507997 0.091730568292 -0.59974209814 0.22812876878 -0.20161962272 -0.26976088126 0.29415553536 
-0.24957645136 -0.29938454935 0.27261182656 0.054372711166 -0.45399768219 -0.44278111696 0.14272723888 -0.42135112694 -0.34135347357 
0.20830981514 -0.39869870116 -0.25468813491 0.24193150417 -0.39867915403 -0.18208745597 0.2677503983 -0.42680592948 -0.1223801533 
0.28201552453 -0.47736981055 -0.087312867947 0.30929487395 -0.54038929701 -0.051710612213 0.27944984196 -0.58519480686 -0.048560690923 
0.31438343479 -0.60210204067 -0.037600190878 0.24880410587 -0.57538305061 -0.061044158077 0.24555807569 -0.59563686431 -0.0746734818 
0.25632193686 -0.64372346593 -0.083048660589 0.27922687167 -0.69014159095 -0.06855975373 0.30507736865 -0.73690207528 -0.056291669246 
0.32525538828 -0.76616520234 -0.045889661769 0.32837700646 -0.78795925473 -0.036049411949 0.30636651663 -0.76813442301 -0.027294237853 
0.28258197156 -0.73268691825 0.0067742250892 0.24077072399 -0.66796317872 0.047310265209 0.20029480774 -0.58728563535 0.087025857347 
0.16691640006 -0.48696940927 0.11401980561 0.14583402459 -0.37974063642 0.11920156146 0.14489379352 -0.29421294131 0.11251066453 
0.164037083 -0.2178954457 0.091203033966 0.16698233822 -0.17399360982 0.051611346783 0.15847626907 -0.14479367472 -0.0042111437093 
0.14495443717 -0.14721138458 -0.077510914761 0.13687801857 -0.14922294677 -0.14003353722 0.14675950684 -0.1636682675 -0.18787516729 
0.16097029724 -0.19321453747 -0.22465810591 0.1804601195 -0.24808994009 -0.24223982632 0.18275717179 -0.30327118301 -0.23704566169 
0.17635976934 -0.36228374939 -0.20963894999 0.073616527777 -0.45586054533 -0.14248187625 -0.0081537327054 -0.39714357673 -0.16383340417 
-0.081298937817 -0.35230219419 -0.16683103409 -0.14549119437 -0.32194287292 -0.14632123314 -0.20174163482 -0.29621334881 -0.11155008059 
-0.23349895588 -0.29499649999 -0.076736620074 -0.25515132455 -0.30194633397 -0.04336682729 -0.23003890503 -0.35216653122 -0.039761164841 
-0.19945369307 -0.40787427042 -0.059318141896 -0.15762152845 -0.46963497524 -0.10064209058 -0.13032237534 -0.52134159278 -0.18555903445 
-0.11031607276 -0.5513898651 -0.27181385229 -0.097003616762 -0.56191999476 -0.34382143614 -0.098577159697 -0.5521949662 -0.39811444478 
-0.099564789645 -0.53891029348 -0.44547201089 -0.10104834544 -0.48992062792 -0.46123592176 -0.11388415131 -0.46851901853 -0.47365704028 
-0.1581021519 -0.46584228274 -0.46371372071 -0.055058310678 -0.59596302513 -0.58378861913 -0.090131874411 -0.52365898864 -0.55840999144 
-0.038028339731 -0.6800656921 -0.59165857965 -0.036441139014 -0.7776215618 -0.5824462493 -0.050996729812 -0.83118218738 -0.59092464796 
-0.065303469004 -0.84292056326 -0.60340290161 -0.06977668813 -0.79063778444 -0.60861700179 -0.10220619016 -0.82036908584 -0.57973405647 
-0.12248935316 -0.83255314445 -0.55025084646 -0.10698409272 -0.81513246047 -0.52138283693 -0.031202179445 -0.77642764202 -0.48497542156 
0.10121109239 -0.63707135753 -0.44862128808 0.073790923924 -0.72252098993 -0.44198063352 0.13161130384 -0.55972000362 -0.42003584044 
0.1882600347 -0.49318394352 -0.35282356289 0.25817673782 -0.47046589632 -0.26083731751 0.30679973662 -0.45765513053 -0.18199562743 
0.32231862757 -0.45490735413 -0.12956872389 0.32670841743 -0.4716488769 -0.09234326692 -0.1255314628 -0.89535697734 -0.48144241526 
-0.17656052548 -0.92779324971 -0.50124148904 -0.063823001742 -0.84581196564 -0.46437218713 0.03644810191 -0.78258371429 -0.43581594823 
0.17217527102 -0.66305679795 -0.4012629473 0.15584716808 -0.70512950825 -0.41221394955 0.20197652877 -0.59864121398 -0.38550197119 
0.2358616716 -0.54721926508 -0.35570880003 0.28537972899 -0.51290706861 -0.28678762451 0.34131179253 -0.49859784891 -0.20048127517 
0.3775490422 -0.51116816244 -0.14032951674 0.39842103307 -0.52189525475 -0.093940167284 0.37300231417 -0.5379564087 -0.076087577571 
-0.14554775338 -0.48612513992 -0.49275874123 -0.20844264517 -0.46065430884 -0.43087661117 0.048304067289 -0.27159129013 -0.50011793165 
0.018371348291 -0.25821386726 -0.47626886909 -0.015078598121 -0.25079858241 -0.43658237157 -0.063780464137 -0.24589395662 -0.36324472677 
-0.12465739316 -0.21666365922 -0.27924858572 -0.19368519858 -0.19582676379 -0.18111567356 -0.2608510908 -0.1753637594 -0.091482692475 
-0.31833428216 -0.17053070379 0.0071882194407 -0.36296637928 -0.17079060708 0.10220858299 -0.3702847672 -0.18255861073 0.17617510241 
-0.38491585635 -0.21207264939 0.23794659051 -0.37117954904 -0.23151171463 0.25932790364 -0.34906886831 -0.26492502117 0.2772859833 
-0.31318538642 -0.30179023164 0.26707791387 -0.29129416494 -0.32941843403 0.24593877788 -0.25643278024 -0.3457630555 0.23289921783 
-0.2882475188 -0.36765223169 0.20955364736 -0.22291463714 -0.31479558699 0.25152141014 -0.19802606326 -0.30333002587 0.25440362019 
-0.18540350959 -0.3161729242 0.24007181921 -0.18271705664 -0.31381529184 0.2225189544 -0.18793209178 -0.37015835967 0.19714782346 
-0.17455695215 -0.42205917373 0.19310326548 -0.15419333741 -0.47028508356 0.19497871456 -0.080073513737 -0.48403608901 0.24510157011 
-0.1152126145 -0.48339830362 0.20254898526 -0.019813985587 -0.52580925608 0.24614229785 -0.058643480653 -0.51267134993 0.20833441733 
0.013599173667 -0.55101485915 0.20301376069 0.093261506062 -0.59193778797 0.1926975186 0.18103161572 -0.65163331041 0.18673188699 
0.27621291073 -0.71401467524 0.18065199893 0.3871951036 -0.76428760637 0.1501567315 0.49736796151 -0.78192435344 0.081145030973 
0.59495013166 -0.77671611977 -0.0054975769461 0.63030568834 -0.74473031184 -0.11186535429 0.62241738291 -0.67775009012 -0.19712444633 
0.57576463371 -0.6073289756 -0.24574848355 0.50381284663 -0.54341297499 -0.24870638192 0.41639246228 -0.48100239773 -0.20435898247 
0.37167114603 -0.46535187598 -0.15993668699 0.33257238883 -0.45588593119 -0.12393747776 0.37059733609 -0.3227664636 -0.31504496884 
0.37527396041 -0.36279445593 -0.26088083298 0.33524869446 -0.30422578885 -0.35265608263 0.31127808177 -0.30283987064 -0.35791486568 
0.28102169632 -0.33979911948 -0.35132870655 0.26191571109 -0.39561502667 -0.33996326284 0.25143756467 -0.4500923494 -0.33431761394 
0.23774271409 -0.48058398585 -0.33958752949 0.21124751454 -0.49186748664 -0.34541455184 0.16323452505 -0.49926846993 -0.35002888508 
0.10940109995 -0.48794935961 -0.36871834518 0.046315596493 -0.46336257083 -0.37060892373 -0.012399326167 -0.44020373425 -0.37182862721 
-0.0053689742696 -0.34052405186 -0.40670425521 -0.04563895234 -0.4118571262 -0.38160242729 -0.0027938659763 -0.30918402067 -0.43713559234 
-0.0074285358583 -0.27750012064 -0.47449416242 0.36296195078 -0.4155963562 -0.18981786157 0.31826805937 -0.48301650214 -0.085273167815 
0.37931526745 -0.62057300555 -0.046720528997 0.3390806214 -0.54842958594 -0.058666498631 0.3218507451 -0.66069811056 -0.018378858073 
0.38767888975 -0.67052235981 -0.032168632293 0.28170735397 -0.65275782348 -0.028398708764 0.26399906971 -0.64670662597 -0.042055295725 
0.25269451366 -0.65883854504 -0.045499428234 0.24144337969 -0.67610951428 -0.034538530645 0.25933487668 -0.71405800289 -0.0069587999214 
0.27623837829 -0.74513965499 0.027160163003 0.29876589545 -0.78164215337 0.026515591787 0.30683241732 -0.80967150771 0.022949969775 
0.29749611449 -0.7960122112 0.02114650112 0.28206864493 -0.76682037735 0.048497635191 0.25793296953 -0.7278595885 0.09485598726 
0.22811626106 -0.68122951844 0.13540713191 0.18338721266 -0.59329864563 0.15420949313 0.13382567407 -0.50327571398 0.16042112102 
0.12959563969 -0.42928662287 0.14635759765 0.13194426318 -0.36375224627 0.13640549255 0.12960028344 -0.32831133246 0.10879686349 
0.113857111 -0.31098009304 0.065278353399 0.099687119011 -0.31389449113 -0.0031464967968 0.090226262087 -0.31199510099 -0.060957195808 
0.10125678306 -0.32056150065 -0.10485115365 0.12205356495 -0.3413231359 -0.14265628455 0.15718747264 -0.37952814242 -0.1614216872 
0.17623464214 -0.43488219541 -0.15128519723 0.16925858322 -0.50339919948 -0.12030208724 0.087576605295 -0.5707610194 -0.054572272522 
-0.15990882764 -0.47765480974 -0.00600226652 -0.096557758434 -0.52480236777 -0.0082734842358 -0.21722988243 -0.44932697442 0.012074557388 
-0.27674152789 -0.42611119666 0.038261490178 -0.30502555665 -0.42339255537 0.072003354446 -0.31947929752 -0.43616780212 0.10044644384 
-0.29475854798 -0.48627768624 0.1002108298 -0.2739740514 -0.53442894889 0.07601104921 -0.24449348829 -0.58404223466 0.032760287473 
-0.22666056861 -0.63401699138 -0.058483645429 -0.21143036151 -0.6572220846 -0.16615606061 -0.20470841035 -0.6475288024 -0.26660351692 
-0.20287238717 -0.62544608873 -0.33862484887 -0.19808149045 -0.59502720377 -0.39799243367 -0.20030795649 -0.54252664882 -0.413355853 
-0.20547672176 -0.5007700659 -0.42312845454 -0.20948243446 -0.48868634065 -0.42834672641 -0.2360279584 -0.47879258817 -0.39813089308 
-0.22835404894 -0.46303701082 -0.39348514381 -0.26757365748 -0.46366313537 -0.36881657007 -0.1721502885 -0.50469187785 -0.45045286664 
-0.12959422386 -0.54483266693 -0.49467401712 -0.10305872047 -0.61340832878 -0.50854359508 -0.087320733034 -0.69530589289 -0.5047859872 
-0.1007429091 -0.80349305973 -0.49593685359 -0.12487851077 -0.87883264127 -0.51237767709 -0.127961205 -0.90516127634 -0.5507609699 
-0.045126157206 -0.59136020712 0.0077918674539 -0.0015830872564 -0.64334615371 0.022851480163 0.41832284458 -0.60753012485 -0.064881574188 
0.44254835565 -0.66371012742 -0.048156557568 0.3527510617 -0.71258905767 0.012914519625 0.41075058204 -0.70077843946 -0.0066477890705 
0.30534604526 -0.70929459598 0.0061981625259 0.27462680151 -0.6875716687 0.0062848775596 0.25043009376 -0.6690077128 0.0018471367172 
0.23294290799 -0.67949139612 0.02062085679 0.21990402762 -0.69771930338 0.050248230928 0.23707700123 -0.72596519393 0.091808828231 
0.25552385055 -0.75292544128 0.12842946433 0.27304874063 -0.76461282589 0.10960651036 0.28915382595 -0.77400362064 0.086492487854 
0.29408806782 -0.77533714634 0.057761355443 0.30048948992 -0.76916388923 0.059564274002 0.30738796409 -0.75765450946 0.094303675684 
0.28188468756 -0.74523755007 0.12809369587 0.21103928602 -0.67212367593 0.16436756089 0.15496362428 -0.61539091211 0.16934076263 
0.1292030225 -0.55939390807 0.18109265056 0.10882483076 -0.49677626247 0.1891606843 0.07454946685 -0.46616582178 0.16558115916 
0.050993017937 -0.44264495839 0.12968952496 0.033905208196 -0.44446472044 0.086658283058 0.02493186325 -0.44458008592 0.031957691828 
0.03578851296 -0.44792705112 -0.032760818997 0.063725206965 -0.45776773468 -0.075954341011 0.11645803906 -0.47449169067 -0.095150524114 
0.14901012446 -0.51899726436 -0.094874463357 0.16001496451 -0.57865992207 -0.073952135368 0.10556821455 -0.62872151576 -0.029241520034 
0.010691020951 -0.65298343978 0.013841879344 -0.093124909526 -0.65751810141 0.055283324003 -0.068616313467 -0.66420213837 0.046903127591 
-0.13188671704 -0.6285413115 0.067482838493 -0.1779702312 -0.60248220225 0.083028995011 -0.23041617335 -0.5727751855 0.097938322616 
-0.27080675487 -0.54823910627 0.11802958575 -0.32177251884 -0.52627817124 0.14330740532 -0.34545823698 -0.52811165443 0.17239262047 
-0.36404416494 -0.53910172083 0.20137122579 -0.35296920736 -0.58136289443 0.19838056706 -0.33280494786 -0.62247051246 0.16817509219 
-0.30103572429 -0.66468079739 0.10102713082 -0.29845243871 -0.70013979964 0.003687401142 -0.2758967519 -0.69784952214 -0.12039367722 
-0.26339678246 -0.67848683766 -0.21812476152 -0.25894654085 -0.64094324429 -0.29826765758 -0.25258473925 -0.60091746736 -0.37033215346 
-0.26233109897 -0.55400560504 -0.36881237793 -0.26058008663 -0.50841552958 -0.37689966165 -0.27916936058 -0.48577334774 -0.36386251266 
-0.28915753305 -0.43501277121 -0.35804340981 -0.28140251982 -0.45411602586 -0.36731018999 -0.24248775346 -0.45887039723 -0.37346928227 
-0.18271512618 -0.48755607548 -0.40354937627 -0.14774168381 -0.54165256248 -0.44269032653 -0.13405538238 -0.57677260412 -0.42714910567 
-0.12053556812 -0.64961931171 -0.41675752523 -0.13738318971 -0.77416284608 -0.41106444305 -0.18478735579 -0.89231516844 -0.44556590109 
-0.020866772868 -0.2699099122 -0.49208251264 -0.042580157931 -0.28257224969 -0.48395486988 -0.063829928035 -0.28501635936 -0.44013618361 
-0.094248137577 -0.27351273355 -0.37617736191 -0.14721523951 -0.25014056451 -0.29618692568 -0.20289160315 -0.22732816117 -0.2160740511 
-0.26245668318 -0.21747451889 -0.12517235138 -0.31343649207 -0.22237720409 -0.029662415635 -0.35705553158 -0.24002939058 0.061131227082 
-0.38483194445 -0.26481815609 0.12521136909 -0.39580838753 -0.2971217221 0.18530589004 -0.39096432751 -0.32390190234 0.23331397058 
-0.37080540723 -0.3309331698 0.24007476097 -0.34324599323 -0.34217616936 0.23644647151 -0.31832055795 -0.35251790616 0.22616976773 
-0.31676206502 -0.39920802493 0.20189962723 -0.28561067842 -0.42392524701 0.15944612601 -0.30797212718 -0.47468859424 0.18403738451 
-0.25240372829 -0.38667635777 0.18385388041 -0.23761772552 -0.36958532501 0.20361960653 -0.21949545655 -0.35176104267 0.2033970807 
-0.22108731662 -0.35115857461 0.17765254354 -0.22250657136 -0.36905827374 0.15407966171 -0.22783526361 -0.40726308011 0.13297791186 
-0.22646540303 -0.44098996722 0.13176630931 -0.22255206816 -0.46757081113 0.14535227478 -0.16824118344 -0.47716879899 0.16442827675 
-0.098278765589 -0.50196225041 0.17328033716 -0.018326426115 -0.5408729115 0.16687855964 0.077641907368 -0.59032115162 0.15502179164 
0.18562320455 -0.65184848039 0.13529256731 0.30320885425 -0.71420144467 0.11640585768 0.43761810691 -0.76177226383 0.086382070647 
0.54539970063 -0.78583194406 0.022138212119 0.65216419592 -0.78186939619 -0.049183289781 0.70705344444 -0.75488857302 -0.13303207439 
0.67858706584 -0.70828965341 -0.18782242984 0.61097010185 -0.6414318183 -0.22418842744 0.52867803596 -0.56218158233 -0.23032055623 
0.42619546701 -0.51121554385 -0.17488523442 0.34590290272 -0.50104585109 -0.099759445918 0.28324805689 -0.50950385316 -0.018487588232 
0.26615379024 -0.54873472052 0.027862167494 0.33815784055 -0.502979135 -0.065156656574 0.29456023117 -0.57243460158 0.039561832736 
0.37716387575 -0.44077732913 -0.16541895709 0.39442724841 -0.38807467108 -0.23661683529 0.3825100299 -0.36043036215 -0.29056173711 
0.3558480733 -0.34537091657 -0.33992011593 0.3203095417 -0.36033452711 -0.36591723693 0.28855937582 -0.40716055433 -0.37025637811 
0.25611507705 -0.46537286975 -0.37168264093 0.23237985337 -0.53537978584 -0.36589973401 0.2011587962 -0.55706774856 -0.35865125329 
0.17100539892 -0.56541076406 -0.35517843804 0.11526300197 -0.57683774189 -0.35435366481 0.050477361203 -0.5895334147 -0.35520090511 
-0.012470900708 -0.57071406782 -0.36426450165 -0.059531947083 -0.55387132276 -0.35463930312 -0.08833165724 -0.50346412406 -0.3441757265 
-0.071193598193 -0.35676863533 -0.37289904219 -0.10547185958 -0.43158253264 -0.33763320973 -0.039588388912 -0.32268395045 -0.4098975059 
-0.053025572826 -0.29965955055 -0.43327232232 -0.073704662249 -0.26455623345 -0.47401760653 0.2492694465 -0.70933417804 0.041534187874 
0.20787844483 -0.71789995974 0.12498231006 0.21701988283 -0.72728558324 0.17218711174 0.22385193466 -0.73140310918 0.21405877026 
0.24862160505 -0.73275717195 0.18418045996 0.27289168034 -0.7370194666 0.15143710787 0.2951119909 -0.73049967104 0.10677199456 
0.31651863039 -0.72297254728 0.075460724052 0.35501172952 -0.72858349681 0.083851803384 0.40793159979 -0.73641620554 0.080125618967 
0.17716277126 -0.66477163925 0.1631953275 0.25158344672 -0.70038722871 0.14488564693 0.15070261371 -0.62862902123 0.17873880998 
0.10157755148 -0.59607235198 0.18549567778 0.065014365225 -0.56175049864 0.19565981311 0.027835931253 -0.53424317484 0.19413980841 
-0.0069273945262 -0.53859292442 0.15002225121 -0.028825350772 -0.54004392292 0.097646494653 -0.024165183623 -0.53953413216 0.029207501733 
0.0018626732596 -0.54273360972 -0.026455802226 0.064263445186 -0.55257578818 -0.04877033142 0.10692534915 -0.57557969686 -0.057049121064 
0.10847093895 -0.6090249883 -0.042004149993 0.087391715387 -0.63525626138 -0.022620221814 0.004605662438 -0.64277875839 0.0097955732938 
-0.092077321372 -0.63005288275 0.037897431134 -0.14979768213 -0.62125251421 0.063436573959 -0.15458006552 -0.57749218002 0.048094660108 
-0.1519795344 -0.65355975996 0.077374435663 -0.17353160505 -0.6426348058 0.089283843628 -0.20704286527 -0.636332147 0.1179336934 
-0.25108848983 -0.62156909977 0.1408005284 -0.30384873483 -0.60382978099 0.16553786296 -0.35073991628 -0.5831612882 0.18681930754 
-0.3657476623 -0.59201898362 0.21159202795 -0.38000753992 -0.59561229015 0.234533091 -0.37258670495 -0.62730874808 0.21295852648 
-0.36015313621 -0.65568436888 0.18732411202 -0.33738542845 -0.68830328104 0.13015056285 -0.32972112555 -0.70271489589 0.062954041579 
-0.31024872933 -0.655613752 -0.21009310999 -0.30276031753 -0.6843685894 -0.12619314421 -0.30313170413 -0.61517290662 -0.27999397839 
-0.29847750963 -0.57116639908 -0.34760538988 -0.29045421862 -0.52286551416 -0.3555363245 0.33136171602 -0.74881168875 0.12854868704 
0.44486575963 -0.74815020369 0.068962576463 -0.28066613587 -0.48850568975 -0.377771733 -0.25951124756 -0.41349993609 -0.38836747481 
-0.24792575802 -0.44641481202 -0.40311745568 -0.2595228031 -0.39479652207 -0.36932042459 -0.22303350059 -0.41605504127 -0.36482320966 
-0.17614807684 -0.51360097255 -0.3795570287 -0.093176322834 -0.27682643741 -0.48374679186 -0.1044943043 -0.29189047967 -0.48102214924 
-0.11691300844 -0.29663546784 -0.4334597865 -0.12859610614 -0.30018354324 -0.38711911518 -0.16035464643 -0.28673916611 -0.32126594063 
-0.20096328425 -0.27591520517 -0.24991696486 -0.24765570764 -0.27555906064 -0.16455056384 -0.29360652398 -0.29003574325 -0.077724690695 
-0.33843897022 -0.32669429918 0.0052262606605 -0.37072683291 -0.37479684708 0.071824096934 -0.39315023624 -0.42178796887 0.1395660957 
-0.39546261478 -0.43389787632 0.19296094305 -0.37937634195 -0.42060458547 0.20815113981 -0.3503598394 -0.41975015722 0.21418402258 
-0.35765548136 -0.53152739775 0.18866320383 -0.30547362548 -0.5333993206 0.13609867715 -0.34115734854 -0.57260596102 0.16755570725 
-0.28271450653 -0.49201291362 0.12217179404 -0.25258610522 -0.44248806007 0.12887940602 -0.23949928911 -0.41633191838 0.15422770775 
-0.23133129162 -0.40931288415 0.16275307194 -0.23449764549 -0.40889899669 0.1297990462 -0.23933822486 -0.4129453869 0.10112289968 
-0.24629437689 -0.44626169164 0.083995553456 -0.26084418003 -0.47104398435 0.083835765971 -0.27279636471 -0.51175740693 0.10020881707 
-0.20445250947 -0.51263117505 0.14008896821 -0.12864140276 -0.52583372316 0.16033029359 -0.038124071113 -0.54515743354 0.15865545869 
0.064259697248 -0.58467992364 0.14752250238 0.17430185383 -0.64104110068 0.12617862414 0.28781308661 -0.69805718891 0.098941300108 
0.40522484435 -0.75533143034 0.063395220258 0.5376678371 -0.77825969035 0.025916938838 0.65011424095 -0.77571683019 -0.019184743475 
0.68859123526 -0.74432217394 -0.095821855255 0.67493876298 -0.68971399375 -0.15798833548 0.6164920196 -0.6301643227 -0.18680343907 
0.51225851291 -0.56791975606 -0.16772513262 0.40294836564 -0.52578771045 -0.10080936041 0.30334291849 -0.52066456955 -0.013197134286 
0.23927137356 -0.56129717928 0.073370836423 0.2256858736 -0.60535200197 0.11726757332 0.26281313079 -0.64262135969 0.11403276875 
0.35012014605 -0.5965001751 0.018299270914 0.30900582088 -0.67278636234 0.084061804212 0.38532004979 -0.52257552662 -0.064706268609 
0.39067917748 -0.45883361025 -0.1376628425 0.40240495992 -0.41191194116 -0.20564893848 0.38331515991 -0.39100400533 -0.26959498427 
0.35231398805 -0.38463544559 -0.32874262747 0.31417474635 -0.40668378538 -0.36830609656 0.28720372015 -0.44715790216 -0.37104274947 
0.2574710469 -0.50954591991 -0.38434762535 0.20783113645 -0.60311601711 -0.39049086255 0.16271716221 -0.61433849547 -0.37716101077 
0.13580744545 -0.61237014074 -0.36853847819 0.092197035849 -0.64347728232 -0.3689661218 0.011368429986 -0.67568106551 -0.37194956485 
-0.064163243464 -0.69501161849 -0.37114951753 -0.11708104296 -0.67538088793 -0.3618616944 -0.14207674448 -0.63182121777 -0.33529440673 
-0.14020415129 -0.54306920595 -0.32265296134 -0.14146529758 -0.37837060063 -0.3556703054 -0.15913465025 -0.46441898466 -0.32857991391 
-0.10671037894 -0.32218249216 -0.39915303148 -0.18345762239 -0.9033829161 -0.43430469272 -0.091881175737 -0.85463885359 -0.42581321256 
0.016155954078 -0.80904925608 -0.41449943655 0.12379921956 -0.70559526953 -0.39785152988 0.22755860512 -0.6136526501 -0.38436375926 
0.2536362068 -0.58495842398 -0.37815529542 0.27512269914 -0.54140538102 -0.34999346494 0.30421503533 -0.51492668971 -0.3204273316 
0.35713658897 -0.50525989422 -0.25754658668 0.42164303629 -0.50599054307 -0.18500924617 0.45465612527 -0.54804572239 -0.12921149817 
0.45196615563 -0.57912295286 -0.087970871994 0.46583299818 -0.62989711811 -0.070301680926 0.44813212627 -0.66462216767 -0.038488902773 
0.34516725037 -0.73666076353 0.059411031052 0.38326233105 -0.67507990156 0.026649439382 0.30439712682 -0.74212852906 0.085533676369 
0.26533300786 -0.73188329465 0.075753016111 -0.16314047709 -0.33816330009 -0.45763452979 -0.15662169832 -0.31347236023 -0.44939253688 
-0.15615764551 -0.34587267875 -0.44234850474 -0.16166300878 -0.33741601255 -0.3981053134 -0.17273361284 -0.33510268982 -0.33977903813 
-0.19468796803 -0.34571090842 -0.28109295523 -0.23511350075 -0.35417100984 -0.20466310707 -0.27653242975 -0.37388690803 -0.12386630067 
-0.31965592233 -0.42474911501 -0.046580948628 -0.35348199299 -0.49244896496 0.029244214294 -0.36323614341 -0.56767144119 0.0986536814 
-0.38391439232 -0.55044167218 0.17709728527 -0.37889108363 -0.5383329861 0.20125829698 -0.32115017017 -0.60177027007 0.15839667019 
-0.35906410167 -0.59113148548 0.18932233527 -0.3671604298 -0.58951258818 0.20047280322 -0.27692050712 -0.58738418797 0.11353363104 
-0.25743361443 -0.53144494376 0.098395020469 -0.25009897242 -0.49627506014 0.10213907376 -0.24103569593 -0.46916000955 0.11412670057 
-0.23305069339 -0.45644675902 0.12412027839 -0.23152661483 -0.46313787592 0.087656205903 -0.2423821103 -0.44878263236 0.06728793526 
-0.2586763612 -0.46805642325 0.056277900615 -0.27011766404 -0.49353960064 0.048757252611 -0.26697906842 -0.51939387266 0.064450933226 
-0.11727075503 -0.546902311 0.16828067031 -0.17721695865 -0.53867456109 0.13737715373 -0.051644542975 -0.55509920828 0.17110681931 
0.03686477313 -0.58754850268 0.15676945284 0.14380628517 -0.64275230351 0.13048926891 0.2513121256 -0.69257931138 0.099069297355 
0.36160154671 -0.73181606728 0.069705826677 0.4722289741 -0.75563462941 0.040853118611 0.56677510307 -0.76657969143 0.015970382678 
0.59870127974 -0.7157047315 -0.018495260775 0.57231023499 -0.63437772227 -0.10718705919 0.61726282538 -0.67938521625 -0.089213782214 
0.48037742086 -0.58163274176 -0.078508490363 0.38051146405 -0.5645980949 -0.01383013271 0.26931838414 -0.55486382104 0.074362042939 
0.21858247173 -0.62115827426 0.13332304308 0.1779865582 -0.67639086183 0.19288118823 0.2228177377 -0.69689697626 0.16772977888 
0.27020829721 -0.73743963403 0.13421599337 -0.23233904944 -0.54161520149 0.097625163811 -0.22388104022 -0.54289765014 0.057047968632 
-0.32245409354 -0.70692133312 -0.043838054129 -0.33683264745 -0.68185452632 -0.0002537422497 -0.1374589772 -0.56032726501 -0.34943411149 
-0.14495382298 -0.67429151805 -0.35118754418 -0.1499750593 -0.77607491923 -0.36461495156 -0.13797457494 -0.8053441388 -0.38519248857 
-0.091319091952 -0.79806037431 -0.3950153232 0.0035979039754 -0.74763352975 -0.3953912411 0.09247791216 -0.69991966511 -0.38646786818 
0.20869893351 -0.74372346479 0.17270639506 0.18902824996 -0.73986108984 0.22647358791 0.18811682091 -0.72753723124 0.25523699796 
0.22389816703 -0.70684322955 0.22542088115 0.26836061329 -0.68532886013 0.17360225519 0.30795690125 -0.68279075387 0.11550416181 
0.35660098178 -0.68414749034 0.058002678755 0.41394144776 -0.70110173708 0.044909371026 0.49679197751 -0.70049294901 0.019259431583 
0.44899667758 -0.75532689047 0.069576616153 0.35547699446 -0.74809180664 0.11026664733 0.29102639287 -0.7337391924 0.12761114211 
0.22147025638 -0.70601304797 0.14772208462 0.16320423339 -0.66049358168 0.17105783268 0.10314193199 -0.61809258647 0.19167581047 
0.053864951258 -0.59126127061 0.20345323188 -0.0058331073621 -0.5691785813 0.20677417172 -0.048134901304 -0.57163011118 0.1683913776 
-0.081093995202 -0.57025169719 0.12773573816 -0.079177706995 -0.56453421378 0.069459349644 -0.063473623778 -0.56596195765 0.01932403456 
-0.0081611683318 -0.57298864652 -0.016629787245 0.028855516155 -0.58511934156 -0.038194010413 0.034967463658 -0.603198266 -0.027360622248 
0.025747443679 -0.61333433394 -0.01534972253 -0.03487794531 -0.61221242502 0.007119956728 -0.10571890015 -0.5823527733 0.023063323791 
-0.14740303245 -0.55024826068 0.040157754278 -0.19352306116 -0.57672242062 0.066695324069 -0.19324998227 -0.54575963632 0.064602905067 
-0.21145015184 -0.6058724975 0.083151213687 -0.22032880693 -0.63287131678 0.099277757935 -0.2317718088 -0.63219136837 0.11274924561 
-0.2677741443 -0.62205156932 0.13073709366 0.48002697059 -0.57429975083 -0.10650171187 0.44845931476 -0.59569561117 -0.067765638704 
0.41905968112 -0.59719954416 -0.032195055655 0.41481162923 -0.53135074295 -0.085248039595 0.41158879606 -0.4796240728 -0.12799978617 
0.42929457335 -0.44957619136 -0.17166545194 0.40070870856 -0.4531495375 -0.23781584117 0.35849074883 -0.43515822955 -0.28625234251 
0.34063127675 -0.46138765925 -0.34098821416 0.28708312569 -0.50710331615 -0.37293516246 0.26364061824 -0.5448907847 -0.38939288145 
-0.37334583434 -0.58363694208 0.21480219166 -0.37161495508 -0.61665176002 0.19982633678 -0.37071915223 -0.63471190317 0.16299646892 
-0.34998343648 -0.66185027817 0.11483542814 -0.3381764073 -0.67994158059 0.074045824168 -0.33618722462 -0.63533109906 0.035111060662 
-0.32335756171 -0.64045399518 -0.05346514015 -0.3282820366 -0.58569285228 -0.01783170408 -0.32515528872 -0.66928617201 -0.076552538658 
-0.31467596705 -0.64382633808 -0.13531381144 -0.30400593775 -0.60731798611 -0.20852813599 -0.29408220508 -0.56768961402 -0.27150607516 
-0.27722813048 -0.52746122104 -0.34181875709 -0.24089225248 -0.46249233267 -0.35657639202 -0.2061057255 -0.39380769203 -0.42674525338 
-0.2035200886 -0.3928081758 -0.38629809661 -0.21182495661 -0.37062912819 -0.42861342863 -0.2165774446 -0.34119951099 -0.41084733418 
0.35156866516 -0.48217043008 -0.29733926677 0.37193032025 -0.468054755 -0.25503292202 0.42157592108 -0.50668643107 -0.18086729241 
0.22364504626 -0.76946633933 0.18373557515 0.37732841871 -0.74622241833 0.080508896274 0.29244383533 -0.73497208965 0.10043049929 
0.20521904937 -0.68412458221 0.12801826191 0.11314332858 -0.63221622267 0.1568270272 0.028382585262 -0.58811934589 0.18424298999 
-0.03693841006 -0.56702588157 0.19945950961 -0.088115910395 -0.57110244756 0.1879551604 -0.14137132061 -0.56847232296 0.14851080318 
-0.1692204932 -0.5668070892 0.092426070549 -0.16021505603 -0.56815953307 0.042932716674 -0.10864627279 -0.57206974099 0.0074682588951 
-0.069950544121 -0.57340926081 -0.019194382223 -0.11522145649 -0.55266700093 0.020667286978 -0.067147230521 -0.58763437489 0.0052410111651 
-0.23015239816 -0.58312555787 0.081620079853 -0.2218161176 -0.5350589475 0.079946560622 -0.2485271077 -0.61521334423 0.099346127729 
0.18194213248 -0.74171625908 0.23477509133 0.19476492105 -0.70048263681 0.24635938239 0.24333384159 -0.66766273309 0.20734511786 
0.29982920105 -0.6404747484 0.13846413141 0.37418817069 -0.6487894494 0.074307759579 0.43415436083 -0.66173261215 0.025297683251 
0.46777518601 -0.67493540179 0.011241627687 0.53797451101 -0.67293979851 -0.031113557348 0.50501933867 -0.63868601021 -0.040644871854 
0.42754418484 -0.60529319404 0.0054773423195 0.33658572883 -0.59262097242 0.073096185822 0.25124183595 -0.60936388286 0.15258341293 
0.19319857088 -0.66658200746 0.21635744395 0.17004899998 -0.71720407668 0.22616324846 0.1930160075 -0.74079997802 0.20624065781 
-0.30865903957 -0.5904692613 -0.11773562032 -0.29260666938 -0.54106821891 -0.19290134145 -0.26774075363 -0.50743916509 -0.270555828 
-0.2233780987 -0.51175469471 0.087143043973 -0.22491664107 -0.4939442681 0.095793931433 -0.20798531772 -0.51493053096 0.064572203612 
-0.2224210879 -0.50471081473 0.035989971422 -0.20522256156 -0.49251815468 0.041125250674 -0.23175522088 -0.51583757221 0.024987051411 
-0.2302286835 -0.52790278787 0.035471506168 -0.19155099688 -0.54339487603 0.024466106453 -0.31047532218 -0.51866441721 -0.088447904198 
-0.19697689376 -0.37440311026 -0.34691599682 -0.21874565943 -0.39599721024 -0.30717386493 -0.25499190942 -0.42834212076 -0.23601245703 
0.44501493025 -0.53044290567 -0.13301030909 -0.28058432267 -0.46373063702 -0.1652415855 -0.15041893051 -0.53168804158 0.010761722648 
-0.13409713097 -0.53104199369 0.018289710884 -0.16431571483 -0.54088973753 0.00082741680396 -0.06799928399 -0.438224258 0.28927577648 
-0.0091339144282 -0.5079878885 0.30161944335 0.32251126328 -0.49786450515 -0.074151900764 -0.13816772978 -0.28236087626 -0.43868843011 
-0.18708333659 -0.33590162134 -0.38950228486 -0.059290744489 -0.58343786059 -0.0036899565414 -0.062643627743 -0.57984529183 -0.011139470485 
-0.18823797168 -0.50498811413 0.045985775209 
I1_Pt 1 1114 double
1.7933472184 1.8285676121 1.8306746384 1.8052357162 1.846249241 1.8603783099 1.8593691777 1.87488261 1.8540554937 
1.84871144 1.8210154678 1.7951585843 1.7747637965 1.7483379253 1.7519848384 1.7167354265 1.7739460432 1.7456624256 
1.8193603189 1.8085377017 1.8655078299 1.8663329645 1.9153382431 1.9226564272 1.9598467888 1.9314860388 1.916142676 
1.9068464644 1.9098312783 1.9134383773 1.8994260498 1.8830271934 1.9178567281 1.8862951256 1.9531413848 1.9055712873 
1.957238419 1.9099098486 1.9587405354 1.9195055999 1.9734615583 1.9261661462 1.9606802286 1.9117432512 1.9479086003 
1.9025939219 1.9348025918 1.8994914388 1.9185839722 1.8960533432 1.8939348339 1.8755621756 1.850691422 1.8372898309 
1.8293364962 1.7955275511 1.8058289328 1.7853950727 1.7895858994 1.7944279826 1.8148783687 1.8242751477 1.8559782764 
1.8496471779 1.8484784587 1.8681134502 1.8500286367 1.872151901 1.88062818 1.8916342732 1.9252610466 1.8882996498 
1.9038427054 1.888582235 1.9256766354 1.8821557009 1.904504475 1.8477050611 1.8552443898 1.8143394041 1.81895941 
1.8042173069 1.8037884917 1.8012198616 2.0099293998 1.9567580204 2.066820906 2.0599223315 1.9246865632 2.0795828086 
1.9539582703 2.1094716878 1.9960236705 2.1362404622 2.0493481277 2.1684716976 2.0775693575 2.1730468931 2.1104675002 
2.1754018494 2.1530355375 2.1791378098 2.1781793107 2.1754037104 2.1837337006 2.1566160399 2.163158502 2.1222278935 
2.1178770127 2.0797531869 2.0974627856 2.0390188483 2.0987755389 2.0218297444 2.051878489 2.0058989375 2.0207748093 
1.9955358584 2.0011338474 1.996475568 1.9941717694 2.0351926768 2.0593515 2.0737582028 2.1456143673 2.1049054303 
2.1528458285 2.1385979442 2.1576944768 2.1634329117 2.161069806 2.1755342884 2.1633497996 2.1695110536 2.1649146817 
2.1568069473 2.164491413 2.1430649708 2.122742367 2.1280724478 2.0892979573 2.1111112195 2.0678693893 2.1195050831 
2.0975167883 2.1270830592 2.1414617724 2.1358576382 2.1787596695 2.1573590081 2.1881284895 2.1853813786 2.1689803998 
2.2242396706 2.2003013862 2.22921776 2.237782444 2.2329785475 2.2630724649 2.2429768785 2.2610896137 2.2598246377 
2.2373198312 2.2780526834 2.2408037652 2.2739291633 2.2311977308 2.2557350796 2.2009745109 2.2232939173 2.1796743934 
2.194824225 2.1612698238 2.1682415469 2.1322610947 2.1612920979 2.113838932 2.1639734131 2.1185339955 2.1656054161 
2.1513648106 2.1671058567 2.2074098051 2.1707449991 2.2106112186 2.1666838466 2.1982100168 2.1490299964 2.1350592954 
2.1401379409 2.0870904414 2.1355198045 2.081832394 2.142497775 2.0827685775 2.1409538329 2.0900060037 2.1254218135 
2.0575176048 2.0935350751 1.890009451 1.8617184922 1.8971754994 1.8806740429 1.8147949919 1.7416527675 1.7155446924 
1.741999525 1.7960304702 1.8565879129 1.9016084267 1.9130789156 1.9195847908 1.9074686511 1.889108182 1.8821979382 
1.8821761338 1.8869819454 1.9055744727 1.8990691696 1.9039654284 1.9126727688 1.9205786137 1.9162802806 1.8631918404 
1.8253538698 1.7912278436 1.7837252451 1.790782121 1.8096663037 1.8408489089 1.8691185625 1.8810877225 1.8764175211 
1.8830913706 1.8859946231 1.8806807424 1.8598972139 1.8508683706 1.8598388403 1.8729495828 1.8633732782 2.0954880411 
2.0889445994 2.1117570414 2.143696061 2.180539192 2.2032208634 2.1999353953 2.1900636574 2.1869549369 2.1454823969 
2.0975953965 2.0531455237 2.008853152 1.9770348814 1.9572037855 1.9435204196 1.9604480108 1.9996895993 2.0549360151 
2.1065956855 2.1420592979 2.1613769713 2.1669786952 2.158746224 2.1583568837 2.1625618367 2.1422837057 2.1279101755 
2.1195465575 2.1148848259 2.1045144967 2.1137423242 2.117719805 2.1468592755 2.16055242 2.1664034896 2.1748575157 
2.1994335428 2.2271535504 2.2334991323 2.2145262013 2.1945221494 2.1826387794 2.1749397507 2.1812139395 2.1905067002 
2.2006669931 2.2070365264 2.2129998066 2.2168306909 2.2083935843 2.1928084679 2.184417131 2.1815630046 2.173942188 
2.1634294576 2.1322919569 2.1057231193 2.1604278861 2.1499429186 1.8451582321 1.9045683013 1.7874217673 1.7486812236 
1.7452732456 1.7868271514 1.8453172525 1.8943264927 1.9133793788 1.9360211201 1.9193642107 1.9042007811 1.8992182149 
1.8992578266 1.9074174894 1.915362711 1.9122442796 1.9147573307 1.9188349541 1.9235939892 1.9342228621 1.8578009761 
1.8952526618 1.8275805438 1.8199308129 1.8271930278 1.8422977564 1.8634677716 1.8770540651 1.8874920347 1.8865366813 
1.8879978492 1.8932255761 1.9024315351 1.941636673 1.974001835 2.0030951041 2.0103684497 1.9841779275 1.9585018044 
1.942866853 1.9318204021 1.9489325496 2.1510304275 2.130517662 2.1433850847 2.136534133 2.1264610667 2.115288722 
2.1037036692 2.0982299489 2.101103135 2.0751857239 2.0787979536 2.0878379555 2.1045715503 2.1238152471 2.142949386 
2.1384746041 2.1347213863 2.133549026 2.1481965861 2.1633726965 2.1730296425 2.185874904 2.2045805523 2.2367706394 
2.2662764892 2.2595525648 2.2486767744 2.233670589 2.2231935105 2.2128744494 2.1903394539 2.1621882795 2.1265861157 
2.0984430248 2.0909887157 2.1026404935 2.123982901 2.1418237286 2.1731687722 2.1841533399 2.1756096003 2.1643847361 
2.1291475676 2.0963884336 2.0662584287 2.0358783861 2.0102387831 1.9871405611 1.9628843993 1.9480925894 1.952606828 
2.0004194861 2.0532440371 2.1039153133 2.1434459848 2.1682510603 2.1728448992 2.1710715624 2.1271468017 2.0881611899 
2.1202620952 2.0523739843 2.0879986146 2.11114558 1.9615682288 1.9783985643 1.933437473 1.9025952387 1.8767737799 
1.8694727213 1.8755120442 1.8928063644 1.8957293488 1.902460075 1.9033553903 1.9064480842 1.898821672 1.9020481211 
1.9131624199 1.9299808881 2.0558916313 2.0355644437 2.0582903263 2.0493172578 2.0251930668 2.0038405511 1.8562055045 
1.908987723 1.8132032478 1.7876831329 1.7841962826 1.8144736141 1.8532305617 1.8899313976 1.937942764 1.9577004491 
1.9687718813 1.945591464 1.9190160395 1.9094316196 1.917524872 1.9190886561 1.9159326848 1.9090254929 1.8972828608 
1.8908282516 1.9097541436 1.9225914757 1.9251132313 1.9617596977 1.9514758093 1.9756105908 1.9396606708 1.9675456577 
1.9881550575 1.996896949 1.9896442843 1.9543128257 2.1146241396 2.1059407793 2.0995994665 2.0948848208 2.0950093132 
2.1026215907 2.1134614066 2.1229889306 2.1184242794 2.1065094642 2.0781768003 2.0704910361 2.0628456209 2.0619030943 
2.0666277475 2.0653020022 2.060000461 2.0579290173 2.0844939938 2.1120726363 2.1400118967 2.1728784738 2.2076171698 
2.2304641278 2.259261033 2.2841173989 2.2825487811 2.2670781455 2.2403566509 2.2135791785 2.185387592 2.1506526226 
2.1099251797 2.0482299318 2.0553118724 2.0582227322 2.0763466893 2.1030182561 2.1232716523 2.1419285323 2.1527969639 
2.1418634376 2.1031694176 2.0685549714 2.038453935 2.0149746576 2.0022309779 1.987529773 1.9790635043 1.9630754514 
1.95560174 2.0216374844 1.9811256655 2.0555034056 2.081416251 2.1125846672 2.1396383026 2.1525964735 2.1227530412 
2.0779149674 2.0271030475 1.9876022495 2.0113845728 1.9483490436 2.0521623246 2.0727686608 2.0739025849 2.0762551447 
2.0903260736 2.1008768879 1.9522971122 2.004987206 1.9079328727 1.9056120053 1.9347199167 1.8673287403 1.9746280121 
2.0035011969 2.0188800151 2.0215039578 2.0384290141 2.0586626371 2.0968659838 1.9499205328 1.9532146108 1.9518520245 
1.9275231237 1.9097113788 1.8985681057 1.916301337 1.9372722311 1.9398624535 1.9327796823 1.9256599181 1.9126547439 
1.9178732319 1.9127155954 1.9173425891 1.9326902314 1.9414012934 1.9678254258 1.9419871947 1.9908949349 2.0190337528 
2.035058991 2.0422504403 2.040431756 2.0457415968 2.0443297612 1.9847806638 2.0491984005 1.9825793243 2.032189718 
2.018944198 2.0065454645 1.9909697535 1.9642816081 1.9227261797 1.8866934202 1.8555986507 1.8266288103 1.8266463859 
1.8561505402 1.907282877 1.956507169 2.0131787351 2.0375566907 1.9421166064 1.980170418 1.9137455102 1.903908219 
1.8953133205 1.8954482798 1.8914015297 1.8819166502 1.8753966845 1.8767567817 1.9021590684 1.9006602144 1.8936799858 
1.9556835118 1.916960129 1.9753054178 1.9728422978 2.0130842916 2.0633631176 2.1071566034 2.1147966831 2.1163710764 
2.1046393903 2.1109481915 2.1025038876 2.0844277569 2.0599695446 2.0456942943 2.039965628 2.0411460279 2.0367991469 
2.0168649471 2.0044953722 2.0137831128 2.0445332146 2.1099018903 2.1490553559 2.17544879 2.198536294 2.2341892952 
2.2499859932 2.2544935493 2.2525138087 2.2407373285 2.2183687165 2.1812011287 2.1288917305 2.0631005556 1.9992709977 
2.0393803947 2.0214750912 2.0629208348 2.0866277234 2.1228559164 2.1483751793 2.1451679549 2.1200565954 2.0789391049 
2.0281476612 1.9925448601 1.9849103654 1.9858320893 1.9950454473 1.9906644777 1.9851680922 1.9723248446 1.9783189898 
1.9627128499 1.9764894968 1.9510959077 1.9580333291 1.9781184608 1.993445011 2.0115727727 2.034617138 2.0752440243 
1.9884079904 1.9520077413 2.0789187575 2.0847114584 2.0961138203 2.064612863 2.108371743 2.1072222747 2.0945943482 
2.0812126425 2.0601445962 2.0345721637 2.0082335958 2.0032063958 1.9966043662 1.9810999138 1.9693491551 1.973631391 
2.0182512416 2.1047210319 2.1319701097 2.1479959109 2.1625905961 2.1730825481 2.182713114 2.1970209205 2.2041664782 
2.2050384728 2.1879394177 2.1574066396 2.1077067207 2.060454431 1.9770001534 1.9291594399 1.9248076846 1.8837640686 
1.9599497493 1.9840635639 2.0094349039 2.035396472 2.0608421497 2.0768240966 2.0932112934 2.0951685239 2.0902399704 
2.0723175629 2.0088138802 1.9855170027 1.9607810266 1.9587322956 1.9638673876 1.976564533 1.9843563286 1.9769469596 
1.9647395487 1.9664691769 1.9550794188 1.9487494095 1.9468007366 1.9448160954 1.9493130876 1.9520114099 1.9432539745 
1.9605129874 1.9361006454 1.9192283081 1.9302527325 1.9412440036 1.9492964408 1.9426782696 1.9296246541 1.9179512397 
1.9065257966 1.8916761029 1.8819118853 1.8936662477 1.909872035 1.9255309087 1.9111835168 1.9225767057 1.8891990301 
1.9699582728 1.9801948559 1.998146417 2.015752032 2.0282619525 2.0458362601 2.0604134661 2.0663370482 2.0391325914 
2.0223908518 2.016926218 2.0140729613 2.0209113045 2.0112058701 1.9990075127 1.9697233074 1.9449404402 1.925266362 
1.9218679451 1.9524919194 2.0122962863 2.0446905591 2.0621479411 2.0785127092 2.0682533328 2.0594475737 2.0518034362 
2.058121558 2.0215471225 1.9915800179 1.9493174095 1.9076340506 1.8975748109 1.8937874 1.8890201365 1.8751312776 
1.8696647192 1.8659366411 1.8570302002 1.8620536659 1.8762350938 1.8875706906 1.9358637614 1.9055693924 1.9473292283 
1.9644511182 1.9651519086 2.0827728222 2.0254242205 1.9951840993 1.972289429 1.9767826416 1.9840055297 1.982695784 
1.981200995 2.0019069739 2.0171016815 2.0870742705 2.0688853487 2.0975469869 2.0848462736 2.0970468052 2.1119056819 
2.1293477324 2.1406534237 2.1353183762 2.1225529182 2.0927522242 2.049402813 1.9902927844 1.9412812839 1.9180243006 
1.8740127914 1.8755635756 1.8761019636 1.8901981275 1.9299166766 1.960772971 1.9790211713 1.9942266719 2.0132858031 
2.0206828187 2.0273431764 2.0195220666 2.01616701 1.9991255079 1.9688604795 1.916099999 1.9329281919 1.9290667754 
1.9512323772 1.9685928387 2.0475889041 2.0301418781 1.9474682476 1.9551521713 1.93405864 1.960744289 1.949653453 
1.9425565052 1.9414156362 1.9191190987 1.916610984 1.9161767303 1.920542789 1.9250540261 1.9302872882 1.9272490572 
1.9151539162 1.8817699987 1.8691837192 1.8728312095 1.8736891285 1.8841479419 1.8962045915 1.8992944009 1.9295022536 
1.9128974592 1.9444934918 1.9721286213 1.9788699113 1.9845412651 1.9953324332 2.0133834434 2.0235898885 2.0105294726 
2.002616232 2.0024576881 2.0176846529 2.0311034464 2.0425544581 2.0473461983 2.0441032147 2.0363514424 2.02284595 
2.0048141208 2.0150752537 2.024383339 2.0409152948 2.0767074136 2.0778428308 2.0663387678 2.0441297679 2.0241212816 
2.0265535229 2.0209600715 2.0386069444 2.0242992957 2.000770785 1.9712454647 1.9463236567 1.9402205011 1.9200159643 
1.899768569 1.8588646713 1.8592652049 1.8623993679 1.8423723239 1.8372590903 1.8400577067 1.8525299458 1.8724753518 
1.9001578208 1.9276001629 1.9287316797 1.9484532053 1.8932931265 1.8718063567 1.8387516766 1.8534326667 1.8884183545 
1.9155579909 1.9410820722 1.9723458172 1.983841293 1.9921093162 2.0217591763 2.0514203249 2.0367263862 2.0385889044 
2.0574495913 2.0249357559 2.0891999093 2.0739525369 1.9306251715 1.9453751108 1.9013672709 1.8920516355 1.8946043052 
1.8935350799 1.8935659602 1.8919405836 1.8839501382 1.8754080204 1.8897921756 1.8867838402 1.8911365823 1.9343667263 
1.9655281332 1.9594424543 1.9052142612 1.8986792279 1.9175598489 1.9441149366 1.9608256474 1.9557276755 1.973546824 
1.9878490456 1.9963860552 1.9907662081 1.9829948343 1.9887948604 1.9863048113 1.9982164344 2.0170310406 2.0490891429 
2.0695414615 2.0773378434 2.0789734449 2.0685439597 2.0576268731 2.0536916132 2.0674365072 2.0597284609 2.0541044801 
2.031708514 2.0153614158 2.0048925769 2.0253588506 2.0012151469 2.0027627639 1.9384739455 1.9149120745 1.9202307011 
1.9030037995 1.8843834445 1.8586052707 1.8389842172 1.8337913295 1.8309607497 2.063201288 2.0254928213 1.9839784529 
1.9791686439 1.992885872 2.0035214994 2.0147717719 2.0205546505 2.0435303428 2.0573427214 2.0672182842 2.0771629696 
2.0778071944 2.0603629914 2.0421021874 2.0344427222 2.0299101173 2.0475480476 2.0660817119 2.0789794689 2.0802188572 
2.0704269338 2.0450488753 1.9943961561 1.9406195687 1.8989749615 1.876724478 1.8997377974 1.8800489707 1.8987289164 
1.892332194 1.9031344545 1.9297525493 1.9299841198 2.0025693014 2.0076791064 2.0109319317 2.0089171996 2.0088584797 
1.9887893366 1.9599110965 1.9632001788 1.9556949491 1.9144209888 1.8922233902 1.960283067 1.9472546629 1.9310185912 
1.9252104588 1.9263006799 1.8892653638 1.8847421086 1.8797642652 1.9084798021 1.8984364856 1.8916128981 1.8977047683 
1.9173056102 1.8852176009 1.9071935325 1.8901240847 1.9472001044 1.9559031972 1.9612956203 1.9790320165 1.9888627838 
2.0189357597 2.0826847896 2.0639699791 2.0453340807 2.0234129714 1.9996287548 1.9886827906 1.9982960964 2.0189999637 
2.0281965124 2.031194167 1.9989617747 1.9765214668 1.8983705506 1.8800833613 1.8923349025 1.8955482449 1.9048359638 
1.9887495919 1.9805852278 1.9965316855 2.0280365607 2.0494400901 2.0582290022 2.0613445406 2.068628917 2.0715419458 
2.0683120355 2.0536887426 2.0229250508 1.9893899802 1.9914560131 1.9962153246 1.8772804017 1.8717316009 1.8725488311 
1.9202212461 1.937995652 1.9220803976 1.9544689706 1.9437598482 1.9771287223 1.9891059598 2.0019728927 1.8730113537 
1.883062887 1.8755460268 1.8749755307 1.979107769 1.8727294871 1.9593127991 1.9296498708 1.9827056872 1.9488579195 
1.9450064025 2.1051484918 1.9598645422 1.9480740574 1.9049559967 1.9389008376 1.9282136805 
IAS 1 1114 double
0 0 0 0 0 0 0 0 0 
0 0 0 0 0 0 0 0 0 
0 0 0 0 0 0 0 0 0 
0 0 0 0 0 0 0 0 0 
0 0 0 0 0 0 0 0 0 
0 0 0 0 0 0 0 0 0 
0 0 0 0 0 0 0 0 0 
0 0 0 0 0 0 0 0 0 
0 0 0 0 0 0 0 0 0.32755940185 
0.37673244617 0.83372257104 0.80254588229 0 0 0 0 0 0 
0 0 0 0 0 0 0 0 0 
0 0 0 0 0 0 0 0 0 
0 0 0 0 0 0 0 0 0 
0 0 0 0 0 0 0 0 0 
0 0 0 0 0 0 0 0 0 
0 0 0 0 0 0 0 0 0 
0 0 0 0 0 0 0 0 0 
0 0 0 0 0 0 0 0 0 
0 0 0 0 0 0 0 0 0 
0 0 0 0 0 0 0 0 0 
0 0 0 0 0 0 0 0 0 
0 0 0 0 0 0.27988748432 0.31868372145 0.84449779884 0.88133860667 
0.57984967559 0.54000354987 0 0 0 0 0 0 0 
0 0 0 0 0 0 0 0 0 
0 0 0 0 0 0 0 0 0 
0 0 0 0 0 0 0 0 0 
0 0 0 0 0 0.47670195137 0.76166709793 0.0053127446635 0 
0 0 0 0 0 0 0 0 0 
0 0 0 0 0 0 0 0 0 
0 0 0 0 0 0 0 0 0 
0 0 0 0 0 0 0 0 0 
0 0 0 0 0 0 0 0 0 
0 0 0 0 0 0 0 0 0.35770613159 
0.92198963493 0.49517221571 0 0 0 0 0 0 0 
0 0 0 0 0 0 0 0 0 
0 0 0 0 0 0 0 0 0 
0 0 0 0 0 0 0 0 0 
0 0 0 0 0 0.46308131328 0.77865949758 0.056545912367 0 
0 0 0 0 0 0 0 0 0 
0 0 0 0 0 0 0 0 0 
0 0 0 0 0 0 0 0 0 
0 0 0 0 0 0 0.37340774694 0.94414606877 0.45585463877 
0 0 0 0 0 0 0 0 0 
0 0 0 0 0 0 0 0 0 
0 0 0 0 0 0 0 0 0 
0 0 0 0 0 0 0 0 0 
0 0 0 0 0 0 0 0 0 
0 0 0.52159097096 0 0.79072761137 0.10880313871 0 0 0 
0 0 0 0 0 0 0 0 0 
0 0 0 0 0 0 0 0 0 
0 0 0 0 0 0 0 0 0 
0 0 0 0 0 0 0 0 0 
0 0 0 0 0 0 0 0 0 
0 0 0 0 0 0 0 0 0 
0 0 0 0 0 0 0 0 0.35681208106 
0.94275017229 0.35347943363 0 0 0 0 0 0 0 
0 0 0 0 0 0 0 0 0 
0 0 0 0 0 0 0 0 0 
0 0 0 0 0 0 0 0 0 
0 0 0 0 0 0 0 0 0 
0 0 0 0 0 0 0 0 0 
0 0 0 0 0 0 0 0 0 
0 0 0 0 0 0 0 0 0 
0.50427113156 0.80836684708 0.16699383459 0 0 0 0 0 0 
0 0 0 0 0 0 0 0 0 
0 0 0 0 0 0 0 0 0 
0 0 0 0 0 0 0 0 0 
0 0 0 0 0 0 0 0 0 
0 0 0 0 0 0 0 0 0 
0 0 0 0 0 0 0 0 0 
0 0 0 0 0 0 0.31899731159 0.85125048055 0.61407210548 
0 0 0 0 0 0 0 0 0 
0 0 0 0 0 0 0 0 0 
0 0 0 0 0 0 0 0 0 
0 0.18182188362 0 0 0 0 0 0 0 
0 0 0 0 0 0 0 0 0 
0 0 0 0 0 0 0 0 0 
0 0 0 0.24578503044 0.74535516339 0.77172429306 0.40928692653 0 0.1274938114 
0 0 0 0 0 0 0 0 0 
0 0 0 0 0 0 0 0 0 
0 0 0 0 0 0 0 0 0 
0 0 0 0 0 0 0 0 0 
0 0 0 0 0 0 0 0 0 
0 0 0 0.54314227475 0.80491676657 0.2043686296 0 0 0 
0 0 0 0 0 0 0 0 0 
0 0 0 0 0 0 0 0 0 
0 0 0 0 0 0 0 0 0 
0 0 0 0 0 0 0 0 0 
0 0 0 0 0 0 0 0 0 
0 0 0 0 0 0 0 0 0 
0 0 0 0 0 0.17934219681 0.63755607253 0.93007572918 0.61911771528 
0.37836423659 0 0.15863644705 0 0 0 0 0 0 
0 0 0 0 0 0 0 0 0 
0 0 0 0 0 0 0 0 0 
0 0 0 0 0 0 0 0 0 
0 0 0 0 0 0 0 0 0 
0 0 0 0.040623260938 0.57410078941 0.84062175567 0.27588549808 0 0 
0 0 0 0 0 0 0 0 0 
0 0 0 0 0 0 0 0 0 
0 0 0 0 0 0 0 0 0 
0 0 0 0 0 0 0 0 0 
0 0 0 0 0 0 0 0 0 
0 0 0 0 0 0 0 0 0 
0 0 0 0 0 0 0 0 0 
0 0 0 0 0 0 0 0 0 
0 0 0 0 0 0 0.075885976699 0.54400133436 0.86389587769 
0.36694692418 0 0 0 0 0 0 0 0 
0 0 0 0 0 0 0 0 0 
0 0 0 0 0 0 0 0 0 
0 0 0 0 0 0 0 0 0 
0 0 0 0 0 0 0 0 0 
0 0 0 0 0 0 0 0 0 
0 0.1116023419 0.52770435655 0.90234288873 0.80581507398 0.61193820759 0.42707922595 0 0 
0 0 0 0 0 0 0 0 0 
0 0 0 0 0 0 0 0 0 
0 0 0 0 0 0 0 0 0 
0 0 0 0 0 0 0 0 0 
0 0 0 0 0 0 0 0 0 
0 0 0 0.06268747158 0.85810204688 0.94418749261 0 0 0 
0 0 0 0 0 0 0 0 0 
0 0 0 0 0 0 0 0 0 
0 0.031921481784 0.24411326154 0.40688405791 0.8270297802 0.027235326445 0 0 0 
0 0 0 0 0 0.42536339553 0.79532999486 0.054456021045 0 
0 0 0 0 0.79731551626 0.45295929481 0.74429733009 
J_Pt 1 1114 double
0.89436460609 0.91174121348 0.91212794541 0.90015491397 0.91829934505 0.92597338931 0.92329849202 0.93169974005 0.92108213349 
0.9187499913 0.9064026438 0.89300734039 0.88441307238 0.87127528405 0.87405210839 0.856495912 0.88562323916 0.87128325752 
0.90786113504 0.90222582247 0.92893956648 0.93007735716 0.95135373364 0.95689282862 0.97414396687 0.96156304821 0.95260819484 
0.94876395463 0.94970627509 0.95246597052 0.9458058334 0.93875958378 0.95560212579 0.94065959312 0.97383904113 0.95016347729 
0.97666102163 0.95210144263 0.97750338364 0.95652052753 0.98458056271 0.95969717828 0.97783319956 0.9523184684 0.97068633901 
0.94683437321 0.96331861766 0.94434482211 0.95454000859 0.94199212165 0.941852304 0.93174097474 0.9201104041 0.91313024982 
0.91039862564 0.89326187991 0.8993414835 0.88931564869 0.89145275892 0.89399461883 0.90454588754 0.90918781351 0.92460865042 
0.92172490857 0.91983316974 0.93079168665 0.92013403761 0.93262133613 0.93576232672 0.94261586494 0.95854554605 0.94149187115 
0.94900755841 0.94146172618 0.95950713837 0.93816738735 0.94866893839 0.92117955704 0.92441813407 0.90376850055 0.90664238629 
0.89827342037 0.89905961811 0.89755530662 1.0037318299 0.97778213903 1.0299177284 1.0267967781 0.96220156809 1.0362073703 
0.97676682525 1.0516981037 0.99775303215 1.06574913 1.0243899795 1.0826834697 1.0378522427 1.0844051365 1.0537598356 
1.0852368008 1.0747276016 1.0872798483 1.0869521942 1.0853734881 1.089336936 1.0759918416 1.0785944769 1.0591344162 
1.0559598786 1.0381953783 1.0456489068 1.0180932423 1.0461767231 1.0098826639 1.0240862934 1.0022070189 1.0089306314 
0.99692958295 0.99885026186 0.99683973743 0.99455208373 1.0150594896 1.0255609625 1.0333497034 1.0673939598 1.0482743937 
1.0733843232 1.0658205597 1.0770542887 1.0791357679 1.0793857915 1.0861751644 1.0812361314 1.083733104 1.0820869512 
1.077803412 1.081526582 1.0706267726 1.0594406539 1.0623337566 1.0412726711 1.052831584 1.028773499 1.0550366158 
1.0425369916 1.0573169884 1.0637562847 1.0604427797 1.0822037402 1.0717148654 1.0873156088 1.0859412056 1.0788112117 
1.1038237809 1.0930596067 1.1064342188 1.1102636769 1.108570301 1.1228620559 1.1141344529 1.1228269981 1.1225979955 
1.1126903848 1.131320756 1.1123588361 1.1278485017 1.10603347 1.1171280333 1.0902676191 1.0991962227 1.0789241516 
1.0841304325 1.0691909086 1.0707355885 1.0574256681 1.0700292505 1.0507906863 1.0736315158 1.0553583312 1.0771904686 
1.0725845019 1.0802304554 1.1002549391 1.0834324035 1.1016256406 1.0818839241 1.0952862485 1.0733844584 1.0649917162 
1.0688158127 1.0419164921 1.0663410008 1.0391511855 1.069571211 1.0395037342 1.0684874512 1.0430280024 1.0602728849 
1.0270805261 1.0440015686 0.9423759768 0.92874174564 0.94382389617 0.93471716712 0.90356308056 0.86865707592 0.85645212455 
0.86972975288 0.89647167726 0.9262194453 0.94847696902 0.9539354504 0.95685450835 0.95122990822 0.9426885866 0.93956258322 
0.93921289607 0.94085848852 0.94985824078 0.94626758334 0.94854895618 0.95273523727 0.95621490949 0.95324991153 0.92575518046 
0.90778705198 0.89159206715 0.88864917003 0.89234343586 0.90165056415 0.91775405684 0.9319946871 0.93796576328 0.93563443586 
0.93953243608 0.94103163747 0.93870953327 0.92909089752 0.92361900843 0.92748966895 0.93423042802 0.93004130707 1.041693756 
1.0381823418 1.0506719608 1.0679862426 1.0875755092 1.0994563444 1.0976864336 1.0922673742 1.0907540642 1.0700880333 
1.0464188466 1.0249134534 1.0034895041 0.98803556061 0.97835378826 0.97138651714 0.9792479909 0.99762284468 1.0235321232 
1.0486764454 1.06678368 1.077329544 1.0812893258 1.0777364275 1.0782806939 1.0803987261 1.0696563099 1.061693944 
1.0565104478 1.0532426796 1.0476641732 1.052733709 1.0559719116 1.0694640992 1.0755852956 1.0783094064 1.0826348428 
1.0949205457 1.108228872 1.1099728115 1.0989373191 1.0873584869 1.0801794231 1.0754033526 1.0794959836 1.0863234366 
1.0935903248 1.0994729015 1.1040858273 1.1063750457 1.1022065618 1.0944333744 1.0903372614 1.0890194247 1.0846449329 
1.0784647142 1.0613934898 1.0467361759 1.0790330926 1.0725289475 0.91815562199 0.94632647861 0.89128215649 0.87350448802 
0.8718051695 0.89228648881 0.92122158287 0.94583184927 0.95544750816 0.96672116074 0.95866931772 0.95113163941 0.94875436829 
0.949068985 0.95275256618 0.95628677108 0.95426627203 0.95518070196 0.95687501753 0.95855887324 0.96348818988 0.92551923135 
0.94358406673 0.91153497123 0.90811665211 0.91176023775 0.9191773762 0.92981038441 0.93674922156 0.94210843394 0.94169972703 
0.94263613079 0.94572815235 0.95059112227 0.97033298707 0.98623661723 1.000244592 1.0039736761 0.99104060334 0.9781395624 
0.96989108843 0.96209764617 0.97123105499 1.0741974859 1.0628466045 1.0702863502 1.0663631118 1.0610422348 1.055166484 
1.0492175978 1.0468371022 1.0490773088 1.0357184927 1.0379831831 1.0417887761 1.0499885435 1.0595320973 1.0687876857 
1.0660682442 1.0624787346 1.0595993043 1.0648078288 1.0712023234 1.0773229017 1.0851525225 1.0957754337 1.113238236 
1.1291421845 1.1264879035 1.1215560537 1.1141252679 1.1088555426 1.1035398208 1.0915326355 1.0761707549 1.0562896565 
1.0406421661 1.03649647 1.0432329 1.055920633 1.0669221815 1.0843304867 1.0903279553 1.0860255963 1.0801025887 
1.0625853674 1.0463335666 1.0314216065 1.0164819225 1.0040064195 0.99304852056 0.98110780617 0.97301375671 0.9744436342 
0.99642236195 1.0212247827 1.045718911 1.0667396576 1.080451714 1.0832503849 1.0826888391 1.0604649619 1.0410006117 
1.0585275243 1.0236389197 1.0428932953 1.0546883933 0.97837942507 0.98751571159 0.96506084999 0.95028710715 0.93777889047 
0.93425106588 0.93727498727 0.94581973072 0.94692614626 0.9503427933 0.95078320674 0.9526098147 0.94887169331 0.9504535476 
0.95595583145 0.96435267183 1.0263457015 1.0163470761 1.0274933808 1.0227656018 1.0108385565 1.0000732267 0.9238179497 
0.94816522218 0.904529908 0.89305420052 0.89137095595 0.90622960519 0.92539214476 0.94373380879 0.96835735735 0.97838897272 
0.98418331283 0.97248460198 0.95921804604 0.9544969093 0.95855647132 0.95886649573 0.9567485458 0.95280168525 0.94656505008 
0.94276176797 0.95164537117 0.95850446849 0.96022798255 0.97922419751 0.97430028431 0.98685866321 0.96357096424 0.97699907814 
0.98866989229 0.9927301755 0.99395074882 0.97652125889 1.0561336344 1.0516783354 1.0483934414 1.0460280105 1.0461880499 
1.0501762967 1.0559604063 1.0608415567 1.0588021603 1.0523600875 1.0379190261 1.0336059345 1.029809845 1.029507475 
1.0321339132 1.0316365538 1.0281782486 1.0259416649 1.0370320961 1.0494221763 1.0624721945 1.0799462564 1.0981515501 
1.1101201461 1.125073151 1.1379996593 1.1374891237 1.1301474736 1.11734432 1.104148202 1.0896733955 1.0709750822 
1.0484955251 1.0175463127 1.0191691926 1.0220812779 1.0325335352 1.0473568391 1.058794169 1.0693378563 1.074925329 
1.0696557213 1.0505686021 1.0332417767 1.0180474598 1.0061702499 0.99983107015 0.992808171 0.98892336794 0.98109590542 
0.9772481448 1.0047209203 0.98639713551 1.0205726261 1.0341812389 1.0513799613 1.066517892 1.0732849609 1.0583744775 
1.0364133117 1.0110598252 0.9914610097 1.0040399422 0.97192770817 1.0250280253 1.0356999847 1.0361482257 1.0372261209 
1.0441654202 1.0494314177 0.97443445078 1.0002161475 0.95284037522 0.95048587243 0.9648712468 0.93169733381 0.98553707856 
1.0006226263 1.0087099348 1.0102508305 1.0186717548 1.0286707486 1.0477392123 0.97314356164 0.97555898688 0.97522428374 
0.9633305597 0.95457051278 0.9490468879 0.95799081794 0.96843644214 0.96959762369 0.96596601569 0.9623847637 0.95600993856 
0.95858323041 0.95595193656 0.95835643971 0.96586190202 0.97014680785 0.98340669402 0.9704498272 0.99476535621 1.008691213 
1.0164750933 1.0199362621 1.0188695847 1.0213059359 1.0204716277 0.98906040585 1.0224750241 0.98671867812 1.0126773657 
1.0043966406 0.99673251432 0.98864528308 0.97559965675 0.95712135182 0.94146625195 0.92721758557 0.91248810233 0.91198844959 
0.9260870433 0.95129733235 0.97624956965 1.0054439263 1.0180761299 0.97090458257 0.98994695127 0.95667647203 0.95156351945 
0.94708879104 0.94672033553 0.94424685317 0.9393924626 0.93590795519 0.93645771368 0.94936081999 0.94861178876 0.94494506775 
0.97647076203 0.9568064807 0.98650976324 0.98530839826 1.0063549413 1.0312569321 1.053199725 1.0568287424 1.0579385714 
1.0520537455 1.0550706671 1.0506331647 1.0414057853 1.0288921007 1.0216566982 1.0188733511 1.0196446015 1.0175368853 
1.0074841465 1.0008466406 1.0048938164 1.0195179871 1.0506258948 1.0704493333 1.0835604278 1.0949628705 1.1132788177 
1.1217513476 1.1240532188 1.1230315872 1.1172678819 1.1065249606 1.0883928533 1.06187578 1.0279278139 0.99509868878 
1.0137339403 1.0048047093 1.0262201212 1.0390091689 1.0581326122 1.071715327 1.0709260427 1.0589229638 1.0386099117 
1.013287069 0.99539470357 0.99137295783 0.9918709667 0.99662088601 0.99475815628 0.99224680813 0.98565588147 0.98870025322 
0.9802841418 0.98787414552 0.97202286588 0.97475384521 0.98337888753 0.99006760617 0.999610722 1.0126385098 1.0342561671 
0.98881452924 0.97210184873 1.0391207325 1.0419689979 1.0476644563 1.0314924995 1.0539935544 1.0533119145 1.046791115 
1.0399930354 1.0293170646 1.0164437969 1.0032045476 1.000791839 0.99754316721 0.98977815916 0.98398064521 0.98626296526 
1.0081022954 1.0498714682 1.0629920933 1.0710357253 1.0785509014 1.083952466 1.089135287 1.0963129948 1.0999485936 
1.1006489265 1.0924516304 1.0774673714 1.0525030187 1.0284665075 0.98603476051 0.96259964777 0.96042663086 0.94029375731 
0.9769286226 0.98820387736 1.0007635107 1.0141405458 1.0276230567 1.0364261319 1.0453916562 1.0466759539 1.0443958596 
1.0354678384 1.003837037 0.99194717862 0.97947945365 0.97853190107 0.98119629122 0.98774277744 0.99183860892 0.98796901479 
0.98183795695 0.9825852584 0.97623666011 0.9720925561 0.96871233714 0.96702044209 0.96850608524 0.96993837686 0.96816263222 
0.97944330067 0.96770613264 0.95946410486 0.96503091402 0.97044256367 0.97432635791 0.97076400191 0.96414981595 0.95841314427 
0.95244061577 0.94494062588 0.940215543 0.94632429945 0.95446863544 0.96227875575 0.95490257229 0.96062363664 0.94367768372 
0.98459627097 0.98972883666 0.99869300355 1.0074420192 1.0135696101 1.0221252603 1.0291803581 1.0319418246 1.0177385989 
1.0085520159 1.0049889808 1.0025085178 1.0053659017 1.0004380516 0.99507158349 0.98224519077 0.9712501486 0.96155605372 
0.95831391354 0.97196933741 1.0010452269 1.0183661684 1.0285828075 1.0377266294 1.033508848 1.0292245286 1.024952922 
1.0288063857 1.0106376215 0.99567026759 0.97442547461 0.95337978383 0.94793846998 0.94585313506 0.94346961699 0.93667818938 
0.93409163425 0.93209276212 0.92757990436 0.92943020431 0.93633881182 0.941818055 0.96634386838 0.95073539179 0.97214534498 
0.98075942751 0.98129033091 1.0409451634 1.0122558913 0.99718053002 0.98576582594 0.98769709114 0.99098543727 0.9904459801 
0.98982537161 1.0000386652 1.0074895324 1.0421996804 1.0333133726 1.0472812088 1.041208071 1.047352804 1.0548467273 
1.0637564637 1.0695046453 1.0668411891 1.0605037762 1.0457667638 1.0239686543 0.99388986141 0.96904797687 0.95761435857 
0.93546037918 0.93682804744 0.93728105519 0.94384285663 0.96351229079 0.97881744862 0.98805404675 0.99595865581 1.0056150252 
1.0096653798 1.0132471525 1.0094175057 1.0078106658 0.99915152613 0.98385765274 0.9573317147 0.9657235945 0.96394266912 
0.97504815045 0.98371966648 1.0228264352 1.0138991347 0.97321905748 0.97663903513 0.96635519207 0.97938613021 0.97357714738 
0.96777853118 0.96980804804 0.95906614064 0.95804948994 0.95804139529 0.96012652555 0.96221438798 0.9645051064 0.96262082696 
0.95604426481 0.93895418771 0.93281164412 0.93528142901 0.93599780626 0.94133533075 0.94730779054 0.94907264831 0.96446788752 
0.95580627252 0.97178868631 0.98585466023 0.98925987799 0.99210509753 0.99746781276 1.0064726772 1.0113476245 1.0045144454 
1.0002417792 0.99966847127 1.0065028733 1.01246889 1.01750738 1.0198138329 1.018967363 1.0159412979 1.0097542648 
0.99979451289 1.0030703442 1.0066022158 1.0141460359 1.0324162616 1.0351480093 1.0314776542 1.021242358 1.0107360029 
1.0116236059 1.0080855758 1.0182637228 1.0116738596 1.0000764824 0.98521435513 0.97261193469 0.96942825917 0.95919932569 
0.94892555738 0.92853756885 0.92893046907 0.93058098487 0.92043548494 0.91758148263 0.91896320595 0.92474922453 0.93336857265 
0.94719362464 0.96194585019 0.96206344565 0.97260101933 0.94528832968 0.93456469246 0.91829825724 0.92557879363 0.94256989108 
0.95544531332 0.96839406815 0.98491163241 0.99111556673 0.99557827513 1.0106004747 1.0254448425 1.0178002239 1.0175676614 
1.0271420257 1.0100945331 1.0438677211 1.0367020297 0.9642009702 0.97128099934 0.95021696667 0.94582785637 0.94697688843 
0.94626077041 0.94583731935 0.94447206571 0.939903396 0.93541686422 0.9433794141 0.94236589597 0.94465332065 0.96681659289 
0.98231517432 0.97948619639 0.9522779443 0.94896340778 0.95840046515 0.97176400171 0.98025275937 0.97750165302 0.98627636656 
0.99321237546 0.99729515954 0.99416613201 0.99056855447 0.99327073884 0.99216163424 0.99756621279 1.0061347618 1.0221665323 
1.0326165167 1.036514634 1.0372821091 1.0311431629 1.023651217 1.0228880058 1.0276349968 1.0245578385 1.0239272703 
1.0140216478 1.0069491472 1.0010820597 1.0105298874 0.9992911424 0.99966687836 0.96844221442 0.95644303151 0.95524079942 
0.94734435925 0.93903875559 0.92732532182 0.91837452318 0.91611763502 0.91473279153 1.0312991745 1.0124000333 0.99159538342 
0.98896319295 0.99548112109 1.0007421073 1.0062693668 1.0090029834 1.0200613428 1.0273920343 1.0325743075 1.0375545797 
1.0378796815 1.0293341796 1.0204145363 1.0168410956 1.0146538612 1.0234118116 1.0324271327 1.0386345928 1.0390459707 
1.0341975443 1.0214288322 0.99594845299 0.96887459385 0.94792550551 0.93704157014 0.94871877418 0.93953495578 0.94874757156 
0.94557174247 0.9507577904 0.96385522583 0.96423579351 1.0006703648 1.0023393148 1.0035724223 1.0029809427 1.0034552563 
0.99348067779 0.97939578495 0.98089132012 0.97654501565 0.95560255268 0.94468334919 0.97990126632 0.97320400137 0.96476079314 
0.96165665663 0.96215486332 0.94322324879 0.94138285392 0.9378806767 0.95340446367 0.94844312643 0.94520712455 0.94844158274 
0.95828911237 0.94217208773 0.9530798612 0.94466369402 0.97284380919 0.9766600651 0.97928051762 0.98883371522 0.99385827455 
1.0086092618 1.0400826037 1.0309626366 1.0216380047 1.0107838809 0.9991488387 0.99373301324 0.9984845067 1.0084759823 
1.0126009636 1.013630014 0.99723205552 0.98594730953 0.94750554881 0.9382757963 0.94581411094 0.94728899136 0.95197087919 
0.99388345833 0.98978014409 0.99718494068 1.0123422916 1.0225959361 1.0268884183 1.0285161503 1.0310643518 1.0318359902 
1.0300144383 1.0234774747 1.0093421618 0.99399734948 0.9947882274 0.99658244444 0.93767850112 0.93497191239 0.93575627876 
0.95968580913 0.96869805285 0.96043132911 0.97567438553 0.9705032441 0.98688996876 0.99279229976 0.99890225193 0.93460509642 
0.94124618024 0.93745781963 0.93677812798 0.98867983447 0.93510442943 0.97746463686 0.96279009963 0.98906203878 0.97151089945 
0.96767933773 1.0516231911 0.9782934611 0.97239992601 0.95060351508 0.96735880885 0.96273725549 
Label 4 1114 double
1 1 1 1 1 1 1 1 1 
1 1 1 1 1 1 1 1 1 
1 1 1 1 1 1 1 1 1 
1 1 1 1 1 1 1 1 1 
1 1 1 1 1 1 1 1 1 
1 1 1 1 1 1 1 1 1 
1 1 1 1 1 1 1 1 1 
1 1 1 1 1 1 1 1 1 
1 1 1 1 1 1 1 1 1 
1 1 1 1 1 1 1 1 1 
1 1 1 1 1 1 1 1 1 
1 1 1 1 1 1 1 1 1 
1 1 1 1 1 1 1 1 1 
1 1 1 1 1 1 1 1 1 
1 1 1 1 1 1 1 1 1 
1 1 1 1 1 1 1 1 1 
1 1 1 1 1 1 1 1 1 
1 1 1 1 1 1 1 1 1 
1 1 1 1 1 1 1 1 1 
1 1 1 1 1 1 1 1 1 
1 1 1 1 1 1 1 1 1 
1 1 1 1 1 1 1 1 1 
1 1 1 1 1 1 1 1 1 
1 1 1 1 1 1 1 1 1 
1 1 1 1 1 1 1 1 1 
1 1 1 1 1 1 1 1 1 
1 1 1 1 1 1 1 1 1 
1 1 1 1 1 1 1 1 1 
1 1 1 1 1 1 1 1 1 
1 1 1 1 1 1 1 1 1 
1 1 1 1 1 1 1 1 1 
1 1 1 1 1 1 1 1 1 
1 1 1 1 1 1 1 1 1 
1 1 1 1 1 1 1 1 1 
1 1 1 1 1 1 1 1 1 
1 1 1 1 1 1 1 1 1 
1 1 1 1 1 1 1 1 1 
1 1 1 1 1 1 1 1 1 
1 1 1 1 1 1 1 1 1 
1 1 1 1 1 1 1 1 1 
1 1 1 1 1 1 1 1 1 
1 1 1 1 1 1 1 1 1 
1 1 1 1 1 1 1 1 1 
1 1 1 1 1 1 1 1 1 
1 1 1 1 1 1 1 1 1 
1 1 1 1 1 1 1 1 1 
1 1 1 1 1 1 1 1 1 
1 1 1 1 1 1 1 1 1 
1 1 1 1 1 1 1 1 1 
1 1 1 1 1 1 1 1 1 
1 1 1 1 1 1 1 1 1 
1 1 1 1 1 1 1 1 1 
1 1 1 1 1 1 1 1 1 
1 1 1 1 1 1 1 1 1 
1 1 1 1 1 1 1 1 1 
1 1 1 1 1 1 1 1 1 
1 1 1 1 1 1 1 1 1 
1 1 1 1 1 1 1 1 1 
1 1 1 1 1 1 1 1 1 
1 1 1 1 1 1 1 1 1 
1 1 1 1 1 1 1 1 1 
1 1 1 1 1 1 1 1 1 
1 1 1 1 1 1 1 1 1 
1 1 1 1 1 1 1 1 1 
1 1 1 1 1 1 1 1 1 
1 1 1 1 1 1 1 1 1 
1 1 1 1 1 1 1 1 1 
1 1 1 1 1 1 1 1 1 
1 1 1 1 1 1 1 1 1 
1 1 1 1 1 1 1 1 1 
1 1 1 1 1 1 1 1 1 
1 1 1 1 1 1 1 1 1 
1 1 1 1 1 1 1 1 1 
1 1 1 1 1 1 1 1 1 
1 1 1 1 1 1 1 1 1 
1 1 1 1 1 1 1 1 1 
1 1 1 1 1 1 1 1 1 
1 1 1 1 1 1 1 1 1 
1 1 1 1 1 1 1 1 1 
1 1 1 1 1 1 1 1 1 
1 1 1 1 1 1 1 1 1 
1 1 1 1 1 1 1 1 1 
1 1 1 1 1 1 1 1 1 
1 1 1 1 1 1 1 1 1 
1 1 1 1 1 1 1 1 1 
1 1 1 1 1 1 1 1 1 
1 1 1 1 1 1 1 1 1 
1 1 1 1 1 1 1 1 1 
1 1 1 1 1 1 1 1 1 
1 1 1 1 1 1 1 1 1 
1 1 1 1 1 1 1 1 1 
1 1 1 1 1 1 1 1 1 
1 1 1 1 1 1 1 1 1 
1 1 1 1 1 1 1 1 1 
1 1 1 1 1 1 1 1 1 
1 1 1 1 1 1 1 1 1 
1 1 1 1 1 1 1 1 1 
1 1 1 1 1 1 1 1 1 
1 1 1 1 1 1 1 1 1 
1 1 1 1 1 1 1 1 1 
1 1 1 1 1 1 1 1 1 
1 1 1 1 1 1 1 1 1 
1 1 1 1 1 1 1 1 1 
1 1 1 1 1 1 1 1 1 
1 1 1 1 1 1 1 1 1 
1 1 1 1 1 1 1 1 1 
1 1 1 1 1 1 1 1 1 
1 1 1 1 1 1 1 1 1 
1 1 1 1 1 1 1 1 1 
1 1 1 1 1 1 1 1 1 
1 1 1 1 1 1 1 1 1 
1 1 1 1 1 1 1 1 1 
1 1 1 1 1 1 1 1 1 
1 1 1 1 1 1 1 1 1 
1 1 1 1 1 1 1 1 1 
1 1 1 1 1 1 1 1 1 
1 1 1 1 1 1 1 1 1 
1 1 1 1 1 1 1 1 1 
1 1 1 1 1 1 1 1 1 
1 1 1 1 1 1 1 1 1 
1 1 1 1 1 1 1 1 1 
1 1 1 1 1 1 1 1 1 
1 1 1 1 1 1 1 1 1 
1 1 1 1 1 1 1 1 1 
1 1 1 1 1 1 1 1 1 
1 1 1 1 1 1 1 1 1 
1 1 1 1 1 1 1 1 1 
1 1 1 1 1 1 1 1 1 
1 1 1 1 1 1 1 1 1 
1 1 1 1 1 1 1 1 1 
1 1 1 1 1 1 1 1 1 
1 1 1 1 1 1 1 1 1 
1 1 1 1 1 1 1 1 1 
1 1 1 1 1 1 1 1 1 
1 1 1 1 1 1 1 1 1 
1 1 1 1 1 1 1 1 1 
1 1 1 1 1 1 1 1 1 
1 1 1 1 1 1 1 1 1 
1 1 1 1 1 1 1 1 1 
1 1 1 1 1 1 1 1 1 
1 1 1 1 1 1 1 1 1 
1 1 1 1 1 1 1 1 1 
1 1 1 1 1 1 1 1 1 
1 1 1 1 1 1 1 1 1 
1 1 1 1 1 1 1 1 1 
1 1 1 1 1 1 1 1 1 
1 1 1 1 1 1 1 1 1 
1 1 1 1 1 1 1 1 1 
1 1 1 1 1 1 1 1 1 
1 1 1 1 1 1 1 1 1 
1 1 1 1 1 1 1 1 1 
1 1 1 1 1 1 1 1 1 
1 1 1 1 1 1 1 1 1 
1 1 1 1 1 1 1 1 1 
1 1 1 1 1 1 1 1 1 
1 1 1 1 1 1 1 1 1 
1 1 1 1 1 1 1 1 1 
1 1 1 1 1 1 1 1 1 
1 1 1 1 1 1 1 1 1 
1 1 1 1 1 1 1 1 1 
1 1 1 1 1 1 1 1 1 
1 1 1 1 1 1 1 1 1 
1 1 1 1 1 1 1 1 1 
1 1 1 1 1 1 1 1 1 
1 1 1 1 1 1 1 1 1 
1 1 1 1 1 1 1 1 1 
1 1 1 1 1 1 1 1 1 
1 1 1 1 1 1 1 1 1 
1 1 1 1 1 1 1 1 1 
1 1 1 1 1 1 1 1 1 
1 1 1 1 1 1 1 1 1 
1 1 1 1 1 1 1 1 1 
1 1 1 1 1 1 1 1 1 
1 1 1 1 1 1 1 1 1 
1 1 1 1 1 1 1 1 1 
1 1 1 1 1 1 1 1 1 
1 1 1 1 1 1 1 1 1 
1 1 1 1 1 1 1 1 1 
1 1 1 1 1 1 1 1 1 
1 1 1 1 1 1 1 1 1 
1 1 1 1 1 1 1 1 1 
1 1 1 1 1 1 1 1 1 
1 1 1 1 1 1 1 1 1 
1 1 1 1 1 1 1 1 1 
1 1 1 1 1 1 1 1 1 
1 1 1 1 1 1 1 1 1 
1 1 1 1 1 1 1 1 1 
1 1 1 1 1 1 1 1 1 
1 1 1 1 1 1 1 1 1 
1 1 1 1 1 1 1 1 1 
1 1 1 1 1 1 1 1 1 
1 1 1 1 1 1 1 1 1 
1 1 1 1 1 1 1 1 1 
1 1 1 1 1 1 1 1 1 
1 1 1 1 1 1 1 1 1 
1 1 1 1 1 1 1 1 1 
1 1 1 1 1 1 1 1 1 
1 1 1 1 1 1 1 1 1 
1 1 1 1 1 1 1 1 1 
1 1 1 1 1 1 1 1 1 
1 1 1 1 1 1 1 1 1 
1 1 1 1 1 1 1 1 1 
1 1 1 1 1 1 1 1 1 
1 1 1 1 1 1 1 1 1 
1 1 1 1 1 1 1 1 1 
1 1 1 1 1 1 1 1 1 
1 1 1 1 1 1 1 1 1 
1 1 1 1 1 1 1 1 1 
1 1 1 1 1 1 1 1 1 
1 1 1 1 1 1 1 1 1 
1 1 1 1 1 1 1 1 1 
1 1 1 1 1 1 1 1 1 
1 1 1 1 1 1 1 1 1 
1 1 1 1 1 1 1 1 1 
1 1 1 1 1 1 1 1 1 
1 1 1 1 1 1 1 1 1 
1 1 1 1 1 1 1 1 1 
1 1 1 1 1 1 1 1 1 
1 1 1 1 1 1 1 1 1 
1 1 1 1 1 1 1 1 1 
1 1 1 1 1 1 1 1 1 
1 1 1 1 1 1 1 1 1 
1 1 1 1 1 1 1 1 1 
1 1 1 1 1 1 1 1 1 
1 1 1 1 1 1 1 1 1 
1 1 1 1 1 1 1 1 1 
1 1 1 1 1 1 1 1 1 
1 1 1 1 1 1 1 1 1 
1 1 1 1 1 1 1 1 1 
1 1 1 1 1 1 1 1 1 
1 1 1 1 1 1 1 1 1 
1 1 1 1 1 1 1 1 1 
1 1 1 1 1 1 1 1 1 
1 1 1 1 1 1 1 1 1 
1 1 1 1 1 1 1 1 1 
1 1 1 1 1 1 1 1 1 
1 1 1 1 1 1 1 1 1 
1 1 1 1 1 1 1 1 1 
1 1 1 1 1 1 1 1 1 
1 1 1 1 1 1 1 1 1 
1 1 1 1 1 1 1 1 1 
1 1 1 1 1 1 1 1 1 
1 1 1 1 1 1 1 1 1 
1 1 1 1 1 1 1 1 1 
1 1 1 1 1 1 1 1 1 
1 1 1 1 1 1 1 1 1 
1 1 1 1 1 1 1 1 1 
1 1 1 1 1 1 1 1 1 
1 1 1 1 1 1 1 1 1 
1 1 1 1 1 1 1 1 1 
1 1 1 1 1 1 1 1 1 
1 1 1 1 1 1 1 1 1 
1 1 1 1 1 1 1 1 1 
1 1 1 1 1 1 1 1 1 
1 1 1 1 1 1 1 1 1 
1 1 1 1 1 1 1 1 1 
1 1 1 1 1 1 1 1 1 
1 1 1 1 1 1 1 1 1 
1 1 1 1 1 1 1 1 1 
1 1 1 1 1 1 1 1 1 
1 1 1 1 1 1 1 1 1 
1 1 1 1 1 1 1 1 1 
1 1 1 1 1 1 1 1 1 
1 1 1 1 1 1 1 1 1 
1 1 1 1 1 1 1 1 1 
1 1 1 1 1 1 1 1 1 
1 1 1 1 1 1 1 1 1 
1 1 1 1 1 1 1 1 1 
1 1 1 1 1 1 1 1 1 
1 1 1 1 1 1 1 1 1 
1 1 1 1 1 1 1 1 1 
1 1 1 1 1 1 1 1 1 
1 1 1 1 1 1 1 1 1 
1 1 1 1 1 1 1 1 1 
1 1 1 1 1 1 1 1 1 
1 1 1 1 1 1 1 1 1 
1 1 1 1 1 1 1 1 1 
1 1 1 1 1 1 1 1 1 
1 1 1 1 1 1 1 1 1 
1 1 1 1 1 1 1 1 1 
1 1 1 1 1 1 1 1 1 
1 1 1 1 1 1 1 1 1 
1 1 1 1 1 1 1 1 1 
1 1 1 1 1 1 1 1 1 
1 1 1 1 1 1 1 1 1 
1 1 1 1 1 1 1 1 1 
1 1 1 1 1 1 1 1 1 
1 1 1 1 1 1 1 1 1 
1 1 1 1 1 1 1 1 1 
1 1 1 1 1 1 1 1 1 
1 1 1 1 1 1 1 1 1 
1 1 1 1 1 1 1 1 1 
1 1 1 1 1 1 1 1 1 
1 1 1 1 1 1 1 1 1 
1 1 1 1 1 1 1 1 1 
1 1 1 1 1 1 1 1 1 
1 1 1 1 1 1 1 1 1 
1 1 1 1 1 1 1 1 1 
1 1 1 1 1 1 1 1 1 
1 1 1 1 1 1 1 1 1 
1 1 1 1 1 1 1 1 1 
1 1 1 1 1 1 1 1 1 
1 1 1 1 1 1 1 1 1 
1 1 1 1 1 1 1 1 1 
1 1 1 1 1 1 1 1 1 
1 1 1 1 1 1 1 1 1 
1 1 1 1 1 1 1 1 1 
1 1 1 1 1 1 1 1 1 
1 1 1 1 1 1 1 1 1 
1 1 1 1 1 1 1 1 1 
1 1 1 1 1 1 1 1 1 
1 1 1 1 1 1 1 1 1 
1 1 1 1 1 1 1 1 1 
1 1 1 1 1 1 1 1 1 
1 1 1 1 1 1 1 1 1 
1 1 1 1 1 1 1 1 1 
1 1 1 1 1 1 1 1 1 
1 1 1 1 1 1 1 1 1 
1 1 1 1 1 1 1 1 1 
1 1 1 1 1 1 1 1 1 
1 1 1 1 1 1 1 1 1 
1 1 1 1 1 1 1 1 1 
1 1 1 1 1 1 1 1 1 
1 1 1 1 1 1 1 1 1 
1 1 1 1 1 1 1 1 1 
1 1 1 1 1 1 1 1 1 
1 1 1 1 1 1 1 1 1 
1 1 1 1 1 1 1 1 1 
1 1 1 1 1 1 1 1 1 
1 1 1 1 1 1 1 1 1 
1 1 1 1 1 1 1 1 1 
1 1 1 1 1 1 1 1 1 
1 1 1 1 1 1 1 1 1 
1 1 1 1 1 1 1 1 1 
1 1 1 1 1 1 1 1 1 
1 1 1 1 1 1 1 1 1 
1 1 1 1 1 1 1 1 1 
1 1 1 1 1 1 1 1 1 
1 1 1 1 1 1 1 1 1 
1 1 1 1 1 1 1 1 1 
1 1 1 1 1 1 1 1 1 
1 1 1 1 1 1 1 1 1 
1 1 1 1 1 1 1 1 1 
1 1 1 1 1 1 1 1 1 
1 1 1 1 1 1 1 1 1 
1 1 1 1 1 1 1 1 1 
1 1 1 1 1 1 1 1 1 
1 1 1 1 1 1 1 1 1 
1 1 1 1 1 1 1 1 1 
1 1 1 1 1 1 1 1 1 
1 1 1 1 1 1 1 1 1 
1 1 1 1 1 1 1 1 1 
1 1 1 1 1 1 1 1 1 
1 1 1 1 1 1 1 1 1 
1 1 1 1 1 1 1 1 1 
1 1 1 1 1 1 1 1 1 
1 1 1 1 1 1 1 1 1 
1 1 1 1 1 1 1 1 1 
1 1 1 1 1 1 1 1 1 
1 1 1 1 1 1 1 1 1 
1 1 1 1 1 1 1 1 1 
1 1 1 1 1 1 1 1 1 
1 1 1 1 1 1 1 1 1 
1 1 1 1 1 1 1 1 1 
1 1 1 1 1 1 1 1 1 
1 1 1 1 1 1 1 1 1 
1 1 1 1 1 1 1 1 1 
1 1 1 1 1 1 1 1 1 
1 1 1 1 1 1 1 1 1 
1 1 1 1 1 1 1 1 1 
1 1 1 1 1 1 1 1 1 
1 1 1 1 1 1 1 1 1 
1 1 1 1 1 1 1 1 1 
1 1 1 1 1 1 1 1 1 
1 1 1 1 1 1 1 1 1 
1 1 1 1 1 1 1 1 1 
1 1 1 1 1 1 1 1 1 
1 1 1 1 1 1 1 1 1 
1 1 1 1 1 1 1 1 1 
1 1 1 1 1 1 1 1 1 
1 1 1 1 1 1 1 1 1 
1 1 1 1 1 1 1 1 1 
1 1 1 1 1 1 1 1 1 
1 1 1 1 1 1 1 1 1 
1 1 1 1 1 1 1 1 1 
1 1 1 1 1 1 1 1 1 
1 1 1 1 1 1 1 1 1 
1 1 1 1 1 1 1 1 1 
1 1 1 1 1 1 1 1 1 
1 1 1 1 1 1 1 1 1 
1 1 1 1 1 1 1 1 1 
1 1 1 1 1 1 1 1 1 
1 1 1 1 1 1 1 1 1 
1 1 1 1 1 1 1 1 1 
1 1 1 1 1 1 1 1 1 
1 1 1 1 1 1 1 1 1 
1 1 1 1 1 1 1 1 1 
1 1 1 1 1 1 1 1 1 
1 1 1 1 1 1 1 1 1 
1 1 1 1 1 1 1 1 1 
1 1 1 1 1 1 1 1 1 
1 1 1 1 1 1 1 1 1 
1 1 1 1 1 1 1 1 1 
1 1 1 1 1 1 1 1 1 
1 1 1 1 1 1 1 1 1 
1 1 1 1 1 1 1 1 1 
1 1 1 1 1 1 1 1 1 
1 1 1 1 1 1 1 1 1 
1 1 1 1 1 1 1 1 1 
1 1 1 1 1 1 1 1 1 
1 1 1 1 1 1 1 1 1 
1 1 1 1 1 1 1 1 1 
1 1 1 1 1 1 1 1 1 
1 1 1 1 1 1 1 1 1 
1 1 1 1 1 1 1 1 1 
1 1 1 1 1 1 1 1 1 
1 1 1 1 1 1 1 1 1 
1 1 1 1 1 1 1 1 1 
1 1 1 1 1 1 1 1 1 
1 1 1 1 1 1 1 1 1 
1 1 1 1 1 1 1 1 1 
1 1 1 1 1 1 1 1 1 
1 1 1 1 1 1 1 1 1 
1 1 1 1 1 1 1 1 1 
1 1 1 1 1 1 1 1 1 
1 1 1 1 1 1 1 1 1 
1 1 1 1 1 1 1 1 1 
1 1 1 1 1 1 1 1 1 
1 1 1 1 1 1 1 1 1 
1 1 1 1 1 1 1 1 1 
1 1 1 1 1 1 1 1 1 
1 1 1 1 1 1 1 1 1 
1 1 1 1 1 1 1 1 1 
1 1 1 1 1 1 1 1 1 
1 1 1 1 1 1 1 1 1 
1 1 1 1 1 1 1 1 1 
1 1 1 1 1 1 1 1 1 
1 1 1 1 1 1 1 1 1 
1 1 1 1 1 1 1 1 1 
1 1 1 1 1 1 1 1 1 
1 1 1 1 1 1 1 1 1 
1 1 1 1 1 1 1 1 1 
1 1 1 1 1 1 1 1 1 
1 1 1 1 1 1 1 1 1 
1 1 1 1 1 1 1 1 1 
1 1 1 1 1 1 1 1 1 
1 1 1 1 1 1 1 1 1 
1 1 1 1 1 1 1 1 1 
1 1 1 1 1 1 1 1 1 
1 1 1 1 1 1 1 1 1 
1 1 1 1 1 1 1 1 1 
1 1 1 1 1 1 1 1 1 
1 1 1 1 1 1 1 1 1 
1 1 1 1 1 1 1 1 1 
1 1 1 1 1 1 1 1 1 
1 1 1 1 1 1 1 1 1 
1 1 1 1 1 1 1 1 1 
1 1 1 1 1 1 1 1 1 
1 1 1 1 1 1 1 1 1 
1 1 1 1 1 1 1 1 1 
1 1 1 1 1 1 1 1 1 
1 1 1 1 1 1 1 1 1 
1 1 1 1 1 1 1 1 1 
1 1 1 1 1 1 1 1 1 
1 1 1 1 1 1 1 1 1 
1 1 1 1 1 1 1 1 1 
1 1 1 1 1 1 1 1 1 
1 1 1 1 1 1 1 1 1 
1 1 1 1 1 1 1 1 1 
1 1 1 1 1 1 1 1 1 
1 1 1 1 1 1 1 1 1 
1 1 1 1 1 1 1 1 1 
1 1 1 1 1 1 1 1 1 
1 1 1 1 1 1 1 1 1 
1 1 1 1 1 1 1 1 1 
1 1 1 1 1 1 1 1 1 
1 1 1 1 1 1 1 1 1 
1 1 1 1 1 1 1 1 1 
1 1 1 1 1 1 1 1 1 
1 1 1 1 1 1 1 1 1 
1 1 1 1 1 1 1 1 1 
1 1 1 1 1 1 1 1 1 
1 1 1 1 1 1 1 1 1 
1 1 1 1 1 1 1 1 1 
1 1 1 1 1 1 1 1 1 
1 1 1 1 1 1 1 1 1 
1 1 1 1 1 1 1 1 1 
1 1 1 1 1 1 1 1 1 
1 1 1 1 1 1 1 1 1 
1 1 1 1 1 1 1 1 1 
1 1 1 1 1 1 1 1 1 
1 1 1 1 1 1 1 1 1 
1 1 1 1 1 1 1 1 1 
1 1 1 1 1 1 1 1 1 
1 1 1 1 1 1 1 1 1 
1 
Long_Strain_Pt 1 1114 double
0.83504615074 0.84616101385 0.83391101153 0.82272341953 0.82695682433 0.84572211848 0.81783622427 0.85054906983 0.81969121952 
0.8403806615 0.81803551417 0.81207265845 0.80678969457 0.80583296114 0.81443844942 0.80537649969 0.83799283319 0.82488970326 
0.85518266203 0.84480864593 0.85080620895 0.85570362353 0.84760701824 0.86927909626 0.87389607682 0.8784309558 0.85356634746 
0.86008692045 0.85308265972 0.86673437784 0.86349149989 0.86991425945 0.88031630818 0.87456467688 0.90833345751 0.88285260589 
0.91968386555 0.88152637758 0.92055113657 0.87701604417 0.92600000694 0.86735891966 0.91292697391 0.85349824944 0.89546958064 
0.84385349247 0.87934482079 0.84096635879 0.86728551957 0.8440893103 0.86054153644 0.84696261732 0.85428653487 0.84223540513 
0.86255634375 0.83779110063 0.85835455193 0.84617946498 0.84879784261 0.8539074076 0.86613034485 0.87160370751 0.88371603568 
0.88307576679 0.86630391196 0.89362358684 0.86162115152 0.89490545911 0.88452178627 0.90658629041 0.91747062015 0.90362024252 
0.90191462611 0.89057687975 0.90206609592 0.87384438313 0.88367953745 0.84554768986 0.85792805998 0.80792963986 0.84085105948 
0.79687509324 0.83329865729 0.80530093969 1.038094805 0.98952651231 1.107367301 1.099739359 0.95630198408 1.1147804612 
0.96768591731 1.1230989722 0.99500930284 1.1272861583 1.0363601628 1.1332052998 1.0607604316 1.1425356414 1.0885806836 
1.1480136316 1.1233509338 1.1473687997 1.1497476256 1.1385620676 1.1608686932 1.1206883904 1.1503742301 1.0915055964 
1.1260975034 1.0656428549 1.1175588234 1.040281552 1.1214772519 1.0210376862 1.0795501583 0.99915069122 1.0490559445 
0.99378495561 1.0257675361 1.0135621259 1.0060790541 1.0564687085 1.0702751541 1.0923205876 1.157580072 1.1150206718 
1.1451043958 1.1289225223 1.1302412267 1.1367208297 1.1139647511 1.1367080371 1.0969733839 1.1252727099 1.0994776916 
1.1036645821 1.1128071841 1.0989188046 1.1035306391 1.1006001829 1.098598523 1.1034812945 1.0999522896 1.1317661863 
1.1302186256 1.1524744632 1.1682588057 1.1697229368 1.2005539287 1.1792781544 1.2053534241 1.1961355024 1.1820785822 
1.2385422924 1.2119351845 1.239081428 1.2468872808 1.2373126705 1.2620763197 1.2395061514 1.2519995684 1.2469401237 
1.2218024246 1.256098785 1.2359334224 1.2617843043 1.2401435255 1.2585974776 1.2287278515 1.2468105208 1.218704486 
1.2326478833 1.2077478867 1.2157332657 1.1696473815 1.1863670723 1.1384257274 1.1686361063 1.1222249926 1.1511403858 
1.1394636214 1.1372042044 1.1842923214 1.1293686053 1.1869034923 1.1258805428 1.1765605054 1.1129944371 1.1141305131 
1.1039760544 1.066126229 1.0996240486 1.0587054657 1.105802767 1.0587059529 1.1098646117 1.0662559002 1.1118460954 
1.0556297286 1.10684729 0.88028163301 0.85439891958 0.88173291484 0.87716206914 0.84660311426 0.82055723928 0.81340236652 
0.82421719799 0.84226480381 0.86167711523 0.87885730613 0.88549133383 0.88873890914 0.8874898029 0.88670350086 0.88992042009 
0.88616896752 0.87506584162 0.87993791246 0.87045688605 0.87038326533 0.87334318017 0.87372967573 0.85917069081 0.83471765507 
0.83038341662 0.83004959839 0.84028719529 0.85076650868 0.86361549621 0.88585140505 0.90743077435 0.91005377322 0.90741487702 
0.90920773171 0.90235653908 0.89083006467 0.87346063252 0.82974521647 0.81909234378 0.83311143706 0.84228394719 1.1428850622 
1.1445989767 1.1397490246 1.1412575761 1.1436492681 1.1465659393 1.1451158153 1.1466829306 1.1437061005 1.1176769925 
1.0850398839 1.0492561509 1.0128370008 0.98890086719 0.97235999413 0.97060766521 0.98465767682 1.0284251637 1.0748834024 
1.1125634488 1.131997784 1.1394429043 1.1386977464 1.1337137336 1.1156536729 1.1186491553 1.1155063917 1.1186234766 
1.127520381 1.1373850201 1.139473459 1.1386567374 1.1248807044 1.1505661333 1.1632415189 1.165548582 1.1645142903 
1.1781043535 1.2043296141 1.2199701923 1.21631743 1.211775703 1.2099831627 1.2078584108 1.1988438981 1.185458068 
1.1768365435 1.1665833751 1.1623271259 1.1672264363 1.1651390825 1.1566016287 1.1470883033 1.1370421274 1.1401049823 
1.1465667306 1.1521629305 1.1518207913 1.1247728451 1.1367027152 0.87560483519 0.90737594575 0.84873011884 0.83327642393 
0.82736762123 0.85006522932 0.87325594096 0.89451715194 0.90756341072 0.92080911304 0.91764380824 0.91109622186 0.91226812354 
0.92127205655 0.91940736778 0.91181703985 0.9000898083 0.89340742371 0.88743216277 0.87894935742 0.87852607208 0.85368826691 
0.86008738378 0.85653845471 0.86855649344 0.879013889 0.89302718036 0.91149647486 0.91603347515 0.91898371626 0.92256452045 
0.92528632014 0.92560763532 0.93507294219 0.96558760897 0.97026652342 0.9933659213 1.0012227984 0.98525164511 0.95865443549 
0.94054908104 0.87841891293 0.89037990075 1.1205454393 1.113446072 1.1145489622 1.1172749693 1.1123208681 1.1112713008 
1.1137918788 1.1069281352 1.0925813551 1.0840130063 1.0806981698 1.09335369 1.1033994561 1.1170021492 1.1336984278 
1.1326327616 1.1422346607 1.1585007209 1.1833939838 1.1941571034 1.1899653469 1.1852313621 1.1836053846 1.1927036335 
1.2042358426 1.2021418622 1.1984436521 1.1895361637 1.1823427507 1.1776818854 1.172778048 1.1718359231 1.1696209395 
1.1645942143 1.1551310696 1.1533715162 1.1484260732 1.1336104113 1.1219222361 1.1154806212 1.1119977813 1.1124763398 
1.09490075 1.0779117124 1.0616807875 1.03867689 1.016721056 0.99843813484 0.98627994319 0.98970446271 0.99663512023 
1.0390561128 1.0822971385 1.1182288143 1.1412951897 1.153257756 1.1575592395 1.1588848982 1.1232995986 1.0929042241 
1.093980533 1.0601548458 1.0781013318 1.0821099294 0.9128568265 0.92925059115 0.91257112698 0.9125503944 0.91038979589 
0.91076175036 0.9166584219 0.9257915679 0.92931414954 0.92797622689 0.93353900596 0.94187826385 0.93598334141 0.94810533741 
0.96785671314 0.98374120589 1.0670921921 1.0487317712 1.073745149 1.0715739864 1.0457156959 1.0141190172 0.89513094563 
0.92247796825 0.87843087976 0.87227849038 0.87067328019 0.88210161703 0.89483659951 0.90616562119 0.93953416853 0.95269438665 
0.97269356073 0.95286463191 0.94058349018 0.93859652699 0.94249564006 0.93073961225 0.91205833711 0.89313200246 0.8766022451 
0.8648234751 0.87029708939 0.88331780551 0.89056818063 0.92078960789 0.91007962801 0.94462013023 0.93509446196 0.97246898195 
0.99291184955 1.0084194448 1.021505509 0.99787356762 1.092824221 1.0895540024 1.0887112917 1.0876641027 1.0860867682 
1.0864726219 1.0840587291 1.0809505567 1.0763102676 1.074953195 1.0659946408 1.0707484106 1.0737505204 1.0774192255 
1.0738721405 1.0677462554 1.0720768988 1.0851223086 1.119295268 1.1466196548 1.1691062515 1.1814118713 1.1950797865 
1.2012768894 1.2122287458 1.2262262796 1.2235628335 1.2137625381 1.1916879765 1.1728832906 1.1587586673 1.148902117 
1.141781117 1.1128616922 1.1308686578 1.1238014119 1.1220407792 1.1205691311 1.1123358871 1.1020195625 1.1017025137 
1.0913674156 1.0676952369 1.052354589 1.0410561067 1.0312267903 1.0199409333 1.0015735301 0.98806528921 0.97988533429 
0.97884972863 1.0554748709 1.026046078 1.0776036169 1.0917092982 1.1155972833 1.1341168941 1.1441447342 1.1227060289 
1.0946618718 1.0560832555 1.0200531621 1.0127826672 0.98645515732 1.0308323037 1.0416118009 1.05108912 1.0629317399 
1.0760125755 1.0836669184 1.0004424523 1.0363706242 0.97173480706 0.95649707206 0.95311812837 0.9255729611 0.97533263065 
0.98449393657 0.99340318446 1.0014415153 1.0289283128 1.0561080245 1.0741569974 0.98791631301 0.98003481265 0.94061832666 
0.9393522576 0.93919752418 0.94070890161 0.95223351182 0.96135295806 0.95852724175 0.95520739813 0.95389031971 0.93986957395 
0.93969114007 0.94730373549 0.96480356483 0.97984698122 0.98596522657 1.0025073602 0.97602455432 1.0142728724 1.028013827 
1.0403087245 1.0513455648 1.0519404348 1.0565417877 1.0521816483 0.98619176647 1.0567518764 0.98404645729 1.0436855012 
1.0328726108 1.0214724633 1.004149089 0.98090441028 0.9573444063 0.94157104801 0.92867507346 0.90984250359 0.89746601546 
0.90263018195 0.9242956131 0.95194848067 1.0058735422 1.0267394897 0.95776131507 0.97213728033 0.94045872354 0.92798763977 
0.91483200285 0.9012548959 0.88476224234 0.87837329675 0.87351797471 0.87851895325 0.88985950665 0.88781517166 0.88397364318 
0.91221369916 0.89518851572 0.92804791981 0.93540401156 0.98586761272 1.032854685 1.0687883763 1.0818068254 1.0627805615 
1.0434186648 1.0669186338 1.0667934525 1.0612819267 1.0572845155 1.0532656865 1.0406595918 1.0315762305 1.0209046327 
1.0193426089 1.027850528 1.0519416342 1.0777842764 1.1277454713 1.1492625205 1.1680075317 1.1838038008 1.1951827097 
1.1964083062 1.19735601 1.1953412957 1.1911715228 1.176495691 1.1517092336 1.1259783253 1.1037765282 1.0858979216 
1.1168483718 1.1109249508 1.1230459677 1.1257866386 1.1328075389 1.1326957975 1.1182110542 1.0967628287 1.0690268273 
1.0408255566 1.0222740069 1.0198893931 1.0142371295 1.0094345815 1.0005274821 0.99408739592 0.98854009822 0.98609570754 
0.97492317365 0.9730752154 0.98165581777 0.99350730638 1.0051907 1.0095124418 1.0212976915 1.0484685093 1.0893792652 
1.0911626322 1.0515570954 1.051718531 1.0214202141 1.0213368679 0.99408156915 1.0423497238 1.0565550937 1.0602317142 
1.0552825091 1.0448850842 1.0251431711 1.0029674779 0.98282244979 0.96595654104 0.96108887044 0.96927343146 0.99877666514 
1.0423739076 1.1093367178 1.1303711945 1.1369903871 1.1401894457 1.1404585295 1.1391538188 1.1446148749 1.1457871312 
1.1422454466 1.132179712 1.1169109487 1.0940296264 1.0758294097 1.0392903767 1.0037445086 1.0047203277 0.96182700059 
1.0447623241 1.0711448856 1.0867036169 1.0948282898 1.0992943876 1.0923769596 1.0864727314 1.0817077808 1.0749484323 
1.0651452553 1.0218627891 1.014067283 1.0010642995 0.99336762845 0.98794172089 0.98453485414 0.98324834715 0.9682520882 
0.95624610898 0.9584415628 0.95605546978 0.96451498886 0.97292219782 0.9654622672 0.96229587917 0.96448481776 0.97001917449 
0.94248271071 0.94762287524 0.95376071692 0.96885157613 0.97311781087 0.97343971766 0.96318089864 0.95006442303 0.93618064306 
0.92200344321 0.91101449544 0.90974035618 0.92851169136 0.94872848775 0.96606296707 0.94137916578 0.94575745109 0.91156911684 
0.99301693696 1.0028419542 1.0121646606 1.0253597394 1.0349285594 1.0448936536 1.0552680452 1.0591791122 1.0381406857 
1.029529655 1.0311540221 1.0290502369 1.0349414596 1.0259602433 1.0192006684 1.0032777961 0.99492682238 0.98674222418 
0.98778876987 1.0050054841 1.0467419801 1.0608505622 1.0650424396 1.0722180305 1.0399785108 1.0075139882 0.99064284082 
1.0157585207 1.0004059129 0.98844267586 0.96244814204 0.93319549546 0.92349540827 0.92198235849 0.92038481166 0.90855465722 
0.90200227331 0.89401377347 0.88616686359 0.87349942001 0.88150309246 0.88896859349 0.90338938971 0.89748050355 0.90705980525 
0.91454556037 0.92269369461 1.04000342 1.0179046359 0.98845046088 0.96358401204 0.95237899443 0.94424233307 0.95975660513 
0.97756250186 1.0122835081 1.0377823928 1.0838354999 1.071991874 1.088566445 1.0718397609 1.0769059096 1.0813427114 
1.0775174343 1.0730132235 1.0636755886 1.0540095498 1.0426598574 1.0274435319 1.0095212357 0.98913912552 0.96514715517 
0.93485319698 0.93674913552 0.91933961837 0.96113739347 0.99605549637 1.0200877515 1.0281912063 1.0289628677 1.0360568115 
1.0298249587 1.0245212422 1.0143349256 1.0079672302 0.99633912088 0.97537898524 0.95840288506 0.96805979384 0.96108480495 
0.96494087625 0.96535383573 1.0580140344 1.0493719298 0.95579606929 0.94206802034 0.9355721555 0.94320160981 0.9350921208 
0.94623115868 0.92465039463 0.92872705581 0.94130777722 0.95362536985 0.95674778047 0.95769511137 0.95716822718 0.94480781698 
0.92133466227 0.88875435067 0.88170622891 0.89428542481 0.90210564953 0.91495477379 0.91479866602 0.92539790624 0.94580710866 
0.93098500585 0.95865184015 0.9836118199 0.98931692221 0.99198473308 0.99742460691 1.0055694276 1.0031684808 0.98003158225 
0.98562407686 0.99734826652 1.0214629875 1.0387289827 1.049046237 1.0535599935 1.0509914253 1.0482532172 1.0474284986 
1.0583473549 1.0707111746 1.0741774928 1.0800056228 1.100596391 1.0882072162 1.0588837694 1.0098589157 0.96932339961 
0.95503636079 0.93485404637 0.97677640981 0.98572867881 0.97995361518 0.96645571233 0.95442894178 0.94860742291 0.93493205672 
0.93074321677 0.91748308277 0.91259977761 0.91029283985 0.89024718812 0.87567111323 0.88242963029 0.8869771407 0.8924853281 
0.90365594429 0.90694915516 0.91697407978 0.90803807092 0.94415223542 0.93664626458 0.9144876249 0.91857567847 0.92582776893 
0.93011051682 0.94720261359 0.96151778122 0.97116805118 0.98160932875 1.0094164655 1.0338474536 0.99539741581 0.96427575704 
0.9696856635 0.94008970465 1.0047149902 1.0212705113 0.91333640653 0.91291988708 0.91743602984 0.92966943156 0.93143729974 
0.92739613336 0.91808636461 0.90762873685 0.89390671402 0.88435847744 0.89421278972 0.89839984127 0.90562784431 0.97243118699 
0.99558848991 0.98141717462 0.93626722193 0.92667148459 0.93565194989 0.95416342837 0.96691057503 0.95565143413 0.96530656267 
0.96720393559 0.96414150565 0.95142272766 0.95752399331 0.94928158171 0.97529784592 0.996891675 1.0205540909 1.0473705588 
1.0634933645 1.0800306427 1.0932965261 1.1004830648 1.0947063786 1.0946191358 1.0936201527 1.0785356246 1.0616405071 
1.028821479 0.9974159291 0.95024454155 0.9406205608 0.95194875376 0.94916606874 0.96265514563 0.9304195298 0.92873347923 
0.91865703348 0.91017136787 0.89949390018 0.89553170664 0.90464800524 0.89574589749 1.0158935833 0.99985788797 0.98174582275 
0.9627819226 0.96081191944 0.97186942937 0.99029648217 1.0173761837 1.0585785156 1.0713011207 1.0714856362 1.0755505607 
1.0728028635 1.0534664938 1.0328142432 1.0202046984 1.0061798799 1.0067659432 1.0111051767 1.0134693858 1.0118630453 
1.008607485 0.99780603501 0.97997069434 0.95774092861 0.93804386183 0.91663285236 0.92425625516 0.92278283603 0.9272396999 
0.94186618768 0.96108575542 0.98604440841 0.980091557 0.97294537654 0.95371249376 0.94211762561 0.95045062234 0.96308003278 
0.95426047342 0.95835443368 0.95272389234 0.94976303569 0.92862022537 0.92343684317 0.96784761283 0.95377065274 0.93357923466 
0.92713262877 0.93039499559 0.89819050826 0.90780313424 0.88960448302 0.93388104268 0.93004407564 0.92883958945 0.93138241961 
0.94290070639 0.91331455662 0.91721320212 0.91387688774 0.93317134466 0.92748147576 0.95531013724 0.97115754113 0.97308109109 
0.9692846971 1.0790495158 1.0542359581 1.0375150025 1.0167898614 0.99128411351 0.97151689359 0.96512463745 0.97088634712 
0.97018181747 0.97061061867 0.95607250789 0.94780210075 0.91846011724 0.91735360593 0.92981092841 0.92519965929 0.94937454125 
0.97168176201 0.96881052168 0.98191237278 1.0043312485 1.0279741995 1.0514325766 1.0667216039 1.0821325157 1.0799598422 
1.0719417829 1.051232279 1.0226028012 0.98499609236 0.96315833672 0.94031352355 0.90359434964 0.90238987715 0.90670385484 
0.93758631955 0.94818261912 0.93554372614 0.93295419018 0.93200641332 0.9414309135 0.94569156994 0.95008795828 0.88887240908 
0.91816283988 0.91325347619 0.90470121708 0.95407404324 0.8966050127 0.93321803147 0.92369463481 0.94180316615 0.94721898476 
0.94120888142 1.0849439134 0.91264413767 0.91615068977 0.92525017407 0.93628028398 0.92722978328 
Longtudinal 3 1114 double
-0.066046267433 0.96695037835 -0.24626176391 -0.11871537076 0.96022165628 -0.25167567256 -0.27814730223 0.88466226861 -0.36446399429 
-0.266627364 0.85607958326 -0.41902333531 -0.12461087951 0.96763578608 -0.21794908325 -0.35278540735 0.86934116654 -0.33711360089 
-0.10967713631 0.9765208589 -0.18423290947 -0.41200399454 0.85745835782 -0.30180531356 -0.086995738335 0.98414405951 -0.15227251309 
-0.4334835743 0.87002643311 -0.22848083256 -0.070228657462 0.99054979686 -0.1171907981 -0.45015667792 0.8774197811 -0.15813249262 
-0.081420044822 0.9922870703 -0.093398990021 -0.36906256335 0.91880285724 -0.085749712349 -0.18132879422 0.97892062937 -0.072185466673 
-0.33302042946 0.94133426486 -0.036422484323 -0.21618039236 0.97526529205 -0.039754351182 -0.32645052002 0.94392698505 0.0061839474835 
-0.1983668093 0.97959016 -0.0014494105638 -0.31664450196 0.94562338488 0.06276125305 -0.15754250282 0.9865584136 0.035973549017 
-0.32262940811 0.9362005587 0.1305046201 -0.11579858136 0.99130098525 0.055744543604 -0.27385873576 0.94060434076 0.19822418051 
-0.073497110982 0.99315907321 0.056888368129 -0.18660847906 0.95923718439 0.20914850431 -0.05988787487 0.98401539993 0.15031420403 
-0.12881356792 0.96089693028 0.24255476303 0.017500060729 0.99848126803 0.048605132708 -0.063268168611 0.95453780057 0.28802032912 
0.059327139682 0.99733062967 0.035902137075 0.029743629499 0.94450660912 0.32316301147 0.071939169434 0.99663626533 -0.0058914541052 
0.12844013027 0.92558733638 0.34954378841 0.06104397907 0.99454819433 -0.077396150339 0.20639177842 0.92251997988 0.31022339561 
0.059567162013 0.99144831852 -0.11580371909 0.27906713627 0.90543607461 0.30468030461 0.00046134048652 0.97921118392 -0.17008406139 
0.32514623292 0.90007260261 0.2651416799 -0.12656023133 0.95660800052 -0.26194806835 0.29136255025 0.92351109775 0.15503658493 
-0.1428031152 0.9662377546 -0.21312211071 0.30714070579 0.92813576849 0.10176537474 -0.13641536573 0.97542553846 -0.17091487981 
0.36089950335 0.90609146721 0.082963787475 -0.14310477263 0.97960161708 -0.13959502972 0.42593685406 0.88172124008 0.058694921397 
-0.12908055658 0.98288728144 -0.11549283104 0.42810462074 0.88959782721 0.0064239871683 -0.010797272977 0.99590379408 -0.08921885082 
0.30253696086 0.94927763994 -0.07588423704 0.033370350047 0.99183922945 -0.12008167587 0.21059284887 0.96779133099 -0.13139188724 
-0.040872150949 0.98970278583 -0.11937664753 0.16855794503 0.96886841622 -0.17878516949 -0.063612862716 0.98796232834 -0.13428479078 
0.1415827087 0.96690882689 -0.20994349254 -0.034596691151 0.98723817061 -0.15236640348 0.086724256609 0.97259123961 -0.21466512916 
-0.081574982231 0.98962215675 -0.11824966867 0.047872538499 0.97370826961 -0.22023165851 -0.091755630294 0.98996004343 -0.10726189702 
0.034745368144 0.97477359911 -0.21936299887 -0.05850248094 0.98752370466 -0.14019147691 0.027025878092 0.97309307724 -0.22296580628 
-0.037274659205 0.98902707586 -0.13903062882 0.0085975897193 0.97485729266 -0.21373685157 -0.039437666431 0.99379660796 -0.10271129492 
0.024542320737 0.96816198703 -0.24570930545 -0.024482332238 0.99033555775 -0.13630901402 0.026850672053 0.96228499562 -0.2673221123 
-0.019848748491 0.99310254661 -0.11510092968 0.0055875068123 0.96215071172 -0.26830086484 -0.015143992782 0.99632564751 -0.082160911303 
-0.0027120893509 0.95796127403 -0.26728594817 0.0076534855297 0.99465805505 -0.098437273603 -0.014147266697 0.96284716592 -0.24488686147 
0.019991283044 0.99123955436 -0.1299638537 -0.01261462387 0.96942222648 -0.20406804253 0.0036614075436 0.98864426253 -0.14880334365 
-0.032797297361 0.95833143695 -0.19886901555 -0.030277252983 0.9833759285 -0.17533633346 -0.13499573625 0.90429379472 -0.32024733843 
0.035522820991 0.99235085721 -0.11822819202 0.014874089626 0.98376260174 -0.1717222801 0.031967817364 0.98827246785 -0.12617262911 
0.057493573179 0.99610232908 -0.059104696154 0.0052769923276 0.98007619431 -0.19284022486 0.011414826893 0.98222367286 -0.17993024075 
0.027809975896 0.99064078115 -0.11983198915 0.026695399895 0.98848134078 -0.1447340015 0.039783510678 0.99431593223 -0.097344728286 
0.034801903693 0.98490008359 -0.16088026243 0.042464229456 0.99192805291 -0.11931832263 0.036670967875 0.97074356573 -0.23658290753 
0.044843131204 0.98626348646 -0.15625969109 0.047231477796 0.96892651317 -0.24260026254 0.043410100049 0.98339733628 -0.17601961198 
0.059015390499 0.96779391675 -0.2441866874 0.035883638175 0.98530576553 -0.16690855652 0.078462877418 0.96577271324 -0.24682011621 
0.046563901816 0.98121154209 -0.18615458373 0.043762676505 0.97476306707 -0.21364848922 0.014616876966 0.98148098099 -0.1734015109 
-0.036181517416 0.97790762496 -0.14004864308 -0.087536113568 0.9899215457 -0.10445331537 -0.14173225135 0.98420006665 -0.040067510108 
-0.20613923889 0.973307511 -0.02598751712 -0.24844087252 0.9611862965 -0.0046764811636 -0.25917641389 0.96276680238 -0.037104796612 
-0.32608491915 0.94306974609 -0.00092955055198 -0.2469506545 0.96040853096 -0.12835296617 -0.28362228561 0.95027396218 -0.051387887645 
-0.21075572478 0.96636653971 -0.14520807987 -0.27596090384 0.94893701419 -0.099115100135 -0.18816501998 0.9680443517 -0.16471400069 
-0.28589928459 0.94120371443 -0.13806614957 -0.19886817818 0.96014258795 -0.18382736942 -0.34814625947 0.92459670394 -0.15264513048 
-0.34012057922 0.91574085658 -0.19323633286 -0.36445688575 0.9103928139 -0.192954581 -0.3277182948 0.91420156201 -0.22615926943 
-0.32645725628 0.9148863305 -0.22592076419 -0.23694766444 0.93439716841 -0.26091264955 -0.22858077826 0.94093671819 -0.24809115259 
-0.12685272441 0.95927574078 -0.24163566089 -0.17466469212 0.94872801128 -0.25992056878 -0.074372577851 0.9679022119 -0.23948923552 
-0.10445791313 0.95957636305 -0.25426399065 -0.057243614017 0.96712595734 -0.24765972953 -0.019042683855 0.9728359503 -0.22845372158 
-0.064940740876 0.96280864217 -0.26203170882 -0.01350559545 0.97075911389 -0.2378795612 -0.055395634928 0.96566273614 -0.25262825908 
0.032955613683 0.98075876395 -0.19005672928 -0.036287289802 0.97212730659 -0.23138608417 0.039369008624 0.98426325994 -0.17148936271 
-0.037455448283 0.9604328915 -0.27382039933 0.0074242285963 0.97465492473 -0.21713797426 -0.050557909821 0.93944743722 -0.33234619803 
-0.028053299931 0.95566957228 -0.28142453358 -0.08092791839 0.90501893097 -0.41415449992 -0.067538518982 0.90126042598 -0.4167203526 
-0.070555321099 0.90146087655 -0.42659385922 -0.072573686124 0.88050284196 -0.46351400448 -0.050248603116 0.89893865722 -0.43235861714 
-0.056802228274 0.88018064774 -0.45991422501 -0.044367657631 0.845222634 -0.5261975252 -0.026512466216 0.85783907815 -0.49761328196 
-0.0079016273446 0.83126604822 -0.55214880406 0.0017556715985 0.87568467688 -0.48055223602 0.059793222343 0.85790573017 -0.50878359987 
0.022393159473 0.88732726343 -0.46042223211 0.056777675883 0.88857910303 -0.45144655856 0.037615044649 0.90232706774 -0.42549175595 
0.042920748523 0.91780356449 -0.39391920978 0.04663307688 0.92321282695 -0.3807433091 0.035120467835 0.93637364592 -0.34732157891 
0.054281464242 0.93463725989 -0.34983862551 0.019494540114 0.95464742025 -0.29288930602 0.039359710878 0.94992599427 -0.30236472865 
-0.0024575537244 0.97264772347 -0.23223671726 0.0027911446841 0.96881839213 -0.23898835675 -0.039139927041 0.97983915723 -0.19100381224 
-0.008043036553 0.97612657772 -0.20843534998 -0.062733270927 0.98491772608 -0.16099743254 -0.011385714657 0.98186603166 -0.18589212045 
-0.065710908025 0.98666845433 -0.14867324658 0.0096296448226 0.98316181917 -0.1797837586 -0.049607559384 0.98664936937 -0.15359503613 
0.036808559981 0.98101012019 -0.18477993647 -0.022712750332 0.98568379917 -0.1649802207 0.072543722038 0.97704734695 -0.19176754522 
0.066155673956 0.97997210561 -0.17182743198 0.12019746676 0.97541622864 -0.18362395345 0.1325666929 0.97666325799 -0.1674319012 
0.16732753666 0.96858816165 -0.16389697955 0.14993887274 0.97860135557 -0.13848629397 0.19948548989 0.96652175973 -0.14425261106 
0.18414322624 0.97644764895 -0.095725617975 0.21715731404 0.96677228913 -0.11168403658 0.23223542977 0.97091788619 -0.041566437723 
0.21719435852 0.96941481855 -0.083594162582 0.24321893326 0.96920745381 -0.037666228183 0.19741896978 0.97750793926 -0.05438403526 
0.24386191163 0.96870934777 -0.044528154503 0.20197642686 0.97847157017 -0.017599303528 0.22341186407 0.97387685432 -0.0034138460375 
0.24648562259 0.96671189604 0.029237283728 0.2011961025 0.97898975204 0.028105438201 0.25922855478 0.96283817614 0.058981988666 
0.1740128974 0.98394901998 0.032631256374 0.20086586067 0.97717080638 0.049143119 0.16016339671 0.9856931225 0.048064882877 
0.17161447436 0.98321280888 0.05869827021 0.15987795395 0.98416651432 0.074594761383 0.15957486863 0.98375123344 0.081007002358 
0.10758451947 0.9873613703 -0.0021830606584 0.10932661375 0.98948148924 0.014544488181 -0.47381504303 0.77071873903 -0.39299376357 
-0.46622059528 0.72687882767 -0.48180280443 -0.49022414245 0.80660917331 -0.31396628333 -0.4680344328 0.85611758069 -0.2092449593 
-0.42121719382 0.89810615568 -0.11465463666 -0.40523992089 0.91094611019 -0.065217402371 -0.38268297425 0.92353300296 -0.010791064235 
-0.30551084759 0.94997836326 0.0087777658705 -0.26447931181 0.96061207785 0.04273295048 -0.20314167011 0.97157414654 0.060696309218 
-0.22206411578 0.96231367262 0.12943217753 -0.20998205524 0.95470027352 0.20172659063 -0.165821828 0.94334867289 0.27833253298 
-0.095011382512 0.93231757918 0.34520524661 0.0046783671968 0.90876583003 0.41006007808 0.11722247941 0.88672746986 0.44254914598 
0.21510179336 0.88247783867 0.41560940267 0.30450222255 0.85922245813 0.40946737444 0.3946262204 0.82607430249 0.40211606559 
0.46059452358 0.81251285515 0.35465974909 0.51485636775 0.80197249516 0.29993364956 0.54128282263 0.80502932289 0.23961356458 
0.55055307471 0.81503400314 0.16293270738 0.47244168046 0.87176715655 0.046175517594 0.31460062438 0.94393488339 -0.072271488098 
0.26668255247 0.95234731715 -0.13683206023 0.21778404934 0.95643332351 -0.17991587311 0.17898662356 0.95795670621 -0.21432449045 
0.14431170191 0.95722880283 -0.24437175145 0.10475280857 0.9608534184 -0.25447020884 0.079198913742 0.96465254647 -0.24773084872 
0.070847645822 0.96003715382 -0.26999860711 0.069890031314 0.95276486717 -0.29307502967 0.061925178461 0.94705024904 -0.3123968198 
0.053906922811 0.93830186186 -0.33991097733 0.028833539581 0.92362644315 -0.37517668154 0.0037885831024 0.89461736458 -0.44079763969 
-0.053155269262 0.86361501823 -0.4843164065 -0.12230861765 0.8451742268 -0.50225835095 -0.2474850227 0.76879555612 -0.56418317324 
-0.38589861749 0.64696620348 -0.61596311629 -0.47224277895 0.64549273623 -0.58791355121 0.059644273474 0.99756973591 0.01865837876 
0.086584705419 0.99397158983 0.040304557297 0.042351525369 0.99847266625 -0.00031056138378 0.046817774956 0.99125225044 -0.07882102723 
0.05239238861 0.98100654761 -0.1806860405 0.052345749172 0.9789888182 -0.18849042189 0.045864798013 0.98077402067 -0.1821455893 
0.030600235686 0.98320422827 -0.17243092345 -0.012750631351 0.99085943842 -0.13167172001 -0.11712940129 0.98381878068 -0.018304005992 
-0.24910263408 0.96220775626 0.091187328293 -0.33941888231 0.93055156733 0.11018291374 -0.43500361929 0.89202213614 0.1105754915 
-0.48784908124 0.86862648463 0.059853874239 -0.50436979274 0.86136230975 0.0043179758556 -0.50817755391 0.85813864376 -0.054734744887 
-0.49876030637 0.85775363935 -0.12174450253 -0.42144382052 0.8849600599 -0.17873477354 -0.33422550043 0.91348592903 -0.22859516587 
-0.31084854833 0.91284258836 -0.26251131003 -0.27884513417 0.91564584496 -0.28334622233 -0.21229415798 0.92904757261 -0.29312495496 
-0.10289919613 0.95143662811 -0.26780191189 -0.069244090366 0.95860468994 -0.27548723772 -0.030537259197 0.96175142424 -0.27135105345 
-0.024278717868 0.9650296867 -0.26090252405 -0.072288679319 0.93395371501 -0.34143292198 -0.11975048935 0.89146714502 -0.43206617079 
-0.15565053533 0.81575685991 -0.55212862253 -0.12955746819 0.75587732091 -0.6398418179 -0.094443313035 0.71261453147 -0.69336292218 
-0.044020552467 0.69553675489 -0.71506900701 0.026705731899 0.71275854544 -0.69881434895 0.07246084308 0.7969161736 -0.59521895896 
0.11747517244 0.79396208815 -0.59364188873 0.13342480412 0.83345565279 -0.52884188428 0.13975917261 0.86255384185 -0.47195255839 
0.16287717174 0.86399938216 -0.45463810893 0.14928827421 0.91310006916 -0.37567211675 0.16000232128 0.92494799409 -0.33918036028 
0.15271565769 0.93953912567 -0.30323063903 0.14631896484 0.95033700393 -0.27108278658 0.12290057564 0.9635433384 -0.23121408022 
0.09794389536 0.97514171986 -0.19368177789 0.16531109587 0.96156692103 -0.18764945424 0.16848871519 0.96245219024 -0.16559978272 
0.27506563666 0.94377183843 -0.13271971108 0.3321022124 0.93827675385 -0.086670849827 0.32003340639 0.94544661615 -0.052255043266 
0.27487171039 0.96017616659 -0.026204691247 0.24091768135 0.96979260561 0.0017584213865 0.26402287478 0.96139550812 0.049073655629 
0.27749310749 0.95592538441 0.088777220749 0.27783166931 0.95218873114 0.12017130945 0.23411532389 0.96338485839 0.11636065385 
0.17733433105 0.97837134193 0.1039530307 0.15051721314 0.98296870308 0.086880671575 0.1103462267 0.99127566825 0.065131766284 
-0.040579519393 0.96225388471 -0.26883412762 -0.071077918714 0.95818102819 -0.27714233037 -0.29320184164 0.94976519456 -0.083117647509 
-0.41036775522 0.89807835829 -0.12481422134 -0.23588714886 0.96984726296 -0.04894510184 -0.2233851893 0.97189277461 -0.028348552725 
-0.17613053788 0.97979141314 -0.036544993954 -0.14712119358 0.98556256993 -0.043979371631 -0.12223736933 0.99180300676 -0.02647591166 
-0.1679994616 0.98333937826 0.045532107309 -0.19370762153 0.96844464941 0.15119390253 -0.19327588262 0.93218762729 0.29988400215 
-0.11702887809 0.90601139218 0.40249702721 -0.005520365464 0.87589010808 0.47884277795 0.11091988448 0.86031292251 0.49522849789 
0.20972467381 0.85035203163 0.48156317412 0.28509879956 0.84188567458 0.45782160294 0.35354853728 0.83087249392 0.42774112246 
0.41840630194 0.81768284953 0.3912150371 0.47886961325 0.80798169016 0.33825370165 0.50607732796 0.81801086541 0.27055406453 
0.48089563357 0.85737054916 0.17459724021 0.380156366 0.91486779328 0.075493352766 0.35443464387 0.92282003408 -0.1436067359 
0.34736871701 0.93221201496 -0.085666137624 0.35430263808 0.90935679014 -0.20668698769 0.31726632916 0.90864409095 -0.25201854338 
0.2477871789 0.92527725231 -0.28194643761 0.18437938083 0.93716708159 -0.2892304847 0.13366036327 0.94362856391 -0.29701135109 
0.09387072482 0.94931343318 -0.2993507127 0.10227704311 0.93291678035 -0.34318723057 0.09746863887 0.91930204314 -0.37957956389 
0.066331902527 0.90005586171 -0.42817482728 0.051356863858 0.8657394397 -0.49110229512 -0.018792207978 0.76416090149 -0.62788239066 
-0.16058795909 0.59964127599 -0.77833656824 -0.32282814547 0.44543515336 -0.79037234309 -0.41249373751 0.47021734369 -0.7579934139 
-0.55304335226 0.32911646492 -0.75883638537 -0.61394828853 0.40338965885 -0.67623119545 -0.61638399558 0.5341497462 -0.56229337856 
-0.59141177927 0.66674498775 -0.4434485677 0.36993882493 0.92608368655 -0.032633585761 0.36741337085 0.92347360728 0.01531923859 
-0.064709682239 0.95633629405 -0.28397727409 -0.042665147646 0.97070522791 -0.2315893175 -0.091657535593 0.94414382194 -0.31161845221 
-0.15175929521 0.89974162902 -0.40536789965 -0.15849980843 0.85288230552 -0.48907610734 -0.15070823232 0.79595548924 -0.58009842304 
-0.11367885584 0.73315750867 -0.66345747991 -0.066503218203 0.7253636951 -0.68275737092 -0.024310025884 0.77027723397 -0.63380838359 
0.15264564743 0.74144781002 -0.65236197595 0.11609148856 0.73670021308 -0.66530133141 0.21735288317 0.73868728096 -0.63309056109 
0.28441685646 0.72207313455 -0.62841023907 0.28845098306 0.78065928389 -0.54695693554 0.27291766353 0.84414326408 -0.45620154279 
0.23882314653 0.88933562442 -0.38520137125 0.18607834631 0.9257027953 -0.31730716585 0.12273834494 0.95848906282 -0.25042047807 
0.088552149447 0.9621559158 -0.22082429624 -0.00055574961236 0.98505949017 -0.17027564916 -0.021277067427 0.98548216955 -0.16402392835 
0.028866236493 0.98211640543 -0.15393862183 0.13725458695 0.97527674222 -0.1401278137 0.18567461712 0.97342602941 -0.10958120648 
0.208879957 0.97353490273 -0.070529393155 0.2307324973 0.97180542599 -0.036523982919 0.2292063338 0.97301919094 -0.0059514295604 
0.24299776401 0.96839011175 0.034351640307 0.2424104827 0.96824159518 0.059238067027 0.22983898425 0.97042313344 0.072525276377 
0.21986536685 0.97189896884 0.083127250652 0.21056090438 0.97201285097 0.10110179048 0.18383088367 0.97346990572 0.13122887026 
0.14378486338 0.97996426492 0.13417977873 0.11200834081 0.98487731086 0.12977770692 0.07630388155 0.99182560169 0.086786485145 
0.048453958779 0.99802119953 0.035026199006 0.031580684124 0.99837435322 0.034632071673 0.013709830145 0.99662233169 -0.022006644355 
0.0082214743805 0.99785064084 -0.045499364731 -0.012503181204 0.99720424918 -0.037287762743 -0.0450129137 0.9967769582 -0.026984739541 
-0.11821927658 0.98548869507 0.038410493164 -0.19770478407 0.97155347053 0.097536449652 -0.29630662491 0.94427610561 0.13372579912 
-0.35769336871 0.92320254836 0.13179411844 -0.41319702207 0.9027646417 0.11277850214 -0.4769668589 0.87366898644 0.081223014029 
-0.4813614957 0.87464136722 0.017968546855 -0.46573191017 0.88266289803 -0.055621797144 -0.45763839203 0.88056351453 -0.11850870843 
-0.383461911 0.90186518358 -0.17511470838 -0.3262129956 0.91863535935 -0.22169960201 -0.33731883871 0.90708992814 -0.25108147289 
-0.28395019365 0.91670655854 -0.27120630196 -0.22307496952 0.93012785421 -0.28948825296 -0.17675550483 0.93719583779 -0.29260996568 
-0.11021942512 0.95248466232 -0.28347546579 -0.030237712748 0.97300142906 -0.22627515805 0.012915072109 0.98593778016 -0.15754974811 
-0.063808125492 0.97955294013 -0.18955929562 0.0078905815805 0.99084767513 -0.12057918226 0.058927678011 0.76655243282 -0.63565659784 
-0.013559158885 0.8481556865 -0.52090633141 0.58081688115 0.80897327554 -0.036789810576 0.5270492156 0.83838913899 -0.0069088874466 
0.58953912051 0.78892106781 -0.10799919571 0.60341346592 0.77529723037 -0.17208429639 0.57245414116 0.77985073526 -0.23840936085 
0.50256017051 0.80485690024 -0.29709817852 0.41964370267 0.83309218546 -0.33636713826 0.34545033966 0.85355638918 -0.3730763948 
0.26950934577 0.87694528881 -0.37827557965 0.18864635242 0.90233936646 -0.36471980794 0.18284000619 0.8792647672 -0.42632153471 
0.15748417728 0.87196269701 -0.46204170303 0.12059966436 0.85278679204 -0.50688007656 0.07030961223 0.80688006817 -0.58069704045 
0.0019778594296 0.73206022984 -0.67455900242 -0.082713713251 0.62952511361 -0.77170964521 -0.49569322541 0.2641664002 -0.82059950491 
-0.40700642364 0.24457110134 -0.8707196821 -0.55575086177 0.38509708603 -0.73221005061 -0.60221557959 0.4733680147 -0.64067559987 
-0.63382345375 0.54949286426 -0.54149132171 -0.67432312849 0.55818008534 -0.46348727611 -0.2444738666 0.96639568821 -0.059851363972 
-0.33729291617 0.93517863245 -0.076751950405 -0.18907396378 0.98050737908 -0.046265575337 -0.17007324492 0.9824802256 -0.037739201397 
-0.1710347859 0.98222556579 -0.035886895409 -0.16126033047 0.98585665823 -0.025339591602 -0.17073439809 0.98452052601 0.0054983798432 
-0.20592758523 0.97409533241 0.072009726016 -0.26939759106 0.92729920985 0.24535345973 -0.26255089552 0.86207177077 0.42525480795 
-0.16332457689 0.80835294458 0.55791881715 -0.010112309213 0.84448302581 0.53236549012 0.082740408786 0.85939189431 0.50116710232 
0.16582657881 0.87283457371 0.45602639948 0.21517010127 0.88493135152 0.41043419717 0.24816370929 0.90181934948 0.3486344171 
0.27894227783 0.91101719914 0.29571320504 0.29113576427 0.92348431225 0.22996566305 0.29639747272 0.93509711739 0.16247456743 
0.24104909433 0.9620398675 0.093137703383 0.16086870626 0.98242801684 0.033186947246 0.29033645817 0.95012306981 0.022402398627 
0.36443632318 0.92431224766 -0.0004148127675 0.57952962066 0.81282179441 -0.035369529944 0.40418195256 0.89801317355 -0.030246466879 
0.64592863788 0.7571377323 -0.075505817211 -0.5226219499 0.8277971255 -0.17025360588 -0.52172368796 0.83487285208 -0.1294433766 
-0.63369475452 0.74207054442 -0.20434062843 -0.61336219693 0.76373975964 -0.16288170174 -0.26539039596 0.46559452445 -0.84307325721 
-0.17765154758 0.59113613517 -0.77420317449 -0.11590147065 0.96000170468 -0.25401449078 -0.14576014639 0.91472561146 -0.36163313707 
-0.15761267688 0.87350168731 -0.45663630832 -0.13118821268 0.83313109371 -0.53104490004 -0.099918488561 0.82056429135 -0.55037857961 
-0.075862881671 0.8622541582 -0.48492369876 -0.063667822271 0.92305596424 -0.37438793742 -0.011802681296 0.91378804941 -0.39606089179 
-0.066417422654 0.95558563029 -0.28583773015 0.046535493931 0.85134571783 -0.5129476938 0.13243199256 0.76870871239 -0.62109076146 
0.20967118296 0.72492836318 -0.65539591115 0.24744919382 0.74448217462 -0.61703495219 0.27673966539 0.77626465579 -0.56603525042 
0.29287703546 0.80195238463 -0.51837928626 0.30134821735 0.83240294757 -0.46156824082 0.29124884108 0.86881268676 -0.39501239453 
0.22874526542 0.9067995495 -0.32563935877 0.069339140207 0.96845986985 -0.21349450005 -0.004593930702 0.98400409258 -0.17157869709 
-0.048425203007 0.98710600699 -0.15190769993 -0.066339421462 0.98672139035 -0.14773227328 -0.066003592383 0.98660233598 -0.14839105318 
-0.047424033627 0.98764905993 -0.14829276238 0.009944078735 0.98804302129 -0.134564777 0.11551580172 0.98688647688 -0.099767109785 
0.16470392881 0.98421204228 -0.057227020409 0.18156946773 0.98257229475 -0.022011710639 0.23040729443 0.97065506565 0.032577824135 
0.26401034289 0.96104799084 0.077016916263 0.27761362071 0.95403604262 0.10797575651 0.27614710188 0.95275950733 0.12421437297 
0.2658666925 0.95429694407 0.13399910967 0.26482682311 0.93374173422 0.22971679471 0.16469181607 0.97541994356 0.1416708919 
0.13035148504 0.97124821011 0.19356681099 0.090132448351 0.97620316354 0.18582746285 0.043152786826 0.99005131603 0.12382182422 
0.015402796637 0.99470767812 0.099070278559 -0.0050904209113 0.99624919547 0.084517217646 -0.035018459246 0.99628053884 0.074564203056 
-0.073098055487 0.99186269751 0.086784323576 -0.11535247134 0.98626156415 0.11104482396 -0.19529697208 0.96062253245 0.17088567564 
-0.2535480286 0.94588090927 0.19971636838 -0.30395831629 0.9322820898 0.19133280796 -0.35405940474 0.91803463682 0.17313988316 
-0.40914358042 0.90063008521 0.14001027493 -0.38967299222 0.91396610867 0.069700073949 -0.3961044337 0.91481515893 0.016296307807 
-0.37678122884 0.92368021203 -0.032845176334 -0.35376173721 0.91716679259 -0.17257066518 -0.39665249616 0.90669695551 -0.13720433253 
-0.28221546582 0.93400944055 -0.20043272664 -0.22250206559 0.94614721028 -0.22123684804 -0.1869985914 0.95159351955 -0.23676951425 
-0.14804379836 0.95604745586 -0.24975655093 -0.13106364007 0.95522689192 -0.26262864987 -0.068655641641 0.96993241906 -0.22555957947 
-0.017794101255 0.9789799722 -0.19456195618 0.037407786241 0.9881660938 -0.14482913054 0.04577257099 0.99355002977 -0.10082570993 
0.015916491388 0.9980953684 -0.044020860493 0.029813725571 0.9972673288 -0.057736900764 -0.053294923644 0.98803185857 -0.11013817972 
-0.11082176713 0.97261573734 -0.18783368572 -0.12170662505 0.95820705526 -0.23256116859 -0.12220850716 0.94113123848 -0.27489802793 
-0.11872238008 0.9261800007 -0.33009147508 -0.10497577351 0.92306043506 -0.35559541646 0.013592587464 0.98799648263 -0.15001933933 
0.0054656696805 0.98386570731 -0.17818106179 -0.0031272640686 0.9911985835 -0.13073734723 0.030045928329 0.99595596783 -0.056100725571 
0.087340182913 0.99049869017 0.059022746229 0.066693793054 0.99614740134 0.018071339125 0.043904734154 0.99716531153 0.042240638645 
0.0016352544172 0.99855675688 0.043696300092 -0.047262667356 0.99193235558 -0.031655123068 -0.093236549386 0.98416352358 -0.13266097007 
-0.11145235377 0.98315971464 -0.1429947517 -0.11791114669 0.97956721519 -0.15089635838 -0.11096389941 0.96547771312 -0.22584185585 
-0.37747696348 0.91962487131 -0.094690669747 -0.31509419188 0.9460104529 -0.064242543751 0.68026325987 0.72100256205 -0.12943788759 
0.68235859614 0.70051401294 -0.1996818769 0.66649832939 0.69278283172 -0.2691930857 0.6003940869 0.72404992369 -0.33512984845 
0.54093116224 0.74103943827 -0.39270332981 0.4794590648 0.75594396798 -0.44328174842 0.39173149101 0.79039602 -0.46541239651 
0.32303007992 0.80445080954 -0.49375472102 0.27792135024 0.80151772263 -0.52641630387 0.20260911253 0.82835618417 -0.52016780081 
0.14764066889 0.82087539228 -0.55066331327 0.094462535041 0.81289954479 -0.5709617433 0.028754372334 0.78851326118 -0.61377256809 
-0.049965066071 0.73358167991 -0.67021429583 -0.10669461195 0.70021973433 -0.70542617156 -0.20041252454 0.64743796225 -0.73209987797 
-0.13976854047 0.72926170216 -0.6608245537 -0.28098170386 0.59454857713 -0.74704551872 -0.37913130151 0.50643023294 -0.77211312279 
-0.46011482743 0.45352212372 -0.73975721734 -0.54433407869 0.4871201094 -0.67562327761 -0.61405325298 0.49285695665 -0.61235754196 
-0.6738220495 0.50158659484 -0.53617942399 -0.73192998127 0.49555822135 -0.46392668766 -0.67042101075 0.64110387416 -0.36092437933 
-0.73822901396 0.56389171551 -0.36402038096 -0.64961362945 0.70225421575 -0.27424595303 -0.72127988868 0.62526461619 -0.28175192215 
-0.70471908001 0.6716275753 -0.2113237997 -0.66799021655 0.7106952252 -0.15577367988 -0.60108716654 0.77435876183 -0.1063281062 
-0.51021255404 0.84451753073 -0.06093711045 -0.40354104802 0.90181545306 -0.027208890349 -0.34784605536 0.93352961104 -0.00076692023888 
-0.34647735874 0.93728057162 0.01995346602 -0.36806572445 0.92172191678 0.073416387381 -0.37489536356 0.9173471741 0.11395026826 
-0.39006551094 0.88693220029 0.19821205182 -0.4130271726 0.83897796588 0.313544085 -0.41984322015 0.77749413336 0.4544683807 
-0.391602221 0.68076904417 0.61402873111 -0.29694899877 0.65070375585 0.69138741222 0.085128778828 0.86333875231 0.49237052373 
0.008175421097 0.8055373436 0.57967730058 0.12196931081 0.92776009594 0.35028125216 0.091679941578 0.97312451196 0.19591466181 
0.065087872734 0.98794663323 0.11581382544 0.052922125778 0.98883019107 0.080658012446 0.0048446658626 0.997280029 0.018372124527 
-0.032637028155 0.99418542552 0.0036250626163 -0.056763767612 0.99700491316 -0.020712230446 -0.033591971446 0.99845095366 -0.025817717372 
0.12133887128 0.98263817288 -0.0065104248838 0.18599164425 0.97832556434 -0.022310672295 0.2354563805 0.96993494477 -0.042498496635 
0.3971398302 0.90478974207 -0.051218717847 0.18645491583 0.9722935949 -0.072642200334 0.5676334723 0.81651946354 -0.069862291423 
0.62409027467 0.76899094206 -0.11466283121 -0.10344991935 0.71958036676 0.6802076745 -0.2098082565 0.63928342873 0.73692563745 
-0.093105136041 0.97395912135 -0.19813724479 -0.089948683619 0.95300439458 -0.28698904864 -0.061950810946 0.96928173573 -0.23338049777 
-0.08655847392 0.98481312544 -0.11373447479 -0.044305814616 0.96257844546 -0.26678649969 0.025260938479 0.90112797219 -0.38207880083 
0.10059251583 0.83989381943 -0.48550971229 0.17776092148 0.79491480543 -0.57597409924 0.21781299402 0.79980718149 -0.55496368426 
0.25425510906 0.79808817768 -0.54500492368 0.27569968856 0.82240331436 -0.49452081087 0.28951260255 0.85152053286 -0.434320229 
0.22927319007 0.90552775236 -0.34164319978 0.14705872724 0.95146690818 -0.26005081269 0.075242468572 0.97456739464 -0.20400254386 
-0.022965128661 0.98049426869 -0.16093738805 -0.092742941968 0.9868693654 -0.12865049081 -0.087805148635 0.98743288139 -0.13058999051 
-0.077987059334 0.98745861871 -0.12604897793 -0.054476639458 0.98925752888 -0.1258785628 -0.010241017743 0.99002408468 -0.12311593064 
0.064829505976 0.99214959816 -0.10295945488 0.13690246965 0.98590382298 -0.057959671929 0.21311945117 0.97616633007 -0.013129501463 
0.24250825063 0.96914983348 0.028596020357 0.26672546288 0.96030155228 0.070689495033 0.30015056553 0.94629929029 0.11475513368 
0.32545450745 0.92863000357 0.17030797558 0.34623539576 0.90954991793 0.22694100485 0.30044774334 0.92257240795 0.2283239551 
0.10989327443 0.98075806737 0.15836958626 0.17188981328 0.9620714719 0.19391613969 0.07232533819 0.98579506567 0.14638763883 
0.034272758888 0.99136049105 0.1237244207 0.0020989071784 0.99350942357 0.1105038654 -0.029004718831 0.99546118777 0.063611291709 
-0.058463046436 0.9945873295 0.061838158158 -0.093525529102 0.98672166216 0.11856090153 -0.14237661509 0.97689223279 0.15667186463 
-0.20083968701 0.95900434857 0.19012274953 -0.24490320956 0.94788625476 0.20176799445 -0.26499639515 0.9485714756 0.17106125106 
-0.27124040787 0.95228448084 0.12702772888 -0.26170609925 0.96066069703 0.074449196458 -0.27181893593 0.96071701411 0.03150613079 
-0.29025212842 0.95610768711 0.00097184671241 -0.30434364539 0.9504836601 -0.025683328057 -0.27067901749 0.96125036675 -0.036469813415 
-0.27164291863 0.95862384195 -0.080589859038 -0.18803290624 0.97234796131 -0.076248704278 -0.29566056296 0.94881299848 -0.10681783126 
-0.31902594463 0.93633296945 -0.14042214052 -0.29130497074 0.94128399459 -0.16776369266 -0.24376934345 0.94774312295 -0.18582181595 
-0.13667195522 0.96897045705 -0.19060641623 -0.10096782702 0.97392292782 -0.20088656461 -0.085040577086 0.97224698712 -0.21468454905 
0.21383805861 0.95190104475 0.20789430791 0.17406424018 0.97379972709 0.14346503851 -0.099659334992 0.98548721575 -0.12604629242 
-0.10342460126 0.99373605773 -0.0083396828254 -0.087070063552 0.99349887809 -0.044053471209 -0.095521380929 0.9929630182 0.063689363481 
-0.055372395149 0.98092617226 -0.1731255294 -0.023996218287 0.95890316529 -0.27252539774 -0.0038535462595 0.94564647378 -0.31475971913 
0.036028798065 0.92251168182 -0.36789269079 0.076756468206 0.90321455008 -0.41232726649 0.069864834476 0.92518623528 -0.36547130658 
0.06813481595 0.94371529439 -0.32121403541 0.10638218577 0.94059417689 -0.31715131641 0.12299084471 0.94277724179 -0.29942852569 
0.053634015123 0.96213360397 -0.2187194175 -0.0039540091651 0.98202619612 -0.15943006377 -0.036053059555 0.98094200888 -0.1442708164 
-0.10393361454 0.98340433566 -0.10505030048 -0.10868000917 0.98641429572 -0.11227427121 -0.19942952293 0.97376100308 -0.10120721836 
-0.19407408138 0.9725826542 -0.11490692839 -0.16793850942 0.97361100903 -0.12686410929 -0.040942295637 0.98807738526 -0.11304366445 
0.042800028694 0.9940148652 -0.098782400061 0.071867109328 0.9928345836 -0.092236211288 0.12973801763 0.98693147912 -0.059915311349 
0.19500836231 0.97902320352 -0.0015146116254 0.23428072965 0.96968699808 0.050554559485 0.26590680053 0.95817705039 0.10208716059 
0.29018712302 0.94293102837 0.15374073061 0.3012971308 0.9300465096 0.20345623328 0.2136032547 0.96041639463 0.15035447473 
0.1628752631 0.96868956004 0.14814002807 0.16283406165 0.95702921159 0.18325589328 0.038134571662 0.99442537594 0.015619254587 
0.15727365572 0.96460339966 0.1982906623 0.11932258773 0.97886910321 0.15797399733 0.086592260192 0.98565716665 0.13972849797 
0.051455159958 0.99053666169 0.11215290104 0.015473183414 0.99618582788 0.084252108823 -0.004754331976 0.99553540692 0.091191807939 
-0.029130932741 0.99620978132 0.066189333301 -0.040554550826 0.99768243206 0.02525266072 -0.048390452491 0.99770089944 -0.015428602312 
-0.05548378364 0.9968782419 -0.012484605863 -0.10324318063 0.98517406344 0.023638334129 -0.13509373267 0.9828819419 0.058444433975 
-0.12992496056 0.98817559884 0.023401794892 -0.12766299018 0.9892980689 0.0090102279927 -0.13021393364 0.99038196935 -0.0026643268729 
-0.16925414242 0.9848909941 -0.01483142005 -0.21432141356 0.97528256327 -0.027680229149 -0.067447396893 0.98729618538 -0.087697130545 
-0.049618384381 0.99248637268 -0.097974998618 0.032231027037 0.99263944361 -0.113959552 -0.15108479428 0.97878746912 -0.10635896829 
-0.26989052791 0.95510683006 -0.12086395016 -0.25861754964 0.95414340325 -0.13525738333 -0.21386091506 0.9616901858 -0.15245177007 
-0.17351891747 0.96655994918 -0.17153910255 -0.11133447377 0.97501399255 -0.16941087877 -0.018178344658 0.98429487874 -0.15084032045 
0.64677816401 0.74322162791 -0.16341432787 0.63759456033 0.73652265981 -0.21939109185 0.61348815742 0.73331328371 -0.2827969649 
0.59526606378 0.72572014266 -0.34371235132 0.55433852401 0.72394954762 -0.40561694379 0.51023037065 0.72286359429 -0.46324331645 
0.45528439145 0.72943756888 -0.50689324507 0.39008692169 0.74479105051 -0.53609954267 0.29866806683 0.78813185351 -0.53741236342 
0.22026500754 0.81331791137 -0.53575189739 0.14512383507 0.83594080513 -0.52656216911 0.077239591363 0.84228718909 -0.5314601049 
0.027115149516 0.80519477322 -0.58999447666 -0.031963931918 0.77194537709 -0.62969957045 -0.077725680072 0.74574720911 -0.65672640581 
-0.081890820767 0.82242652298 -0.55415610166 -0.1177440241 0.85616298578 -0.47937015259 -0.078838516441 0.93756335784 -0.33519303433 
-0.2285862671 0.68681007535 -0.68451510395 -0.28426327831 0.65572943984 -0.69511452012 -0.35815353682 0.63296694555 -0.68450833732 
-0.4425512457 0.5981993076 -0.66385663897 -0.52960815033 0.56798035413 -0.62669206215 -0.6013514835 0.55094576367 -0.57494459039 
-0.66554291646 0.54494980989 -0.5041607391 -0.71299748432 0.5570179131 -0.41995736263 -0.69451958359 0.62905986709 -0.32421588007 
-0.70577180039 0.65468654341 -0.25068180892 -0.73189771742 0.64661213475 -0.19902735383 -0.72071170723 0.67737949895 -0.13684921878 
-0.70599117624 0.69995021066 -0.085338526015 -0.64679402231 0.75655302652 -0.034458556628 -0.55767715082 0.8252371669 0.0086153386827 
-0.5351449008 0.84218769856 0.053364365753 -0.54484567781 0.82917015094 0.11347646789 -0.54771133843 0.81236229908 0.1757430348 
-0.57089424407 0.76244422666 0.26013096577 -0.564598469 0.73338185901 0.35793161907 -0.58137525945 0.64550009954 0.49386377895 
-0.52789826382 0.61039072789 0.58649736955 -0.46172293227 0.58086146973 0.66486724879 -0.37869083254 0.57170308754 0.7240556574 
-0.27018692605 0.65087468161 0.70528312947 -0.12440165591 0.71019787916 0.68812882586 -0.19025883076 0.73379530278 0.64895266826 
-0.05385994234 0.702142372 0.7062343489 0.020361631191 0.76800969026 0.63612246877 0.070051817696 0.85325837694 0.49228128061 
0.084140246513 0.94093428386 0.31577299886 0.050461909955 0.98278200309 0.156707291 -0.043343677757 0.99051897105 0.0016861543183 
-0.12674972617 0.98669158906 -0.096429518866 -0.16490374677 0.97945023066 -0.11555387352 -0.1175979908 0.98944380413 -0.069184448999 
-0.063979601821 0.99262989688 -0.038215780369 0.037726144736 0.99189128945 -0.014837311347 0.15316927937 0.98761217352 0.0034829241733 
0.076482483041 0.98832483998 -0.058993360877 0.034272601178 0.99621835845 -0.075297680874 0.028300174238 0.9958877683 -0.082885276293 
0.15814598883 0.97901332608 -0.081463422893 0.030347055233 0.99508111534 -0.089427919861 0.3309675169 0.93621576018 -0.073448999454 
0.41446687989 0.89936751771 -0.084257673109 0.49239693739 0.85713337128 -0.11839727416 0.0056925940041 0.95050098512 -0.27260581976 
-0.015076250476 0.96903873783 -0.23115550237 -0.03801639906 0.98159052313 -0.18221957243 -0.051531802257 0.98666722427 -0.15359975551 
-0.055049935689 0.98496471902 -0.14361394879 -0.049010755233 0.98276588538 -0.14346307786 -0.059442510531 0.98656622035 -0.13037062354 
-0.090700085804 0.989359242 -0.099534159682 -0.20656517948 0.96936830592 -0.039754451305 -0.34669916738 0.93144353578 0.032771767892 
-0.26382735884 0.96150383968 -0.074590668495 -0.28437149288 0.95412870753 -0.050463509382 -0.26306313183 0.95967328478 -0.092175698413 
-0.2690893625 0.95203584185 -0.099793803776 -0.13016880203 0.97491041326 -0.10491281632 -0.012140214326 0.99374284272 -0.10899786189 
0.0075911645646 0.99420922944 -0.10509107768 0.044766697338 0.99256926912 -0.086578696258 0.12996449647 0.98518076496 -0.026942968161 
0.19409207625 0.97952067977 0.025810566039 0.20106529353 0.97746916278 0.056864139391 0.19503063188 0.97667643363 0.078775266382 
0.14813017938 0.98373194708 0.06357710244 0.086999538276 0.99017337744 0.036353245406 0.011441271566 0.99787796706 -0.014502479139 
-0.039347573923 0.99605153299 -0.047767025184 -0.048551726352 0.99341675291 -0.075874332465 -0.10044956466 0.98685650472 -0.12287249922 
0.0073225731095 0.99428763532 -0.022168386249 0.073409698869 0.97750745865 0.073831340507 0.060083067798 0.98891222089 0.10543603193 
0.039190735456 0.99376603331 0.10243846071 0.020520538298 0.994438654 0.10078958551 0.0032062252577 0.99522508669 0.097198036855 
-0.018493929923 0.99659414162 0.063884069587 -0.041241341168 0.99758502087 0.01137605217 -0.024884802717 0.99319718639 -0.068758844636 
-0.00016750053691 0.98617173814 -0.16010201938 0.01359694173 0.98343231068 -0.16208250288 0.037485283723 0.97928199031 -0.18005447692 
0.026213127369 0.98958548479 -0.12294426326 0.016801552241 0.98901802344 -0.11697910915 0.027225631522 0.99144160415 -0.10845969116 
0.012228267792 0.99569749371 -0.086795707629 0.0011111173408 0.99579311666 -0.09111853124 -0.27996875412 0.95444490158 -0.028955600319 
-0.42791200989 0.89952676794 0.059069555702 0.066908759481 0.98910256011 -0.12675083685 0.030129214709 0.99236493869 -0.11872971803 
0.078520802073 0.98312428472 -0.14747839604 0.024768017017 0.99276019887 -0.1166414899 -0.019641371581 0.99224274776 -0.11280752692 
-0.14024167227 0.97865382512 -0.14098527191 0.52183022549 0.83154935636 -0.16783424297 0.552462192 0.80031382368 -0.22795921784 
0.53026264506 0.79535105633 -0.28668187654 0.51233981359 0.78652748048 -0.34294936212 0.49899579361 0.76898940721 -0.39521432428 
0.47024813605 0.7615454494 -0.44423332959 0.42452847642 0.76921708389 -0.47573596145 0.3648260845 0.78394603912 -0.49958164543 
0.29825422778 0.80363856801 -0.51461619198 0.21355486124 0.84330835439 -0.48763336614 0.13173954619 0.87854065217 -0.45695207115 
0.073578290113 0.87561341755 -0.47558654302 0.018510549953 0.87623154037 -0.47654970839 -0.028094526703 0.86706138369 -0.48371610088 
-0.038879865602 0.96559150636 -0.24730566225 -0.072756080841 0.97134581777 -0.21882817394 -0.038266196636 0.99603160864 -0.07271903833 
-0.10862893727 0.95043707591 -0.28740219441 -0.18667766781 0.84084680511 -0.46824120593 -0.28777308237 0.73546459669 -0.60979535397 
-0.34253870955 0.7170254286 -0.60468574317 -0.39420405744 0.72473937691 -0.56118928377 -0.45175015721 0.7244685822 -0.51578503567 
-0.5202232112 0.70655679997 -0.47263872956 -0.5452182574 0.72538102742 -0.40418519124 -0.52279696548 0.7912166776 -0.30565243919 
-0.54087565418 0.80330375853 -0.24085420017 -0.57635562588 0.78795927121 -0.19540298327 -0.64985117776 0.73739655116 -0.16124668655 
-0.68634966421 0.71631480146 -0.11800242097 -0.69477931211 0.71447826535 -0.06848675849 -0.66766730955 0.73985661917 -0.021763770952 
-0.59457938127 0.80058205445 0.022364540794 -0.5602997195 0.82515763486 0.064104042472 -0.56476316986 0.81304343283 0.11987037468 
-0.62238209133 0.74941682065 0.21781790856 -0.6383612183 0.69191290203 0.3196935003 -0.63911460009 0.64018494075 0.42072883028 
-0.59826793591 0.62256412106 0.50323738773 -0.54401304751 0.60046088548 0.58116138492 -0.47620037606 0.60143698118 0.63596602472 
-0.40564730175 0.61011704939 0.67359168344 -0.31256623824 0.691716271 0.64599305957 -0.24168859184 0.74819605772 0.61440405458 
-0.13184950438 0.78487487175 0.60090105733 -0.1520597618 0.86008057673 0.47177155748 -0.07948371965 0.773762756 0.62759151897 
-0.025655553811 0.77478039493 0.62768217458 0.04037885111 0.79409861341 0.60514122487 0.072504642138 0.85479101226 0.50070110096 
0.081276420926 0.92289585669 0.351223652 0.042769937657 0.98328293564 0.14118336006 -0.018352502049 0.99081912324 -0.0040317784151 
-0.094417127665 0.99016511571 -0.086134221068 -0.11669890933 0.98744299728 -0.10353555205 -0.087379767598 0.99302277411 -0.066386429146 
-0.050623197255 0.99540273955 -0.041761457762 -0.03824113062 0.98421881786 -0.058289280419 -0.060690962042 0.99230289147 -0.084919773554 
-0.022634145575 0.99588991159 -0.086514097395 -0.00055395107223 0.99563273862 -0.091529787471 0.022640551844 0.99432838983 -0.10210058642 
0.01817483342 0.99376682536 -0.10885217917 0.025705213559 0.99420794623 -0.09828526785 0.0070516808592 0.99336042457 -0.11480871859 
0.18079855174 0.96909453428 -0.10052596617 0.053088622423 0.99057655401 -0.1231035148 0.02754852791 0.99335768706 -0.10347095565 
0.022043046284 0.99695482169 -0.073334638518 -0.075865349403 0.99118663427 -0.09804512783 -0.057344816103 0.99295726541 -0.072040258711 
0.10518110407 0.97735728209 0.1317362722 0.10128560457 0.97310073142 0.19348970685 0.080572941866 0.96410486731 0.25005734144 
0.035118098204 0.96202137627 0.21783180545 -0.033258463837 0.97716984713 0.10483310001 -0.085114539011 0.99545728097 -0.023178195739 
-0.098990576546 0.99133533399 -0.070404072645 -0.089618110889 0.9935209989 0.045930926791 -0.078783574979 0.98031411061 0.16438952438 
-0.100592088 0.98302446699 0.14585794981 -0.11152126962 0.94013085727 0.29730354367 -0.097686386044 0.99409948665 0.024785855541 
-0.060459624163 0.99029313873 -0.11553733716 0.28846996857 0.9367402355 -0.19182155551 0.23837824638 0.95484734735 -0.14939138632 
0.40794911101 0.86851554333 -0.26134886403 0.41506796048 0.84959855183 -0.32153730675 0.42271210981 0.8261626401 -0.36977536451 
0.40526641617 0.81862929746 -0.40564570032 0.37215746493 0.81651511901 -0.43691911271 0.34562760786 0.80803273308 -0.47420001422 
0.31136151548 0.80840156872 -0.49841552125 0.21890978202 0.86067079065 -0.45073914028 0.077948819136 0.95365337639 -0.28568829736 
0.016996477969 0.96591470503 -0.25451116986 -0.0099970071471 0.96498000534 -0.2563992203 -0.032651224705 0.99438986835 -0.098942418604 
-0.0217097051 0.99384662416 -0.05426087352 -0.0351026543 0.99347206094 -0.10792301674 -0.045942775814 0.99283117822 -0.08877479152 
-0.080252761623 0.97829058025 -0.18245359364 -0.14459349991 0.9387694336 -0.28810416205 -0.22390171959 0.86867096925 -0.42361736441 
-0.2997240068 0.80997394327 -0.49291801848 -0.31253716615 0.84401182847 -0.4227812042 -0.35784871849 0.84115167294 -0.39575597679 
-0.3665960066 0.85460426674 -0.35125126138 -0.36533982393 0.87724733594 -0.29622846345 -0.31397941598 0.91915147104 -0.22961446605 
-0.40383266202 0.89160666627 -0.14462801464 -0.30923987053 0.93304268021 -0.14111975052 -0.5266228503 0.8223638605 -0.14544467859 
-0.58039652003 0.79945239534 -0.11288793832 -0.59401021924 0.79355651304 -0.063962503915 -0.58310408966 0.80932614941 -0.028905745321 
-0.55622805538 0.8300862881 0.018377702784 -0.56064136992 0.8246938043 0.061846672342 -0.55407607973 0.82526955841 0.097162307873 
-0.6024090819 0.76963388843 0.18429716218 -0.65072813638 0.63212692416 0.41725092755 -0.66299253333 0.66579360287 0.32999188933 
-0.60470387897 0.63103189499 0.48339432729 -0.54440313212 0.64508648839 0.53136657996 -0.47667755565 0.66498237391 0.57455870401 
-0.39691313428 0.71143375029 0.57242236597 -0.32299568838 0.7452696745 0.58061254882 -0.225189914 0.83308644866 0.48528901557 
-0.16200383902 0.924717345 0.32215776725 -0.25051092158 0.94912638198 -0.15443496329 -0.15834532917 0.97575557468 -0.13103359534 
0.041582712972 0.98087933254 -0.16672624389 0.058018094513 0.9759079896 -0.20716896789 -0.14114626398 0.98039301474 -0.13683643161 
-0.046220260384 0.9871806763 -0.12527840048 0.031588757674 0.99288204434 -0.11445349351 0.030361058577 0.99427989179 -0.10169115091 
0.012972776604 0.99546646483 -0.090190424914 -0.04959131194 0.99403541281 -0.093212815895 -0.14167830936 0.98298717632 -0.10577760593 
-0.078328838224 0.99415835232 -0.063598292596 -0.076708575496 0.99368028356 -0.05497022003 -0.075156156952 0.99043918452 -0.057324339052 
-0.14860345484 0.98228833152 0.0054600134015 -0.21252410399 0.97315068102 0.051999096462 -0.25931341722 0.96127353475 0.062566146039 
-0.32414673831 0.93894859502 0.08689495449 -0.4048336463 0.90232713977 0.11407416458 -0.46328040086 0.87555219924 0.13418065711 
-0.44478320626 0.89295134741 0.043339771842 -0.38062515036 0.92417880823 0.0042542503318 -0.35298761271 0.93395934149 -0.021771241888 
-0.30766593503 0.94726667839 -0.049091702714 -0.24812777003 0.96293469218 -0.067211046244 -0.20058021081 0.97254324802 -0.080382607953 
-0.15605026325 0.97489462121 -0.081154622991 -0.11239583318 0.98405442493 -0.09833486039 -0.091638032165 0.9854273116 -0.097656001063 
-0.055198986499 0.99102181944 -0.10349646486 -0.038519962472 0.99128050975 -0.1045811739 -0.0056601489165 0.99592325614 -0.08821386679 
-0.0031775644045 0.99705803529 -0.07277128164 -0.0048794639365 0.99778425117 -0.057579460646 -0.012867424805 0.99857040554 -0.04907346371 
-0.027937087626 0.99794307177 -0.046110437984 -0.05032990862 0.99574115289 -0.055352393662 -0.09494835103 0.99034356426 -0.098687808577 
-0.13032649964 0.97771296169 -0.15264709768 -0.085500479285 0.9877047075 -0.12303270327 -0.1320794555 0.97437222236 -0.17675781469 
-0.060759433848 0.99231810612 -0.10072298254 -0.029009862829 0.99578335793 -0.07962814008 0.0026547364874 0.99319508745 -0.016872456161 
-0.016756109285 0.99468478012 -0.059980222795 -0.049336520381 0.9667338379 0.20095133034 -0.055629295922 0.93314270626 0.34579774821 
-0.08064301548 0.89039763028 0.43660454244 -0.042110648842 0.82355774007 0.55361137805 -0.018496638152 0.78612221518 0.61502452272 
0.022986848192 0.7942464611 0.6067215322 0.05596578336 0.89655809653 0.43610389049 0.083457496664 0.90553075123 0.39437525649 
0.082999950602 0.97047298738 0.21925783964 0.013426815115 0.994995368 0.035311525293 -0.062124966588 0.99541458901 -0.058351446078 
-0.039243877013 0.99355110872 -0.10501456381 -0.021771561811 0.99094049055 -0.13089394505 -0.0096381144456 0.98849259417 -0.14621324829 
0.02320803554 0.98067560619 -0.18636344128 0.042650539779 0.97682527333 -0.20675361503 0.052007523597 0.97096512583 -0.21599541272 
0.068600862098 0.97569350672 -0.20798693314 0.15320605091 0.92635949063 -0.32924039396 0.080067332554 0.97375308211 -0.21266389112 
0.085611895115 0.97469837866 -0.20592339161 0.098680052044 0.9749325915 -0.19931197029 0.11271747554 0.97506321932 -0.19065490829 
0.10110511117 0.98019648033 -0.16590632683 0.17145474793 0.95837148312 -0.21979029413 0.22289275175 0.945976539 -0.2138694596 
0.2960011005 0.90736486048 -0.28275258594 0.11165628014 0.98192300815 -0.14579896804 0.066074211662 0.99036164212 -0.11042413226 
0.078309508972 0.95705175247 0.27072401958 0.066951356052 0.93935191775 0.33065246934 0.021397492981 0.928303309 0.36809181574 
-0.1364305423 0.97571905089 0.15762183227 -0.45040129664 0.88841024966 0.020967251922 -0.44130793657 0.89559608788 -0.0045240845443 
-0.45407866206 0.88664638837 -0.034980075766 -0.44070988611 0.89131932493 -0.064783883228 -0.3856923874 0.91601964711 -0.091971660891 
-0.31583226249 0.93803906616 -0.1178979908 -0.23013065751 0.96358676979 -0.12887113785 -0.16820138787 0.97585411782 -0.13220398529 
-0.10420666733 0.9863320794 -0.11623987345 -0.057535572798 0.99216280148 -0.10318539246 -0.040571381643 0.99554699304 -0.083800720708 
-0.037924632103 0.99655870183 -0.072423511385 -0.12084511897 0.98382897777 -0.12073426771 -0.088511498937 0.99243764232 -0.079689741649 
-0.062208484533 0.99087034807 -0.10253401047 -0.10532884374 0.97655095097 -0.18299916232 -0.03733305114 0.99635763508 -0.074932022185 
-0.19669211109 0.94959423233 0.19900069329 -0.24224698926 0.93691533182 0.21149300615 -0.30400982794 0.91396834172 0.21792913678 
-0.35580653681 0.89416224864 0.22444483209 -0.41387559475 0.85696329692 0.21730397607 -0.4721389421 0.836120033 0.2192347619 
-0.49078861778 0.84332311682 0.193041888 -0.60024621599 0.74307274328 0.27506997573 -0.61590591958 0.68971078397 0.37258424589 
-0.56586852999 0.701415831 0.41319375262 -0.49747039806 0.73200001901 0.44089452999 -0.42495536244 0.76772744254 0.4536654632 
-0.33673691447 0.82583253577 0.43622652061 -0.27783963769 0.85644469224 0.41894829923 -0.21925652767 0.90228071831 0.36708160669 
0.10696013018 0.96396049116 -0.23046209382 0.14665488401 0.95265366586 -0.25130434548 0.15534686225 0.9579819536 -0.23190601115 
-0.17216844076 0.93776933075 -0.27303951464 -0.23109982244 0.89730936093 -0.35993240441 -0.19915470934 0.94101329962 -0.24746857819 
-0.24392067212 0.94121972156 -0.21525936068 -0.2387686689 0.93201208058 -0.23999509816 -0.23456760663 0.94463354732 -0.20297671298 
-0.21885838644 0.95452618086 -0.17291606042 -0.11458209694 0.98566528277 -0.11836006144 0.2228579191 0.8911249665 -0.38412289902 
0.35523514695 0.86996451703 -0.33774464059 0.32189087615 0.87810201489 -0.34973736612 0.27193266859 0.89087291853 -0.35319318728 
-0.016387229364 0.88956269258 0.44789861162 0.25509988621 0.88826461101 -0.37395640666 -0.11490446185 0.98393866691 -0.12263637368 
-0.12223337576 0.98258549964 -0.12630503612 -0.10945613323 0.98637238228 -0.11350049255 -0.56044028761 0.75481039767 -0.33450799425 
-0.49836172252 0.82669716042 -0.2290969394 -0.085873558397 0.9274727669 -0.3557112761 0.2368053791 0.95571448925 -0.11513515489 
0.032095675281 0.99263766519 -0.10655852348 -0.077010719483 0.9934425003 -0.078137085596 -0.056822243102 0.99510069526 -0.074175447489 
-0.18678796383 0.95505864727 -0.20335198433 
Motion 1 1114 double
0.87168919445 0.82696348596 0.9268790846 0.96466074248 0.78152498597 0.87944601943 0.7283352404 0.84158442837 0.68855336194 
0.7981337165 0.67517099142 0.75663189969 0.66746946291 0.73925033613 0.71847600052 0.78641946686 0.80054321489 0.85376333061 
0.91240667602 0.95291243481 1.0486825567 1.0712896817 1.1856640185 1.1755057526 1.2557621175 1.2434830544 1.3005917983 
1.26717077 1.2826238315 1.2517604691 1.2267937575 1.182079221 1.1489868738 1.1110783633 1.0670661122 1.0271304959 
0.98725950458 0.96023814474 0.914620194 0.90341853835 0.85056006413 0.84247733939 0.77767366503 0.77720664195 0.67789190606 
0.69254014905 0.56020836605 0.59095064224 0.43108498782 0.47042515956 0.30084548458 0.35118302187 0.21926131192 0.26934345372 
0.19676307902 0.21985216477 0.27614827285 0.2529980964 0.44628980843 0.39065621132 0.65564410945 0.57971872181 0.86561093645 
0.76573267195 1.0467628592 0.93069655816 1.1801592946 1.0551287432 1.2568757437 1.1242478437 1.2686477485 1.1247460516 
1.2151664773 1.1061448964 1.1345073443 1.0763616267 1.0595339864 1.043499965 1.0000854494 1.0334918801 0.95263980891 
1.015250256 0.91131081965 0.97819198715 0.63050202438 0.65374056006 0.59746988763 0.58445037159 0.67170584277 0.61046555796 
0.67434035686 0.61575151384 0.67419101111 0.62003658524 0.67159173661 0.62424440601 0.67905206879 0.62481502769 0.69209426117 
0.62518393188 0.71323086682 0.62648733802 0.71227032449 0.62010597081 0.6991763727 0.61395485939 0.6725865662 0.60427162012 
0.67610138833 0.61019634417 0.67915832757 0.61378492622 0.67927859275 0.61837766584 0.67466895417 0.61371376818 0.64898405189 
0.59337329607 0.61401903129 0.56582274206 0.59286496788 0.53963485943 0.56476932377 0.50597386663 0.53167507711 0.46395384199 
0.48953069088 0.43689539087 0.45991506253 0.411193671 0.4353064589 0.38628772993 0.3997945866 0.35573805386 0.37563762493 
0.34744881581 0.35880744898 0.33409820161 0.35588426559 0.32611536802 0.35060613818 0.32191709183 0.34192068094 0.33600688688 
0.36096520612 0.34346541559 0.38466164592 0.34805132121 0.38545564215 0.34972577523 0.37723810627 0.35011029007 0.35981936953 
0.34238571736 0.36231666083 0.32440458161 0.37130978066 0.31597739343 0.39576193916 0.33867594653 0.42238752416 0.37146464827 
0.45072676619 0.40856635587 0.47007777411 0.43753578261 0.47831900904 0.45440981287 0.46906193948 0.45743838837 0.44900924009 
0.42965229611 0.42531739972 0.39272630813 0.41195294364 0.37286782451 0.39017792953 0.35317242562 0.35003730303 0.32089689107 
0.32274447917 0.30086771537 0.30605208992 0.29238358259 0.30768883825 0.28865483163 0.3143050928 0.28719700805 0.32831848145 
0.30600007341 0.35117579101 0.33372764537 0.39891350459 0.3799467539 0.45266485141 0.42714346142 0.51253372319 0.46974663762 
0.57165916318 0.52744577611 0.95550330782 0.9985571439 0.92494025972 0.90521541609 0.83158545735 0.80219772139 0.81845112472 
0.89501238156 0.99438088223 1.0968729807 1.187729126 1.2466529549 1.2532606137 1.2379552745 1.1672180926 1.0661062154 
0.96997091203 0.89732239742 0.84270505628 0.80497894473 0.7568930738 0.69229509794 0.60850526492 0.49180371566 0.40500441033 
0.34299151567 0.30465668706 0.33923764309 0.4377353753 0.58615162173 0.73139548542 0.86702394154 0.96035811525 1.0060269199 
1.0137787387 1.0061803874 1.007766571 1.0143281384 1.0541254546 1.0605338061 1.0429011102 1.0203046685 0.54787670428 
0.52503282312 0.57049253772 0.58209417876 0.58415942891 0.58017270321 0.57528878277 0.57238869365 0.56701544065 0.56875045902 
0.5667809246 0.5748182786 0.58866123781 0.57932645232 0.57756095167 0.56877972517 0.53657860992 0.49796030764 0.46436508691 
0.44044899381 0.42254356313 0.40003736089 0.37165128144 0.34973302507 0.33201260767 0.33577976338 0.31296738568 0.29999561718 
0.31592897193 0.31771520751 0.32313379756 0.32642633551 0.32609695742 0.3287036876 0.30242263126 0.30318163653 0.30966924337 
0.33912800074 0.37949394981 0.41080804317 0.42718280747 0.42651553731 0.41328878834 0.39439984316 0.36350020021 0.34487337881 
0.32852902397 0.3143688496 0.28969460498 0.28318684085 0.2795294757 0.28660936145 0.30157397362 0.33912465826 0.37792344346 
0.42464002086 0.46523441136 0.50514262348 0.34003940445 0.3465716068 0.85292090591 0.90664743575 0.82895077769 0.84269134571 
0.90947599894 0.99716821761 1.0906124986 1.1750929539 1.2263746988 1.233983913 1.203683045 1.1152170126 1.0114536644 
0.90431677221 0.79843867043 0.76286550404 0.72814167026 0.69875208752 0.66513169063 0.62452326979 0.57504876359 0.4306895622 
0.46047121233 0.41429293005 0.44333878355 0.51036679229 0.62022398621 0.72685034491 0.80617657665 0.86219193239 0.88741632773 
0.88638832067 0.8998823955 0.91115348495 0.93613168404 1.0347020606 1.0494817193 1.0484440425 1.0350272027 1.0325658819 
1.012331719 0.50648715568 0.54061403416 0.32931858137 0.34766571734 0.31793120401 0.30615585373 0.29533096253 0.29288292123 
0.30534472583 0.3074553373 0.3109843044 0.29050317454 0.31302743204 0.28532240425 0.28078783665 0.31602555438 0.35669259054 
0.3970106424 0.41895550015 0.42404821384 0.43615775441 0.41465010028 0.40480862945 0.39144451008 0.37575694442 0.36291467344 
0.35142280948 0.32617864994 0.30412855115 0.2803632618 0.28180201453 0.29772990573 0.32755333389 0.36916560171 0.39785859793 
0.43978237614 0.47767730354 0.5024330447 0.52806908589 0.54582374302 0.55186313885 0.54840451558 0.55042504008 0.55555039835 
0.56018075056 0.56173800836 0.56102963493 0.56414675984 0.56934162824 0.57979367473 0.56900951439 0.55091809714 0.5078649502 
0.48243075871 0.45572779924 0.43687571585 0.42128777167 0.4034929391 0.38394040962 0.36855936738 0.36902200045 0.36891752081 
0.33133032548 0.36141821822 0.32108489146 0.30669659999 0.50811758136 0.51332839791 0.48962974962 0.48028312257 0.48048103856 
0.52384864356 0.58638551692 0.66061089108 0.73693525658 0.78169334212 0.78209480404 0.77860911908 0.76034008945 0.75498435245 
0.7549469306 0.74657761622 0.98163084117 0.94624082211 0.99627481667 0.99204535462 1.0060317214 1.0062750449 0.83735068053 
0.88324385021 0.81122557461 0.80755631137 0.85917585212 0.94256539744 1.0303249871 1.1104000945 1.1718883803 1.1862503508 
1.1341738204 1.0500134183 0.92495917458 0.82189854425 0.73209462254 0.67057367193 0.64088792173 0.62339657896 0.62980112998 
0.60624298484 0.58517889826 0.53606972821 0.47441945272 0.44126908328 0.38572088062 0.46341383184 0.9491548953 0.90854715418 
0.94397770809 0.91431253618 0.82975946306 0.67405035842 0.30055956786 0.27343072462 0.25957110851 0.26723864046 0.27495302346 
0.27762742702 0.26101736128 0.28469757008 0.24563983674 0.31402599059 0.30699955914 0.29558160642 0.28179803012 0.2699888547 
0.2933690081 0.32946993104 0.36882531533 0.41747512947 0.43812544824 0.46160375329 0.47489739952 0.47048954328 0.46523388034 
0.46095628277 0.44746994621 0.43231701699 0.39405338812 0.35677811962 0.32296701822 0.30625198317 0.31193629848 0.33595555758 
0.37310868414 0.4138944097 0.41533341205 0.44044058698 0.46201665478 0.48342391798 0.50159613217 0.5185112433 0.53410956766 
0.54932305361 0.5595381377 0.5676004393 0.57202218329 0.57291063371 0.56844108285 0.5721522517 0.57097082782 0.56451390607 
0.55351198365 0.47355874997 0.50751797194 0.4445429661 0.42601919519 0.41562573772 0.40733046673 0.39279035821 0.3925935033 
0.39297163935 0.37737987584 0.35438389027 0.32241716597 0.2954178194 0.30878645288 0.26453126412 0.22905283382 0.21484669695 
0.2174728545 0.22753067842 0.36142020234 0.39674545738 0.32013822386 0.2574567217 0.21895111862 0.15974706245 0.23841919689 
0.22947514021 0.19767684658 0.16052304961 0.14487952863 0.14242595109 0.18611636665 0.53137143075 0.52940125945 0.4627548805 
0.47080151925 0.49177816349 0.52810496973 0.58037993381 0.6423932838 0.67413173938 0.68244297503 0.6752204946 0.65474733791 
0.61602427029 0.61463096828 0.59285584643 0.56964739086 0.52935893485 0.57163946154 0.45011858557 0.7040981317 0.82650295037 
0.88462595183 0.92218373259 0.93419814311 0.93851463604 0.95013067662 0.9836565489 0.93229687569 0.96418767049 0.90875719681 
0.88002590823 0.84571750683 0.82890637715 0.81118592906 0.76933989964 0.74294448428 0.72234765915 0.74823022104 0.83281542968 
0.91905379685 0.99310098389 1.0660200936 1.0651032129 1.0244792074 0.83428962798 0.93002646557 0.73813105692 0.64142364929 
0.58375870529 0.55583570757 0.54326640395 0.55545266157 0.55634240621 0.52582782066 0.46379781398 0.39018215497 0.29990210799 
0.29370929455 0.2122166884 0.33257809812 0.35847061099 0.97711616556 0.91212338011 0.19218825154 0.22158324338 0.23210102527 
0.16775142935 0.27455660419 0.28887128304 0.29175220327 0.29937564343 0.28137394777 0.25949721676 0.26720716971 0.28296468472 
0.32760249688 0.38359753905 0.4496906995 0.50996106431 0.53858801025 0.55569944667 0.55406406491 0.54736975482 0.52956572674 
0.50058152268 0.45942306946 0.41110434547 0.35947432073 0.3301593903 0.33430011034 0.36884302201 0.4337503096 0.4706535841 
0.40715338054 0.43182560852 0.42131277943 0.43396107725 0.46269031141 0.49705969358 0.52405238187 0.55213947943 0.5822712563 
0.59210361746 0.59121807114 0.57349815812 0.56554081633 0.56388254735 0.55904931715 0.55307267465 0.54572223757 0.519453191 
0.48886757221 0.47344869898 0.50100465678 0.49036344941 0.46034241553 0.43399888793 0.41172203256 0.40479965012 0.40616820451 
0.45140166242 0.45569446787 0.14793100935 0.10463841284 0.16836579275 0.086926856488 0.2328916363 0.26426978898 0.28849949967 
0.29471814667 0.29571849129 0.27520885189 0.2522585668 0.22770560377 0.22041644797 0.28226660464 0.34716879416 0.42518085708 
0.4992608785 0.56964889656 0.59626712169 0.5970162978 0.58590796329 0.56202199162 0.52731379032 0.46779409365 0.41475976202 
0.36605331425 0.33974731465 0.35032155306 0.38593405431 0.44987642614 0.45575820583 0.41988774412 0.40121893614 0.3408063274 
0.40898221415 0.39300381682 0.37707620808 0.37908207187 0.38643771224 0.42165819333 0.45694270514 0.49752966051 0.53781780264 
0.57537227427 0.58214120417 0.58238126558 0.55577651958 0.54153926885 0.52931028896 0.52727973877 0.52335686225 0.4626453234 
0.38842414297 0.35205497191 0.42409531337 0.45816046629 0.46304216948 0.42901208929 0.39349627889 0.37289073413 0.37363176583 
0.38186567003 0.40003288826 0.42827159921 0.47954385306 0.52839581796 0.56804532559 0.57969536784 0.56463953895 0.52481735541 
0.49258608538 0.46505090506 0.45282829286 0.449696099 0.44652674526 0.44635376943 0.35322561179 0.3336402365 0.25269531537 
0.47198626853 0.59167193348 0.71324462642 0.7759242096 0.81991646969 0.82807406778 0.83602538289 0.84156077322 0.81227595695 
0.78308513754 0.74495929771 0.7171694902 0.69003537193 0.67200732938 0.63884352687 0.60118781591 0.58020861081 0.59924845772 
0.66577172316 0.76034740432 0.86449471294 0.92249325946 0.91591394908 0.87006374387 0.76708735703 0.74895399288 0.6257193722 
0.82499521066 0.78174364674 0.70583168933 0.62021110037 0.53538492664 0.48363387508 0.45348537539 0.43234226652 0.44941056108 
0.46022729401 0.41534173526 0.35012442705 0.27163951336 0.2100340822 0.19105793518 0.1564180594 0.16980478808 0.22435189251 
0.23254480718 0.25322050243 0.26761343185 0.27991602174 0.25230282134 0.2238764141 0.20692087235 0.19319694721 0.23407040609 
0.28146258883 0.33348360911 0.35950143411 0.54794842556 0.51989863455 0.55494886323 0.5484738501 0.51837748182 0.48210251512 
0.43509364738 0.38439942145 0.32872299815 0.29538062002 0.30654094893 0.33139823475 0.36548546617 0.36998460857 0.30995085651 
0.21845475025 0.22801452692 0.13787944945 0.29952890844 0.33455469925 0.34477128414 0.34087679543 0.33566458245 0.33767611683 
0.36790888788 0.40058380405 0.45151757537 0.50102203816 0.53551829083 0.54523497086 0.51405478844 0.54165867497 0.47927346307 
0.45378813943 0.45851659191 0.48519928616 0.33731864593 0.33619362871 0.2145644505 0.18854147008 0.25502665241 0.32354521498 
0.39342353394 0.27243531043 0.29795748595 0.34206529615 0.38732995643 0.42562042891 0.44645268821 0.42785672087 0.4043912956 
0.37677712962 0.34526599716 0.33813998298 0.34113494816 0.3237801407 0.32057928429 0.24103337034 0.19175982172 0.20936407409 
0.25105594363 0.3428936609 0.46249045801 0.56080988626 0.60378614879 0.65371300776 0.67027427128 0.6670663869 0.61657353897 
0.6172235551 0.60051835773 0.57335457735 0.54316082447 0.51417116619 0.48968956196 0.4570414009 0.42417067995 0.40127890157 
0.42338832922 0.52932536615 0.63751692069 0.7526418373 0.79986434475 0.77933766199 0.70260462417 0.59601818478 0.45548705162 
0.45133519457 0.31233829732 0.58595981025 0.65102051129 0.64652818468 0.5666519902 0.47340599118 0.38524303154 0.34481244782 
0.33615976467 0.28051516526 0.33512162898 0.37026209699 0.30823047693 0.24469999613 0.20427165295 0.18017551811 0.19670382177 
0.22825283009 0.15565999415 0.26794811903 0.13038685104 0.33132650022 0.26927672658 0.19158091459 0.16626977403 0.16428781167 
0.15821467299 0.16027918569 0.16557932328 0.14093788065 0.10938125422 0.096570266499 0.10829092812 0.07295537974 0.083852364119 
0.11159596655 0.17818265553 0.158987132 0.23619541261 0.15536518227 0.13527509344 0.20772363297 0.27763551892 0.30657641506 
0.30663360079 0.30101666044 0.30422177692 0.31008519551 0.32732203496 0.36725011756 0.32634107429 0.28757811429 0.23644525066 
0.2748577806 0.28833139347 0.17113427373 0.16400276914 0.22834807053 0.30933421706 0.39547021335 0.37426475315 0.47125692706 
0.49847596648 0.48703809898 0.42701071391 0.38613667453 0.39163636109 0.35259204321 0.33817309985 0.32644820194 0.32539325735 
0.30828574697 0.28882507314 0.28787164212 0.2696587993 0.51303081879 0.39993817197 0.6155304513 0.61840657798 0.60132377901 
0.50708512562 0.40840699605 0.31728012815 0.19407590854 0.36190697255 0.28037767604 0.55834656841 0.51333227061 0.34793331096 
0.31595625225 0.28522491146 0.24761022307 0.20862407324 0.18358126362 0.23679947822 0.23510724834 0.21883244106 0.1979115395 
0.18139762927 0.18718022724 0.21416299169 0.23629825239 0.26733113981 0.25924427183 0.3361374997 0.42349132658 0.44321309268 
0.45373192492 0.4408456219 0.42245965179 0.40319982999 0.37812230358 0.33415806795 0.29119735148 0.23581628531 0.20135173439 
0.18912131028 0.18614711109 0.22104333836 0.2286614171 0.18959599172 0.11059890982 0.10918158657 0.15265538971 0.13157468475 
0.19251434828 0.24967429943 0.28105324062 0.26320939688 0.11754994613 0.19713929576 0.32559856381 0.43222740513 0.52584506863 
0.48732581407 0.37118504918 0.29016746531 0.20863094748 0.225191809 0.24035508887 0.32194403275 0.375834916 0.42758243652 
0.46750087742 0.49792263287 0.44531618551 0.46466103066 0.38845895446 0.50772724595 0.48231597642 0.44591865274 0.39850386415 
0.34710863839 0.18939302646 0.10264720663 0.16121692538 0.066576013187 0.11100883799 0.15116066113 0.16669172087 0.18667937352 
0.17036653454 0.34320566446 0.32951903695 0.31404077669 0.30422241755 0.2999587187 0.29838958105 0.29349060197 0.26650915518 
0.22295882094 0.17077858 0.087869763771 0.069044914922 0.11464842714 0.098698001345 0.15334892118 0.15027751443 0.1925090417 
0.22949497771 0.22489173498 0.25109112707 0.29345525165 0.28506305865 0.27274319654 0.25055179672 0.3048056764 0.39688155215 
0.46023395516 0.45880637152 0.40630392025 0.32775617982 0.26488737723 0.20952315384 0.41130536553 0.35904141653 0.28112746435 
0.19092051577 0.25609838338 0.18707227699 0.3163242987 0.27607461427 0.34039536043 0.3269528544 0.22591235269 0.33161404728 
0.22532059377 0.2173388597 0.23093356288 0.33028503403 0.28681860764 0.15307285923 0.13207306441 0.18472063914 0.98058323162 
0.96768978579 0.24134681465 0.12532075243 0.14261833098 0.093500593529 0.085627387758 0.19371293215 
Normal 3 1114 float
-0.606662 -0.204127 -0.768305 -0.716988 -0.24069 -0.650222 -0.719653 -0.377757 -0.568437 
-0.569196 -0.383949 -0.719813 -0.864667 -0.211203 -0.421573 -0.8239 -0.398528 -0.3669 
-0.960507 -0.154659 -0.18257 -0.908771 -0.378913 -0.119889 -0.990551 -0.0970608 0.0153075 
-0.933725 -0.332738 0.0795221 -0.98474 -0.0571394 0.158745 -0.939615 -0.281661 0.16565 
-0.966866 -0.0498697 0.250028 -0.920411 -0.274999 0.255902 -0.922533 -0.108176 0.3622 
-0.893392 -0.285022 0.340941 -0.888995 -0.155513 0.428822 -0.862089 -0.273062 0.42405 
-0.845068 -0.17065 0.501424 -0.805722 -0.277372 0.520369 -0.776552 -0.152595 0.608363 
-0.726247 -0.270982 0.628004 -0.676957 -0.12683 0.718228 -0.6092 -0.236765 0.753369 
-0.494425 -0.0941945 0.860974 -0.456426 -0.218506 0.859548 -0.335104 -0.140484 0.928636 
-0.299618 -0.233333 0.923074 -0.16645 -0.0804568 0.978896 -0.131144 -0.221618 0.962709 
-0.0347424 -0.0386807 0.998008 -0.00791336 -0.23688 0.967678 0.0487433 -0.0113271 0.997575 
0.0576342 -0.235401 0.964476 0.19246 0.0398028 0.975388 0.197679 -0.239578 0.940115 
0.280663 0.0807884 0.956252 0.309305 -0.261801 0.905796 0.300032 0.141513 0.940748 
0.357345 -0.223761 0.894506 0.349504 0.236278 0.903033 0.432624 -0.114223 0.882932 
0.57104 0.258756 0.77003 0.584222 -0.0675814 0.79606 0.71683 0.230879 0.648428 
0.699904 -0.114421 0.688922 0.834723 0.202665 0.493982 0.8053 -0.199234 0.525624 
0.931484 0.165046 0.301304 0.899658 -0.269001 0.296601 0.99202 0.0705452 0.0917843 
0.965597 -0.226181 -0.00205233 0.977351 -0.0271462 -0.160818 0.949101 -0.192911 -0.225975 
0.935092 -0.0236129 -0.339078 0.90642 -0.166003 -0.377109 0.88639 -0.0196742 -0.45827 
0.858051 -0.143359 -0.48803 0.83938 -0.0366508 -0.540528 0.815013 -0.132693 -0.561427 
0.790178 -0.0323276 -0.611494 0.765082 -0.117771 -0.630259 0.712512 -0.0195076 -0.69897 
0.682467 -0.127604 -0.715307 0.600981 -0.0618401 -0.79015 0.570004 -0.143837 -0.803469 
0.474897 -0.0938417 -0.870193 0.450192 -0.170726 -0.87351 0.352246 -0.0983813 -0.929812 
0.338697 -0.191268 -0.919212 0.263851 -0.111278 -0.957935 0.239652 -0.212952 -0.945578 
0.169559 -0.114467 -0.977961 0.1177 -0.206541 -0.968273 0.0738376 -0.0924268 -0.991556 
0.0342608 -0.189499 -0.978104 -0.0257568 -0.0933229 -0.993664 -0.055781 -0.18408 -0.976694 
-0.141914 -0.113207 -0.980469 -0.171705 -0.166963 -0.968239 -0.278259 -0.133886 -0.947076 
-0.278777 -0.202475 -0.929122 -0.431323 -0.15667 -0.883288 -0.433217 -0.313782 -0.83276 
-0.233011 -0.139776 -0.962376 -0.0655521 -0.158123 -0.974411 -0.0296958 -0.0508377 -0.99148 
-0.155781 -0.0151469 -0.986468 0.0683405 -0.161332 -0.983961 0.0812451 -0.0856362 -0.992025 
0.104646 -0.120535 -0.986288 0.127799 -0.117128 -0.984034 0.150497 -0.11647 -0.980614 
0.175517 -0.159942 -0.969387 0.204749 -0.144732 -0.967898 0.228532 -0.227878 -0.946257 
0.290749 -0.165868 -0.939523 0.302103 -0.232379 -0.922563 0.383763 -0.177526 -0.903177 
0.380323 -0.225302 -0.894721 0.485302 -0.174582 -0.855382 0.467698 -0.202437 -0.859481 
0.614078 -0.143654 -0.766517 0.555487 -0.108428 -0.816929 0.70912 -0.0696362 -0.695503 
0.620396 0.0136269 -0.777841 0.745549 0.0643168 -0.661845 0.642238 0.168534 -0.744061 
0.750904 0.143591 -0.642502 0.683114 0.253705 -0.680055 0.792657 0.166306 -0.579105 
0.739956 0.310459 -0.588294 0.868843 0.140338 -0.473655 0.819271 0.323201 -0.463257 
0.913971 0.129489 -0.378908 0.85997 0.333169 -0.375701 0.940502 0.160984 -0.289432 
0.880951 0.34496 -0.315325 0.950682 0.225326 -0.183929 0.900763 0.364958 -0.232806 
0.931358 0.334462 0.01876 0.915737 0.36852 -0.0101922 0.910173 0.331759 0.203913 
0.900218 0.35836 0.20427 0.885365 0.274331 0.370575 0.857816 0.331592 0.38948 
0.845324 0.215813 0.48149 0.807586 0.292573 0.502711 0.807503 0.199256 0.553218 
0.772777 0.238444 0.585471 0.771585 0.205574 0.601617 0.755769 0.178817 0.62757 
0.739912 0.212511 0.637471 0.743905 0.183943 0.641656 0.676403 0.219252 0.697773 
0.688411 0.174546 0.70047 0.591896 0.228175 0.772051 0.623936 0.208876 0.752708 
0.456328 0.298059 0.828677 0.530277 0.300892 0.783255 0.351949 0.362391 0.861069 
0.433907 0.391759 0.808785 0.292699 0.418691 0.858398 0.338373 0.501113 0.791341 
0.236171 0.451338 0.859086 0.259658 0.554724 0.787436 0.175508 0.479944 0.858238 
0.186713 0.578217 0.791946 0.0841169 0.527629 0.841581 0.0922984 0.589409 0.795971 
0.0284355 0.537114 0.842494 -0.0623223 0.567668 0.806029 0.00921533 0.507593 0.861346 
-0.344662 0.484156 0.797435 -0.293003 0.414505 0.802187 -0.497483 0.440634 0.73531 
-0.589095 0.319125 0.741825 -0.608176 0.396332 0.686185 -0.614033 0.266357 0.741787 
-0.638656 0.341001 0.686261 -0.633072 0.208352 0.744007 -0.658704 0.296371 0.689262 
-0.647578 0.146165 0.747801 -0.672231 0.259587 0.69049 -0.721911 0.089069 0.680234 
-0.729613 0.226064 0.640841 -0.79448 0.0471274 0.598943 -0.793649 0.195168 0.570662 
-0.86427 0.0290542 0.496038 -0.853948 0.16874 0.487041 -0.902198 0.050651 0.423803 
-0.883623 0.165799 0.434995 -0.926984 0.0885116 0.363803 -0.898339 0.170154 0.40168 
-0.938071 0.141633 0.309355 -0.906686 0.238509 0.342571 -0.952062 0.179893 0.217952 
-0.922025 0.268891 0.263659 -0.972395 0.185698 0.0458535 -0.947593 0.275622 0.0822197 
-0.965892 0.198994 -0.112088 -0.949798 0.27407 -0.0977894 -0.937246 0.21847 -0.258349 
-0.932202 0.251979 -0.245923 -0.881673 0.206662 -0.401468 -0.89065 0.228417 -0.377423 
-0.820184 0.187216 -0.540284 -0.830834 0.222729 -0.508936 -0.780885 0.175452 -0.596425 
-0.769579 0.242848 -0.585228 -0.735193 0.163325 -0.655288 -0.718568 0.24296 -0.649152 
-0.671514 0.150176 -0.721809 -0.656713 0.213616 -0.719028 -0.598677 0.123676 -0.786459 
-0.574639 0.182391 -0.792388 -0.516524 0.083594 -0.849206 -0.47515 0.131143 -0.866396 
-0.384286 -0.0166562 -0.906775 -0.314509 0.0518873 -0.933474 -0.714934 -0.568413 -0.383394 
-0.572946 -0.575366 -0.569166 -0.856799 -0.492946 -0.109492 -0.893737 -0.43695 0.0925706 
-0.894278 -0.411484 0.172168 -0.87919 -0.382582 0.281107 -0.867367 -0.31422 0.383734 
-0.852393 -0.277863 0.440502 -0.808592 -0.272737 0.516641 -0.734235 -0.265406 0.617457 
-0.612339 -0.282038 0.734188 -0.462741 -0.294496 0.833843 -0.306765 -0.295879 0.90228 
-0.157817 -0.334516 0.926488 -0.0282673 -0.368456 0.927326 0.0485253 -0.388125 0.918222 
0.176401 -0.41786 0.888196 0.294255 -0.469994 0.831725 0.350232 -0.486918 0.7997 
0.443104 -0.485372 0.750239 0.524847 -0.494493 0.68799 0.600436 -0.505743 0.612289 
0.705324 -0.533387 0.452369 0.851097 -0.482215 0.153566 0.940961 -0.30756 -0.127139 
0.918185 -0.270474 -0.285771 0.880625 -0.253209 -0.396507 0.841036 -0.240123 -0.481623 
0.79855 -0.228865 -0.554209 0.757696 -0.213336 -0.615603 0.693157 -0.21023 -0.687994 
0.58573 -0.21789 -0.776209 0.46445 -0.247443 -0.846347 0.355118 -0.276553 -0.891041 
0.241375 -0.312175 -0.916449 0.108905 -0.337105 -0.930727 0.0224391 -0.35306 -0.930291 
-0.0496132 -0.393566 -0.907173 -0.151345 -0.373928 -0.901487 -0.161107 -0.41709 -0.875726 
-0.245615 -0.514983 -0.784362 -0.433965 -0.581331 -0.676946 0.0776866 0.0447246 -0.994015 
-0.0295619 0.0782818 -0.992755 0.159955 0.0157709 -0.986032 0.220569 -0.038941 -0.972415 
0.261872 -0.0937086 -0.959989 0.302547 -0.125623 -0.94292 0.353859 -0.12689 -0.924035 
0.40933 -0.103784 -0.90304 0.463502 -0.043462 -0.882208 0.489203 0.0831557 -0.85942 
0.525524 0.21621 -0.818338 0.578908 0.330301 -0.737499 0.67166 0.406847 -0.613155 
0.759898 0.455358 -0.452279 0.810611 0.463357 -0.355333 0.838185 0.452158 -0.304088 
0.867789 0.439532 -0.220679 0.906062 0.411758 -0.0454299 0.893743 0.396789 0.160772 
0.845006 0.400914 0.345015 0.783794 0.3972 0.470161 0.724051 0.359792 0.58394 
0.701911 0.288058 0.650478 0.713676 0.246192 0.655557 0.68402 0.24192 0.687565 
0.70885 0.220658 0.668715 0.629203 0.3172 0.704116 0.559683 0.411145 0.715172 
0.459616 0.543965 0.694898 0.332041 0.639498 0.68793 0.215219 0.689569 0.689485 
0.0900679 0.703119 0.698619 -0.132949 0.677091 0.707716 -0.311671 0.632176 0.701889 
-0.489891 0.581663 0.641817 -0.568561 0.556469 0.602553 -0.616253 0.531918 0.577222 
-0.643763 0.492506 0.57809 -0.669273 0.427012 0.606822 -0.706129 0.381036 0.593566 
-0.770197 0.328594 0.54126 -0.838574 0.274692 0.464625 -0.878974 0.212693 0.420267 
-0.903925 0.165229 0.393745 -0.909361 0.140891 0.386977 -0.914652 0.189068 0.336688 
-0.912273 0.259845 0.286787 -0.896283 0.29449 0.155613 -0.921166 0.259315 -0.232122 
-0.894999 0.22709 -0.376699 -0.853176 0.221607 -0.468984 -0.799782 0.223062 -0.553285 
-0.74327 0.234632 -0.622945 -0.677998 0.246632 -0.690058 -0.58538 0.228913 -0.770713 
-0.482283 0.206982 -0.8495 -0.329767 0.159047 -0.922897 -0.177162 0.12186 -0.973269 
0.718326 0.231354 0.655609 0.72586 0.212015 0.653849 -0.91183 -0.341685 0.218888 
-0.901967 -0.399866 0.161303 -0.903384 -0.284701 0.310417 -0.876191 -0.246812 0.407818 
-0.854449 -0.219614 0.467 -0.834554 -0.154897 0.523031 -0.779538 -0.145433 0.604912 
-0.660289 -0.192914 0.720193 -0.512275 -0.257539 0.813193 -0.350025 -0.324606 0.876277 
-0.224432 -0.391249 0.889778 -0.0787175 -0.447954 0.888628 0.0156832 -0.476615 0.877825 
0.103035 -0.491533 0.863416 0.233859 -0.50982 0.827463 0.315957 -0.534201 0.783271 
0.396902 -0.554151 0.729101 0.487064 -0.567437 0.662019 0.570733 -0.556496 0.602505 
0.721997 -0.493603 0.472832 0.850949 -0.405884 0.286171 0.890973 -0.3426 -0.292154 
0.906221 -0.373056 -0.179697 0.851847 -0.341649 -0.391681 0.80222 -0.334453 -0.486589 
0.75702 -0.310656 -0.570864 0.72345 -0.284309 -0.626106 0.657859 -0.281453 -0.69515 
0.566769 -0.291377 -0.766535 0.465308 -0.322821 -0.822325 0.377241 -0.347186 -0.857467 
0.28691 -0.385861 -0.875513 0.170982 -0.443348 -0.877049 0.0869668 -0.537601 -0.833553 
0.0589614 -0.695273 -0.710989 0.0033874 -0.731341 -0.657261 0.0377745 -0.770221 -0.607985 
-0.118527 -0.844895 -0.495768 -0.353144 -0.826493 -0.419867 -0.520287 -0.747261 -0.386245 
-0.643755 -0.682848 -0.32207 0.909508 -0.397016 -0.074929 0.910314 -0.372068 0.151704 
0.708145 0.255423 0.656283 0.73693 0.159043 0.655691 0.700887 0.263757 0.660723 
0.650034 0.356784 0.661959 0.58938 0.410566 0.687283 0.48437 0.498807 0.707339 
0.333094 0.601729 0.716564 0.182159 0.624838 0.750168 0.0216805 0.572924 0.811334 
-0.470333 0.632842 0.612297 -0.328927 0.632616 0.690337 -0.543734 0.6261 0.554954 
-0.599017 0.621194 0.504414 -0.644718 0.585482 0.489058 -0.682157 0.532971 0.496516 
-0.713647 0.480567 0.506802 -0.788318 0.376414 0.464719 -0.885596 0.238758 0.389577 
-0.924975 0.115634 0.353093 -0.921692 0.0532425 0.382321 -0.910748 0.0376106 0.40915 
-0.905887 0.0457398 0.418224 -0.901533 0.0570695 0.428161 -0.933989 0.0896093 0.156003 
-0.970024 0.122614 -0.197207 -0.925454 0.151732 -0.32858 -0.873607 0.177309 -0.44948 
-0.816299 0.214624 -0.534667 -0.748244 0.229232 -0.618189 -0.667522 0.230709 -0.704309 
-0.568878 0.215847 -0.788149 -0.452714 0.200932 -0.866275 -0.313757 0.185179 -0.9234 
-0.14516 0.161536 -0.971441 0.000271763 0.154789 -0.984837 0.112159 0.113023 -0.983946 
0.205674 0.0697285 -0.974002 0.264719 0.0416421 -0.962166 0.298657 0.01405 -0.952933 
0.313934 0.0118581 -0.948331 0.339469 0.0192716 -0.938942 0.366871 0.0475932 -0.928346 
0.364396 0.117995 -0.920902 0.380297 0.196453 -0.901381 0.410505 0.267683 -0.870297 
0.499279 0.328462 -0.793785 0.606513 0.379757 -0.691943 0.722368 0.42698 -0.532845 
0.807804 0.432596 -0.389055 0.867026 0.409494 -0.278765 0.879672 0.427145 -0.206105 
0.907803 0.397249 -0.0152485 0.902885 0.378193 0.170911 0.863695 0.371425 0.331258 
0.787607 0.360245 0.483517 0.712868 0.331246 0.616953 0.681183 0.296895 0.666241 
0.658473 0.249898 0.709725 0.706928 0.143645 0.691229 0.731777 0.086133 0.674609 
0.762413 0.175513 0.621801 0.761008 0.0490259 0.645845 -0.213435 0.588557 0.768868 
-0.0773569 0.442831 0.884781 0.882505 -0.459792 -0.0563786 0.825484 -0.546864 0.0579021 
0.826274 -0.527907 -0.16511 0.784402 -0.546097 -0.28088 0.754627 -0.536506 -0.370387 
0.728047 -0.500443 -0.456604 0.694723 -0.469462 -0.534933 0.666103 -0.432251 -0.603027 
0.634253 -0.397095 -0.658355 0.554352 -0.382888 -0.734383 0.472187 -0.39496 -0.784958 
0.387407 -0.447767 -0.804822 0.295501 -0.506368 -0.807728 0.230002 -0.576922 -0.780035 
0.195129 -0.659158 -0.723968 0.209947 -0.729373 -0.648456 0.125648 -0.893669 -0.423647 
0.158781 -0.885175 -0.43254 -0.0480813 -0.900331 -0.401213 -0.292495 -0.90519 -0.286011 
-0.484794 -0.840207 -0.23838 -0.593524 -0.778675 -0.185684 -0.92232 -0.22561 0.307985 
-0.911225 -0.307466 0.262021 -0.912977 -0.16719 0.369051 -0.886118 -0.145842 0.438836 
-0.8475 -0.116794 0.51554 -0.824169 -0.10905 0.555229 -0.787626 -0.12421 0.600822 
-0.715832 -0.189254 0.666218 -0.573077 -0.31428 0.751363 -0.400354 -0.420131 0.812325 
-0.248104 -0.540025 0.798947 -0.0660187 -0.515348 0.853031 0.0337076 -0.505393 0.861039 
0.133548 -0.502441 0.85356 0.222736 -0.490562 0.841586 0.305775 -0.4773 0.821723 
0.397036 -0.458591 0.790729 0.50058 -0.43433 0.741016 0.606556 -0.408184 0.672304 
0.729077 -0.34837 0.574736 0.869808 -0.288226 0.384325 0.887215 -0.297521 0.326949 
0.882636 -0.313974 0.324194 0.828039 -0.545057 0.104298 0.837433 -0.460161 0.25067 
0.750309 -0.655855 -0.0371612 -0.890858 -0.419183 0.171117 -0.853559 -0.44856 0.244785 
-0.801632 -0.556499 0.178663 -0.785609 -0.562794 0.233467 0.169472 -0.841155 -0.508225 
0.252581 -0.75297 -0.603617 0.71552 0.295883 0.632007 0.62802 0.356121 0.67934 
0.51814 0.411884 0.735761 0.368074 0.451611 0.799708 0.217761 0.463043 0.845281 
0.109697 0.427439 0.885731 0.0147725 0.327856 0.941418 -0.139434 0.311443 0.934106 
-0.0760765 0.246934 0.961121 -0.260342 0.438968 0.846452 -0.397151 0.561041 0.718478 
-0.499101 0.614801 0.604191 -0.581077 0.6056 0.536931 -0.658002 0.572241 0.488432 
-0.694654 0.541964 0.471014 -0.728173 0.494987 0.469068 -0.807083 0.399679 0.421326 
-0.891372 0.268051 0.337667 -0.95306 0.0891797 0.269021 -0.954549 0.0306725 0.291304 
-0.938356 0.00310557 0.341684 -0.911229 -0.00609479 0.409585 -0.930178 0.00879752 0.332625 
-0.970391 0.0122432 0.200261 -0.989805 0.0320063 0.0017536 -0.974259 0.0697479 -0.192581 
-0.931589 0.132965 -0.326783 -0.881077 0.181723 -0.435007 -0.812939 0.233729 -0.525083 
-0.734595 0.27159 -0.614129 -0.63999 0.293202 -0.703538 -0.526984 0.299283 -0.786467 
-0.399057 0.29924 -0.864495 -0.269017 0.313856 -0.905462 -0.0638199 0.21666 -0.969777 
0.0766679 0.173288 -0.976493 0.179687 0.138416 -0.971473 0.2557 0.112059 -0.958811 
0.288496 0.101402 -0.951944 0.305115 0.0971182 -0.947275 0.314124 0.115859 -0.94215 
0.308594 0.14732 -0.938918 0.287983 0.202816 -0.935647 0.289868 0.253455 -0.92196 
0.326423 0.29127 -0.89783 0.405428 0.307492 -0.858925 0.516074 0.313112 -0.790064 
0.645881 0.336353 -0.681481 0.761881 0.330583 -0.542225 0.845066 0.326742 -0.4147 
0.881896 0.306393 -0.348307 0.927207 0.328994 0.114723 0.931934 0.346203 -0.0715998 
0.908767 0.288753 0.282199 0.860006 0.249026 0.432655 0.773695 0.222518 0.577603 
0.692029 0.233408 0.677162 0.673743 0.239822 0.69663 0.677312 0.16791 0.71477 
0.646748 0.140252 0.748257 0.666855 0.0854506 0.737677 0.717726 0.0391096 0.691983 
0.796323 0.00309871 0.603136 0.719096 0.00435267 0.691824 0.798583 0.075135 0.593296 
0.761601 0.144574 0.627641 0.661045 0.198626 0.712564 0.51855 0.259333 0.804283 
0.357031 0.276107 0.877845 0.220947 0.293732 0.920988 0.642524 0.0852308 0.761105 
0.650441 0.10149 0.752488 0.629171 0.0778133 0.7724 0.666058 -0.0346173 0.74031 
0.732405 -0.1263 0.66546 0.629584 0.0599368 0.774223 0.779441 -0.121831 0.610727 
0.789938 -0.088266 0.606042 0.753583 -0.0342471 0.647108 0.697641 0.0257134 0.712616 
0.537004 0.0897507 0.817945 0.365134 0.141535 0.914624 0.192415 0.174083 0.957891 
0.91711 0.313646 -0.234104 0.917825 0.259461 -0.29897 0.731386 -0.667555 -0.122908 
0.696836 -0.682549 -0.207488 0.670286 -0.677685 -0.294709 0.639646 -0.648073 -0.406007 
0.597272 -0.625753 -0.494585 0.570592 -0.587051 -0.567359 0.54767 -0.54947 -0.625001 
0.513832 -0.538986 -0.662047 0.462796 -0.549752 -0.691617 0.402246 -0.54954 -0.731495 
0.333102 -0.545876 -0.768336 0.30109 -0.575516 -0.759685 0.302925 -0.622601 -0.720774 
0.297171 -0.675713 -0.672352 0.310629 -0.667654 -0.67363 0.256747 -0.703856 -0.66126 
0.319394 -0.624168 -0.710817 0.210557 -0.779341 -0.582385 0.171364 -0.858253 -0.480646 
0.0511546 -0.880072 -0.455683 -0.151536 -0.883514 -0.421271 -0.367118 -0.86652 -0.312027 
-0.467951 -0.856274 -0.20176 -0.538358 -0.830696 -0.121603 -0.744963 -0.655324 -0.0409229 
-0.598955 -0.796873 -0.0235754 -0.795062 -0.586177 0.0817399 -0.677617 -0.715707 0.1168 
-0.730421 -0.633125 0.237629 -0.765951 -0.552036 0.315863 -0.807642 -0.477577 0.330835 
-0.851758 -0.390372 0.340735 -0.878485 -0.300114 0.363275 -0.87514 -0.259095 0.40348 
-0.848813 -0.278086 0.446639 -0.816819 -0.267987 0.49537 -0.802859 -0.255428 0.531383 
-0.786929 -0.279371 0.544725 -0.741421 -0.357454 0.558912 -0.651598 -0.478174 0.584748 
-0.476011 -0.612185 0.622667 -0.284237 -0.697574 0.647911 0.0907096 -0.484698 0.86939 
0.0023089 -0.549672 0.832728 0.209416 -0.393128 0.89356 0.319925 -0.315262 0.890603 
0.385222 -0.246038 0.884494 0.463906 -0.205258 0.855798 0.554182 -0.15544 0.815605 
0.645822 -0.121648 0.746006 0.726562 -0.0770513 0.676721 0.798663 -0.0362161 0.597128 
0.836407 -0.15768 0.500633 0.829883 -0.203236 0.49915 0.833966 -0.179997 0.507312 
0.850098 -0.440676 0.245084 0.869535 -0.233067 0.404928 0.800934 -0.584182 0.0959922 
0.773185 -0.628079 0.0157303 -0.0714678 -0.615387 0.779841 -0.150193 -0.746125 0.641899 
0.0499452 0.132937 0.986889 0.0556013 0.229941 0.963669 -0.0660928 0.14967 0.982618 
-0.00985791 0.0588828 0.993413 -0.194302 0.291262 0.932693 -0.274122 0.370174 0.8749 
-0.371575 0.431332 0.804347 -0.495507 0.484262 0.715374 -0.596123 0.485342 0.622876 
-0.703619 0.449581 0.544271 -0.755207 0.409506 0.500983 -0.808517 0.356947 0.460331 
-0.873598 0.247589 0.388264 -0.93741 0.145678 0.290553 -0.970827 0.0946194 0.196274 
-0.972998 0.0617625 0.204711 -0.949476 -0.0355441 0.300946 -0.918987 -0.0619187 0.384266 
-0.921706 -0.067971 0.376835 -0.947151 -0.0542306 0.308517 -0.982182 -0.0268255 0.0666678 
-0.987153 0.0553335 -0.137587 -0.953089 0.113163 -0.258388 -0.916062 0.162846 -0.36065 
-0.866457 0.209173 -0.444487 -0.800403 0.250102 -0.536991 -0.71782 0.28754 -0.628232 
-0.607614 0.327801 -0.713962 -0.466319 0.344799 -0.807856 -0.283251 0.287013 -0.901663 
0.130236 0.149084 -0.977738 0.042558 0.170715 -0.976894 0.201691 0.123702 -0.969567 
0.263435 0.0995174 -0.958838 0.297768 0.0757723 -0.95131 0.305704 0.0629617 -0.949951 
0.290257 0.0746096 -0.953721 0.266745 0.103662 -0.957006 0.236521 0.147682 -0.95975 
0.276791 0.193254 -0.93859 0.360837 0.222891 -0.902439 0.473222 0.199927 -0.853113 
0.601032 0.188672 -0.763996 0.725572 0.187053 -0.657306 0.815767 0.207418 -0.523573 
0.879688 0.230817 -0.411882 0.898224 0.242627 -0.360408 0.911933 0.179437 -0.36193 
0.939454 0.170741 -0.281335 0.922968 0.0659271 -0.368267 0.951633 0.256591 -0.113926 
0.947444 0.292678 -0.0400666 0.937866 0.301596 0.122239 0.907609 0.268547 0.302782 
0.857451 0.215448 0.457298 0.78237 0.186925 0.584081 0.706631 0.18378 0.681604 
-0.0697446 0.199666 -0.973204 -0.222645 0.200908 -0.946842 0.152247 0.0743496 0.978157 
0.0551141 -0.0268222 0.994715 -0.0670338 -0.00926626 0.992569 0.0454068 -0.138847 0.986167 
-0.128207 0.0987481 0.985328 -0.193117 0.187187 0.954053 -0.284224 0.287647 0.909321 
-0.347892 0.285576 0.882883 -0.450645 0.274004 0.832873 -0.579921 0.227236 0.758149 
-0.714473 0.18466 0.672638 -0.7764 0.176018 0.597296 -0.837633 0.159109 0.516672 
-0.891957 0.11143 0.420524 -0.941155 0.0216727 0.317444 -0.97052 -0.0742373 0.202013 
-0.970299 -0.162493 0.154605 -0.937508 -0.139288 0.307767 -0.894848 -0.159083 0.41308 
-0.905184 -0.156986 0.382774 -0.934275 -0.146176 0.30032 -0.976254 -0.0954906 0.139426 
-0.991631 -0.0467631 -0.0223821 -0.977225 0.000543167 -0.168124 -0.951172 0.0570734 -0.289005 
-0.915522 0.124917 -0.374281 -0.851986 0.183849 -0.477429 -0.773418 0.232395 -0.586523 
-0.670608 0.257626 -0.681914 -0.575524 0.244445 -0.769183 -0.403716 0.171512 -0.884578 
-0.219252 0.0697486 -0.953067 -0.0160923 0.0610693 -0.992715 -0.193991 -0.0422856 -0.972751 
0.0259614 0.116254 -0.988222 0.0651028 0.147312 -0.980022 0.152212 0.131313 -0.977983 
0.224847 0.107022 -0.965959 0.286884 0.0825891 -0.954235 0.307878 0.0757125 -0.948218 
0.317544 0.0656606 -0.945715 0.303345 0.0140062 -0.951658 0.276351 -0.0351013 -0.959284 
0.231206 -0.057238 -0.970019 0.259602 -0.0641859 -0.956529 0.37907 -0.0102704 -0.914945 
0.507639 0.00615972 -0.856235 0.610972 0.0102541 -0.78141 0.711452 0.0176578 -0.699116 
0.79989 0.0436492 -0.582839 0.880609 0.0937381 -0.455668 0.900884 -0.013465 -0.424598 
0.934462 -0.0254191 -0.352199 0.888277 -0.0895505 -0.444546 0.961626 0.0645969 -0.22271 
0.97013 0.180379 -0.15114 0.962416 0.23797 0.0264719 0.954885 0.221487 0.139384 
0.9252 0.193828 0.305578 0.856544 0.153555 0.478696 0.757219 0.0985245 0.637708 
0.732137 -0.665652 -0.100104 0.678874 -0.690877 -0.239201 0.624636 -0.694626 -0.349472 
0.575558 -0.692506 -0.432964 0.53529 -0.682701 -0.493873 0.496827 -0.66967 -0.550572 
0.476014 -0.648343 -0.592597 0.447136 -0.628708 -0.634513 0.416108 -0.60201 -0.681132 
0.369918 -0.584878 -0.720662 0.340252 -0.564678 -0.751274 0.331034 -0.544946 -0.770226 
0.350019 -0.551876 -0.756762 0.357221 -0.57802 -0.732563 0.354306 -0.601149 -0.715279 
0.353626 -0.561252 -0.745528 0.298423 -0.534608 -0.783567 0.366354 -0.39434 -0.838166 
0.232556 -0.655769 -0.715689 0.184147 -0.70458 -0.680569 0.0712467 -0.750958 -0.654352 
-0.116951 -0.797509 -0.56562 -0.289986 -0.831246 -0.46451 -0.404312 -0.847385 -0.322974 
-0.490852 -0.843421 -0.194832 -0.561486 -0.820923 -0.087769 -0.636868 -0.760968 0.0269352 
-0.680337 -0.711555 0.148313 -0.685959 -0.677064 0.253945 -0.703141 -0.630475 0.324267 
-0.70153 -0.609333 0.366677 -0.736037 -0.549163 0.384551 -0.766035 -0.511923 0.384477 
-0.796668 -0.470091 0.376803 -0.782611 -0.490218 0.37549 -0.764213 -0.481564 0.42318 
-0.700863 -0.547283 0.44159 -0.662434 -0.616234 0.41302 -0.602999 -0.693038 0.393047 
-0.519781 -0.731906 0.434425 -0.425727 -0.761404 0.480778 -0.321748 -0.790075 0.514841 
-0.191634 -0.781083 0.5897 -0.0138729 -0.710555 0.699972 -0.0534654 -0.702909 0.705518 
0.0149838 -0.70518 0.705145 0.0884529 -0.629205 0.768483 0.179765 -0.533773 0.817136 
0.319311 -0.36395 0.867306 0.44296 -0.141533 0.879891 0.498498 -0.00200442 0.8642 
0.53596 0.0814119 0.837352 0.603918 0.121622 0.786475 0.665882 0.0888365 0.737929 
0.721243 0.0536107 0.689888 0.740937 0.00997587 0.668299 0.746195 -0.0215533 0.66314 
0.781649 -0.0867059 0.611189 0.820255 -0.0730096 0.562206 0.858304 -0.0449336 0.499561 
0.925872 -0.2333 0.281726 0.908775 -0.0493044 0.398819 0.879672 -0.372727 0.262227 
0.864122 -0.465821 0.113547 0.819047 -0.559568 -0.0526191 -0.285435 0.159065 0.933066 
-0.514829 0.105046 0.845039 -0.638879 0.0556435 0.753582 -0.742781 0.0149872 0.66772 
-0.795677 -0.043445 0.593294 -0.847817 -0.105233 0.514868 -0.89183 -0.176213 0.389663 
-0.927623 -0.247804 0.273528 -0.914294 -0.332655 0.210161 -0.893754 -0.414241 0.16679 
-0.887087 -0.233367 0.395793 -0.915277 -0.273857 0.276409 -0.88965 -0.212793 0.399712 
-0.93661 -0.138035 0.30639 -0.971727 -0.0792351 0.120285 -0.994975 -0.0260183 -0.0597864 
-0.979117 -0.00542799 -0.172174 -0.956623 0.016828 -0.27944 -0.916602 0.0469084 -0.380674 
-0.860162 0.0735902 -0.494122 -0.781895 0.0820489 -0.604387 -0.681195 0.0817266 -0.714538 
-0.560829 0.0593035 -0.806608 -0.463499 0.0182727 -0.875066 -0.401555 -0.0579582 -0.889971 
-0.254651 -0.117607 -0.947628 -0.0569074 -0.113388 -0.985286 -0.0910979 -0.172774 -0.967832 
-0.0320963 -0.0579002 -0.984081 0.0989062 0.00647269 -0.986401 0.182673 0.00765682 -0.979617 
0.234392 0.0040884 -0.970983 0.276807 -0.00246232 -0.959432 0.312983 0.00222429 -0.949251 
0.336859 -0.0326962 -0.940319 0.359781 -0.0610751 -0.930909 0.341575 -0.0967561 -0.933688 
0.296672 -0.142756 -0.943246 0.240268 -0.163533 -0.956046 0.244516 -0.183859 -0.95079 
0.574125 -0.16798 -0.799938 0.467706 -0.172775 -0.860976 0.672524 -0.150945 -0.715414 
0.780559 -0.121835 -0.61122 0.854294 -0.0766704 -0.504047 -0.928837 -0.30754 0.192247 
-0.866804 -0.461139 0.186691 0.821619 -0.149428 -0.543403 0.897213 -0.12189 -0.416796 
0.830353 -0.216725 -0.502379 0.935534 -0.0759244 -0.334 0.983858 -0.014669 -0.155416 
0.978699 0.117961 0.0674899 0.757981 -0.601162 -0.215743 0.706364 -0.625938 -0.325779 
0.661165 -0.640136 -0.384619 0.615906 -0.65592 -0.434594 0.563635 -0.665166 -0.485557 
0.515346 -0.66635 -0.537443 0.469903 -0.66553 -0.577684 0.432327 -0.645336 -0.628374 
0.395759 -0.606421 -0.687976 0.344897 -0.546584 -0.76185 0.328111 -0.508457 -0.795734 
0.342964 -0.498216 -0.795717 0.376774 -0.495289 -0.781729 0.384755 -0.498788 -0.774006 
0.364622 -0.270068 -0.888892 0.286899 -0.234998 -0.925631 0.337628 -0.150566 -0.92866 
0.268439 -0.373257 -0.881137 0.200316 -0.536634 -0.810074 0.0801152 -0.639178 -0.755977 
0.0341102 -0.675933 -0.729317 -0.102251 -0.703808 -0.690497 -0.252307 -0.733225 -0.615389 
-0.408415 -0.752688 -0.493795 -0.544295 -0.741795 -0.36389 -0.713706 -0.666135 -0.188146 
-0.753377 -0.644102 0.00110172 -0.755322 -0.629677 0.153 -0.711888 -0.636879 0.2748 
-0.690112 -0.626655 0.360152 -0.691224 -0.600029 0.400533 -0.704031 -0.57482 0.415556 
-0.733062 -0.548403 0.400157 -0.754946 -0.547678 0.357532 -0.755954 -0.570359 0.319162 
-0.689426 -0.641654 0.331663 -0.62055 -0.708535 0.328345 -0.60278 -0.728516 0.318173 
-0.587181 -0.746791 0.311615 -0.5221 -0.778764 0.343585 -0.45084 -0.792183 0.40583 
-0.342381 -0.79489 0.492487 -0.213422 -0.752992 0.61074 -0.156055 -0.689022 0.70018 
-0.00923168 -0.643485 0.759465 -0.0368642 -0.565576 0.818506 0.0843551 -0.647551 0.756405 
0.176845 -0.606992 0.766018 0.27085 -0.538233 0.795408 0.370119 -0.450082 0.802457 
0.468108 -0.353679 0.801256 0.572385 -0.205569 0.789679 0.598023 -0.00197081 0.795961 
0.593843 0.112689 0.794315 0.596867 0.162564 0.785516 0.634038 0.135241 0.760433 
0.659773 0.112813 0.741113 0.677296 0.0513771 0.729075 0.703647 0.00954934 0.704666 
0.71031 0.0477572 0.695754 0.749502 0.0591523 0.654512 0.822425 0.0391677 0.562377 
0.903564 0.0236839 0.401512 0.957947 -0.0674153 0.195112 0.970225 0.00427291 0.152102 
0.932713 -0.278344 0.105888 0.67004 0.0618095 0.738483 0.633748 0.0470037 0.771342 
0.603595 0.0746407 0.793646 0.607211 0.13304 0.782604 0.652467 0.0606281 0.750456 
0.717344 -0.0575971 0.692982 0.758782 -0.164779 0.627643 0.76659 -0.191907 0.611407 
0.705041 -0.189155 0.671602 0.595535 -0.161602 0.771595 0.371536 -0.0480146 0.90605 
0.22395 0.0305008 0.969711 0.19587 -0.130665 0.960289 0.0970376 -0.248099 0.959642 
-0.0652549 -0.268062 0.955192 0.0384642 -0.408716 0.899663 -0.0980935 -0.119869 0.982856 
-0.26284 0.0340551 0.948045 0.809717 -0.465284 -0.349879 0.870289 -0.398675 -0.243886 
0.719024 -0.529315 -0.440638 0.64475 -0.571974 -0.504155 0.572185 -0.60624 -0.547658 
0.523738 -0.611774 -0.591735 0.48322 -0.601058 -0.633545 0.436481 -0.595823 -0.6725 
0.395909 -0.58205 -0.709185 0.345606 -0.529445 -0.771678 0.300187 -0.364064 -0.880322 
0.3671 -0.331753 -0.867706 0.383813 -0.303424 -0.870712 0.259458 -0.0769944 -0.961103 
0.299698 -0.0532076 -0.952106 0.321771 -0.078985 -0.942646 0.265037 -0.145948 -0.950562 
0.192925 -0.231488 -0.951477 0.144446 -0.371518 -0.904038 0.0844875 -0.514635 -0.844221 
-0.0445396 -0.574883 -0.810466 -0.178813 -0.553691 -0.798647 -0.386575 -0.587632 -0.699652 
-0.524025 -0.58958 -0.592223 -0.635469 -0.572432 -0.5 -0.718142 -0.494876 -0.460319 
-0.874115 -0.467618 0.0184308 -0.894641 -0.412507 -0.107223 -0.831654 -0.519135 0.144421 
-0.778134 -0.552019 0.278823 -0.725692 -0.561599 0.386986 -0.715099 -0.543743 0.437806 
-0.740706 -0.537641 0.401077 -0.754979 -0.562409 0.330623 -0.767259 -0.583587 0.26094 
-0.704429 -0.666953 0.22975 -0.594157 -0.75402 0.278877 -0.645788 -0.71272 0.266709 
-0.567059 -0.768696 0.29562 -0.54255 -0.764389 0.344054 -0.494359 -0.768232 0.405469 
-0.424409 -0.745681 0.502334 -0.344066 -0.723902 0.591983 -0.212515 -0.60659 0.756593 
-0.118728 -0.458853 0.867606 -0.867843 -0.395775 -0.260354 -0.853245 -0.31513 -0.380105 
0.327793 -0.195513 -0.922189 0.282662 -0.238546 -0.928274 0.926175 0.0897393 0.350773 
0.848387 0.0569023 0.510036 0.775954 0.0420764 0.627323 0.727593 0.0560618 0.681082 
0.675665 0.0770817 0.731337 0.620863 0.130119 0.771338 0.623055 0.104435 0.77416 
-0.335556 -0.0655242 0.93317 -0.501093 -0.119031 0.832375 -0.677631 -0.155432 0.707876 
-0.745049 -0.218394 0.614458 -0.788665 -0.290969 0.521046 -0.82642 -0.334889 0.427101 
-0.848416 -0.397395 0.330452 -0.843047 -0.457512 0.250448 -0.80051 -0.560606 0.200293 
-0.843203 -0.484474 0.224801 -0.881148 -0.388581 0.257348 -0.86476 -0.362455 0.331498 
-0.845899 -0.331633 0.408165 -0.844816 -0.306451 0.432801 -0.861353 -0.275822 0.409874 
-0.919332 -0.244257 0.262362 -0.964991 -0.210794 0.073304 -0.967257 -0.180431 -0.107304 
-0.962921 -0.136917 -0.219706 -0.943788 -0.10618 -0.299154 -0.901228 -0.0806858 -0.410349 
-0.840127 -0.0677324 -0.519596 -0.764803 -0.063373 -0.633478 -0.66895 -0.0751407 -0.724028 
-0.562287 -0.0965333 -0.815405 -0.418445 -0.124718 -0.88577 -0.267168 -0.167589 -0.926972 
-0.259249 -0.268986 -0.911526 0.0528319 -0.16374 -0.978757 -0.0800708 -0.273473 -0.951926 
0.0939298 -0.111872 -0.983261 0.109859 -0.071631 -0.983539 0.174892 -0.0385302 -0.981931 
0.204858 -0.054439 -0.975529 0.317905 -0.27648 0.901177 0.197147 -0.392291 0.888618 
0.122986 -0.525679 0.83866 0.150913 -0.585373 0.78916 0.184765 -0.615652 0.760081 
0.253712 -0.594126 0.762323 0.442042 -0.454261 0.770407 0.626796 -0.270501 0.721669 
0.709644 -0.202524 0.668745 0.677481 -0.0113178 0.731476 0.631925 0.10457 0.765601 
0.367538 -0.114057 -0.921905 0.375348 -0.148224 -0.914167 0.33292 -0.175937 -0.924932 
0.270554 -0.215009 -0.936625 0.249778 -0.227977 -0.939987 0.297782 -0.307618 -0.897487 
0.411058 -0.305778 -0.857579 0.322023 -0.425996 -0.840395 0.378439 -0.247719 -0.884764 
0.467452 -0.248669 -0.841247 0.563688 -0.245412 -0.786585 0.644892 -0.238494 -0.721469 
0.739895 -0.200962 -0.634554 0.696467 -0.356564 -0.612452 0.771981 -0.388976 -0.493909 
0.706152 -0.462189 -0.528697 0.855394 -0.272019 -0.433446 0.926894 -0.1811 -0.30143 
0.724463 -0.237243 0.645117 0.641227 -0.310967 0.696185 0.446786 -0.362032 0.801708 
-0.332886 -0.332248 0.861667 -0.807534 -0.464311 0.349662 -0.78543 -0.423997 0.448777 
-0.785681 -0.427472 0.440398 -0.799698 -0.432195 0.401633 -0.845019 -0.426997 0.282945 
-0.900655 -0.387724 0.104001 -0.939977 -0.314543 -0.0552882 -0.944802 -0.251574 -0.175537 
-0.922674 -0.201894 -0.303261 -0.865281 -0.15581 -0.464048 -0.786428 -0.137609 -0.585405 
-0.719251 -0.136992 -0.678337 -0.406537 -0.240511 -0.868807 -0.41109 -0.168619 -0.893127 
0.168576 -0.156212 -0.9675 0.0587731 -0.248159 -0.956157 0.205664 -0.0977141 -0.972722 
-0.497415 -0.408874 0.74697 -0.601994 -0.449899 0.638522 -0.665186 -0.49511 0.536268 
-0.69249 -0.551639 0.444291 -0.70871 -0.583885 0.370649 -0.724067 -0.613978 0.290693 
-0.74307 -0.619492 0.245622 -0.67235 -0.692543 0.254099 -0.627275 -0.728387 0.272478 
-0.607305 -0.727815 0.308263 -0.589771 -0.713105 0.367532 -0.559481 -0.682469 0.455795 
-0.49713 -0.643183 0.571175 -0.370465 -0.601785 0.691309 -0.251714 -0.534635 0.797254 
0.475193 -0.339246 -0.803844 0.54664 -0.364467 -0.747927 0.612441 -0.359689 -0.697246 
-0.0117351 -0.373013 -0.91344 -0.0334442 -0.467606 -0.875645 -0.166157 -0.386062 -0.89595 
-0.572291 -0.429898 -0.684238 -0.460782 -0.426298 -0.760361 -0.66818 -0.41347 -0.60464 
-0.74179 -0.383283 -0.524777 -0.807466 -0.255357 -0.510776 0.406828 -0.490905 -0.763908 
0.646552 -0.525822 -0.548555 0.624486 -0.509505 -0.59041 0.553715 -0.504193 -0.656294 
0.321992 -0.498347 0.795892 0.487808 -0.508455 -0.70692 -0.642861 -0.259725 -0.701408 
-0.538346 -0.263051 -0.787192 -0.737594 -0.249297 -0.619322 -0.738876 -0.642867 -0.161392 
-0.826974 -0.548323 0.0204138 0.135824 0.311679 0.931854 0.920864 -0.350937 -0.0976929 
0.981835 -0.109782 -0.0777461 -0.497608 -0.160533 -0.838715 -0.604673 -0.148039 -0.762709 
-0.374521 -0.364984 -0.830574 
Radius 1 1114 double
0.15 0.15 0.85584108176 0.99218403359 0.15000075911 0.97473886452 0.14999996448 0.97560705024 0.14999901573 
0.86820679249 0.15000018109 0.72551052683 0.15000106001 0.69312003186 0.14999943096 0.71837606301 0.14999939493 0.70832816307 
0.15 0.71966453258 0.14999972429 0.76165067528 0.14999908507 0.82602534081 0.15 0.99919853122 0.15 
1.0814920483 0.15 1.139429402 0.15 1.0887070608 0.15 1.0827068773 0.14999995455 1.0991284047 
0.14999997566 1.1560749212 0.15000009461 1.279244873 0.15 1.4248085304 0.15 1.5298006055 0.15 
1.5153566332 0.15 1.4585946072 0.15 1.3054601286 0.15 1.0598796775 0.15 1.1381127214 
0.15 1.117477469 0.15 1.0211572256 0.15 0.9229790886 0.15 0.87801946839 0.15 
0.84701319253 0.15 0.87047165233 0.15 0.85790487 0.15 0.80548685385 0.15 0.77069616787 
0.15 0.78028763778 0.15 0.87323560322 0.15 1.0057434064 0.15 0.95662210979 0.15 
0.9533257778 0.15 1.0705025915 0.15 0.15 1.5351037051 1.5189697104 0.15 1.5271497918 
0.15 1.3347869756 0.15 1.2259793587 0.15 1.203852237 0.15 1.1833658073 0.15 
1.1979809955 0.15 1.2628884253 0.15 1.3462060626 0.15 1.4284862788 0.15 1.5364975822 
0.15 1.6480930802 0.15 1.7476060255 0.15 1.8287160922 0.15 1.6591604666 0.15 
1.5180086573 0.15 1.4034866402 0.15 1.3946671814 0.15 1.362258157 0.15 1.3120129678 
0.15 1.2292303557 0.15 1.1977797369 0.15 1.2403468277 0.15 1.3672663914 0.15 
1.2802763236 0.15 1.3061006229 0.15 1.2335403807 0.15 1.1971250011 0.15 1.3571017204 
0.15 1.464131859 0.15 1.5509302364 0.15 1.6224232904 0.15 1.6536683694 0.15 
1.5906957156 0.15 1.7321072592 0.15000009657 1.8448233626 0.1500005542 1.8025300097 0.15000043933 1.7315598648 
0.15 1.6576372 0.15 1.4659325031 0.15 1.3012074015 0.15 1.1374756269 0.15 
0.99642504277 0.15 0.85498169205 0.15 1.0730065275 0.15 1.2267617287 0.15 1.3492752974 
0.15 1.4232193307 0.15 1.4661119268 0.15 1.4992588147 0.15 1.5227737626 0.15 
1.3868481106 0.15 1.276167415 0.15 1.2770946546 0.15 1.2883594269 0.15 1.3040603136 
0.15 1.4153392604 1.2249526761 1.2023289054 1.2777253133 1.1234516763 0.88131677422 0.76858026367 0.72742898139 
0.72818654371 0.75813565542 0.82935098914 0.97916856658 1.2290351716 1.5222937705 1.5398129627 1.4519585241 1.3671575114 
1.31413232 1.3183498671 1.3930383732 1.6026180066 1.7823820206 1.8076401094 1.6892411176 1.5606957183 1.3617408255 
1.4771806435 1.4593560417 1.3701964265 1.2254185891 1.0928030487 1.006871992 1.0103291111 0.98554484146 0.94946732776 
0.95129894291 1.0143261563 1.165013752 1.4485256774 1.6482539201 1.7199924248 1.6587606001 1.3755881917 1.5063947648 
1.5474193654 1.4618982287 1.3582606464 1.2595141879 1.2983249237 1.396990051 1.4462908197 1.5076597555 1.5878051044 
1.6056799555 1.6998317563 1.775223815 1.8520801257 1.7061238749 1.518762052 1.3913101225 1.3509799845 1.2888893804 
1.2282632596 1.1829035115 1.1970868297 1.308595758 1.4454086729 1.5272882801 1.4827941609 1.5073748061 1.4467573511 
1.3995210866 1.4169116003 1.509610095 1.5928029046 1.6576561432 1.6774172846 1.8731479338 2.0152039816 2.1042429894 
2.0092260957 1.8524793892 1.6439091356 1.4710656179 1.3876098932 1.2458393284 1.1196405196 1.230683435 1.3085586665 
1.4475090291 1.5318260951 1.5368430196 1.5602126366 1.5726576581 1.4978957328 1.4500766146 1.4424630259 1.459321241 
1.4647395059 1.5357680103 1.6000878092 1.6197086834 1.6796081448 1.0616989306 1.2462184587 1.00167444 0.96641318045 
0.91565805266 0.96167981085 1.0608809498 1.2168883374 1.4878980589 1.8779931942 1.9483265745 1.8424715888 1.6379024998 
1.4709853118 1.4271067715 1.4500929637 1.5841619588 1.746821869 1.8781605692 1.736241924 1.6386689714 1.8213910182 
1.7516534539 1.8208253811 1.6697205322 1.5111163159 1.3662739343 1.2550154693 1.1932617922 1.1745770078 1.1580921035 
1.197965333 1.3026622913 1.4897859449 1.8892982651 1.9888750058 1.935569405 1.8293611957 1.5091852868 1.3752698119 
1.4235101078 1.7030473657 1.6304864517 1.7298916119 1.8210841114 1.7235105817 1.578219925 1.4751777236 1.4327787173 
1.5111857174 1.5745833714 1.6405814894 1.9242840778 1.7637819488 2.0633029894 2.1714039701 2.0724191621 1.9083233193 
1.5991110848 1.4976428369 1.5448374532 1.4187592595 1.3044794348 1.3097767086 1.3909561674 1.5209085433 1.5652526812 
1.5522216202 1.5811148983 1.6059193855 1.5784181236 1.5666784412 1.6089027174 1.5634231163 1.5083352142 1.6042467046 
1.6549411807 1.5887984112 1.4825118934 1.3210504315 1.2917189916 1.2308754719 1.4023964942 1.5195718468 1.5773635014 
1.6639959724 1.7065920892 1.6727407904 1.7103402476 1.7767642132 1.8758134469 1.8228858897 1.6597245183 1.4920766714 
1.4009277044 1.3185486682 1.219553708 1.2406078082 1.2645229545 1.2944599168 1.3447051051 1.544475565 1.7482119936 
2.0803603995 1.9654869917 1.6675365991 1.6712379231 1.9019334405 1.7717156677 1.9650687587 1.9922457602 1.9621056231 
1.8096935921 1.6412123506 1.4603937737 1.3534163998 1.2789060007 1.287542773 1.2961749997 1.3277710669 1.3897068243 
1.4989078428 1.645102446 1.8273229384 1.8957610869 1.6989209404 1.5118860856 1.3702338254 1.4287227056 1.3414298356 
1.434777798 1.2932125117 1.2344732509 1.1706846925 1.1599827902 1.2343584793 1.4007205356 1.650318515 2.0108010251 
2.2322064773 2.0706568057 1.8170025446 1.5961205 1.544154665 1.5526228607 1.631477062 1.7523716694 1.8605479572 
1.7316356799 1.5625583709 1.5341186619 1.5704429711 1.8838987605 1.6974807794 1.9593220704 1.6162156809 1.7050342516 
1.9069999993 1.9161779008 1.8938190201 1.6905228291 1.8390826776 1.6206162407 1.4872974631 1.5083099944 1.5679119658 
1.6525253861 1.794924549 1.7657895508 1.912946944 1.6746799042 1.6957374653 1.7940186904 1.8297459868 1.8761179521 
1.8309451663 1.7437611446 1.5035574073 1.5708546292 1.7861591276 1.6581660525 1.4694010098 1.4011636703 1.4407490688 
1.5553868114 1.5713098073 1.552031323 1.6297029147 1.6829855297 1.6490885463 1.6442768423 1.681702128 1.6471538009 
1.5708342242 1.6818935246 1.7094401006 1.6338420821 1.4701590328 1.2493847526 1.2006817801 1.2206379773 1.392381846 
1.5236178587 1.6243775313 1.6614006587 1.6827342089 1.63847006 1.6872638982 1.748417802 1.9034113317 1.9585898455 
1.8957842521 1.4735294865 1.5703270739 1.3709539858 1.2770305949 1.2608998265 1.2699202729 1.2979417104 1.3684233247 
1.5013060559 1.6576287394 1.7893954076 2.2139657193 1.9789834306 2.2341907609 2.1178891933 1.7881055034 1.5984361775 
1.6207185239 1.660146764 1.656425347 1.5549358026 1.7776742258 1.9068653781 2.157186785 2.0357630719 2.346236517 
2.4397468623 2.2444197716 1.9049357205 1.7502955007 1.6892322826 1.8060632341 1.737225066 1.8744971371 2.0279250938 
1.9787124391 1.9170265952 1.8252691677 1.6591137206 1.4832389537 1.3709424686 1.3362345995 1.3400561199 1.33648944 
1.3691705105 1.3983976643 1.3917951776 1.4902493756 1.5590935478 1.7094815503 1.5449828098 1.8062671046 1.8011299645 
1.7132502982 1.6006225302 1.4955636444 1.5033057089 1.5604002025 1.7050320457 1.8105650456 1.8277992448 1.9432716151 
2.0556998223 2.0397956506 1.8251896588 1.6073578753 1.4934585616 1.4259469998 1.3978128371 1.366358836 1.2909235374 
1.309131918 1.4910919922 1.8097368703 2.0473153893 2.2890061551 1.8785188489 2.0929526426 1.7082943793 1.6080508625 
1.619627461 1.6756535436 1.7523817084 1.7468692269 1.6820150237 1.6006924098 1.6362212623 1.5634654441 1.5705942057 
1.7569901992 1.6788001595 1.8753644414 1.9673483144 2.3164208017 2.360323211 1.9951545109 1.8661084101 1.9859988849 
2.0010007649 1.856540926 1.773556201 1.7134550364 1.6021638402 1.5934764098 1.562438549 1.5529514936 1.5050102657 
1.3757679387 1.5229611642 1.9444173484 1.8102016669 1.5390307567 1.4083587002 1.480047829 1.6221678777 1.620198251 
1.6778927203 1.7356079712 1.7471865309 1.7003054919 1.6909884003 1.7455794785 1.7048901677 1.6409666064 1.6625905351 
1.5667746964 1.6317441968 1.3890234142 1.2248872678 1.2233306818 1.2575163777 1.4114358835 1.4964994551 1.5089852152 
1.4998587584 1.5050709834 1.5408257222 1.6226558609 1.7252748489 1.8946404757 2.0164615831 1.9567423336 1.9510971623 
1.868319909 1.9037101443 1.8262378573 1.6937247503 1.6027816974 1.4540786453 1.3202655949 1.3341638506 1.370486515 
1.6915024013 1.7357614741 1.8889436245 1.9521822953 2.0047802588 1.8852576006 2.0218496256 1.8530929665 1.6932921459 
1.5899374392 1.4780857738 1.4562267071 1.4404021597 1.4609576616 1.4732719069 1.4486597189 1.5842496676 2.0288924687 
2.1475591691 1.8172369469 1.4490253167 1.5533979039 1.7079418798 1.7252820778 1.7596850779 1.8088845767 1.8166913212 
1.7339307122 1.6744704042 1.6285189945 1.6382298912 1.6273815537 1.7153159626 1.7824924248 1.7555514919 1.8214097316 
1.6548995595 1.5616074914 1.470629509 1.3626496194 1.2348918966 1.2196248085 1.2272091098 1.3042138367 1.357421921 
1.3864191933 1.3647455085 1.362054185 1.4919322676 1.6300884885 1.774630888 1.887815247 1.978782577 1.9256380074 
1.8993711102 1.8838422486 1.8313668685 1.8071866359 1.7760960503 1.7188938531 1.6077194424 1.5118381122 1.5230214887 
1.9880465782 1.938074811 1.9010372441 1.8193119082 1.6586026835 1.5041043187 1.3703754627 1.2972582039 1.2541417258 
1.2986915207 1.3226558983 1.3327433336 1.3202144956 1.3867287473 1.4628913173 1.3854379194 1.5158157303 1.3461697907 
1.7155382114 1.8034901162 1.8590544757 1.7383997888 1.6040314987 1.6103222695 1.6721081681 1.7596575546 1.9021678638 
2.0219162226 2.1125049403 2.0956333142 1.9148967414 1.7095996838 1.5551318822 1.5068356165 1.5484576934 1.5787889949 
1.4735506468 1.4017743808 1.5358068334 1.8428114841 2.012723793 2.1210204196 2.1989329348 2.158890736 2.1635177925 
2.1254401202 2.0306320725 1.8623838645 1.7206946957 1.678369598 1.6920323151 1.7233940801 1.7713492278 1.8492965263 
1.8469907725 1.8314572673 1.8257274049 1.6614426757 1.5869041883 1.6515821027 1.7674255235 1.7575234651 1.7686452961 
1.7815991796 1.8716570259 1.7142996846 1.4869975534 1.4697979967 1.4452412929 1.4943595469 1.5583967661 1.5181578557 
1.5390124276 1.89452425 2.1723152185 1.5055204409 1.8069748927 1.6223188802 1.704492097 1.7419405472 1.7849269923 
1.8274124736 1.8385162211 1.7832747881 1.7496393769 1.747966423 1.7573792552 1.7662894782 1.7707691492 1.78595862 
1.7634410807 1.7581583583 1.7047802347 1.7496762207 1.6625364087 1.5684467113 1.4814134876 1.3886782913 1.2951642334 
1.2866362424 1.2742782298 1.2635551547 1.2748001051 1.3368820935 1.2854472818 1.4287471687 1.3050413409 1.6020913201 
1.7895848043 1.887688873 2.1034503292 2.0941123398 1.7966371811 1.8542176736 1.8271209108 1.8274246422 1.6622102445 
1.671139365 1.8952812574 1.8624106308 1.8668439881 1.8589683337 1.6813304058 1.5157486598 1.3749499735 1.2545787356 
1.1052091173 1.1598655746 1.2417176581 1.272502018 1.2540339323 1.2890689843 1.2675149985 1.41888802 1.4290721968 
1.5342662943 1.6786254343 1.7374713169 1.7901652595 1.6846069599 1.6298924061 1.6759113854 1.731153526 1.7853327683 
1.9309808983 2.0480170374 2.1367069649 2.1051079444 1.972848657 1.8208867444 1.6509543217 1.6267855535 1.6897139834 
1.7898193828 1.6975633424 1.614415523 1.5449233152 1.7528287621 1.8937669755 1.9139473663 1.9421304478 2.0297183405 
2.0335211973 1.9672386345 2.0524847176 2.0219537304 1.9573303702 1.9004456474 1.8613725563 1.8806102025 1.8977712681 
1.8810365128 1.8904956541 1.9917403946 2.0144099486 2.0040073407 1.8487920833 1.6944215603 1.6237159297 1.6291558489 
1.7310270493 1.7310495983 1.7469687357 1.7529669524 1.6446015969 1.7728318793 1.9201110943 1.9639550019 2.0410047999 
2.2552476892 2.3973588097 2.4591033639 2.1994861044 1.9085385735 1.7568097569 1.7415570644 1.7700735585 1.7809198043 
1.8053435285 1.8448785629 1.8724047183 1.8229717347 1.8365776525 1.7765934707 1.8299068676 1.8218363503 1.6760773782 
1.5306141416 1.3993795597 1.2411349164 1.0487671535 1.0507472069 1.1349946901 1.2120362584 1.2240953749 1.4759395931 
1.3607917554 1.3609358233 1.5836515314 1.5998733812 1.6202736984 1.6503093103 1.6758877251 1.6365797609 1.5846651264 
1.6351355063 1.6967332033 1.7463865484 2.0038355163 1.966432238 2.0503848393 2.026702554 1.9325156624 1.7705938014 
1.5859629434 1.6275470891 1.8197305832 2.0651088757 1.7130096956 1.869387049 1.5892759717 1.6324747316 1.7734225593 
1.7550549321 1.7603332963 1.8323210618 1.8398023106 1.8400364464 1.7574139153 1.1594700311 1.1236191714 1.7584215225 
1.6649784869 1.5858014135 1.6228809348 1.6984153605 1.8334878666 2.056059794 1.4673290582 1.3745423946 1.4043566045 
1.4220563151 1.4253234815 1.4815299402 1.5813037011 1.8666733914 2.1189095068 1.9409076676 1.9576125921 1.7579900684 
1.5795782438 1.6552117515 1.7102822128 1.7275970208 1.7767430826 1.8356152741 1.8034972957 1.7630406398 1.7744105389 
1.7983607186 1.805314066 1.7812754341 1.7467495018 1.7268125269 1.6923720915 1.5957122119 1.7055020795 1.6022637202 
1.6776214329 1.6591826651 1.6020527331 1.5535540581 1.6725008142 1.7628028776 1.9010364908 1.9180341398 1.9329485597 
1.8524509008 1.8656430802 2.0057333225 2.3093514323 2.1020562048 2.0011203409 1.335540601 1.2895508076 1.2430517168 
1.2438206796 1.2191096164 1.1109901312 1.0207392264 1.0049465163 1.1061539367 1.1821898578 1.2639122845 1.4116236272 
1.6108740965 1.5934564559 1.8299355874 1.7339089221 1.8525817627 1.7992450398 2.2855513368 2.1153693197 1.8643532589 
1.5293415463 1.68601558 1.6031719856 1.6800299504 1.7663945892 1.8473548563 1.8584567067 1.7868916619 1.7482493249 
1.7437135423 1.7291558159 1.7786716169 1.8010225735 1.6289946998 1.6785953432 1.6841706712 1.617821097 1.6535083277 
1.4186740038 1.4849146367 1.4971519787 1.4940016309 1.5754980866 1.7238911639 1.8365043313 1.8878168937 1.7581384599 
1.6307144164 1.6162909909 1.6776050417 1.6746313476 1.6258645476 1.6616641789 1.0833054338 1.169274404 1.3579946254 
1.5914392739 1.6151789087 1.5654033313 1.641164363 1.6084830163 1.682481729 1.7255598204 1.718392973 1.0453920243 
1.6579447785 1.5440271072 1.3950611516 1.8079257315 1.2086969658 1.6851580972 1.6480907418 1.7214063059 1.5604588614 
1.523382896 1.701580778 1.7107892789 1.6654793182 1.7033702941 1.7516596896 1.5817267091 
STJ 1 1114 double
0 0 0 0 0 0 0 0 0 
0 0 0 0 0 0 0 0 0 
0 0 0 0 0 0 0 0 0 
0 0 0 0 0 0 0 0 0 
0 0 0 0 0 0 0 0 0 
0 0 0 0 0 0 0 0 0 
0 0 0 0 0 0 0 0 0 
0 0 0 0 0 0 0 0 0 
0 0 0 0 0 0 0 0 0 
0 0 0 1 1 0 0 1 0 
1 0 1 0 1 0 1 0 1 
0 1 0 1 0 1 0 1 0 
1 0 1 0 1 0 1 0 1 
0 1 0 1 0 1 0 1 0 
1 0 1 0 1 0 1 0 1 
0 1 0 1 0 1 0 1 0 
1 0 1 0 1 0 1 0 1 
0 1 0 0.99999990074 0 0.99999943037 0 0.99999953841 0 
1 0 1 0 1 0 1 0 1 
0 1 0 1 0 1 0 1 0 
1 0 1 0 1 0 1 0 1 
0 1 0 1 0 1 0 1 0 
1 0 0 0 0 0 0 0 0 
0 0 0 0 0 0 0 0 0 
0 0 0 0 0 0 0 0 0 
0 0 0 0 0 0 0 0 0 
0 0 0 0 0 0 0 0 0 
0 0 0 0 0 0 0 0 0 
0 0 0 0 0 0 0 0 0 
0 0 0 0 0 0 0 0 0 
0 0 0 0 0 0 0 0 0 
0 0 0 0 0 0 0 0 0 
0 0 0 0 0 0 0 0 0 
0 0 0 0 0 0 0 0 0 
0 0 0 0 0 0 0 0 0 
0 0 0 0 0 0 0 0 0 
0 0 0 0 0 0 0 0 0 
0 0 0 0 0 0 0 0 0 
0 0 0 0 0 0 0 0 0 
0 0 0 0 0 0 0 0 0 
0 0 0 0 0 0 0 0 0 
0 0 0 0 0 0 0 0 0 
0 0 0 0 0 0 0 0 0 
0 0 0 0 0 0 0 0 0 
0 0 0 0 0 0 0 0 0 
0 0 0 0 0 0 0 0 0 
0 0 0 0 0 0 0 0 0 
0 0 0 0 0 0 0 0 0 
0 0 0 0 0 0 0 0 0 
0 0 0 0 0 0 0 0 0 
0 0 0 0 0 0 0 0 0 
0 0 0 0 0 0 0 0 0 
0 0 0 0 0 0 0 0 0 
0 0 0 0 0 0 0 0 0 
0 0 0 0 0 0 0 0 0 
0 0 0 0 0 0 0 0 0 
0 0 0 0 0 0 0 0 0 
0 0 0 0 0 0 0 0 0 
0 0 0 0 0 0 0 0 0 
0 0 0 0 0 0 0 0 0 
0 0 0 0 0 0 0 0 0 
0 0 0 0 0 0 0 0 0 
0 0 0 0 0 0 0 0 0 
0 0 0 0 0 0 0 0 0 
0 0 0 0 0 0 0 0 0 
0 0 0 0 0 0 0 0 0 
0 0 0 0 0 0 0 0 0 
0 0 0 0 0 0 0 0 0 
0 0 0 0 0 0 0 0 0 
0 0 0 0 0 0 0 0 0 
0 0 0 0 0 0 0 0 0 
0 0 0 0 0 0 0 0 0 
0 0 0 0 0 0 0 0 0 
0 0 0 0 0 0 0 0 0 
0 0 0 0 0 0 0 0 0 
0 0 0 0 0 0 0 0 0 
0 0 0 0 0 0 0 0 0 
0 0 0 0 0 0 0 0 0 
0 0 0 0 0 0 0 0 0 
0 0 0 0 0 0 0 0 0 
0 0 0 0 0 0 0 0 0 
0 0 0 0 0 0 0 0 0 
0 0 0 0 0 0 0 0 0 
0 0 0 0 0 0 0 0 0 
0 0 0 0 0 0 0 0 0 
0 0 0 0 0 0 0 0 0 
0 0 0 0 0 0 0 0 0 
0 0 0 0 0 0 0 0 0 
0 0 0 0 0 0 0 0 0 
0 0 0 0 0 0 0 0 0 
0 0 0 0 0 0 0 0 0 
0 0 0 0 0 0 0 0 0 
0 0 0 0 0 0 0 0 0 
0 0 0 0 0 0 0 0 0 
0 0 0 0 0 0 0 0 0 
0 0 0 0 0 0 0 0 0 
0 0 0 0 0 0 0 0 0 
0 0 0 0 0 0 0 0 0 
0 0 0 0 0 0 0 0 0 
0 0 0 0 0 0 0 0 0 
0 0 0 0 0 0 0 0 0 
0 0 0 0 0 0 0 0 0 
0 0 0 0 0 0 0 0 0 
0 0 0 0 0 0 0 0 0 
0 0 0 0 0 0 0 0 0 
0 0 0 0 0 0 0 0 0 
0 0 0 0 0 0 0 0 0 
0 0 0 0 0 0 0 0 0 
0 0 0 0 0 0 0 0 0 
0 0 0 0 0 0 0 0 0 
0 0 0 0 0 0 0 0 0 
0 0 0 0 0 0 0 0 0 
0 0 0 0 0 0 0 0 0 
0 0 0 0 0 0 0 0 0 
0 0 0 0 0 0 0 0 0 
0 0 0 0 0 0 0 0 0 
0 0 0 0 0 0 0 0 0 
0 0 0 0 0 0 0 0 0 
0 0 0 0 0 0 0 0 0 
0 0 0 0 0 0 0 0 0 
0 0 0 0 0 0 0 0 0 
0 0 0 0 0 0 0 0 0 
0 0 0 0 0 0 0 0 0 
0 0 0 0 0 0 0 
Thickness 1 1114 double
3.0843743587 3.0843743587 1.7116811635 1.9843670672 3.0843725678 1.9494773495 3.0843744065 1.9512136642 3.0843761364 
1.736414245 3.084373816 1.4510218628 3.0843711819 1.3862395711 3.0843762115 1.4367523966 3.084376142 1.4166554335 
3.0843743587 1.4393290494 3.0843751466 1.5233006804 3.084376773 1.6520508744 3.0843743587 1.9983980624 3.0843743587 
2.1629846179 3.0843743587 2.2788584186 3.0843743587 2.1774147493 3.0843743587 2.1654141557 3.0843744295 2.198256635 
3.0843743994 2.3121498424 3.084374223 2.5584897461 3.0843743587 2.8496172107 3.0843743587 3.0596013582 3.0843743587 
3.0307136909 3.0843743587 2.9171902145 3.0843743587 2.6109210426 3.0843743587 2.1197588039 3.0843743587 2.2762257216 
3.0843743587 2.2349555237 3.0843743587 2.0423150016 3.0843743587 1.8459579354 3.0843743587 1.7560380027 3.0843743587 
1.6940265084 3.0843743587 1.7409430805 3.0843743587 1.7158088229 3.0843743587 1.6109739106 3.0843743587 1.5413928787 
3.0843743587 1.5605758955 3.0843743587 1.7464705097 3.0843743587 2.0114864178 3.0843743587 1.9132440229 3.0843743587 
1.9066514403 3.0843743587 2.1410042746 3.0843743587 3.0843743587 3.0702069954 3.0379384475 3.0843743587 3.0542995836 
3.0843743587 2.6695739511 3.0843743587 2.4519583687 3.0843743587 2.4077034968 3.0843743587 2.3667318307 3.0843743587 
2.3959624854 3.0843743587 2.5257760238 3.0843743587 2.6924116399 3.0843743587 2.8569722938 3.0843743587 3.0729942315 
3.0843743587 3.2961855706 3.0843743587 3.4952118205 3.0843743587 3.6574318639 3.0843743587 3.318321193 3.0843743587 
3.0360173706 3.0843743587 2.8069723377 3.0843743587 2.7893340362 3.0843743587 2.7245162533 3.0843743587 2.6240258918 
3.0843743587 2.4584606665 3.0843743587 2.3955595255 3.0843743587 2.4806938154 3.0843743587 2.7345327827 3.0843743587 
2.5605529739 3.0843743587 2.6122022099 3.0843743587 2.467081194 3.0843743587 2.3942500267 3.0843743587 2.7142041993 
3.0843743587 2.9282646523 3.0843743587 3.1018613394 3.0843743587 3.244847384 3.0843743587 3.3073375313 3.0843743587 
3.1813924158 3.0843743587 3.4642150101 3.0843742755 3.6896467253 3.084373881 3.6050600194 3.0843739521 3.4631197295 
3.0843743587 3.3152743608 3.0843743587 2.9318649104 3.0843743587 2.6024145738 3.0843743587 2.2749504809 3.0843743587 
1.9928497145 3.0843743587 1.7099636173 3.0843743587 2.1460136859 3.0843743587 2.4535240525 3.0843743587 2.6985500713 
3.0843743587 2.8464381602 3.0843743587 2.9322244522 3.0843743587 2.9985186295 3.0843743587 3.0455484035 3.0843743587 
2.7736960076 3.0843743587 2.5523340834 3.0843743587 2.5541886122 3.0843743587 2.5767184912 3.0843743587 2.6081213899 
3.0843743587 2.8306786214 2.4499055813 2.4046569098 2.5554502818 2.2469034537 1.7626335484 1.5371606861 1.454858888 
1.4563730973 1.5162713735 1.6587024579 1.9583373668 2.458070549 3.0445876955 3.079626032 2.9039166643 2.7343153321 
2.628263897 2.6366988285 2.7860765419 3.2052363307 3.5647650412 3.6152812188 3.3784828845 3.1213911136 2.7234816509 
2.9543619159 2.9187123231 2.7403928531 2.4508371371 2.1856054202 2.0137447524 2.0206583805 1.9710893555 1.898933756 
1.9025977918 2.0286530791 2.3300272663 2.8970512433 3.2965069392 3.4399850207 3.3175215157 2.7511755153 3.0127895297 
3.0948383602 2.9237964574 2.7165212929 2.5190283757 2.5966498475 2.7939801021 2.8925819155 3.0153192363 3.1756096242 
3.2113594594 3.3996632714 3.5504479564 3.7041607607 3.4122484967 3.0375244233 2.7826211832 2.7019603633 2.5777784961 
2.4565261502 2.3658067007 2.3941728981 2.6171915497 2.8908166086 3.0545765601 2.9655883218 3.0147496121 2.8935145109 
2.7990419605 2.8338237288 3.0192202575 3.1856058091 3.3153120193 3.3548341958 3.746296052 4.0304079602 4.2084860584 
4.0184525946 3.7049591094 3.2878178902 2.9421305197 2.7752194758 2.4916784762 2.2392809713 2.4613662283 2.6171168806 
2.8950179673 3.0636528326 3.0736866874 3.1204261835 3.1453157194 2.995790859 2.900152446 2.8849258361 2.9186426638 
2.9294791829 3.0715358051 3.2001746866 3.2394173668 3.3592152927 2.1233974762 2.492435933 2.0033487142 1.9328263875 
1.8313169765 1.9233592406 2.1217620574 2.4337766747 2.9757956495 3.7559863884 3.896653149 3.6849432554 3.2758056325 
2.9419707439 2.8542141737 2.9001858946 3.1683242924 3.4936444827 3.7563205436 3.4724844864 3.2773389428 3.6427821792 
3.5033069077 3.6416508859 3.3394412427 3.0222333079 2.7325478686 2.5100309385 2.3865232579 2.3491538517 2.3161838876 
2.3959312759 2.6053253426 2.9795728897 3.7785972563 3.9777503055 3.871138397 3.6587223038 3.0183705735 2.7505398211 
2.8470207498 3.4060949719 3.26097356 3.4597834734 3.6421683178 3.4470217679 3.1564400385 2.9503562076 2.8655579574 
3.0223707251 3.1491669559 3.2811634582 3.8485671556 3.5275635418 4.126605358 4.3428080383 4.1448385023 3.8166466997 
3.1982216225 2.9952849687 3.0896746382 2.837517546 2.608958596 2.6195528034 2.7819120044 3.0418176641 3.1305058186 
3.1044432242 3.162229319 3.2118379694 3.1568355834 3.1333561124 3.217805529 3.1268467134 3.0166708649 3.2084936559 
3.3098819196 3.1775958252 2.9650236235 2.6421014484 2.583438524 2.4617514092 2.8047929884 3.0391436936 3.1547272866 
3.3279927983 3.4131845349 3.3454808572 3.4206801027 3.5535284087 3.7516263493 3.6457717899 3.319449898 2.9841533435 
2.8018556019 2.6370975611 2.439108237 2.4812161966 2.5290455853 2.5889195083 2.6894102103 3.0889509242 3.4964234817 
4.1607206333 3.9309735788 3.3350729802 3.3424758463 3.8038660966 3.543431107 3.9301378257 3.9844921378 3.9242112463 
3.6193871842 3.2824247012 2.9207875473 2.7068327997 2.5578114895 2.5750847812 2.5923499664 2.6555422047 2.7794131408 
2.9978146857 3.290203892 3.6546459091 3.7915229803 3.397841445 3.023772409 2.7404674712 2.8574457443 2.6828589727 
2.8695555502 2.5864240235 2.468946179 2.3413695223 2.3199650004 2.4687163359 2.8014410711 3.30063703 4.0216012093 
4.4644134881 4.1413129336 3.6340048854 3.1922406879 3.0883093301 3.1052450561 3.2629531241 3.5047424997 3.7210957766 
3.4632709436 3.1251177418 3.0682378383 3.1408855997 3.7677965697 3.3949609411 3.9186434876 3.2324303942 3.4100680128 
3.8139992276 3.8323550019 3.7876380403 3.3810451165 3.6781653419 3.2412322303 2.9745946801 3.0166202116 3.1358243851 
3.3050510417 3.5898494526 3.5315794442 3.8258946681 3.3493594649 3.391474909 3.5880383402 3.6594927471 3.7522366286 
3.6618907554 3.4875221538 3.0071141046 3.1417083957 3.5723189637 3.316332337 2.9388014821 2.8023276645 2.8814985153 
3.1107732951 3.1426194719 3.1040636159 3.259406277 3.3659709501 3.2981776443 3.2885546445 3.3634051737 3.2943085512 
3.141669418 3.3637873768 3.4188811943 3.2676845129 2.9403183233 2.4987703673 2.4013645603 2.441276923 2.7847633523 
3.0472348592 3.2487542432 3.3228006248 3.3654682933 3.2769404954 3.3745287068 3.4968365582 3.8068225043 3.9171792591 
3.7915683168 2.9470586035 3.14065347 2.7419081155 2.5540613768 2.521799653 2.5398405457 2.5958834208 2.7368467442 
3.0026128184 3.3152572073 3.5787909846 4.4279314662 3.9579668692 4.4683805219 4.2357773865 3.5762103352 3.1968723028 
3.2414370478 3.320293528 3.3128496939 3.1098711598 3.5553477233 3.8137306678 4.3143735063 4.0715251716 4.6924738653 
4.8794939444 4.4888397491 3.8098722862 3.5005914669 3.3784645652 3.6121268317 3.4744502618 3.7489949266 4.0558501876 
3.9574248782 3.8340532357 3.6505383354 3.3182278854 2.9664784334 2.7418854691 2.6724693898 2.6801120745 2.6729789273 
2.7383412136 2.7967956893 2.7835900953 2.9804981784 3.1181861122 3.4189633116 3.0899658941 3.6125342092 3.6022599289 
3.4265013595 3.2012456158 2.9911281217 3.0066114696 3.1207998855 3.4100650115 3.6211290911 3.6555986504 3.8865425801 
4.1113988718 4.0795905116 3.6503789584 3.2147155929 2.9869163495 2.851893236 2.7956257859 2.7327179318 2.5818465897 
2.6182631963 2.9821838315 3.6194727996 4.0946306966 4.5780123102 3.7570367759 4.1859051176 3.4165894898 3.2161018725 
3.2392543309 3.3513060872 3.5047624168 3.4937374539 3.3640290754 3.2013838196 3.2724417194 3.1269303278 3.1411883818 
3.5139802578 3.3575999121 3.7507286208 3.9346958839 4.6328416034 4.7206459578 3.9903100053 3.7322175476 3.9719987698 
4.0020014868 3.7130820458 3.5471126512 3.4269105616 3.2043280303 3.1869528197 3.1248770979 3.1059026399 3.0100196625 
2.7515352858 3.045921907 3.8888342846 3.6204033572 3.078061968 2.8167175035 2.960096048 3.2443362505 3.2403966177 
3.3557863953 3.4712163538 3.4943729327 3.4006104298 3.3819765988 3.4911596454 3.4097806697 3.2819335943 3.3251815199 
3.1335492556 3.263488238 2.7780465211 2.4497741859 2.4466610085 2.5150323361 2.8228709722 2.9929989069 3.0179711088 
2.9997178286 3.0101419668 3.0816514444 3.245312125 3.4505506685 3.7892812258 4.0329230129 3.9134847994 3.9021941173 
3.7366399703 3.8074196263 3.6524760211 3.3874495007 3.2055633182 2.9081570676 2.6405312752 2.6683276369 2.7409731072 
3.3830047268 3.4715223088 3.7778881296 3.9043640881 4.0095598017 3.7705158675 4.0436993102 3.7061865567 3.3865842917 
3.1798748784 2.9561716707 2.9124539887 2.8808052262 2.9219157092 2.9465437 2.8973186834 3.1684987386 4.0577850595 
4.2951187217 3.6344738939 2.8980507814 3.1067953282 3.4158827595 3.4505631555 3.5193695405 3.6177684724 3.6333819496 
3.4678612784 3.3489408083 3.2570379889 3.2764597823 3.2547631073 3.4306321375 3.5649847887 3.5111023243 3.6428195261 
3.3097989923 3.1232154888 2.9412596481 2.7252991984 2.4697834658 2.439249334 2.4544180358 2.6084282687 2.7148444022 
2.7728382773 2.7294908904 2.7241080834 2.983864508 3.2601766685 3.5492609676 3.7756301304 3.9575650341 3.8512757741 
3.7987429188 3.7676841668 3.662734593 3.614374207 3.5521921753 3.4377876491 3.2154386158 3.0236760349 3.0460427249 
3.976092575 3.8761498998 3.8020754882 3.6386247131 3.3172057625 3.0082082102 2.740751432 2.5945173149 2.5082843951 
2.5973831444 2.6453121606 2.6654875836 2.640429823 2.7734578097 2.9257822495 2.7708768389 3.0316320187 2.6923401587 
3.4310765218 3.6069806256 3.7181082172 3.4767996639 3.2080639974 3.220645539 3.3442165006 3.5193141092 3.8043349731 
4.0438321066 4.2250098315 4.1912663743 3.8297932875 3.4191993676 3.1102637938 3.0136707687 3.0969154091 3.1575788258 
2.9471008733 2.8035488192 3.0716146147 3.6856233864 4.0254472674 4.2420401734 4.3978650905 4.3177818211 4.3270365853 
4.2508802404 4.0612641451 3.7247677124 3.4413893914 3.3567391961 3.3840645837 3.4467882265 3.5426990614 3.6985930175 
3.6939807145 3.6629140346 3.6514548237 3.3228857251 3.1738077249 3.3031637101 3.5348510219 3.5150467607 3.537290693 
3.5631987988 3.7433143735 3.4285990024 2.9739951516 2.9395960348 2.890482653 2.9887192191 3.1167936331 3.0363156715 
3.0780248552 3.7890485 4.344630537 3.0110413264 3.6139502621 3.2446371902 3.4089831941 3.4838806207 3.5698538536 
3.6548242971 3.6770317338 3.5665498477 3.4992794257 3.4959325328 3.5147578284 3.5325792315 3.5415392286 3.5719178591 
3.5268825397 3.5163168273 3.4095606281 3.4993527392 3.3250726635 3.1368925552 2.9628260091 2.7773555973 2.5903275783 
2.5732719611 2.5485564327 2.5271100607 2.5495996004 2.673763944 2.5708948313 2.8574953099 2.6100825875 3.2041831855 
3.5791703166 3.7753780447 4.2069006585 4.1882252642 3.5932735403 3.7084356927 3.6542418526 3.6548494133 3.3244198385 
3.3422788334 3.7905628998 3.7248220133 3.7336889192 3.717937538 3.3626618117 3.0314981427 2.7499009217 2.5091584713 
2.2104188635 2.3197306141 2.4834348282 2.5450040135 2.5080673204 2.5781384808 2.5350296081 2.83777504 2.8581434663 
3.0685322137 3.3572505263 3.474942181 3.5803305596 3.3692144939 3.2597855308 3.3518229245 3.4623067403 3.5706645914 
3.8619612876 4.0960340749 4.2734139297 4.2102160592 3.9456980372 3.6417742396 3.301908824 3.253571107 3.3794280901 
3.5796389014 3.3951266848 3.2288310461 3.0898468253 3.5056584092 3.787534521 3.8278941063 3.8842604865 4.0594365417 
4.0670430096 3.9344775141 4.1049698564 4.0439075192 3.9146607453 3.8008909995 3.7227446248 3.7612204049 3.7955419111 
3.7620727192 3.7809921671 3.9834810911 4.0288198971 4.0080146814 3.6975847835 3.3888434357 3.2474318595 3.2583116979 
3.4620540987 3.4620996096 3.4939372898 3.5059342105 3.2892035503 3.5456645591 3.8402222636 3.927909419 4.0820095998 
4.5104953784 4.7947178333 4.9182060119 4.398971533 3.8170765864 3.5136197893 3.4831150438 3.5401479003 3.561839241 
3.6106873683 3.6897566765 3.7448094985 3.6459428443 3.673155305 3.553187022 3.6598140085 3.6436717588 3.3521537837 
3.0612274493 2.7987591978 2.4822706892 2.0975351497 2.1014952383 2.2699892773 2.4240715798 2.4481903773 2.9518792256 
2.7215832428 2.7218715908 3.1673020628 3.1997457624 3.2405471983 3.3006191337 3.3517758116 3.2731597076 3.1693303888 
3.270271365 3.3934668912 3.4927740161 4.0076710189 3.9328642089 4.1007690949 4.0534045927 3.8650312928 3.5411871667 
3.1719257182 3.2550939316 3.6394609828 4.130217792 3.426019169 3.738774098 3.1785519814 3.2649500986 3.5468456767 
3.510110272 3.5206664377 3.6646426051 3.6796050686 3.6800729215 3.5148274621 2.318940401 2.2472393214 3.5168430449 
3.3299574804 3.171603613 3.2457621694 3.3968307211 3.6669751947 4.1121193062 2.9346579645 2.7490851089 2.8087138567 
2.8441131236 2.8506475319 2.9630597664 3.1626066362 3.7333464382 4.2378195765 3.8818162622 3.9152253335 3.5159801367 
3.1591564875 3.310423503 3.4205645474 3.4551942628 3.5534859991 3.671229865 3.6069937892 3.5260809732 3.5488212213 
3.5967214438 3.6106282262 3.5625514559 3.4935000037 3.4536258597 3.384744795 3.1914247494 3.4110038386 3.2045273824 
3.355243199 3.3183661296 3.2041057721 3.1071085408 3.3450017142 3.525605611 3.8020731921 3.8360690423 3.8658978928 
3.7049027999 3.7312860885 4.0114666257 4.6187021049 4.2041124095 4.0022406819 2.6710810556 2.5791015974 2.4861028265 
2.4876413499 2.4382198237 2.2219806094 2.0414776045 2.0098931356 2.2123082934 2.3643801054 2.5278247519 2.8232463514 
3.221747823 3.186913192 3.6598711749 3.4678175174 3.7051635254 3.5984905923 4.571102243 4.230737872 3.7287061691 
3.0586830069 3.3720315461 3.2063441114 3.3600600594 3.5327894372 3.6947100517 3.7169136114 3.5737835694 3.4964980796 
3.4874267607 3.4583124065 3.5573442234 3.6020461019 3.2579896773 3.3571916305 3.3683405303 3.23564166 3.3070164976 
2.8373473394 2.9698286177 2.9943030707 2.9880025821 3.1509960724 3.4477823278 3.6730086627 3.7756337874 3.5162766938 
3.2614280819 3.2325812812 3.3552099158 3.3492626953 3.2517296662 3.3233291368 2.1666100827 2.3385482345 2.7159888987 
3.1828786677 3.2303585508 3.1308067145 3.2823289253 3.2169657169 3.3649640391 3.4511201486 3.4367859522 2.0907842948 
3.3158887164 3.0880533385 2.7901221788 3.6158522566 2.4173940219 3.370316069 3.2961812404 3.4428128123 3.1209178025 
3.0467666566 3.4031615561 3.4215789925 3.3309593969 3.4067415881 3.5033203791 3.1634528604 
Total_Motion 1 1114 double
6.0221620875 6.0093606116 6.1114761226 6.0869437831 6.2140964798 6.1887911144 6.3903449195 6.3605980702 6.5780357387 
6.620736488 6.8428934621 6.8755203189 7.0656214845 7.1001345127 7.3859137968 7.3129290258 7.7584940067 7.5833075845 
8.2183964565 7.8764669612 8.8176299428 8.3160138739 9.5996055754 8.880163091 10.432549727 9.5032326931 11.027730418 
10.066724557 11.302051973 10.349461875 11.298475196 10.434561048 11.181606327 10.405808259 10.968987591 10.231286378 
10.659018742 9.9893505037 10.266537515 9.6544717467 9.8032372935 9.2954153663 9.3198676857 8.8183865141 8.8759506027 
8.3235550436 8.4001324664 7.8494989181 7.9001352954 7.3380705954 7.4406872484 6.9342686529 7.0393663586 6.5707841734 
6.6491485729 6.1859858938 6.3498133185 5.9265912317 6.2174828045 5.7942770835 6.3201880257 5.8687783479 6.5591924728 
6.1384963186 6.8440273488 6.401874177 7.0860949614 6.6356111172 7.1985687996 6.7462176548 7.0126562659 6.6540701624 
6.8924288665 6.5170074821 6.6702566514 6.3042565706 6.4731181875 6.1594210437 6.3095702538 6.1587029495 6.1542542261 
6.1253234153 6.0304370326 6.1160549057 9.3839756225 9.3408697468 8.7225459851 8.7925159631 9.2819742792 8.6285151158 
9.1771742097 8.4679549546 9.0440912384 8.3280409468 8.8861179714 8.2008579465 8.7773250586 8.0547982591 8.668708925 
7.921628972 8.5561411691 7.7959706307 8.4354829825 7.7243314691 8.3024964003 7.6731223534 8.1523815939 7.6234483555 
8.1253992185 7.6821393067 8.1667513557 7.7667973061 8.2680099 7.8505850118 8.4190125258 7.9294590637 8.4662053366 
7.989934069 8.4527245195 8.0324818992 8.4308428919 7.9192300997 8.2788871814 7.7593801918 8.0536837708 7.5731318984 
7.7733939958 7.3032127288 7.5800908163 7.0971898187 7.450225911 6.9623384775 7.4190598678 6.9764748251 7.4230529207 
7.1602739235 7.4455253822 7.2305358032 7.3995939391 7.1993935071 7.3200931879 7.1393072395 7.1920215562 6.9761764387 
6.9867263853 6.7005760596 6.7609675665 6.3618645368 6.5524128185 6.0242089821 6.3468109613 5.6796064855 6.1442241453 
5.4717692467 6.1904817058 5.4565551286 6.2977758194 5.5159322264 6.4978638273 5.7143408388 6.6675650513 5.8966499714 
6.8122835219 6.066661571 6.7734121597 6.1284287584 6.7589089846 6.1836119699 6.7827866079 6.2281413914 6.8949381235 
6.3353070396 7.0510525311 6.4956970567 7.3841648752 6.8045535735 7.731343007 7.165084099 8.1092357247 7.5859941605 
8.4548825335 7.9163335733 8.7739239639 8.176848177 8.7761370682 8.1897492245 8.6965107263 8.1644259228 8.5889581072 
8.1331834084 8.5384778135 8.135061684 8.6485578107 8.2317001048 8.8141886622 8.3807847229 9.0363300665 8.5474458181 
9.2178692978 8.6817567925 6.2843295813 6.1756439222 6.4031112482 6.7825580489 7.0768240275 7.2389179234 7.4037114029 
7.6297888087 7.8798057535 8.1212211014 8.4521145133 8.8692701768 9.2565258773 9.4952157379 9.5910851341 9.6073803332 
9.4817370393 9.3631501435 9.2459723759 8.959311052 8.596688208 8.168870155 7.6648779962 6.998132415 6.5139718598 
6.1393543927 5.8071254132 5.6172915722 5.5902531849 5.6823358016 5.9360394049 6.1958854701 6.4397187539 6.5534616102 
6.4698390967 6.3704859627 6.2189834851 6.1303390524 6.1799844847 6.2293464027 6.2067372014 6.1947261271 7.881120829 
7.9646076657 7.7467163171 7.589771637 7.411407625 7.2091245908 7.0550506915 6.9678868845 6.9924701593 7.0685140541 
7.1178301187 7.2092971615 7.3458744566 7.4516721688 7.5342985106 7.6012295937 7.6438422116 7.5693840544 7.4349504476 
7.2353269263 7.009348967 6.8094099901 6.6660634123 6.6080708342 7.1408537924 7.0426331391 7.1768885053 7.1731001303 
6.9858374309 6.7098717582 6.3508186832 5.923146022 5.3783176814 5.0085815177 4.9929690346 4.99787121 5.0731202164 
5.2016940719 5.294242514 5.3666418946 5.444755905 5.530411143 5.7060827066 5.9259288309 6.1679785431 6.5041821329 
6.9335103653 7.2861083257 7.5618466245 7.5666446832 7.5444920488 7.475943276 7.4538476265 7.5570691049 7.7232592887 
7.9006276604 7.9493900981 8.0118291747 6.9424606326 6.9030121145 7.3052311259 7.1703712779 7.4495104258 7.5638768776 
7.6980876497 7.8792864982 8.0338631284 8.2101609513 8.4459040473 8.6384920007 8.7736423883 8.8751671914 8.9045600987 
8.8444316209 8.8692654414 8.8145448792 8.6563898775 8.4076855073 8.083401733 7.7080167706 7.2810306983 6.0156308975 
6.2940564045 5.7678727105 5.6790721317 5.7067626628 5.8122208204 6.0987363103 6.3547551545 6.5779746249 6.7062852673 
6.6286647437 6.5561412419 6.4884537393 6.5305773382 6.4829843692 6.3701474391 6.2958767416 6.2613883407 6.3322009709 
6.3822348167 6.6530451683 6.9912184639 7.1906856596 7.245425331 7.4084115438 7.4523819177 7.2340616192 6.9416765561 
6.5929436291 6.2327378178 5.9278590943 4.6762987226 4.8455651547 4.640168869 4.6371529194 4.643762229 4.6857469986 
4.7495623305 4.8268294931 4.9129383784 5.1308132057 5.3129061696 5.5356141907 5.808009184 6.090347977 6.3913013108 
6.6827537431 6.7006375104 6.6832598317 6.6253505202 6.6146341389 6.7669668283 6.917340308 7.0686875783 7.0496936985 
7.1241861056 7.0606016853 7.0035483001 6.9113058484 6.820284538 6.6635207534 6.4467516509 6.3085517015 6.2383851585 
6.3945822949 6.5290816038 6.6502612547 6.7812914745 6.9199039477 7.0568386161 7.1431766848 7.157798496 7.2719462556 
7.2668664279 7.1645151359 6.9766033881 6.8091721545 6.6363003828 6.5777423154 6.4839669964 6.7501689691 7.1704647202 
7.7618773274 7.594463076 5.2407306405 5.8126065213 6.6622347006 6.9557502572 6.3957721829 6.1753384701 5.9968974976 
5.9739003172 6.0901566827 6.3300635658 6.6018013512 6.8124677685 6.9282034822 6.9486467574 6.8974995216 6.8398167548 
6.7724206445 6.7355514217 6.4793945049 6.6497747754 6.3264957931 6.293666569 6.3936601913 6.4740730835 7.5960509507 
7.461112846 7.7021951878 7.7771595586 7.8448068149 7.9356967532 8.0483145246 8.1582801083 8.2060687339 8.2261690263 
8.336777734 8.3908001378 8.3943656875 8.4316998223 8.4181392826 8.3993359137 8.3485473752 8.2404307972 8.0471331135 
7.7285523946 7.4831584129 7.2872145669 7.1189613345 6.8221112843 6.9309617573 6.6739557968 7.1132308988 7.3077775433 
6.9779560242 7.1233960511 6.6951685556 6.7717854481 7.7529303499 7.4782012833 7.2020347789 6.9176395428 6.6041149841 
6.3608262805 6.3149483957 5.8276438021 6.3943160742 5.2996949882 4.952460664 4.6909174946 4.5831060683 4.4865478301 
4.4144596611 4.3801575272 4.3767276128 4.4422115583 4.5095296615 4.6957346833 4.9400544715 5.0707732648 5.1522283822 
5.247525124 5.4244154081 5.6915334693 5.7212838479 5.7199120041 5.6910492451 5.7544753664 5.9322220039 6.0894134034 
6.2488714045 6.0108444493 6.1362455944 6.1430749442 6.1184139179 6.0704168299 5.976152606 5.8619730558 5.6757025014 
5.6097933164 5.6441418715 5.8344988535 6.0413728969 6.2510886782 6.4114232596 6.5636179854 6.6475405074 6.7409245785 
6.7614666587 6.9525036496 6.9378992872 6.8817334669 6.7194536142 6.6217941644 6.5334945062 6.5085127403 6.5772029577 
6.7353488351 7.0473530138 7.4108002533 7.8220688317 7.6207129422 7.9053154414 7.8528386371 7.5893017517 7.3260941732 
7.0834538869 6.8103619397 6.9113860151 6.5823583649 7.2108631483 7.4297678253 7.643589468 7.4632720335 7.8331404079 
7.9140765047 7.8649132578 7.7378761916 7.526921764 7.3005023046 7.0787478828 6.806699107 6.5801577154 6.4712450038 
6.3382655293 6.2880836752 6.3480887373 6.5049356874 6.7479834366 6.9701144384 7.1003071727 7.1808020387 7.1565131949 
7.0703026881 6.9992829676 6.9235269456 6.8647811312 6.849554358 6.7943002357 6.8071557238 6.6903831928 6.5526348852 
6.4757522225 6.3617030819 6.3478009105 6.3986135537 6.4903120791 6.5136490002 6.5752941705 6.740936791 6.7035931279 
6.8567655072 7.0227267789 7.3007650795 7.5770512944 7.748366547 7.853192593 7.8853131324 7.9280873297 8.0017561238 
8.0085393224 7.9844073107 7.9744656714 8.0051665388 8.2202075825 8.3839861868 8.4216136996 8.1970898032 8.1362980984 
8.1202351567 8.1046292969 8.036573567 7.9171383707 7.7788313365 7.6628522569 7.4669571248 7.2320765579 6.966083601 
6.6927802743 6.636284085 6.6341957288 6.534303835 8.4616425479 8.4855696938 6.9692331206 6.7196649467 6.5981020979 
7.1981967745 5.9709079786 5.5321957964 5.2378504497 4.9837890998 4.8531696967 4.6535314449 4.5012221482 4.3607549976 
4.2847332697 4.288573071 4.3780876921 4.5020328632 4.6560735514 4.6801633588 4.7239701733 4.7193002909 4.8654890515 
4.8417331829 4.8828823039 4.9430400091 4.9531904712 5.0437785686 5.2273998826 5.4296135436 5.6535095996 5.4913949861 
5.2565439137 5.328323378 5.293763217 5.3352655574 5.2716730697 5.1963575836 5.084640158 5.0661313929 5.2495970717 
5.4404023501 5.6496199291 5.7971968069 5.9551352909 6.1307551852 6.271106763 6.4036941308 6.4928101157 6.3157614114 
6.3533306599 6.1207235907 6.5691992308 6.6872573899 6.6878407715 6.6205501333 6.4829246778 6.4534947671 6.510605761 
5.2749295626 5.0348256046 7.3279746671 7.7681281657 7.5377291773 8.091131375 6.8139455411 6.1714066708 5.742217116 
5.6169143376 5.4174057104 5.1824335372 4.9239207124 4.664730818 4.4250908901 4.3573887766 4.3715060034 4.5070526492 
4.7334453518 4.6949380497 4.6395017521 4.5144269593 4.4068113662 4.4563439533 4.4983628545 4.5013352081 4.5145436475 
4.490582784 4.5282651424 4.6297421372 4.8745578281 5.1311502516 5.0476410139 4.7871996886 4.7209609442 4.7517209247 
4.7059693026 4.7094292111 4.6895091409 4.7651904094 4.8173781374 4.7807366926 4.724569468 4.7557291606 4.8710636928 
5.079662354 5.2761853941 5.4437566134 5.4984890909 5.5738714469 5.6848851994 5.9165665377 6.1445323662 5.9413922951 
5.9771090447 5.7746809087 6.1934876167 6.4241597243 6.544155558 6.4991232481 6.449683022 6.3941966181 6.4441322057 
6.4586317027 6.3855390311 6.4057892827 6.5494827629 6.7430381611 6.9453970177 7.1170408417 7.1862353258 7.1608578251 
7.1031517901 7.006956673 6.9072159579 6.8713478074 6.855269993 6.839948572 6.7197841026 6.6626416784 6.4069214907 
6.7356647939 6.6734514817 6.5272655377 6.4041299582 6.3175320526 6.2825662386 6.315710147 6.3835244756 6.4183069118 
6.4953766645 6.5990205187 6.7967237173 7.0527372918 7.3719320701 7.6380280611 7.6932694691 7.6617463167 7.6241279726 
7.5793263155 7.6355274777 7.6704619134 7.7183163927 7.8319666907 7.9657337305 8.2720368106 8.7511042443 8.6354295946 
8.7861475684 8.673631886 8.4991941967 8.2826380068 8.0927302883 8.0098808642 7.9594440987 7.9044990165 7.8681940619 
7.8315548426 7.6983948102 7.5335040514 7.1832988281 6.8191995057 6.5298069891 6.3644283569 6.2802621744 6.5118294309 
6.4428532821 6.3310359798 6.2366229157 6.0057786789 5.7012958852 5.3193336278 4.9637409004 4.6259368856 4.5466966561 
4.5182870225 4.6795459278 4.9266530205 4.7551200579 4.909251584 4.6287519571 4.4738905819 4.4966509726 4.5225880201 
4.5795771894 4.5961755393 4.5244913971 4.4506183155 4.4280641258 4.4988423259 4.6686818411 4.7943457973 4.7360011257 
4.8765126119 4.9750325325 5.267283201 4.6854331825 4.612566411 4.4538366176 4.4292850385 4.4474188161 4.490388511 
4.5587771191 4.6782544319 4.7967633775 4.9415682853 5.1808218737 5.3727405468 5.3976715467 5.4388329268 5.4644741798 
5.5665647335 5.7532238842 5.1076294713 5.3041561974 5.653288953 5.7273037766 5.7214483305 5.8096633697 5.9992217098 
6.2999160422 6.300604522 6.2969311936 6.4241323062 6.5534976496 6.7086605467 6.8572104528 6.9640180914 6.9755671278 
6.9350487877 6.8211032583 6.6699103116 6.5598433542 6.571233125 6.6143462278 5.930691589 5.9620120797 5.3256756192 
6.3439980976 6.5769426777 6.5756906553 6.49313747 6.2888625135 6.1052795069 6.068768689 6.0824969477 6.1338600414 
6.1622057768 6.192362701 6.1943701781 6.3088028391 6.5343628982 6.7734921899 6.9887390274 7.051047003 6.9901200533 
6.8610171387 6.9547622812 7.0383827558 7.1981511691 7.2877139692 7.4646460124 7.6987939423 8.0608902614 8.4352786392 
8.8721848669 8.6762626235 9.0355448499 8.9727125694 8.9115392895 8.6391679259 8.3325145038 8.056092089 7.9419223611 
7.8309493923 7.6577825836 7.6967200022 7.7216174625 7.5683960133 7.3464659564 7.0166889468 6.6490053545 6.3634247289 
6.2326800687 6.0732337244 6.110510715 6.195321549 6.7102693202 7.0593638645 7.2432408104 7.4049769548 7.5660389858 
7.629051631 7.7797366073 7.9093860399 7.9557286451 8.0020616378 7.9119883059 7.6675863953 8.1165460542 8.499558005 
8.3398450379 8.6800971419 7.7910947402 6.9030973596 6.1247969803 6.0881232022 6.1895679241 6.3605619005 6.5133646666 
6.5693003366 6.5763794039 6.5926182431 6.5646940744 6.4555734915 6.0760646118 5.9527255512 5.9148691058 4.7731389198 
4.6380057501 4.7872383846 5.4074635525 5.9631474227 6.2675631366 6.4306956918 6.3795704316 6.0597285979 5.8741111762 
5.8174486067 5.75776098 5.724150259 5.6430652787 5.7156127169 5.5849719162 5.6646320505 5.8574506914 6.0241295648 
6.1757002498 6.2000727498 6.1368439148 5.8229234678 6.4338672027 6.1722439768 6.6939689327 6.9154675763 7.1111849462 
7.4646718734 7.7672164582 8.0747424354 8.319145665 5.6861251177 5.4786044752 5.5052282143 5.6150315486 6.3052363828 
6.294735058 6.3910330405 6.719988457 6.984741079 7.1806465535 7.4559804913 6.8001891248 6.368116328 5.8612448646 
5.4182906954 5.068312996 4.9360444067 4.8706551381 4.9558682604 5.2019270251 5.5951715431 5.2978970491 5.2175266611 
5.0997842795 4.9133846168 4.7847897403 4.8064313131 4.7646230522 4.7598213508 4.7587412348 4.7262871013 4.6616070072 
4.518624517 4.4724010825 4.6027793247 4.7579012584 4.8673654302 5.1042658981 5.5540220059 5.378745512 5.7393326751 
4.9654666811 4.6543179124 4.5442064625 4.5886652529 8.3897370463 8.7435765153 9.0155853533 8.9849079398 8.9552213909 
8.9001450901 8.5610909461 8.1883171007 7.9110874483 7.7283881511 7.676352532 5.0084430252 5.1478861665 5.3273129252 
5.5373700202 5.5955481458 5.8103705794 5.7816890435 6.072931438 5.6031462117 5.5655698295 5.5406286942 5.5792415393 
5.5864850355 5.7916593397 5.9168614575 6.0778962357 5.7929931996 5.8152023019 7.9189463626 8.0844813727 8.4048219022 
7.6506484583 5.6027196323 5.5309939551 5.3592565317 5.1932163455 5.0687162663 5.0525192996 5.1040351112 5.1400619009 
5.1509591121 5.0033665176 4.811315881 4.7207214183 5.2725280156 4.9960643636 5.4581509075 5.8605363182 4.9952488791 
7.0483412361 6.4720832548 6.0550918841 5.76248278 5.4941999999 5.3089933895 5.2363606521 5.5839859 5.8185618234 
6.112335256 6.3726295749 6.6413050066 6.9828325202 7.4223217764 7.7773577246 5.8331597984 5.8548385477 5.7934904347 
6.1059124036 6.2261298101 5.8980617583 5.5439123975 5.5822854946 5.4631282781 5.4799885346 5.2347638599 6.1919732183 
6.2472245295 6.1950963573 6.1575022545 8.8552079968 6.1936085934 5.1843928529 5.2355087773 5.1268956042 6.4499251925 
6.7706252844 6.5773224885 6.0818152591 5.9062241596 4.9319083559 4.8295292059 5.6318072973 
VAJ 1 1114 double
1 1 0 0 0.99999881155 0 1.0000000427 0 1.0000013454 
0 0.99999967501 0 0.99999809768 0 1.0000010742 0 1.0000010751 0 
1 0 1.000000481 0 1.0000015243 0 1 0 1 
0 1 0 1 0 1 0 1.0000000581 0 
1.0000000321 0 0.99999988331 0 1 0 1 0 1 
0 1 0 1 0 1 0 1 0 
1 0 1 0 1 0 1 0 1 
0 1 0 1 0 1 0 1 0 
1 0 1 0 1 0 1 0 1 
0 1 0 0 0 0 0 0 0 
0 0 0 0 0 0 0 0 0 
0 0 0 0 0 0 0 0 0 
0 0 0 0 0 0 0 0 0 
0 0 0 0 0 0 0 0 0 
0 0 0 0 0 0 0 0 0 
0 0 0 0 0 0 0 0 0 
0 0 0 0 0 0 0 0 0 
0 0 0 0 0 0 0 0 0 
0 0 0 0 0 0 0 0 0 
0 0 0 0 0 0 0 0 0 
0 0 0 0 0 0 0 0 0 
0 0 0 0 0 0 0 0 0 
0 0 0 0 0 0 0 0 0 
0 0 0 0 0 0 0 0 0 
0 0 0 0 0 0 0 0 0 
0 0 0 0 0 0 0 0 0 
0 0 0 0 0 0 0 0 0 
0 0 0 0 0 0 0 0 0 
0 0 0 0 0 0 0 0 0 
0 0 0 0 0 0 0 0 0 
0 0 0 0 0 0 0 0 0 
0 0 0 0 0 0 0 0 0 
0 0 0 0 0 0 0 0 0 
0 0 0 0 0 0 0 0 0 
0 0 0 0 0 0 0 0 0 
0 0 0 0 0 0 0 0 0 
0 0 0 0 0 0 0 0 0 
0 0 0 0 0 0 0 0 0 
0 0 0 0 0 0 0 0 0 
0 0 0 0 0 0 0 0 0 
0 0 0 0 0 0 0 0 0 
0 0 0 0 0 0 0 0 0 
0 0 0 0 0 0 0 0 0 
0 0 0 0 0 0 0 0 0 
0 0 0 0 0 0 0 0 0 
0 0 0 0 0 0 0 0 0 
0 0 0 0 0 0 0 0 0 
0 0 0 0 0 0 0 0 0 
0 0 0 0 0 0 0 0 0 
0 0 0 0 0 0 0 0 0 
0 0 0 0 0 0 0 0 0 
0 0 0 0 0 0 0 0 0 
0 0 0 0 0 0 0 0 0 
0 0 0 0 0 0 0 0 0 
0 0 0 0 0 0 0 0 0 
0 0 0 0 0 0 0 0 0 
0 0 0 0 0 0 0 0 0 
0 0 0 0 0 0 0 0 0 
0 0 0 0 0 0 0 0 0 
0 0 0 0 0 0 0 0 0 
0 0 0 0 0 0 0 0 0 
0 0 0 0 0 0 0 0 0 
0 0 0 0 0 0 0 0 0 
0 0 0 0 0 0 0 0 0 
0 0 0 0 0 0 0 0 0 
0 0 0 0 0 0 0 0 0 
0 0 0 0 0 0 0 0 0 
0 0 0 0 0 0 0 0 0 
0 0 0 0 0 0 0 0 0 
0 0 0 0 0 0 0 0 0 
0 0 0 0 0 0 0 0 0 
0 0 0 0 0 0 0 0 0 
0 0 0 0 0 0 0 0 0 
0 0 0 0 0 0 0 0 0 
0 0 0 0 0 0 0 0 0 
0 0 0 0 0 0 0 0 0 
0 0 0 0 0 0 0 0 0 
0 0 0 0 0 0 0 0 0 
0 0 0 0 0 0 0 0 0 
0 0 0 0 0 0 0 0 0 
0 0 0 0 0 0 0 0 0 
0 0 0 0 0 0 0 0 0 
0 0 0 0 0 0 0 0 0 
0 0 0 0 0 0 0 0 0 
0 0 0 0 0 0 0 0 0 
0 0 0 0 0 0 0 0 0 
0 0 0 0 0 0 0 0 0 
0 0 0 0 0 0 0 0 0 
0 0 0 0 0 0 0 0 0 
0 0 0 0 0 0 0 0 0 
0 0 0 0 0 0 0 0 0 
0 0 0 0 0 0 0 0 0 
0 0 0 0 0 0 0 0 0 
0 0 0 0 0 0 0 0 0 
0 0 0 0 0 0 0 0 0 
0 0 0 0 0 0 0 0 0 
0 0 0 0 0 0 0 0 0 
0 0 0 0 0 0 0 0 0 
0 0 0 0 0 0 0 0 0 
0 0 0 0 0 0 0 0 0 
0 0 0 0 0 0 0 0 0 
0 0 0 0 0 0 0 0 0 
0 0 0 0 0 0 0 0 0 
0 0 0 0 0 0 0 0 0 
0 0 0 0 0 0 0 0 0 
0 0 0 0 0 0 0 0 0 
0 0 0 0 0 0 0 0 0 
0 0 0 0 0 0 0 0 0 
0 0 0 0 0 0 0 0 0 
0 0 0 0 0 0 0 0 0 
0 0 0 0 0 0 0 0 0 
0 0 0 0 0 0 0 0 0 
0 0 0 0 0 0 0 0 0 
0 0 0 0 0 0 0 0 0 
0 0 0 0 0 0 0 0 0 
0 0 0 0 0 0 0 0 0 
0 0 0 0 0 0 0 0 0 
0 0 0 0 0 0 0 0 0 
0 0 0 0 0 0 0 0 0 
0 0 0 0 0 0 0 0 0 
0 0 0 0 0 0 0 0 0 
0 0 0 0 0 0 0 0 0 
0 0 0 0 0 0 0 0 0 
0 0 0 0 0 0 0 
vtkValidPointMask 1 1114 char
1 1 1 1 1 1 1 1 1 
1 1 1 1 1 1 1 1 1 
1 1 1 1 1 1 1 1 1 
1 1 1 1 1 1 1 1 1 
1 1 1 1 1 1 1 1 1 
1 1 1 1 1 1 1 1 1 
1 1 1 1 1 1 1 1 1 
1 1 1 1 1 1 1 1 1 
1 1 1 1 1 1 1 1 1 
1 1 1 1 1 1 1 1 1 
1 1 1 1 1 1 1 1 1 
1 1 1 1 1 1 1 1 1 
1 1 1 1 1 1 1 1 1 
1 1 1 1 1 1 1 1 1 
1 1 1 1 1 1 1 1 1 
1 1 1 1 1 1 1 1 1 
1 1 1 1 1 1 1 1 1 
1 1 1 1 1 1 1 1 1 
1 1 1 1 1 1 1 1 1 
1 1 1 1 1 1 1 1 1 
1 1 1 1 1 1 1 1 1 
1 1 1 1 1 1 1 1 1 
1 1 1 1 1 1 1 1 1 
1 1 1 1 1 1 1 1 1 
1 1 1 1 1 1 1 1 1 
1 1 1 1 1 1 1 1 1 
1 1 1 1 1 1 1 1 1 
1 1 1 1 1 1 1 1 1 
1 1 1 1 1 1 1 1 1 
1 1 1 1 1 1 1 1 1 
1 1 1 1 1 1 1 1 1 
1 1 1 1 1 1 1 1 1 
1 1 1 1 1 1 1 1 1 
1 1 1 1 1 1 1 1 1 
1 1 1 1 1 1 1 1 1 
1 1 1 1 1 1 1 1 1 
1 1 1 1 1 1 1 1 1 
1 1 1 1 1 1 1 1 1 
1 1 1 1 1 1 1 1 1 
1 1 1 1 1 1 1 1 1 
1 1 1 1 1 1 1 1 1 
1 1 1 1 1 1 1 1 1 
1 1 1 1 1 1 1 1 1 
1 1 1 1 1 1 1 1 1 
1 1 1 1 1 1 1 1 1 
1 1 1 1 1 1 1 1 1 
1 1 1 1 1 1 1 1 1 
1 1 1 1 1 1 1 1 1 
1 1 1 1 1 1 1 1 1 
1 1 1 1 1 1 1 1 1 
1 1 1 1 1 1 1 1 1 
1 1 1 1 1 1 1 1 1 
1 1 1 1 1 1 1 1 1 
1 1 1 1 1 1 1 1 1 
1 1 1 1 1 1 1 1 1 
1 1 1 1 1 1 1 1 1 
1 1 1 1 1 1 1 1 1 
1 1 1 1 1 1 1 1 1 
1 1 1 1 1 1 1 1 1 
1 1 1 1 1 1 1 1 1 
1 1 1 1 1 1 1 1 1 
1 1 1 1 1 1 1 1 1 
1 1 1 1 1 1 1 1 1 
1 1 1 1 1 1 1 1 1 
1 1 1 1 1 1 1 1 1 
1 1 1 1 1 1 1 1 1 
1 1 1 1 1 1 1 1 1 
1 1 1 1 1 1 1 1 1 
1 1 1 1 1 1 1 1 1 
1 1 1 1 1 1 1 1 1 
1 1 1 1 1 1 1 1 1 
1 1 1 1 1 1 1 1 1 
1 1 1 1 1 1 1 1 1 
1 1 1 1 1 1 1 1 1 
1 1 1 1 1 1 1 1 1 
1 1 1 1 1 1 1 1 1 
1 1 1 1 1 1 1 1 1 
1 1 1 1 1 1 1 1 1 
1 1 1 1 1 1 1 1 1 
1 1 1 1 1 1 1 1 1 
1 1 1 1 1 1 1 1 1 
1 1 1 1 1 1 1 1 1 
1 1 1 1 1 1 1 1 1 
1 1 1 1 1 1 1 1 1 
1 1 1 1 1 1 1 1 1 
1 1 1 1 1 1 1 1 1 
1 1 1 1 1 1 1 1 1 
1 1 1 1 1 1 1 1 1 
1 1 1 1 1 1 1 1 1 
1 1 1 1 1 1 1 1 1 
1 1 1 1 1 1 1 1 1 
1 1 1 1 1 1 1 1 1 
1 1 1 1 1 1 1 1 1 
1 1 1 1 1 1 1 1 1 
1 1 1 1 1 1 1 1 1 
1 1 1 1 1 1 1 1 1 
1 1 1 1 1 1 1 1 1 
1 1 1 1 1 1 1 1 1 
1 1 1 1 1 1 1 1 1 
1 1 1 1 1 1 1 1 1 
1 1 1 1 1 1 1 1 1 
1 1 1 1 1 1 1 1 1 
1 1 1 1 1 1 1 1 1 
1 1 1 1 1 1 1 1 1 
1 1 1 1 1 1 1 1 1 
1 1 1 1 1 1 1 1 1 
1 1 1 1 1 1 1 1 1 
1 1 1 1 1 1 1 1 1 
1 1 1 1 1 1 1 1 1 
1 1 1 1 1 1 1 1 1 
1 1 1 1 1 1 1 1 1 
1 1 1 1 1 1 1 1 1 
1 1 1 1 1 1 1 1 1 
1 1 1 1 1 1 1 1 1 
1 1 1 1 1 1 1 1 1 
1 1 1 1 1 1 1 1 1 
1 1 1 1 1 1 1 1 1 
1 1 1 1 1 1 1 1 1 
1 1 1 1 1 1 1 1 1 
1 1 1 1 1 1 1 1 1 
1 1 1 1 1 1 1 1 1 
1 1 1 1 1 1 1 1 1 
1 1 1 1 1 1 1 1 1 
1 1 1 1 1 1 1 
Stress_X_Pt 1 1114 double
0.0065686991438 0.0054024173878 0.0046555821318 0.0062157927314 0.0029343060451 0.002774880908 0.0015041728038 0.001733313984 0.00025625896524 
0.00084208334738 0.00042741044308 0.00068047162495 0.00067882019812 0.00096643403822 -8.8675903498e-05 0.00096418654948 0.00012035952386 0.0012529964697 
0.00069580003037 0.0018074341206 0.0012609789846 0.0025012507103 0.0015612771385 0.0030511346704 0.0018539425801 0.0033767559507 0.0022623401601 
0.0036586668575 0.0025935716694 0.0039764744579 0.002872536541 0.0042588831275 0.0029783956707 0.0043748302851 0.0028868480586 0.0041811746778 
0.0025921373162 0.0036759824725 0.0022003863705 0.0030790567398 0.0020002378151 0.0025753816008 0.0021492112428 0.002282065223 0.0024759644875 
0.0022022562916 0.0027320387308 0.0021284379472 0.0028966328828 0.0020989230834 0.0025890062097 0.0018450278585 0.0015986962244 0.0012716284109 
0.00069584077573 0.00097570985963 0.0002463370256 0.00096267411936 3.8388274334e-05 0.0010157618826 -0.00016070163656 0.0011288334181 -0.00049492863764 
0.0012035080799 -0.00070309516741 0.0012716015626 -0.00068679923424 0.001499919832 -0.0005611119559 0.00189127872 -0.00024456695519 0.0023400492414 
0.00027970813699 0.002711694257 0.0010808935913 0.0030697658221 0.002336338046 0.0037277028314 0.0039152490208 0.0047732581734 0.0052669537254 
0.0058659309288 0.0060145836323 0.0064619781915 0.0037895918358 0.0023345074151 0.0044151749462 0.0054000081727 0.0012673563324 0.0036139875883 
0.00048964117741 0.0030696027497 -7.9110053775e-05 0.0027146375396 -0.000428126732 0.0024588538436 -0.00044502902892 0.0022681718547 -0.00027774757473 
0.0021845543815 -8.0739830082e-05 0.0021907187847 0.0002179395542 0.0023211248053 0.00081809567928 0.0026659821378 0.0019439040916 0.0029568528989 
0.0030450875638 0.0030242072535 0.0034474815475 0.0029390585842 0.0032850613352 0.0026441604132 0.0029143671272 0.0021962359897 0.0027636424638 
0.0019051021372 0.0029924141709 0.0019178182847 0.0033532613888 0.0019812500614 0.0036519333953 0.0020343444994 0.0035642851144 0.0020557172829 
0.00294968253 0.0021378770907 0.002116056974 0.0023716056603 0.001258769742 0.0023611194192 0.00048894173233 0.0024601219455 -6.6944630817e-05 
0.0020944278222 9.8682401585e-05 0.0024507935959 0.0010661908454 0.0035476900885 0.0024660773925 0.0049828936753 0.0041358800372 0.0061844603042 
0.0057565162424 0.0070251744473 0.0073044688907 0.0077304873848 0.0087551502511 0.0083411964588 0.0098296832293 0.0088835917413 0.0091264727525 
0.0085079231067 0.0065921798814 0.0066385784885 0.0038870011922 0.0044506175909 0.0015891507792 0.0028370507207 -0.00083689621533 0.0014816817275 
-0.0019893021672 0.00086406510673 -0.0017409255379 0.0011121421994 -0.0016998336068 0.0012956508726 -0.0014660254819 0.0012463286403 -0.0011513494537 
0.0011301549675 -0.00028785962786 0.0012064605035 0.00095068664814 0.0012567896847 0.0015801609843 0.001285387043 0.0017244167975 0.0014083371789 
0.0017720808391 0.0014227501524 0.0017540104454 0.0014378178748 0.0018877001712 0.0017012278549 0.0023948280141 0.0022267583699 0.0031971200369 
0.0028816252016 0.0042802228127 0.0038309801021 0.005275182426 0.0048719835468 0.006049914984 0.0058071324602 0.00631789607 0.0064023743616 
0.005415865453 0.0062173616607 0.0040462928591 0.0059380952735 0.0025635166967 0.0015365961706 0.00095766187587 0.0011038466328 0.0016122351517 
0.002163619065 0.0029398251791 0.0040175599279 0.0049993916182 0.0053900216008 0.0054708517855 0.0057301215129 0.0060379530769 0.0061989460373 
0.0060443743132 0.0054531419883 0.0045397282229 0.0035030518775 0.0025514629669 0.0018285172409 0.0013702769356 0.0013275445905 0.0012332137703 
0.00092579306511 0.0010777117277 0.0014375151368 0.0018108625663 0.0023343725188 0.0029622541624 0.0035224496387 0.0041513135075 0.0049023265019 
0.0055176905589 0.0057417104254 0.0055980688194 0.0053802232724 0.0055138858734 0.0061285125557 0.0068144967081 0.0069803589722 0.0069986375747 
0.0071520713391 0.0069237225689 0.0068280173 0.0064693660242 0.0057700800244 0.0051656753058 0.0048739125486 0.004714255454 0.0046304389834 
0.004190488311 0.0033743415261 0.0026869909489 0.0020861848316 0.0014588741469 0.001045446872 0.0009393957298 0.00084665609029 0.00075392689178 
0.00091764342505 0.0015539398737 0.0024975173874 0.0031745841843 0.0036073654192 0.0046650804579 0.004147785871 0.005878343829 0.007137569366 
0.0078724955674 0.0080222015968 0.0078049089061 0.0074367711786 0.0068636307493 0.0071300548734 0.0062686245656 0.0050223848084 0.0042680049664 
0.0039844852872 0.0039845049032 0.0042109610513 0.0042370627052 0.0036939598504 0.0029934240738 0.0022975464817 0.0014650637022 0.0010287049372 
0.0010341289162 0.0010377962317 0.0011628285283 0.0015361796832 0.0020868706924 0.0027370650787 0.0036262142239 0.0046847815393 0.0057895960053 
0.0067267715931 0.0071994781028 0.007281868835 0.0039867981686 0.0041750391829 0.00097981812723 0.0011771095742 0.0010751868103 0.0015751884202 
0.0024587816151 0.003565850493 0.00491249474 0.0061299769441 0.00655910559 0.0064580790931 0.0064927398926 0.0066803664668 0.0068840457825 
0.0069381102221 0.0065441186307 0.0056244219886 0.0044462119695 0.003256888187 0.0021359043894 0.0013337276177 0.0010380673484 0.00085095070244 
0.0012348676391 0.00084105582209 0.0011775054591 0.0017019848747 0.0024181984772 0.0032962663681 0.0041993672494 0.0050860153278 0.0059461556375 
0.0065855811117 0.0068037237506 0.0065403304761 0.0058084112592 0.0051006537396 0.0052109406097 0.0058570547262 0.0070816898951 0.0075019532815 
0.0059022661299 0.0014359864872 0.0012767042354 0.0044834805885 0.0045065581799 0.0052622244693 0.0060328883119 0.0065897277091 0.006764804828 
0.0065658206586 0.0061033148086 0.0053797361907 0.0054404686671 0.0056483538356 0.0049064079067 0.0044425415108 0.0041147482116 0.0041157105006 
0.0044045459945 0.0041540694074 0.0032563681016 0.0024944436736 0.0019365753978 0.0013363784819 0.00097313942388 0.00094689286198 0.0010375432321 
0.0012035218824 0.0015093619004 0.0020658249559 0.0028483295464 0.0037461125175 0.00469172257 0.0057602234883 0.0066804816015 0.0071542218793 
0.0075076480862 0.0079797677463 0.008559221169 0.009056607727 0.0091121366713 0.0084440488135 0.0072171645006 0.0061222981894 0.0055340548279 
0.0051519408589 0.0047954592155 0.0044045200339 0.0037868581712 0.003024660924 0.0022503960936 0.001565019018 0.001108768722 0.0010092940938 
0.0010637235246 0.0011493883212 0.001375403197 0.0018493177777 0.0024164524511 0.0030059269047 0.0037318539689 0.0042659679893 0.0043626044644 
0.0043451515492 0.0040958129684 0.0052309337771 0.0046389793279 0.0013076296891 0.0015793197672 0.00097034341889 0.00072030552838 0.00077376201807 
0.001181434578 0.0018458485429 0.0027386472211 0.0037806828623 0.0048003358534 0.0057323790388 0.0065992710879 0.007235597237 0.0075545886066 
0.007482895744 0.0070260125212 0.0043349782354 0.0046996171586 0.0043549871189 0.0050796198193 0.0059022074565 0.0055820288835 0.00083149246348 
0.00098686746787 0.0010875717708 0.001838498516 0.0029794290895 0.0044420904596 0.0061095814453 0.0074604854453 0.0078098337399 0.0074499333277 
0.0072336005978 0.0072426338447 0.0074461160693 0.0075394681189 0.0072428289568 0.0065476164455 0.0055308024166 0.0043653892935 0.0031670602621 
0.0020287148072 0.001386172793 0.001545751802 0.0019082825456 0.001455162972 0.0017842043599 0.0010637976957 0.0016738202248 0.0012924558832 
0.0020775347657 0.0015784984377 0.005447125528 0.0064848531038 0.004701016238 0.0050592425978 0.0052086354699 0.0051466104342 0.0048978794366 
0.0045955205569 0.0042966509936 0.0042406395078 0.0040045690257 0.0044975215569 0.0047506028786 0.0048128286144 0.004587055766 0.0042418167577 
0.0038205349119 0.0035824513179 0.0037047871156 0.0034582023509 0.0026835504104 0.0022565028048 0.0020053399785 0.0013569399744 0.00088107258489 
0.00095423887251 0.0011388905114 0.0012366755109 0.0014555871603 0.0019370212976 0.0026281180908 0.0034021852189 0.0041946077836 0.0051113805966 
0.0058934483677 0.0063211987726 0.0073046018369 0.0081857771147 0.0092579836491 0.010196112096 0.01040741778 0.0096742524765 0.0083707484882 
0.0071912804851 0.0063701589825 0.0056962852832 0.0050312319072 0.0043784937588 0.0037083138595 0.0030071495567 0.0023028413125 0.0017229856458 
0.0013514482707 0.0010165570275 0.00094845726562 0.0012538931915 0.0015868168266 0.0020772910211 0.0026565577718 0.0031287808282 0.0035043247626 
0.0036973450333 0.0037911761901 0.0038598208921 0.003865541541 0.003719457658 0.0037779137492 0.003914084984 0.0042988354689 0.0046015674016 
0.0046197706833 0.0044806592632 0.0031085527153 0.0029651569785 0.0032700708834 0.0030296667246 0.0032206404139 0.0027195528965 0.0036073224619 
0.0035897992784 0.0035563509446 0.0038685221225 0.0043240616797 0.004487550701 0.0043437194545 0.00099435646553 0.001151655335 0.00074349457282 
0.00065293915395 0.00084410708223 0.0013226187002 0.0020727092924 0.0030724412645 0.0041761954781 0.0052180618513 0.0061714660842 0.0069882245734 
0.0076086105546 0.0080935796723 0.008300562622 0.0079796747304 0.0074039502069 0.0059803362237 0.0068963472731 0.0051187960198 0.0044289281359 
0.003939012764 0.0036255940795 0.0037163125235 0.0041037821211 0.0041625935119 0.0043244614499 0.0036595156998 0.0030420355033 0.002823616378 
0.002026006201 0.0014796006435 0.001078840316 0.00075875497714 0.0007025426894 0.001028883722 0.0017783754738 0.0030161476461 0.0048220867757 
0.0069432569435 0.0083587915869 0.0084201465361 0.0077829553047 0.0071603778051 0.0082151936367 0.0080542854266 0.0082522262819 0.0079567703651 
0.0072793394793 0.0063255410641 0.0052566183731 0.0041387896636 0.0029572589556 0.0022336282418 0.0021199586336 0.0021103274776 0.0019320050487 
0.0012164937943 0.0013929689158 0.0011820717191 0.00086061847105 0.0075854314491 0.0066367068794 0.003937214613 0.0041959088994 0.0036967135384 
0.0035520191886 0.0039665037184 0.004247897421 0.0043791523203 0.0043333007488 0.0040897849249 0.0036930792267 0.0031761029968 0.0027461187565 
0.0025815762347 0.0023037377105 0.0019233644416 0.0019551175646 0.0020493945049 0.0014947887248 0.00090148570598 0.00091860430257 0.0011605812178 
0.0012695006153 0.0013722265139 0.0017019338848 0.0022555644391 0.0028916739975 0.0035176535021 0.0041806463269 0.0047179916874 0.0049763929565 
0.0081237957347 0.0070190685801 0.0093311851379 0.010356591083 0.010687401053 0.010264956392 0.0094515436795 0.0086132049328 0.0077032099944 
0.0066102511482 0.0054580842843 0.0044042368536 0.0035408284166 0.0028371973895 0.002227460267 0.0017498028756 0.0014932566943 0.0014039816451 
0.0010321744776 0.0012834352674 0.0008058892563 0.00085803864931 0.0010863967909 0.0013388877269 0.001767391077 0.0023107982415 0.002889966534 
0.0059949605493 0.0051075494848 0.0040188222774 0.0035035293549 0.0031232699985 0.0030004539876 0.0033769689617 0.0036667048116 0.0039331308411 
0.0039484215667 0.0038527768338 0.0035141273984 0.0030424544238 0.0025054735597 0.002076605917 0.001941878756 0.0017801200447 0.0016286044265 
0.0019462308614 0.0020390293503 0.0015365217405 0.00093353007105 0.00089699189994 0.0011186700722 0.0011916759831 0.0011799030472 0.0013887834502 
0.0017878455983 0.0022352970846 0.0027049884084 0.0032077339129 0.0037041631294 0.004112478171 0.0044644729933 0.0053217291133 0.0048609102378 
0.0059832048137 0.0068399821175 0.0078606418101 0.0089536942542 0.009923433885 0.010434872471 0.010491603054 0.010223563295 0.0096059604548 
0.0086486840155 0.0075046801008 0.0059082614025 0.0045238064486 0.0034997910843 0.0027282636729 0.0021454459638 0.0017194418178 0.0016189225134 
0.0011497587548 0.0014877363283 0.00094464830181 0.00076819509559 0.00083774502855 0.0011128910119 0.0013441153278 0.0017672312679 0.0023550349753 
0.00066118364339 0.00073931326915 0.0010453067662 0.0015805042931 0.0023643330205 0.0033570209052 0.0044498827192 0.005621794262 0.0067363393027 
0.0075242446037 0.0080669195158 0.0085604535416 0.008794619469 0.0084774305578 0.0079656078791 0.0078438052442 0.0064142293995 0.0075503551634 
0.005532006151 0.004811793915 0.0041980904061 0.003727633215 0.00331920397 0.0029842277872 0.0028890225803 0.002867551113 0.002686951193 
0.0022819909209 0.0017256438732 0.0012186763197 0.00085756243789 0.00068771652877 0.00078463062528 0.0012392885546 0.0020126641903 0.0030984344776 
0.0048105263268 0.0069284499623 0.0081605607411 0.007913911948 0.007101670024 0.0062968040584 0.0055255526677 0.0061135187279 0.0049423641758 
0.0074167511193 0.008487935178 0.0089367826004 0.008807229111 0.0082786474377 0.0074462856865 0.0063559901901 0.0051375527401 0.0040620127111 
0.0031766418833 0.0025691787596 0.0022726371535 0.0020434222533 0.0019181073003 0.0017414047907 0.0010041134083 0.001441097731 0.00087073247414 
0.00091340448125 0.0006958378508 0.003553571878 0.003438568674 0.0030585483764 0.0025776661932 0.0021782696713 0.0018870985368 0.0018002290162 
0.0018268778222 0.0019301188004 0.0022378440772 0.0015494498366 0.0021044040041 0.0010188369488 0.00095906894421 0.0010549500876 0.0010377936997 
0.0010252509965 0.0011726711818 0.0014412293676 0.001772949734 0.0021804730059 0.0026947418228 0.0032701659948 0.0037525008665 0.0041672900552 
0.0045039464021 0.0051372277085 0.0046112278942 0.0055979131721 0.006134500145 0.0067665213719 0.0075337549206 0.0084522499237 0.0093448755797 
0.0099296213593 0.010147497989 0.010033232626 0.0095314898062 0.0088393711485 0.0083521483466 0.0046887608478 0.006131988368 0.0035247396445 
0.0026597968535 0.0020560807607 0.0023046100978 0.0024937621783 0.001968875702 0.0014260738681 0.0019297388208 0.0010713278025 0.0010862657684 
0.0010743609892 0.00067720233346 0.00091763806995 0.0013000568142 0.0018400319677 0.0025817327551 0.0034868924413 0.0045286548557 0.0058532184921 
0.0072272380348 0.0081662570592 0.0087663971353 0.0092520182952 0.0093535988126 0.0087897547055 0.0088679904118 0.0071627470898 0.0082835122012 
0.0060134965461 0.0051771631697 0.0046175967436 0.0041554344352 0.0036314246827 0.0030196574517 0.0024741875241 0.0021055501711 0.0017870714655 
0.0018198665348 0.0017083016573 0.0013890975097 0.00097596365958 0.00070588268864 0.00077456615691 0.0011337166943 0.0016729930067 0.0023146672465 
0.0031094149454 0.004408622277 0.0060286130756 0.0069409003481 0.006636789185 0.0058315212373 0.0051652980037 0.0045574871474 0.003990600293 
0.0044174480136 0.0035027593258 0.0055550162215 0.006615943159 0.0075595243834 0.008192289155 0.0080508376705 0.0072922129184 0.0064323816914 
0.0053730010986 0.0039339872077 0.003314904694 0.0029023797251 0.0025758869597 0.0023801713251 0.0021665692329 0.0020269273082 0.0018744900881 
0.0016420431493 0.0012143485365 0.0014377857733 0.00088748778217 0.0026403471129 0.0026741871261 0.002481851785 0.0027573389816 0.0032171006314 
0.0031662249239 0.0034382301383 0.0035475658369 0.0036543587339 0.0035816808231 0.0037264046841 0.0040334917721 0.0033706419636 0.0030808589654 
0.0027751905727 0.0032006371766 0.0028111125575 0.0031599508948 0.0011344137311 0.0007685568562 0.0015728539147 0.0020700216701 0.0027016829117 
0.0034607937559 0.0044102065149 0.0057718020398 0.0073467086768 0.0085608414374 0.0092985959724 0.0098161739297 0.0097333565354 0.0079510818236 
0.0089268988619 0.0091927056201 0.0067980744643 0.005782518303 0.0049803274451 0.0044402888743 0.0040725673898 0.0035948705859 0.0029495150084 
0.0023200321011 0.0018493044481 0.0015347446897 0.0012664993992 0.0012916546548 0.0010739631689 0.00078792807471 0.00070619596227 0.0010441725753 
0.0016520881327 0.0021341863321 0.002481947944 0.0029105549213 0.004807042249 0.0038168210303 0.0053892557044 0.0051618395373 0.004555871943 
0.0041195795056 0.0037352844374 0.0032939277007 0.0029235720285 0.0013123425015 0.0014331994753 0.0074109282577 0.0081001108047 0.0013853311539 
0.001705408853 0.002062607673 0.0023214570829 0.0023905274575 0.0024788558949 0.0027882548748 0.0030331617454 0.0027397823869 0.0023817811743 
0.0022002081969 0.0021084947512 0.0020846151165 0.0021854894585 0.0024058608105 0.0027059940621 0.0025081950007 0.0024603195488 0.0022908823448 
0.0017506248259 0.001196274723 0.00091218684975 0.00082341695088 0.00087617925601 0.00096959347138 0.0010993517644 0.0013515070896 0.0016880981275 
0.0020705516799 0.0025447033695 0.0031007427606 0.0035953841871 0.0038734584232 0.0039610022795 0.0039430054603 0.0051108689513 0.0045154937543 
0.0057379784994 0.0063241668977 0.0067317932844 0.0071535903262 0.0035118521191 0.0036878302344 0.003919032577 0.004907135095 0.0058293888966 
0.0058633269509 0.0060306133237 0.0059956233017 0.0049091900233 0.0045113987289 0.004239466507 0.0095114156138 0.0097133649979 0.0095792694483 
0.0091480365954 0.0087514010568 0.0087095005438 0.0075305465143 0.0081939136144 0.0071403373343 0.0061160768382 0.0047969730804 0.0035834350856 
0.0026346750092 0.0027054772712 0.0018185831141 0.0023146463209 0.001335850131 0.00095650817093 0.0039916471578 0.0043640204822 0.0042760398705 
0.0027553741354 0.0023528397433 0.001890116022 0.0012602482893 0.00080204205005 0.0006844655436 0.00086228230793 0.0010248587059 0.0011164430471 
0.0013012997224 0.0015779758105 0.0019061764469 0.0023122417333 0.0034067263477 0.0035298005678 0.0057294069557 0.0049812161596 0.0065286330646 
0.002671408176 0.0025753612281 0.002605211921 0.0027103363536 0.0028166259872 0.0028618320939 0.002829473 0.0032402373618 0.0037387177581 
0.0039528686902 0.0037757043028 0.0034420353477 0.0032077731448 0.0030427817837 0.0029233600944 0.0063501494005 0.0049783235881 0.0037625926198 
0.0043883911567 0.0040422346598 0.0039599143784 0.0023559813853 0.0029189172783 0.001878420735 0.0016063934891 0.0016741161526 0.006945308065 
0.002731279082 0.0032197529217 0.0041017379262 0.0046045104391 0.0053935656324 0.002517280227 0.0029958302039 0.0020420644432 0.0038317839499 
0.002477948874 0.0043732332997 0.00069302637712 0.00096208498871 0.0033150704112 0.00283496466 0.0033904814045 
Stress_Y_Pt 1 1114 double
0.0080486866646 0.0071187776048 0.0068925434025 0.0076921632281 0.0023278191529 0.003184785849 0.00024965654484 0.00087066045035 -0.0006424246094 
-0.00011545418965 -0.00053791000391 -0.00042478520481 -0.00079569689115 -0.00095103587955 -0.0023393535521 -0.0019954463933 -0.0019704232109 -0.0017744185461 
-0.0011301282793 -0.00083688867198 -0.00050377107982 8.9607328846e-06 -0.00030755004263 0.00039362275857 -0.00010016062879 0.00050400992041 0.00030770625744 
0.00070410130866 0.00072304651258 0.0011007866851 0.0012644647504 0.0016003022902 0.001646071556 0.0020041828393 0.0018834185903 0.0021705269173 
0.0013496948231 0.0016256479576 0.0003280355786 0.00072518508614 9.2336243142e-05 0.00038933589758 0.00036483696022 0.00053427117382 0.00098030475783 
0.0010916564352 0.0018815356889 0.0018486012705 0.0026481758105 0.002439830103 0.0026528972667 0.002386562468 0.0013761414593 0.0012167035238 
-0.00022713384533 -0.00023949979368 -0.0011778540793 -0.0011243505869 -0.0015513079707 -0.0014998704719 -0.0017514156643 -0.0015929952206 -0.0019027861417 
-0.001560451492 -0.0018351752078 -0.0014875637717 -0.0017627889174 -0.001434636506 -0.0018008588231 -0.0014248520893 -0.001948607387 -0.0015564338828 
-0.0023180410499 -0.0019400203309 -0.0025356450351 -0.0022261841223 -0.0019828201039 -0.0018224285159 -0.00031463382766 -0.00026649533538 0.0024011675268 
0.0024655030866 0.0052213189192 0.005404761876 0.0019148938591 0.0010523397068 0.0011378752388 0.0020405018004 0.00090043630917 0.00095755737857 
0.0011447652068 0.0012309382291 0.0010173419141 0.0011762174545 0.00029951581382 0.00055154635629 -0.00022554810857 -0.00011371880828 -0.00048853573389 
-0.00043350137275 -0.00048913051432 -0.00032651452511 1.2490607332e-05 0.00028958191524 0.0012002787989 0.0016455618243 0.0027296331245 0.0030710700084 
0.0036615101853 0.003720608016 0.0035335826688 0.0035681272857 0.0030697099864 0.0030695393216 0.0030209935503 0.0028778621927 0.0034779767739 
0.003264132014 0.0044000870548 0.0040371624636 0.0052731262986 0.0046456549317 0.0055517677683 0.0048870379105 0.0050053815357 0.0046971681295 
0.0040181785589 0.0042428636807 0.0027640913613 0.0034308707691 0.00073578328011 0.0015795205109 -0.0011108413746 -0.00046658837236 -0.0020246487111 
-0.0016025714867 -0.0019822363975 -0.0013644220926 -0.00045688633691 0.00032421601281 0.0018345887365 0.0025819231087 0.0034698022064 0.0038522562245 
0.00384666014 0.0038292156532 0.0038786855293 0.0035462894593 0.0043263926636 0.0036222465569 0.005382350646 0.0044315736159 0.0059490026906 
0.0050373711856 0.0037471019314 0.0034290962794 0.00061901085428 0.00092141351342 -0.00048059683468 -0.00016411117394 0.00012634442828 0.00023545005388 
0.0016870480031 0.0016444810753 0.0025857173605 0.0029816126334 0.0024889609776 0.003448158619 0.0024455747334 0.0033472341602 0.0025859286543 
0.003355075256 0.0027991253883 0.0035912190797 0.0029562111013 0.0035871273139 0.0031379711581 0.003631169151 0.0032235562103 0.0036579155712 
0.0033034953522 0.0034639536752 0.0032436923357 0.0032123943092 0.0030434881337 0.0029932414764 0.0031205482082 0.0030683903606 0.0035300805466 
0.0033847120358 0.0040004237089 0.0037822630256 0.0040837740526 0.0039110822836 0.0041928687133 0.0040405481705 0.0042767510749 0.0040847383207 
0.0033593199914 0.0032885406399 0.0035569953616 0.0054692619015 0.0017186768964 0.00090864831582 0.00015168172104 -0.00052266851708 -0.0010028022079 
-0.00092598062474 -0.00013377232426 0.00084457899175 0.0014410083677 0.0014118845429 0.0012418133701 0.0014834174362 0.0018928856007 0.0022473718273 
0.0023289714591 0.0019583124376 0.0014389580028 0.0011108808976 0.001094218067 0.0013531746808 0.0015968776715 0.0017545059323 0.0017742954078 
0.00089873359684 -0.00014716904116 -0.00080832799722 -0.0010739031713 -0.00096395528817 -0.00068337072162 -0.00055806575392 -0.00050533476224 -0.00043949777682 
-0.00048667329975 -0.00074553251216 -0.00096247997681 -0.00081635034621 0.0002236156306 0.0022564649989 0.0043463466573 0.0057099378901 0.0013042098435 
0.0014524944418 0.0016125417606 0.0017035366327 0.0012377677194 0.00041336676804 -1.2348464224e-06 0.00031157460307 0.0011081841321 0.0024314238981 
0.0035345369251 0.0037741577835 0.003524703905 0.0030404647696 0.0027343200636 0.0029357866733 0.0033622663468 0.0036060589482 0.0037817254197 
0.0040372631629 0.0042982883751 0.0042037827079 0.0029845433019 0.0013508097181 -0.00031636948188 -0.0010092733234 0.0015118968695 0.0034429991501 
0.0042055493686 0.003770468873 0.0030847602757 0.0027390270843 0.0029254384805 0.0035248175263 0.0027735086042 0.0014215500487 0.00060700663744 
0.00066104932921 0.0017553033103 0.0035834108712 0.0047350942623 0.0046359425178 0.0042966067558 0.0043467131909 0.0043344944715 0.0042805767152 
0.0040261032991 0.0034860691521 0.0031093124999 0.0028868440422 0.0029022651725 0.0030306234839 0.0031932447455 0.0032778263558 0.0033978672 
0.0034488610108 0.0029712870019 0.0021666627727 -0.00040659961815 0.00075962374103 0.00084160852566 0.00127734532 0.00030861204141 4.4369153329e-06 
9.4005321444e-05 0.00058168317628 0.001389510333 0.0019792803796 0.0018583493074 0.0014548582549 0.0014779263583 0.001825779822 0.0021249385318 
0.0021907348419 0.002075679804 0.0019566123665 0.0018623673241 0.0018334897468 0.0017044054403 0.0013511524885 0.001190709474 0.00069856917253 
0.0013242329296 5.519079923e-05 -0.00031483208886 -0.00038547353034 -0.00015559820969 0.00021424277065 0.00043833302925 0.00052802269875 0.00062951557265 
0.00068743305019 0.0006682029034 0.0006461834364 0.00074449362437 0.00087226847427 0.0016159689112 0.0021392895724 0.0026732619444 0.0030898512632 
0.0026173604419 0.0015825658047 0.0015001040883 0.00040420668665 0.0010170263267 0.0019829817757 0.003621220123 0.00417080638 0.0036377066281 
0.0028752892395 0.0024697459885 0.0023067262955 0.0023629965726 0.0026724555064 0.0017903874977 0.0014059284731 0.0012938207801 0.0020565300074 
0.0038816677406 0.0051755722379 0.0051201150054 0.0046322148992 0.0044731141534 0.0045694697183 0.0044862452196 0.0039231624105 0.0032836848404 
0.0029607294709 0.0027638246538 0.0026879155776 0.0026404216769 0.0025485347724 0.0024651928106 0.0025326969335 0.0026195833343 0.0024441404967 
0.0021208702237 0.0018581643235 0.0019447963568 0.0023414238822 0.0025622327812 0.0022295202652 0.0014760181803 0.0010740579964 0.0014610832804 
0.0022201121028 0.0030426247395 0.0035969664459 0.0035779390018 0.0032577927341 0.0029118140228 0.0027120243758 0.0026464594528 0.0027252581203 
0.0028041181504 0.0029797012685 0.0033519378048 0.0039031975903 0.0043054254493 0.0039169559022 0.0029255699774 0.0020960965485 0.0016882052005 
0.0020564526087 0.0016033949214 0.002429492888 0.0021910072537 0.0015934447001 0.001758518134 0.0011975785019 0.000734291556 0.00033332767407 
0.00013802832973 0.00016345258626 0.00041367689772 0.00079411765182 0.0010870055848 0.0012684693502 0.0014451742754 0.0015463806922 0.0016783854517 
0.0018275923212 0.0018920492148 0.0011254896817 0.0012604921358 0.00073592095396 0.00069550060834 0.0012734954071 0.0017176589026 0.0011967071478 
0.001663872099 0.00070119794691 0.00050505979016 0.0006309754317 0.0011177348206 0.0018691159494 0.0023325770744 0.0020809731504 0.001540175057 
0.0013932267204 0.0018465916219 0.0021943145548 0.0022385325865 0.0021891043289 0.0022477027378 0.0022992839222 0.0022772515076 0.0020428508578 
0.0014781273785 0.001171320735 0.001471257041 0.0017429315776 0.001621636271 0.0016721044958 0.0014577318798 0.0016649040626 0.0018688716227 
0.0019860809261 0.0019890071126 0.0015124540951 0.0021310515876 0.0036348507274 0.0040495895082 0.0034847255447 0.0027354037156 0.0023212147644 
0.0022255295771 0.0021362732514 0.0021426199237 0.0020491254982 0.002258697059 0.0024026530446 0.0023467316641 0.0021355347126 0.0020075715438 
0.0019322365697 0.0024149795063 0.0038531799801 0.0051068747416 0.0052444433095 0.004932067357 0.0048641908215 0.0048669928219 0.0045706204837 
0.003892551118 0.0032309598755 0.0028570347931 0.0026467755088 0.0024763132096 0.0022835069685 0.0020603398734 0.0018585674406 0.0018479452992 
0.0019190101011 0.0019201444462 0.0020981146954 0.0022361137089 0.0025929817348 0.0031213997863 0.0034537843894 0.0032857334591 0.0027787318977 
0.002566465846 0.0028677664232 0.0032760828617 0.0034741628333 0.0034359519486 0.0032077378128 0.0029440295184 0.0027710568393 0.0026833667071 
0.0025985592511 0.0021251529106 0.0021018513362 0.0023868260614 0.0028904652572 0.0036189504317 0.0042726646643 0.0043658955644 0.0039565688348 
0.0031739510014 0.002402795275 0.0018819780671 0.0017274199636 0.0015017787227 0.0025882297195 0.0035533930641 0.0038287412608 0.0033070480567 
0.002553734812 0.0021693802555 0.003135160252 0.0038290821249 0.0023906070273 0.0017387962143 0.0012475376134 0.0012317419169 0.0019029004907 
0.0028202387039 0.0035647273762 0.0036491057836 0.0029772477574 0.0023045380367 0.002020769316 0.0022437674052 0.0024075067486 0.0011781069043 
0.00092236914497 0.00069380440982 0.00056199253595 0.00060424773983 0.00082873425708 0.0011561146239 0.001518992678 0.0018937554269 0.002163459576 
0.0023258689325 0.0025675895449 0.0028089769185 0.0028641524259 0.0029110920732 0.0024434830411 0.0031189174624 0.0019065779634 0.0014381830406 
0.00092228908034 0.0003142665937 0.00012388973664 0.00052498090372 0.0011105554004 0.0018920892035 0.0017162137956 0.0019817824941 0.002113221999 
0.002238955698 0.002252879669 0.0021930254297 0.0019752859953 0.0015871548385 0.0011559897102 0.00093254352396 0.0010392407858 0.0015555538703 
0.0023016712803 0.0025648211595 0.00213667567 0.0015799995163 0.0012443363084 0.0024199616164 0.002059285529 0.0024401083356 0.0023322639754 
0.0023127346067 0.0023534510401 0.0023236515699 0.0021734268521 0.0017342596839 0.0015168540995 0.0018332813634 0.0020109866746 0.0019369634974 
0.0013538851344 0.001559485303 0.0014299213944 0.0013287225738 0.0014682646433 0.0011502989219 0.00195615142 0.0020195606339 0.0020591690554 
0.0019756622205 0.0021513099782 0.0022633846966 0.0023601615685 0.0024040961289 0.002419280936 0.0024569677771 0.002478318871 0.0027901234571 
0.0037021383177 0.0046906188363 0.0050638616085 0.0049995859154 0.0050976364873 0.0051150689833 0.0046400038991 0.0038870119024 0.0032647502376 
0.002854022081 0.0025417733705 0.0022668470629 0.001993713493 0.0017029053706 0.001444952999 0.0013410031388 0.0013579044899 0.0014425750996 
0.0026392064756 0.0022650527535 0.0031347671174 0.0037338075927 0.0041631589993 0.0042297177133 0.0040985590895 0.0041128945304 0.0042122802115 
0.0040702649858 0.0036454878282 0.0032228875207 0.0029394564917 0.0027788036386 0.0027216623421 0.0026775719016 0.0026310634178 0.002560105233 
0.0020714498824 0.0023819183116 0.0016761322331 0.0015645312669 0.0016973770689 0.0019572791643 0.0026774660219 0.0035913046449 0.004168481566 
0.0019056885503 0.0015382692218 0.0019094655581 0.0018858459953 0.0020610084466 0.0019519527268 0.0021066344925 0.0021779066301 0.0022620522262 
0.0022829060326 0.0023310611723 0.0024705390097 0.0026324501378 0.0027106820489 0.0029010411236 0.0035106332507 0.0042501577991 0.0046335990774 
0.0046491241083 0.0050013259752 0.0051149321953 0.0046339371474 0.0039189305389 0.0033400306711 0.0028580356156 0.0024614963913 0.0021423132566 
0.0018090315571 0.0014647868811 0.0012001552677 0.001051614614 0.00098534411518 0.0010512770532 0.0011845146801 0.0016559885407 0.0012693317258 
0.0021070257644 0.0025269805919 0.0029957855586 0.0035580755211 0.0041748767835 0.0046974535799 0.0050662995782 0.0053051167633 0.0053879339248 
0.0051898360252 0.0044071137905 0.003473206074 0.0029803790967 0.0027935244725 0.0027103463653 0.0027065941249 0.0026731520193 0.0026120477123 
0.0020473033655 0.0024578427547 0.001558170421 0.0012202851067 0.001295242769 0.0014022727555 0.0016044471122 0.0024564533378 0.003561430471 
0.0011774912709 0.0010973580647 0.0010122965614 0.00095691952447 0.0010237314127 0.0012025913747 0.00144582949 0.0018776544312 0.0024639255134 
0.0029101756518 0.0032708611689 0.0036464114091 0.0038407607353 0.0037303514546 0.0035141782525 0.0038707404747 0.0033182970365 0.0040929799434 
0.0025960007333 0.0019782083109 0.0013685728773 0.00074699474499 0.00024210992251 5.0218559409e-05 0.00028708473019 0.00076813455235 0.0014440582017 
0.0021519630973 0.0025264098076 0.0025977653568 0.0025356230908 0.0023965137079 0.0021701130318 0.0018898141279 0.0017005797708 0.0016612594191 
0.00193891651 0.0024647359387 0.0025278942776 0.0020050808671 0.0015535273415 0.0013187669101 0.0012064201874 0.0011772535217 0.0012319917441 
0.0015425799065 0.0022888057865 0.0027975436533 0.0027971599484 0.0025282450952 0.0022593897302 0.0021371306502 0.0020802708459 0.0020214173419 
0.0018738706422 0.0019474515284 0.0023768078827 0.0025613223552 0.0024560353486 0.0020772526332 0.0012619759946 0.0015240816283 0.0011975279776 
0.0013303307933 0.0012300672242 0.0021716339397 0.0021912524244 0.0023328638053 0.0025279895635 0.0026642730227 0.002816247812 0.003227608162 
0.0038032314042 0.004124886822 0.0041080823867 0.0049322625855 0.004816218745 0.0045598505531 0.0040084352368 0.0034413460526 0.0028789255302 
0.0024669569102 0.0020837635675 0.0016506462416 0.0012820644479 0.0010287648911 0.00089352016221 0.00079332369205 0.00073923333548 0.00088132548262 
0.0010319149005 0.0014242857869 0.0011577584955 0.0018465216563 0.0022827998037 0.0026956218644 0.0031803101301 0.0037569352426 0.0043532866985 
0.0049340311671 0.005522271269 0.00599723286 0.00610753824 0.0057784423698 0.0050945178373 0.0028222281835 0.0031774621457 0.0027358526713 
0.0027172639384 0.0027096369304 0.0043841029983 0.0039512831136 0.0026960953837 0.0022049880936 0.002554631501 0.001629403705 0.001069219748 
0.0010938722553 0.0011746710807 0.001253465336 0.0013293383527 0.0013699889823 0.0014611848164 0.0015956430871 0.0017466904828 0.0021514137625 
0.0028540407075 0.0036279069609 0.0044062730158 0.0049509987002 0.0050065247342 0.0045787773561 0.0050175284967 0.00385046663 0.0043578459299 
0.003257217526 0.0025908904499 0.0019256127998 0.0012937444844 0.00066827615228 0.00016964785959 1.5599754306e-05 0.0001586491062 0.00060116501118 
0.0013947365223 0.0022120606736 0.002778329188 0.0029525479767 0.0029433297459 0.0029561612755 0.0029102869448 0.002814040985 0.0026957502123 
0.0024450059282 0.0023289727396 0.0024438748951 0.0023091515177 0.0018384522409 0.0014810175926 0.001375910826 0.0013720313436 0.0014478728408 
0.0012961601606 0.0015677546908 0.001280433964 0.0015558332088 0.0022046004306 0.0030338835204 0.0032507544965 0.0027430559276 0.0021208847756 
0.0017420336953 0.0016310728388 0.0018380008696 0.0018760001209 0.0021426268504 0.0027794814087 0.0031303375144 0.0030227468233 0.0025617404899 
0.0018160168547 0.0011455724598 0.0011607831257 0.0012372730416 0.003606369195 0.0030163562624 0.0022425650677 0.0016986180563 0.0011382608209 
0.0013175967324 0.0021037066763 0.002981829457 0.003659299633 0.0033588512451 0.002526462602 0.0020748410025 0.0018439925916 0.0016981883964 
0.0019892612472 0.0016501612845 0.0021257464541 0.0021187725943 0.001518590434 0.0012219405035 0.0017512960476 0.0018315636844 0.0018955667038 
0.0019839016313 0.0020657908462 0.0023479425581 0.0029922911781 0.0040276862564 0.0053617714904 0.0060085984878 0.005854386487 0.0037687261123 
0.0043282881379 0.004766678554 0.0033257640898 0.0029185697204 0.0024038067786 0.0017979908152 0.0012960971799 0.00077909231768 0.00028660720204 
0.00012911542694 0.00018890464889 0.00033754485048 0.0023562938441 0.0016037767637 0.0029655497638 0.0032558066887 0.0034133451409 0.0036120025325 
0.0037612995948 0.0036945851753 0.0034963228391 0.003285293607 0.0024948547943 0.0027618132881 0.0021976407734 0.0018129862437 0.0015311932657 
0.0014624000178 0.0014989053889 0.0016573625035 0.0018876891118 0.00099052366568 0.00061088081566 0.0036918286933 0.0042161802994 0.0013300460851 
0.0021554282866 0.0030591661925 0.0035052107996 0.0033820853569 0.002747293096 0.0020774666918 0.0021328373696 0.0021941401646 0.0023330416298 
0.0024895342649 0.0026575245429 0.0029481990496 0.0033086506301 0.0035751163377 0.0035940678208 0.0039771210868 0.0043099047616 0.0046088342788 
0.0047108064173 0.0044576231157 0.0040312571218 0.0035098672961 0.0030060270801 0.0025326572941 0.0019895279547 0.0014752316347 0.0011031029426 
0.00085472635692 0.00073620585317 0.00069686981442 0.00055266827258 0.00055546779913 0.0007717168919 0.00091553799575 0.0017125132144 0.0013855937868 
0.002111719019 0.0024855787633 0.0027567245221 0.0031071368139 0.0020624416939 0.0015909961949 0.0013325527252 0.0013861144835 0.0015962212735 
0.0019900310435 0.0029420154751 0.0035655276151 0.0028017977485 0.0017364358646 0.0013623978399 0.0054672247497 0.006130586029 0.0063341638306 
0.0059963633539 0.005490186469 0.0048805704573 0.0034490720718 0.0038477610797 0.0032831826247 0.00303419173 0.0028162531671 0.0027667067479 
0.0027757867938 0.002632681746 0.0022155685583 0.0022864938946 0.0018712531601 0.001343981945 0.0033323549045 0.0036757406197 0.0028232962359 
0.0020235015545 0.0042799119256 0.0043979842449 0.0041745896451 0.0038326372742 0.0034612474847 0.0030699191848 0.0025068460382 0.0018332798791 
0.0012816289091 0.00089201726951 0.00065656723018 0.00057114876836 0.00053036191821 0.00038398668403 0.002482336713 0.0020696160791 0.0028359534335 
0.0019664230058 0.0020318326424 0.0021475034009 0.0023057615035 0.0025720510748 0.0029114324716 0.0032078679651 0.0031034305575 0.0026611385401 
0.0022752657533 0.0019641287217 0.0017632771924 0.0016813054972 0.0016674135113 0.0017555917924 0.0029819095507 0.0027597623412 0.002695823845 
0.0016039457987 0.0013136915319 0.0011181257723 0.00031672475234 0.00043684789125 0.00029176835233 0.00031792441829 0.00045370279258 0.0029766966472 
0.0022192004447 0.0023371638381 0.0024111759267 0.0017875995545 0.002556750318 0.00050020579511 0.00050905923126 0.00042850738828 0.0019323158194 
0.0016736967373 0.0021235404226 0.0011282284104 0.0010243972647 0.00051300253836 0.0006205929385 0.00064030846988 
Stress_Z_Pt 1 1114 double
0.0053902450018 0.0071027579252 0.005687114899 0.0040193688474 0.0068397272844 0.0062443154166 0.0055989678949 0.0058429781348 0.0042874017963 
0.0054246625514 0.0028964993544 0.004755114438 0.00052092451369 0.0035598075192 -0.00059319128559 0.0030053145983 0.00021535974884 0.0030707208298 
0.00072251132224 0.002867120842 0.00091830140445 0.0024007247412 0.00084774650168 0.001879874093 0.00071068259422 0.0014382701193 0.00054271212139 
0.0011165680553 0.0004011176934 0.00094593597169 0.00038484888501 0.00083414687833 0.0004231830244 0.00081194081577 0.00050003112119 0.00089861866581 
0.00045339966891 0.00099496470648 0.00060330430279 0.0012483905593 0.00089572760044 0.0015373753558 0.0014351611317 0.0019566089759 0.002600636275 
0.0028934398142 0.0039660424227 0.0041570661706 0.005418729037 0.0054532231297 0.0058545940556 0.0059515045723 0.0043391183717 0.0050600754912 
0.0023021878442 0.0037293767673 0.0009426564211 0.0028125905083 9.0340268798e-05 0.0022176539642 -0.00053008936811 0.0017773879808 -0.00087238984997 
0.0014388064301 -0.00086433050456 0.0011628347856 -0.00078824433149 0.00092124442745 -0.00070487012272 0.000750519961 -0.00065489398548 0.00062585051637 
-0.00070414243964 0.00051227922086 -0.00063986278838 0.0004674361262 -0.00032555333746 0.00052012189553 0.00044840270129 0.00087143151177 0.0018554041162 
0.0017077790399 0.0033361031674 0.0026261180756 0.00047450000056 -0.0004399857462 0.00060206615126 0.0011682476597 -0.00096191282501 0.00026925404381 
-0.0011253288831 0.00022889603861 -0.0014017355279 0.00018346495926 -0.0020124603179 -5.6542310631e-05 -0.0025656820508 -0.00034148769919 -0.0029346020892 
-0.00048325615353 -0.0029779556207 -0.00039035658119 -0.0025689959293 2.2103253286e-05 -0.0016847726074 0.00085624525673 -0.00049109903921 0.0017734670764 
0.00073016247188 0.0026054780392 0.0017415819457 0.0033746741829 0.0027589062229 0.004054229008 0.0040887724608 0.0049710161984 0.0058745648712 
0.0063318414614 0.0081215403043 0.0078939236701 0.0098609155975 0.0089661648963 0.0098846992478 0.0091137292329 0.0079226195812 0.0082365164999 
0.005079202354 0.0066329777474 0.0026331979316 0.0049273968907 0.0011268370145 0.003539385405 0.00028589225258 0.002907670557 -0.00053129030857 
0.0018112753169 -0.00091031455668 0.0015738578222 -0.0002719303593 0.0018318714574 0.00082911149366 0.0020522262494 0.0015620399499 0.0017631927331 
0.0017507138546 0.001296252769 0.001877930481 0.0011740685441 0.0021184937796 0.0013288223417 0.0031866315985 0.0023144086008 0.0042958068661 
0.0032680238364 0.0031140947249 0.0026117403759 0.0018329693121 0.0019248250464 0.0022940270719 0.0021523431933 0.0028477363521 0.0023349199037 
0.0022170898737 0.0020294004062 0.001223943138 0.0019407568907 0.0010295973625 0.0024525484187 0.0012800246477 0.0031191318994 0.0017962131533 
0.0040381968429 0.0019856421859 0.0046950959659 0.0022641680553 0.0049371692294 0.0033161957981 0.0054967417964 0.0047098984942 0.006207593251 
0.0058818769176 0.0065356122795 0.006380035542 0.0064423251897 0.0063103623688 0.0061391495401 0.006068410119 0.0058379196562 0.0056219866965 
0.0054050406907 0.0048949660268 0.0047657854157 0.00391851319 0.0039345980622 0.0030029029585 0.0030966313789 0.0023007303244 0.0023835891043 
0.0014875466004 0.0017450623855 0.0062598310178 0.0054518538527 0.006431512069 0.0069775625132 0.0074613471515 0.0075098371599 0.007239969098 
0.0064854400698 0.0053871511482 0.004111952323 0.0029849060811 0.0020654452965 0.0014399148786 0.0011921059049 0.0010327691707 0.00095660252555 
0.0010409888346 0.0012675031176 0.0016621622199 0.002099872363 0.0026241569431 0.0034909241367 0.0047048195265 0.0061084454879 0.0063483472914 
0.0058894985123 0.0053252897924 0.0049902065657 0.0047582708066 0.0045003796695 0.0040517356247 0.0033397889929 0.0026046009734 0.0019825252821 
0.0015074005642 0.0012261664669 0.001153527468 0.0011045491119 0.0011410972947 0.0015540033637 0.0023646455084 0.0037913129199 0.0012249002757 
0.0013726702746 0.0012754360941 0.0014437945792 0.0016317502595 0.0017115470255 0.0018969238445 0.002304973139 0.002808670979 0.0035206251196 
0.0042525973986 0.0047734191176 0.0051338699413 0.0053486275719 0.0057861441746 0.006617185194 0.0074477237649 0.0078970846953 0.0081499835942 
0.0083143953234 0.007979283575 0.0070745828561 0.0059019121109 0.0049637163756 0.0038326322683 0.0039746550222 0.0037404502509 0.0032217908883 
0.002236269851 0.0012677426566 0.00074011394463 0.00075940343959 0.0015815471299 0.0021802799602 0.0018782595871 0.0017630278016 0.0019003583293 
0.0019959690107 0.002387389628 0.0034288395545 0.004615609243 0.0055934397969 0.0065961956279 0.0074710570043 0.0078513723565 0.0079434521031 
0.0077537859324 0.0072529682657 0.0067143732449 0.0061546850484 0.005688667763 0.0052823002916 0.0047677347902 0.0040828752681 0.0033484709566 
0.0026689166552 0.0020579318516 0.0016580933006 0.0040360302082 0.0043312146445 0.0080447949003 0.007305618492 0.0082196574658 0.0079346196726 
0.0072398590855 0.0060343898367 0.0046653956524 0.0034826742485 0.0023855588224 0.0014354931045 0.00095930753741 0.00081477014464 0.00077914405847 
0.00082964154717 0.0010199185344 0.0015063866449 0.0022400254093 0.0030943902675 0.0040132498834 0.0051312894793 0.0062887956155 0.0062163234688 
0.0067211578134 0.0057934124488 0.0056819193996 0.0056637123926 0.0055038919672 0.0050233176444 0.004155476694 0.0031108242692 0.0021528220386 
0.0013943985105 0.00098033007816 0.00098596661701 0.0010839027236 0.0011935093644 0.0019412645779 0.0031139442872 0.0048033552594 0.0062900339253 
0.0065281512216 0.0069564467994 0.0070597999729 0.0036024947767 0.0035820528865 0.0033261509961 0.0030128264916 0.0025338475243 0.0018069309299 
0.0011691186955 0.00099591231265 0.0011911948677 0.0015564335044 0.0018298434734 0.0015423373843 0.0019197183719 0.002468757506 0.0034936209559 
0.0050024942611 0.0060196269769 0.0064573207637 0.006960782106 0.0075830210699 0.0080822955351 0.0081438478082 0.0077405829215 0.0072992459172 
0.0069355037995 0.006383011234 0.005823007552 0.0053767171921 0.0048328320263 0.0041511144955 0.0035184031003 0.0028944808291 0.0020748633542 
0.0013816657302 0.0010316402768 0.00093603516871 0.0010033626022 0.0011884543346 0.0014930682664 0.0017490327882 0.0020563981961 0.0025746058673 
0.0030915786047 0.0036426512524 0.0043092903215 0.004810003913 0.0050176524092 0.0051202924224 0.0054397665663 0.0060072470456 0.0069186298642 
0.0073895618552 0.007615150651 0.0076354054036 0.0073435995728 0.0067508480279 0.0059226533631 0.005177107756 0.0045255916193 0.00363425666 
0.0026433382183 0.0027110897936 0.0017286517541 0.0013308606576 0.0069585094461 0.0071895950241 0.0067891802173 0.0065357865533 0.0063001414528 
0.0062785822665 0.0063791822176 0.006374594057 0.0060322182253 0.0051842902321 0.0040219073999 0.0029099420062 0.0019935132004 0.0015125039499 
0.0015185839729 0.0015890438517 0.0023169164488 0.0015689187276 0.0031337839901 0.0043020423036 0.0055158773903 0.0058167017996 0.0070021075662 
0.0066250262316 0.0071302991128 0.0071607440477 0.0069327948149 0.0062918147305 0.0053252266953 0.0042928194162 0.0031758074765 0.002015214006 
0.0011838492122 0.00090358393209 0.00093196975649 0.00097154620744 0.0011758644396 0.0018184845394 0.0027426565066 0.0036196236615 0.004345606314 
0.0051580306608 0.0061656050384 0.0071707633324 0.0072962521808 0.0065767436754 0.006293208804 0.0065886358498 0.0063024408882 0.00591702573 
0.0054251108086 0.0053838725823 0.0013156747154 0.0015153236163 0.0024935303372 0.0023702840554 0.0019221873372 0.0013691705826 0.0010355968843 
0.0010390818643 0.0010835516441 0.0012858808041 0.0010548817081 0.0014642005553 0.001489033777 0.0014580514398 0.0016364358598 0.0021696221957 
0.0029724375345 0.0042518834234 0.0057375109755 0.0064287231071 0.0065045045922 0.0069059067173 0.0076565907802 0.0082149435766 0.0082304675598 
0.0078367780661 0.007420229027 0.0070593245327 0.0065548805287 0.0059624360874 0.0053953367751 0.0047533628531 0.0040537976311 0.0034784279414 
0.0028890300309 0.0018753390526 0.0012132969132 0.00094293685106 0.00090872657893 0.0010130608716 0.0012382016866 0.0015909658396 0.0019321927684 
0.0023249911028 0.0027692533331 0.0031293605571 0.003475173784 0.003865527513 0.004238671565 0.0045068713371 0.0046676360071 0.0048931587953 
0.0051181472372 0.006680018967 0.0063394595636 0.0069597142283 0.0069788155379 0.0066539376276 0.0062764452305 0.0059556819809 0.0053295459365 
0.0045556641417 0.0038334269775 0.0031499109464 0.0020838700875 0.0024575073039 0.0018213840085 0.0018281047523 0.0019336098921 0.0018355064385 
0.0014390127908 0.0010914639715 0.0042205959326 0.0049688456347 0.003461795277 0.0026049259468 0.0015017113619 0.0017996892857 0.0014062433766 
0.0013137892238 0.0013326206536 0.0015034496028 0.0015621465573 0.0013815431448 0.0011106215679 0.0058048890205 0.005149203469 0.0065876045264 
0.0065609778976 0.0064726686105 0.0064323063707 0.006516284775 0.0065757293487 0.0063568188343 0.0057188695064 0.0047691336949 0.003696129017 
0.0027233422734 0.0021442045982 0.0020034759364 0.0019827216456 0.0018363402924 0.0014452255273 0.0016733784869 0.0014338191831 0.0016955391038 
0.0022086039535 0.0029307851801 0.0039946230245 0.0049461730523 0.0052156086313 0.0056485451059 0.005072599859 0.005536871613 0.0049134342698 
0.0049465280026 0.0052254884504 0.0056197149679 0.0058966256911 0.0059409952955 0.0058228502749 0.0057684492785 0.0058896545088 0.0059799959417 
0.005666706129 0.0048244997161 0.0037180829095 0.0026277110446 0.0017725322105 0.00129166439 0.0012108091614 0.0013719262788 0.0016294682282 
0.0023006811098 0.0032151428168 0.003935490211 0.0044468350243 0.004980568192 0.0058229479473 0.0066734808497 0.0065824488411 0.0055866903858 
0.0049984473735 0.0045410526218 0.0055596384918 0.0058316852665 0.0011493782076 0.0013631050242 0.00096531791496 0.00098702278046 0.0010096514889 
0.0009436558903 0.0011678694282 0.0013167239085 0.0013580413652 0.0014272161934 0.0017502519768 0.0023824907548 0.0032613618532 0.0044357090374 
0.0055315028876 0.0058942246251 0.0059457527241 0.0065145427361 0.0076213333523 0.0084983741399 0.0084884446114 0.0079817927908 0.0075615779497 
0.007185755996 0.0066099502146 0.0059341208544 0.0053246782627 0.0046562552452 0.0039063076256 0.0032346564112 0.0026200051652 0.0019237240485 
0.00093867137912 0.0010586347053 0.00093868255499 0.0010402854969 0.0012487709464 0.0015822239511 0.0019897185557 0.0024477108382 0.0027590350946 
0.0028923301725 0.0030951722874 0.0034326777095 0.003803783271 0.0040967172245 0.0042954225792 0.004493221757 0.0047057049039 0.0046473989496 
0.0050239597913 0.0045572394738 0.0055565764196 0.0059774669353 0.0062123612734 0.0064081802266 0.0064528047806 0.006133156945 0.0056268195622 
0.0012367727759 0.0013479987101 0.001037005437 0.00097545488097 0.00097416873905 0.0010273067164 0.00099408914684 0.0010678705585 0.0011600192714 
0.0012169562979 0.0014204447216 0.0018493235402 0.0025260080583 0.0033459275146 0.0042977652629 0.0051868075971 0.0054794132011 0.0054784747772 
0.0061115695164 0.0074223527918 0.0085241713095 0.0085444962606 0.0079715057509 0.0074806002667 0.0069528991589 0.0062453380087 0.0055689539295 
0.0050050398568 0.0043610311695 0.0036128167412 0.0028860227321 0.0022880907054 0.0017935023061 0.0014011364547 0.0010894759907 0.0011790255958 
0.0010332299571 0.00096700778522 0.00095380395942 0.0010058359476 0.0011304742075 0.0013409982785 0.0017000756634 0.0021221275092 0.0024189515971 
0.002457209921 0.0025614624377 0.0030091599911 0.0033375992789 0.0037053741398 0.0039147564094 0.0040792728541 0.004309181124 0.0042018005624 
0.0044870834099 0.0041228397749 0.0049839740386 0.0054088842589 0.0057545307403 0.0058220288483 0.0058689042926 0.0059913094155 0.0056680195034 
0.006040535518 0.0061833688524 0.00616942544 0.0061041396111 0.0061480973382 0.0062091544969 0.0060920519754 0.0057789206039 0.0052501239115 
0.0043575253221 0.003397228953 0.0027345175622 0.0023527140147 0.0021612663986 0.0020375635164 0.0019961711951 0.001569444692 0.0018151881522 
0.0014081552508 0.0014047497243 0.0015812065976 0.0020754346042 0.0029034919571 0.0037866523489 0.0043632350862 0.0044655168895 0.0044375938596 
0.0045863386476 0.0048761301441 0.0052822862053 0.005702580791 0.0059160143137 0.005833008443 0.0055383642903 0.0052007824415 0.0050862714415 
0.0052450910443 0.0052861245349 0.0047871160787 0.0038683495368 0.0029873654712 0.0022797269339 0.0017882490647 0.001320941723 0.0015687874984 
0.0013075634488 0.0016683414578 0.0019770884537 0.0020301558543 0.0021299783839 0.0025489770924 0.0031475704745 0.003633190121 0.0040339367115 
0.004493317625 0.0050592906773 0.0054569602944 0.0053582859691 0.0049917564029 0.0046868437203 0.004076816258 0.0045746023534 0.0042071448018 
0.0045406844001 0.0049186237156 0.0011371642177 0.0014176273253 0.0018644958618 0.0024757884094 0.0031949181575 0.0039298788761 0.004614563426 
0.0050589217572 0.0052794077201 0.0056757915299 0.008377941791 0.0074615239864 0.008335466031 0.007727567805 0.007045361679 0.0063333462458 
0.0056818439625 0.0051378555363 0.0046431975206 0.0040868840879 0.0034507602104 0.0028290908667 0.0023045261041 0.0018852145004 0.0016278095427 
0.0014124562731 0.0010869692487 0.0011970291962 0.0010071828146 0.00093919532083 0.00091898221581 0.0009548003145 0.0010518885392 0.001210244227 
0.0014464743144 0.0017493111663 0.0020423629903 0.0021691588336 0.0020803867956 0.0020624285098 0.003530789807 0.003279449651 0.0037820920115 
0.0038989819004 0.0039963085437 0.0066389983986 0.0062396494905 0.0039919742849 0.0041497807251 0.0040823962772 0.0045111688087 0.0050724412315 
0.005411312799 0.005250981194 0.0054608068895 0.0055051411036 0.0054916709196 0.0055575984297 0.0056194023928 0.0055348471506 0.0053981624078 
0.0051728417166 0.0045534271048 0.0037408532226 0.0031228195876 0.0026273055701 0.0022702118731 0.0020119151799 0.0014661313908 0.0014594820095 
0.0014078576642 0.0013180322712 0.0012989622483 0.0014541856362 0.0019088676199 0.0025710018235 0.0031985908863 0.0035111739999 0.003699492244 
0.0041312450776 0.0045906687155 0.0050739330472 0.0056104533141 0.0061650240095 0.006596471183 0.0066741877235 0.0063216130948 0.0056365585187 
0.0049494005507 0.0046266616555 0.0045837085927 0.0043777138926 0.0037685053539 0.0030624691281 0.0025089419214 0.0020628335478 0.0017336852325 
0.0014688132796 0.0015087204229 0.0014369757846 0.0014764424413 0.0018424718583 0.0023531159968 0.0023222505697 0.0020768513787 0.0022313505178 
0.0025445492938 0.0027585892472 0.0034126764513 0.0039047906951 0.0041266264161 0.0044835669687 0.0046914432896 0.0049510771642 0.0052051680395 
0.0052572971908 0.0046785630984 0.0052350229817 0.0041688709753 0.0047602157574 0.0037746733869 0.0029015026521 0.0025280423579 0.001621127798 
0.00088989996584 0.00077168123971 0.00088507287728 0.0011933533242 0.0013677385286 0.0013200966932 0.0012117250299 0.0010573626059 0.0011086410523 
0.0012087935174 0.0013183089904 0.0011055782234 0.0010863258649 0.0047280886211 0.0046114599099 0.0048019788228 0.0048830559244 0.0049990202533 
0.0050396395382 0.004935955978 0.0048086100724 0.0046357131796 0.0041878739139 0.003385368688 0.0030744676478 0.0025639850646 0.0011349118548 
0.0012674557511 0.0014688440133 0.0011386654223 0.0011673888366 0.0011716128502 0.0011771739228 0.0012735328928 0.0015805432573 0.0022105042881 
0.0026543425629 0.0029154123622 0.003209705872 0.0047730937367 0.0043300950201 0.0052508128574 0.0058593204012 0.0066359108314 0.0074750572676 
0.007891203044 0.0074472138658 0.0064324325649 0.0054259466939 0.0042471032357 0.0045629281085 0.0040480516036 0.0036084965686 0.0030166345532 
0.0025114931632 0.0020890652377 0.0017345307569 0.0014564948797 0.0039256728487 0.0035634477972 0.0028573778691 0.0024445709423 0.0054757682374 
0.0057216100395 0.0056494909804 0.0050542693352 0.0042844392592 0.0037000240991 0.0033618328162 0.0013760290749 0.0017809600686 0.0022775510733 
0.0028973376029 0.0035330461105 0.0041384426295 0.0046661992092 0.0050350785023 0.0052803317085 0.0069628785131 0.007120182272 0.0078220840078 
0.008443551138 0.0080772571964 0.0071710549528 0.0063102862332 0.0056719528511 0.0052014053799 0.0047947728308 0.0044276711997 0.0040134334122 
0.0035095554776 0.0029864757671 0.0025147275301 0.0020857233612 0.001793175732 0.0015864356537 0.0013439986215 0.0010190471658 0.0010824793717 
0.00095058124862 0.00091793965839 0.00091957196128 0.0009722578834 0.0013378101139 0.0013532338926 0.0013536914485 0.001427027164 0.0015311913254 
0.0017638151476 0.0020917825168 0.0018721727538 0.0012156211771 0.001382744711 0.0018359183644 0.0017775757296 0.0021412952337 0.0024523971369 
0.0024067664635 0.0021885954775 0.0027244614321 0.0029934366466 0.003426542622 0.0030878931284 0.0033904018346 0.0037058079033 0.0039091776707 
0.0039798979415 0.0041921240278 0.0043290155008 0.0044637394603 0.0043079936877 0.0044818053721 0.00090431144539 0.0013664553408 0.0016916763736 
0.0014380999375 0.0079661796335 0.0084911652375 0.0079262958607 0.0068339747377 0.0059154295595 0.0053343286272 0.0049274869962 0.0045660980977 
0.0042250587139 0.0038511924213 0.0034259923268 0.0029716891586 0.0017170943029 0.0018092318593 0.00097753742011 0.001031140564 0.00097496400122 
0.0018022555741 0.0022333082452 0.0027732357848 0.0033582980395 0.0039640723844 0.0045153541723 0.0048494637012 0.0047832777491 0.0043489548843 
0.0039218220045 0.0034313009237 0.0028858970036 0.0023782335338 0.0019595897757 0.0016948585398 0.0034570644493 0.0038500197115 0.0040860335575 
0.001076435874 0.0011159924713 0.0011691229302 0.0023829092388 0.0020138958644 0.0027266680263 0.0030151193496 0.0031938537722 0.003921787662 
0.0046447614829 0.0045584713807 0.0044176438823 0.001634801476 0.004224363307 0.0024297877098 0.0020338858012 0.0028130282881 0.0063504409045 
0.0064211618155 0.0010054066273 0.0044130709721 0.0047069436405 0.0021395108779 0.0025689419708 0.0016172598698 
Stress_XY_Pt 1 1114 double
0.0019390837988 0.001282155863 0.00046444865529 0.001401828843 0.00027780963137 -0.00014426014604 -0.00013679305994 -0.00023431737281 -0.00062257738318 
-0.00034682222395 -0.00026419264032 -2.5476001611e-06 0.00010766619152 0.00041714035137 -0.00021071025776 0.00042867641127 -0.00024238618062 0.00036637185622 
-1.7026139176e-05 0.00043626262504 1.965073875e-05 0.00041117052376 -0.00021893415601 7.6462216271e-05 -0.0005904485879 -0.00042088450846 -0.00077380941366 
-0.00068598844518 -0.00084196418175 -0.0007821485051 -0.00083457186702 -0.0008082662971 -0.00078783620847 -0.00076000978879 -0.00082162575563 -0.00067858523107 
-0.00051798913773 -0.00040410416841 -0.00031100496562 -0.00032325794018 -0.00033893241925 -0.00044269107093 -0.00024581551406 -0.00047360339886 -0.00044012426224 
-0.00064683680102 -0.0008390773728 -0.00083994015586 -0.0011309548281 -0.00083633085887 -0.0010745061736 -0.00074061821942 -0.00057369871502 -0.00058001050274 
9.0359353635e-05 -0.00029626133983 0.00046143108921 -0.00010782427125 0.0004687977198 -0.0001179837127 0.00038920524821 -0.00017249285156 0.00046955609287 
-5.8449986682e-05 0.00064833182842 0.00022053607427 0.00088175188284 0.00058805828485 0.0012504812912 0.001069453705 0.0017123909201 0.001644903532 
0.0020896111382 0.0021875406092 0.0021233748412 0.0024747664575 0.0017715550493 0.0024208609248 0.0012951991521 0.0021311264136 0.00098439463181 
0.001785235625 0.0012767902226 0.0016508379194 -0.001334093191 -0.00093855825253 -0.0016221451806 -0.0019371637172 -0.00093323091278 -0.0014913958439 
-0.0010145232955 -0.0014241697063 -0.001075920416 -0.0012753623887 -0.00073486588371 -0.00080609968427 -0.00040264836571 -0.00032837843719 -0.00034522247734 
-8.3754222942e-05 -0.00021622818895 0.00021194984583 9.7736919997e-05 0.00069796688331 0.00069571082713 0.0012945837516 0.0012817262323 0.0017354532902 
0.0014732396812 0.0017317447637 0.0013971018489 0.0014641921734 0.001297516108 0.001245836931 0.0011875763885 0.0010352772806 0.0010584698175 
0.00074126930849 0.0011260019965 0.00049334497453 0.0013245614246 0.00040841112059 0.0014133419027 0.00051748970873 0.0013365358463 0.00079125184857 
0.0010859800095 0.0010346845374 0.00053748669598 0.00095590204364 -0.00018462456501 0.00054657078363 -0.00069532147609 -1.6384549963e-05 -0.00086275668582 
-0.00051656321921 -0.00090163201094 -0.00068211379403 -0.0010083007219 -0.0010175967182 -0.0014263374032 -0.0015998115705 -0.0017167703481 -0.0019068843103 
-0.0013055971067 -0.0015460086433 -0.00054768619884 -0.00083866930072 0.00042440190737 7.7063556091e-05 0.0012367675081 0.0010363532019 0.000893780365 
0.0013761308146 0.00062809693918 0.0013953930829 0.00084576228983 0.0013298706472 0.0010527885752 0.0012208018452 0.0014509725734 0.0013201266702 
0.0021932432428 0.0017109445471 0.0025791560765 0.0019307137118 0.0018972019316 0.0014253469417 0.0011964230798 0.0007806149406 0.00091985272593 
0.00038460693395 0.00069060116948 0.0001088997451 9.9011420389e-05 -0.00028673301131 -0.00037017984141 -0.00058541631006 -0.00052148227405 -0.00061692611052 
-0.00049224654504 -0.00046615059546 -0.00031828886131 -0.00022523068151 -0.00014298923634 -2.8206811521e-05 1.6807083739e-05 0.00010659188774 -7.5288604421e-05 
4.1612855057e-05 -0.00054947726312 -0.00035840032615 -0.0011266695801 -0.00093940703664 -0.0016409498639 -0.0015167980746 -0.0019299520063 -0.0019976066833 
-0.0018734450568 -0.0021977547731 -0.00096895743627 -0.0006335775679 -0.00073456973041 -0.00041097052454 0.00024212312928 0.00074293140642 0.0010424693755 
0.0010032300925 0.00084759575839 0.00060657645372 0.00013679302083 -0.00036632170213 -0.00059750996297 -0.0006371960917 -0.0006317217485 -0.00056920799398 
-0.00038973927803 -0.00018423616984 -0.00018788486523 -0.00034393170336 -0.00052187611436 -0.0006970155373 -0.00071177876089 -0.00032339481986 -0.00018542259932 
-0.0004295305007 -0.00064143848431 -0.00072278562584 -0.00076263089431 -0.00075713307888 -0.00062227214221 -0.00029330304278 0.00018496241501 0.00074924940418 
0.0013793783728 0.0020284945203 0.002564525581 0.0028480275068 0.0028249211609 0.0024512785021 0.0017411775771 0.00057264034785 -0.0022295108647 
-0.0024358237861 -0.0019753068627 -0.0015770807222 -0.00093886363902 -0.00020743242021 0.00040773772525 0.00099777337891 0.001657560817 0.0021318902727 
0.0021956635755 0.0018707823765 0.0013867634116 0.0010014866566 0.0006963594351 0.00030671585557 -0.00014262368347 -0.0004088336791 -0.0002913012886 
0.00019090682872 0.00077610235894 0.0011580295395 0.0011930863257 0.00080505682854 -0.00056062129443 -0.0002422538455 -0.0011786189571 -0.0018599712639 
-0.0021326078568 -0.00185322162 -0.0012144215143 -0.00042478988689 0.00057276413718 0.0017139879637 0.0020337128954 0.0017749444232 0.0013644529972 
0.00112957292 0.0011639372678 0.0012458670535 0.0010350942612 0.00055820895432 1.6403857444e-05 -0.00039897817987 -0.0006134758587 -0.00067673187004 
-0.00055825631716 -0.00033336002525 -8.8297781303e-05 9.9444160469e-05 0.00018228947374 0.00014747400019 -9.5415334727e-05 -0.00056350138402 -0.0011477335502 
-0.0018005891761 -0.0023157848918 -0.0025088817929 -0.00012001492178 0.00022457172963 0.00017652823954 -0.00045836824211 0.00069989435724 0.00097118188569 
0.00099746711203 0.00074803540338 0.00026750325924 -0.00027242256328 -0.00055248678109 -0.00049144455261 -0.00032196438906 -0.00021686387799 -0.00017646704146 
-9.4427345175e-05 1.3545616639e-05 2.3170067834e-05 -8.1367543316e-05 -0.00022956475914 -0.00037749536205 -0.00046039427252 -0.00036118373464 -0.00027865992524 
3.9162991015e-05 -0.00057671961258 -0.00073392859485 -0.00078019557986 -0.00073971004167 -0.00062603040715 -0.00038713300819 -4.4124863052e-07 0.00048539270028 
0.0010108986025 0.0015492394159 0.0020284723432 0.0022086289711 0.0023013175523 0.0019253489154 0.0011990021303 0.00021881688735 -0.0010118024802 
-0.0016934407759 8.4549894382e-05 -0.00017514215142 -0.00055801758572 -0.00020120306726 -0.0010822866461 -0.0016348826757 -0.0019510562124 -0.0018203320506 
-0.001299099531 -0.00065720031125 -0.0001617293492 0.001634674205 0.0013373962865 0.0015283997345 0.0012598879985 0.0010501910147 0.0010652822821 
0.0012363769347 0.0012092375546 0.00082496981486 0.00022720721608 -0.00033112046367 -0.0005854468327 -0.00052910907834 -0.00032386577914 -0.00013126070371 
3.8326066715e-05 0.00018360650211 0.00024652597494 0.00023648564456 0.00010862917406 -0.00019909335606 -0.00067722296808 -0.0012805916922 -0.0018834623625 
-0.0023007188574 -0.0024404368014 -0.002366513072 -0.0021624752553 -0.0017837561318 -0.0011244337657 -0.00023547304954 0.00069752756463 0.0015240765351 
0.0021418739925 0.0023621338187 0.0020795356249 0.0015452652879 0.0010216652299 0.00064006389584 0.00039370101513 0.00012152936952 -0.00012959895537 
-0.00026289220477 -0.00020162322289 7.0551266617e-05 0.00045535333629 0.00083370960783 0.0010260433774 0.00091532654187 0.00058072113097 0.00026767714735 
-0.00041848482069 0.00020557638527 0.00062963969685 5.9479227275e-05 6.3302783474e-05 -9.3252401257e-05 -4.6365776143e-05 -0.0002935584489 -0.0004867747848 
-0.00058030715445 -0.00059618213709 -0.00055642858933 -0.00047873647418 -0.00033526168045 -5.8758536397e-05 0.00034592866541 0.00079739707871 0.0012719725783 
0.0016786714259 0.0018539681623 0.0012959114101 0.0016986941919 0.0008061650442 0.00016553484966 -0.00090122280744 -0.0017233536346 1.2350143152e-05 
-0.00050416873637 0.00043218025712 0.00065134045144 0.00065019370231 0.00036951504444 -0.00017045861023 -0.00063102024433 -0.0006439681456 -0.00029046877717 
0.00021823743336 0.00035369788793 0.00032333113995 0.0002405623236 0.00016421907821 9.5918555417e-05 2.6274531592e-05 6.5933363658e-06 -1.5970468667e-05 
-8.8791723101e-05 -0.00017616798323 -0.00024177322666 -0.00017057810464 -0.00011252177092 -4.2839129947e-05 -8.5912293343e-05 -0.0010281012655 -0.000940742073 
-0.0013509290875 -0.0011811609535 0.0018241810612 0.0018458096019 -0.00095718795637 -0.00130093396 -0.0013686398452 -0.0011198198627 -0.00070190681436 
-0.00035785672299 -0.00016728149239 8.1281084931e-05 -7.1088908044e-05 0.00039688288598 0.00078738094453 0.0010736137192 0.0011762109061 0.0011294510914 
0.0010251811036 0.0010498794873 0.0012675474281 0.0012918757275 0.0008527621103 0.00016772092567 -0.00039734923848 -0.00063567514007 -0.00054413764883 
-0.00025815880872 1.4634639228e-05 0.00021057181584 0.00034150988358 0.00039917373215 0.00041094000335 0.00033547390922 0.00010778671276 -0.00028467111406 
-0.00081601583224 -0.0013999770046 -0.001972602593 -0.0021865017479 -0.002252375125 -0.0021909377538 -0.0018798912351 -0.0012344440038 -0.0002881312721 
0.0008069213909 0.0017875884369 0.0023141467827 0.0022503259243 0.0017538619868 0.0011378213239 0.00065795426781 0.00038477471389 0.00023802175565 
0.00014516052033 -0.00016700968627 -8.1604227631e-05 -0.00014966206618 -2.6278767109e-06 0.00025319738506 0.00057687149092 0.0008194182883 0.00071825260238 
0.00059304984461 0.00050238728727 0.00049031503295 0.00038806545308 0.00060780343483 8.3805743998e-05 -0.00026224190151 -0.00055928038273 -0.00074176267663 
-0.00072225702024 -0.00056710951321 0.0004303749447 0.00035431883953 0.00053915467288 0.00071027621743 0.00085884779401 0.00091735407477 0.00077353315282 
0.00060471036704 0.00030705309109 -8.2136451965e-05 -0.00029548633756 -0.00033902492214 -0.0003515120261 2.3286181971e-05 0.00010072106761 -0.00015340412756 
-0.00025934409859 -0.00032098269003 -0.0003240116821 -0.00028638757794 -0.00023662047442 -0.00021605068378 -0.00018956060921 -2.6474845072e-05 0.00029027899836 
0.00071130673314 0.0012267663406 0.0016801757447 0.0019112331502 0.0019344528555 0.0017001811939 0.0017792737344 0.001576943585 0.0013447212696 
0.00098252549651 0.00064923656464 0.00022118775996 -0.00048244399477 -0.0011121476855 -0.0018096137792 -0.001416521176 -0.0015944837069 -0.0014618459099 
-0.0013515500177 -0.0011809939751 -0.00096382347692 -0.00062858334422 -0.00023760480872 2.4434388251e-05 7.5638461567e-05 -6.5417050791e-05 -0.00041255819087 
-0.00087828731921 -0.0010498943448 -0.00072067911969 -0.00018778415142 0.00025771731998 0.00086659048975 0.00094611573149 0.00060749350087 0.00030509060525 
0.0001459041614 0.00016912590399 0.00029974331483 0.00046585953532 0.00049447876154 0.0003163622514 0.00011797294246 0.00012346268568 0.00023060274407 
-1.7404046048e-05 0.00017829424996 -0.00013654861687 -0.00015177119712 0.00077468353265 0.00051952496869 -0.00011508056741 -0.00029844531673 2.9068319236e-06 
3.821385144e-05 4.2716970256e-05 0.00016328076072 0.00037340924973 0.00067872888758 0.00092267170839 0.00097445047868 0.00092323854915 0.00097964893212 
0.0010829051462 0.00093052646844 0.00046672188 -0.00013717565344 -0.00059054520534 -0.00073837996752 -0.00060412837774 -0.00028556817961 5.3999809097e-05 
0.00031615791522 0.00045489613694 0.00049976068112 0.00052019006398 0.00047924837418 0.00030667207466 -7.1523545557e-06 -0.0004212646827 -0.00077419006993 
-0.0019486517122 -0.0017083921994 -0.002066116489 -0.0020141725254 -0.0016811668756 -0.001036437352 -0.0001055353423 0.00097459020617 0.0018880085554 
0.0022570744622 0.0019891648262 0.0013915194286 0.00083955274022 0.00048326183605 0.00028578452475 0.0001905064164 0.00015376951584 0.0001473529519 
6.0966051819e-05 0.00012957758008 3.4919017452e-05 -8.4713471153e-06 -8.0226352566e-05 -7.1110563113e-05 -4.8594052714e-05 9.3066611043e-05 0.00038831671191 
-0.0013413419656 -0.00089537051099 -0.00011677379189 0.00010155198288 0.00015557825827 0.00023301209876 9.1262404112e-05 6.582384367e-05 8.8115139079e-05 
0.00023440627047 0.00048810635053 0.00067047262564 0.00068840287713 0.00063304765354 0.00063122894062 0.0005544785181 0.00022720079323 -0.00019620655985 
-0.00059203921846 -0.0007360735035 -0.00085922724975 -0.00068037177698 -0.00031182539897 3.9503254811e-05 0.00029049849036 0.00042947687325 0.00047124780394 
0.00048978616542 0.00046347059106 0.00034634044277 0.00013231096364 -0.00012281667023 -0.00035393868893 -0.00046047856449 -0.00078408898844 -0.00039520165228 
-0.0011499472166 -0.0014311320265 -0.0016330396757 -0.0017017299251 -0.0015724159603 -0.0011918381788 -0.00055736519062 0.00025316382744 0.0010693561635 
0.0016844906786 0.0018295474816 0.0016117762134 0.0011301592021 0.00069771934068 0.00043043466576 0.00026981821429 0.00018728818031 0.00019246026932 
0.00011420615283 0.00021075888799 5.0309507856e-05 4.8871634931e-05 3.3567969391e-05 -2.9410128718e-05 -7.9578151599e-05 -8.9020084033e-05 6.435122159e-05 
-0.00016234745999 -0.00016326488185 -0.00013185175017 -6.5699683958e-05 2.3616697945e-05 9.5566535492e-05 8.6543998805e-05 1.6962190784e-05 9.5538588312e-06 
0.00017742187708 0.00059708359913 0.001207815978 0.0017593711964 0.0020221695886 0.0020225561845 0.001841958001 0.001470150979 0.0013856237783 
0.0014284554927 0.0012972839468 0.001098713532 0.00085677464085 0.00059492224682 0.00025874465064 -0.00021427178581 -0.00069347510725 -0.001059671893 
-0.0012259943469 -0.0011967373721 -0.0011081152479 -0.0009934163827 -0.00079974085384 -0.00054383503084 -0.00041448502088 -0.00050396777078 -0.00076121096936 
-0.0011985440797 -0.0016025439254 -0.0015155498404 -0.00093893078156 -0.00032769871905 9.2459726147e-05 0.00032694167021 0.00066876778146 0.00043915228889 
0.0010106386035 0.0013727419428 0.0014040733222 0.0010245611484 0.00053889736228 0.00029889212601 0.00041664234959 0.00068301473948 0.00091218917805 
0.00093764593475 0.00072243034811 0.00048469837202 0.00041909878928 0.00040175217873 0.00025269377147 -3.8889766984e-05 -4.0497499867e-05 -4.9452009989e-05 
-0.0001274608876 -0.00015925511616 0.00019514507949 0.00034289034375 0.00037737974344 0.0002967563546 0.00018780624532 9.0242414444e-05 -0.00010060726163 
-0.00044466576037 -0.00079535136319 -0.0010068472184 -0.00095064427296 -0.00079602512415 -0.00081082666293 -0.00039990011282 -1.9489021724e-05 0.00019536176296 
0.00027734821197 0.00028855432902 0.00029537608862 0.00029234123213 0.00024855430092 0.00014300869589 2.0043085442e-05 -0.00010434312799 -0.00016766297449 
-0.00012040385855 -0.00021756590104 3.2035435197e-05 -0.00055182233336 -0.00087422179058 -0.001082717863 -0.0011493596685 -0.0011079563992 -0.0009388634644 
-0.00057177829513 -5.2926268836e-05 0.00050209770779 0.00097996467957 0.0013082120859 0.0014012507163 0.0009100916941 0.0012047232885 0.00061314785853 
0.00040076609002 0.00027098489591 -0.00077927131497 -0.00099821866024 0.0003136780324 0.0002226486904 0.00036438246752 6.1388541326e-05 -7.3179136234e-05 
-2.6467821044e-05 -0.00012670321576 -4.9627219596e-05 4.691831559e-05 0.00015721646336 0.00026899730619 0.00034831686207 0.00034155537651 0.00022423747578 
6.851491105e-05 0.00010304453588 0.00048440278624 0.0010884076037 0.0015914465475 0.0018182566855 0.0010826908052 0.00077639836672 0.00040151127905 
0.0010270555504 0.001103263523 0.0010335930856 0.00087609935144 0.0007009121764 0.00050284498866 0.00024165931245 -9.5385661552e-05 -0.00045216670551 
-0.00079177670705 -0.00093578422093 -0.00094098837872 -0.00093461558572 -0.00094543784508 -0.00093072198797 -0.00083066102525 -0.00076757001807 -0.00087697380513 
-0.0011877554643 -0.0016498463228 -0.0019781239389 -0.0018158699677 -0.0012229023705 -0.00061197716786 -0.00015427787184 0.00014704794194 0.00027604389106 
0.0004967275745 0.00033319184513 0.00075237707642 0.0010568245198 0.0014525089064 0.0017367403489 0.0014953007048 0.00090334389824 0.00054133962112 
0.00066449821315 0.0010109632974 0.0011174292304 0.0010455073401 0.00092921372561 0.00074454494461 0.00055098004668 0.00035832271897 0.00018644746342 
-3.3918362533e-05 -0.00025921253837 -0.00018822393031 -0.00020752798082 0.00028324567575 0.00053966748237 0.0008108043985 0.0010641055705 0.00092973239953 
0.00098633419839 0.0011549931078 0.0010958820931 0.00080212036119 0.00037673385305 7.3809922469e-05 -5.2973008678e-05 0.00013625862721 0.00026888864886 
0.00027565864002 0.00035122508416 0.00023920611784 0.00020962428243 6.6552437602e-05 -8.7227078438e-05 0.00021034742349 0.00033370939127 0.00043546818779 
0.00050324283802 0.00050693577941 0.00039559424476 0.00019025872689 0.00016388435552 0.0005810161354 0.00095784383302 0.0011331824935 -0.00031818779535 
-0.00041689455005 -2.2035321308e-05 0.00019514134692 0.00052413133017 0.00073186086229 0.00079336084309 0.00069879041985 0.00046206423431 0.00033686288225 
0.00018989646742 -1.7082007616e-05 -0.00018880901916 -0.00059435818548 -0.00048382352907 -0.00062341665034 -0.0006907599236 -0.00081973065971 -0.00096163306443 
-0.00097624577757 -0.00091175007401 -0.00098566322413 -0.0012804178521 -0.0019388517248 -0.0017293006531 -0.0017912985932 -0.0013294439123 -0.00080652403994 
-0.00036461181116 -2.549257988e-05 0.00015596330013 0.00024337834839 -0.00030661986784 -0.00015593648322 0.0013964551617 0.0012062328897 -0.00013541211047 
-6.6775492542e-05 7.8844200743e-05 0.00027090638287 0.00059234321816 0.00089255081548 0.0010872973362 0.00025052345882 0.00011917962547 -0.00010768513448 
-0.00032165254515 -0.00047642148274 -0.00067179232428 -0.00096142807161 -0.0012148216047 -0.0013255609083 -0.00093076657504 -0.00082290966141 -0.00089672277682 
-0.0010203353158 -0.00092717917869 -0.00055761482145 -0.00019290662567 2.6019552024e-06 3.1809437132e-05 3.5292071516e-05 8.5050293819e-05 0.00013774899162 
0.00014689791897 0.00011224809168 7.2412594363e-05 5.2362618135e-05 4.385768807e-05 8.5270088221e-05 0.00020833088229 8.7816417818e-06 0.00026220309701 
-0.00027595461938 -0.00057711932459 -0.00080098609518 -0.00064992857369 0.00033189894748 0.00051129229178 0.00057521609415 0.00090882665245 0.0011022399412 
0.0013140553492 0.0015766431752 0.0015772170445 0.0012393557234 0.00082266941899 0.00077569896045 0.00040046152208 0.00069901195093 0.00091590269585 
0.0010004478827 0.001023179541 0.00074631079042 0.00088490107737 0.00047056817493 0.0010837575925 0.00089843038586 0.00072306704533 0.00056845946528 
0.00043217837811 0.00051548210904 0.00033104445174 0.00045586107444 0.00016936821339 -3.1984052839e-05 0.0013415111074 0.0012404657755 0.00093181148404 
0.00017610956311 -0.00094622148026 -0.0010214224312 -0.00096312513051 -0.00069364601222 -0.0004345107227 -0.00029797938441 -0.00026757053456 -0.00020770369247 
-7.812442982e-05 1.7778287202e-05 5.8657775753e-05 7.6367702604e-05 0.00017119692347 0.00015126675135 7.3926853702e-05 0.00032952452534 -0.00024795704303 
-6.0923291585e-05 -0.00039131112135 -0.00070571385731 -0.00095475497073 -0.001156078215 -0.0013143645192 -0.0013975852635 -0.0015647719265 -0.0016529779532 
-0.0015411864733 -0.0012308186851 -0.00084789868561 -0.00046679287334 -0.00012074579126 7.3855449955e-05 0.00069371183054 0.00064239179483 0.00060187044437 
0.00052778860118 0.00058979156893 0.00040620900472 9.8071729553e-05 0.0001692275282 1.0567690651e-05 -7.3350550338e-05 -3.5624431575e-05 0.00044127460933 
0.00052078923909 0.00057738428586 0.000606403657 0.00099346264324 0.00055545460054 6.9958464337e-05 0.00011325015748 3.6983988821e-05 -0.0015507827629 
-0.0012512973772 -0.00043410433379 -0.00020473659242 -0.00021613525496 0.00012875885659 9.2187032351e-05 0.00024466007017 
Stress_YZ_Pt 1 1114 double
0.0016417866573 0.0021893586963 0.0014940800775 0.00080953734323 0.0015048954665 0.0016477579557 0.00093325648049 0.0015571918411 0.0012250500149 
0.0018398172979 0.0011393795721 0.0019502150826 0.0018814111827 0.0023767172243 0.0023342930945 0.0023413055751 0.0019590785378 0.0017855177575 
0.0015332131297 0.0013490091806 0.0012139398023 0.00096585893334 0.00095671237796 0.00058506145706 0.00077750597848 0.0003046898737 0.00075251035742 
0.00020967821183 0.00071337417467 0.00016199011588 0.00058549595997 9.9950018921e-05 0.00044274874381 6.1392456701e-05 0.00039111138904 4.989093577e-05 
0.00035586280865 3.4282245906e-05 0.00042083289009 0.00014655729365 0.00051004909619 0.00032045676971 0.00023817238002 0.00026229882735 -0.0002514588657 
2.7411881661e-05 -0.00057518997346 -0.00022470055046 -0.00061560486211 -0.00049776256128 -0.00044575452921 -0.00070231563586 -0.00040706872824 -0.00079716132313 
-0.0007812906988 -0.00097696381272 -0.0013040731428 -0.0012549933454 -0.0016741668805 -0.0014802252408 -0.0017844560207 -0.0014965160808 -0.0015722688404 
-0.0011849042494 -0.0011913442868 -0.00072773329748 -0.00090730882948 -0.00038083279514 -0.00075427614502 -0.00016555775073 -0.00077780490392 -0.00013201730326 
-0.0010438740137 -0.00034124782178 -0.0013285900932 -0.00061317758264 -0.0012936986168 -0.00068197774272 -0.00072233131505 -0.00039503860489 0.00028511960409 
0.0001787096412 0.0011753371218 0.00059612684709 0.0001898729497 0.00045143401076 0.00027345250965 0.00014153571283 0.00064854766242 0.00038903744644 
0.00064856687095 0.00039488918992 0.00068738212576 0.00045759942441 0.00095356965903 0.0007584988125 0.0012481957092 0.0011728710233 0.0014512309572 
0.0014982230787 0.001575143775 0.001676247135 0.0016126793926 0.0017292689008 0.0017528586905 0.0017780298658 0.0018833240028 0.0018734145269 
0.0019065227243 0.0019232759369 0.0019552897429 0.0019269560289 0.0020710292738 0.0019877821032 0.0019430922111 0.0019445289799 0.0013751411461 
0.0016244599537 0.00078137370292 0.001111358346 0.00031521950223 0.00042324465448 -0.00018129484306 -0.00043635698694 -0.00067070603836 -0.0012288128491 
-0.0010519974458 -0.001689382203 -0.0013030550326 -0.0017802146322 -0.0015748561709 -0.0017222329916 -0.0020398016204 -0.0016018958297 -0.002401141217 
-0.0017040893872 -0.0021334820776 -0.0013680262273 -0.001330551022 -0.00059426778898 -0.00050494865718 1.5353496565e-05 2.0790394046e-06 0.00017019818188 
0.00014501409169 5.5108666857e-05 0.00022882303892 -7.0416666858e-05 0.00047841570631 -9.8201613582e-05 0.00095019445871 0.00010480602214 0.0010853974381 
0.0004646244779 0.00088706950191 0.00086259678937 0.00062311765214 0.0010006216689 0.00047062519297 0.00089529524121 0.00034550721466 0.0007957647249 
0.00062509127019 0.0010251299609 0.0010587094584 0.0013133149478 0.00068135197216 0.000969805762 1.7111597117e-05 0.00026959412389 -0.00062477849133 
-0.00046232485874 -0.001204486005 -0.0010726895271 -0.0013597452198 -0.0014051087201 -0.0013103483361 -0.0016011244734 -0.001656507724 -0.0018956505228 
-0.0020514621283 -0.0020731885743 -0.0020068931044 -0.0019074658921 -0.0015829805634 -0.0015362389386 -0.0012805704609 -0.0012481277226 -0.0010108367132 
-0.00095079332823 -0.00052222640079 -0.00047365085993 -0.00018774091586 -8.8257649622e-05 -0.00010699688573 5.9453377617e-05 -0.00013346967171 7.2429917054e-05 
-3.8367081288e-05 7.7155931649e-05 0.0018096358981 0.00087432924374 0.0023144292063 0.0025499658659 0.0026725017815 0.0026176839019 0.0022058858303 
0.0016058324836 0.001133176047 0.00067422449501 0.00017644996569 -0.00019894579873 -0.00038118174416 -0.00040840680595 -0.00032037554047 -0.00019917119459 
-0.0001500624245 -0.00015336365755 -5.0814638598e-05 0.00017490060281 0.00038099339872 0.00043837566045 0.00020657006326 -0.00023851263359 -0.00072362289211 
-0.00091440658434 -0.00095312681515 -0.0010097865743 -0.0010704313027 -0.00099638561369 -0.00067083498288 -0.00022100751903 0.00014734145861 0.00038010379649 
0.00043951222324 0.00030536234772 9.3933838002e-05 -8.2172661564e-05 -0.00019558964004 -0.0002526616513 -0.00024351497996 4.6782961363e-05 -1.3592814867e-05 
2.8425244636e-05 -2.2411095415e-05 5.4986622672e-05 0.00032716738406 0.00079575992277 0.0012536020076 0.0015666580875 0.0017760440824 0.0018792707997 
0.0019436926523 0.001938362373 0.0018188800605 0.0017194890243 0.0017003666726 0.0016233150673 0.0011931690824 0.00035661072343 -0.00070054041407 
-0.0017269833479 -0.0023377370671 -0.002355512348 -0.0020066903671 -0.0015225775423 -0.00040592356982 -0.00082973810883 0.00012745126423 0.00030092349516 
0.00013169919475 -0.00010787121755 -0.00036057720354 -0.00060990289057 -0.00069690312957 -0.0001833964543 0.00065391219141 0.0012152977724 0.0012934916012 
0.0012753723131 0.0013741709117 0.0014020983363 0.0011575068347 0.00061646013091 -7.6077989434e-05 -0.00075623362864 -0.001396913256 -0.0019204883429 
-0.00210916996 -0.0019914734003 -0.0017511850456 -0.0014908834128 -0.0012353332713 -0.00092190920259 -0.00049082625264 -5.3933223171e-05 0.00022354539942 
0.00032510682649 0.00024829590075 0.00010968372499 -0.00079482922592 -0.00085563312314 0.0022442915069 0.0023515688372 0.0020555274677 0.001814682968 
0.0014593719679 0.0010312303348 0.00057320821361 0.00011939375327 -0.00022109836209 -0.00040535881271 -0.00038059852159 -0.00018865402436 -1.2810469144e-05 
4.3034080022e-05 3.2000330293e-05 8.0222772795e-05 0.00025352930425 0.00049213585589 0.00057426598505 0.00036032077924 0.00016788569383 -0.00043002024177 
-0.00027832143314 -0.00049629441128 -0.00056052053696 -0.00061518487928 -0.00060679797025 -0.00047101617383 -0.00021477081691 3.255397769e-05 0.00017766944302 
0.00019399267967 6.5101648943e-05 -0.00013429259241 -0.00037448969879 -0.00052126838273 -0.00068095541064 -0.00041609664368 0.00025122048646 0.0010500015342 
0.0019395659328 2.921567102e-05 0.00051227602853 -0.00014111847577 -0.00015795081606 0.0001163677407 -5.0175059187e-05 -0.00019759620045 -0.00025938725048 
-0.00035980601388 -0.00051850103773 -0.0006734446215 0.00034496043099 -0.00026495652401 0.00086880027084 0.0011361953366 0.0012389639451 0.0012835004018 
0.0013227713353 0.0012552326807 0.00095534264256 0.00043193671809 -0.00033892794818 -0.0011784694361 -0.0017521254194 -0.0019062900683 -0.0018382483686 
-0.001701555273 -0.0015178941248 -0.0013253366051 -0.0010376228893 -0.00062625864666 -0.00017383952013 0.00019815152541 0.00038917736674 0.000330857878 
0.00013631086586 -3.0725723263e-05 -0.00014543634825 -0.00019569793221 -0.00014827388895 4.1414145926e-05 0.00040725548024 0.00087330148381 0.0013096524053 
0.0016681280395 0.0019038003229 0.0019596600905 0.0018191426643 0.0015590789262 0.0013345628104 0.001238823781 0.0010495209834 0.00071761062281 
1.1080632248e-05 -0.00081959359886 -0.0016141805972 -0.0021749548032 -0.0022980917129 -0.0020226425258 -0.0014705213543 -0.0007837819212 -0.00022446169339 
4.6244738132e-05 1.3765191056e-05 -0.00069761976192 -0.0007298621058 0.00042762886733 0.00097086084133 8.0600770161e-05 -8.355655541e-05 -0.00012819046344 
-0.00016740112812 -0.0002472641554 -0.00034982664511 -0.00041898800555 -0.00040087842353 -0.00031709465884 -0.00025709770625 -0.00028431777264 -0.00042092291187 
-0.00061107376678 -0.00074412304821 -0.00062339698707 -0.00075002863014 -5.8355091824e-05 0.00060253459924 0.0011831993324 0.0018671251892 0.0017092889757 
0.0019109043933 0.0014722323394 0.0012599786132 0.0010440391925 0.00075033423491 0.00040113985597 0.00010560728333 -9.94605698e-05 -0.00022436642485 
-0.00015740471281 -1.7120124909e-05 0.00012224649672 0.00014847416242 0.00014075875515 0.00019702569443 0.0003352562162 0.00051598699793 0.00057172664674 
0.00043682041724 0.00045280889026 0.00098109267856 0.0014690397948 0.00098294399504 0.0014465041459 0.00054290203116 0.0023044610862 0.0019881127228 
0.0020807061519 0.0019523266237 -0.00072640567669 -0.00084933648759 -0.00021052246484 -0.00039356798516 -0.00038040595246 -0.00034290990152 -0.00040127248212 
-0.00048261870688 -0.00048815608898 -0.00060115368979 -0.0004065237008 -0.00057965021551 -0.00027449054596 0.00016866578244 0.00059403625346 0.00092132318241 
0.0011151750223 0.001196135272 0.0013390530657 0.0014365116658 0.0012689857977 0.00085323704116 9.9527263956e-05 -0.00078139348625 -0.0013297159458 
-0.0015264242829 -0.0016179316153 -0.0016380038287 -0.0015614640142 -0.0014129485644 -0.0011388842104 -0.00073791595059 -0.00029371264077 0.00010386364033 
0.00036467565951 0.00036383906845 0.00017275445407 2.8178988032e-05 -6.160005978e-05 -0.00013182673501 -0.00013601586943 -4.3263207772e-07 0.0003191661217 
0.00080405797053 0.0012750631722 0.0015631092538 0.0016688198957 0.0016502118669 0.0014913959603 0.0012384014553 0.0010264699813 0.00090625997109 
0.00079514128447 -0.00025109123999 0.00028897487755 -0.0009261520172 -0.0014994696248 -0.0018067399506 -0.0018504199397 -0.00176956621 -0.0012235662725 
-0.00057370229479 -0.00012919712299 9.7076959264e-05 6.5118166731e-05 0.000181558024 2.3201237127e-06 -0.00020337431124 -0.00036904140143 -0.0003228498681 
-0.00024259626662 -0.00026018320932 -6.0019325247e-05 -0.00049178530753 0.00023531788429 0.00034096319723 0.00015519587396 0.00021993248629 8.2943879534e-05 
1.5548014744e-05 -5.968019741e-05 -0.00010108799688 -9.7197023706e-05 -9.5545233989e-05 -0.00014987289069 0.00057697402372 0.00063563758158 0.0002448807827 
6.4094943582e-05 -5.144003012e-06 -3.7137714457e-05 -0.00011069926222 -0.00025092635042 -0.00044261130097 -0.00062089043786 -0.00072679287405 -0.00079147072393 
-0.00086865913181 -0.00097126835317 -0.0010796005081 -0.0011239020678 -0.0010952061566 -0.00091184432677 -0.0010465145897 -0.00083467969671 -0.00070836846135 
-0.00032892111631 0.00031323907024 0.00082613687846 0.0011185273179 0.0014638932189 0.0022532590665 0.0017433303874 0.0022174469777 0.0017940133985 
0.0017553581856 0.0017514915089 0.0017705592909 0.0016898522153 0.001421237801 0.0010195175128 0.00061415090022 0.00029583278956 8.6887550424e-05 
2.2640051611e-06 3.4906763176e-05 8.904463084e-05 8.0306620475e-05 7.6088942478e-05 0.0002333468401 0.0001161104019 0.00027898118424 0.00031485119325 
0.00041207627874 0.00051039238315 0.00055990846158 0.00054121136782 0.00040511428961 0.00053035809833 0.0010904555966 0.0015104416816 0.0015291507298 
0.0012584330398 0.0013522304362 0.00081581533595 0.00045891440823 3.3890166378e-05 0.00014390938577 -0.00018412078953 -0.0002769444618 -0.00024438151831 
-3.2961948818e-05 -0.00038561976544 -0.0003520590144 -0.00014976080092 0.00015298125618 0.00049738750386 0.00080793089001 0.0010182633559 0.0011261488544 
0.0011699181341 0.0011769403936 0.001094678868 0.00085679494077 0.00035115485298 -0.00033833344423 -0.00086394467507 -0.0011515593505 -0.0013316290278 
-0.0014490544272 -0.0014336831518 -0.00130298367 -0.0010950457799 -0.00077081652125 -0.00037692584374 -6.4185223891e-07 0.00027994705306 0.0003746840157 
0.00010572225437 0.00018347632795 4.0875902414e-05 -5.1963777878e-05 -0.00012157193669 -3.5103914342e-05 0.00030106486156 0.00078023620881 0.001123406284 
0.0012337194057 0.0011743610667 0.0011032292532 0.0010737973644 0.00099472083093 0.00086670478049 0.00075317021401 0.00069836909339 0.00063910930476 
0.00045682525524 0.00054032359185 0.00027692359026 -1.4152762105e-05 -0.00037773817348 -0.00085539548309 -0.0012421093707 -0.0012742395484 -0.0011550454219 
0.0002570513243 0.0002635453784 -1.6354838408e-05 0.00016275183134 0.00016942652201 0.00037844091275 -3.6641592715e-05 -0.00017063659857 -0.00020360280178 
-3.0875775337e-05 0.00021367660338 0.00048042779235 0.00073158940359 0.0008945587324 0.00093306683993 0.0008623207832 0.0007373034241 0.00060805938847 
0.00047739715083 0.0003913209257 2.4723196475e-05 -0.0003942197236 -0.00078321133333 -0.0010475784366 -0.001115251187 -0.0010633993224 -0.0010001438059 
-0.00088229289395 -0.00063144200976 -0.0003188286355 -2.8951242712e-05 0.00015965501007 0.00022222197367 0.00017837517407 0.00012039347439 8.9994862719e-05 
0.00014233862385 0.00013973918794 0.00010232653494 2.0298318304e-05 -0.00012536852046 -0.00024537537683 -0.00018792876108 9.764668448e-05 0.00048801615685 
0.00071827859938 0.00050865630474 0.00058147242453 0.00065896045999 0.00072554597864 0.00077894210699 0.00075362138159 0.00068630444002 0.00058460456785 
0.00041614655493 0.00042147683416 0.00030976514245 0.00011245332689 -8.2903138415e-05 -0.00032939512948 -0.00067907899938 -0.00075784165529 -0.00053294528043 
0.00018994468928 -1.3544785816e-05 -0.00011344000995 -0.00012998151033 -0.0001517917226 -0.00024442780341 -0.00043216319318 -0.00070080591831 -0.0010231298365 
-0.0012903111929 -0.0014066605363 -0.001437418221 -0.0014378828346 -0.0013736099354 -0.0012739856029 -0.001242348575 -0.00096026480605 -0.0010844692151 
-0.00085486329044 -0.00074067169044 -0.00054847301362 -0.00017745091054 0.00030934984215 0.00063091927586 0.00078213657252 0.0010002487397 0.0012310776365 
0.0013558080536 0.0014289234823 0.0015430932981 0.001684993942 0.0016430682153 0.0013073473237 0.00075301054312 9.5776646049e-05 -0.00044209465705 
-0.00065359676955 -0.0005111977116 -0.00016362246242 0.00014769316476 0.00028316500902 0.00031916677108 0.00036222777999 0.00025120928512 0.00041604952276 
0.00014949284196 0.00018820348123 0.000356144541 0.00052696742932 0.00062162470567 0.00068247377203 0.00064910874062 0.00053699262935 0.00043948241364 
0.00033416669612 0.00046066476352 0.00083518282918 0.0010528613784 0.0010741689912 0.00096400459006 0.001105328105 0.00080006429926 0.001116668107 
0.00078004556417 0.0003875275379 4.3825790044e-05 0.00023291239086 0.00043602194637 0.00062694541703 0.00071338345879 0.00065195032221 0.00049707906874 
0.00030129582046 9.2870004664e-05 -2.7195994335e-05 0.00036650235234 0.00048292624706 6.5133954195e-05 -0.0003261359434 -0.00056834914358 -0.00063599534042 
-0.00067385938019 -0.00067933408718 -0.00057302425557 -0.00038398742254 -0.00018501446448 -1.8036318579e-05 6.5444400207e-05 8.8339786089e-05 9.4254524811e-05 
6.6904005507e-05 1.8376699927e-05 1.5143053133e-05 3.5920520872e-05 6.1656722323e-05 5.6628268339e-05 -4.6567888603e-06 -0.00012968251121 -0.00030370543391 
-0.00045629552187 -0.00050429346811 -0.00041261571187 -0.00019919707938 2.211084211e-05 -8.7377147793e-05 0.00037868191794 0.00018410176108 0.00046622732043 
0.00054921825358 0.0005923228091 0.00038419623161 6.635616046e-05 0.00038025209506 0.00024285069958 0.00015924671607 0.00032182630821 0.00026571407871 
-9.2105450676e-05 3.8815346215e-05 -0.00018911931829 -0.00027524514371 -0.00025323192676 -0.00022194197663 -0.0002558664637 -0.00039101987204 -0.00066641001467 
-0.0011200118897 -0.0015942459577 -0.0017449022271 -0.0016827228246 -0.0015703279932 -0.0014104977308 -0.0011719628936 -0.0008023162809 -0.00076082610758 
-0.00079345564882 -0.00072630615614 -0.00058967669611 -0.0003902190183 -0.0001480882388 0.00010400931524 0.00026609747511 0.00037354918459 0.00049093349953 
0.00075118763198 0.00091728841653 0.0010925882962 0.0013386095525 0.0016075304011 0.0016616802313 0.0013099719654 0.00064381337506 -6.7449265771e-05 
-0.00065879755857 -0.00095744848659 -0.00080629343574 -0.00035954495797 7.0942003731e-05 0.00032525557981 0.0004398610763 0.00050599628594 0.00055678839999 
0.00047984206321 0.00059942180815 0.00035315341665 0.00030183507624 0.00036741263466 0.00058364905999 0.00083762643044 0.00085797108477 0.00069688435906 
0.0005231346513 0.00031482097984 0.00029555121 0.00028998803464 0.00035209369526 0.00044402276762 0.00043608715714 0.00044560313472 0.00044921413792 
0.00036392746915 0.00065907249518 0.00026964015797 0.00080823271128 -8.7609570073e-05 0.00020237143963 0.00028286225279 0.00020192162629 0.00016229639914 
0.00014493542585 0.00018448047922 0.00021059757091 0.00023318944477 0.00023510170649 0.00018237266909 8.7438318815e-05 0.00031951477285 0.00050780143647 
0.00055148889078 0.0005986350443 0.00037562848593 0.00017016980541 -0.00019370336759 4.3278982957e-05 -0.00026477705615 -0.0002455513677 -0.00021273815946 
-0.00022236579025 -0.00031621845847 -0.00054506096785 -0.00095892668469 -0.0014591613144 -0.0015515569365 -0.001571738394 -0.0014278015005 -0.00039476148668 
-0.00046067283256 -0.00065132261807 -0.00050782729522 -0.00055885186885 -0.00054557660042 -0.00045335790492 -0.00029504024496 -0.00011511121411 1.0960128748e-05 
6.6450150371e-05 0.00014630651276 0.00018074423133 0.00044370135583 0.00027322523647 0.00068862552143 0.0010574588232 0.0014419239888 0.0016032120038 
0.0013300492719 0.00069467974026 9.7970432762e-05 -0.00044561204122 -0.00081992574269 -0.00090206769528 -0.00041644360317 1.4338613255e-05 0.0003114331048 
0.00046246551938 0.00055387424072 0.00061292675673 0.00062169771991 0.00013739154974 3.6392038965e-05 -3.9864632527e-05 -0.00038540369314 -0.00027765150207 
-0.00017151454449 -4.3443433242e-05 2.4422902243e-05 0.00013604237483 0.00020567048705 0.00023132937713 0.00030758803769 0.00044335419807 0.0005547371984 
0.00055135325965 0.00044869176782 0.00022304434697 -8.3282088781e-05 -0.00035044712968 -0.0004950394723 0.00037379884634 0.00051805376036 0.00070633631549 
0.00079481299326 0.00064629476947 0.00032611748065 4.9165028031e-05 -0.00020573861912 -0.00040178502968 -0.00043153300066 -0.0003488795046 -0.00023019787477 
-0.00010326158645 1.1014592019e-05 7.8347887211e-05 8.3147157056e-05 6.7408634095e-05 4.069750139e-05 -3.0823589441e-05 -9.6259180964e-05 -8.9143660261e-05 
-8.8514493314e-05 -5.9818098521e-05 -3.5617408988e-05 -0.00015029397628 0.00040171633009 0.00051554951642 0.00054177955462 0.00045479083929 0.00040978864611 
0.00053408011445 0.00075989791367 0.00092806569592 0.0006461255718 0.00039091091094 0.00029522399321 -0.00088947602489 -0.0010178155644 -0.0010352447571 
-0.0008736164018 -0.00065176086112 -0.00097663425549 -0.00044473081289 -0.00094755071041 -0.00018168128372 -8.65688462e-05 7.655644481e-05 0.00020942148444 
0.00030888202309 4.4087246351e-05 -7.1260223194e-05 -0.00012054545186 2.1484501303e-05 0.00020886428229 0.00054482382257 0.0006562149938 0.00056037785253 
0.00052041726303 0.00079898078548 0.0011799268686 0.0012627683755 0.001019675532 0.00062242030617 0.00021063420354 -5.2952047554e-05 -0.00014759481883 
-0.00017254819386 -0.00014280489449 -5.3060616665e-05 4.6900769121e-05 7.6012484897e-05 9.4918021205e-05 -0.00030233858706 -0.0003076058747 -0.0002521648621 
0.00053497672343 0.00052735452482 0.00043837382691 0.0002488744658 -4.6098919483e-05 -0.00036734812875 -0.00056080358142 -0.0007350982487 -0.00063661621243 
-0.00029835633813 7.9793830992e-05 0.00035095990097 0.00049000851868 0.00057421755628 0.00061635599316 -0.00035521298923 -0.00019840530763 -2.6773663876e-05 
-0.00027388536182 -0.00023147454097 -0.00012517467803 6.1126597757e-05 6.3154393501e-05 7.7107757534e-05 9.0135659169e-05 2.2165650989e-05 -0.0006447241467 
-0.00015208494005 -0.0001339288774 -0.00019710500055 0.0005266743683 -0.00038812334969 0.00010198938253 0.00012826921375 6.2468417127e-05 0.0024700425565 
0.0025000202586 -0.00032318562929 0.00042781474076 0.00045294093434 0.00012316644279 0.00010950272735 -6.2892404458e-06 
Stress_XZ_Pt 1 1114 double
-0.001781610481 -0.0021123556653 -0.0031104876543 -0.0028695902729 -0.0022054899018 -0.0029153965879 -0.0014558192925 -0.0021773205081 -0.0010077676852 
-0.0015422568831 -0.00080783994053 -0.0009661653603 0.00018782546977 6.3435043558e-05 0.00087397629977 0.00078727508662 0.0010281763971 0.001171242111 
0.0011440085364 0.0015163737407 0.0012042794842 0.001650344173 0.0011902753613 0.0015064265463 0.0010261822608 0.0011937464005 0.00081133830827 
0.00090861310309 0.00064669677522 0.00069721134787 0.00050505109539 0.00043325794468 0.00031642073736 2.4862638384e-05 3.1150193536e-05 -0.00046530388499 
-0.00016543102538 -0.00086875371562 -0.00063351387507 -0.0012365894945 -0.0011076657684 -0.0014697919833 -0.0011639320874 -0.0015360370453 -0.0011273100972 
-0.0016087169643 -0.0010537277558 -0.0015827559691 -0.00077265588334 -0.0012074169645 -0.00027287903686 -0.00050381952042 0.00027170790963 0.00027346994011 
0.00066619119025 0.000782687639 0.00077480412438 0.00091775086184 0.00072005775291 0.00093172676861 0.00061428829213 0.00093721631856 0.00047724774049 
0.00090561171965 0.00028832616226 0.00080174442701 0.00018537280266 0.00068199234374 0.0002309576812 0.00055613629956 0.00032353594725 0.00034666454485 
0.000458380091 0.00010302689952 0.00048775684263 -0.00013560706429 0.00022830140188 -0.00040321306096 -0.00024040218159 -0.00079731195092 -0.00075651073712 
-0.0013825662754 -0.0013235870283 -0.002166747232 0.00053680120618 0.00090968367294 0.00016075818712 -0.0003027303319 0.0011743255309 0.00047952567184 
0.0012706868583 0.00070288376082 0.001128191012 0.00086706586444 0.00089802031289 0.00095489429077 0.0006754930946 0.00096735227271 0.00054862617981 
0.000978928525 0.00056469248375 0.001041727548 0.00064871870563 0.0011737069726 0.00068575504702 0.0013265645248 0.00083570642164 0.0015640027996 
0.0011885887943 0.0018298375071 0.0016072063008 0.0019742503646 0.0019649658352 0.0020678489236 0.0021651557181 0.002098650235 0.0020591003704 
0.0018609724939 0.001444109017 0.0012318405061 0.00029616118991 0.00030798371199 -0.001011207496 -0.00070359366464 -0.0018585472135 -0.0015810653713 
-0.0020315389847 -0.0021290227014 -0.0017898560036 -0.0022198631777 -0.0015725248377 -0.0020979806723 -0.0013951214496 -0.0020400378387 -0.0012302885298 
-0.0016157033679 -0.0012227150728 -0.0016629597521 -0.0012779812096 -0.0018181077903 -0.0013109195861 -0.0017893061449 -0.0012914421386 -0.0015062974999 
-0.0012065238552 -0.0010921346257 -0.00087211313075 -0.0005842978303 -0.00011721883493 0.00012157744413 0.001143954767 0.00106426805 0.0021470334614 
0.0017850888835 0.0022974561434 0.0021111505339 0.0019470613333 0.0020803397347 0.0012770268077 0.0016415023856 0.00077214950579 0.0012717012287 
0.00059956364566 0.0011365846731 0.00038011006836 0.0010882185088 0.0001869479529 0.0011752374521 0.00030960416916 0.0014242598882 0.0008546259487 
0.001733747602 0.0016477263416 0.0019116944459 0.0017912959447 0.0015976414434 0.0013172774925 0.00091213008182 0.0010150019953 0.00033126384278 
0.0006812629581 -0.00018157804152 6.0148027842e-05 -0.00079505293252 -0.00066737840825 -0.0014155667668 -0.0013798320433 -0.0019806798082 -0.0020474882913 
-0.002542793256 -0.0024081032025 -0.0029303308693 -0.0023357614409 -0.0029904326657 -0.0018470542273 -0.0026617830736 -0.0010063688096 -0.00192883001 
-0.00011344769155 -0.0010301274742 -0.0040850420482 -0.0046107319649 -0.0032506547868 -0.0020319637377 -0.00067610108817 0.00052315740322 0.0014477379882 
0.0021624263754 0.0026651192456 0.0027614531573 0.0023792594729 0.0018000208656 0.001356319015 0.0010344793991 0.00059265464006 -8.2173824921e-05 
-0.0008517899405 -0.0015524159826 -0.0019575838814 -0.0020555111405 -0.0021016254323 -0.0021950179362 -0.0021126081119 -0.0013356090407 -0.00043967407692 
0.00046884165931 0.0011020819366 0.0014090329641 0.0016565637197 0.0019098168414 0.002085043292 0.0021032580116 0.0019292543875 0.0015304065018 
0.00086683316658 1.7813328668e-05 -0.00084217017866 -0.0014737674937 -0.0019490409177 -0.0026040394441 -0.0035831180285 -0.0044814890716 -0.00037560746568 
-0.00089270692115 0.00015901124425 0.00077560752834 0.0013295351382 0.0016954372404 0.0019089250709 0.0020698264998 0.0022756122635 0.0025188594591 
0.0027739931829 0.0028472266276 0.0026191315847 0.002343668486 0.0020561052079 0.0015609358961 0.00090139703389 0.00023059657951 -0.00050791314015 
-0.0014195459516 -0.0023246780911 -0.0028314672527 -0.0029603266157 -0.0030392207555 -0.0025680692343 -0.0023190759821 -0.0026977609959 -0.0024884407758 
-0.0019509168633 -0.0012631695718 -0.0005426641751 0.00017259439983 0.00080416661222 0.001313381712 0.0017847533163 0.0021775909117 0.0022249989852 
0.0022634802735 0.002408859873 0.0026109003229 0.002865704766 0.0030498292181 0.0029735165299 0.0025053104619 0.0017466981953 0.00082882749757 
-7.9932488916e-05 -0.00083676811118 -0.001527588669 -0.0021344582201 -0.0026196439285 -0.003091757244 -0.0034872868564 -0.003660101851 -0.0035223281593 
-0.003013128764 -0.0022511204588 -0.0014983628207 -0.0027167202788 -0.0031415983103 7.7116274042e-06 -0.0011515736114 0.0012796125229 0.0023980596161 
0.0033036099048 0.003825532971 0.0038242460578 0.0033040617709 0.0025871270045 0.0020101103 0.0015372641792 0.00097177780117 0.00023730963312 
-0.00060921685053 -0.0014285534999 -0.0020499630773 -0.0023578678374 -0.0023842781084 -0.0023280549212 -0.0021222521027 -0.0014665547205 0.00074542737275 
6.922679222e-05 0.0013468224206 0.0018385300355 0.0023259888403 0.0027977384161 0.0031514529837 0.0032636428368 0.0030447716708 0.0024701045477 
0.0015688347339 0.00040253906627 -0.00085579467122 -0.0019299560692 -0.0027546362253 -0.0034283579444 -0.0042037963285 -0.0046760120895 -0.0046246770071 
-0.0042258555768 -0.00044272071045 -0.00075718625885 -0.0030480188434 -0.0030587419751 -0.0029437657795 -0.0025779090356 -0.0021053189121 -0.001557802665 
-0.00090918046772 -0.0002524924821 0.00020898712501 0.001616961672 0.0011300646584 0.0021447785548 0.0025180450175 0.0028950073756 0.003301727178 
0.003541721846 0.0035602295538 0.0034266161965 0.003185762791 0.002743647201 0.002082830295 0.0012431300565 0.00034875401616 -0.00044732615788 
-0.0012160663027 -0.0019470271363 -0.0025597804924 -0.0030695835012 -0.0034253660706 -0.0035673205275 -0.0034894896089 -0.0031468650559 -0.0025742407888 
-0.0019171686436 -0.0012709817383 -0.00057616080085 0.00022623587938 0.0010870287661 0.0018542079779 0.0023701912723 0.0026747585507 0.0029077406507 
0.0031341398135 0.003305723716 0.0033544571488 0.0032066385029 0.002859896922 0.0024584389175 0.0019989161228 0.0012773632305 0.00060494436184 
1.6173482436e-05 -0.00069721052932 -0.0015573449491 -0.0023848074488 -0.0029865919496 -0.0033438588143 -0.0034779955167 -0.0033678701147 -0.0030170120299 
-0.0025863303337 -0.002548317716 0.00077604375838 0.00036480351082 -7.185240338e-05 -0.00044592010454 0.00035838050371 0.00087884647655 0.0014347868855 
0.0019911034906 0.0025945293019 0.003210859315 0.00369723927 0.0038877328043 0.0036655443837 0.0030275893514 0.0020469520823 0.00081533309276 
-0.00040046043432 -0.0011321615893 -0.0033254980808 -0.0027415408404 -0.0037495478755 -0.0036875070655 -0.0033738415223 -0.003169957432 0.00027077135383 
-0.00072876864942 0.0014196959673 0.002550197969 0.0035877908813 0.0043562548235 0.0045272116549 0.0039952871157 0.0032127695158 0.0025652137701 
0.0018949614139 0.001132912279 0.00039623545581 -0.00044737016742 -0.001332866028 -0.0020800923812 -0.0025298798573 -0.0025943283108 -0.0024624119396 
-0.0022492054559 -0.0017543259601 -0.001221567305 -0.00093789544189 -0.00037362936928 -0.00069923202682 -1.4057321096e-05 -0.001794544165 -0.0013671371562 
-0.0019185307901 -0.0016402239756 -0.0020352429128 -0.001182095948 -0.002237803652 -0.001944009593 -0.0015698829375 -0.0010990256123 -0.00061671881485 
-0.00022932509637 -3.3431619158e-05 0.00036338995778 2.9397973776e-05 0.00070405929 0.0010858929454 0.0015832926438 0.0020971044141 0.002533361956 
0.0029300847673 0.0032261307351 0.0032885946566 0.0031457093428 0.0029480690719 0.0028101337957 0.0025478249881 0.0020589235064 0.0013779205183 
0.00058069636361 -0.0001645527409 -0.00088218755991 -0.0016063347284 -0.002265304327 -0.0027870715712 -0.003118739638 -0.0032459568465 -0.0031967983814 
-0.0029233513051 -0.0022324247286 -0.0017427235143 -0.0011659944139 -0.00044284668547 0.00047089078726 0.0014424094261 0.0022369644721 0.0027545252815 
0.0031044901116 0.0033990921802 0.0035996759543 0.0036218101159 0.0034167497652 0.0030707308906 0.0026796730817 0.0022656490037 0.001832677488 
0.0014101374254 -0.00022861185516 0.00027613158363 -0.00087585175061 -0.0016336126428 -0.0023867901182 -0.0030090010841 -0.0033707929154 -0.0034404659527 
-0.003319469688 -0.0029961651308 -0.0025646663853 -0.002083559375 -0.0020926451543 -0.0019789408252 -0.0018411361962 -0.0017248182849 -0.0015147682861 
-0.0011803250673 -0.00077797728591 -0.0029632066144 -0.0031202865066 -0.0026171690552 -0.0021274073806 -0.0016457718739 -0.0018375034269 -0.0016292351647 
-0.0015731434396 -0.0014764425869 -0.0014142802102 -0.0013312938099 -0.0010951496224 -0.00073564914783 0.00069292273838 0.001018667579 0.00042515368841 
0.00092687732831 0.0014810503344 0.0020654262917 0.0027134121046 0.0034067707602 0.0039974231622 0.0042895079823 0.004139899218 0.0035503712716 
0.0026121941628 0.0014764123989 0.00043037657451 -0.00019555004837 -0.00028560490682 -0.0008392325326 -2.5324447051e-05 -0.001582526369 -0.0021940498846 
-0.0026836204925 -0.0029694821569 -0.0027643952053 -0.0023147699831 -0.0020660247537 -0.0028152008308 -0.0019467113307 -0.0023389740963 -0.0018384987779 
-0.0016822527687 -0.001474922261 -0.001171679367 -0.00062140829323 0.00027198030511 0.0013565113186 0.0024480742286 0.003496633959 0.0044366647489 
0.0048457405064 0.0043870566878 0.0035574840731 0.0028684917488 0.0022450953547 0.0003103457293 0.00099741516169 -0.00054966191055 -0.0014880423114 
-0.0022760383144 -0.0027607867378 -0.0028784634778 -0.002728385909 -0.0025467791711 -0.0022785171459 -0.0018851646164 -0.0015410172928 -0.0011770231649 
-0.00055274090118 -0.00091624354536 -0.00033304204044 -1.1465963325e-05 0.0014233973052 0.001540207013 -0.00025878679116 -0.00036324636676 7.3149501986e-05 
-0.00014144034867 0.00033470159542 0.00066100034746 0.0010378460283 0.0014644918556 0.0019041255873 0.0022800386068 0.0025416699937 0.0026206875336 
0.0025285253068 0.0023885605042 0.0023229031358 0.0023636797559 0.0022787222988 0.0019797295681 0.0014396104962 0.00069860366784 4.1093262553e-06 
-0.0006159245786 -0.0012242816883 -0.0018079228175 -0.0022894862341 -0.002608074923 -0.0027237182367 -0.0026540211402 -0.0024009278277 -0.001914047898 
-0.00064334448143 -0.0011224998016 4.5912927817e-05 0.00092644434335 0.0018196363526 0.0025048633688 0.0029565015575 0.0032831660355 0.0035641398281 
0.0036895404337 0.0035831619753 0.0032756162691 0.0028507529059 0.002432056237 0.0020331860287 0.0016745355097 0.0014362087628 0.0012618607725 
0.00067336692882 0.0010553510074 0.00031965176822 1.6321710973e-05 -0.00043523673685 -0.0010812774126 -0.001795648539 -0.0025185102131 -0.0031045482028 
-0.0013458166359 -0.0013259746775 -0.00056157481595 -0.00035725925773 1.6628355297e-06 -0.00013355107967 0.00015182834068 0.00036451721098 0.00058970189032 
0.00084392198187 0.0012362843845 0.0016207190347 0.0019011093827 0.0020338113536 0.0020407232805 0.0020006231789 0.0019545507093 0.0019625336572 
0.0020972565981 0.0020554469374 0.0018310227024 0.001432183315 0.00077033526031 0.0001421298075 -0.00037937930756 -0.00086393964739 -0.0013302326697 
-0.0017277064326 -0.0020104911528 -0.0021359037491 -0.0020917686343 -0.0019233958446 -0.0016470438277 -0.0012921604794 -0.00083417083079 -0.0009532818076 
-0.00068496658787 -0.00041926538142 1.502199666e-05 0.00063681126449 0.0013717832335 0.0020854179747 0.0026588999899 0.0030207444797 0.0032023182721 
0.0033247412066 0.0034004141577 0.0034248331212 0.0031198780634 0.0027132079704 0.002288452175 0.0018863253645 0.0015372451162 0.0014100482222 
0.00085461556591 0.0012933882244 0.00037372425345 1.2350507177e-05 -0.00014940388307 -0.00054444388297 -0.0011938683165 -0.0018827724853 -0.0026211108081 
0.00041300931844 0.00090585609723 0.0014451615571 0.002015260281 0.0026515461504 0.0033462846768 0.0040076068253 0.0044707598863 0.0045056479285 
0.0040138125769 0.0031607261626 0.0021763773693 0.0012776571748 0.0006565675576 0.00035296976663 0.00072585511589 0.00027300171314 0.0010523875826 
-0.00046742033919 -0.0011016904609 -0.0016269130574 -0.0021034265228 -0.0023803209187 -0.0021736853523 -0.0016996459744 -0.001372972285 -0.0012869879283 
-0.0013087131083 -0.001268561522 -0.0011654539703 -0.00096557512006 -0.00051711419655 0.00031069738907 0.001390690988 0.0024742425012 0.0034146052785 
0.0042081625434 0.0046057433356 0.0042181189056 0.0034212497994 0.0027353533078 0.0021227229445 0.001477095735 0.00079899971024 0.00083000314044 
0.00073836665979 0.00052879782561 9.8374748632e-06 -0.00084046215852 -0.0017924256681 -0.0025160071673 -0.002919351391 -0.0030192935956 -0.0028887174558 
-0.0027452119975 -0.0025805188343 -0.0023008380667 -0.0020178645791 -0.0017454503104 -0.0014621558075 -0.00075219181599 -0.0011413698085 -0.00052039463966 
-0.00029959174572 2.6476529456e-05 0.00059673922078 0.00098849287315 0.0013434170105 0.0015543421905 0.0016564985854 0.0017308695824 0.0018121261674 
0.0018958367291 0.0019932588039 0.0021671868453 0.0017168057093 0.0019895169244 0.001391231548 0.00082947700139 0.00025093177146 -0.00021634971154 
-0.00061150572583 -0.00098703111871 -0.0013276322279 -0.0016010763939 -0.001772728283 -0.0018136503058 -0.0017520894762 -0.0016200451064 -0.001391513244 
-0.0011061986879 -0.00065327034099 -0.00082483213919 -0.00044603794231 -0.00020392010265 8.0508923929e-05 0.00048621855785 0.0010297459667 0.0016132985766 
0.0021741933597 0.002660445869 0.0029573903885 0.0030311129522 0.0029996736557 0.0030168582452 0.0031093316502 0.0033973786631 0.0026853695745 
0.0022296436364 0.0017964908329 0.0021783818956 0.0023315384169 0.0017154952511 0.0012078530563 0.0016406441573 0.00070167124068 -9.8006006556e-05 
-0.00048120846418 0.00043056872892 0.00089948477398 0.001400870824 0.0019251379417 0.0025114728487 0.0031533122528 0.0038054396282 0.0043905301718 
0.0046416226542 0.0042826947174 0.0035440706997 0.002756434551 0.0020365804667 0.0013960674696 0.0019340915605 0.0010506617109 0.0016061436327 
0.00042759332973 -0.00019871547738 -0.00076746624109 -0.0012212285365 -0.0015965783095 -0.0018026524631 -0.0016336254193 -0.0012600625923 -0.0008991847164 
-0.00078454086906 -0.00080955289013 -0.00081712577958 -0.00075696245767 -0.00058679061476 -0.0001952512248 0.00056422621128 0.001590597938 0.0025604653638 
0.0032771332189 0.0037942077033 0.0039888037718 0.0036017436069 0.0029067790019 0.0023063876724 0.0018263631791 0.0013457942405 0.0008297253662 
0.000259107901 0.00037403867282 0.0001555929739 5.3207109886e-05 -5.8608866311e-05 -0.00033165674722 -0.0010085035246 -0.0018324151752 -0.0024421414128 
-0.0027343531256 -0.0026530444622 -0.002730889013 -0.0027069057493 -0.0025663415436 -0.00240669091 -0.0022987012053 -0.0021881431458 -0.0019201473624 
-0.0014849462023 -0.000681867401 -0.00094028931926 -0.00042855006541 -0.0027985124616 -0.0025735964882 -0.0022575819457 -0.0022359885334 -0.0020259782032 
-0.0015588628885 -0.0013748559577 -0.001281449775 -0.0011684609344 -0.0011256990547 -0.0010856351728 -0.00087355043797 -0.00060471804318 -0.00031856968963 
0.00012323061583 7.3068076745e-07 0.00021480693704 0.00036875288788 0.00098611312569 0.00052652688828 0.0014361315116 0.0018964561459 0.0023931909236 
0.0029255666304 0.0034860031446 0.0040676209028 0.004438025062 0.0042066484457 0.0034835739993 0.0030252138968 0.0025751180947 0.0011696348316 
0.0016461192087 0.0020087930316 0.00079315826588 0.00040442200043 -5.6055861933e-05 -0.00055381568018 -0.00092994178704 -0.0012047378113 -0.001449245814 
-0.0013596680074 -0.0011615248513 -0.00099948063144 -0.00040661727326 -0.00049913362454 -0.00037929942118 -0.00029639969853 -6.8716874921e-05 0.00034862250322 
0.0010043249567 0.0018033601227 0.0024594537099 0.0028354186099 0.0033244863153 0.0032872500014 0.0029284537304 0.0023445902916 0.0018540371966 
0.0015013222001 0.0011760467023 0.00080730562331 0.00043635324255 -0.00071887926606 -0.001009415806 0.0034177718917 0.0032575617661 -0.0011382430093 
-0.001743572735 -0.002276448271 -0.0025247430895 -0.0024522297899 -0.002385745116 -0.0024860452395 0.00073208877438 0.0010639692482 0.0012459444115 
0.0013755909458 0.0015576054575 0.0017914713244 0.0020469463489 0.0022536596516 0.0025115430471 0.0022646897123 0.0021811372135 0.0019613018085 
0.0016419470776 0.0012868260819 0.00078144318104 0.00025968356294 -0.00012578095175 -0.00041529325608 -0.00074200201198 -0.0011019526428 -0.0014163624437 
-0.001632629399 -0.0017300648324 -0.0017081494152 -0.0016676843516 -0.0015441078867 -0.0012932146201 -0.0010345292103 -0.00033821551187 -0.00056712265359 
-9.3316994025e-05 0.00014510846449 0.00030694216548 0.00061188070686 -0.00081976901856 -0.0005133030354 -0.00017476985704 -0.00028856848439 -0.00032158884278 
-0.0004556115673 -0.00059765217156 -0.00094765776885 -0.0014283042634 -0.001971135498 -0.002320876151 0.0024632131681 0.0028214497142 0.0030034343363 
0.0030102171004 0.0029780410696 0.003320415155 0.0035281903693 0.0038153523346 0.0034834671921 0.0034047757508 0.0031670834287 0.0027205444057 
0.0022010544781 0.0022324901074 0.0015428141051 0.0019771631341 0.0011182611488 0.0006268899524 -0.0011177825897 -0.00095768427127 -0.00084398865001 
0.00058264716645 0.0019108268898 0.001425252296 0.00093157971423 0.00045765225968 8.4165747012e-05 -0.00012735629889 -0.00027828667226 -0.00051933048962 
-0.00087231781799 -0.001217654848 -0.0014583681477 -0.0015957040887 -0.0014311584819 -0.0015954130019 0.00021271161313 -9.6755866252e-05 0.00046414927056 
0.00091320418869 0.0011040736572 0.001291183522 0.0015903209569 0.0019875706639 0.0023680205923 0.0025129872374 0.0028170975274 0.0027933993842 
0.0023934862693 0.0018936738779 0.0014900082315 0.0012248149433 0.00099559343653 0.00079227128299 0.0035328913946 0.0032867147238 0.002840900328 
-0.00045832504475 -0.00073074541676 -0.0008250631945 -0.0013328503992 -0.0013705611927 -0.001245936437 -0.0011555054613 -0.0012523309852 0.0039554365794 
0.0023193596862 0.0026406872203 0.0031220834353 -0.00058917872957 0.0036226742086 -0.0014495224168 -0.0014543216093 -0.0014041726245 -0.0034636683413 
-0.0025412617251 -0.00045553716094 2.9435366741e-05 -3.3841592085e-05 -0.0016093905724 -0.0016087011318 -0.0012667346455 
Disp_X 1 1114 double
0 0 0.00093287118943 -0.00035878166091 0.001478661201 0.00065737491241 0 -0.0026188783813 0 
-0.0078672571108 -0.0036795947235 -0.012166433036 -0.0026419211645 -0.012959068641 0 -0.011229808442 0 -0.0090769343078 
0 -0.0069256173447 0 -0.0050752512179 0 -0.0041123088449 0 -0.0035899458453 0 
-0.0029067341238 0 -0.0020388206467 0 -0.0012262266828 0 -0.00056987564312 0 -6.1584105424e-05 
0 0.00034172370215 5.5084728956e-05 0.0010843785712 0 0.0017807665281 0 0.0021700346842 0 
0.0022203228436 0 0.0016640673857 0 0.0010501797078 0 0.0012350459583 0 0.0032020709477 
0 0.0051651401445 0 0.0061963032931 0 0.0065635601059 0 0.0064785983413 0 
0.0063101835549 0 0.0060471622273 0 0.0056373970583 0 0.0050531406887 0 0.0043156626634 
0 0.0035349549726 0 0.0023705989588 0 0.00078798388131 0 -0.00073438981781 0 
-0.0015026027104 0 -0.0013146267738 0 0 -0.00089521432528 -0.0019792497624 0 0.00041767818038 
0 0.0016810884699 0 0.0026038177311 0 0.0035667670891 0 0.0047264122404 0 
0.0058717345819 0 0.0068577947095 0 0.007545618806 0 0.0077458578162 0 0.0073626297526 
0 0.0067202388309 0 0.00630100118 0 0.0060646152124 0 0.0060435100459 0 
0.0054960865527 0 0.0042439941317 0 0.0031596033368 0 0.0033983576577 0 0.0049631823786 
0 0.0072809592821 0 0.0097168087959 0 0.012492313981 0 0.015387838706 0 
0.0098966537043 0 0.0076574226841 0 0.0057473503985 0 0.0040492066182 0 0.0029393050354 
0 0.0017659639707 0 0.00025116765755 0 -0.001240017591 0 -0.0023791962303 0 
-0.0011956851231 0 -0.0017605789471 -0.0037197335623 -0.0046653160825 -0.0052551617846 -0.0077469632961 -0.0048107691109 -0.0097273439169 
0 -0.011396044865 0 -0.011813012883 0 -0.012538423762 0 -0.013579595834 0 
-0.014737217687 0 -0.015095150098 0 -0.013466747478 0 -0.011125111021 0 -0.0085409292951 
0 -0.0066623217426 0 -0.0056498763151 0 -0.0052116787992 0 -0.0046316180378 0 
-0.0042140078731 0 -0.003539436264 0 -0.0028974635061 0 -0.0022582786623 0 -0.0021397359669 
0 -0.0022505053785 0.0016104651149 0.0021205935627 -0.0032489902806 -0.013034833595 -0.019967896864 -0.022001046687 -0.020683670416 
-0.017129672691 -0.012448567897 -0.0082922689617 -0.0062678307295 -0.005588713102 -0.0044348174706 -0.0028532897122 -0.0015426396858 -0.00056923611555 
-7.0118876465e-06 0.00055962556507 0.0015513785183 0.0027872535866 0.003810527036 0.0039890236221 0.0028759925626 0.0011014117626 0.0024083056487 
0.0055654444732 0.008162339218 0.0097431996837 0.010510557331 0.010677177459 0.010651992634 0.010517312214 0.0099590793252 0.0089596034959 
0.0076058930717 0.0060179037973 0.0041229752824 0.0020434632897 0.00011312904098 -0.0013389002997 -0.0017806240357 -0.00018599655596 -0.00028913185815 
-0.0022454161663 0.0017122064019 0.0037786816247 0.0059164967388 0.0082687996328 0.010716782883 0.012467409484 0.013265067711 0.013300272636 
0.012434853241 0.011350202374 0.010450900532 0.0098995333537 0.0095188366249 0.0084915580228 0.0066063264385 0.005451340694 0.0059889471158 
0.0081787304953 0.01162793953 0.01584335044 0.020153107122 0.024195693433 0.013203939423 0.014874801971 0.0096537554637 0.0054275728762 
0.0026990687475 0.0010186739964 -0.00034157655318 -0.0018126950599 -0.0026301585604 -0.0018195424927 -0.0029625187162 -0.0059936903417 -0.0094398139045 
-0.012456366792 -0.014983575791 -0.016549358144 -0.017720893025 -0.020044114441 -0.023094382137 -0.02459214814 -0.022914180532 -0.018804103136 
-0.01394591853 -0.010213535279 -0.0084063773975 -0.0076026073657 -0.0068693943322 -0.0060685733333 -0.0050655566156 -0.0042007644661 -0.0035973419435 
-0.0037807971239 -0.0040637827478 -0.0036602672189 0.020627822727 0.02720217593 -0.027636663988 -0.022786231712 -0.029755005613 -0.02812134102 
-0.023437444121 -0.017122715712 -0.011141901836 -0.0078304680064 -0.0068236030638 -0.0054301521741 -0.0032685238402 -0.0014922934351 -0.00051668402739 
-0.000132604604 0.0003529356909 0.0017655778211 0.0036246383097 0.0051221889444 0.0055274688639 0.004552162718 0.0026562137064 0.0073663988151 
0.0042345481925 0.010066846386 0.011861466803 0.012867972255 0.01333312504 0.013584962115 0.013712390326 0.013330725953 0.01222760696 
0.010478794575 0.008278301917 0.0058731557801 0.0030785789713 0.00027825686266 -0.0017855113838 -0.0016047126846 0.00073125073686 0.0036583023611 
0.0027155745775 0.0019326736219 0.0019088727422 0.019674677402 0.026545444503 0.014594982378 0.0072205970064 0.0019758844282 -0.00063612352824 
-0.0014782820363 -0.0021713594906 -0.0025483302306 -0.004009171389 -0.0023868663702 -0.0068934084848 -0.010161575861 -0.013545597903 -0.016490923241 
-0.018264122307 -0.020278921351 -0.024515863508 -0.029761994258 -0.032314144075 -0.030396901071 -0.024886796251 -0.018519230187 -0.01277418714 
-0.0097098750994 -0.0083434078842 -0.0072948038578 -0.0061788158491 -0.0051191421226 -0.0042526568286 -0.0037174853496 -0.0043156021275 -0.0050655035302 
-0.0047166044824 -0.0030473456718 -0.00072259845911 0.0017617911799 0.0044366405345 0.0076177581213 0.011175279506 0.014660141431 0.017035054043 
0.017973916605 0.017703481019 0.01633410342 0.014446939342 0.012985872105 0.012041509151 0.011271208525 0.0096149202436 0.0069558368996 
0.0058216839097 0.0066262590699 0.0095558455214 0.0143008288 0.019805146381 0.024446001276 0.028890555725 0.031917680055 0.032231010497 
0.020819431171 0.029458463192 -0.0023097195663 -0.0025188813452 0.0036849472672 0.0025692014024 0.0060302247293 0.0087567325681 0.011203573085 
0.013000556268 0.014134593308 0.014811642468 0.015306634828 0.015758890659 0.015625976026 0.01464159321 0.012727103196 0.0099373692647 
0.0071344627067 0.0043097171001 -0.0027490290813 -0.0014231401728 -0.0019101877697 0.0010624001734 0.0038361756597 0.0029622938018 -0.034497465938 
-0.030180554837 -0.036111354828 -0.033877465874 -0.028385734186 -0.021120043471 -0.014153866097 -0.0096905231476 -0.0077286283486 -0.0059782052413 
-0.0030803263653 -0.0011200008448 -0.00053982931422 -0.00061713397736 -3.2624000596e-05 0.0019748907071 0.004648824688 0.0067865103483 0.0077119050547 
0.0072631877847 0.0057356394827 0.004219263792 0.0036204748321 0.0035955216736 0.003890871536 0.0050195283256 -0.018809655681 -0.025641152635 
-0.016910519451 -0.022398861125 -2.835651685e-05 0.0012811947381 0.0089786173776 0.0017020184314 -0.002021496417 -0.0027790982276 -0.002755877329 
-0.0026434143074 -0.0025649243034 -0.0023430048022 -0.0023853776511 -0.0022569498979 -0.0028514286969 -0.0043705487624 -0.006997177843 -0.010021785274 
-0.013238334097 -0.016101764515 -0.01796094887 -0.021604444832 -0.028189139441 -0.034882128239 -0.038106620312 -0.036277923733 -0.029998334125 
-0.022447729483 -0.015268317424 -0.010859734379 -0.0086156399921 -0.0070808399469 -0.005739771761 -0.0047106700949 -0.0040180170909 -0.0036697241012 
-0.0044576022774 -0.0059012626298 -0.0052825780585 -0.0036697692703 -0.0013121179072 0.0013269882184 0.0045362086967 0.0085647804663 0.013188157231 
0.017447603866 0.02024271898 0.021362707019 0.020741466433 0.0189741496 0.016653824598 0.0146882236 0.013313335367 0.012285863049 
0.011042646132 0.0057070143521 0.0063273375854 0.0070075425319 0.010888906196 0.016961632296 0.022831158713 0.026206294075 0.029998622835 
0.033479932696 0.034932345152 0.033463664353 0.024686016142 0.02951195091 0.01713372767 0.0077310558408 0.0008525197627 -0.0027438527904 
-0.0034862502944 -0.003196249716 0.034346431494 0.031660906971 0.034170839936 0.031353548169 0.024032367393 0.026362508535 0.018966509029 
0.012100103311 0.004620814696 -0.0016237614909 -0.0038481196389 -0.0040077459998 -0.0031184137333 0.0081860367209 0.0099859908223 0.007259266451 
0.0097574815154 0.012060968205 0.013852613047 0.015049473383 0.015883492306 0.016569687054 0.017148397863 0.017301792279 0.016643982381 
0.014682415873 0.011478346772 0.0080162901431 0.0048787393607 0.0021339487284 -0.0015331256436 -0.00012237828923 -0.0029817919713 -0.0040627918206 
-0.0036716992036 -0.0020307926461 0.0011485164287 0.0030706874095 0.0017099741381 -0.0018063490279 -0.0029175088275 -0.0094373142347 -0.0098876692355 
-0.017446126789 -0.024294234812 -0.03010830842 -0.035727728158 -0.039947871119 -0.041292462498 -0.038810871542 -0.032912645489 -0.025080058724 
-0.017247311771 -0.011803530157 -0.0086319381371 -0.0064028552733 -0.0040805414319 -0.00099663366564 -0.00074755016249 -0.0013213164639 -0.00021365408611 
0.002760051284 0.0064819981344 0.0094105023891 0.010819241405 0.011028603651 0.010437627323 0.0090395640582 0.007651376538 0.0064920089208 
0.0045552435331 0.0058595705777 0.0046547870152 0.0059888232499 -0.0013164507691 -0.0021909913048 -0.0024740064982 -0.0026677290443 -0.0021870722994 
-0.0021894383244 -0.0022970798891 -0.0025131159928 -0.0030634975992 -0.0041043455712 -0.0062006427906 -0.0088941873983 -0.011855545454 -0.014579683542 
-0.017261968926 -0.022772716358 -0.031010551378 -0.039067622274 -0.042783811688 -0.040899898857 -0.034290969372 -0.026191305369 -0.017984336242 
-0.012312372215 -0.0092317508534 -0.0070058922283 -0.0053930734284 -0.0043130242266 -0.0037867187057 -0.0037107327953 -0.0045452290215 -0.0059884041548 
-0.0042359605432 -0.0057547311299 -0.0018679045606 0.00078335468424 0.0042851199396 0.0090557485819 0.014360025525 0.019211450592 0.022523367777 
0.023833569139 0.022838948295 0.020494118333 0.01795229502 0.01586422883 0.014140194282 0.012915492989 0.011852758005 0.011525740847 
0.008878717199 0.010980934836 0.0070499139838 0.0057681207545 0.0055325184949 0.0072326380759 0.012140231207 0.02006618306 0.027266211808 
-0.0069243391044 -0.0071694869548 -0.0028208727017 -0.0024696644396 -0.0019619688392 -0.0020450262818 -0.0020975326188 -0.0023380194325 -0.0025164722465 
-0.0027907241601 -0.003362466814 -0.00498216087 -0.0073077008128 -0.010090780444 -0.013010626659 -0.016964940354 -0.023385517299 -0.032340735197 
-0.042541056871 -0.046231463552 -0.044047806412 -0.03746009618 -0.02898055315 -0.020672742277 -0.014266402461 -0.010327030905 -0.0074816038832 
-0.0054170377553 -0.0041528069414 -0.0036695064045 -0.0038162290584 -0.0046682078391 -0.0059470594861 -0.0070697893389 -0.007963296026 -0.0079096769914 
-0.0072755548172 -0.0060523031279 -0.0045348298736 -0.0021462584846 0.00046570965787 0.0041186925955 0.0089362077415 0.014266449027 0.019333178177 
0.023293476552 0.025161994621 0.023238858208 0.020597385243 0.018243946135 0.016318788752 0.01460579969 0.013060816564 0.012960105203 
0.010271163657 0.012713000178 0.0076947612688 0.0060670427047 0.0055222604424 0.0053681395948 0.0071365032345 0.012220837176 0.02307109721 
0.0081178089604 0.010535964742 0.012813043781 0.014629148878 0.015860781074 0.016791552305 0.01752736792 0.01808260195 0.018620744348 
0.018374577165 0.016457965598 0.012961597182 0.0089584179223 0.0053879190236 0.0029636747204 0.0014554224908 -0.0024208240211 -0.00053312972886 
-0.0037819100544 -0.0047308909707 -0.0055189440027 -0.0046132369898 -0.0021886148024 0.00064901745645 0.0019479860784 0.00041384898941 -0.0041522835381 
-0.011087228544 -0.018745366484 -0.026338005438 -0.03326985985 -0.039493504912 -0.043916344643 -0.045136664063 -0.04243317619 -0.036228604615 
-0.027931071818 -0.019483178854 -0.013294023462 -0.009224653244 -0.0063750506379 -0.0042664422654 -0.0026780718472 -0.001310221618 -0.0017111361958 
-0.00099402596243 -0.0012546811486 -0.0019681933336 -0.0020753291901 0.00028207889409 0.0046481131576 0.0094891162589 0.013390566222 0.015059507452 
0.015361200087 0.015626067296 0.015148897655 0.013567517512 0.011217505671 0.0084855137393 0.0056014168076 0.006554028485 0.0051062488928 
0.0053493557498 0.0065657808445 -0.0025068579707 -0.0026181498542 -0.0038475333713 -0.0059306751937 -0.0086458381265 -0.011740133166 -0.016188910231 
-0.022593792528 -0.030552949756 -0.038415383548 -0.045751146972 -0.04826490581 -0.039660654962 -0.031422305852 -0.023241044953 -0.01638789475 
-0.011758238077 -0.0082797966897 -0.0057431012392 -0.0042015318759 -0.0036633308046 -0.0037933539134 -0.0044874646701 -0.0056586018763 -0.0064479885623 
-0.0071867676452 -0.0081010377035 -0.007784338668 -0.0077012036927 -0.0069356523454 -0.0062138922513 -0.0047232592478 -0.0024566836655 2.097499646e-06 
0.0032774417195 0.0076471841894 0.013090580702 0.018251515925 0.022118149325 0.024122374132 0.019842695445 0.021672951058 0.017988150939 
0.016404349357 0.014721267857 -0.046922381967 -0.044290345162 0.014766885899 0.012438151054 0.01481600944 0.0094465026632 0.0059988670982 
0.005224947352 0.0087213786319 0.011249412782 0.013505713083 0.015301078558 0.016490923241 0.017460914329 0.018202969804 0.018686980009 
0.019474910572 0.019883850589 0.018118297681 0.01423728466 0.0092585422099 0.0047582774423 0.003700918518 -0.0021281358786 9.7496296803e-05 
-0.0043218866922 -0.0057384511456 -0.0062124584801 -0.0064366934821 -0.0052207540721 -0.0028903603088 -0.00053550984012 0.00045708587277 -0.001170456293 
-0.0056967586279 -0.0124089811 -0.019942939281 -0.027783110738 -0.035254500806 -0.041808497161 -0.046333055943 -0.047575648874 -0.044931668788 
-0.03856722638 -0.029751880094 -0.020971782506 -0.013954292983 -0.0095039727166 -0.0062885629013 -0.0041180383414 -0.0027732721064 -0.0019797398709 
-0.0015250039287 -0.0016234302893 -0.0014754679287 -0.0016812231624 -0.0024656157475 -0.0031601879746 -0.0024285654072 0.0016751437215 0.0074167195708 
0.012937103398 0.019336044788 0.019825197756 0.018802581355 0.020445832983 0.02146927081 0.020193697885 0.016848538071 0.012315751985 
0.0081846052781 0.0055593545549 0.0055861864239 0.0056122727692 0.030198674649 0.031751859933 0.030097920448 0.026061166078 0.020442882553 
0.017916407436 0.012787033804 0.0074443728663 0.0012601378839 -0.0038028324489 -0.0048069157638 -0.0038748637307 -0.0031636301428 -0.0024655491579 
-0.0017384835519 -0.0017958938843 -0.0018383461284 -0.0021615149453 0.011813431047 0.0091427164152 0.014038099907 0.015754988417 0.016819022596 
0.01775884442 0.018474198878 0.018949475139 0.019840989262 0.021216714755 0.020509401336 0.01552920416 0.0097807319835 -0.0020348725375 
-2.413205948e-05 0.0024731538724 -0.0038670480717 -0.0056332009844 -0.0066907196306 -0.0072572245263 -0.0070707672276 -0.0059469435364 -0.0037874940317 
-0.00192397309 -0.0012127398513 -0.0017412403831 -0.013527731411 -0.0078154178336 -0.020462974906 -0.028340753168 -0.035943906754 -0.042763240635 
-0.047411344945 -0.048932682723 -0.04662520811 -0.03971612826 -0.021511569619 -0.02996375598 -0.014515833929 -0.0097584119067 -0.006275025662 
-0.0040481253527 -0.0025938819163 -0.0020343693905 -0.0016948891571 -0.0042085959576 -0.0028731413186 0.023865910247 0.024088943377 0.0062856604345 
0.01030743029 0.01711884886 0.023266799748 0.026613948867 0.026498001069 0.024058293551 -0.0021181358024 -0.002835487714 -0.0045983698219 
-0.0073077296838 -0.010640548542 -0.015309100971 -0.021049754694 -0.027676165104 -0.033697970212 -0.047980088741 -0.048430833966 -0.048976622522 
-0.046770956367 -0.041427444667 -0.033857990056 -0.025867791846 -0.018451141194 -0.013030203059 -0.0088749127463 -0.005951019004 -0.0042338101193 
-0.0036311799195 -0.0036409846507 -0.0041707945056 -0.0051560457796 -0.0058973063715 -0.0064306510612 -0.0068988241255 -0.0078272754326 -0.0081490054727 
-0.0071767847985 -0.0064236917533 -0.0058430628851 -0.0045584188774 -0.0044403923675 -0.0029981692787 -0.0020247590728 -0.0022302474827 -0.0024761985987 
-0.003541322425 -0.0040780631825 -0.001984708244 0.005190199241 0.011638560332 0.015179075301 0.0063061402179 0.011518921703 0.016792787239 
0.020710015669 0.022867584601 0.023133993149 0.022391797975 0.022049048916 0.022076295689 0.020554333925 0.019155239686 0.017808673903 
0.016404142603 0.016777154058 0.014455409721 0.016062328592 0.012134769931 0.0092612169683 0.0036055487581 -0.001266043284 -0.0046106833033 
-0.0018436076352 -0.049279481173 -0.047406733036 -0.042554046959 -0.035545427352 -0.027789413929 -0.019982388243 -0.013674525544 -0.0088230939582 
-0.0055242688395 -0.0038479950745 -0.003370054299 -0.0034265315626 -0.0056979623623 -0.0056224460714 -0.0065106544644 -0.0073589216918 -0.0054877051152 
-0.002406935906 -0.0040137367323 -0.0065524564125 -0.0099131781608 -0.014878522605 -0.020337471738 -0.025071999058 -0.02767749317 -0.020985746756 
-0.014692943543 -0.0097927590832 -0.0063210702501 -0.0039287325926 -0.0025048484094 -0.0019132759189 0.020201528445 0.01903472282 0.0180214867 
-0.007732743863 -0.0077123153023 -0.0073860641569 -0.0030254805461 -0.0043320399709 -0.0023657900747 -0.002296843566 -0.0028244284913 0.020020725206 
0.01689475961 0.017680386081 0.018413180485 -0.0036751721054 0.019039651379 -0.0035905549303 -0.0046250526793 -0.0030366489664 -0.0020604631864 
-0.010297855362 -0.0028340641875 0.0068863714114 0.0066029001027 -0.0048066219315 -0.0038763501216 -0.0058966558427 
Disp_Y 1 1114 double
0 0 0.0056400611065 0.0052650081925 0.0054989415221 0.0036922169384 0 0.00079734128667 0 
-0.0032764854841 -0.0036438137759 -0.0047082249075 -0.0040212087333 -0.0057595828548 0 -0.0052048834041 0 -0.004065813031 
0 -0.003244374413 0 -0.0019858258311 0 -0.0011083144927 0 -0.00056225649314 0 
-0.00015211058781 0 0.00049252749886 0 0.0011239763116 0 0.0015502453316 0 0.0016453261487 
0 0.0018073366955 0.0018872877117 0.0016605230048 0 0.0009657588671 0 0.00070171523839 0 
0.00086460384773 0 0.0013794566039 0 0.0018167467788 0 0.0013496325118 0 0.00062445807271 
0 -4.932720185e-05 0 -0.00056225195294 0 -0.00096882588696 0 -0.0013025862863 0 
-0.0017306078225 0 -0.002037291415 0 -0.0025062267669 0 -0.0025692232884 0 -0.0028454281855 
0 -0.0027702490333 0 -0.0022621001117 0 -0.0016707920004 0 -0.00029327275115 0 
0.0015492468374 0 0.0035591917112 0 0 -0.0043003316969 -0.003593320027 0 -0.0042695873417 
0 -0.0046010431834 0 -0.0042986380868 0 -0.0035558796953 0 -0.0034336450044 0 
-0.0031115945894 0 -0.0028866012581 0 -0.0032014569733 0 -0.0030867727473 0 -0.0036582166795 
0 -0.0030947392806 0 -0.002616827609 0 -0.0018691938603 0 -0.0019638170488 0 
-0.0019280221313 0 -0.001998929074 0 -0.0020602378063 0 -0.0020540277474 0 -0.001796580269 
0 -0.0015994190471 0 -0.00076459971024 0 0.00070730311563 0 0.0029492289759 0 
0.002859927481 0 0.0032958418597 0 0.00216103415 0 0.00066455657361 0 -0.00059568427969 
0 -0.0011318306206 0 -0.0011745523661 0 -0.0012771879556 0 -0.0016962684458 0 
-0.0011649201624 0 -0.0018408440519 -0.0052009876817 -0.0032741988543 -0.0060970173217 -0.004776305519 -0.0062542743981 -0.0050093727186 
0 -0.0046253199689 0 -0.0041856132448 0 -0.0042069451883 0 -0.0037033476401 0 
-0.0030943569727 0 -0.0023468469735 0 -0.0021655007731 0 -0.0020256938878 0 -0.0020655842964 
0 -0.0024412847124 0 -0.0025278190151 0 -0.0026096582878 0 -0.0023112567142 0 
-0.0027465277817 0 -0.0030219173059 0 -0.0033910055645 0 -0.0037895890418 0 -0.0038503813557 
0 -0.0039361719973 0.0049642575905 0.0081664146855 -0.00019851833349 -0.0062087932602 -0.0091235283762 -0.010149071924 -0.0094806626439 
-0.0078924028203 -0.0057689473033 -0.0035203602165 -0.0014701777836 -0.00018835837545 0.00067755224882 0.001475733472 0.0021878706757 0.0025737602264 
0.0025176885538 0.0019568994176 0.00092332519125 1.0771624147e-05 -0.00036023804569 -0.00018624562654 0.00055982609047 0.0016903959913 0.0014227653155 
0.00042999416473 -0.00034730471089 -0.00095149321714 -0.0014326110249 -0.0019210663158 -0.0026341639459 -0.0031947197858 -0.0038522526156 -0.0044528632425 
-0.0048518371768 -0.0045758872293 -0.0036446393933 -0.0024377505761 -0.00036428010208 0.0020944196731 0.0048550837673 0.0077760592103 -0.0063691632822 
-0.0060947150923 -0.0066647822969 -0.0068002543412 -0.006598692853 -0.0061189266853 -0.0056014820002 -0.0052151400596 -0.0054196044803 -0.0050415252335 
-0.0046806223691 -0.004304447677 -0.0034693568014 -0.0026903529651 -0.002382874256 -0.0024003055878 -0.0026800304186 -0.0029370691627 -0.0029803458601 
-0.0026788562536 -0.0017969086766 -7.5724354247e-05 0.0014963251306 0.0028460072353 0.0047890138812 0.0042312252335 0.0039340564981 0.0025252192281 
0.00045589011279 -0.00087093288312 -0.0011788380798 -0.0011409459403 -0.0011429379229 -0.0011108336039 -0.0015134792775 -0.0022871186957 -0.0034508344252 
-0.0044121639803 -0.0055443872698 -0.0060225925408 -0.0057085086592 -0.0046811322682 -0.0038243564777 -0.0033913629595 -0.0028456253931 -0.0027961579617 
-0.0026131218765 -0.0030709104612 -0.0036048111506 -0.0039373445325 -0.0040448531508 -0.0044494518079 -0.0048387050629 -0.005266555585 -0.0057312464342 
-0.0059418049641 -0.0059144129045 -0.0057108299807 0.0043695317581 0.0037381167058 -0.012958169915 -0.011228251271 -0.013555313461 -0.01264367532 
-0.010211936198 -0.0071694930084 -0.0043333466165 -0.0017463037511 4.2510022467e-05 0.0011730191763 0.0021093511023 0.0027709859423 0.0030238169711 
0.0025547856931 0.0012278251816 -0.00050937826745 -0.0019921143539 -0.0027390762698 -0.0026809831616 -0.0020269723609 -0.0008586194017 -8.5756844783e-05 
0.0006312719197 -0.00083964952501 -0.0014392117737 -0.001908977516 -0.0024255504832 -0.0031243581325 -0.0039900862612 -0.0049953390844 -0.0059028421529 
-0.0064736194909 -0.0064192675054 -0.0057550594211 -0.0049133421853 -0.0020118218381 0.0010667848401 0.0046489848755 0.0077500864863 0.0079586049542 
0.0045223133639 0.00079124682816 -0.00044800247997 0.0048102810979 0.0035057805944 0.0048213242553 0.0039610117674 0.0018998895539 -7.6445852756e-05 
-0.00098795804661 -0.0010182322003 -0.00077223184053 -0.0012996387668 -0.00095048925141 -0.0018532901304 -0.0027425491717 -0.0039819516242 -0.0054570659995 
-0.006397686433 -0.0057627297938 -0.0045603970066 -0.0047239321284 -0.0047370572574 -0.003991888836 -0.0032214664388 -0.0024645712692 -0.002993009286 
-0.0037910530809 -0.0044652028009 -0.0048615797423 -0.0052466266789 -0.0055969255045 -0.0059695863165 -0.0064384071156 -0.006767842453 -0.006912983954 
-0.0069518764503 -0.0073290178552 -0.0077875806019 -0.0081302383915 -0.0081800511107 -0.0080136591569 -0.0075058541261 -0.0069740945473 -0.0066112643108 
-0.006174497772 -0.0056641204283 -0.0051020355895 -0.0046511362307 -0.0039184461348 -0.0031534344889 -0.0027399321552 -0.002784082666 -0.0031517879106 
-0.0034894216806 -0.0034578074701 -0.0028047631495 -0.0014794899616 0.00034041673644 0.0014301295159 0.002203623997 0.0022233440541 0.0012176060118 
0.0025629927404 -0.0004152446927 -0.00082170160022 -0.00067526334897 6.1255894252e-05 -0.00064262596425 -0.00017127416504 -0.00075564463623 -0.0014533117646 
-0.0021046651527 -0.0026408892591 -0.0031190759037 -0.0037857645657 -0.0047294050455 -0.0058342260309 -0.0071201580577 -0.0080130770802 -0.0082792853937 
-0.0080048730597 -0.0077131618746 -0.00021017409745 -0.0033885950688 0.0032945212442 0.0060020722449 0.0060888868757 0.00303138257 -0.014948666096 
-0.013586410321 -0.01519829873 -0.014191346243 -0.011718188412 -0.0083066662773 -0.0049313977361 -0.0022022405174 -0.0001816109143 0.001042680582 
0.0021414950024 0.0030420292169 0.0030058810953 0.001790582086 -0.00046785717132 -0.0029957524966 -0.0049994322471 -0.0061439685524 -0.0060634384863 
-0.005360645242 -0.0043428386562 -0.0032178694382 -0.0027772376779 -0.0011621577432 -0.0025871619582 -0.00063159066485 -0.009786112234 -0.011694002897 
-0.0088757276535 -0.010472035035 -0.0060157743283 -0.0078931422904 0.0028746672906 0.0018202856882 0.00030484152376 -0.00075664930046 -0.00098617456388 
-0.0008720876649 -0.00077519193292 -0.00075281999307 -0.00089940830367 -0.00081000849605 -0.001100387075 -0.0015377245145 -0.0020581523422 -0.002817571396 
-0.0039089410566 -0.005194382742 -0.0056648803875 -0.0049304002896 -0.0045925360173 -0.0054840371013 -0.0061405119486 -0.0054503972642 -0.0042000599205 
-0.0028415601701 -0.0028826193884 -0.0034522083588 -0.004264854826 -0.004784214776 -0.0052235377952 -0.0056368885562 -0.0060127270408 -0.0064232726581 
-0.0068529229611 -0.0073271710426 -0.0077398214489 -0.0081997709349 -0.0086450241506 -0.0089590074494 -0.0089577371255 -0.0086788535118 -0.0083221504465 
-0.0079709803686 -0.0076227136888 -0.0069761271589 -0.0062827961519 -0.0054750940762 -0.0047726901248 -0.0040432796814 -0.0034602119122 -0.0030124776531 
-0.0028736025561 -0.0035825483501 -0.0033847941086 -0.0034079914913 -0.0025750028435 -0.001131213503 0.00037344670272 0.001142606372 0.0011343462393 
0.00042733183363 -0.00090058607748 -0.0026018009521 -0.0028381622396 -0.0044459449127 -0.00098753883503 4.2394072807e-05 -1.2743575098e-05 -0.00047907291446 
-0.00098075415008 -0.0010910626734 -0.0025747490581 -0.00097493827343 -0.0042899553664 -0.0058735744096 -0.0060793864541 -0.0071739801206 -0.0050135902129 
-0.003849450266 -0.0028515097219 -0.0023160208948 -0.0017172959633 -0.001478875638 -0.001301814802 -0.0030657148454 -0.0028255467769 -0.0007994917105 
-0.0013479115441 -0.0020621225704 -0.0027769797016 -0.0033704573289 -0.0038836023305 -0.0044867033139 -0.005318870768 -0.0064872205257 -0.008022098802 
-0.0093034124002 -0.0098527511582 -0.0097347227857 -0.0093550868332 -0.0091904252768 -0.0082546928898 -0.0093108741567 -0.0067835166119 -0.0046238591895 
-0.0015739189694 0.0015177533496 0.0034594570752 0.0031970590353 0.00092450744705 -0.0015524979681 -0.0026101535186 -0.0056860526092 -0.0060114460066 
-0.0087305214256 -0.010840844363 -0.012585651129 -0.014377207495 -0.015692157671 -0.015907041728 -0.014919527806 -0.012719308026 -0.0094024166465 
-0.0058189961128 -0.0029026765842 -0.00099886825774 0.00018733744218 0.00082031468628 0.0022249962203 0.0028462391347 7.812729018e-05 -0.0030185740907 
-0.006110467948 -0.0083218635991 -0.009579885751 -0.0092891678214 -0.0085899028927 -0.0075921649113 -0.0063771214336 -0.0056940629147 -0.0046975119039 
-0.0026276691351 -0.0035908191931 -0.0016209331807 -0.0011224644259 0.0021128002554 0.00082590267994 -0.0012231501751 -0.0010529927677 -0.0012256731279 
-0.0015227239346 -0.0010636866791 -0.0011474938365 -0.0015210950514 -0.002011019038 -0.0025343638845 -0.0031990080606 -0.0039817234501 -0.0047316048294 
-0.0046947151423 -0.0041557718068 -0.0048867324367 -0.00676562218 -0.0077217225917 -0.0069627319463 -0.0052138841711 -0.0032662427984 -0.0029354339931 
-0.0030075151008 -0.0036203977652 -0.0041277036071 -0.004682269413 -0.0051940032281 -0.0056312093511 -0.0060791494325 -0.0065741762519 -0.0070965965278 
-0.0087884180248 -0.0083304233849 -0.0091736260802 -0.009506191127 -0.0096586830914 -0.0097289253026 -0.009609577246 -0.0091249728575 -0.0084393778816 
-0.0077273659408 -0.0068816584535 -0.0058826133609 -0.0048458972014 -0.0040350938216 -0.0034925162327 -0.00309084123 -0.0029150224291 -0.0027933283709 
-0.0026681032032 -0.0025422873441 -0.0029391085263 -0.003265440464 -0.0034318498801 -0.003202751046 -0.0024391568732 -0.0012107657967 0.00018394527433 
-0.0079420246184 -0.0075466996059 -0.0015494922409 -0.0018871306675 -0.0019313474186 -0.0021331163589 -0.0016667427262 -0.0015048423083 -0.0014858751092 
-0.0018652458675 -0.0023842453957 -0.002848666627 -0.0034138248302 -0.0039160861634 -0.0042127217166 -0.0042678448372 -0.0045717414469 -0.0061588827521 
-0.0090020615608 -0.0093881348148 -0.0085876910016 -0.0063144140877 -0.0038920440711 -0.0029747707304 -0.0026297986042 -0.0029975110665 -0.0034750110935 
-0.0040320185944 -0.0046149231493 -0.0051708356477 -0.0057136542164 -0.0062868380919 -0.00679990137 -0.0072097736411 -0.0079455738887 -0.0075521157123 
-0.0082578798756 -0.0086502321064 -0.0090753315017 -0.0094985459 -0.010003658012 -0.010503661819 -0.010926146992 -0.010854403488 -0.010264875367 
-0.0093425661325 -0.0084057776257 -0.0071748504415 -0.0059627993032 -0.004748379346 -0.0038236198016 -0.0032926185522 -0.0029410803691 -0.0026961334515 
-0.0022089313716 -0.0024495136458 -0.0023587287869 -0.002732767025 -0.0030097973067 -0.0030357029755 -0.0029627901968 -0.0026779219043 -0.0025334954262 
-0.0012360138353 -0.0017128301552 -0.0024435045198 -0.00319175818 -0.0038293718826 -0.0043629114516 -0.0049320119433 -0.0055981399491 -0.0066956733353 
-0.0084230201319 -0.010089829564 -0.01095855888 -0.010895470157 -0.010391167365 -0.0099546173587 -0.01031678915 -0.0095576513559 -0.010780309327 
-0.0084882630035 -0.0071476968005 -0.0054788435809 -0.0030695837922 -0.00068661750993 0.00055400963174 0.0002416503994 -0.001500794664 -0.0037119262852 
-0.006262130104 -0.0084451436996 -0.01052268967 -0.012419453822 -0.014318985865 -0.015787167475 -0.016190258786 -0.015501964837 -0.013657851145 
-0.010716807097 -0.0071193831973 -0.0039639952593 -0.0020247846842 -0.00087872339645 -0.00033175910357 -0.00028162469971 0.00043147447286 -0.00055195699679 
0.0013922607759 0.0016524674138 0.0004714418028 -0.002418117132 -0.0057009500451 -0.0084987366572 -0.010316412896 -0.011295462959 -0.010966402479 
-0.010239847004 -0.0094179874286 -0.0085865641013 -0.0075944242999 -0.0062586572021 -0.0044742957689 -0.0027800165117 -0.0031429855153 -0.0025014274288 
-0.001816441305 -0.0013700305717 -0.0019903758075 -0.0025088330731 -0.0028943871148 -0.0033735544421 -0.0037707034498 -0.0039828359149 -0.0042733172886 
-0.0051131481305 -0.0071342517622 -0.0099332490936 -0.010252857581 -0.011423675343 -0.0077867168002 -0.0052965362556 -0.0036325999536 -0.0027216107119 
-0.0028870608658 -0.0032722821925 -0.0037430773955 -0.0043062302284 -0.004865011666 -0.005458317697 -0.0059633832425 -0.0064745838754 -0.0067655928433 
-0.0069779558107 -0.0077840778977 -0.0072710351087 -0.00811299216 -0.0084245800972 -0.0088343974203 -0.0092211747542 -0.0097812479362 -0.010431864299 
-0.011158258654 -0.011834457517 -0.011966236867 -0.011503669433 -0.010627979413 -0.0095639359206 -0.0056412010454 -0.0068330988288 -0.0045040529221 
-0.0036113464739 -0.0030642296188 -0.011807183735 -0.012562340125 -0.002900151303 -0.0022067863028 -0.0027062548324 -0.0018325445708 -0.0019204636337 
-0.0026057597715 -0.001437746454 -0.0018786801957 -0.0025983522646 -0.0033125453629 -0.0039150645025 -0.004409013316 -0.0049275686033 -0.0054535269737 
-0.0064588449895 -0.0083846403286 -0.010471732356 -0.011663313955 -0.011850885116 -0.01124710124 -0.012234380469 -0.010641654953 -0.011414944194 
-0.0097412588075 -0.0087305344641 -0.0074957101606 -0.0061300690286 -0.0044792061672 -0.0029914877377 -0.00217142771 -0.0023573986255 -0.0035299132578 
-0.0044951178133 -0.0060592065565 -0.0077016488649 -0.0095465555787 -0.011546676047 -0.013564256951 -0.015184178948 -0.015955591574 -0.015546983108 
-0.013835486956 -0.011170425452 -0.0079947989434 -0.0049590324052 -0.0029909687582 -0.0018820308615 -0.0012625142699 -0.0011404122924 -0.0013530915603 
-0.0010925712995 -0.0017134646187 -0.00032342318445 0.0002487184538 -0.00021168678359 -0.0019492708379 -0.0050539853983 -0.0079278675839 -0.0095616104081 
-0.010333013721 -0.010504534468 -0.010656018741 -0.010558767244 -0.0098943812773 -0.0094172758982 -0.0081826755777 -0.0064554647543 -0.0047187986784 
-0.0033097835258 -0.0020135343075 -0.0024028939661 -0.0018745524576 -0.0042945169844 -0.0059291361831 -0.0074346088804 -0.0090183056891 -0.0088446149603 
-0.0075212731026 -0.0068353503011 -0.005755352322 -0.0050063440576 -0.0040218518116 -0.0026578146499 -0.001962818671 -0.0022210974712 -0.0023437535856 
-0.0022535757162 -0.0020808584522 -0.002277036896 -0.0021327310242 -0.0019200453535 -0.0014499165118 -0.0025940937921 -0.0032272986136 -0.0037488238886 
-0.0041448371485 -0.0046240566298 -0.0051170405932 -0.0060165324248 -0.0080302562565 -0.011057841592 -0.012665449642 -0.01298049558 -0.010150780901 
-0.010647283867 -0.011443073861 -0.010031660087 -0.0095424270257 -0.0087066348642 -0.0078064026311 -0.0067471396178 -0.0058039827272 -0.0046254880726 
-0.0039595807903 -0.0039184684865 -0.004002194386 -0.0053070471622 -0.0046401936561 -0.0063245478086 -0.008007787168 -0.010009661317 -0.012229413725 
-0.014194331132 -0.015272219665 -0.015000448562 -0.012959036976 -0.0078909918666 -0.010485350154 -0.0054585114121 -0.003712392645 -0.0026711910032 
-0.0020387799013 -0.0018061128212 -0.0018758567749 -0.0021248201374 -0.0043571474962 -0.0042795515619 -0.0078933900222 -0.0085948584601 -0.002781082876 
-0.0031444183551 -0.004136914853 -0.005657391157 -0.0074054873548 -0.0087735392153 -0.0100428937 -0.0024959882721 -0.0027958862484 -0.0032260851003 
-0.003631881671 -0.0039665130898 -0.0045094229281 -0.0055862651207 -0.0075669926591 -0.00995594915 -0.014121924527 -0.013099918142 -0.012927699834 
-0.011710708961 -0.0092639960349 -0.006602036301 -0.0046485434286 -0.0034397945274 -0.0033370940946 -0.0035277220886 -0.0038325975183 -0.0042026066221 
-0.0046265996061 -0.0051076286472 -0.0055574793369 -0.0060275010765 -0.0063176527619 -0.0064550475217 -0.0066212788224 -0.008047551848 -0.0076581924222 
-0.0084020560607 -0.0087117133662 -0.0089267129079 -0.0093004051596 -0.0029492252506 -0.0024502864107 -0.0017767370446 -0.0012885942124 -0.00083024060586 
-0.0017787995748 -0.0039003321435 -0.0064914929681 -0.0081223314628 -0.0088479584083 -0.0094224913046 -0.01252228301 -0.013053369708 -0.012747070752 
-0.011778040789 -0.010474408977 -0.009637510404 -0.0072420425713 -0.0075244591571 -0.0071865702048 -0.0062971645966 -0.0052155316807 -0.0042693857104 
-0.0034642934334 -0.0033440471161 -0.0025776326656 -0.0031257015653 -0.0020010762382 -0.0015222686343 -0.0069006378762 -0.0062071210705 -0.0041723977774 
-0.00236048433 -0.014257091098 -0.013031997718 -0.01075241901 -0.0082487659529 -0.0062450398691 -0.0047516324557 -0.0042291865684 -0.0041218469851 
-0.0041357516311 -0.004242119845 -0.0044896430336 -0.0048816744238 -0.0060723121278 -0.0060945143923 -0.0089767612517 -0.0084475791082 -0.0092733437195 
-0.0025331736542 -0.0029213272501 -0.0034186411649 -0.0040014907718 -0.0049297767691 -0.0061580734327 -0.007505803369 -0.0088586332276 -0.0070577235892 
-0.0053537688218 -0.0040113716386 -0.0031587490812 -0.0025715224911 -0.0022810695227 -0.0021863461006 -0.0059287813492 -0.0048581818119 -0.0040548178367 
-0.0078545734286 -0.0073300637305 -0.0069524035789 -0.0048258393072 -0.0053911684081 -0.00456748344 -0.0043653077446 -0.0044538709335 -0.0057615586556 
-0.0035351885017 -0.0037698235828 -0.0042577115819 -0.0023774895817 -0.0048243636265 -0.0050694020465 -0.0055715269409 -0.0047764470801 -0.00086716277292 
-0.0059295329265 -0.0010080821812 -0.0013233346399 -0.0013656949159 -0.0056818737648 -0.0052392454818 -0.0060666855425 
Disp_Z 1 1114 double
0 0 0.00040271616308 0.00053782621399 0.00012031159713 -0.00062374747358 0 -0.0010638852837 0 
8.8548113126e-05 0.0019497701433 0.0030248286203 0.0037625553086 0.0051217204891 0 0.0068634566851 0 0.0071880840696 
0 0.0073450547643 0 0.006909168791 0 0.0064095132984 0 0.0063210870139 0 
0.0066525279544 0 0.0067169829272 0 0.0064645907842 0 0.005994700361 0 0.0055190669373 
0 0.005304383114 0.0014579867711 0.0044856462628 0 0.0036557477433 0 0.0023443677928 0 
0.00075469986768 0 -0.00051683426136 0 -0.0010245695012 0 -8.7264314061e-05 0 0.00016031281848 
0 -0.0014695882564 0 -0.0032552967314 0 -0.004728666041 0 -0.0057715727016 0 
-0.0066069676541 0 -0.0073714125901 0 -0.0081863244995 0 -0.0089212395251 0 -0.0093420855701 
0 -0.0097168274224 0 -0.0095359347761 0 -0.0084609175101 0 -0.0061699273065 0 
-0.0033471495844 0 -0.00090154592181 0 0 -0.0099334428087 -0.0081106629223 0 -0.011335240677 
0 -0.012538697571 0 -0.013393735513 0 -0.014021154493 0 -0.014201410115 0 
-0.013861377724 0 -0.012929121032 0 -0.011522225104 0 -0.0099111869931 0 -0.00879368186 
0 -0.0076085990295 0 -0.006610094104 0 -0.0052641076036 0 -0.0039879879914 0 
-0.0022076002788 0 -0.00064447085606 0 -7.1724600275e-05 0 0.0001037885886 0 0.00073814456118 
0 0.0024641922209 0 0.0047331703827 0 0.008037686348 0 0.01416783873 0 
0.012549225241 0 0.012835097499 0 0.013179765083 0 0.011972905137 0 0.010187929496 
0 0.0087906885892 0 0.0073167388327 0 0.0057750488631 0 0.0043463716283 0 
0.0037701055408 0 0.006349239964 0.0028778393753 0.0079166851938 0.0035066946875 0.0085185365751 0.0029914944898 0.0083037149161 
0 0.0082589956 0 0.0080781914294 0 0.0081743616611 0 0.0080837318674 0 
0.0073867421597 0 0.006209212821 0 0.0040755523369 0 0.0017039873637 0 0.00046276921057 
0 0.00030470240745 0 0.00027387929731 0 -0.00025198826916 0 -0.0010663992725 0 
-0.00195979001 0 -0.0029069336597 0 -0.0036663601641 0 -0.0044597922824 0 -0.0051437034272 
0 -0.0064387121238 -0.00027421250707 0.0020720220637 -0.0019194758497 -0.00021731275774 0.0040871025994 0.0082311462611 0.011319941841 
0.013195773587 0.013434210792 0.012137097307 0.010330942459 0.009583381936 0.0096579650417 0.0094591872767 0.0087417187169 0.0078991670161 
0.0072620864958 0.0069513316266 0.006566607859 0.00559338741 0.0038112064358 0.0012282353127 -0.0011860548984 -0.0013393596746 0.00049708160805 
-2.9939656088e-05 -0.0023387034889 -0.0049556475133 -0.0073341503739 -0.0093421060592 -0.010852157138 -0.01246223785 -0.014163181186 -0.015575881116 
-0.016505811363 -0.016860961914 -0.016149010509 -0.01371167507 -0.0094826882705 -0.0043410444632 0.0001374296553 0.002603169065 -0.018347399309 
-0.0155674126 -0.020563242957 -0.022457757965 -0.023965261877 -0.024657690898 -0.023965824395 -0.021939137951 -0.019033176824 -0.015663558617 
-0.012743540108 -0.010598382913 -0.0087795052677 -0.0070911105722 -0.0050624785945 -0.0026001029182 -0.00069601810537 -0.00026851051371 -0.00019336107653 
0.00039322729572 0.0022103714291 0.0052937623113 0.010986570269 0.019021069631 0.022121218964 0.019766280428 0.022571438923 0.020312635228 
0.016708185896 0.01357276924 0.011169610545 0.0091353394091 0.0076669016853 0.0075454604812 0.0098447045311 0.011681881733 0.012667316012 
0.012979940511 0.012867807411 0.012765790336 0.013397248462 0.013966197148 0.012798923068 0.0095948725939 0.0051146228798 0.0010437789606 
-0.0011067939922 -0.0011112747015 -0.00063170975773 -0.00078455079347 -0.0016447523376 -0.0026839650236 -0.0037029297091 -0.0045276177116 -0.0054606134072 
-0.0067178476602 -0.0092047452927 -0.012345069088 0.023505147547 0.027137318626 0.0066334148869 0.0026788981631 0.01144698821 0.015686342493 
0.01787144877 0.017766363919 0.015706457198 0.012746217661 0.011062018573 0.01067338232 0.010177117772 0.0091825248674 0.0082157319412 
0.0076328739524 0.0077177351341 0.0078434888273 0.0070583987981 0.005021748133 0.0019984401297 -0.00099175551441 -0.002101629274 -0.0010159454541 
0.00027854915243 -0.0036380162928 -0.0065976120532 -0.0094012850896 -0.011882657185 -0.014013736509 -0.016173301265 -0.018516557291 -0.020651174709 
-0.022040486336 -0.022352950647 -0.021243412048 -0.01781383343 -0.01057960093 -0.0034495424479 0.0022690391634 0.0054338788614 0.0044749700464 
0.0014424584806 -9.3685797765e-05 -0.0013437469024 0.029266627505 0.033986683935 0.031288702041 0.028032498434 0.022327322513 0.01686071977 
0.0132102184 0.010922412388 0.0097601125017 0.01251833234 0.01044862438 0.01436158549 0.015534644015 0.016005221754 0.015765532851 
0.016066865996 0.017785862088 0.018930304796 0.017299737781 0.012879879214 0.0066745281219 0.00091377127683 -0.0025886262301 -0.002469311934 
-0.0013988690916 -0.00090144324349 -0.0015033419477 -0.0022623729892 -0.0030208006501 -0.0038244831376 -0.0048388033174 -0.006283890456 -0.0098291756585 
-0.014527423307 -0.018898207694 -0.022770959884 -0.026179416105 -0.029286900535 -0.031970441341 -0.033157743514 -0.032125413418 -0.0289654769 
-0.024408219382 -0.019353412092 -0.014754088596 -0.011496834457 -0.0092366887257 -0.0074292621575 -0.0051532736979 -0.0022416671272 -0.00041624641744 
-0.00042413311894 -0.0006317946245 -0.00051601289306 0.0015541701578 0.0051183560863 0.011341595091 0.018909445032 0.026807665825 0.034162715077 
0.038411717862 0.038966011256 0.0093667926267 0.0099072055891 8.4623148723e-05 -0.00041684368625 -0.00042512483196 -0.0021388824098 -0.0046895579435 
-0.0076070297509 -0.010486134328 -0.013266624883 -0.015789240599 -0.018377985805 -0.021361321211 -0.024030596018 -0.025944164023 -0.026429498568 
-0.025341710076 -0.02305880934 -0.0016050216509 -0.0088672088459 0.0043241051026 0.0068775285035 0.0058315945789 0.0026118613314 0.0096765449271 
0.0055250781588 0.014675498009 0.018961513415 0.021103598177 0.020506376401 0.017728840932 0.014210104011 0.011694206856 0.010628599674 
0.0095109483227 0.008478179574 0.007656193804 0.007610744331 0.0085016842932 0.0093464916572 0.0089158453047 0.0069101219997 0.0039101704024 
0.0005497688544 -0.0018616121961 -0.0023471480235 -0.0017545456067 -0.00016411882825 -0.00098091829568 -6.7868066253e-05 0.00056381255854 0.0030609131791 
-0.00015861586144 0.0012486188207 -0.01547193341 -0.020785227418 0.033686108887 0.026465445757 0.01965964213 0.014799935743 0.012097324245 
0.010899499059 0.010692649521 0.010776856914 0.01098461356 0.011082272045 0.012426996604 0.014390392229 0.016210922971 0.017570964992 
0.018187293783 0.018191190436 0.019238414243 0.021865470335 0.022975794971 0.020715292543 0.015465126373 0.0082966629416 0.0014646485215 
-0.0029889368452 -0.0031896114815 -0.0021852266509 -0.001113060629 -0.0012297499925 -0.0016139924992 -0.0020287572406 -0.0026514541823 -0.0035500940867 
-0.0049997759052 -0.0091446563601 -0.015506465919 -0.020543737337 -0.024995755404 -0.029313530773 -0.033618126065 -0.037240862846 -0.038750749081 
-0.037307944149 -0.033152405173 -0.027200639248 -0.020878469571 -0.015335210599 -0.011391316541 -0.008760037832 -0.0071476530284 -0.0050505944528 
-0.0031733366195 -0.0006036114064 -0.00018338975497 -0.0010821786709 -0.00099795230199 0.0015269964933 0.005729821045 0.010479218327 0.015313725919 
0.022518804297 0.029899794608 0.035302504897 0.040209133178 0.037473659962 0.039510183036 0.035089019686 0.028216732666 0.020738044754 
0.015470875427 0.012696863152 0.022189319134 0.014215538278 0.028420085087 0.03171210736 0.03656006977 0.031946297735 0.038401715457 
0.037354514003 0.033130604774 0.027008468285 0.019739307463 0.01490306668 0.012340764515 -0.00061508140061 -0.0016088979319 -0.00077945797238 
-0.0025186471175 -0.0048860237002 -0.0077212941833 -0.010746033862 -0.013673327863 -0.016602704301 -0.019714832306 -0.023072004318 -0.026266042143 
-0.028861101717 -0.029831850901 -0.028886413202 -0.026752389967 -0.024644009769 -0.018771806732 -0.023300599307 -0.013164069504 -0.0067050848156 
-0.00026997833629 0.0050685005262 0.0068486444652 0.0059236488305 0.0030190409161 -0.0005230884417 -9.0624052973e-05 -0.00097632675897 -0.0014045294374 
-0.00084455026081 0.0008324663504 0.003783504013 0.0076488750055 0.012187290005 0.017184389755 0.021285701543 0.023277238011 0.022449743003 
0.019321968779 0.01541388873 0.012557235546 0.010825255886 0.0094928247854 0.0071907779202 0.0072915377095 0.0082739982754 0.010488376953 
0.012301396579 0.012363476679 0.010522896424 0.0074316319078 0.0037719320972 0.00075510214083 -0.0011493008351 -0.0021171090193 -0.0017916923389 
-0.00070205866359 -0.0011069541797 -0.00022026026272 -0.0001096346241 0.0078356545419 0.0083227260038 0.011238028295 0.011351691559 0.011461297981 
0.011203491129 0.011713947169 0.012225629762 0.013488865457 0.015426755883 0.017262393609 0.018874244764 0.019806936383 0.020554605871 
0.022565085441 0.025796486065 0.02662852034 0.023505078629 0.017362235114 0.0094808107242 0.0017917669611 -0.0033872164786 -0.003554942552 
-0.002894183388 -0.0015549748205 -0.0013359900331 -0.001206894638 -0.0012116743019 -0.0015138926683 -0.0021789658349 -0.0031696276274 -0.005316958297 
-0.021490581334 -0.016658164561 -0.0261143893 -0.030982431024 -0.035996321589 -0.040110059083 -0.041707411408 -0.039893582463 -0.034917071462 
-0.027668468654 -0.020260391757 -0.01483111456 -0.01087028347 -0.0082351146266 -0.0065403697081 -0.0047592562623 -0.0035763629712 -0.0027244819794 
-0.00050275382819 -0.0016976905754 -2.8999820643e-05 -0.0001344147895 -0.00077876046998 -0.0015146113001 -0.001125015202 0.0027356350329 0.0087033174932 
-0.011845556088 -0.0076858690009 0.011706474237 0.010994680226 0.011266847141 0.010449474677 0.011967396364 0.012476761825 0.012845990248 
0.013831369579 0.015529965982 0.017355360091 0.019215103239 0.020702416077 0.022484542802 0.024895705283 0.028325540945 0.02942116186 
0.026291999966 0.018452821299 0.010184527375 0.0019809806254 -0.0036230876576 -0.0044026859105 -0.0037915399298 -0.0023891008459 -0.0017840551445 
-0.0012855174718 -0.0008576567634 -0.00074708304601 -0.001028700266 -0.0016376298154 -0.0029630041681 -0.0046845860779 -0.0098028182983 -0.0064311954193 
-0.013588359579 -0.017811859027 -0.022235991433 -0.026814632118 -0.031693205237 -0.036697018892 -0.040810082108 -0.042603485286 -0.041111953557 
-0.035937923938 -0.02679779008 -0.018441142514 -0.013732210733 -0.010324226692 -0.0077059506439 -0.0059066358954 -0.0040751500055 -0.0034931246191 
-0.0007839903119 -0.0028325258754 0.00027480648714 0.00032634355011 -4.9813286751e-05 -0.00079935922986 -0.0016948214034 -0.0012305326527 0.0047421320342 
-0.00079295033356 -0.0022720638663 -0.0045531503856 -0.0073255617172 -0.01039417088 -0.013368632644 -0.016513606533 -0.019906375557 -0.023386826739 
-0.027301004156 -0.030902510509 -0.032590284944 -0.031885880977 -0.029571866617 -0.027265977114 -0.027219027281 -0.021790029481 -0.026524480432 
-0.016954828054 -0.011427935213 -0.0053600789979 0.00052484567277 0.0050144284032 0.0064101368189 0.005448856391 0.002552571008 -0.00045406463323 
-0.0022485994268 -0.0018560908502 0.00013098327327 0.0037427449133 0.0082729011774 0.013468813151 0.018792510033 0.02299727127 0.025162687525 
0.024590374902 0.021542318165 0.017321821302 0.014027168974 0.011804311536 0.010174224153 0.0090147331357 0.00733723538 0.0082193166018 
0.0067319101654 0.0066565177403 0.0077510438859 0.010514688678 0.014361604117 0.017208945006 0.017829975113 0.016368230805 0.012465657666 
0.0083524752408 0.0053053181618 0.0025853549596 0.00035103055416 -0.00099252583459 -0.001208833186 -0.0008615598781 -0.001167888171 -0.00073347083526 
-0.0002133124508 0.0001275659597 0.013370085508 0.01487923041 0.016638990492 0.018678633496 0.020702362061 0.023390339687 0.026287773624 
0.029950659722 0.031135203317 0.030181627721 0.01014994923 0.017524860799 0.0024558200967 -0.0024833027273 -0.0044829305261 -0.0047815511934 
-0.0032098996453 -0.0022560728248 -0.0014905966818 -0.00072753755376 -0.00025829469087 -0.00021338937222 -0.0005321810022 -0.0013467509998 -0.0026252157986 
-0.0039405724965 -0.0083337053657 -0.0053195650689 -0.01166850701 -0.015193658881 -0.018711928278 -0.022583056241 -0.027045961469 -0.031548641622 
-0.035836815834 -0.039804719388 -0.042080424726 -0.041287757456 -0.037085942924 -0.030781328678 -0.012998263352 -0.016808725893 -0.01009505894 
-0.0075535369106 -0.0055304421112 0.023553628474 0.027249699458 -0.0052390126511 -0.0021707639098 -0.0046409587376 -8.3682782133e-05 0.00051397149218 
-0.0004090317525 -0.0004535363405 -0.0017913439078 -0.0040861940943 -0.0068779941648 -0.0098380660638 -0.012660812587 -0.015705959871 -0.019057363272 
-0.022564088926 -0.027037981898 -0.032045185566 -0.034894831479 -0.034282028675 -0.031147740781 -0.032727234066 -0.024640582502 -0.029608622193 
-0.020015502349 -0.015123214573 -0.010015925393 -0.0046035349369 0.00044586448348 0.004374503158 0.005464267917 0.0045703565702 0.0015609738184 
-0.0014582175063 -0.0032965980936 -0.0033260448836 -0.0015075044939 0.0023378336336 0.0073807416484 0.013380859047 0.019274709746 0.023965634406 
0.02656898275 0.026404706761 0.023825246841 0.01991227828 0.016145139933 0.013558370993 0.011583617888 0.01014877297 0.0093354983255 
0.0078049483709 0.008998635225 0.0069216042757 0.0066086915322 0.0071458038874 0.009724820964 0.014692795463 0.020033940673 0.022981708869 
0.023659642786 0.023541018367 0.016902113333 0.012072950602 0.010935203172 0.0081322351471 0.004979818128 0.0019648922607 -0.00031946829404 
-0.0012840460986 -0.00053803686751 -0.00099612481426 -0.00026535755023 0.013009856455 0.019793320447 0.024042045698 0.025275558233 0.030019130558 
0.033072568476 0.033838681877 0.032781045884 0.028778942302 0.022503629327 0.016650529578 0.013140521944 0.011239496991 0.0097896708176 
0.010240845382 0.0090454230085 0.011486218311 0.012571207248 -0.0014259965392 -2.809540274e-05 -0.0039119264111 -0.0066686421633 -0.0092697944492 
-0.011614209972 -0.014383290894 -0.017484221607 -0.020652983338 -0.025243446231 -0.032477211207 -0.03711469844 -0.036890149117 -0.026541730389 
-0.03068000637 -0.033688955009 -0.022336557508 -0.018059697002 -0.013587894849 -0.0090158171952 -0.0045373183675 -0.00062755285762 0.0030428403988 
0.0039951852523 0.0035557602532 0.0022238106467 -0.0041877073236 -0.0025433769915 -0.0046645496041 -0.0032105057035 0.0005542137078 0.0056530404836 
0.012180378661 0.018567154184 0.024256385863 0.028661200777 0.025802077726 0.028295705095 0.022213667631 0.018378665671 0.015643572435 
0.013324272819 0.011633334681 0.010662879795 0.010384052061 -0.00078819971532 0.00076162262121 -0.021007342264 -0.024588335305 -0.0015770443715 
-0.001190944924 0.0016235742951 0.0065486170352 0.011572644114 0.015717152506 0.017567532137 0.01361495629 0.015558072366 0.017846599221 
0.020254794508 0.023194586858 0.026366118342 0.029737537727 0.031022612005 0.030887844041 0.022946389392 0.021062716842 0.016550483182 
0.0098992716521 0.0026075870264 -0.0026782019995 -0.0051295780577 -0.0057466058061 -0.0039883810095 -0.0026736939326 -0.0014876313508 -0.00044804581557 
0.00023260497255 0.00044210220221 0.00026318262098 -0.00023777203751 -0.0012451603543 -0.001924718963 -0.0026954428758 -0.010137646459 -0.0068789399229 
-0.01358759217 -0.016850374639 -0.019215511158 -0.022048864514 0.012429958209 0.0093196602538 0.008001299575 0.0073923021555 0.0072344313376 
0.0084973499179 0.012830975465 0.019530035555 0.026815870777 0.028355948627 0.027684818953 -0.037219941616 -0.039951879531 -0.039704758674 
-0.036169130355 -0.032005000859 -0.027644008398 -0.019643560052 -0.022079730406 -0.018768642098 -0.016066377982 -0.013025315478 -0.010411312804 
-0.0077320975251 -0.0080223558471 -0.0041077393107 -0.0068028271198 -0.0015888499329 0.00012659319327 0.028077591211 0.023694574833 0.01548513025 
0.012083471753 0.017340416089 0.010680118576 0.0038270016667 -0.0014604658354 -0.0047501586378 -0.0058795907535 -0.0045423689298 -0.002904761117 
-0.0014049485326 -2.2473244826e-05 0.00079433817882 0.001055501285 -0.00025607304997 -0.00024385847792 -0.015912761912 -0.011999582872 -0.019439650699 
0.014255621471 0.016583612189 0.019209576771 0.022332128137 0.025546329096 0.028517145663 0.030289910734 0.029744293541 0.027470357716 
0.024214282632 0.020647507161 0.017608033493 0.015103484504 0.013189597055 0.011943311431 -0.016651777551 -0.013830606826 -0.011167678982 
-0.0082671334967 -0.0053532053716 -0.0038152264897 0.0026945646387 0.0019262530841 0.0026791887358 0.0022114927415 0.001479369821 -0.018380405381 
-0.0087778940797 -0.010259960778 -0.012821228243 0.0090086869895 -0.015541938134 0.0016895771259 0.0010780923767 0.0017985504819 -0.0014995033853 
-0.0013536992483 0.01157215517 0.00043137642206 0.00051812879974 0.00049571122508 0.00093271984952 -0.00014321305207 
Disp_FEB 3 1114 double
0 0 0 0 0 0 0.00093287118943 0.0056400611065 0.00040271616308 
-0.00035878166091 0.0052650081925 0.00053782621399 0.001478661201 0.0054989415221 0.00012031159713 0.00065737491241 0.0036922169384 -0.00062374747358 
0 0 0 -0.0026188783813 0.00079734128667 -0.0010638852837 0 0 0 
-0.0078672571108 -0.0032764854841 8.8548113126e-05 -0.0036795947235 -0.0036438137759 0.0019497701433 -0.012166433036 -0.0047082249075 0.0030248286203 
-0.0026419211645 -0.0040212087333 0.0037625553086 -0.012959068641 -0.0057595828548 0.0051217204891 0 0 0 
-0.011229808442 -0.0052048834041 0.0068634566851 0 0 0 -0.0090769343078 -0.004065813031 0.0071880840696 
0 0 0 -0.0069256173447 -0.003244374413 0.0073450547643 0 0 0 
-0.0050752512179 -0.0019858258311 0.006909168791 0 0 0 -0.0041123088449 -0.0011083144927 0.0064095132984 
0 0 0 -0.0035899458453 -0.00056225649314 0.0063210870139 0 0 0 
-0.0029067341238 -0.00015211058781 0.0066525279544 0 0 0 -0.0020388206467 0.00049252749886 0.0067169829272 
0 0 0 -0.0012262266828 0.0011239763116 0.0064645907842 0 0 0 
-0.00056987564312 0.0015502453316 0.005994700361 0 0 0 -6.1584105424e-05 0.0016453261487 0.0055190669373 
0 0 0 0.00034172370215 0.0018073366955 0.005304383114 5.5084728956e-05 0.0018872877117 0.0014579867711 
0.0010843785712 0.0016605230048 0.0044856462628 0 0 0 0.0017807665281 0.0009657588671 0.0036557477433 
0 0 0 0.0021700346842 0.00070171523839 0.0023443677928 0 0 0 
0.0022203228436 0.00086460384773 0.00075469986768 0 0 0 0.0016640673857 0.0013794566039 -0.00051683426136 
0 0 0 0.0010501797078 0.0018167467788 -0.0010245695012 0 0 0 
0.0012350459583 0.0013496325118 -8.7264314061e-05 0 0 0 0.0032020709477 0.00062445807271 0.00016031281848 
0 0 0 0.0051651401445 -4.932720185e-05 -0.0014695882564 0 0 0 
0.0061963032931 -0.00056225195294 -0.0032552967314 0 0 0 0.0065635601059 -0.00096882588696 -0.004728666041 
0 0 0 0.0064785983413 -0.0013025862863 -0.0057715727016 0 0 0 
0.0063101835549 -0.0017306078225 -0.0066069676541 0 0 0 0.0060471622273 -0.002037291415 -0.0073714125901 
0 0 0 0.0056373970583 -0.0025062267669 -0.0081863244995 0 0 0 
0.0050531406887 -0.0025692232884 -0.0089212395251 0 0 0 0.0043156626634 -0.0028454281855 -0.0093420855701 
0 0 0 0.0035349549726 -0.0027702490333 -0.0097168274224 0 0 0 
0.0023705989588 -0.0022621001117 -0.0095359347761 0 0 0 0.00078798388131 -0.0016707920004 -0.0084609175101 
0 0 0 -0.00073438981781 -0.00029327275115 -0.0061699273065 0 0 0 
-0.0015026027104 0.0015492468374 -0.0033471495844 0 0 0 -0.0013146267738 0.0035591917112 -0.00090154592181 
0 0 0 0 0 0 -0.00089521432528 -0.0043003316969 -0.0099334428087 
-0.0019792497624 -0.003593320027 -0.0081106629223 0 0 0 0.00041767818038 -0.0042695873417 -0.011335240677 
0 0 0 0.0016810884699 -0.0046010431834 -0.012538697571 0 0 0 
0.0026038177311 -0.0042986380868 -0.013393735513 0 0 0 0.0035667670891 -0.0035558796953 -0.014021154493 
0 0 0 0.0047264122404 -0.0034336450044 -0.014201410115 0 0 0 
0.0058717345819 -0.0031115945894 -0.013861377724 0 0 0 0.0068577947095 -0.0028866012581 -0.012929121032 
0 0 0 0.007545618806 -0.0032014569733 -0.011522225104 0 0 0 
0.0077458578162 -0.0030867727473 -0.0099111869931 0 0 0 0.0073626297526 -0.0036582166795 -0.00879368186 
0 0 0 0.0067202388309 -0.0030947392806 -0.0076085990295 0 0 0 
0.00630100118 -0.002616827609 -0.006610094104 0 0 0 0.0060646152124 -0.0018691938603 -0.0052641076036 
0 0 0 0.0060435100459 -0.0019638170488 -0.0039879879914 0 0 0 
0.0054960865527 -0.0019280221313 -0.0022076002788 0 0 0 0.0042439941317 -0.001998929074 -0.00064447085606 
0 0 0 0.0031596033368 -0.0020602378063 -7.1724600275e-05 0 0 0 
0.0033983576577 -0.0020540277474 0.0001037885886 0 0 0 0.0049631823786 -0.001796580269 0.00073814456118 
0 0 0 0.0072809592821 -0.0015994190471 0.0024641922209 0 0 0 
0.0097168087959 -0.00076459971024 0.0047331703827 0 0 0 0.012492313981 0.00070730311563 0.008037686348 
0 0 0 0.015387838706 0.0029492289759 0.01416783873 0 0 0 
0.0098966537043 0.002859927481 0.012549225241 0 0 0 0.0076574226841 0.0032958418597 0.012835097499 
0 0 0 0.0057473503985 0.00216103415 0.013179765083 0 0 0 
0.0040492066182 0.00066455657361 0.011972905137 0 0 0 0.0029393050354 -0.00059568427969 0.010187929496 
0 0 0 0.0017659639707 -0.0011318306206 0.0087906885892 0 0 0 
0.00025116765755 -0.0011745523661 0.0073167388327 0 0 0 -0.001240017591 -0.0012771879556 0.0057750488631 
0 0 0 -0.0023791962303 -0.0016962684458 0.0043463716283 0 0 0 
-0.0011956851231 -0.0011649201624 0.0037701055408 0 0 0 -0.0017605789471 -0.0018408440519 0.006349239964 
-0.0037197335623 -0.0052009876817 0.0028778393753 -0.0046653160825 -0.0032741988543 0.0079166851938 -0.0052551617846 -0.0060970173217 0.0035066946875 
-0.0077469632961 -0.004776305519 0.0085185365751 -0.0048107691109 -0.0062542743981 0.0029914944898 -0.0097273439169 -0.0050093727186 0.0083037149161 
0 0 0 -0.011396044865 -0.0046253199689 0.0082589956 0 0 0 
-0.011813012883 -0.0041856132448 0.0080781914294 0 0 0 -0.012538423762 -0.0042069451883 0.0081743616611 
0 0 0 -0.013579595834 -0.0037033476401 0.0080837318674 0 0 0 
-0.014737217687 -0.0030943569727 0.0073867421597 0 0 0 -0.015095150098 -0.0023468469735 0.006209212821 
0 0 0 -0.013466747478 -0.0021655007731 0.0040755523369 0 0 0 
-0.011125111021 -0.0020256938878 0.0017039873637 0 0 0 -0.0085409292951 -0.0020655842964 0.00046276921057 
0 0 0 -0.0066623217426 -0.0024412847124 0.00030470240745 0 0 0 
-0.0056498763151 -0.0025278190151 0.00027387929731 0 0 0 -0.0052116787992 -0.0026096582878 -0.00025198826916 
0 0 0 -0.0046316180378 -0.0023112567142 -0.0010663992725 0 0 0 
-0.0042140078731 -0.0027465277817 -0.00195979001 0 0 0 -0.003539436264 -0.0030219173059 -0.0029069336597 
0 0 0 -0.0028974635061 -0.0033910055645 -0.0036663601641 0 0 0 
-0.0022582786623 -0.0037895890418 -0.0044597922824 0 0 0 -0.0021397359669 -0.0038503813557 -0.0051437034272 
0 0 0 -0.0022505053785 -0.0039361719973 -0.0064387121238 0.0016104651149 0.0049642575905 -0.00027421250707 
0.0021205935627 0.0081664146855 0.0020720220637 -0.0032489902806 -0.00019851833349 -0.0019194758497 -0.013034833595 -0.0062087932602 -0.00021731275774 
-0.019967896864 -0.0091235283762 0.0040871025994 -0.022001046687 -0.010149071924 0.0082311462611 -0.020683670416 -0.0094806626439 0.011319941841 
-0.017129672691 -0.0078924028203 0.013195773587 -0.012448567897 -0.0057689473033 0.013434210792 -0.0082922689617 -0.0035203602165 0.012137097307 
-0.0062678307295 -0.0014701777836 0.010330942459 -0.005588713102 -0.00018835837545 0.009583381936 -0.0044348174706 0.00067755224882 0.0096579650417 
-0.0028532897122 0.001475733472 0.0094591872767 -0.0015426396858 0.0021878706757 0.0087417187169 -0.00056923611555 0.0025737602264 0.0078991670161 
-7.0118876465e-06 0.0025176885538 0.0072620864958 0.00055962556507 0.0019568994176 0.0069513316266 0.0015513785183 0.00092332519125 0.006566607859 
0.0027872535866 1.0771624147e-05 0.00559338741 0.003810527036 -0.00036023804569 0.0038112064358 0.0039890236221 -0.00018624562654 0.0012282353127 
0.0028759925626 0.00055982609047 -0.0011860548984 0.0011014117626 0.0016903959913 -0.0013393596746 0.0024083056487 0.0014227653155 0.00049708160805 
0.0055654444732 0.00042999416473 -2.9939656088e-05 0.008162339218 -0.00034730471089 -0.0023387034889 0.0097431996837 -0.00095149321714 -0.0049556475133 
0.010510557331 -0.0014326110249 -0.0073341503739 0.010677177459 -0.0019210663158 -0.0093421060592 0.010651992634 -0.0026341639459 -0.010852157138 
0.010517312214 -0.0031947197858 -0.01246223785 0.0099590793252 -0.0038522526156 -0.014163181186 0.0089596034959 -0.0044528632425 -0.015575881116 
0.0076058930717 -0.0048518371768 -0.016505811363 0.0060179037973 -0.0045758872293 -0.016860961914 0.0041229752824 -0.0036446393933 -0.016149010509 
0.0020434632897 -0.0024377505761 -0.01371167507 0.00011312904098 -0.00036428010208 -0.0094826882705 -0.0013389002997 0.0020944196731 -0.0043410444632 
-0.0017806240357 0.0048550837673 0.0001374296553 -0.00018599655596 0.0077760592103 0.002603169065 -0.00028913185815 -0.0063691632822 -0.018347399309 
-0.0022454161663 -0.0060947150923 -0.0155674126 0.0017122064019 -0.0066647822969 -0.020563242957 0.0037786816247 -0.0068002543412 -0.022457757965 
0.0059164967388 -0.006598692853 -0.023965261877 0.0082687996328 -0.0061189266853 -0.024657690898 0.010716782883 -0.0056014820002 -0.023965824395 
0.012467409484 -0.0052151400596 -0.021939137951 0.013265067711 -0.0054196044803 -0.019033176824 0.013300272636 -0.0050415252335 -0.015663558617 
0.012434853241 -0.0046806223691 -0.012743540108 0.011350202374 -0.004304447677 -0.010598382913 0.010450900532 -0.0034693568014 -0.0087795052677 
0.0098995333537 -0.0026903529651 -0.0070911105722 0.0095188366249 -0.002382874256 -0.0050624785945 0.0084915580228 -0.0024003055878 -0.0026001029182 
0.0066063264385 -0.0026800304186 -0.00069601810537 0.005451340694 -0.0029370691627 -0.00026851051371 0.0059889471158 -0.0029803458601 -0.00019336107653 
0.0081787304953 -0.0026788562536 0.00039322729572 0.01162793953 -0.0017969086766 0.0022103714291 0.01584335044 -7.5724354247e-05 0.0052937623113 
0.020153107122 0.0014963251306 0.010986570269 0.024195693433 0.0028460072353 0.019021069631 0.013203939423 0.0047890138812 0.022121218964 
0.014874801971 0.0042312252335 0.019766280428 0.0096537554637 0.0039340564981 0.022571438923 0.0054275728762 0.0025252192281 0.020312635228 
0.0026990687475 0.00045589011279 0.016708185896 0.0010186739964 -0.00087093288312 0.01357276924 -0.00034157655318 -0.0011788380798 0.011169610545 
-0.0018126950599 -0.0011409459403 0.0091353394091 -0.0026301585604 -0.0011429379229 0.0076669016853 -0.0018195424927 -0.0011108336039 0.0075454604812 
-0.0029625187162 -0.0015134792775 0.0098447045311 -0.0059936903417 -0.0022871186957 0.011681881733 -0.0094398139045 -0.0034508344252 0.012667316012 
-0.012456366792 -0.0044121639803 0.012979940511 -0.014983575791 -0.0055443872698 0.012867807411 -0.016549358144 -0.0060225925408 0.012765790336 
-0.017720893025 -0.0057085086592 0.013397248462 -0.020044114441 -0.0046811322682 0.013966197148 -0.023094382137 -0.0038243564777 0.012798923068 
-0.02459214814 -0.0033913629595 0.0095948725939 -0.022914180532 -0.0028456253931 0.0051146228798 -0.018804103136 -0.0027961579617 0.0010437789606 
-0.01394591853 -0.0026131218765 -0.0011067939922 -0.010213535279 -0.0030709104612 -0.0011112747015 -0.0084063773975 -0.0036048111506 -0.00063170975773 
-0.0076026073657 -0.0039373445325 -0.00078455079347 -0.0068693943322 -0.0040448531508 -0.0016447523376 -0.0060685733333 -0.0044494518079 -0.0026839650236 
-0.0050655566156 -0.0048387050629 -0.0037029297091 -0.0042007644661 -0.005266555585 -0.0045276177116 -0.0035973419435 -0.0057312464342 -0.0054606134072 
-0.0037807971239 -0.0059418049641 -0.0067178476602 -0.0040637827478 -0.0059144129045 -0.0092047452927 -0.0036602672189 -0.0057108299807 -0.012345069088 
0.020627822727 0.0043695317581 0.023505147547 0.02720217593 0.0037381167058 0.027137318626 -0.027636663988 -0.012958169915 0.0066334148869 
-0.022786231712 -0.011228251271 0.0026788981631 -0.029755005613 -0.013555313461 0.01144698821 -0.02812134102 -0.01264367532 0.015686342493 
-0.023437444121 -0.010211936198 0.01787144877 -0.017122715712 -0.0071694930084 0.017766363919 -0.011141901836 -0.0043333466165 0.015706457198 
-0.0078304680064 -0.0017463037511 0.012746217661 -0.0068236030638 4.2510022467e-05 0.011062018573 -0.0054301521741 0.0011730191763 0.01067338232 
-0.0032685238402 0.0021093511023 0.010177117772 -0.0014922934351 0.0027709859423 0.0091825248674 -0.00051668402739 0.0030238169711 0.0082157319412 
-0.000132604604 0.0025547856931 0.0076328739524 0.0003529356909 0.0012278251816 0.0077177351341 0.0017655778211 -0.00050937826745 0.0078434888273 
0.0036246383097 -0.0019921143539 0.0070583987981 0.0051221889444 -0.0027390762698 0.005021748133 0.0055274688639 -0.0026809831616 0.0019984401297 
0.004552162718 -0.0020269723609 -0.00099175551441 0.0026562137064 -0.0008586194017 -0.002101629274 0.0073663988151 -8.5756844783e-05 -0.0010159454541 
0.0042345481925 0.0006312719197 0.00027854915243 0.010066846386 -0.00083964952501 -0.0036380162928 0.011861466803 -0.0014392117737 -0.0065976120532 
0.012867972255 -0.001908977516 -0.0094012850896 0.01333312504 -0.0024255504832 -0.011882657185 0.013584962115 -0.0031243581325 -0.014013736509 
0.013712390326 -0.0039900862612 -0.016173301265 0.013330725953 -0.0049953390844 -0.018516557291 0.01222760696 -0.0059028421529 -0.020651174709 
0.010478794575 -0.0064736194909 -0.022040486336 0.008278301917 -0.0064192675054 -0.022352950647 0.0058731557801 -0.0057550594211 -0.021243412048 
0.0030785789713 -0.0049133421853 -0.01781383343 0.00027825686266 -0.0020118218381 -0.01057960093 -0.0017855113838 0.0010667848401 -0.0034495424479 
-0.0016047126846 0.0046489848755 0.0022690391634 0.00073125073686 0.0077500864863 0.0054338788614 0.0036583023611 0.0079586049542 0.0044749700464 
0.0027155745775 0.0045223133639 0.0014424584806 0.0019326736219 0.00079124682816 -9.3685797765e-05 0.0019088727422 -0.00044800247997 -0.0013437469024 
0.019674677402 0.0048102810979 0.029266627505 0.026545444503 0.0035057805944 0.033986683935 0.014594982378 0.0048213242553 0.031288702041 
0.0072205970064 0.0039610117674 0.028032498434 0.0019758844282 0.0018998895539 0.022327322513 -0.00063612352824 -7.6445852756e-05 0.01686071977 
-0.0014782820363 -0.00098795804661 0.0132102184 -0.0021713594906 -0.0010182322003 0.010922412388 -0.0025483302306 -0.00077223184053 0.0097601125017 
-0.004009171389 -0.0012996387668 0.01251833234 -0.0023868663702 -0.00095048925141 0.01044862438 -0.0068934084848 -0.0018532901304 0.01436158549 
-0.010161575861 -0.0027425491717 0.015534644015 -0.013545597903 -0.0039819516242 0.016005221754 -0.016490923241 -0.0054570659995 0.015765532851 
-0.018264122307 -0.006397686433 0.016066865996 -0.020278921351 -0.0057627297938 0.017785862088 -0.024515863508 -0.0045603970066 0.018930304796 
-0.029761994258 -0.0047239321284 0.017299737781 -0.032314144075 -0.0047370572574 0.012879879214 -0.030396901071 -0.003991888836 0.0066745281219 
-0.024886796251 -0.0032214664388 0.00091377127683 -0.018519230187 -0.0024645712692 -0.0025886262301 -0.01277418714 -0.002993009286 -0.002469311934 
-0.0097098750994 -0.0037910530809 -0.0013988690916 -0.0083434078842 -0.0044652028009 -0.00090144324349 -0.0072948038578 -0.0048615797423 -0.0015033419477 
-0.0061788158491 -0.0052466266789 -0.0022623729892 -0.0051191421226 -0.0055969255045 -0.0030208006501 -0.0042526568286 -0.0059695863165 -0.0038244831376 
-0.0037174853496 -0.0064384071156 -0.0048388033174 -0.0043156021275 -0.006767842453 -0.006283890456 -0.0050655035302 -0.006912983954 -0.0098291756585 
-0.0047166044824 -0.0069518764503 -0.014527423307 -0.0030473456718 -0.0073290178552 -0.018898207694 -0.00072259845911 -0.0077875806019 -0.022770959884 
0.0017617911799 -0.0081302383915 -0.026179416105 0.0044366405345 -0.0081800511107 -0.029286900535 0.0076177581213 -0.0080136591569 -0.031970441341 
0.011175279506 -0.0075058541261 -0.033157743514 0.014660141431 -0.0069740945473 -0.032125413418 0.017035054043 -0.0066112643108 -0.0289654769 
0.017973916605 -0.006174497772 -0.024408219382 0.017703481019 -0.0056641204283 -0.019353412092 0.01633410342 -0.0051020355895 -0.014754088596 
0.014446939342 -0.0046511362307 -0.011496834457 0.012985872105 -0.0039184461348 -0.0092366887257 0.012041509151 -0.0031534344889 -0.0074292621575 
0.011271208525 -0.0027399321552 -0.0051532736979 0.0096149202436 -0.002784082666 -0.0022416671272 0.0069558368996 -0.0031517879106 -0.00041624641744 
0.0058216839097 -0.0034894216806 -0.00042413311894 0.0066262590699 -0.0034578074701 -0.0006317946245 0.0095558455214 -0.0028047631495 -0.00051601289306 
0.0143008288 -0.0014794899616 0.0015541701578 0.019805146381 0.00034041673644 0.0051183560863 0.024446001276 0.0014301295159 0.011341595091 
0.028890555725 0.002203623997 0.018909445032 0.031917680055 0.0022233440541 0.026807665825 0.032231010497 0.0012176060118 0.034162715077 
0.020819431171 0.0025629927404 0.038411717862 0.029458463192 -0.0004152446927 0.038966011256 -0.0023097195663 -0.00082170160022 0.0093667926267 
-0.0025188813452 -0.00067526334897 0.0099072055891 0.0036849472672 6.1255894252e-05 8.4623148723e-05 0.0025692014024 -0.00064262596425 -0.00041684368625 
0.0060302247293 -0.00017127416504 -0.00042512483196 0.0087567325681 -0.00075564463623 -0.0021388824098 0.011203573085 -0.0014533117646 -0.0046895579435 
0.013000556268 -0.0021046651527 -0.0076070297509 0.014134593308 -0.0026408892591 -0.010486134328 0.014811642468 -0.0031190759037 -0.013266624883 
0.015306634828 -0.0037857645657 -0.015789240599 0.015758890659 -0.0047294050455 -0.018377985805 0.015625976026 -0.0058342260309 -0.021361321211 
0.01464159321 -0.0071201580577 -0.024030596018 0.012727103196 -0.0080130770802 -0.025944164023 0.0099373692647 -0.0082792853937 -0.026429498568 
0.0071344627067 -0.0080048730597 -0.025341710076 0.0043097171001 -0.0077131618746 -0.02305880934 -0.0027490290813 -0.00021017409745 -0.0016050216509 
-0.0014231401728 -0.0033885950688 -0.0088672088459 -0.0019101877697 0.0032945212442 0.0043241051026 0.0010624001734 0.0060020722449 0.0068775285035 
0.0038361756597 0.0060888868757 0.0058315945789 0.0029622938018 0.00303138257 0.0026118613314 -0.034497465938 -0.014948666096 0.0096765449271 
-0.030180554837 -0.013586410321 0.0055250781588 -0.036111354828 -0.01519829873 0.014675498009 -0.033877465874 -0.014191346243 0.018961513415 
-0.028385734186 -0.011718188412 0.021103598177 -0.021120043471 -0.0083066662773 0.020506376401 -0.014153866097 -0.0049313977361 0.017728840932 
-0.0096905231476 -0.0022022405174 0.014210104011 -0.0077286283486 -0.0001816109143 0.011694206856 -0.0059782052413 0.001042680582 0.010628599674 
-0.0030803263653 0.0021414950024 0.0095109483227 -0.0011200008448 0.0030420292169 0.008478179574 -0.00053982931422 0.0030058810953 0.007656193804 
-0.00061713397736 0.001790582086 0.007610744331 -3.2624000596e-05 -0.00046785717132 0.0085016842932 0.0019748907071 -0.0029957524966 0.0093464916572 
0.004648824688 -0.0049994322471 0.0089158453047 0.0067865103483 -0.0061439685524 0.0069101219997 0.0077119050547 -0.0060634384863 0.0039101704024 
0.0072631877847 -0.005360645242 0.0005497688544 0.0057356394827 -0.0043428386562 -0.0018616121961 0.004219263792 -0.0032178694382 -0.0023471480235 
0.0036204748321 -0.0027772376779 -0.0017545456067 0.0035955216736 -0.0011621577432 -0.00016411882825 0.003890871536 -0.0025871619582 -0.00098091829568 
0.0050195283256 -0.00063159066485 -6.7868066253e-05 -0.018809655681 -0.009786112234 0.00056381255854 -0.025641152635 -0.011694002897 0.0030609131791 
-0.016910519451 -0.0088757276535 -0.00015861586144 -0.022398861125 -0.010472035035 0.0012486188207 -2.835651685e-05 -0.0060157743283 -0.01547193341 
0.0012811947381 -0.0078931422904 -0.020785227418 0.0089786173776 0.0028746672906 0.033686108887 0.0017020184314 0.0018202856882 0.026465445757 
-0.002021496417 0.00030484152376 0.01965964213 -0.0027790982276 -0.00075664930046 0.014799935743 -0.002755877329 -0.00098617456388 0.012097324245 
-0.0026434143074 -0.0008720876649 0.010899499059 -0.0025649243034 -0.00077519193292 0.010692649521 -0.0023430048022 -0.00075281999307 0.010776856914 
-0.0023853776511 -0.00089940830367 0.01098461356 -0.0022569498979 -0.00081000849605 0.011082272045 -0.0028514286969 -0.001100387075 0.012426996604 
-0.0043705487624 -0.0015377245145 0.014390392229 -0.006997177843 -0.0020581523422 0.016210922971 -0.010021785274 -0.002817571396 0.017570964992 
-0.013238334097 -0.0039089410566 0.018187293783 -0.016101764515 -0.005194382742 0.018191190436 -0.01796094887 -0.0056648803875 0.019238414243 
-0.021604444832 -0.0049304002896 0.021865470335 -0.028189139441 -0.0045925360173 0.022975794971 -0.034882128239 -0.0054840371013 0.020715292543 
-0.038106620312 -0.0061405119486 0.015465126373 -0.036277923733 -0.0054503972642 0.0082966629416 -0.029998334125 -0.0042000599205 0.0014646485215 
-0.022447729483 -0.0028415601701 -0.0029889368452 -0.015268317424 -0.0028826193884 -0.0031896114815 -0.010859734379 -0.0034522083588 -0.0021852266509 
-0.0086156399921 -0.004264854826 -0.001113060629 -0.0070808399469 -0.004784214776 -0.0012297499925 -0.005739771761 -0.0052235377952 -0.0016139924992 
-0.0047106700949 -0.0056368885562 -0.0020287572406 -0.0040180170909 -0.0060127270408 -0.0026514541823 -0.0036697241012 -0.0064232726581 -0.0035500940867 
-0.0044576022774 -0.0068529229611 -0.0049997759052 -0.0059012626298 -0.0073271710426 -0.0091446563601 -0.0052825780585 -0.0077398214489 -0.015506465919 
-0.0036697692703 -0.0081997709349 -0.020543737337 -0.0013121179072 -0.0086450241506 -0.024995755404 0.0013269882184 -0.0089590074494 -0.029313530773 
0.0045362086967 -0.0089577371255 -0.033618126065 0.0085647804663 -0.0086788535118 -0.037240862846 0.013188157231 -0.0083221504465 -0.038750749081 
0.017447603866 -0.0079709803686 -0.037307944149 0.02024271898 -0.0076227136888 -0.033152405173 0.021362707019 -0.0069761271589 -0.027200639248 
0.020741466433 -0.0062827961519 -0.020878469571 0.0189741496 -0.0054750940762 -0.015335210599 0.016653824598 -0.0047726901248 -0.011391316541 
0.0146882236 -0.0040432796814 -0.008760037832 0.013313335367 -0.0034602119122 -0.0071476530284 0.012285863049 -0.0030124776531 -0.0050505944528 
0.011042646132 -0.0028736025561 -0.0031733366195 0.0057070143521 -0.0035825483501 -0.0006036114064 0.0063273375854 -0.0033847941086 -0.00018338975497 
0.0070075425319 -0.0034079914913 -0.0010821786709 0.010888906196 -0.0025750028435 -0.00099795230199 0.016961632296 -0.001131213503 0.0015269964933 
0.022831158713 0.00037344670272 0.005729821045 0.026206294075 0.001142606372 0.010479218327 0.029998622835 0.0011343462393 0.015313725919 
0.033479932696 0.00042733183363 0.022518804297 0.034932345152 -0.00090058607748 0.029899794608 0.033463664353 -0.0026018009521 0.035302504897 
0.024686016142 -0.0028381622396 0.040209133178 0.02951195091 -0.0044459449127 0.037473659962 0.01713372767 -0.00098753883503 0.039510183036 
0.0077310558408 4.2394072807e-05 0.035089019686 0.0008525197627 -1.2743575098e-05 0.028216732666 -0.0027438527904 -0.00047907291446 0.020738044754 
-0.0034862502944 -0.00098075415008 0.015470875427 -0.003196249716 -0.0010910626734 0.012696863152 0.034346431494 -0.0025747490581 0.022189319134 
0.031660906971 -0.00097493827343 0.014215538278 0.034170839936 -0.0042899553664 0.028420085087 0.031353548169 -0.0058735744096 0.03171210736 
0.024032367393 -0.0060793864541 0.03656006977 0.026362508535 -0.0071739801206 0.031946297735 0.018966509029 -0.0050135902129 0.038401715457 
0.012100103311 -0.003849450266 0.037354514003 0.004620814696 -0.0028515097219 0.033130604774 -0.0016237614909 -0.0023160208948 0.027008468285 
-0.0038481196389 -0.0017172959633 0.019739307463 -0.0040077459998 -0.001478875638 0.01490306668 -0.0031184137333 -0.001301814802 0.012340764515 
0.0081860367209 -0.0030657148454 -0.00061508140061 0.0099859908223 -0.0028255467769 -0.0016088979319 0.007259266451 -0.0007994917105 -0.00077945797238 
0.0097574815154 -0.0013479115441 -0.0025186471175 0.012060968205 -0.0020621225704 -0.0048860237002 0.013852613047 -0.0027769797016 -0.0077212941833 
0.015049473383 -0.0033704573289 -0.010746033862 0.015883492306 -0.0038836023305 -0.013673327863 0.016569687054 -0.0044867033139 -0.016602704301 
0.017148397863 -0.005318870768 -0.019714832306 0.017301792279 -0.0064872205257 -0.023072004318 0.016643982381 -0.008022098802 -0.026266042143 
0.014682415873 -0.0093034124002 -0.028861101717 0.011478346772 -0.0098527511582 -0.029831850901 0.0080162901431 -0.0097347227857 -0.028886413202 
0.0048787393607 -0.0093550868332 -0.026752389967 0.0021339487284 -0.0091904252768 -0.024644009769 -0.0015331256436 -0.0082546928898 -0.018771806732 
-0.00012237828923 -0.0093108741567 -0.023300599307 -0.0029817919713 -0.0067835166119 -0.013164069504 -0.0040627918206 -0.0046238591895 -0.0067050848156 
-0.0036716992036 -0.0015739189694 -0.00026997833629 -0.0020307926461 0.0015177533496 0.0050685005262 0.0011485164287 0.0034594570752 0.0068486444652 
0.0030706874095 0.0031970590353 0.0059236488305 0.0017099741381 0.00092450744705 0.0030190409161 -0.0018063490279 -0.0015524979681 -0.0005230884417 
-0.0029175088275 -0.0026101535186 -9.0624052973e-05 -0.0094373142347 -0.0056860526092 -0.00097632675897 -0.0098876692355 -0.0060114460066 -0.0014045294374 
-0.017446126789 -0.0087305214256 -0.00084455026081 -0.024294234812 -0.010840844363 0.0008324663504 -0.03010830842 -0.012585651129 0.003783504013 
-0.035727728158 -0.014377207495 0.0076488750055 -0.039947871119 -0.015692157671 0.012187290005 -0.041292462498 -0.015907041728 0.017184389755 
-0.038810871542 -0.014919527806 0.021285701543 -0.032912645489 -0.012719308026 0.023277238011 -0.025080058724 -0.0094024166465 0.022449743003 
-0.017247311771 -0.0058189961128 0.019321968779 -0.011803530157 -0.0029026765842 0.01541388873 -0.0086319381371 -0.00099886825774 0.012557235546 
-0.0064028552733 0.00018733744218 0.010825255886 -0.0040805414319 0.00082031468628 0.0094928247854 -0.00099663366564 0.0022249962203 0.0071907779202 
-0.00074755016249 0.0028462391347 0.0072915377095 -0.0013213164639 7.812729018e-05 0.0082739982754 -0.00021365408611 -0.0030185740907 0.010488376953 
0.002760051284 -0.006110467948 0.012301396579 0.0064819981344 -0.0083218635991 0.012363476679 0.0094105023891 -0.009579885751 0.010522896424 
0.010819241405 -0.0092891678214 0.0074316319078 0.011028603651 -0.0085899028927 0.0037719320972 0.010437627323 -0.0075921649113 0.00075510214083 
0.0090395640582 -0.0063771214336 -0.0011493008351 0.007651376538 -0.0056940629147 -0.0021171090193 0.0064920089208 -0.0046975119039 -0.0017916923389 
0.0045552435331 -0.0026276691351 -0.00070205866359 0.0058595705777 -0.0035908191931 -0.0011069541797 0.0046547870152 -0.0016209331807 -0.00022026026272 
0.0059888232499 -0.0011224644259 -0.0001096346241 -0.0013164507691 0.0021128002554 0.0078356545419 -0.0021909913048 0.00082590267994 0.0083227260038 
-0.0024740064982 -0.0012231501751 0.011238028295 -0.0026677290443 -0.0010529927677 0.011351691559 -0.0021870722994 -0.0012256731279 0.011461297981 
-0.0021894383244 -0.0015227239346 0.011203491129 -0.0022970798891 -0.0010636866791 0.011713947169 -0.0025131159928 -0.0011474938365 0.012225629762 
-0.0030634975992 -0.0015210950514 0.013488865457 -0.0041043455712 -0.002011019038 0.015426755883 -0.0062006427906 -0.0025343638845 0.017262393609 
-0.0088941873983 -0.0031990080606 0.018874244764 -0.011855545454 -0.0039817234501 0.019806936383 -0.014579683542 -0.0047316048294 0.020554605871 
-0.017261968926 -0.0046947151423 0.022565085441 -0.022772716358 -0.0041557718068 0.025796486065 -0.031010551378 -0.0048867324367 0.02662852034 
-0.039067622274 -0.00676562218 0.023505078629 -0.042783811688 -0.0077217225917 0.017362235114 -0.040899898857 -0.0069627319463 0.0094808107242 
-0.034290969372 -0.0052138841711 0.0017917669611 -0.026191305369 -0.0032662427984 -0.0033872164786 -0.017984336242 -0.0029354339931 -0.003554942552 
-0.012312372215 -0.0030075151008 -0.002894183388 -0.0092317508534 -0.0036203977652 -0.0015549748205 -0.0070058922283 -0.0041277036071 -0.0013359900331 
-0.0053930734284 -0.004682269413 -0.001206894638 -0.0043130242266 -0.0051940032281 -0.0012116743019 -0.0037867187057 -0.0056312093511 -0.0015138926683 
-0.0037107327953 -0.0060791494325 -0.0021789658349 -0.0045452290215 -0.0065741762519 -0.0031696276274 -0.0059884041548 -0.0070965965278 -0.005316958297 
-0.0042359605432 -0.0087884180248 -0.021490581334 -0.0057547311299 -0.0083304233849 -0.016658164561 -0.0018679045606 -0.0091736260802 -0.0261143893 
0.00078335468424 -0.009506191127 -0.030982431024 0.0042851199396 -0.0096586830914 -0.035996321589 0.0090557485819 -0.0097289253026 -0.040110059083 
0.014360025525 -0.009609577246 -0.041707411408 0.019211450592 -0.0091249728575 -0.039893582463 0.022523367777 -0.0084393778816 -0.034917071462 
0.023833569139 -0.0077273659408 -0.027668468654 0.022838948295 -0.0068816584535 -0.020260391757 0.020494118333 -0.0058826133609 -0.01483111456 
0.01795229502 -0.0048458972014 -0.01087028347 0.01586422883 -0.0040350938216 -0.0082351146266 0.014140194282 -0.0034925162327 -0.0065403697081 
0.012915492989 -0.00309084123 -0.0047592562623 0.011852758005 -0.0029150224291 -0.0035763629712 0.011525740847 -0.0027933283709 -0.0027244819794 
0.008878717199 -0.0026681032032 -0.00050275382819 0.010980934836 -0.0025422873441 -0.0016976905754 0.0070499139838 -0.0029391085263 -2.8999820643e-05 
0.0057681207545 -0.003265440464 -0.0001344147895 0.0055325184949 -0.0034318498801 -0.00077876046998 0.0072326380759 -0.003202751046 -0.0015146113001 
0.012140231207 -0.0024391568732 -0.001125015202 0.02006618306 -0.0012107657967 0.0027356350329 0.027266211808 0.00018394527433 0.0087033174932 
-0.0069243391044 -0.0079420246184 -0.011845556088 -0.0071694869548 -0.0075466996059 -0.0076858690009 -0.0028208727017 -0.0015494922409 0.011706474237 
-0.0024696644396 -0.0018871306675 0.010994680226 -0.0019619688392 -0.0019313474186 0.011266847141 -0.0020450262818 -0.0021331163589 0.010449474677 
-0.0020975326188 -0.0016667427262 0.011967396364 -0.0023380194325 -0.0015048423083 0.012476761825 -0.0025164722465 -0.0014858751092 0.012845990248 
-0.0027907241601 -0.0018652458675 0.013831369579 -0.003362466814 -0.0023842453957 0.015529965982 -0.00498216087 -0.002848666627 0.017355360091 
-0.0073077008128 -0.0034138248302 0.019215103239 -0.010090780444 -0.0039160861634 0.020702416077 -0.013010626659 -0.0042127217166 0.022484542802 
-0.016964940354 -0.0042678448372 0.024895705283 -0.023385517299 -0.0045717414469 0.028325540945 -0.032340735197 -0.0061588827521 0.02942116186 
-0.042541056871 -0.0090020615608 0.026291999966 -0.046231463552 -0.0093881348148 0.018452821299 -0.044047806412 -0.0085876910016 0.010184527375 
-0.03746009618 -0.0063144140877 0.0019809806254 -0.02898055315 -0.0038920440711 -0.0036230876576 -0.020672742277 -0.0029747707304 -0.0044026859105 
-0.014266402461 -0.0026297986042 -0.0037915399298 -0.010327030905 -0.0029975110665 -0.0023891008459 -0.0074816038832 -0.0034750110935 -0.0017840551445 
-0.0054170377553 -0.0040320185944 -0.0012855174718 -0.0041528069414 -0.0046149231493 -0.0008576567634 -0.0036695064045 -0.0051708356477 -0.00074708304601 
-0.0038162290584 -0.0057136542164 -0.001028700266 -0.0046682078391 -0.0062868380919 -0.0016376298154 -0.0059470594861 -0.00679990137 -0.0029630041681 
-0.0070697893389 -0.0072097736411 -0.0046845860779 -0.007963296026 -0.0079455738887 -0.0098028182983 -0.0079096769914 -0.0075521157123 -0.0064311954193 
-0.0072755548172 -0.0082578798756 -0.013588359579 -0.0060523031279 -0.0086502321064 -0.017811859027 -0.0045348298736 -0.0090753315017 -0.022235991433 
-0.0021462584846 -0.0094985459 -0.026814632118 0.00046570965787 -0.010003658012 -0.031693205237 0.0041186925955 -0.010503661819 -0.036697018892 
0.0089362077415 -0.010926146992 -0.040810082108 0.014266449027 -0.010854403488 -0.042603485286 0.019333178177 -0.010264875367 -0.041111953557 
0.023293476552 -0.0093425661325 -0.035937923938 0.025161994621 -0.0084057776257 -0.02679779008 0.023238858208 -0.0071748504415 -0.018441142514 
0.020597385243 -0.0059627993032 -0.013732210733 0.018243946135 -0.004748379346 -0.010324226692 0.016318788752 -0.0038236198016 -0.0077059506439 
0.01460579969 -0.0032926185522 -0.0059066358954 0.013060816564 -0.0029410803691 -0.0040751500055 0.012960105203 -0.0026961334515 -0.0034931246191 
0.010271163657 -0.0022089313716 -0.0007839903119 0.012713000178 -0.0024495136458 -0.0028325258754 0.0076947612688 -0.0023587287869 0.00027480648714 
0.0060670427047 -0.002732767025 0.00032634355011 0.0055222604424 -0.0030097973067 -4.9813286751e-05 0.0053681395948 -0.0030357029755 -0.00079935922986 
0.0071365032345 -0.0029627901968 -0.0016948214034 0.012220837176 -0.0026779219043 -0.0012305326527 0.02307109721 -0.0025334954262 0.0047421320342 
0.0081178089604 -0.0012360138353 -0.00079295033356 0.010535964742 -0.0017128301552 -0.0022720638663 0.012813043781 -0.0024435045198 -0.0045531503856 
0.014629148878 -0.00319175818 -0.0073255617172 0.015860781074 -0.0038293718826 -0.01039417088 0.016791552305 -0.0043629114516 -0.013368632644 
0.01752736792 -0.0049320119433 -0.016513606533 0.01808260195 -0.0055981399491 -0.019906375557 0.018620744348 -0.0066956733353 -0.023386826739 
0.018374577165 -0.0084230201319 -0.027301004156 0.016457965598 -0.010089829564 -0.030902510509 0.012961597182 -0.01095855888 -0.032590284944 
0.0089584179223 -0.010895470157 -0.031885880977 0.0053879190236 -0.010391167365 -0.029571866617 0.0029636747204 -0.0099546173587 -0.027265977114 
0.0014554224908 -0.01031678915 -0.027219027281 -0.0024208240211 -0.0095576513559 -0.021790029481 -0.00053312972886 -0.010780309327 -0.026524480432 
-0.0037819100544 -0.0084882630035 -0.016954828054 -0.0047308909707 -0.0071476968005 -0.011427935213 -0.0055189440027 -0.0054788435809 -0.0053600789979 
-0.0046132369898 -0.0030695837922 0.00052484567277 -0.0021886148024 -0.00068661750993 0.0050144284032 0.00064901745645 0.00055400963174 0.0064101368189 
0.0019479860784 0.0002416503994 0.005448856391 0.00041384898941 -0.001500794664 0.002552571008 -0.0041522835381 -0.0037119262852 -0.00045406463323 
-0.011087228544 -0.006262130104 -0.0022485994268 -0.018745366484 -0.0084451436996 -0.0018560908502 -0.026338005438 -0.01052268967 0.00013098327327 
-0.03326985985 -0.012419453822 0.0037427449133 -0.039493504912 -0.014318985865 0.0082729011774 -0.043916344643 -0.015787167475 0.013468813151 
-0.045136664063 -0.016190258786 0.018792510033 -0.04243317619 -0.015501964837 0.02299727127 -0.036228604615 -0.013657851145 0.025162687525 
-0.027931071818 -0.010716807097 0.024590374902 -0.019483178854 -0.0071193831973 0.021542318165 -0.013294023462 -0.0039639952593 0.017321821302 
-0.009224653244 -0.0020247846842 0.014027168974 -0.0063750506379 -0.00087872339645 0.011804311536 -0.0042664422654 -0.00033175910357 0.010174224153 
-0.0026780718472 -0.00028162469971 0.0090147331357 -0.001310221618 0.00043147447286 0.00733723538 -0.0017111361958 -0.00055195699679 0.0082193166018 
-0.00099402596243 0.0013922607759 0.0067319101654 -0.0012546811486 0.0016524674138 0.0066565177403 -0.0019681933336 0.0004714418028 0.0077510438859 
-0.0020753291901 -0.002418117132 0.010514688678 0.00028207889409 -0.0057009500451 0.014361604117 0.0046481131576 -0.0084987366572 0.017208945006 
0.0094891162589 -0.010316412896 0.017829975113 0.013390566222 -0.011295462959 0.016368230805 0.015059507452 -0.010966402479 0.012465657666 
0.015361200087 -0.010239847004 0.0083524752408 0.015626067296 -0.0094179874286 0.0053053181618 0.015148897655 -0.0085865641013 0.0025853549596 
0.013567517512 -0.0075944242999 0.00035103055416 0.011217505671 -0.0062586572021 -0.00099252583459 0.0084855137393 -0.0044742957689 -0.001208833186 
0.0056014168076 -0.0027800165117 -0.0008615598781 0.006554028485 -0.0031429855153 -0.001167888171 0.0051062488928 -0.0025014274288 -0.00073347083526 
0.0053493557498 -0.001816441305 -0.0002133124508 0.0065657808445 -0.0013700305717 0.0001275659597 -0.0025068579707 -0.0019903758075 0.013370085508 
-0.0026181498542 -0.0025088330731 0.01487923041 -0.0038475333713 -0.0028943871148 0.016638990492 -0.0059306751937 -0.0033735544421 0.018678633496 
-0.0086458381265 -0.0037707034498 0.020702362061 -0.011740133166 -0.0039828359149 0.023390339687 -0.016188910231 -0.0042733172886 0.026287773624 
-0.022593792528 -0.0051131481305 0.029950659722 -0.030552949756 -0.0071342517622 0.031135203317 -0.038415383548 -0.0099332490936 0.030181627721 
-0.045751146972 -0.010252857581 0.01014994923 -0.04826490581 -0.011423675343 0.017524860799 -0.039660654962 -0.0077867168002 0.0024558200967 
-0.031422305852 -0.0052965362556 -0.0024833027273 -0.023241044953 -0.0036325999536 -0.0044829305261 -0.01638789475 -0.0027216107119 -0.0047815511934 
-0.011758238077 -0.0028870608658 -0.0032098996453 -0.0082797966897 -0.0032722821925 -0.0022560728248 -0.0057431012392 -0.0037430773955 -0.0014905966818 
-0.0042015318759 -0.0043062302284 -0.00072753755376 -0.0036633308046 -0.004865011666 -0.00025829469087 -0.0037933539134 -0.005458317697 -0.00021338937222 
-0.0044874646701 -0.0059633832425 -0.0005321810022 -0.0056586018763 -0.0064745838754 -0.0013467509998 -0.0064479885623 -0.0067655928433 -0.0026252157986 
-0.0071867676452 -0.0069779558107 -0.0039405724965 -0.0081010377035 -0.0077840778977 -0.0083337053657 -0.007784338668 -0.0072710351087 -0.0053195650689 
-0.0077012036927 -0.00811299216 -0.01166850701 -0.0069356523454 -0.0084245800972 -0.015193658881 -0.0062138922513 -0.0088343974203 -0.018711928278 
-0.0047232592478 -0.0092211747542 -0.022583056241 -0.0024566836655 -0.0097812479362 -0.027045961469 2.097499646e-06 -0.010431864299 -0.031548641622 
0.0032774417195 -0.011158258654 -0.035836815834 0.0076471841894 -0.011834457517 -0.039804719388 0.013090580702 -0.011966236867 -0.042080424726 
0.018251515925 -0.011503669433 -0.041287757456 0.022118149325 -0.010627979413 -0.037085942924 0.024122374132 -0.0095639359206 -0.030781328678 
0.019842695445 -0.0056412010454 -0.012998263352 0.021672951058 -0.0068330988288 -0.016808725893 0.017988150939 -0.0045040529221 -0.01009505894 
0.016404349357 -0.0036113464739 -0.0075535369106 0.014721267857 -0.0030642296188 -0.0055304421112 -0.046922381967 -0.011807183735 0.023553628474 
-0.044290345162 -0.012562340125 0.027249699458 0.014766885899 -0.002900151303 -0.0052390126511 0.012438151054 -0.0022067863028 -0.0021707639098 
0.01481600944 -0.0027062548324 -0.0046409587376 0.0094465026632 -0.0018325445708 -8.3682782133e-05 0.0059988670982 -0.0019204636337 0.00051397149218 
0.005224947352 -0.0026057597715 -0.0004090317525 0.0087213786319 -0.001437746454 -0.0004535363405 0.011249412782 -0.0018786801957 -0.0017913439078 
0.013505713083 -0.0025983522646 -0.0040861940943 0.015301078558 -0.0033125453629 -0.0068779941648 0.016490923241 -0.0039150645025 -0.0098380660638 
0.017460914329 -0.004409013316 -0.012660812587 0.018202969804 -0.0049275686033 -0.015705959871 0.018686980009 -0.0054535269737 -0.019057363272 
0.019474910572 -0.0064588449895 -0.022564088926 0.019883850589 -0.0083846403286 -0.027037981898 0.018118297681 -0.010471732356 -0.032045185566 
0.01423728466 -0.011663313955 -0.034894831479 0.0092585422099 -0.011850885116 -0.034282028675 0.0047582774423 -0.01124710124 -0.031147740781 
0.003700918518 -0.012234380469 -0.032727234066 -0.0021281358786 -0.010641654953 -0.024640582502 9.7496296803e-05 -0.011414944194 -0.029608622193 
-0.0043218866922 -0.0097412588075 -0.020015502349 -0.0057384511456 -0.0087305344641 -0.015123214573 -0.0062124584801 -0.0074957101606 -0.010015925393 
-0.0064366934821 -0.0061300690286 -0.0046035349369 -0.0052207540721 -0.0044792061672 0.00044586448348 -0.0028903603088 -0.0029914877377 0.004374503158 
-0.00053550984012 -0.00217142771 0.005464267917 0.00045708587277 -0.0023573986255 0.0045703565702 -0.001170456293 -0.0035299132578 0.0015609738184 
-0.0056967586279 -0.0044951178133 -0.0014582175063 -0.0124089811 -0.0060592065565 -0.0032965980936 -0.019942939281 -0.0077016488649 -0.0033260448836 
-0.027783110738 -0.0095465555787 -0.0015075044939 -0.035254500806 -0.011546676047 0.0023378336336 -0.041808497161 -0.013564256951 0.0073807416484 
-0.046333055943 -0.015184178948 0.013380859047 -0.047575648874 -0.015955591574 0.019274709746 -0.044931668788 -0.015546983108 0.023965634406 
-0.03856722638 -0.013835486956 0.02656898275 -0.029751880094 -0.011170425452 0.026404706761 -0.020971782506 -0.0079947989434 0.023825246841 
-0.013954292983 -0.0049590324052 0.01991227828 -0.0095039727166 -0.0029909687582 0.016145139933 -0.0062885629013 -0.0018820308615 0.013558370993 
-0.0041180383414 -0.0012625142699 0.011583617888 -0.0027732721064 -0.0011404122924 0.01014877297 -0.0019797398709 -0.0013530915603 0.0093354983255 
-0.0015250039287 -0.0010925712995 0.0078049483709 -0.0016234302893 -0.0017134646187 0.008998635225 -0.0014754679287 -0.00032342318445 0.0069216042757 
-0.0016812231624 0.0002487184538 0.0066086915322 -0.0024656157475 -0.00021168678359 0.0071458038874 -0.0031601879746 -0.0019492708379 0.009724820964 
-0.0024285654072 -0.0050539853983 0.014692795463 0.0016751437215 -0.0079278675839 0.020033940673 0.0074167195708 -0.0095616104081 0.022981708869 
0.012937103398 -0.010333013721 0.023659642786 0.019336044788 -0.010504534468 0.023541018367 0.019825197756 -0.010656018741 0.016902113333 
0.018802581355 -0.010558767244 0.012072950602 0.020445832983 -0.0098943812773 0.010935203172 0.02146927081 -0.0094172758982 0.0081322351471 
0.020193697885 -0.0081826755777 0.004979818128 0.016848538071 -0.0064554647543 0.0019648922607 0.012315751985 -0.0047187986784 -0.00031946829404 
0.0081846052781 -0.0033097835258 -0.0012840460986 0.0055593545549 -0.0020135343075 -0.00053803686751 0.0055861864239 -0.0024028939661 -0.00099612481426 
0.0056122727692 -0.0018745524576 -0.00026535755023 0.030198674649 -0.0042945169844 0.013009856455 0.031751859933 -0.0059291361831 0.019793320447 
0.030097920448 -0.0074346088804 0.024042045698 0.026061166078 -0.0090183056891 0.025275558233 0.020442882553 -0.0088446149603 0.030019130558 
0.017916407436 -0.0075212731026 0.033072568476 0.012787033804 -0.0068353503011 0.033838681877 0.0074443728663 -0.005755352322 0.032781045884 
0.0012601378839 -0.0050063440576 0.028778942302 -0.0038028324489 -0.0040218518116 0.022503629327 -0.0048069157638 -0.0026578146499 0.016650529578 
-0.0038748637307 -0.001962818671 0.013140521944 -0.0031636301428 -0.0022210974712 0.011239496991 -0.0024655491579 -0.0023437535856 0.0097896708176 
-0.0017384835519 -0.0022535757162 0.010240845382 -0.0017958938843 -0.0020808584522 0.0090454230085 -0.0018383461284 -0.002277036896 0.011486218311 
-0.0021615149453 -0.0021327310242 0.012571207248 0.011813431047 -0.0019200453535 -0.0014259965392 0.0091427164152 -0.0014499165118 -2.809540274e-05 
0.014038099907 -0.0025940937921 -0.0039119264111 0.015754988417 -0.0032272986136 -0.0066686421633 0.016819022596 -0.0037488238886 -0.0092697944492 
0.01775884442 -0.0041448371485 -0.011614209972 0.018474198878 -0.0046240566298 -0.014383290894 0.018949475139 -0.0051170405932 -0.017484221607 
0.019840989262 -0.0060165324248 -0.020652983338 0.021216714755 -0.0080302562565 -0.025243446231 0.020509401336 -0.011057841592 -0.032477211207 
0.01552920416 -0.012665449642 -0.03711469844 0.0097807319835 -0.01298049558 -0.036890149117 -0.0020348725375 -0.010150780901 -0.026541730389 
-2.413205948e-05 -0.010647283867 -0.03068000637 0.0024731538724 -0.011443073861 -0.033688955009 -0.0038670480717 -0.010031660087 -0.022336557508 
-0.0056332009844 -0.0095424270257 -0.018059697002 -0.0066907196306 -0.0087066348642 -0.013587894849 -0.0072572245263 -0.0078064026311 -0.0090158171952 
-0.0070707672276 -0.0067471396178 -0.0045373183675 -0.0059469435364 -0.0058039827272 -0.00062755285762 -0.0037874940317 -0.0046254880726 0.0030428403988 
-0.00192397309 -0.0039595807903 0.0039951852523 -0.0012127398513 -0.0039184684865 0.0035557602532 -0.0017412403831 -0.004002194386 0.0022238106467 
-0.013527731411 -0.0053070471622 -0.0041877073236 -0.0078154178336 -0.0046401936561 -0.0025433769915 -0.020462974906 -0.0063245478086 -0.0046645496041 
-0.028340753168 -0.008007787168 -0.0032105057035 -0.035943906754 -0.010009661317 0.0005542137078 -0.042763240635 -0.012229413725 0.0056530404836 
-0.047411344945 -0.014194331132 0.012180378661 -0.048932682723 -0.015272219665 0.018567154184 -0.04662520811 -0.015000448562 0.024256385863 
-0.03971612826 -0.012959036976 0.028661200777 -0.021511569619 -0.0078909918666 0.025802077726 -0.02996375598 -0.010485350154 0.028295705095 
-0.014515833929 -0.0054585114121 0.022213667631 -0.0097584119067 -0.003712392645 0.018378665671 -0.006275025662 -0.0026711910032 0.015643572435 
-0.0040481253527 -0.0020387799013 0.013324272819 -0.0025938819163 -0.0018061128212 0.011633334681 -0.0020343693905 -0.0018758567749 0.010662879795 
-0.0016948891571 -0.0021248201374 0.010384052061 -0.0042085959576 -0.0043571474962 -0.00078819971532 -0.0028731413186 -0.0042795515619 0.00076162262121 
0.023865910247 -0.0078933900222 -0.021007342264 0.024088943377 -0.0085948584601 -0.024588335305 0.0062856604345 -0.002781082876 -0.0015770443715 
0.01030743029 -0.0031444183551 -0.001190944924 0.01711884886 -0.004136914853 0.0016235742951 0.023266799748 -0.005657391157 0.0065486170352 
0.026613948867 -0.0074054873548 0.011572644114 0.026498001069 -0.0087735392153 0.015717152506 0.024058293551 -0.0100428937 0.017567532137 
-0.0021181358024 -0.0024959882721 0.01361495629 -0.002835487714 -0.0027958862484 0.015558072366 -0.0045983698219 -0.0032260851003 0.017846599221 
-0.0073077296838 -0.003631881671 0.020254794508 -0.010640548542 -0.0039665130898 0.023194586858 -0.015309100971 -0.0045094229281 0.026366118342 
-0.021049754694 -0.0055862651207 0.029737537727 -0.027676165104 -0.0075669926591 0.031022612005 -0.033697970212 -0.00995594915 0.030887844041 
-0.047980088741 -0.014121924527 0.022946389392 -0.048430833966 -0.013099918142 0.021062716842 -0.048976622522 -0.012927699834 0.016550483182 
-0.046770956367 -0.011710708961 0.0098992716521 -0.041427444667 -0.0092639960349 0.0026075870264 -0.033857990056 -0.006602036301 -0.0026782019995 
-0.025867791846 -0.0046485434286 -0.0051295780577 -0.018451141194 -0.0034397945274 -0.0057466058061 -0.013030203059 -0.0033370940946 -0.0039883810095 
-0.0088749127463 -0.0035277220886 -0.0026736939326 -0.005951019004 -0.0038325975183 -0.0014876313508 -0.0042338101193 -0.0042026066221 -0.00044804581557 
-0.0036311799195 -0.0046265996061 0.00023260497255 -0.0036409846507 -0.0051076286472 0.00044210220221 -0.0041707945056 -0.0055574793369 0.00026318262098 
-0.0051560457796 -0.0060275010765 -0.00023777203751 -0.0058973063715 -0.0063176527619 -0.0012451603543 -0.0064306510612 -0.0064550475217 -0.001924718963 
-0.0068988241255 -0.0066212788224 -0.0026954428758 -0.0078272754326 -0.008047551848 -0.010137646459 -0.0081490054727 -0.0076581924222 -0.0068789399229 
-0.0071767847985 -0.0084020560607 -0.01358759217 -0.0064236917533 -0.0087117133662 -0.016850374639 -0.0058430628851 -0.0089267129079 -0.019215511158 
-0.0045584188774 -0.0093004051596 -0.022048864514 -0.0044403923675 -0.0029492252506 0.012429958209 -0.0029981692787 -0.0024502864107 0.0093196602538 
-0.0020247590728 -0.0017767370446 0.008001299575 -0.0022302474827 -0.0012885942124 0.0073923021555 -0.0024761985987 -0.00083024060586 0.0072344313376 
-0.003541322425 -0.0017787995748 0.0084973499179 -0.0040780631825 -0.0039003321435 0.012830975465 -0.001984708244 -0.0064914929681 0.019530035555 
0.005190199241 -0.0081223314628 0.026815870777 0.011638560332 -0.0088479584083 0.028355948627 0.015179075301 -0.0094224913046 0.027684818953 
0.0063061402179 -0.01252228301 -0.037219941616 0.011518921703 -0.013053369708 -0.039951879531 0.016792787239 -0.012747070752 -0.039704758674 
0.020710015669 -0.011778040789 -0.036169130355 0.022867584601 -0.010474408977 -0.032005000859 0.023133993149 -0.009637510404 -0.027644008398 
0.022391797975 -0.0072420425713 -0.019643560052 0.022049048916 -0.0075244591571 -0.022079730406 0.022076295689 -0.0071865702048 -0.018768642098 
0.020554333925 -0.0062971645966 -0.016066377982 0.019155239686 -0.0052155316807 -0.013025315478 0.017808673903 -0.0042693857104 -0.010411312804 
0.016404142603 -0.0034642934334 -0.0077320975251 0.016777154058 -0.0033440471161 -0.0080223558471 0.014455409721 -0.0025776326656 -0.0041077393107 
0.016062328592 -0.0031257015653 -0.0068028271198 0.012134769931 -0.0020010762382 -0.0015888499329 0.0092612169683 -0.0015222686343 0.00012659319327 
0.0036055487581 -0.0069006378762 0.028077591211 -0.001266043284 -0.0062071210705 0.023694574833 -0.0046106833033 -0.0041723977774 0.01548513025 
-0.0018436076352 -0.00236048433 0.012083471753 -0.049279481173 -0.014257091098 0.017340416089 -0.047406733036 -0.013031997718 0.010680118576 
-0.042554046959 -0.01075241901 0.0038270016667 -0.035545427352 -0.0082487659529 -0.0014604658354 -0.027789413929 -0.0062450398691 -0.0047501586378 
-0.019982388243 -0.0047516324557 -0.0058795907535 -0.013674525544 -0.0042291865684 -0.0045423689298 -0.0088230939582 -0.0041218469851 -0.002904761117 
-0.0055242688395 -0.0041357516311 -0.0014049485326 -0.0038479950745 -0.004242119845 -2.2473244826e-05 -0.003370054299 -0.0044896430336 0.00079433817882 
-0.0034265315626 -0.0048816744238 0.001055501285 -0.0056979623623 -0.0060723121278 -0.00025607304997 -0.0056224460714 -0.0060945143923 -0.00024385847792 
-0.0065106544644 -0.0089767612517 -0.015912761912 -0.0073589216918 -0.0084475791082 -0.011999582872 -0.0054877051152 -0.0092733437195 -0.019439650699 
-0.002406935906 -0.0025331736542 0.014255621471 -0.0040137367323 -0.0029213272501 0.016583612189 -0.0065524564125 -0.0034186411649 0.019209576771 
-0.0099131781608 -0.0040014907718 0.022332128137 -0.014878522605 -0.0049297767691 0.025546329096 -0.020337471738 -0.0061580734327 0.028517145663 
-0.025071999058 -0.007505803369 0.030289910734 -0.02767749317 -0.0088586332276 0.029744293541 -0.020985746756 -0.0070577235892 0.027470357716 
-0.014692943543 -0.0053537688218 0.024214282632 -0.0097927590832 -0.0040113716386 0.020647507161 -0.0063210702501 -0.0031587490812 0.017608033493 
-0.0039287325926 -0.0025715224911 0.015103484504 -0.0025048484094 -0.0022810695227 0.013189597055 -0.0019132759189 -0.0021863461006 0.011943311431 
0.020201528445 -0.0059287813492 -0.016651777551 0.01903472282 -0.0048581818119 -0.013830606826 0.0180214867 -0.0040548178367 -0.011167678982 
-0.007732743863 -0.0078545734286 -0.0082671334967 -0.0077123153023 -0.0073300637305 -0.0053532053716 -0.0073860641569 -0.0069524035789 -0.0038152264897 
-0.0030254805461 -0.0048258393072 0.0026945646387 -0.0043320399709 -0.0053911684081 0.0019262530841 -0.0023657900747 -0.00456748344 0.0026791887358 
-0.002296843566 -0.0043653077446 0.0022114927415 -0.0028244284913 -0.0044538709335 0.001479369821 0.020020725206 -0.0057615586556 -0.018380405381 
0.01689475961 -0.0035351885017 -0.0087778940797 0.017680386081 -0.0037698235828 -0.010259960778 0.018413180485 -0.0042577115819 -0.012821228243 
-0.0036751721054 -0.0023774895817 0.0090086869895 0.019039651379 -0.0048243636265 -0.015541938134 -0.0035905549303 -0.0050694020465 0.0016895771259 
-0.0046250526793 -0.0055715269409 0.0010780923767 -0.0030366489664 -0.0047764470801 0.0017985504819 -0.0020604631864 -0.00086716277292 -0.0014995033853 
-0.010297855362 -0.0059295329265 -0.0013536992483 -0.0028340641875 -0.0010080821812 0.01157215517 0.0068863714114 -0.0013233346399 0.00043137642206 
0.0066029001027 -0.0013656949159 0.00051812879974 -0.0048066219315 -0.0056818737648 0.00049571122508 -0.0038763501216 -0.0052392454818 0.00093271984952 
-0.0058966558427 -0.0060666855425 -0.00014321305207 
