# vtk DataFile Version 5.1
vtk output
ASCII
DATASET POLYDATA
POINTS 1114 double
77.883888245 63.633712769 45.870170593 76.773333956 63.759042593 46.914537704 76.65212859 64.925041763 46.544442598 
77.750616978 64.853534064 45.520242658 76.052685314 63.742539141 48.241610567 75.810015367 64.991351171 47.801084573 
75.645244427 63.810728703 49.69871468 75.341683762 65.173899728 49.25141003 75.554734073 63.972231077 51.204890887 
75.231742779 65.431409692 50.880525284 75.706403021 64.097291744 52.717641114 75.485983432 65.513694014 52.587317628 
75.937207929 64.015878561 54.227555696 75.712302452 65.432651943 54.206497634 76.507160437 63.921378574 55.643157781 
76.145280917 65.379340445 55.706058979 77.041176383 63.9893319 57.069868407 76.705912183 65.392521195 57.187980011 
77.687672929 64.077753906 58.441439573 77.367284422 65.42255396 58.615012059 78.537834663 64.115911402 59.709814494 
78.248686271 65.474482877 59.914146521 79.524997629 64.209041705 60.864075682 79.318322358 65.553100232 61.055360895 
80.773618795 64.217482177 61.729630471 80.594578142 65.628149907 61.952220788 82.194266183 64.296340511 62.290326254 
82.012955141 65.720117846 62.623539679 83.653443003 64.357193878 62.714732344 83.532643835 65.819816915 63.000326814 
85.172110587 64.424088021 62.851153267 85.093141173 65.862822575 63.165600804 86.70059268 64.422940754 62.904962665 
86.656871273 65.867144347 63.157350616 88.211586248 64.415493907 62.757999455 88.193521347 65.851372633 63.013348193 
89.689888952 64.461040356 62.375866788 89.672089876 65.894598653 62.610206704 91.168900575 64.551039963 62.005494507 
91.109015759 65.960460809 62.073582645 92.647833129 64.648399989 61.675763489 92.519402883 65.981814457 61.547005488 
93.883115126 64.710640095 60.775793704 93.786653043 66.021718042 60.681104249 94.978504605 64.635316943 59.71793585 
94.949959109 66.034413065 59.667254115 95.836845387 64.56474155 58.477284646 95.917327042 66.040072778 58.480653399 
96.426778912 64.53703061 57.073815221 96.661894883 66.072471309 56.999695286 96.770356718 64.521312615 55.588570604 
96.982414397 65.85616885 55.398109559 96.496693872 64.095107748 54.145241427 96.732822345 65.560132277 53.906334131 
96.110096576 63.780277154 52.701914084 96.232427276 65.276762206 52.462420262 95.549691724 63.539747892 51.306576541 
95.609595645 65.033892715 51.08194464 94.839226187 63.344262843 49.966942103 94.900930259 64.829148722 49.754906524 
94.05979962 63.177045951 48.661964402 94.107462054 64.661523374 48.476557592 93.143121763 63.095765823 47.440147598 
93.197399297 64.54305482 47.2865555 92.012151216 62.974508533 46.431543568 92.101996849 64.456663967 46.256464261 
90.744721026 62.917566069 45.590515886 90.882290181 64.419059012 45.362068548 89.38377626 62.946203916 44.898867815 
89.520126742 64.452150618 44.684751151 87.94505292 62.988807811 44.381179575 88.097427226 64.520031886 44.123551683 
86.466563396 63.125891989 44.015371083 86.585970722 64.652934878 43.775711201 84.955811085 63.193054034 43.800198767 
85.022238181 64.792976535 43.621483729 83.433736043 63.293541137 43.753079774 83.441753264 64.896633486 43.557304403 
81.925030236 63.429659877 43.917356593 81.876662934 64.91406318 43.733751396 80.452650087 63.504456898 44.298166224 
80.364026307 64.871654069 44.088578666 79.066386115 63.503596276 44.908656401 78.945554258 64.80846025 44.621823514 
78.394554138 88.998214722 37.739414215 79.94793385 88.9803362 37.552772427 79.93683386 87.391216754 37.798728005 
78.378033372 87.376742982 37.890331196 81.499705556 88.957122121 37.472893773 81.492521525 87.399654179 37.770712126 
83.046802354 88.918396133 37.703404341 83.048531069 87.398229795 37.930358527 84.598482841 88.887464742 37.899217477 
84.596005959 87.386212122 38.12625265 86.154197192 88.863392968 38.064495226 86.132935466 87.367841789 38.374761404 
87.659142973 88.889521145 38.487304216 87.628010689 87.397589971 38.824282009 89.13084009 88.953344403 39.002014441 
89.089795361 87.456083435 39.359328831 90.553534205 89.073357615 39.642078197 90.501835643 87.543835453 40.00322593 
91.847936713 89.200396762 40.505951903 91.807970315 87.65833603 40.831342758 92.993838164 89.314410758 41.539355885 
93.053864495 87.779943534 41.731569364 93.94075645 89.406624836 42.78152562 94.153901548 87.891229022 42.809156594 
94.911466589 89.538733994 44.001449174 95.282776231 88.055291617 43.877682446 95.882878038 89.670725915 45.220903809 
96.312516412 88.199727671 45.051558738 96.827620898 89.79258893 46.457099595 97.236830064 88.301940299 46.333710537 
97.433851849 89.819700779 47.89928277 97.881067093 88.279785779 47.801202189 97.97745738 89.844231133 49.365391634 
98.476685562 88.304725145 49.318527316 98.43575501 89.880436479 50.856251488 98.972268442 88.45833592 50.849345196 
98.640201475 89.983774837 52.404045452 99.249977984 88.641826222 52.421109067 98.50148612 90.036561189 53.942683816 
99.151258461 88.738212344 54.017414316 98.143919913 90.062885822 55.460298182 98.719484761 88.748709464 55.525721439 
97.497419331 90.079046687 56.885050494 97.981148515 88.697403745 56.925272763 96.705091192 90.087544397 58.228603793 
97.137576864 88.64275814 58.264733832 95.8219156 90.096302196 59.519602595 96.194393462 88.484748734 59.572367159 
94.867565778 90.131937054 60.758993535 95.08258554 88.088521917 61.115981215 93.844097239 90.154501761 61.94015879 
93.893906617 88.695222605 62.251838644 92.769338267 90.167209308 63.074295007 92.888601427 88.738698322 63.275638183 
91.432639641 90.1261911 63.886512722 91.654858393 88.650289832 64.137114015 90.023403954 90.103145525 64.527880445 
90.307700848 88.631019159 64.891226357 88.509215585 90.10610426 64.922048122 88.851918683 88.66516433 65.516052982 
87.004487728 90.097138083 65.350343373 87.318964723 88.66168273 66.011006947 85.495272886 90.084592833 65.752417426 
85.731497985 88.654466435 66.416140644 83.940568464 90.072104894 65.928148866 84.103053848 88.663609394 66.703120512 
82.3812759 90.087486744 66.009991594 82.372202926 88.648919703 66.798416993 80.817298624 90.131324969 65.995969501 
80.681676978 88.826932573 66.64816197 79.473562931 90.09424758 65.259278453 79.308635127 88.728552117 65.780009492 
78.18652372 90.049858013 64.373636125 78.028483036 88.646492346 64.79800104 76.994954399 90.037799779 63.359653641 
76.820470602 88.564941335 63.754470631 75.789318922 89.983838333 62.364759111 75.653542344 88.465148217 62.687151724 
74.572542007 89.896257411 61.385008004 74.509136634 88.352708412 61.609631965 73.398589531 89.806672181 60.354496773 
73.371378301 88.257345178 60.526881456 72.344136051 89.673558394 59.224268978 72.361762278 88.121854922 59.357260888 
71.477897921 89.471885515 57.936983897 71.493700138 87.954851419 58.065800372 70.797122026 89.232386503 56.554993075 
70.787599554 87.765016239 56.678593243 70.192267869 88.999583484 55.133968582 70.128973528 87.636080135 55.247022388 
69.656665451 89.160854386 53.672713959 69.492980726 87.66014655 53.790483079 69.165587257 89.254693077 52.195101872 
68.898422237 87.709963769 52.31299437 68.771733841 89.201284246 50.681771005 68.477579838 87.714017506 50.790849702 
68.749895201 89.160779409 49.154829971 68.445310657 87.669826647 49.194139672 69.034997634 89.130921371 47.61665949 
68.701656235 87.63491525 47.62403707 69.549654092 89.075712353 46.145090127 69.241821252 87.573167709 46.116061538 
70.140680504 89.014648987 44.701212275 69.861736726 87.54070961 44.636691579 71.154967877 88.967733225 43.510765568 
70.830814017 87.479851127 43.380977572 72.171076557 88.934675772 42.3216402 71.839202013 87.448092684 42.149694099 
73.192309079 88.940605587 41.136232127 72.9343738 87.427924113 41.001319396 74.348433058 88.955000908 40.102087804 
74.142619329 87.407062119 39.976963694 75.641778882 88.978007986 39.221820469 75.428599233 87.387066255 39.051954562 
77.004904788 88.990172068 38.458408879 76.887398468 87.361799803 38.407924834 75.435751065 66.176655084 47.174325003 
76.378247219 66.108200983 46.024850702 74.796539096 66.439424871 48.622525469 74.496100352 67.030426398 50.478796313 
74.834863751 66.873000871 52.608130079 75.178929201 66.788333766 54.309327107 75.680880093 66.767824715 55.876226186 
76.260581904 66.769309041 57.379412864 76.95859206 66.783492926 58.841803949 77.82884098 66.81603248 60.224537764 
78.964610244 66.906118733 61.405251763 80.299423519 67.021144998 62.337570685 81.788863205 67.1740038 63.025382947 
83.371427564 67.280587318 63.50414152 85.014550649 67.278624395 63.719126144 86.656056158 67.234205058 63.745627814 
88.267311957 67.181497069 63.624377493 89.81424376 67.192784631 63.252377052 91.297046624 67.248252802 62.699333398 
92.717756345 67.308514498 62.022949403 94.043221235 67.372873763 61.149758492 95.28480745 67.405442887 60.15441689 
96.505741609 67.452957121 58.96254627 97.597929161 67.787367179 57.099703138 97.512645137 67.318294588 55.093676348 
97.089673855 66.992209272 53.520406129 96.522870586 66.711644826 52.101546479 95.855943586 66.462921243 50.738915184 
95.106577456 66.257922193 49.438555522 94.27731293 66.098206851 48.197676584 93.376835437 65.968472583 47.011593387 
92.276058001 65.903225809 45.99349026 91.058029994 65.886351163 45.101157836 89.725342389 65.925668953 44.360804726 
88.294103062 66.015951659 43.770945973 86.74854785 66.175790701 43.406507992 85.145536447 66.36343167 43.272796003 
83.421856813 66.508983667 43.206299504 81.774299431 66.429529909 43.502797961 80.159727312 66.257237329 43.8879456 
78.746305353 66.08177523 44.285866037 77.467798401 66.010564012 45.004260125 81.515993739 85.844428145 37.70624468 
79.920270411 85.805918985 37.672731253 83.088052212 85.861916271 37.884098556 84.62812864 85.857598473 38.195814745 
86.139215284 85.85563672 38.603221693 87.6365168 85.877201766 39.067792176 89.104144648 85.921661132 39.604848736 
90.537381907 85.997525546 40.227489592 91.880918596 86.109424609 41.010012136 93.233684154 86.252055856 41.786757038 
94.572393805 86.449171831 42.585506185 95.808105064 86.653463785 43.573102996 96.980619549 86.867373584 44.684480931 
97.947674292 86.964263695 45.997173035 98.685829264 86.939260494 47.501790326 99.358246628 86.91008728 49.145472243 
99.848509844 87.153771838 50.831659979 100.03160497 87.334635527 52.482999138 99.859767408 87.420576522 54.138265533 
99.384707381 87.427246761 55.661169324 98.660587043 87.393056686 57.069536908 97.822425397 87.32636264 58.373216601 
96.862067167 87.006307422 59.491401258 95.948393216 86.406182044 60.687286244 93.11303403 87.390516799 63.515926839 
93.826919626 87.608292224 62.683732191 92.013163231 87.225945116 64.460617783 90.742442008 87.209621406 65.450245821 
89.301253025 87.304213837 66.25728391 87.753992846 87.42285629 66.935545804 86.146969313 87.478362709 67.422712858 
84.418780719 87.453601974 67.815019241 82.302858015 87.206428858 68.152408453 80.278666102 87.531278757 67.442062104 
78.852450645 87.473600776 66.471423183 77.587739484 87.370664964 65.461877688 76.410344963 87.210318312 64.358843837 
75.240614702 87.091067854 63.266879341 74.146894236 86.937023137 62.108912281 73.022947388 86.827531801 60.980192024 
72.046850611 86.666937886 59.734504362 71.21146411 86.482946922 58.387644753 70.557716602 86.300190625 56.92526383 
69.955919581 86.174818498 55.424600876 69.246458027 86.152728128 53.957015258 68.600099355 86.164402559 52.444615072 
68.015835773 86.210897837 50.933853766 67.889808732 86.190874927 49.213630402 68.176262582 86.146985755 47.591614085 
68.787018707 86.076025353 46.035998503 69.508013155 86.03161325 44.546145451 70.445350322 85.980046462 43.216799746 
71.433442515 85.958032348 41.921446731 72.526217166 85.932382899 40.719216251 73.803246213 85.86248424 39.682942288 
75.16979675 85.791867846 38.778837908 76.721056567 85.715295783 38.176715941 78.314758651 85.764435549 37.736559959 
94.495517972 86.755767535 62.288546761 95.257097105 85.487468809 61.88795745 74.250054459 68.23276426 52.947425432 
73.88058536 68.461357559 51.313574624 74.653224425 68.160835668 54.546813104 75.15677853 68.139734641 56.098016228 
75.826813426 68.163231093 57.580886347 76.6092314 68.207005103 59.017580022 77.488141337 68.251111371 60.4206575 
78.603320487 68.325333558 61.680803625 79.911991293 68.447141833 62.701200782 81.432075204 68.629463255 63.484817789 
83.167072634 68.793356328 64.140764279 84.999372392 68.687031905 64.431579947 86.706131314 68.585792718 64.470682963 
88.39245531 68.493441685 64.350597941 90.005583579 68.466525999 64.011583373 91.548132993 68.499654263 63.457136774 
93.027306131 68.53309537 62.776949386 94.430682051 68.57678445 61.929777671 95.740428094 68.645091455 60.934423351 
96.987276579 68.791485719 59.877310734 98.033375707 69.356070496 58.4907846 97.465211776 68.412070258 53.016867171 
97.966471469 68.798882693 54.439062683 96.84844123 68.104138055 51.636998052 96.142551061 67.853681428 50.323411205 
95.351155271 67.656203769 49.072621536 94.509204683 67.499055217 47.859551035 93.59192908 67.377890908 46.698468697 
92.530132263 67.311928665 45.649306924 91.330923322 67.309205721 44.733843093 90.009638465 67.365507352 43.95809402 
88.579518325 67.4749349 43.333706613 87.06112104 67.631491059 42.87989216 85.39436827 67.870097999 42.566077341 
83.338434179 68.244476837 42.184679214 81.33780429 67.808354084 42.635790752 79.669992607 67.330103812 42.951958227 
78.21628546 67.048388056 43.45165452 76.939725712 66.92856516 44.197140545 75.914631262 67.144184435 45.261244242 
74.993246752 67.326374243 46.425356185 98.413044475 69.38652702 55.934948984 98.815274455 70.341108016 57.251206012 
93.650170104 86.07885945 63.428166407 94.360468674 84.58307051 63.089155897 92.552414414 85.649984321 64.713288003 
91.215823886 85.700592579 65.986291684 89.779187797 85.863777348 67.004243017 88.235167042 86.106051692 67.842170432 
86.633567717 86.255881891 68.395788938 85.03774367 86.264017453 68.834365777 83.497606519 85.949610879 69.307139486 
78.235930518 86.293254561 67.23207131 79.544509675 86.283835958 68.179435676 76.965530114 86.19986943 66.225497741 
75.743470213 86.087639121 65.167858501 74.685641004 85.819999627 63.960384519 73.634946211 85.602570518 62.736821162 
72.583652478 85.429810296 61.509250168 71.667716145 85.21539565 60.168777103 70.921636346 84.977157253 58.742892487 
70.455171929 84.749398511 57.14445741 69.915425468 84.632365487 55.558856831 69.210269299 84.592157097 54.037081776 
68.461301176 84.576355358 52.530750494 67.694045646 84.564347339 51.056783112 67.540696055 84.541658324 49.255538028 
67.802157492 84.518942829 47.5778403 68.440391483 84.506807845 45.981853901 69.164594187 84.481752991 44.45893977 
70.035658801 84.457570094 43.048410234 71.043097469 84.435467536 41.729379672 72.146383574 84.396185644 40.490774343 
73.449605446 84.290417541 39.411014867 74.838678525 84.172961517 38.445756819 76.536976714 84.019021921 37.797257495 
78.312895785 84.148416077 37.394645252 79.958061323 84.247621969 37.377733983 81.589515827 84.315651828 37.482495933 
83.175625996 84.341088719 37.732684965 84.721873204 84.337462241 38.083030397 86.23490258 84.323425711 38.541992256 
87.747055634 84.333212357 39.026028346 89.241310359 84.36760221 39.557447841 90.711304216 84.432299696 40.18038788 
92.181866871 84.565922777 40.814535025 93.624044582 84.752357213 41.516709144 95.046019019 85.006210682 42.253576822 
96.386197698 85.261260131 43.191480007 97.648296235 85.518969914 44.261159208 98.655266234 85.631790172 45.561324188 
99.50427343 85.561655523 47.102556441 100.38232508 85.194613549 48.972765671 100.74275098 85.745085388 50.950236902 
100.70417646 85.935787956 52.704009177 100.5243592 86.038926935 54.347517116 100.06947971 86.077848107 55.881679372 
99.297966259 86.058004537 57.262657125 98.494119892 86.056521721 58.502155468 97.54810832 85.795748057 59.411299041 
96.812519679 85.127246227 60.330109573 96.101253214 84.219878538 61.292428803 95.215658435 83.20596096 62.304135156 
93.05308467 83.543861109 64.664652549 94.261953981 82.047953385 63.375333046 81.004987503 85.934784403 69.059924223 
82.236280418 85.057511557 69.754165361 98.964660534 70.662662792 55.004631411 99.441744759 71.392545605 56.218149066 
98.531233033 70.109678147 53.670350214 97.935914431 69.74962189 52.366212152 97.291961929 69.416250147 51.064914969 
96.554745801 69.16400904 49.803445697 95.744311984 68.97313668 48.59919195 94.838399525 68.847311301 47.448691114 
93.894425148 68.744354376 46.320394568 92.84401309 68.697148471 45.275066732 91.649066309 68.724207635 44.365437631 
90.385366275 68.773444441 43.502342896 88.98611052 68.888900689 42.815653142 87.506761804 69.013591564 42.236413855 
86.025460422 69.17363413 41.693335339 84.531202617 69.452345723 41.042396478 78.965301536 67.981486975 41.779871062 
80.502321398 68.60947661 41.345649156 77.476640914 67.507952375 42.318979036 76.179566558 67.546560833 43.169611518 
75.143081207 67.896904367 44.291611352 74.276881831 68.226102227 45.496507802 73.865522002 69.602283976 53.244027425 
73.468017844 69.718285095 51.790743549 74.301783895 69.573685833 54.737571015 74.81139907 69.583528902 56.25136618 
75.487036817 69.625231138 57.704766736 76.321119596 69.675094789 59.099449835 77.254756797 69.720656081 60.457447418 
78.283771509 69.78293074 61.733309181 79.503541496 69.912599889 62.896531973 80.944947154 70.156040299 63.89536731 
82.872066308 70.569362146 65.001302024 85.102010086 70.130768171 65.271879268 86.922281177 69.928449784 65.281271842 
88.614107307 69.807516698 65.144955162 90.249158735 69.7724744 64.782678449 91.821442557 69.798965331 64.219613369 
93.322978128 69.830425952 63.521139954 94.764608196 69.868885095 62.703781922 96.047924227 69.957458445 61.718553422 
97.239549654 70.171912424 60.637066714 98.301204876 70.696282237 59.456591199 99.044237791 71.459718737 58.302618732 
99.757398248 72.327015546 57.293532513 100.20891115 72.252392518 55.331734231 100.47469628 73.136082358 56.339771581 
99.798990495 71.666164864 54.135453732 73.425088974 68.979560721 49.971576806 73.108527926 69.950738121 50.541017185 
72.90531685 69.587461711 49.046962174 72.7473162 70.079749643 49.737471209 82.072429481 69.104862292 40.783329564 
83.326558174 69.966814466 40.11231901 91.431353081 83.917911664 66.402248272 89.974871456 84.271684854 67.61000376 
88.53443908 84.635421631 68.573039375 87.0230716 84.943133377 69.189107432 85.505898346 85.033701848 69.591977448 
84.224598047 84.808674742 69.836992749 83.212013645 84.067552564 70.241680841 81.250589458 83.983073284 70.084540867 
82.299937869 83.07542044 70.439381534 80.058616649 84.767424443 69.612062026 78.818661949 85.087865591 68.834782155 
77.544899918 85.154187192 68.001655177 76.334133224 85.000523203 66.989892111 75.117226847 84.839325496 65.920000989 
74.095343847 84.543637904 64.685145257 73.080685918 84.279242523 63.410794218 72.063004495 84.052830923 62.118593378 
71.315540142 83.717551738 60.617688746 70.740473137 83.394634551 59.047094979 70.342123616 83.133181741 57.375708622 
69.914404016 83.043259026 55.688358036 69.244700954 83.010004857 54.09455393 68.503002475 82.980483723 52.541328955 
67.712866401 82.947100205 51.058958435 67.513703251 82.929428249 49.277193857 67.613282303 82.913827278 47.56784833 
68.199195891 82.902484172 45.934393423 68.867961719 82.895956062 44.380600108 69.671420167 82.900401649 42.918217572 
70.602912541 82.905133599 41.531375541 71.684501231 82.868397893 40.253810771 72.948464045 82.731310369 39.146751066 
74.374614994 82.514986217 38.075876368 76.338082206 81.979941997 37.0687633 78.478539559 82.472109983 36.90036939 
80.170025933 82.736798371 36.88937412 81.772988985 82.832267855 37.089548008 83.339758458 82.853513373 37.41988745 
84.874001936 82.83437709 37.826524616 86.401503419 82.811235472 38.265904221 87.92267997 82.801217206 38.761941266 
89.455258299 82.821793448 39.291418584 90.989748952 82.874221447 39.885626043 92.563674316 83.027326926 40.42362873 
94.096978197 83.2769652 41.071373723 95.588760449 83.576211104 41.802211273 96.985135646 83.855312449 42.734484228 
98.318311807 84.15324856 43.792483565 99.227317481 84.225165728 45.149233226 100.07633345 84.196764992 46.521587941 
100.71641807 83.794490504 47.804300436 101.34874761 84.527748614 53.015148211 101.52016628 84.310454872 51.459763476 
101.052634 84.564459123 54.618226506 100.55633734 84.577128602 56.155174659 99.729256986 84.653087543 57.56908887 
98.865946376 84.812778516 58.703286491 98.063345407 84.929886494 59.377176649 97.67322265 84.131037865 59.89243754 
97.024444608 83.112346585 60.583661296 96.190600807 82.007137836 61.431405084 95.259836264 80.858586355 62.30306188 
93.45012372 80.589805567 64.261807366 94.373659516 79.602925112 63.127287884 92.425475018 81.546568604 65.552800424 
91.207657416 82.106197538 67.010606661 89.895715478 82.532777092 68.159459919 88.465727422 83.001627596 69.082271111 
87.028332636 83.467183907 69.726890958 85.669044846 83.791359574 70.077239225 97.313973098 80.933569769 60.620110145 
98.269002716 82.172955564 59.852047453 96.338597833 79.770175889 61.434277667 95.390339739 78.555492578 62.199946191 
93.544464147 78.262076335 63.766855737 94.430059014 77.284615317 62.772772145 92.709919434 79.120986513 64.952522612 
91.851548389 79.858053323 66.242976485 90.776212374 80.382771208 67.535342892 89.626597192 80.797168269 68.781611982 
88.135020772 81.383630427 69.590142623 86.726908764 81.987393854 70.187229844 85.292637751 82.580532613 70.399021217 
101.41302186 83.697338123 49.913703495 101.36630121 82.78278695 48.635042997 99.34092008 71.156469251 52.868874508 
98.697637794 70.833147733 51.605107268 97.98312897 70.543347781 50.361862409 97.181174945 70.317472344 49.164443613 
96.289126782 70.172536545 48.027124514 95.345189132 70.078709618 46.916932463 94.321475833 70.043926866 45.855344729 
93.24979752 70.037504583 44.827778987 92.093897481 70.066040997 43.854272068 90.850681164 70.135095571 42.950704451 
89.482977216 70.252591134 42.19289279 88.055431956 70.347138741 41.541179635 86.658637833 70.444034072 40.909233493 
85.360942112 70.570430986 40.254382334 84.306740577 70.868292113 39.521539017 82.421130633 70.589504671 39.062793208 
83.559442123 71.507954747 38.683805205 81.147887448 69.71146977 39.524867534 79.728453876 68.995340284 39.963994178 
78.183634005 68.592211796 40.559454398 76.638205411 68.211426957 41.220519389 75.365685638 68.37258788 42.178100279 
74.262009514 68.707629509 43.316103123 73.377129108 69.076470667 44.602533131 73.574221204 68.514296704 46.761334136 
72.696171937 69.3963721 45.97277001 73.198982342 69.027413082 48.013487426 72.308370976 69.827549367 47.299277303 
72.158182272 70.326174295 48.520056005 72.171620922 70.724559933 49.632138995 72.537276996 70.894046737 50.738147306 
73.00774125 70.937040452 52.025312016 73.436314265 70.940168639 53.418728772 73.925113772 70.972481186 54.874497022 
74.475431181 71.027055638 56.339845576 75.140836669 71.091589187 57.783561912 75.98530215 71.14019557 59.149968779 
76.900687348 71.156757799 60.501289597 77.857543765 71.195457469 61.82864988 78.872453791 71.279046249 63.092705581 
80.055279334 71.538029957 64.235741324 81.31574466 71.939265794 65.434725496 87.237590783 71.288099664 66.051388617 
85.584278566 71.496326691 66.161520702 88.904524949 71.20802355 65.82689347 90.497868966 71.22742085 65.378926499 
92.034464948 71.241847895 64.778448009 93.512562035 71.271873702 64.043395595 94.937883129 71.329240055 63.227670931 
96.129360588 71.385580378 62.220062354 97.225273727 71.578130526 61.187589253 98.150740343 72.095016989 60.132921064 
98.896181058 72.796882215 59.049748901 99.770710885 73.545663094 58.131430126 100.57901877 74.275963599 57.162475103 
101.20907778 73.786802126 55.511794894 101.30882505 74.864568577 56.124016079 100.95843899 73.149231455 54.522793366 
100.67766355 72.605157513 53.351091793 83.875495512 71.941000738 66.254041715 82.35877299 72.692469826 66.61498081 
83.401147416 82.148859589 70.691302645 84.13035887 83.181037641 70.422766243 81.395028819 82.015423204 70.568116164 
82.48219165 81.018588219 70.710629069 80.402585081 82.932596465 70.27443536 79.465633779 83.594102203 69.755433936 
78.340450471 83.81199764 69.245612113 76.991163995 83.890885638 68.668402866 75.83110257 83.706027962 67.714935022 
74.611350885 83.504625237 66.653626283 73.596036084 83.195151286 65.401582615 72.579685144 82.910239881 64.094558085 
71.661347267 82.590916045 62.689426174 70.965651878 82.196105029 61.085026279 70.577821648 81.775046081 59.419840599 
70.374726496 81.430163333 57.590425881 69.993118713 81.423240262 55.734569237 69.335931351 81.426606516 54.113381142 
68.562570544 81.384617512 52.545440366 67.750065244 81.318572399 51.056225076 67.628025405 81.292124715 49.265133096 
67.595998814 81.273577896 47.509831749 68.091300309 81.264670601 45.899207187 68.589744478 81.290493388 44.292731728 
69.314992243 81.31169168 42.805504489 70.149978994 81.350012637 41.366664084 71.146894762 81.350228405 40.055666051 
72.306236583 81.250004289 38.851389063 73.517482823 80.990459711 37.739065272 74.957641308 80.359477258 36.81921744 
80.550832802 81.238091229 36.447510712 79.002542125 80.938579254 36.329676515 82.038058526 81.354134938 36.769709305 
83.549554883 81.381276277 37.112390254 85.047845716 81.340796682 37.527679265 86.54358707 81.275949514 38.008427955 
88.074884879 81.249424501 38.494953119 89.654113178 81.262101179 38.97079209 91.245117165 81.328505045 39.448553252 
92.954141213 81.463830399 39.943497566 94.637721847 81.793004778 40.596756999 96.118994706 82.093809196 41.41399387 
97.520233679 82.353746678 42.424397361 98.795212096 82.61873163 43.495907115 99.713162142 82.787670293 44.89050498 
100.46273808 82.920629177 46.153762298 100.81681454 82.916276207 47.154088292 101.21546147 82.014771081 47.521562563 
101.9320825 81.55505933 49.350171018 101.62292686 80.733663315 48.064243471 102.04166088 82.396846216 50.605473719 
102.02900229 83.01052837 51.895407082 101.86354072 83.122503944 53.275866863 101.53146476 83.121554404 54.812549411 
100.85288767 83.056273489 56.39701654 99.856735148 83.119866063 57.953115728 98.761459055 83.559149913 59.217997314 
77.49578858 80.284141607 36.139399512 76.183601358 79.234634416 36.110659827 84.634272954 81.319002517 70.622614013 
83.727959005 80.094436351 70.751758358 81.397346373 79.949273818 70.685377999 82.624599166 78.952230717 70.647955768 
80.368428927 81.062892985 70.597474719 79.548208772 82.051839558 70.278258912 79.015499951 82.787885784 69.97563265 
78.081531836 82.670095512 69.736127727 76.810966194 82.491998925 69.225258128 75.686767452 82.219108085 68.282419762 
74.497355017 81.920421334 67.224616262 73.449346089 81.621598888 65.978600871 72.41748565 81.325450891 64.637827231 
71.660612408 80.998840759 63.135511407 71.016461328 80.56783549 61.557038654 70.665654583 80.068358016 59.858168366 
70.503407289 79.368346076 57.777870302 70.065923521 79.775418132 55.685636386 69.524882674 79.873492202 53.983137004 
68.706667938 79.810480766 52.46093168 67.877027439 79.674740955 50.914192614 67.655468673 79.634158621 49.220393264 
67.599361145 79.619154329 47.487214506 67.958176713 79.611576786 45.857248795 68.394929243 79.634790961 44.24631894 
68.980549315 79.682816048 42.711837105 69.723597616 79.764519947 41.244692597 70.600492424 79.828596509 39.887950541 
71.640894799 79.764542572 38.646394039 72.723774164 79.489902966 37.525647396 74.028622794 78.846300883 36.668177672 
75.197468991 78.028446499 36.119497136 77.239847617 78.042536383 35.704597491 76.210827857 77.051284659 35.791882194 
78.354144295 78.938201017 35.845278367 79.618038002 79.507819797 36.025283542 80.969942834 79.797491267 36.220519715 
82.340091543 79.880852718 36.579563632 83.743926071 79.915454123 36.915450745 85.154394464 79.827565914 37.361215599 
86.611599453 79.713791747 37.829970087 88.132024086 79.667397054 38.298848483 89.67246168 79.635499576 38.801985888 
91.29651187 79.626787079 39.315041335 93.230641181 79.462149016 39.801159411 95.124544432 80.141954239 40.487930046 
96.600655415 80.486172305 41.376389297 97.92936256 80.747946279 42.453558675 99.200816388 80.992664704 43.589887798 
100.10011369 81.283008804 44.934020039 100.85019348 81.623578989 46.280707839 101.06228716 80.179245229 46.716416112 
101.95738638 79.34202242 48.728317323 101.23935067 78.688062449 47.319268554 102.36960363 80.206736936 50.19241206 
102.55049612 81.292446131 51.34046954 102.29410166 82.009563099 52.177163721 102.21294154 81.77429203 53.265122694 
101.92811062 81.590362184 54.800133687 101.14334521 81.399292958 56.425878027 99.754806343 81.162422378 58.42475872 
100.21253564 72.166751354 52.078958199 99.569922398 71.82745751 50.819316116 98.767862834 71.582602099 49.613554442 
97.915955164 71.35551368 48.456152527 96.964952025 71.235597551 47.363984743 96.000204174 71.174001112 46.276120689 
94.943065716 71.202700386 45.245559941 93.841275064 71.243767141 44.226015757 92.678290247 71.305489775 43.219199546 
91.390907245 71.466412852 42.330076487 90.013129437 71.627586953 41.523040445 88.567363396 71.712428321 40.829917431 
87.152933987 71.737747933 40.205729622 85.885767594 71.689845902 39.624162505 84.954645745 71.631857851 39.209879057 
84.648651018 72.324576779 38.521479585 82.811606698 72.299160264 37.783611966 84.057687537 73.353734559 37.674562813 
81.595909117 71.322429163 38.083857469 80.282678289 70.519746196 38.50146696 78.891477824 69.795528493 38.824180692 
77.355202151 69.380041665 39.379508318 75.815289362 69.120497253 40.157469292 74.500896987 69.232703818 41.164809107 
73.318560787 69.527673506 42.34532682 72.232205185 69.905753715 43.671794498 71.591881351 70.292606845 45.220724314 
71.262715876 70.704249433 46.780771996 71.229756108 71.192302572 48.163315438 71.400941985 71.59771821 49.501954834 
71.823673007 71.920672617 50.771886362 72.331800423 72.100125633 52.119655654 72.839979538 72.222468954 53.53186735 
73.351036585 72.313143572 54.996558083 73.843419485 72.389753111 56.49755646 74.452697444 72.454090834 57.987844016 
75.263775219 72.470993348 59.392074078 76.145891477 72.474150342 60.772487681 77.038702798 72.461340793 62.13618933 
77.963357661 72.471416652 63.47496494 78.996057677 72.624880753 64.716076526 80.030618985 72.956410285 65.944233942 
81.035845299 73.485111235 67.113410213 83.263924791 73.568850877 67.660369798 81.971452774 74.255650504 68.137013875 
84.617627358 73.030898434 67.233401331 86.100629421 72.791182766 66.944717741 87.623152028 72.697508514 66.682820931 
89.17989743 72.704683155 66.301438514 90.66442967 72.777338974 65.660372524 92.111156034 72.795874116 64.95999724 
93.486723993 72.839402918 64.167095358 94.81577649 72.966772632 63.285406299 96.015649399 72.879023163 62.305452462 
96.979791045 72.916724433 61.427523175 97.80436408 73.413589601 60.548944415 98.631494429 74.104966219 59.665694826 
99.522678661 74.861978339 58.769417326 100.43922099 75.603662913 57.801853545 101.23914968 76.215784834 56.601063869 
101.99844185 75.20767536 55.098942074 102.01779473 76.568567922 55.328174636 101.71908122 74.28605897 54.853714163 
101.67684663 73.998966441 53.946044799 101.584383 73.562559491 52.728784237 78.444707665 81.481072584 70.040768878 
77.038708293 81.060595923 69.670640932 75.933781585 80.66147743 68.662355634 74.770073527 80.34067277 67.573293236 
73.702610853 80.035814476 66.328486312 72.620036842 79.719580331 65.039211324 71.867077944 79.400044329 63.588372865 
71.210246669 78.997956715 62.052228243 71.022823997 78.462444521 60.537287916 71.018624643 77.672820884 59.029521981 
69.763829073 78.402252358 53.767710303 70.266331014 78.286980467 55.29037569 68.976655679 78.296859072 52.341832383 
68.326674723 78.161232834 50.805735822 67.91694434 78.05368118 49.182992571 67.662411622 77.975218439 47.470407834 
68.003027879 77.949044871 45.859041352 68.380880679 77.959600328 44.253635413 68.82958834 78.017219666 42.691192327 
69.423432833 78.127359036 41.176706241 70.250474567 78.261583578 39.856425389 71.192371425 78.242549543 38.616643679 
72.272713267 77.914447532 37.612338918 73.391509642 77.451391243 36.744656749 74.51202589 76.811543548 36.386155976 
75.474448619 75.983037203 36.155634626 77.201907317 76.023509933 35.78516917 76.361947926 75.035018907 36.037252434 
78.121265016 76.962123421 35.804636439 79.094369618 77.751996051 35.882601036 80.107168261 78.315361817 35.906908091 
81.264288485 78.460756863 36.119950328 82.587189018 78.432020932 36.438955735 83.873407499 78.533828376 36.772206181 
85.13458836 78.35428901 37.199710655 86.534081761 78.149505951 37.705832983 88.002403789 78.04060206 38.368464863 
89.502169238 78.030441201 38.972389795 90.986913269 78.012125481 39.423140721 92.345578865 77.814052501 39.840501334 
96.875453989 78.966330783 41.701152621 95.539476243 78.691405841 40.90205211 98.139528674 79.15595967 42.769516463 
99.382337093 79.35987722 43.944226134 100.30330032 79.730550382 45.31981507 70.704250307 77.856802975 56.701434808 
71.251011519 76.722761978 57.669246494 100.38601789 78.163869962 45.863887213 101.37096759 77.174120124 47.964387313 
100.502759 76.582735383 46.475904887 102.10712539 77.807110917 49.557525592 102.75580391 78.658996711 51.536708629 
102.57669964 80.45787433 52.685879713 101.08035599 73.251778123 51.351112991 100.40871616 72.888882508 50.030169078 
99.517984107 72.655767282 48.859033495 98.607867404 72.414384925 47.734652283 97.643820369 72.268711383 46.706003692 
96.702665528 72.241099806 45.639372847 95.658431141 72.303422806 44.615544985 94.530832837 72.39643982 43.606661882 
93.322405474 72.544241268 42.622888864 92.027926698 72.797022168 41.726023207 90.549047362 73.086074476 40.866830812 
88.971004235 73.171720561 40.157009785 87.440935796 73.084018908 39.434067831 85.943334287 72.873513943 38.832145885 
85.640186918 74.587446882 37.93312365 83.015702412 74.37813155 37.052331525 84.085720717 75.635226377 37.079725481 
81.931894144 73.225907394 37.024978795 80.746103624 72.16610686 37.191983796 79.480427741 71.385519179 37.567512707 
78.11167218 70.756735341 37.879140244 76.584537287 70.434333885 38.373233876 75.002480042 70.151767559 39.109506251 
73.685111694 70.23101649 40.121308304 72.412493902 70.511796505 41.285293295 70.953221235 71.212004463 42.58432819 
70.432840589 71.473894466 44.646843608 70.213579882 71.804138404 46.390181448 70.214951839 72.183558747 47.925595992 
70.43847708 72.560445725 49.401706192 70.91874875 72.907965392 50.805811674 71.481421688 73.169874407 52.204439689 
72.083437243 73.396530183 53.608281024 72.562172477 73.527623602 55.113664808 72.978153 73.636009038 56.636341258 
73.53646572 73.758461636 58.246633589 74.374351377 73.657509714 59.75910637 75.204295087 73.573663821 61.162121161 
76.007483594 73.47247263 62.576685762 76.885279503 73.477046917 63.937021252 77.827848019 73.580406622 65.239186509 
78.815566781 73.852684946 66.462259099 79.79921846 74.339678009 67.617455014 80.744635309 75.059160158 68.597236373 
82.911129977 75.163414998 68.97124074 81.663005331 75.945457207 69.467102219 84.130928618 74.46704334 68.515623435 
85.249112387 74.017870598 68.018220092 86.486797891 73.915139904 67.767770788 87.908644472 74.069926396 67.319961299 
89.40485926 74.233794239 66.715821568 90.81878814 74.354928468 65.879690108 92.131471865 74.280333767 64.961190978 
93.313402729 74.279125655 64.076981498 94.644924208 74.77557418 63.017905007 95.989840556 74.246638876 62.10518537 
96.792493848 73.904036604 61.522699483 97.327282737 74.543480916 60.953743058 98.192307435 75.337435206 60.291085641 
99.090325251 76.183666209 59.398531992 99.992736667 76.975712425 58.334725896 100.95610257 77.674064448 57.083184484 
101.8186939 78.1001444 55.628420135 102.49087206 76.670107761 53.704800772 102.5006641 78.388968646 53.876273097 
102.22183778 75.163564867 53.735594793 98.530390306 79.791112622 59.809942852 97.407835512 78.627786583 60.689769383 
96.396265017 77.490218926 61.447984815 95.492019362 76.265365583 62.183208613 93.689206105 76.136768598 63.502064022 
92.728035956 76.958363261 64.259292979 91.866689888 77.66681457 65.444510143 91.121743597 78.406937215 66.601320189 
90.200027379 78.750284355 67.833620476 88.967003922 79.031370295 69.171769263 87.466952068 79.784874063 70.021180487 
86.015539633 80.563723338 70.486304307 85.03252819 79.219392339 70.547356917 83.937110849 78.026949746 70.461883698 
81.461632695 77.888904446 70.409452876 82.754360322 76.955512397 70.081838731 80.13920773 78.924093573 70.494241208 
79.152438866 80.238330046 70.347376173 101.07638673 74.186945488 49.287054047 101.77089435 74.530202811 50.705294326 
100.08848966 73.882429703 48.121731179 99.13454113 73.541168175 47.03413982 98.215092017 73.294149003 46.137745154 
97.399052422 73.341930883 45.125640879 96.391786601 73.4678165 44.111143948 95.257225528 73.583041443 43.103033358 
94.069401037 73.79301675 42.149017454 92.776985725 74.160061183 41.213286237 91.230189143 74.883554083 40.255543075 
89.272001795 74.749027325 39.507730147 87.612766449 74.686055109 38.748272212 82.729630511 76.791872849 36.622391535 
83.839089384 77.416522705 36.841991861 84.848945783 76.962403699 37.238495725 81.880902353 75.358213852 36.547425714 
80.943115206 74.1973009 36.48884001 79.884046015 73.178728897 36.62854665 78.758977776 72.337757872 36.83978233 
77.524027525 71.795783106 37.122356686 75.908040172 71.963435073 37.385537522 74.311760061 71.45964534 38.264059333 
73.106600625 71.438419986 39.266988974 71.923867492 71.651022604 40.19981048 70.954271593 72.270924353 41.036464875 
69.275986522 73.192181231 46.146280362 69.471756385 73.033655682 44.459238272 69.250282122 73.420054341 47.738176409 
69.502477619 73.689286576 49.347162533 70.017885496 74.002095382 50.819266533 70.599412613 74.259610692 52.265910935 
71.271844474 74.537664446 53.650952822 71.756029754 74.727133311 55.101522399 72.093824087 74.925094911 56.651188584 
72.328044084 75.248716986 58.576310486 74.221557315 74.57196242 61.662863574 73.399459192 74.762552624 60.248333849 
74.990230311 74.474221776 63.051981852 75.835393165 74.511749681 64.403557411 76.686340626 74.570254805 65.736722158 
77.690158691 74.859966224 66.935715857 78.657563671 75.21770577 68.106403563 79.584024582 75.914283617 68.973987418 
80.329447771 76.833945095 69.819187752 69.740677258 73.04959994 42.768600569 70.174690614 73.485882625 41.271611059 
94.322730446 78.130985869 40.278073909 93.416902735 77.112180337 40.266484266 102.38113673 80.078919824 54.390239745 
101.51468535 79.723658013 56.041894324 100.47305414 79.278418915 57.651425122 99.358967319 78.386646074 58.973058499 
98.355136361 77.442453882 60.010842995 97.368609003 76.43232394 60.825706609 96.590264503 75.39171725 61.582160263 
77.750529496 79.540341868 69.949025207 76.367152772 79.083781224 68.964209932 75.17513199 78.747195253 67.85633508 
74.125769207 78.470878584 66.569959442 73.153160842 78.201295233 65.269419759 72.400007087 77.957023081 63.858459217 
71.791253904 77.606059996 62.48357661 71.627336911 77.236652365 61.1285488 71.763888605 76.427884983 59.932973465 
71.319271512 76.117721276 56.347812215 70.83972938 77.006309162 56.017572335 70.53279878 77.059337042 54.992762127 
70.048064529 77.01350233 53.655263467 69.285044548 76.831021865 52.31160617 68.588954502 76.613750244 50.828303818 
68.150273982 76.445371026 49.237911647 67.884222748 76.293629124 47.513045514 68.204341553 76.276151441 45.899969461 
68.545728932 76.272298728 44.296500312 68.965790669 76.369217724 42.7456038 69.498959042 76.511078307 41.273685768 
70.265388132 76.68089531 40.012406846 71.113480227 76.663867573 38.832400397 72.10283708 76.51559934 37.909932139 
73.02888344 76.198487093 37.092953616 74.01208408 75.805634052 36.67191327 74.797686105 75.049567694 36.524649701 
75.596284268 74.123642682 36.496592642 78.097024639 75.070621317 35.989054605 77.28006607 74.104114723 36.067296014 
78.958990185 76.010545309 35.983867853 79.788011326 76.824022861 35.999332077 80.397958802 77.451656733 36.013638837 
81.29108477 77.22506542 36.232130446 86.432776112 78.215891122 70.175578224 85.138610266 77.069799051 69.97016749 
83.982753385 76.05682602 69.676820821 84.971846267 75.359521662 69.028560389 85.616631302 74.795317008 68.517076746 
86.629529273 75.005854249 68.508082239 88.077499238 75.438906083 68.104759065 89.579326225 75.747835264 67.230416667 
90.977527659 76.128321126 65.975209049 92.171247157 75.691734932 64.761654097 93.033570326 75.374119839 64.093113032 
86.25823692 76.523271283 37.775539403 87.825879652 76.411949141 38.478602318 89.354392976 76.435896053 39.168763921 
90.828919074 76.533847834 39.65394938 91.911350423 76.786856035 39.955843321 92.6161317 76.010287468 40.331638404 
94.430052353 76.45717626 40.733149856 93.692374525 75.360127493 40.914690991 94.826031435 77.350906235 40.77017194 
95.693854293 77.44708726 41.318020462 96.872768156 77.521037189 42.099335162 98.074504665 77.606216862 43.151891548 
99.33567019 77.756775646 44.463220401 99.15457049 75.883741103 45.007144712 100.42376758 75.161102266 47.342349362 
99.421556113 74.690273177 46.288480184 101.36810577 75.645880071 48.639750656 102.08743098 76.115323181 50.143981248 
90.585693869 77.25407318 66.812999871 89.712891188 77.203301905 67.798756264 87.947659631 77.155248933 69.035993102 
78.737153899 77.844742256 69.865721201 71.052740397 75.908226421 55.019967384 70.553582779 75.732775425 53.651530573 
69.841794005 75.476611232 52.302878805 69.181809779 75.212214628 50.852316524 68.670290352 74.966787763 49.318310588 
68.398173596 74.747748363 47.617154985 68.584894658 74.683407263 45.980261499 68.872685661 74.654975706 44.362953988 
69.209591309 74.718494217 42.776385364 69.739581539 74.951044356 41.324396516 70.41293755 75.169467573 40.136836781 
71.152671647 75.256815882 39.027420097 74.097570425 74.306172209 36.904252509 73.653461043 75.062177209 36.888874626 
79.943218466 75.099813576 36.183908766 79.015887024 74.147451309 36.2503323 80.743742242 76.130768973 36.177484466 
77.04146949 77.53157795 68.90950495 75.845818103 77.23836886 67.768659497 74.795861442 76.987836415 66.513208807 
73.873205814 76.768312663 65.227756835 73.15180002 76.6461785 63.814988482 72.556519027 76.498836627 62.562144838 
72.175250683 76.407972744 61.577133133 72.617760112 75.705509686 60.965258549 73.302542677 75.508708312 62.189541504 
74.000235983 75.478849437 63.516912863 74.789150957 75.538922837 64.87543625 75.668209276 75.679635532 66.184077777 
76.666942988 75.92131701 67.412166353 77.676858544 76.228711672 68.493075438 78.629406897 76.601752271 69.237549272 
95.423590569 76.219473125 41.507723393 96.588350731 76.106978667 42.370100419 97.806777375 76.040734198 43.476641844 
78.099790399 73.278738976 36.392117828 77.334980669 72.684320009 36.56331626 76.479902587 73.21121081 36.529073653 
72.640898937 72.670907742 38.657220626 73.649778846 72.750104215 37.763567681 71.69969511 72.720290195 39.484244327 
71.095071699 72.9382952 40.221493276 70.715671947 73.867702713 40.196747199 94.822501245 74.989420504 41.774055818 
98.61808759 74.153023604 45.716300667 98.118540869 74.463152376 44.771291354 97.102501991 74.668070077 43.720098996 
86.147947533 76.038699762 69.309172736 95.988215808 74.802010622 42.689186577 72.299130697 73.934760591 38.368843101 
73.187693927 74.004266836 37.542617109 71.393217045 73.91558466 39.185922404 74.195633446 67.525835694 47.682936984 
73.792237341 68.112696075 48.987736763 84.679269406 83.938041631 70.129841789 102.3191696 74.825611261 52.171210413 
102.67258447 76.509615684 51.809117766 72.95697152 75.114559043 37.40256792 72.10608234 75.200200012 38.162588965 
74.766491818 73.215222601 36.991834773 
POLYGONS 1065 4256
OFFSETS vtktypeint64
0 4 8 12 16 20 24 28 32 
36 40 44 48 52 56 60 64 68 
72 76 80 84 88 92 96 100 104 
108 112 116 120 124 128 132 136 140 
144 148 152 156 160 164 168 172 176 
180 184 188 192 196 200 204 208 212 
216 220 224 228 232 236 240 244 248 
252 256 260 264 268 272 276 280 284 
288 292 296 300 304 308 312 316 320 
324 328 332 336 340 344 348 352 356 
360 364 368 372 376 380 384 388 392 
396 400 404 408 412 416 420 424 428 
432 436 440 444 448 452 456 460 464 
468 472 476 480 484 488 492 496 500 
504 508 512 516 520 524 528 532 536 
540 544 548 552 556 560 564 568 572 
576 580 584 588 592 596 600 604 608 
612 616 620 624 628 632 636 640 644 
648 652 656 660 664 668 672 676 680 
684 688 692 696 700 704 708 712 716 
720 724 728 732 736 740 744 748 752 
756 760 764 768 772 776 780 784 788 
792 796 800 804 808 812 816 820 824 
828 832 836 840 844 848 852 856 860 
864 868 872 876 880 884 888 892 896 
900 904 908 912 916 920 924 928 932 
936 940 944 948 952 956 960 964 968 
972 976 980 984 988 992 996 1000 1004 
1008 1012 1016 1020 1024 1028 1032 1036 1040 
1044 1048 1052 1056 1060 1064 1068 1072 1076 
1080 1084 1088 1092 1096 1100 1104 1108 1112 
1116 1120 1124 1128 1132 1136 1140 1144 1148 
1152 1156 1160 1164 1168 1172 1176 1180 1184 
1188 1192 1196 1200 1204 1208 1212 1216 1220 
1224 1228 1232 1236 1240 1244 1248 1252 1256 
1260 1264 1268 1272 1276 1280 1284 1288 1292 
1296 1300 1304 1308 1312 1316 1320 1324 1328 
1332 1336 1340 1344 1348 1352 1356 1360 1364 
1368 1372 1376 1380 1384 1388 1392 1396 1400 
1404 1408 1412 1416 1420 1424 1428 1432 1436 
1440 1444 1448 1452 1456 1460 1464 1468 1472 
1476 1480 1484 1488 1492 1496 1500 1504 1508 
1512 1516 1520 1524 1528 1532 1536 1540 1544 
1548 1552 1556 1560 1564 1568 1572 1576 1580 
1584 1588 1592 1596 1600 1604 1608 1612 1616 
1620 1624 1628 1632 1636 1640 1644 1648 1652 
1656 1660 1664 1668 1672 1676 1680 1684 1688 
1692 1696 1700 1704 1708 1712 1716 1720 1724 
1728 1732 1736 1740 1744 1748 1752 1756 1760 
1764 1768 1772 1776 1780 1784 1788 1792 1796 
1800 1804 1808 1812 1816 1820 1824 1828 1832 
1836 1840 1844 1848 1852 1856 1860 1864 1868 
1872 1876 1880 1884 1888 1892 1896 1900 1904 
1908 1912 1916 1920 1924 1928 1932 1936 1940 
1944 1948 1952 1956 1960 1964 1968 1972 1976 
1980 1984 1988 1992 1996 2000 2004 2008 2012 
2016 2020 2024 2028 2032 2036 2040 2044 2048 
2052 2056 2060 2064 2068 2072 2076 2080 2084 
2088 2092 2096 2100 2104 2108 2112 2116 2120 
2124 2128 2132 2136 2140 2144 2148 2152 2156 
2160 2164 2168 2172 2176 2180 2184 2188 2192 
2196 2200 2204 2208 2212 2216 2220 2224 2228 
2232 2236 2240 2244 2248 2252 2256 2260 2264 
2268 2272 2276 2280 2284 2288 2292 2296 2300 
2304 2308 2312 2316 2320 2324 2328 2332 2336 
2340 2344 2348 2352 2356 2360 2364 2368 2372 
2376 2380 2384 2388 2392 2396 2400 2404 2408 
2412 2416 2420 2424 2428 2432 2436 2440 2444 
2448 2452 2456 2460 2464 2468 2472 2476 2480 
2484 2488 2492 2496 2500 2504 2508 2512 2516 
2520 2524 2528 2532 2536 2540 2544 2548 2552 
2556 2560 2564 2568 2572 2576 2580 2584 2588 
2592 2596 2600 2604 2608 2612 2616 2620 2624 
2628 2632 2636 2640 2644 2648 2652 2656 2660 
2664 2668 2672 2676 2680 2684 2688 2692 2696 
2700 2704 2708 2712 2716 2720 2724 2728 2732 
2736 2740 2744 2748 2752 2756 2760 2764 2768 
2772 2776 2780 2784 2788 2792 2796 2800 2804 
2808 2812 2816 2820 2824 2828 2832 2836 2840 
2844 2848 2852 2856 2860 2864 2868 2872 2876 
2880 2884 2888 2892 2896 2900 2904 2908 2912 
2916 2920 2924 2928 2932 2936 2940 2944 2948 
2952 2956 2960 2964 2968 2972 2976 2980 2984 
2988 2992 2996 3000 3004 3008 3012 3016 3020 
3024 3028 3032 3036 3040 3044 3048 3052 3056 
3060 3064 3068 3072 3076 3080 3084 3088 3092 
3096 3100 3104 3108 3112 3116 3120 3124 3128 
3132 3136 3140 3144 3148 3152 3156 3160 3164 
3168 3172 3176 3180 3184 3188 3192 3196 3200 
3204 3208 3212 3216 3220 3224 3228 3232 3236 
3240 3244 3248 3252 3256 3260 3264 3268 3272 
3276 3280 3284 3288 3292 3296 3300 3304 3308 
3312 3316 3320 3324 3328 3332 3336 3340 3344 
3348 3352 3356 3360 3364 3368 3372 3376 3380 
3384 3388 3392 3396 3400 3404 3408 3412 3416 
3420 3424 3428 3432 3436 3440 3444 3448 3452 
3456 3460 3464 3468 3472 3476 3480 3484 3488 
3492 3496 3500 3504 3508 3512 3516 3520 3524 
3528 3532 3536 3540 3544 3548 3552 3556 3560 
3564 3568 3572 3576 3580 3584 3588 3592 3596 
3600 3604 3608 3612 3616 3620 3624 3628 3632 
3636 3640 3644 3648 3652 3656 3660 3664 3668 
3672 3676 3680 3684 3688 3692 3696 3700 3704 
3708 3712 3716 3720 3724 3728 3732 3736 3740 
3744 3748 3752 3756 3760 3764 3768 3772 3776 
3780 3784 3788 3792 3796 3800 3804 3808 3812 
3816 3820 3824 3828 3832 3836 3840 3844 3848 
3852 3856 3860 3864 3868 3872 3876 3880 3884 
3888 3892 3896 3900 3904 3908 3912 3916 3920 
3924 3928 3932 3936 3940 3944 3948 3952 3956 
3960 3964 3968 3972 3976 3980 3984 3988 3992 
3996 4000 4004 4008 4012 4016 4020 4024 4028 
4032 4036 4040 4044 4048 4052 4056 4060 4064 
4068 4072 4076 4080 4084 4088 4092 4096 4100 
4104 4108 4112 4116 4120 4124 4128 4132 4136 
4140 4144 4148 4152 4156 4160 4164 4168 4172 
4176 4180 4184 4188 4192 4196 4200 4204 4208 
4212 4216 4220 4224 4228 4232 4236 4240 4244 
4248 4252 4256 
CONNECTIVITY vtktypeint64
0 1 2 3 1 4 5 2 4 
6 7 5 6 8 9 7 8 10 
11 9 10 12 13 11 12 14 15 
13 14 16 17 15 16 18 19 17 
18 20 21 19 20 22 23 21 22 
24 25 23 24 26 27 25 26 28 
29 27 28 30 31 29 30 32 33 
31 32 34 35 33 34 36 37 35 
36 38 39 37 38 40 41 39 40 
42 43 41 42 44 45 43 44 46 
47 45 46 48 49 47 48 50 51 
49 50 52 53 51 52 54 55 53 
54 56 57 55 56 58 59 57 58 
60 61 59 60 62 63 61 62 64 
65 63 64 66 67 65 66 68 69 
67 68 70 71 69 70 72 73 71 
72 74 75 73 74 76 77 75 76 
78 79 77 78 80 81 79 80 82 
83 81 82 0 3 83 84 85 86 
87 85 88 89 86 88 90 91 89 
90 92 93 91 92 94 95 93 94 
96 97 95 96 98 99 97 98 100 
101 99 100 102 103 101 102 104 105 
103 104 106 107 105 106 108 109 107 
108 110 111 109 110 112 113 111 112 
114 115 113 114 116 117 115 116 118 
119 117 118 120 121 119 120 122 123 
121 122 124 125 123 124 126 127 125 
126 128 129 127 128 130 131 129 130 
132 133 131 132 134 135 133 134 136 
137 135 136 138 139 137 138 140 141 
139 140 142 143 141 142 144 145 143 
144 146 147 145 146 148 149 147 148 
150 151 149 150 152 153 151 152 154 
155 153 154 156 157 155 156 158 159 
157 158 160 161 159 160 162 163 161 
162 164 165 163 164 166 167 165 166 
168 169 167 168 170 171 169 170 172 
173 171 172 174 175 173 174 176 177 
175 176 178 179 177 178 180 181 179 
180 182 183 181 182 184 185 183 184 
186 187 185 186 188 189 187 188 190 
191 189 190 192 193 191 192 194 195 
193 194 196 197 195 196 198 199 197 
198 84 87 199 2 5 200 201 5 
7 202 200 7 9 203 202 9 11 
204 203 11 13 205 204 13 15 206 
205 15 17 207 206 17 19 208 207 
19 21 209 208 21 23 210 209 23 
25 211 210 25 27 212 211 27 29 
213 212 29 31 214 213 31 33 215 
214 33 35 216 215 35 37 217 216 
37 39 218 217 39 41 219 218 41 
43 220 219 43 45 221 220 45 47 
222 221 47 49 223 222 49 51 224 
223 51 53 225 224 53 55 226 225 
55 57 227 226 57 59 228 227 59 
61 229 228 61 63 230 229 63 65 
231 230 65 67 232 231 67 69 233 
232 69 71 234 233 71 73 235 234 
73 75 236 235 75 77 237 236 77 
79 238 237 79 81 239 238 81 83 
240 239 83 3 241 240 3 2 201 
241 86 89 242 243 89 91 244 242 
91 93 245 244 93 95 246 245 95 
97 247 246 97 99 248 247 99 101 
249 248 101 103 250 249 103 105 251 
250 105 107 252 251 107 109 253 252 
109 111 254 253 111 113 255 254 113 
115 256 255 115 117 257 256 117 119 
258 257 119 121 259 258 121 123 260 
259 123 125 261 260 125 127 262 261 
127 129 263 262 129 131 264 263 131 
133 265 264 135 137 266 267 137 139 
268 266 139 141 269 268 141 143 270 
269 143 145 271 270 145 147 272 271 
147 149 273 272 149 151 274 273 151 
153 275 274 153 155 276 275 155 157 
277 276 157 159 278 277 159 161 279 
278 161 163 280 279 163 165 281 280 
165 167 282 281 167 169 283 282 169 
171 284 283 171 173 285 284 173 175 
286 285 175 177 287 286 177 179 288 
287 179 181 289 288 181 183 290 289 
183 185 291 290 185 187 292 291 187 
189 293 292 189 191 294 293 191 193 
295 294 193 195 296 295 195 197 297 
296 197 199 298 297 199 87 299 298 
87 86 243 299 133 135 267 300 265 
133 300 301 203 204 302 303 204 205 
304 302 205 206 305 304 206 207 306 
305 207 208 307 306 208 209 308 307 
209 210 309 308 210 211 310 309 211 
212 311 310 212 213 312 311 213 214 
313 312 214 215 314 313 215 216 315 
314 216 217 316 315 217 218 317 316 
218 219 318 317 219 220 319 318 220 
221 320 319 221 222 321 320 222 223 
322 321 224 225 323 324 225 226 325 
323 226 227 326 325 227 228 327 326 
228 229 328 327 229 230 329 328 230 
231 330 329 231 232 331 330 232 233 
332 331 233 234 333 332 234 235 334 
333 235 236 335 334 236 237 336 335 
237 238 337 336 238 239 338 337 239 
240 339 338 240 241 340 339 241 201 
341 340 201 200 342 341 223 224 324 
343 322 223 343 344 301 300 345 346 
300 267 266 345 266 268 347 345 268 
269 348 347 269 270 349 348 270 271 
350 349 271 272 351 350 272 273 352 
351 273 274 353 352 275 276 354 355 
276 277 356 354 277 278 357 356 278 
279 358 357 279 280 359 358 280 281 
360 359 281 282 361 360 282 283 362 
361 283 284 363 362 284 285 364 363 
285 286 365 364 286 287 366 365 287 
288 367 366 288 289 368 367 289 290 
369 368 290 291 370 369 291 292 371 
370 292 293 372 371 293 294 373 372 
294 295 374 373 295 296 375 374 296 
297 376 375 297 298 377 376 298 299 
378 377 299 243 379 378 243 242 380 
379 242 244 381 380 244 245 382 381 
245 246 383 382 246 247 384 383 247 
248 385 384 248 249 386 385 249 250 
387 386 250 251 388 387 251 252 389 
388 252 253 390 389 253 254 391 390 
254 255 392 391 255 256 393 392 256 
257 394 393 257 258 395 394 258 259 
396 395 259 260 397 396 260 261 398 
397 261 262 399 398 262 263 400 399 
263 264 401 400 264 265 402 401 265 
301 403 402 301 346 404 403 346 405 
406 404 346 345 347 405 274 275 355 
407 353 274 407 408 344 343 409 410 
343 324 411 409 324 323 412 411 323 
325 413 412 325 326 414 413 326 327 
415 414 327 328 416 415 328 329 417 
416 329 330 418 417 330 331 419 418 
331 332 420 419 332 333 421 420 333 
334 422 421 334 335 423 422 335 336 
424 423 337 338 425 426 338 339 427 
425 339 340 428 427 340 341 429 428 
341 342 430 429 303 302 431 432 302 
304 433 431 304 305 434 433 305 306 
435 434 306 307 436 435 307 308 437 
436 308 309 438 437 309 310 439 438 
310 311 440 439 311 312 441 440 312 
313 442 441 313 314 443 442 314 315 
444 443 315 316 445 444 316 317 446 
445 317 318 447 446 318 319 448 447 
319 320 449 448 320 321 450 449 321 
322 451 450 322 344 452 451 344 410 
453 452 410 454 455 453 410 409 456 
454 457 303 432 458 459 457 458 460 
336 337 426 461 424 336 461 462 347 
348 463 405 348 349 464 463 349 350 
465 464 350 351 466 465 351 352 467 
466 352 353 468 467 353 408 469 468 
408 470 471 469 408 407 472 470 407 
355 473 472 355 354 474 473 354 356 
475 474 356 357 476 475 357 358 477 
476 358 359 478 477 359 360 479 478 
360 361 480 479 361 362 481 480 362 
363 482 481 363 364 483 482 364 365 
484 483 365 366 485 484 366 367 486 
485 367 368 487 486 368 369 488 487 
369 370 489 488 370 371 490 489 371 
372 491 490 372 373 492 491 373 374 
493 492 374 375 494 493 375 376 495 
494 376 377 496 495 377 378 497 496 
378 379 498 497 379 380 499 498 380 
381 500 499 381 382 501 500 382 383 
502 501 383 384 503 502 384 385 504 
503 385 386 505 504 386 387 506 505 
387 388 507 506 388 389 508 507 389 
390 509 508 390 391 510 509 391 392 
511 510 392 393 512 511 393 394 513 
512 395 396 514 515 396 397 516 514 
397 398 517 516 398 399 518 517 399 
400 519 518 400 401 520 519 401 402 
521 520 402 403 522 521 403 404 523 
522 404 406 524 523 406 525 526 524 
406 405 527 525 405 463 528 527 463 
464 529 528 464 465 530 529 465 466 
531 530 466 467 532 531 522 523 533 
534 523 524 535 533 524 526 536 535 
526 537 538 536 526 525 539 537 525 
527 540 539 527 528 541 540 528 529 
542 541 529 530 543 542 530 531 544 
543 531 532 545 544 394 395 515 546 
513 394 546 547 409 411 548 456 411 
412 549 548 412 413 550 549 413 414 
551 550 414 415 552 551 415 416 553 
552 416 417 554 553 417 418 555 554 
418 419 556 555 419 420 557 556 420 
421 558 557 421 422 559 558 422 423 
560 559 423 424 561 560 424 462 562 
561 462 563 564 562 462 461 565 563 
461 426 566 565 426 425 567 566 425 
427 568 567 427 428 569 568 428 429 
570 569 429 430 571 570 430 572 573 
571 572 574 575 573 574 459 576 575 
459 460 577 576 460 458 578 577 458 
432 579 578 432 431 580 579 431 433 
581 580 433 434 582 581 434 435 583 
582 435 436 584 583 436 437 585 584 
437 438 586 585 438 439 587 586 439 
440 588 587 440 441 589 588 442 443 
590 591 443 444 592 590 444 445 593 
592 445 446 594 593 446 447 595 594 
447 448 596 595 448 449 597 596 449 
450 598 597 450 451 599 598 451 452 
600 599 452 453 601 600 453 455 602 
601 455 603 604 602 455 454 605 603 
454 456 606 605 441 442 591 607 589 
441 607 608 469 471 609 610 471 611 
612 609 471 470 613 611 470 472 614 
613 472 473 615 614 473 474 616 615 
474 475 617 616 475 476 618 617 476 
477 619 618 477 478 620 619 478 479 
621 620 479 480 622 621 480 481 623 
622 481 482 624 623 482 483 625 624 
483 484 626 625 484 485 627 626 485 
486 628 627 486 487 629 628 487 488 
630 629 488 489 631 630 489 490 632 
631 490 491 633 632 491 492 634 633 
492 493 635 634 493 494 636 635 494 
495 637 636 495 496 638 637 497 498 
639 640 498 499 641 639 499 500 642 
641 500 501 643 642 501 502 644 643 
502 503 645 644 503 504 646 645 504 
505 647 646 505 506 648 647 506 507 
649 648 507 508 650 649 508 509 651 
650 509 510 652 651 510 511 653 652 
511 512 654 653 512 513 655 654 513 
547 656 655 547 657 658 656 547 546 
659 657 546 515 660 659 515 514 661 
660 514 516 662 661 516 517 663 662 
517 518 664 663 518 519 665 664 519 
520 521 665 496 497 640 666 638 496 
666 667 610 609 668 545 609 612 669 
668 612 670 671 669 612 611 672 670 
611 613 673 672 613 614 674 673 614 
615 675 674 615 616 676 675 616 617 
677 676 617 618 678 677 618 619 679 
678 619 620 680 679 620 621 681 680 
621 622 682 681 622 623 683 682 623 
624 684 683 624 625 685 684 625 626 
686 685 626 627 687 686 627 628 688 
687 628 629 689 688 629 630 690 689 
630 631 691 690 631 632 692 691 632 
633 693 692 633 634 694 693 634 635 
695 694 635 636 696 695 636 637 697 
696 637 638 698 697 638 667 699 698 
667 700 701 699 667 666 702 700 666 
640 703 702 640 639 704 703 639 641 
705 704 641 642 706 705 642 643 707 
706 643 644 708 707 644 645 709 708 
645 646 710 709 646 647 711 710 647 
648 712 711 648 649 713 712 649 650 
714 713 650 651 715 714 651 652 716 
715 652 653 717 716 653 654 718 717 
654 655 656 718 656 658 719 718 658 
720 721 719 658 657 722 720 657 659 
723 722 659 660 724 723 660 661 725 
724 661 662 726 725 662 663 727 726 
663 664 728 727 664 665 534 728 665 
521 522 534 456 548 729 606 548 549 
730 729 549 550 731 730 550 551 732 
731 551 552 733 732 552 553 734 733 
553 554 735 734 554 555 736 735 555 
556 737 736 556 557 738 737 557 558 
739 738 558 559 740 739 559 560 741 
740 560 561 742 741 561 562 743 742 
562 564 744 743 564 745 746 744 564 
563 747 745 563 565 748 747 565 566 
749 748 566 567 750 749 567 568 751 
750 568 569 752 751 569 570 753 752 
570 571 754 753 571 573 755 754 573 
575 756 755 575 576 757 756 576 577 
758 757 577 578 759 758 578 579 760 
759 579 580 761 760 580 581 762 761 
581 582 763 762 582 583 764 763 583 
584 765 764 584 585 766 765 585 586 
767 766 586 587 768 767 587 588 769 
768 588 589 770 769 589 608 771 770 
608 772 773 771 608 607 774 772 607 
591 775 774 591 590 776 775 590 592 
777 776 592 593 778 777 593 594 779 
778 594 595 780 779 595 596 781 780 
596 597 782 781 597 598 783 782 598 
599 784 783 599 600 785 784 600 601 
786 785 601 602 787 786 602 604 788 
787 604 789 790 788 604 603 791 789 
603 605 792 791 605 606 793 792 674 
675 794 673 675 676 795 794 676 677 
796 795 677 678 797 796 678 679 798 
797 679 680 799 798 680 681 800 799 
681 682 801 800 682 683 802 801 683 
684 803 802 685 686 804 805 686 687 
806 804 687 688 807 806 688 689 808 
807 689 690 809 808 690 691 810 809 
691 692 811 810 692 693 812 811 693 
694 813 812 694 695 814 813 695 696 
815 814 696 697 816 815 697 698 817 
816 698 699 818 817 699 701 819 818 
701 820 821 819 701 700 822 820 700 
702 823 822 702 703 824 823 703 704 
825 824 704 705 826 825 705 706 827 
826 706 707 828 827 707 708 829 828 
708 709 830 829 709 710 831 830 710 
711 832 831 711 712 833 832 713 714 
834 835 714 715 836 834 715 716 837 
836 716 717 838 837 717 718 719 838 
684 685 805 839 803 684 839 840 719 
721 841 838 721 842 843 841 721 720 
844 842 720 722 845 844 722 723 846 
845 723 724 725 846 606 729 847 793 
729 730 848 847 730 731 849 848 731 
732 850 849 732 733 851 850 733 734 
852 851 734 735 853 852 735 736 854 
853 736 737 855 854 737 738 856 855 
738 739 857 856 739 740 858 857 740 
741 859 858 741 742 860 859 744 746 
861 860 746 862 863 861 746 745 864 
862 745 747 865 864 747 748 866 865 
748 749 867 866 749 750 868 867 750 
751 869 868 751 752 870 869 752 753 
871 870 753 754 872 871 754 755 873 
872 755 756 874 873 756 757 875 874 
757 758 876 875 758 759 877 876 759 
760 878 877 760 761 879 878 761 762 
880 879 762 763 881 880 763 764 882 
881 764 765 883 882 765 766 884 883 
766 767 885 884 767 768 886 885 768 
769 887 886 769 770 888 887 770 771 
889 888 771 773 890 889 773 891 892 
890 773 772 893 891 772 774 894 893 
774 775 895 894 775 776 896 895 776 
777 897 896 777 778 898 897 778 779 
899 898 779 780 900 899 780 781 901 
900 781 782 902 901 782 783 903 902 
783 784 904 903 784 785 905 904 785 
786 906 905 786 787 907 906 787 788 
908 907 788 790 909 908 790 910 911 
909 791 792 912 789 534 533 913 728 
533 535 914 913 535 536 915 914 536 
538 916 915 538 917 901 916 538 537 
918 917 537 539 919 918 539 540 920 
919 540 541 921 920 541 542 922 921 
542 543 923 922 543 544 924 923 544 
545 668 924 668 669 925 924 669 671 
926 925 671 927 928 926 671 670 929 
927 670 672 930 929 672 673 794 930 
847 848 931 932 848 849 933 931 849 
850 934 933 850 851 935 934 851 852 
936 935 852 853 937 936 853 854 938 
937 854 855 939 938 855 856 940 939 
856 857 941 940 857 858 942 941 858 
859 943 942 859 860 861 943 863 944 
945 946 863 862 947 944 862 864 948 
947 864 865 949 948 865 866 950 949 
866 867 951 950 867 868 952 951 868 
869 953 952 869 870 954 953 870 871 
955 954 871 872 956 955 873 874 957 
958 874 875 959 957 875 876 960 959 
876 877 961 960 877 878 962 961 878 
879 963 962 879 880 964 963 880 881 
965 964 881 882 966 965 883 884 967 
968 884 885 969 967 885 886 970 969 
886 887 971 970 887 888 972 971 888 
889 973 972 889 890 974 973 890 892 
975 974 892 928 927 975 882 883 968 
966 872 873 958 976 956 872 976 977 
712 713 835 978 833 712 978 979 725 
726 980 846 726 727 981 980 727 728 
982 981 728 913 983 982 913 914 984 
983 914 915 985 984 915 916 986 985 
916 901 902 986 794 795 987 930 795 
796 988 987 796 797 989 988 797 798 
990 989 798 799 991 990 799 800 992 
991 800 801 993 992 801 802 994 993 
802 803 995 994 803 840 966 995 966 
840 996 965 840 839 997 996 839 805 
998 997 805 804 999 998 804 806 1000 
999 806 807 1001 1000 807 808 1002 1001 
808 809 1003 1002 809 810 1004 1003 810 
811 1005 1004 811 812 1006 1005 812 813 
1007 1006 813 814 1008 1007 814 815 1009 
1008 815 816 1010 1009 816 817 1011 1010 
817 818 1012 1011 818 819 1013 1012 819 
821 1014 1013 821 820 1015 1016 820 822 
1017 1015 822 823 1018 1017 823 824 1019 
1018 824 825 1020 1019 825 826 944 1020 
826 827 945 944 827 828 946 945 902 
903 904 986 924 925 1021 923 925 926 
1022 1021 926 928 1023 1022 928 892 891 
1023 891 893 1024 1023 893 894 1025 1024 
894 895 1026 1025 895 896 1027 1026 896 
897 1028 1027 897 898 1029 1028 898 899 
1030 1029 899 900 1031 1030 900 901 917 
1031 828 829 1032 946 829 830 1033 1032 
830 831 1034 1033 831 832 1035 1034 832 
833 1036 1035 833 979 1037 1036 979 1038 
1039 1037 979 978 1040 1038 978 835 1041 
1040 835 834 1042 1041 834 836 1043 1042 
836 837 1044 1043 837 838 841 1044 904 
905 985 986 917 918 1030 1031 841 843 
1045 1044 843 1046 1047 1045 843 842 1048 
1046 842 844 1049 1048 845 846 980 911 
980 981 909 911 981 982 908 909 982 
983 907 908 984 985 905 906 906 907 
983 984 918 919 1029 1030 919 920 1050 
1029 920 921 1051 1050 921 922 1052 1051 
922 923 1021 1052 927 929 1053 975 929 
930 987 1053 965 996 1054 964 998 999 
1055 1054 999 1000 1056 1055 1000 1001 1057 
1056 1001 1002 1058 1057 1002 1003 1059 1058 
1003 1004 1060 1059 1004 1005 1061 1060 1005 
1006 1062 1061 1006 1007 1063 1062 1007 1008 
1064 1063 1008 1009 1065 1064 1012 1013 1066 
1067 1015 1017 1068 1069 1017 1018 1070 1068 
1018 1019 1020 1070 1020 944 947 1070 987 
988 1071 1053 988 989 1072 1071 989 990 
1073 1072 990 991 1074 1073 991 992 1075 
1074 992 993 1076 1075 993 994 1077 1076 
994 995 1078 1077 995 966 968 1078 947 
948 1068 1070 968 967 1079 1078 967 969 
1080 1079 969 970 1081 1080 970 971 1082 
1081 971 972 1083 1082 972 973 1084 1083 
973 974 1085 1084 974 975 1053 1085 948 
949 1069 1068 1040 1041 1086 1038 1041 1042 
1087 1086 1042 1043 1088 1087 1043 1044 1045 
1088 949 950 1089 1069 950 951 1090 1089 
951 952 1091 1090 953 954 1092 1093 954 
955 1094 1092 955 956 1095 1094 956 977 
1096 1095 977 1063 1064 1096 977 976 1062 
1063 976 958 1061 1062 958 957 1060 1061 
957 959 1059 1060 959 960 1058 1059 960 
961 1057 1058 1032 1033 943 861 1033 1034 
942 943 1034 1035 941 942 1035 1036 1037 
941 1037 1039 940 941 789 912 910 790 
932 931 1048 1049 931 933 1046 1048 940 
1039 1097 939 1039 1038 1086 1097 961 962 
1056 1057 933 934 1047 1046 1045 1047 1098 
1099 1047 934 935 1098 935 936 1099 1098 
962 963 1055 1056 936 937 1100 1099 1023 
1024 1101 1022 1024 1025 1026 1101 1026 1027 
1052 1101 1027 1028 1051 1052 1028 1029 1050 
1051 937 938 1102 1100 939 1097 1102 938 
1086 1087 1102 1097 1021 1022 1101 1052 1053 
1071 1084 1085 1071 1072 1083 1084 1089 1090 
1091 1016 1093 1092 1103 1104 1092 1094 1105 
1103 1094 1095 1096 1105 1064 1065 1105 1096 
1072 1073 1082 1083 1073 1074 1081 1082 1074 
1075 1080 1081 1079 1080 1075 1076 1076 1077 
1078 1079 342 1106 572 430 1106 1107 574 
572 1107 457 459 574 1106 342 200 202 
1107 1106 202 203 457 1107 203 303 467 
468 1108 532 468 469 610 1108 1108 610 
545 532 743 744 860 742 861 863 946 
1032 792 793 1109 912 793 847 932 1109 
1109 932 1049 1110 912 1109 1110 910 910 
1110 845 911 1110 1049 844 845 1016 1015 
1069 1089 1016 1091 1014 821 1067 1111 1011 
1012 1111 1112 1010 1011 1112 1065 1009 1010 
1065 1112 1103 1105 1102 1087 1088 1100 1100 
1088 1045 1099 1054 1055 963 964 1054 996 
997 998 1104 1066 1113 1093 1066 1013 1014 
1113 1113 1014 1091 952 1093 1113 952 953 
1104 1103 1112 1111 1111 1067 1066 1104 
CELL_DATA 1064
FIELD FieldData 6
Stress_X 1 1064 double
0.013664217666 0.0077539435588 0.0039037568495 0.0020584415179 -0.0010182993719 0.0027472511865 -1.7357220713e-05 -0.00024645964731 0.00082166504581 
0.0020402900409 0.0030746608973 0.0032333428971 0.0042319134809 0.0048437993973 0.0055309603922 0.0059372326359 0.0059434538707 0.005570824258 
0.0047877524048 0.0040017138235 0.0039667268284 0.0045964038 0.0052652303129 0.0056043355726 0.0058936811984 0.0043503474444 0.0019506824901 
0.0007786025526 0.00018349963648 -2.5948438633e-05 -0.00058438413544 -0.0013298300328 -0.0013846575748 -0.0012378089596 -0.00086313171778 3.1631869206e-05 
0.0012087631039 0.0031836482231 0.0061625982635 0.0094270268455 0.011501263827 0.012364230119 0.0058686654083 0.0034991921857 0.0016544072423 
0.00044882509974 -0.00057667458896 -0.00093686842592 -0.00065433618147 -0.00028343923623 0.00011226972128 0.00088442751439 0.0024721105583 0.0053246999159 
0.0068139950745 0.0068939002231 0.0061461785808 0.0054106800817 0.0055433670059 0.0063088126481 0.0069641699083 0.0074963462539 0.0066379024647 
0.0050974083133 0.0033887010068 0.0017474270426 0.00034619148937 -0.00045546228648 0.0010209069587 0.0034137712792 0.0066193975508 0.010050700977 
0.013012907468 0.016148557886 0.018737813458 0.020392151549 0.015918023884 0.010331408121 0.0051977019757 0.0012042032322 -0.0044597359374 
-0.0033263706136 -0.0033804089762 -0.003130097175 -0.0024444742594 -0.0018640528433 0.00094428897137 0.0029306162614 0.0033658633474 0.0034902123734 
0.0035546331201 0.0034262791742 0.0040909904055 0.0054446943104 0.0072840549983 0.0097457943484 0.011231072247 0.012828687206 0.012314239517 
0.0092645287514 0.0060280286707 0.0044923056848 0.0034059367608 0.0023390280548 0.0014016220812 0.0035800961778 0.0044341930188 0.00508932909 
0.0066018546931 0.0084029119462 0.0098112868145 0.0098307430744 0.010417764075 0.011031111702 0.011550660245 0.011531952769 0.010377324186 
0.0086786746979 0.0071769570932 0.0054607656784 0.0042410404421 0.0035226042382 0.0026398471091 0.002630891744 0.00181912072 0.0019802276511 
0.0030453810468 0.0036640325561 0.0042988127097 0.0053727054037 0.0062552248128 0.00678319484 0.0080530252308 0.0094415750355 0.010391329415 
0.010306800716 0.010013588704 0.010497043841 0.011997064576 0.013764874078 0.013747626916 0.0096533559263 0.012319039553 0.011575363576 
0.0111142518 0.011047947221 0.010482829995 0.0095772230998 0.0091122994199 0.0087951477617 0.0089042065665 0.0090974131599 0.0067068915814 
0.0052524339408 0.0044455528259 0.0035614678636 0.0023585776798 0.001847229898 0.0015534420963 0.00091911351774 0.00078342237975 0.001414677361 
0.00383594702 0.0065500871278 0.0071667674929 0.0088000120595 0.01044819504 0.013696532696 0.016287716106 0.016591012478 0.016518894583 
0.016043512151 0.015609804541 0.01609101519 0.01541176904 0.011277089827 0.0087357470766 0.0075555588119 0.0076042348519 0.0072488309816 
0.0086050080135 0.0085325818509 0.0072483746335 0.0063086180016 0.0043779234402 0.0017676925054 0.0021132000256 0.0022019317839 0.0020774912555 
0.0024262932129 0.0036591542885 0.0045985262841 0.005685578566 0.0078547699377 0.010019309819 0.012218140066 0.013693540357 0.014342390001 
0.013676978648 0.0082364482805 0.0071730054915 0.0019194371998 0.0019898184109 0.0017955465009 0.0030364808626 0.0047787036747 0.007152275648 
0.01012016926 0.011797518469 0.011783818714 0.011788050644 0.012616625056 0.013095716015 0.013398916461 0.013045432977 0.011540465988 
0.0089538991451 0.0064774523489 0.0042868563905 0.0026538302191 0.0022561049554 0.0020377128385 0.0015890584327 0.0020011155866 0.0027656394523 
0.0037298081443 0.0052624759264 0.0068419515155 0.0083986688405 0.010147097521 0.011814654805 0.0127696665 0.012728935108 0.011926144361 
0.010692665353 0.01090616174 0.012252871878 0.014608895406 0.017732720822 0.014056996442 0.0034341169521 0.0024389706086 0.0086324000731 
0.0078916847706 0.010264242999 0.012670942582 0.014433107339 0.015600904822 0.015380434692 0.014410572127 0.013357526623 0.012550339103 
0.01083418075 0.0092635676265 0.0085041532293 0.0081135500222 0.0088167134672 0.0089217005298 0.0077268960886 0.0059289406054 0.0043341079727 
0.0032127294689 0.0022194921039 0.0020070245955 0.0018704006216 0.0021311317105 0.0026906293351 0.0035548566375 0.0049227452837 0.0067240302451 
0.0087690213695 0.010836746544 0.013217678294 0.014640371315 0.014872587286 0.015337412246 0.015902807936 0.01627526246 0.016580212861 
0.016107117757 0.014384567738 0.011967211962 0.010853709653 0.010322169401 0.0096753947437 0.0092585366219 0.0083239525557 0.0066049620509 
0.005136158783 0.0035299952142 0.0022353834938 0.0019557503983 0.0021966302302 0.0021415308584 0.0022203973494 0.0029141334817 0.0041706957854 
0.0052385008894 0.0062392051332 0.008169433102 0.0094306385145 0.0088988915086 0.0091752177104 0.012912554666 0.01061277464 0.0030729640275 
0.0025609524455 0.0018476961413 0.0013237075182 0.0017938448582 0.0028277011588 0.0042579513974 0.0060772891156 0.0082140676677 0.010228578933 
0.012075677514 0.013766643591 0.014613252133 0.014590387233 0.01328065712 0.0091463215649 0.0094102965668 0.010613448918 0.013684988022 
0.014428776689 0.0020881916862 0.001842159545 0.0029497134965 0.004837599583 0.007117588073 0.0096539631486 0.01256024465 0.014703021385 
0.014258105308 0.013831353746 0.01366115734 0.014016979374 0.014514129609 0.014503631741 0.01322471723 0.011239543557 0.0088589796796 
0.0063958982937 0.0037449849769 0.002062224783 0.0016208244488 0.0031121515203 0.0036067042965 0.0028101843782 0.0025565726683 0.0030531624798 
0.010108315386 0.012204209343 0.010070051067 0.011134346947 0.011570746079 0.011586408131 0.011169725098 0.0099161555991 0.0092008970678 
0.0084796603769 0.0088934507221 0.0094694076106 0.010260231793 0.0098702851683 0.0092665012926 0.0084644369781 0.0077504441142 0.0081085050479 
0.0092035084963 0.0071980892681 0.0050823474303 0.0045376089402 0.0033396549989 0.0018648330588 0.0016523988452 0.0020135021769 0.0022709746845 
0.0025460761972 0.0033158981241 0.0047717359848 0.0064066755585 0.0081043038517 0.0098474603146 0.01219216641 0.013401607051 0.014319780283 
0.015525101684 0.017077110708 0.019255485386 0.020427932963 0.019923686981 0.017324184999 0.014250858687 0.012048258446 0.011108200997 
0.010081595741 0.0092615364119 0.0082860765979 0.0069857407361 0.0054093324579 0.0039035163354 0.0028574576136 0.0020012306049 0.0021645750385 
0.0026458301581 0.0031798609998 0.0044529070146 0.0053600519896 0.0070879505947 0.0082693006843 0.0082494057715 0.0084032583982 0.0079941982403 
0.007627998013 0.0078560272232 0.0086599588394 0.0092017492279 0.0094123119488 0.0091124344617 0.0067119090818 0.0070613659918 0.007575952448 
0.0065641771071 0.0078195175156 0.007679627277 0.0072361151688 0.007698178757 0.0089411102235 0.009365318343 0.0091810459271 0.0019371967064 
0.0021282047965 0.0019802919123 0.001351320534 0.00122153759 0.0018294219626 0.0029751430266 0.0046784318984 0.0068805748597 0.0090960031375 
0.010948296636 0.012764153071 0.01440607477 0.015343420208 0.016110826284 0.016032459214 0.014775889926 0.013430558145 0.011533732526 
0.0098146283999 0.0086085628718 0.007603103295 0.0073405145667 0.0091129429638 0.0099796345457 0.0093241799623 0.0072101037949 0.0050011905842 
0.0036528944038 0.0028091184795 0.0020157918334 0.0013451103587 0.0014652304817 0.0025128235575 0.0044993888587 0.0075257858261 0.011418288574 
0.01537703909 0.017068769783 0.016377218068 0.015005372465 0.015156679787 0.015792822465 0.015412273817 0.014689188451 0.013089923188 
0.010902968235 0.0086090862751 0.0064577949233 0.0039011510089 0.0035038858186 0.0041443351656 0.0043905396014 0.0033291359432 0.002912494354 
0.002261105692 0.014998706058 0.014664776623 0.008126414381 0.0075451107696 0.0079718120396 0.0086648203433 0.0090319858864 0.0093138758093 
0.0091164913028 0.0084874378517 0.0077414973639 0.0066002137028 0.0061376681551 0.0060603283346 0.0050717890263 0.0040510897525 0.0043282341212 
0.0037611874286 0.0018603418721 0.0016842989717 0.0022786448244 0.0025280592963 0.0025489928667 0.003257767763 0.0041876430623 0.0057060364634 
0.0070501673035 0.0085985343903 0.01029172726 0.01130060479 0.015310802497 0.017562137917 0.020164446905 0.021737597883 0.021220332012 
0.019011719152 0.016478180885 0.014823697507 0.012999997474 0.011353761889 0.0095015997067 0.0079175643623 0.0064176446758 0.0051990314387 
0.0038860561326 0.0031333176885 0.0027014368679 0.0023739454336 0.0020220184233 0.0018820334226 0.0017750358675 0.0021733271424 0.0030013527721 
0.00381383067 0.0051102573052 0.0062452624552 0.0132808825 0.010945386253 0.0083049312234 0.0076060867868 0.00648910366 0.0068787178025 
0.0072703915648 0.0079151298851 0.0084629319608 0.008317347616 0.0080096991733 0.0071941111237 0.0062130871229 0.0049413833767 0.0043398793787 
0.0041086059064 0.0031732071657 0.0031112434808 0.0041441516951 0.0040930844843 0.0022192294709 0.0014800960198 0.001913840184 0.0025419914164 
0.0025216566864 0.0026593306102 0.0035439825151 0.0046538873576 0.0057741748169 0.0067698997445 0.0078381290659 0.008369567804 0.0092482436448 
0.0096043720841 0.011108769104 0.012666263618 0.014914076775 0.017198098823 0.019706081599 0.021223835647 0.021303413436 0.020576041192 
0.019524579868 0.018026236445 0.01570276916 0.012759961188 0.010005722754 0.0077791772783 0.0061844862066 0.0048691867851 0.0038464905228 
0.0031267877202 0.0030350948218 0.002679706784 0.002185935853 0.0016901220661 0.00087435002206 0.0023370140698 0.0023756735027 0.0031090378761 
0.0041637406684 0.0053612207994 0.0063609047793 0.0014169847127 0.0011794415768 0.0014582094736 0.0022296882235 0.0035295670386 0.0053790053353 
0.0076322825626 0.0098219048232 0.011951199733 0.013833461329 0.015056401491 0.016212539747 0.017193038017 0.01712853834 0.0159316957 
0.01512329001 0.014279976487 0.012381291948 0.010567640886 0.0091260410845 0.0079811541364 0.007424110081 0.0067785819992 0.006637213286 
0.0071453377604 0.0067875850946 0.0058482727036 0.0044609140605 0.0030898221303 0.0023436406627 0.0015857436229 0.001290146145 0.001683406299 
0.0027256768662 0.004663577769 0.007633142639 0.012162833475 0.016626009718 0.017671396956 0.01603099145 0.014641514979 0.012819586322 
0.011422153562 0.014130231924 0.016763068736 0.017386155203 0.017272554338 0.017415247858 0.015980888158 0.014281513169 0.012109223753 
0.010205325671 0.0076436903328 0.0055323205888 0.0048874588683 0.0044322521426 0.0039238720201 0.0037982533686 0.002909746021 0.0010940394131 
0.002379286103 0.0018711985322 0.0072945593856 0.0076105287299 0.0069875800982 0.0060361605138 0.0050283051096 0.0040028458461 0.0034487380181 
0.0037080266047 0.0032990169711 0.0035112393089 0.0038793147542 0.0020981254056 0.0017173006199 0.0020824598614 0.0023952696938 0.0020577379037 
0.0022136326879 0.0027334867045 0.0034261329565 0.0040929368697 0.0050743180327 0.0060501126572 0.0074390731752 0.0078941183165 0.009002991952 
0.0097849508747 0.010505294427 0.01138664037 0.01274791453 0.014431011863 0.016361994669 0.018360331655 0.020068522543 0.020829072222 
0.021137807518 0.020424863324 0.01872949861 0.016595227644 0.010413727723 0.0079448353499 0.0060570733622 0.0046891174279 0.0037410110235 
0.0041517824866 0.0045773480088 0.0034898889717 0.0033022216521 0.0024278992787 0.0019118748605 0.0017802586081 0.0018156922888 0.0013142351527 
0.0013738957932 0.0019035300938 0.0027683610097 0.0041073621251 0.0058865579776 0.007953280583 0.010206305422 0.013034168631 0.015123488382 
0.016220785677 0.017059540376 0.018003379926 0.017999738455 0.016613524407 0.016179140657 0.013346851803 0.011370507069 0.010009992868 
0.0088688731194 0.0076970546506 0.0068153538741 0.0056487792172 0.0049260305241 0.0044707828201 0.0045299534686 0.004280236084 0.0036261898931 
0.0026338982861 0.0017531975172 0.0013203825802 0.0014921316179 0.0019968226552 0.0036735835019 0.0051974286325 0.0074485214427 0.011336765252 
0.015252192505 0.0155370133 0.013843595982 0.012139645405 0.010723072104 0.0092931529507 0.0084426868707 0.010507741943 0.012902171351 
0.015515759587 0.018167415634 0.018582796678 0.017090326175 0.015623851679 0.013536949642 0.010763240047 0.0078827533871 0.0066512767226 
0.0055196019821 0.0046128230169 0.0042833187617 0.0037381872535 0.0038867043331 0.0033086533658 0.0029984915163 0.0017505518626 0.0053187184967 
0.005873428192 0.0057942303829 0.0045041539706 0.0058494694531 0.005070141051 0.0065448353998 0.0070225032978 0.0069563663565 0.0066984919831 
0.007719325833 0.0086659593508 0.0087822722271 0.00755017763 0.0065092863515 0.0054512522183 0.005731950514 0.0060218586586 0.0069513972849 
0.0016564413672 0.0024196659215 0.003313458059 0.0045260153711 0.0061246370897 0.0079218158498 0.010140934959 0.013430038467 0.016189333051 
0.017704706639 0.019006414339 0.019790556282 0.018902644515 0.017231514677 0.015040946193 0.012750962749 0.010703672655 0.0094056194648 
0.0087192486972 0.0080170957372 0.0065924450755 0.0051917620003 0.0041295601986 0.0034064173233 0.0029950640164 0.0027594382409 0.0021158331074 
0.0013878378086 0.0013318757992 0.0022187652066 0.0034979202319 0.0043123150244 0.0054151639342 0.0096202092245 0.011935541406 0.012634317391 
0.010937867686 0.009695135057 0.0088367927819 0.0077525894158 0.0066207135096 0.0060851201415 0.0068926233798 0.002757913433 0.0027690771967 
0.014005799778 0.015826337039 0.0023423710372 0.0028747129254 0.003945868928 0.0047686020844 0.0052360477857 0.0046182507649 0.0051156203263 
0.0067541720346 0.00667680474 0.0063520609401 0.0052294316702 0.0044809472747 0.0040687192231 0.0037131526042 0.0036324746907 0.0040432368405 
0.0046464968473 0.0052119819447 0.0053087361157 0.0048644971102 0.0048285201192 0.0039400523528 0.0024965377524 0.0018923090538 0.00200842903 
0.0019552155863 0.0018931714585 0.0020597677212 0.0024171336554 0.0030080401339 0.0037231424358 0.0046245492995 0.0058711799793 0.006845460739 
0.0078685805202 0.0085833687335 0.0086562316865 0.0098957624286 0.010906706564 0.011993151158 0.012974378653 0.014015696943 0.015488762408 
0.017408974469 0.01888958551 0.0052544847131 0.0073832110502 0.0056892931461 0.0072072180919 0.0070898141712 0.0094804661348 0.011684937403 
0.012920959853 0.013928213157 0.014878544956 0.013859894127 0.011764715426 0.010519679636 0.008164525032 0.019577467814 0.019528657198 
0.019051529467 0.017921039835 0.017336202785 0.016905415803 0.016197012737 0.015693895519 0.013595382683 0.010911779478 0.0081517985091 
0.0059890476987 0.0045086247846 0.0052717509679 0.0068448772654 0.0044345473871 0.0043678870425 0.0033287149854 0.0023567134049 0.0026298901066 
0.003175226273 0.003592782421 0.0041809948161 0.0049341889098 0.0044322847389 0.0070987963118 0.0070515605621 0.0075261876918 0.0081896176562 
0.0061809555627 0.0051506869495 0.0057594357058 0.0048327306286 0.0044707627967 0.0030963832978 0.0021228708792 0.0013206319418 0.0013461342314 
0.0018434736412 0.0019968836568 0.0023661283776 0.003061813768 0.0037536863238 0.0045061982237 0.0071979984641 0.010787748732 0.012214059941 
0.013412359171 0.014313927852 0.0056328638457 0.004878920503 0.0046470602974 0.0045734425075 0.0046498142183 0.0047838399187 0.0050871134736 
0.0055057131685 0.0063110571355 0.01227835007 0.0077167064883 0.0091215129942 0.0093262651935 0.0083546107635 0.0075192265213 0.0070537119173 
0.0064388569444 0.0057608722709 0.01056649629 0.013425265439 0.010860432871 0.0083578228951 0.0061147226952 0.0092281540856 0.0082246679813 
0.0076661193743 0.0052439672872 0.0040711369365 0.0032669729553 0.0029122405685 0.0031591954175 0.0026877531782 0.0023337120656 0.0022805726621 
0.0021197076421 0.00163498451 0.0012520044111 0.019112300128 0.019883384928 0.019615169615 0.018130883574 0.018232446164 0.0022714093793 
0.0020329665858 0.0029857160989 0.016168653965 0.014753372408 0.0018030490028 0.0038715272676 0.0054265563376 0.0048447428271 0.006106432993 
0.0031067524105 0.007513452787 0.0077919284813 0.010489231907 0.0097284372896 0.0098349172622 0.0094864768907 0.0096694501117 0.012868007645 
0.01163210813 0.0090239206329 0.0055163009092 0.0055576558225 0.0083921132609 0.0053458176553 0.0042388928123 0.0035127543379 0.0038692217786 
0.0057193748653 0.006065308582 0.0065041440539 0.0066584693268 0.0063899778761 0.01080699265 0.0071493489668 0.0049305120483 0.0078265368938 
0.0048576979898 0.0029113281053 0.0090893385932 0.0086541548371 0.0085706515238 0.016734080389 0.017780104652 0.0013010920957 0.0010857402813 
0.0013971412554 0.0017749700928 0.0026350347325 0.0018856562674 0.0093027157709 0.0085492804646 0.0073351943865 0.0067198411562 0.0053916717879 
0.0047627324238 0.0088979369029 0.0066855489276 0.0044382535852 0.0050330148079 0.006172107067 0.0072507653385 0.0071038729511 0.0066260844469 
0.0058265686966 0.0066458648071 
Stress_Y 1 1064 double
0.018970826641 0.0090848216787 9.722863615e-05 0.0008729629335 -0.0034163098317 0.0012909153011 -0.0044114571065 -0.0047165532596 -0.0029414531309 
-0.0014445997076 -0.00052426836919 -0.00075628014747 0.00022238289239 0.00081906886771 0.0018677517073 0.0030070703942 0.0034428923391 0.0040123555809 
0.00136028626 -4.2235613364e-05 0.00043627392733 0.0010539108189 0.0028904660139 0.0046431901865 0.0059229205362 0.0046281018294 0.00080358627019 
-0.001789632719 -0.0030024063308 -0.0032719231676 -0.0037797866389 -0.0038452341687 -0.0034685882274 -0.0035150479525 -0.0035919286311 -0.0040973150171 
-0.0050982367247 -0.0050287586637 -0.0029606267344 0.0015552996192 0.0077846627682 0.012728863396 0.0024589172099 0.0017153855879 0.0018640577327 
0.0027190605178 0.0013853511773 -0.00013457010209 -0.0007157670334 -0.0012017817935 -0.00074517459143 0.00078066985589 0.0039909612387 0.0068789613433 
0.0077040158212 0.0063682678156 0.005851757247 0.0061720809899 0.0076699350029 0.0098381396383 0.011142347939 0.010951614939 0.0089851720259 
0.0070562334731 0.0040468061343 -0.00096096779453 -0.0032775688451 -0.004604193382 -0.0031101515051 0.0014724730281 0.0059755244292 0.0079083945602 
0.0074172541499 0.0080035924911 0.0091711189598 0.01217393484 0.011385178193 0.0034186809789 -0.00099292455707 -0.00092135788873 0.001383435796 
0.005227915477 0.004975582473 0.0049220123328 0.0048803729005 0.0055617117323 0.0057685398497 0.0061550308019 0.0064577385783 0.0064811590128 
0.0067474287935 0.0062102554366 0.0059201130643 0.0064927735366 0.0075504900888 0.0083769895136 0.0078851589933 0.0088133672252 0.0082191918045 
0.0051527735777 0.011184930801 0.0047173430212 0.0011622695019 0.00051434797933 -0.0016387149226 -0.0025206345599 -0.0036746370606 -0.0022188820876 
0.0003166217939 0.0018674362218 0.0024683282245 0.0018268612912 0.0023938831873 0.0033325108234 0.0042510190979 0.0050851618871 0.0046918438748 
0.0029050419107 0.001597120543 0.0011741501512 0.0016661735717 0.0031698078383 0.0041221948341 0.0048280567862 0.0036371781025 0.00053484388627 
-0.0016040611081 -0.0027285378892 -0.0030943276361 -0.002640041057 -0.0021847174503 -0.0022786778864 -0.0019986666739 -0.0020057163201 -0.0024471182842 
-0.0036341571249 -0.0039530037902 -0.0027150397655 0.0017012328608 0.008130973205 0.013808416203 0.015079156496 0.0016679178225 0.0023949497845 
0.0028910138644 0.002497558482 0.00079890177585 -0.00071690505138 -0.00072613934753 0.00010897110769 0.0021596399602 0.0061693596654 0.0074232276529 
0.0076377424411 0.0067284689285 0.005518055521 0.0053898617625 0.0067655248567 0.0078656170517 0.0081275207922 0.008672025986 0.0087919598445 
0.0090072471648 0.0073823211715 0.0024548002984 -0.0025046525989 -0.00014024905977 0.0048187668435 0.0086015276611 0.0083108115941 0.0068701175041 
0.0059269843623 0.0056940657087 0.0081663327292 0.0082519175485 0.0041115903296 0.00073831377085 -0.00014457260841 0.001502455445 0.0048531051725 
0.0085697537288 0.0089912656695 0.0080342311412 0.008612495847 0.0091085070744 0.0078846858814 0.0086540170014 0.0077267619781 0.0067817945965 
0.0059423437342 0.0058092502877 0.0062145423144 0.006691839546 0.0075148162432 0.0073904213496 0.0081111714244 0.007406427525 0.0054201674648 
0.0032210776117 -0.0018569049425 -0.00035308560473 0.0016173903132 0.00097159139114 -0.00047755238484 -0.00060820690123 -0.0001655525266 0.0014769167174 
0.0032410016283 0.0038385130465 0.0028939673211 0.0024903302547 0.0033287461847 0.0039668087848 0.00450423453 0.0042810877785 0.0037837661803 
0.0032455138862 0.0029015326872 0.0030391530599 0.0029845347162 0.0025722600985 0.0023285504431 0.00059692090144 -0.00080531981075 -0.0014048528392 
-0.0014044487616 -0.00056209485047 2.5702074709e-06 0.00016010779655 0.00032260658918 0.00048123273882 0.000406630832 -3.2560354157e-05 2.3819491616e-05 
4.3786360038e-05 0.0024946785998 0.0052617564797 0.006995386444 0.0091834347695 0.0077033536509 0.0033867366146 0.0027445731685 0.00081243325258 
-0.0011481764959 0.0019293398364 0.0059482580982 0.0083392420784 0.00833448302 0.0065331999213 0.0052605746314 0.0049692159519 0.0056885159574 
0.0040260497481 0.0024327402934 0.0018029994098 0.0020920226816 0.0054979911074 0.0095643596724 0.01058193855 0.0094723859802 0.0084773246199 
0.0088850492612 0.0089820604771 0.0087579349056 0.0070732231252 0.0063323234208 0.0058325063437 0.005492832046 0.0056486641988 0.0056233247742 
0.0056558968499 0.0056067695841 0.0060206106864 0.005993838422 0.0048922384158 0.003769373754 0.0029618132394 0.0034265150316 0.004220996052 
0.0041007809341 0.0026650554501 0.00075781979831 0.000845237053 0.0023555692751 0.0042335377075 0.0068011833355 0.0077625485137 0.0072675039992 
0.0065006315708 0.0055410224013 0.0053893113509 0.005883328151 0.0062973452732 0.0064479000866 0.0068814633414 0.0078095109202 0.0086393328384 
0.008554729633 0.0056768381037 0.0035020331852 0.002739647869 0.0029209223576 0.0022839200683 0.0059832218103 0.0043789329939 0.0036743879318 
0.0029209973291 0.0019573324826 0.00065858679591 -5.9154259361e-05 -0.0002792198793 -3.0682292618e-06 0.0007404027856 0.0015856469981 0.0018570257816 
0.0020330271218 0.0023846460972 0.0024047556799 0.0026791312266 0.002502653515 0.0022500457708 0.0027139482554 0.002011915436 0.0030872526113 
0.0045233960263 0.0028518834151 0.0015546029899 0.00089159031631 0.00082079175627 0.0012597014429 0.0024257472251 0.0040209125727 0.0045666322112 
0.0033096612897 0.0026794143487 0.0031029377133 0.0040524499491 0.0044051096775 0.0043398090638 0.0042292797007 0.0044083320536 0.0043428661302 
0.0043764030561 0.0032496219501 0.0020907630678 0.0022669257596 0.0034444534685 0.0035736011341 0.0034452190157 0.0032702311873 0.0035160917323 
0.0020061777905 0.0027380278334 0.0061080781743 0.0086780302227 0.0079429671168 0.0062002483755 0.0049657742493 0.0045659411699 0.0045739756897 
0.004227318801 0.0044059380889 0.0046935616992 0.0050007402897 0.004161989782 0.0036857642699 0.0033205777872 0.0031182386447 0.0056690373458 
0.010145043023 0.010901723057 0.0099140582606 0.0093027763069 0.0093187214807 0.0094661489129 0.0086479568854 0.0068685365841 0.0060138134286 
0.0055435388349 0.0052605727687 0.0050992714241 0.004754579626 0.0043729161844 0.0041132890619 0.0045575723052 0.0044231065549 0.0042615095153 
0.0040533575229 0.0040992838331 0.0050912876613 0.0060066948645 0.0062087541446 0.0049798269756 0.0035871020518 0.0035694716498 0.0049891476519 
0.0061381952837 0.007062300574 0.0070481286384 0.0064887995832 0.0057962816209 0.0054663196206 0.0053069829009 0.0047176149674 0.0049476129934 
0.0055210385472 0.00652840361 0.0081244884059 0.0090094488114 0.0081216674298 0.0063711241819 0.0046249735169 0.0037784413435 0.0031586310361 
0.0034982580692 0.0062579880469 0.0081065138802 0.0075830784626 0.0060606570914 0.0046252785251 0.0064367591403 0.0047877198085 0.0038140171673 
0.0026089411695 0.0028976050671 0.0046885800548 0.0065082097426 0.0075829951093 0.0072539658286 0.0054560429417 0.0042527164333 0.0048989625648 
0.0049971700646 0.0027304403484 0.0019809836522 0.0012764617568 0.00079292763257 0.00066644727485 0.00094751716824 0.0016480686609 0.0024037240073 
0.0028867083602 0.0034289094619 0.0037845126353 0.0038507098798 0.0044881780632 0.0048723458312 0.0049059391022 0.0052001615986 0.004098366946 
0.0031699193642 0.0025873214472 0.0014431737363 -0.00017413959722 0.00077736226376 0.0018318842631 0.0032607410103 0.0041426829994 0.0040917708538 
0.0042150146328 0.0041023842059 0.0039972225204 0.0032691138331 0.0021643077489 0.0014245867496 0.0013871315168 0.0019959937781 0.0034784635063 
0.0049814963713 0.0048682126217 0.003647282254 0.0024751389865 0.0043146614917 0.0047874366865 0.0044418280013 0.004569971934 0.0048017101362 
0.0048365541734 0.0046480684541 0.004080245737 0.0024865884334 0.0026722121984 0.0035374751315 0.0034964717925 0.0033751097508 0.0030056757387 
0.0029983536806 0.0032338937744 0.0022893424612 0.0040754564106 0.0039620758034 0.0042075915262 0.0043688463047 0.0046518351883 0.0049041626044 
0.0047170333564 0.0045320908539 0.0045487377793 0.0044884895906 0.0060086534359 0.0088672544807 0.01074666623 0.010284435004 0.01001062151 
0.010404812172 0.0097853709012 0.008594785817 0.0069529800676 0.0060010827146 0.0053323330358 0.0050739469007 0.0044171572663 0.0040650037117 
0.0033815051429 0.0031024639029 0.0031212274916 0.0033675234299 0.004552452825 0.0052184523083 0.0063456390053 0.0075093409978 0.007888305001 
0.0072462232783 0.0065109250136 0.0069413902238 0.0074330554344 0.0075640869327 0.0069387946278 0.006392900832 0.0057363300584 0.0055638984777 
0.0053785541095 0.0053506805561 0.005174826365 0.0048072626814 0.0043385862373 0.0037677255459 0.0034857825376 0.0038897464983 0.0047416994348 
0.0062847239897 0.0078959958628 0.0090078404173 0.0039704395458 0.0033002356067 0.0038012175355 0.0038860910572 0.0038894989993 0.0041592931375 
0.0042303083465 0.0044763991609 0.004668014124 0.0046871304512 0.0049334284849 0.0051959366538 0.0054294429719 0.0054144975729 0.0064134872518 
0.0082282256335 0.009513665922 0.0098655261099 0.0098774293438 0.010568408296 0.010158907622 0.0084819858894 0.0069562331773 0.0061598843895 
0.0053490730934 0.0046212510206 0.0041037094779 0.0034876405261 0.002839877503 0.002398975892 0.0022725737654 0.0022672982886 0.0027571399696 
0.0027262223884 0.0036623685155 0.0044279843569 0.005253915675 0.0061384504661 0.0073830336332 0.0085910419002 0.0092503773049 0.0094069223851 
0.0096023250371 0.0098065398633 0.0094281565398 0.0080303186551 0.0065713305958 0.0058885156177 0.0055428775959 0.0054384153336 0.0054417876527 
0.0053009223193 0.0052632284351 0.0048733716831 0.0041964901611 0.0033151700627 0.0020822272636 0.0032710088417 0.0029992114287 0.0040543098003 
0.006286451593 0.008132243529 0.0081960000098 0.0025231861509 0.0022332353983 0.0019329048228 0.0015983801568 0.0014962304849 0.0017792159924 
0.0022967504337 0.0029205388855 0.0039436686784 0.0048802387901 0.0051930779591 0.0057377438061 0.0063738576137 0.0065951999277 0.0063833827153 
0.0066638798453 0.0072339954786 0.0057561979629 0.0044330852106 0.003526478773 0.0022337997798 0.0011822389206 0.00021539352019 0.00034824034083 
0.0013646276202 0.0024652925786 0.0037911755498 0.0047343657352 0.0047086197883 0.0048624412157 0.0045233182609 0.0040928358212 0.0034242069814 
0.002622915199 0.0024418362882 0.002814038191 0.0042857294902 0.0055578807369 0.004864718765 0.0034810402431 0.0028779997956 0.0022359897848 
0.0022880781908 0.0023820269853 0.0038097822107 0.0051005082205 0.0052068186924 0.0051899272949 0.0045576905832 0.0046300520189 0.0045771780424 
0.0045321928337 0.004151398316 0.0032271656673 0.0038519818336 0.0046967980452 0.0044188378379 0.0042508300394 0.0031180616934 0.0017961009871 
0.0027367379516 0.0027691721916 0.0044708955102 0.004456564784 0.0045689200051 0.0050911772996 0.0054038916714 0.0055089173838 0.0058968774974 
0.0074637481011 0.0086366385221 0.0089592877775 0.010311308317 0.0098523003981 0.0084602851421 0.0073138438165 0.006205460988 0.0051349229179 
0.0046341912821 0.0038877185434 0.0031516854651 0.0024286757689 0.0021366674919 0.0018046231708 0.0017239352455 0.001830614754 0.0023186290637 
0.0022586337291 0.0029917384963 0.0039972811937 0.0048890816979 0.0057437778451 0.0068902233616 0.0080609926954 0.0093087265268 0.010323411785 
0.011417612433 0.011869953945 0.011678143404 0.010461628437 0.0058225668035 0.0056084706448 0.0053736716509 0.0053891493008 0.0054429001175 
0.0093080345541 0.0085352146998 0.0053975414485 0.0051578171551 0.0043358593248 0.0030813608319 0.0019863047637 0.0024941321462 0.0024074541871 
0.0023336058948 0.0023630703799 0.002291488694 0.0023580614943 0.0026385372039 0.0029720049351 0.0034162360243 0.004741424229 0.0061002909206 
0.0070239133202 0.0080934148282 0.0088009117171 0.0087560974061 0.0090045072138 0.0089038023725 0.0074982978404 0.0060152835213 0.0045581022277 
0.0033324628603 0.0019151073648 0.00074876938015 -5.3362025938e-05 7.469994307e-05 0.00067586789373 0.0017520779511 0.0035592124332 0.0050409184769 
0.0055842553265 0.0054922373965 0.005338086281 0.0052743200213 0.0047828187235 0.0046169967391 0.0042590675876 0.0040213554166 0.0044704349712 
0.0052916347049 0.0043061370961 0.0032225695904 0.0027505627368 0.0026559806429 0.0024967670906 0.0028322716244 0.0023006501142 0.0024923558813 
0.0036748026032 0.0057383691892 0.0063952016644 0.0056918514892 0.0048909410834 0.0040752897039 0.0038741747849 0.0037153779995 0.0038334850688 
0.0038491368759 0.0047163697891 0.0057715936564 0.0055886330083 0.0053706155159 0.0038878042251 0.0026976449881 0.0027221154887 0.0078628640622 
0.0061672194861 0.0046785296872 0.0031897227746 0.0025399914011 0.0018722306704 0.002987342421 0.0049499105662 0.0065570087172 0.0078418906778 
0.0063909343444 0.0046199187636 0.00408055773 0.0035605744924 0.0038306780625 0.003694033483 0.0043051065877 0.0042321351357 0.0043129422702 
0.0025049860124 0.002937115496 0.003154829843 0.0032624416053 0.003528655041 0.003710759338 0.0039383396506 0.0051365201361 0.0068105151877 
0.0089756194502 0.01097404398 0.0114966603 0.010738616809 0.0085250558332 0.0075733838603 0.0067992284894 0.0057602254674 0.0044385599904 
0.003141308669 0.0020458882209 0.00076020765118 6.9042900577e-05 0.00022956338944 0.00049253867473 0.0037211908493 0.0053319842555 0.006144578103 
0.0062622968107 0.0063661290333 0.0066797230393 0.006689182017 0.0066641955636 0.0062630600296 0.0050031379797 0.0047008441761 0.0040449309163 
0.0030447919853 0.0027956152335 0.0028144966345 0.003051688429 0.0032711937092 0.0037683898117 0.0051897037774 0.0021955242846 0.0011139544658 
0.0073395650834 0.0086768968031 0.0025341254659 0.0032909796573 0.0059696943499 0.0072197387926 0.0075824912637 0.0058296378702 0.004475645721 
0.0036317405757 0.0041587138548 0.0043382546864 0.0046831867658 0.0051074605435 0.0053645307198 0.0057917134836 0.0066059515812 0.0075739859603 
0.0077259624377 0.0076566636562 0.0073995520361 0.0081260325387 0.0091945901513 0.009751399979 0.0095030302182 0.0085405306891 0.0075989193283 
0.0062972903252 0.0053541236557 0.0046588601544 0.0036087010521 0.0027287090197 0.0021502077579 0.0017287113005 0.001685005147 0.0013200640678 
0.0012096599676 0.001854574657 0.0019800825976 0.0027353817131 0.0035300911404 0.0043767723255 0.0051170727238 0.0059132548049 0.0069570187479 
0.0081553906202 0.0092404866591 0.0036412135232 0.0043357224204 0.0030682408251 0.0030813924968 0.0027663647197 0.0025565312244 0.0029617662076 
0.0033642724156 0.0048902104609 0.0072808060795 0.0066914041527 0.0047473874874 0.0033554460388 0.0027635539882 0.01046646107 0.011770919897 
0.012687232345 0.012405415066 0.01149632223 0.0099805295467 0.0080297775567 0.00694763707 0.006515825633 0.0057651479729 0.0054593263194 
0.0055291876197 0.0055214390159 0.0050105447881 0.0022087667603 0.0055855773389 0.0051383622922 0.0046659745276 0.003599419957 0.0018413575599 
0.0030372941401 0.0049187261611 0.0062667015009 0.0067492849194 0.0068850028329 0.0037493587006 0.00533190649 0.0070808827877 0.007723916322 
0.00479697017 0.0042532486841 0.0042968243361 0.0078199636191 0.0093519082293 0.0090434197336 0.0084547251463 0.0075024645776 0.0065472368151 
0.0057798023336 0.0045048366301 0.0032687187195 0.0023696392309 0.0017786853714 0.0013941150391 0.00094959093258 0.0041890065186 0.0049177990295 
0.0055778510869 0.0064725019038 0.0042726742104 0.0042694229633 0.0046576200984 0.0048505784944 0.0052848234773 0.005861306563 0.0063072461635 
0.0068804337643 0.0064701829106 0.0057962983847 0.0054460954852 0.0047416239977 0.0040171514265 0.0033625725191 0.003051292384 0.0030637423042 
0.0030999579467 0.0038914775942 0.0050554275513 0.0062316404656 0.0058185760863 0.0055839512497 0.0056619201787 0.0040646619163 0.002837408334 
0.0024432039354 0.00045094129746 0.00048507319298 0.00052055215929 0.00079886824824 0.0012715319172 0.0019223898416 0.002862668829 0.0041475212201 
0.0056411689147 0.006498626899 0.0070008658804 0.011510645039 0.012797721662 0.012511160225 0.011339936405 0.0095621682703 0.0025444722269 
0.0029813176952 0.0038500402588 0.0067722108215 0.0063587585464 0.007563654799 0.0041913990863 0.0049163335934 0.0041582486592 0.0043195830658 
0.0082380054519 0.0044086850248 0.0023471782915 0.0032857144251 0.0044054654427 0.006944117602 0.007586274296 0.0045536207035 0.0052077360451 
0.0055072139949 0.0042820740491 0.0035674863029 0.0036352376919 0.0026693306863 0.0010148885194 0.00078568898607 0.00075912266038 0.0010293634841 
0.0037326603197 0.0039899800904 0.0043441494927 0.0050572468899 0.00597029645 0.0040447586216 0.0035372993443 0.0038937083445 0.0044048405252 
0.0032530943863 0.0025292607024 0.0044371718541 0.0042800288647 0.0040624574758 0.0079128239304 0.0097738094628 0.0025020081084 0.0022503731307 
0.0021503269672 0.0022193563636 0.0017899789382 0.0021436493844 0.0033632717095 0.0024209455587 0.00059372460237 0.0014699122403 0.0012889588252 
0.0010687273461 0.0052720122039 0.0051555740647 0.008540420793 0.0086184488609 0.0010161106475 0.0015538755106 0.0015310465824 0.0011844016844 
0.0013311161892 0.00088225514628 
Stress_Z 1 1064 double
0.013507734053 0.014681004919 0.012525594793 0.0098023647442 0.0073563191108 0.0042938734405 -0.0020605374593 -8.7352302216e-05 0.0011609512148 
0.0019086246612 0.0018994132988 0.0015751587925 0.0013037008466 0.00086621544324 0.00071570801083 0.00079423934221 0.00087388191605 0.0011137077818 
0.00070736935595 0.0017295910511 0.0018820441328 0.0038740008604 0.0065200710669 0.0093161137775 0.012310144491 0.011052541435 0.006270413287 
0.0029388025869 0.00086406536866 -0.00043856832781 -0.0015899672871 -0.0017914996715 -0.001555588562 -0.0014922609553 -0.0012296731584 -0.0012979191961 
-0.0014335045125 -0.0010582609102 -0.0002108769404 0.0019771256484 0.0053401007317 0.0078616449609 -0.00018070974329 -0.001591903856 -0.0022262136918 
-0.0022028000094 -0.0032904753461 -0.0046076416038 -0.0054775862955 -0.0060761119239 -0.0056638345122 -0.0044540576637 -0.00212265132 0.00031882667099 
0.0027345197741 0.0043203327805 0.0067577455193 0.0095949461684 0.013850282878 0.018533924595 0.020788347349 0.018663099036 0.013016822748 
0.0073710344732 0.0032890054863 0.0013701251009 -3.5491120798e-05 -0.0018420335837 -0.0015381169505 0.00066196499392 0.0027721279766 0.0035058658104 
0.0034774453379 0.0039869020693 0.00440814998 0.0081819565967 0.0087584108114 0.0034588647541 0.0037320842966 0.0053845825605 0.0059783644974 
0.0028665077407 0.0020270503592 0.0021590837277 0.0030962696765 0.0042988876812 0.0039238757454 0.0054024728015 0.0080598695204 0.010888956487 
0.012639007531 0.012787029147 0.012302505784 0.011790763587 0.010523863137 0.0089175971225 0.0066539412364 0.0052810357884 0.0038579714019 
0.0020352534484 0.010636894964 0.011963582598 0.012406919152 0.01388261281 0.012663418427 0.013854485005 0.012639438733 0.011112712324 
0.0089602600783 0.0065788975917 0.0050646299496 0.0035968630109 0.0031787350308 0.0028090525884 0.0023539047688 0.0024753164034 0.0027390797623 
0.0034322626889 0.0041748946533 0.0045909178443 0.0053756879643 0.0074233077466 0.010029822588 0.011992706917 0.012263584882 0.010900524445 
0.009759943001 0.0090137189254 0.0084254182875 0.0079871565104 0.0070828646421 0.0057271742262 0.0048209568486 0.0040007252246 0.0036049222108 
0.0032908876892 0.0030059008859 0.002480203053 0.0027314343024 0.0035375785083 0.0041705523618 0.0064923823811 0.0029351750854 0.0030652543064 
0.0032579721883 0.0038155261427 0.0038240186404 0.0038029276766 0.0042036287487 0.0047290083021 0.0058446144685 0.0078210569918 0.0083749657497 
0.0095767555758 0.010470474139 0.010937050916 0.012480494566 0.014673433267 0.015983652323 0.01629271917 0.017062904313 0.017127292231 
0.015632200986 0.013284809887 0.010569394566 0.0080699371174 0.0081228008494 0.0075042727403 0.0054431003518 0.0023104825523 0.0010364345508 
0.00087467016419 0.0013237742241 0.0044715725817 0.0044930474833 0.0039190496318 0.0040867519565 0.0038894645404 0.0033630901016 0.0039916243404 
0.0066058784723 0.0088353231549 0.0109366877 0.014119438827 0.015430649742 0.014958293177 0.015699092299 0.015061940998 0.013654160313 
0.012345318682 0.011516357772 0.010903833434 0.0098415305838 0.0087049044669 0.007106131874 0.0056703314185 0.004212571308 0.0038076613564 
0.0036428351887 0.0085465833545 0.0088747525588 0.01589541696 0.017408732325 0.016325414181 0.015201381408 0.012972146273 0.010062721558 
0.0072793276049 0.0049286508001 0.0029165258165 0.001839992241 0.0017453808105 0.0014007959981 0.0014713684795 0.0016991383163 0.0023379081395 
0.0034333213698 0.0046921623871 0.0064216838218 0.0087923286483 0.011489464901 0.012724393047 0.011307855137 0.010704235174 0.010524353012 
0.010206501931 0.0095124924555 0.0079635605216 0.0060499440879 0.0043012187816 0.0027562056202 0.0016881086631 0.0012153650168 0.0017239300068 
0.0016674671788 0.0023149398621 0.0039205048233 0.0073852743953 0.012382351793 0.014143104665 0.013913882896 0.013776026666 0.007674401626 
0.0072322818451 0.0071615027264 0.0069362442009 0.0056488038972 0.004310855642 0.0024161587935 0.001609530882 0.0023074839264 0.0037227841094 
0.0028398714494 0.0031651936006 0.003953749314 0.0046746237203 0.0069884001277 0.0097213229164 0.01159537863 0.013204082847 0.014348904602 
0.015732832253 0.016572101042 0.016201704741 0.014961088076 0.014275969006 0.013399682939 0.011958601885 0.01112512406 0.01038807258 
0.00921680592 0.0076585863717 0.0063901948743 0.0051189200021 0.0033564777113 0.0024806596339 0.0019336089026 0.0018599873874 0.0019983644597 
0.0024700385984 0.0030049758498 0.0032104058191 0.0041701681912 0.0055568148382 0.0065178903751 0.0080944299698 0.0097949216142 0.010485144332 
0.010570349172 0.010837290436 0.012058334425 0.013744022697 0.015191936865 0.015718737617 0.016141593456 0.016217462718 0.0149357263 
0.012862629257 0.010646788403 0.009770501405 0.0084417965263 0.0058881882578 0.0067243040539 0.0047325217165 0.0029855568428 0.014185035601 
0.013784761541 0.01338429749 0.012353827246 0.012018773705 0.01224726066 0.012378473766 0.011993782595 0.010790365748 0.008512686938 
0.0060805417597 0.0041284970939 0.0026203251909 0.0023535010405 0.002621605061 0.003355308203 0.0060201049782 0.0077008102089 0.011055193841 
0.012774632312 0.015345714055 0.015898644924 0.016259975731 0.015744965523 0.013982811011 0.011204877868 0.0087081259117 0.0068688523024 
0.0043079634197 0.0023910142481 0.0017028106377 0.0016920102062 0.0017047350993 0.0018188179238 0.0023762781639 0.0039698239416 0.0058690696023 
0.0077952858992 0.0091209085658 0.011676229537 0.013368933462 0.015106962994 0.014228606597 0.013951696455 0.013470144942 0.011182943359 
0.0022718908731 0.0026002326049 0.0056901727803 0.0057073258795 0.0044868001714 0.0031554338057 0.0021343927365 0.0019087631954 0.0023206460755 
0.0023414827883 0.0029895408079 0.0030952934176 0.0030537510756 0.0027988459915 0.0034837471321 0.0046835606918 0.0063373716548 0.0097971139476 
0.013304896653 0.013295496814 0.013322601095 0.014608415775 0.015824621543 0.016400163993 0.01585935615 0.014818518423 0.014286285266 
0.013487004675 0.012203312479 0.011300802231 0.010216374882 0.0088696293533 0.0075040045194 0.0066459076479 0.0050557451323 0.0031195802148 
0.0021435339004 0.0017228185898 0.001969269244 0.0021752775647 0.0028459681198 0.0036413364578 0.0042033479549 0.0049735563807 0.0060015497729 
0.0067390939221 0.0078512476757 0.0087804766372 0.0094658583403 0.0096714077517 0.0099354768172 0.010741969571 0.013832795434 0.014438138343 
0.014710028656 0.014136837795 0.013614120893 0.012777880765 0.011307740584 0.0099122393876 0.0082744956017 0.0066458489746 0.0051944633015 
0.0041371174157 0.0040725064464 0.0044675245881 0.0042466577142 0.0034233492333 0.0021946313791 0.0086649144068 0.0073222103529 0.0062561165541 
0.0043305107392 0.0040739672258 0.0034323895816 0.0030496125109 0.003096354194 0.0036571775563 0.0033106463961 0.0025343291927 0.012643037364 
0.010968763381 0.013703018427 0.013412358239 0.013116595335 0.012897202745 0.01305087097 0.013338192366 0.013264111243 0.012192611583 
0.0099778259173 0.0076214200817 0.0054831416346 0.0037663960829 0.0034108415712 0.0037919806782 0.0037150578573 0.0030677793548 0.0027661556378 
0.0029420128558 0.0040519512258 0.0051983604208 0.0062930108979 0.0094961868599 0.010871342383 0.010955122299 0.01057293918 0.010072381236 
0.010281572118 0.010978584178 0.011953540146 0.012548985891 0.012567923404 0.012612880208 0.012859724462 0.012940511107 0.012157078832 
0.010405329056 0.0082023879513 0.0058812387288 0.0034378787968 0.0019030150725 0.0021703667007 0.0021108526271 0.0031292978674 0.0050623831339 
0.0069895940833 0.0082356892526 0.0095554506406 0.010862287134 0.013352889568 0.015470466577 0.013539070264 0.010602708906 0.01201765798 
0.012420417741 0.0019197990187 0.0023133689538 0.001954164356 0.001881653443 0.0022599690128 0.0026892442256 0.0029297391884 0.0028265423607 
0.0029735513963 0.0038111591712 0.0053361183964 0.0073479488492 0.010408275761 0.012215837836 0.012405429967 0.01279335469 0.014326618053 
0.016332749277 0.017022363842 0.016438243911 0.015483316034 0.014709490351 0.013943602331 0.012764804997 0.011409589089 0.010242401622 
0.0087277386338 0.0073712863959 0.0063563482836 0.0051080677658 0.0019542202353 0.0017514622305 0.0018283260288 0.0021134857088 0.0027513229288 
0.003481276799 0.0041439933702 0.0053069069982 0.0059071872383 0.0064350888133 0.0068433540873 0.0075294091366 0.0082184951752 0.0087845493108 
0.0090296557173 0.0095170205459 0.0098024271429 0.0096304696053 0.010883804411 0.012029596604 0.012305416167 0.01297288388 0.013680269942 
0.013454212807 0.012204744853 0.011811478063 0.0025333233643 0.0029970477335 0.0019394583069 0.0019396916032 0.0018135353457 0.0019162208773 
0.0020229024813 0.002374017844 0.0025468245149 0.0025647534057 0.0030523508321 0.0041652042419 0.005742315203 0.0076415506192 0.010032015853 
0.011511814781 0.010912274942 0.011323259212 0.01353951171 0.01662892662 0.017836239189 0.01644570753 0.015350257047 0.01484286692 
0.013901235536 0.01219765842 0.011059802026 0.0098775317892 0.0084204096347 0.0067659737542 0.0054279472679 0.0041151535697 0.0032132486813 
0.0022746198811 0.0023376496974 0.0020622524898 0.0019480078481 0.0018668643897 0.0020550820045 0.0023064105771 0.0027980855666 0.0036050234921 
0.0046598599292 0.0054464512505 0.0054256557487 0.0054408847354 0.0061553735286 0.0070623666979 0.007739782799 0.0081372680143 0.0085084699094 
0.0089829526842 0.0088613638654 0.0085563445464 0.0095115248114 0.010260657407 0.011369286105 0.012213096023 0.012321291491 0.012423895299 
0.012212059461 0.011368354782 0.0098434491083 0.012619189918 0.01294904761 0.012992655858 0.01275715977 0.012731067836 0.01297615096 
0.01297718659 0.012358246371 0.011164552532 0.0093498770148 0.0071034347638 0.0054490868933 0.0045495182276 0.0042864973657 0.0040656160563 
0.0038392057177 0.0034765026066 0.0030081951991 0.0027572456747 0.0030712017324 0.0035864291713 0.0049421223812 0.007142146118 0.0091090993956 
0.010118911974 0.0098132351413 0.0093009406701 0.0094480458647 0.0098817795515 0.010816536844 0.011457111686 0.011588234454 0.011290723458 
0.010586014017 0.01047224272 0.011065055616 0.011708220467 0.010933974758 0.0088442265987 0.0066045746207 0.0049229916185 0.0033793570474 
0.0029076822102 0.0022074033041 0.0026764955837 0.0031319195405 0.0031045943033 0.0035838584881 0.0041886870749 0.0059519624338 0.0075995335355 
0.0085326200351 0.0091478358954 0.010201580822 0.012105226517 0.012422416359 0.011238717474 0.0093876579776 0.0085879834369 0.0078756352887 
0.0096030524001 0.010510431603 0.0020509534515 0.0025776075199 0.0031725349836 0.0044188322499 0.0058976770379 0.0074878884479 0.0091947810724 
0.010708097368 0.010645853356 0.010884073563 0.016137549654 0.017432779074 0.01646210812 0.015350087546 0.014166879468 0.012610851787 
0.011185858399 0.010077166371 0.0090259937569 0.0075894067995 0.0061698080972 0.004776484333 0.0040366696194 0.0030304077081 0.0027331295423 
0.0023256286513 0.0021267496049 0.0020050336607 0.0018888681661 0.0018551574321 0.0019600051455 0.0021458447445 0.0025063850917 0.0030825941358 
0.0040662726387 0.0045844875276 0.0046248454601 0.004196064081 0.0063413591124 0.0072847688571 0.0076823057607 0.0078729297966 0.0082219904289 
0.012972356752 0.012316575274 0.0080807385966 0.0079964660108 0.008455096744 0.0094707440585 0.010718897916 0.011016793549 0.011154483072 
0.011640435085 0.011915112846 0.011711699888 0.011645004153 0.011830843054 0.011868353002 0.01149106957 0.011157879606 0.010257896967 
0.0080867744982 0.0064925909974 0.0053488379344 0.00460964581 0.0043176007457 0.0034673677292 0.0032253554091 0.0028570331633 0.002685128944 
0.0027908284683 0.0032891631126 0.0048827906139 0.0063400738873 0.0077315606177 0.0079425219446 0.0078678708524 0.0085754254833 0.009438871406 
0.010318090208 0.011344230734 0.012179462239 0.012407554314 0.011806964874 0.011092731729 0.0098587181419 0.0095717934892 0.0097445975989 
0.0098836813122 0.0085076838732 0.0068198861554 0.0053880093619 0.0044146175496 0.0035003826488 0.0032188023906 0.0028364262544 0.0025322719011 
0.002963852603 0.0044923019595 0.0050343344919 0.0045019993559 0.0047457632609 0.0054494473152 0.0061003044248 0.0067661227658 0.007780584041 
0.0087905107066 0.0093811182305 0.0097763668746 0.0094817010686 0.0099088847637 0.0097067737952 0.0099804969504 0.007875142619 0.01010445226 
0.0079142833129 0.0064353444614 0.0040389052592 0.0042545776814 0.0019744897727 0.0018240518402 0.0020771543495 0.0020738367457 0.002517278539 
0.0027738977224 0.0027235732414 0.0024355181959 0.0019595525227 0.002085671993 0.002170124324 0.0021594581194 0.0019156318158 0.0021079806611 
0.0099784051999 0.010231795721 0.010248960927 0.010381500237 0.010645751841 0.010639030486 0.010293615982 0.01023542881 0.0096977101639 
0.0083268871531 0.0069369096309 0.0061068669893 0.0048722410575 0.0025773174129 0.0023962308187 0.0026169666089 0.0025760224089 0.0024694239255 
0.002510774415 0.0031154400203 0.0040552727878 0.0053443578072 0.0061975810677 0.0062385611236 0.0088823372498 0.0098868589848 0.010992862284 
0.012268614955 0.013595093973 0.014730028808 0.0146862939 0.01326869335 0.011126185767 0.008618558757 0.0085325222462 0.0081230150536 
0.0066509237513 0.0055590057746 0.004622168839 0.0038871942088 0.0031990464777 0.0028752442449 0.0092534283176 0.0077860224992 0.0072135170922 
0.0062704747543 0.0044150399044 0.01112793386 0.011198601685 0.012217068113 0.010966071859 0.0092856651172 0.0067773358896 0.0061747105792 
0.0059252674691 0.0023682871833 0.0032313535921 0.0041178469546 0.0054047605954 0.0067903907038 0.0079698562622 0.0090347854421 0.010059709661 
0.01061007753 0.011551322415 0.012387140654 0.01362626534 0.014143470675 0.016361843795 0.016960185021 0.015670146793 0.01418950595 
0.012542141601 0.011274701916 0.010342117399 0.0094815716147 0.0085686128587 0.0075362436473 0.0063477274962 0.0053821080364 0.0042838794179 
0.0037706613075 0.0035230433568 0.0027460942511 0.002168876119 0.002086474793 0.0018545427592 0.0017804297386 0.0018345761346 0.0019806504715 
0.0023032114841 0.0026859834325 0.0068928743713 0.0025402258616 0.0018600332551 0.0027505708858 0.0027355423663 0.0028953992296 0.0031577742193 
0.0030842667911 0.0041297399439 0.005131018348 0.0039362227544 0.0034794891253 0.0041981819086 0.004625138361 0.0032439385541 0.0035405107774 
0.0040968977846 0.0040394943208 0.0038435640745 0.0041630892083 0.0053797308356 0.0057305460796 0.0065552601591 0.0071814116091 0.0075612575747 
0.0078456494957 0.0079031214118 0.0080232471228 0.0022582469974 0.0080668246374 0.0083952043205 0.0083159320056 0.0085387807339 0.010521573015 
0.011046347208 0.011379012838 0.010714949109 0.0087693594396 0.0095912013203 0.0012361390982 0.0011926374864 0.0018598142779 0.003165131202 
0.0024979526643 0.0024717964698 0.0023112632334 0.014755473472 0.01707469672 0.017009302974 0.01482500229 0.012566724792 0.011118433438 
0.010416212492 0.0095793567598 0.0089671267197 0.008414587006 0.0075951223262 0.0066069304012 0.0033225764055 0.0018641821807 0.0018095573178 
0.0018965770723 0.0020477632061 0.0031163333915 0.0038263069 0.004939021077 0.0061165848747 0.0074536395259 0.0086993928999 0.009555994533 
0.010047828779 0.0100311758 0.0020311083645 0.0087447846308 0.0082356454805 0.0076062045991 0.006540698465 0.0053824232891 0.0044980612583 
0.0036658269819 0.0030953781679 0.0021242960356 0.0063235759735 0.00717466278 0.007844989188 0.0081379422918 0.0022449826356 0.0022493314464 
0.0023693575058 0.0045560160652 0.005173355341 0.0057507227175 0.0065092914738 0.0070153083652 0.0077939201146 0.0086488239467 0.0093730790541 
0.010090832599 0.011062772013 0.012543989345 0.0041920631193 0.0052417148836 0.0062002190389 0.0051982649602 0.0071475245059 0.0084158852696 
0.0087939864025 0.0089303869754 0.0083376746625 0.0066370232962 0.014646181837 0.0091048013419 0.0089008491486 0.0094167208299 0.0096243293956 
0.01679064706 0.0094774113968 0.0024121939205 0.0028988316189 0.003949824255 0.0035160593688 0.0024606606457 0.0091414265335 0.0088515207171 
0.0076455571689 0.0037745919544 0.0034025351051 0.0041115796193 0.0021027794573 0.0043011582457 0.0050699175335 0.005851351656 0.0061945016496 
0.0050613149069 0.0061633125879 0.0072393915616 0.0084188319743 0.0095100263134 0.012014133856 0.011751925573 0.01201328449 0.013349040411 
0.013785077259 0.01393921487 0.0020317365415 0.0020480884705 0.0019457633607 0.0043006548658 0.0031823185273 0.0084676882252 0.0093269841745 
0.0089097926393 0.0087267076597 0.010395995341 0.0097171440721 0.0020484777633 0.0023552954663 0.0037535945885 0.0049029416405 0.005571865011 
0.0054084518924 0.0082591539249 0.0085655068979 0.016922393814 0.014908907004 0.0035158221144 0.0031287758611 0.0025635063648 0.0037713847123 
0.0046832906082 0.0037933627609 
Stress_XY 1 1064 double
0.0043649123982 0.00065285572782 0.00041537691141 -0.0010008935351 -0.0014992236393 0.00045300959027 -1.245236308e-05 -0.00080440100282 -0.00014127478062 
8.375755715e-05 3.6830399495e-06 -0.00086544314399 -0.001470314106 -0.0015800857218 -0.0017236212734 -0.0015397052048 -0.0015369787579 -0.0016824875493 
-0.00034232769394 -0.00087273458485 -0.00045677830349 -0.00049996533198 -0.0012279683724 -0.0020796782337 -0.0023761163466 -0.0018421468558 -0.00038064824184 
0.00079689937411 0.0010887223762 0.00081215018872 0.00075851130532 0.0011257450096 0.0014662429458 0.0020518715028 0.0029352859128 0.0038935982157 
0.0044393423013 0.0040260571986 0.00303041609 0.0021155241411 0.0017709493404 0.0032429329585 -0.0018044814933 -0.0019177736249 -0.0017928277375 
-0.002253852319 -0.002047295915 -0.00088954146486 -0.00070668110857 -0.00064706144622 -0.00018852052744 0.00059229345061 0.002166834427 0.002897503553 
0.0029118752573 0.0025928183459 0.0025195197668 0.0021545253694 0.0020020138472 0.0024166991934 0.0027842891868 0.002765863901 0.0024844657164 
0.0017891491298 0.00034247923759 -0.0010274855886 -0.0016548749991 -0.0017037516227 -0.0018559476594 -0.0021904346067 -0.0035522619728 -0.0033304132521 
-0.001885165344 -0.00029654285754 0.0019879045431 0.0029383343644 0.00063348119147 0.0018673103768 0.0014715088764 0.0026870933361 0.0031178598292 
0.0057089398615 0.0046504372731 0.0029771456029 0.0018489042995 0.0018684765091 0.00092571374262 -0.00049760693219 -0.00093846849632 -0.0010933824815 
-0.00082204252249 -0.00040431166417 -0.00012859592971 0.00022930161504 -0.00049813668011 -0.0016608774895 -0.0027945016045 -0.0037036212161 -0.003942492418 
-0.0034856048878 -0.0014586769976 -0.00078082579421 -0.00052753818454 0.00026322089252 0.00079149362864 0.0021343291737 0.0021580662578 0.0017632680247 
0.0018051929073 0.0014199852012 0.00010877185559 -0.001046635909 -0.0012638228945 -0.0015369914472 -0.0015068576904 -0.0013540546643 -0.00074378919089 
-0.00039209975512 -0.00093475950416 -0.0012390308548 -0.001548131695 -0.001834588591 -0.0014879583614 -0.00063773960574 -0.00094438146334 -0.0013477319153 
-0.0013320174767 -0.0013345130719 -0.0014526027953 -0.0014597699046 -0.00086818955606 4.6424593165e-05 0.0011199142318 0.0023985842708 0.0038439764176 
0.0051950295456 0.0059821051545 0.0061588925309 0.0055622737855 0.0046374523081 0.0033457241952 7.7387550846e-05 -0.0042463601567 -0.0038382161874 
-0.0033917194232 -0.002426977735 -0.0010245208396 6.22405787e-05 0.00070686184336 0.0019042185741 0.0033080559224 0.0042276042514 0.004431173671 
0.0034084334038 0.0026107628364 0.0020871323068 0.0013871493284 0.000266883726 -0.00085406296421 -0.001205719891 -0.00035905826371 0.0012511521345 
0.0025621177629 0.0028382157907 0.002250925405 -0.00052398623666 -0.0012640594505 -0.002832680475 -0.0042612724937 -0.0040982523933 -0.0029911391903 
-0.0014681492466 0.0004247216566 0.0029137635138 0.0044704093598 0.0041100243106 0.0030715689063 0.0024128179066 0.0022774918471 0.0025737220421 
0.002504611155 0.0012784076389 0.00016237160889 -0.00077223149128 -0.0010923782829 -0.0015273294412 -0.001575944596 -0.0011751231505 -0.00051683309721 
2.0079145543e-05 0.00033346796408 0.0004509872233 0.00018555390125 -0.00083859899314 -0.0021296907216 -0.0033689767588 -0.00478825951 -0.0051806448027 
-0.0048619234003 -5.5195585446e-05 0.00052376330132 -0.00027481431607 0.0011436588829 0.0018398883985 0.002170301741 0.0019118208438 0.0012937084539 
0.00036192516563 -0.00070412352215 -0.0011439211667 -0.0011583580635 -0.00096850347472 -0.00088806427084 -0.00068772869417 -0.00026472800528 -4.6193676098e-05 
-0.00012122852058 -0.00044626987074 -0.00091290095588 -0.0012237593764 -0.0010690201307 -0.00011475645442 -0.0009485091432 -0.001417555497 -0.0016161433887 
-0.0016185246641 -0.0014467206784 -0.001126264804 -0.00033935383544 0.00067194778239 0.0017678292934 0.0029176219832 0.0040824729949 0.0050030457787 
0.0053557045758 0.0052377642132 0.003926966805 0.0018648984842 -0.00071176857455 -0.0028637547512 0.00028743231087 -0.00022253008501 -0.00054065452423 
-0.00074705510633 -0.0018501051236 -0.0034515140578 -0.0043175374158 -0.0043268990703 -0.0033110533841 -0.001839512377 -0.00044331955723 0.0037760350388 
0.003805948887 0.0030934251845 0.0022180806845 0.0020081244875 0.0023363821674 0.0024627151433 0.0019869613461 0.0010167983128 -0.00027115011471 
-0.00099478929769 -0.0011676440481 -0.00097865296993 -0.00058156799059 -0.00028758088592 0.00012619797781 0.00032125209691 0.00034270843025 0.00019628713198 
-0.00028709348408 -0.0011921398109 -0.0023734380957 -0.0036913063377 -0.0046388208866 -0.0051456904039 -0.0049826861359 -0.0045175231062 -0.0038203538861 
-0.0027923539747 -0.0011423372198 0.00053285469767 0.0020283304621 0.0033744925167 0.0046348702163 0.0047536897473 0.0039477860555 0.002957631601 
0.0019318787381 0.0012452106457 0.00075159670087 -2.2992746381e-05 -0.00058009667555 -0.0006776356604 -0.00016746579786 0.0006624009693 0.001545379404 
0.0021538743749 0.0022357800044 0.0014665497001 0.00042422587285 -0.00017848265998 -0.001247075852 0.0024803464767 0.00035917427158 0.00026594850351 
0.00041204303852 -0.00022709429322 -0.00089653971372 -0.0012955572456 -0.0014680696186 -0.0014425512636 -0.0012902639573 -0.001010932494 -0.00049770553596 
0.0002452103945 0.0012217626208 0.0021241779905 0.0031199012883 0.003792445641 0.0036269254051 0.0024676420726 0.0012801369885 -0.00064760691021 
-0.0037467924412 -0.00037999491906 0.00084753497504 0.0016484258231 0.0019859038293 0.0018161187181 0.00092340447009 -0.00040504918434 -0.0013144927798 
-0.0010855748551 -0.00037044470082 6.8155917688e-05 0.00016946131655 7.4875802966e-05 0.00015721873206 0.00025876637665 7.6680014899e-05 -0.00016891759878 
-0.00029931325116 -0.00055296107894 -0.00078405207023 -0.00074072228745 -0.00062858336605 -0.00029068306321 -4.0110026021e-05 -0.0014460318489 -0.0023002864327 
0.0039731385186 0.0036563319154 -0.0020664229523 -0.0032118787058 -0.0037027562503 -0.003145982977 -0.0020099091344 -0.00089389446657 -0.00026976637309 
-5.0923194067e-05 0.00046370562632 0.0017308137612 0.0026764036156 0.0027631549165 0.0025022360496 0.0021978812292 0.0018979777815 0.0021913328674 
0.0028212592006 0.0023495987989 0.0012198380427 -0.00014341661881 -0.0011872719042 -0.0012349161552 -0.00073941104347 -0.00020410695288 7.5370029663e-05 
0.00040897651343 0.00059724913444 0.00068408745574 0.00064661772922 0.0003093983687 -0.00039577361895 -0.0013834782876 -0.0026664480101 -0.0038867546245 
-0.0045077353716 -0.0046300799586 -0.0045265071094 -0.0041658463888 -0.0032646053005 -0.00164677063 0.00043995707529 0.0025745171588 0.0041355602443 
0.0048386114649 0.0044734715484 0.0032612772193 0.0020241816528 0.0011287932284 0.00071851810208 0.00036362619721 -0.00034808160854 -0.00052583980141 
-0.0002846448042 0.00028086983366 0.0010503082303 0.0018092865357 0.0019292468205 0.0016589870211 0.0011003147811 0.00081524887355 0.00083359546261 
0.0001957485656 -0.00083463912597 -0.0015161832562 -0.0019435761496 -0.0021033142693 -0.00162983255 0.00096786243375 0.0011056128424 0.001141015091 
0.0016149685252 0.0012485249899 0.00084725301713 0.00049624213716 -0.00021584639035 -0.00077379494905 -0.0010776503477 -0.00091666623484 -0.00011624219769 
0.00018549803644 -9.0350025857e-05 -0.00043682579417 -0.0007577178767 -0.00090065185213 -0.00091130309738 -0.00085027393652 -0.00073666672688 -0.00063447083812 
-0.00038063217653 0.00029150969931 0.0010797757423 0.001943891868 0.0028835805133 0.0034506593365 0.0037257196382 0.003686663229 0.0035218175035 
0.0032766934019 0.0025866227224 0.001614658162 0.0010465779342 -0.00037889878149 -0.0024038993288 -0.0032987038139 -0.0032710959204 -0.0029753942508 
-0.0025892413687 -0.0021412717178 -0.0016015293077 -0.0006369438488 0.00017194924294 0.00065811438253 0.00078718515579 0.00051588792121 -0.00032649282366 
-0.0014880484669 -0.0016831246903 -0.00087154051289 0.00017123887665 0.0012918224093 0.0010981204687 0.00061750103487 0.0002794211905 0.00013973726891 
0.00014873257896 0.00035752283293 0.00035141731496 0.00026217786944 -0.0001466836693 -0.00040073043783 -2.3779677576e-05 0.00027320464142 -0.00028629138251 
-0.00024960271548 0.0013649562607 0.0010632418562 -0.00034477931331 -9.0524918051e-05 -5.3936935728e-05 0.00030393199995 0.00066969555337 0.0012000065763 
0.0019250271143 0.0022001632024 0.0021152661648 0.0019533426967 0.0022897266317 0.0027499236166 0.0023281483445 0.00086442288011 -0.00062052789144 
-0.0012060634326 -0.0013882265193 -0.0009059580043 -0.00016283959849 0.00042303220835 0.00076049432391 0.00092668697471 0.00094332447043 0.00098063412588 
0.00073037209222 0.00022672311752 -0.00067970494274 -0.0017132144421 -0.0039312662557 -0.0041972543113 -0.0044026053511 -0.0041563999839 -0.0032060365193 
-0.0015859990381 0.00056109798606 0.002845448209 0.0046115694568 0.0047367871739 0.0037570574787 0.0023737773299 0.0013231763151 0.00070268096169 
0.00046456718701 0.00030782871181 0.00026841138606 0.00023123604478 0.00010000418115 -1.7405434392e-06 -0.00020292884437 -0.00027412603959 -0.00013392890105 
8.2386817667e-05 0.00056353025138 0.0011323908111 -0.0032757255249 -0.0023087367881 -0.00044437404722 -5.0625799304e-06 0.00029356605955 0.0001260425488 
5.3253319493e-05 3.8659938582e-05 0.00028261941043 0.00082184572238 0.0014802207006 0.0017800484784 0.0016996280756 0.0015984310303 0.0019397514407 
0.0016014513094 0.00068812887184 -0.00020071522158 -0.0011669858359 -0.0017269037198 -0.0015413386282 -0.00093294476392 -0.00024538298021 0.00041026540566 
0.00089240248781 0.001000075019 0.001073976513 0.0011253131088 0.00097685458604 0.00052083394257 -9.5468763902e-05 -0.00082844542339 -0.0012804209255 
-0.0013334740652 -0.0021804387216 -0.0028719131369 -0.0034481417388 -0.003822409315 -0.0038731538225 -0.0034264242277 -0.0024259518832 -0.00090149365133 
0.0011536369566 0.0031894836575 0.0043185506947 0.0042130709626 0.0030383283738 0.0018322851975 0.0010987322312 0.00068143010139 0.00039256966556 
0.00032185748569 0.00033434116631 0.00032165524317 0.00014193268726 1.0776747331e-05 0.00016393024998 -3.4438304283e-05 -0.00013565720292 -3.3981421439e-05 
-0.00031167201814 0.0003970466496 0.00098523276392 -0.00027517665876 -0.0003935918794 -0.00044986073044 -0.00041130173486 -0.00030187680386 -0.00013338601275 
-4.3023468606e-05 -0.00015015104145 -0.00016948491975 0.00021059866413 0.00084889563732 0.0018455582904 0.0030736799818 0.003886641236 0.0040441267192 
0.0038446555845 0.0033409774769 0.0032240701839 0.0030428459868 0.0026692273095 0.0021458035335 0.0014551390195 0.0010163397528 1.2355357285e-05 
-0.0011409610743 -0.002051101299 -0.0026545969304 -0.0027098089922 -0.0024541902822 -0.002199558774 -0.001747940667 -0.0010868145619 -0.00045039851102 
-0.00030820755637 -0.00064210989513 -0.0012449467322 -0.0022171267774 -0.0028584233951 -0.0021629852708 -0.00084431626601 0.00018854474183 0.00071286631282 
0.00096900091739 0.0014323482756 0.0023510805331 0.0025742459111 0.0019919748884 0.0011798718479 0.00038678152487 0.00037074438296 0.00068111653673 
0.0011692087865 0.0017736355076 0.0014697223669 0.00084720429732 0.00056861719349 0.00079858268145 0.00077319575939 0.00028507932439 9.0312845714e-05 
-0.00020070926985 -0.00032619884587 0.0001986829302 0.00056746095652 0.0010432401905 0.0010712974472 0.00095874338876 0.00079481850844 0.00068147596903 
0.00016973291349 -0.00066847901326 -0.0014042232651 -0.0017893287586 -0.0017857671482 -0.0011316637974 -0.00016166943533 0.0002905955771 0.00067388289608 
0.00079787196591 0.00083552458091 0.00084089516895 0.00074169074651 0.00052749231691 0.00012161160703 -0.00015120582248 -0.00053781305905 -0.00049882841995 
-0.00036446959712 -0.00093977549113 -0.0017722249031 -0.002299884567 -0.0027171142865 -0.0029224988539 -0.0028047016822 -0.0022669523023 -0.0012236904586 
0.0002277752792 0.0015925156185 0.0025740391575 0.0032847221009 0.0024745936971 0.0015907065244 0.00098753522616 0.00062853947747 0.00042287140968 
-0.0012205297826 -0.0019557373598 0.0004474062589 0.00057126471074 0.00034830046934 0.00011035330681 0.00014657810971 6.9308967795e-05 -0.00032882663072 
-0.00026304618223 -0.00015529079246 1.4964531147e-05 0.00023907897412 0.00047251197975 0.00058542873012 0.0004525227705 0.00018456784892 2.9550452382e-05 
0.0004625878646 0.0016720391577 0.0030284421518 0.0039612809196 0.0032908446155 0.0018545924686 0.0025152389426 0.0025886523072 0.0024886601605 
0.0021085476037 0.0018078723224 0.0013877351303 0.00082984368782 0.0001250771893 -0.00079035368981 -0.0016117094783 -0.0021602250636 -0.0022477579769 
-0.002114318544 -0.002055173507 -0.001931554405 -0.0016669620527 -0.0012314061169 -0.0014278840972 -0.0017311006086 -0.002493273234 -0.0035563821439 
-0.0040006069466 -0.0028677289374 -0.001438090927 -0.00039726565592 0.00030491419602 0.00065717485268 0.00070965057239 0.0011822433444 0.0017560190754 
0.002524677664 0.0035110509489 0.0031557187904 0.0018982260954 0.00089243537514 0.00077722471906 0.001498788828 0.0020528763998 0.0021854622755 
0.0019225864671 0.0013853706187 0.00094780884683 0.00094780279323 0.0006405566819 0.00030397853698 -0.00039985697367 -0.00017009087605 0.00045365121332 
0.00086689629825 0.0011346612591 0.0017200601287 0.002097136341 0.0018504789332 0.0021453048103 0.0019680645783 0.0015579126775 0.00064868869958 
-0.00028353719972 -0.00019452274137 -0.00048393325415 3.5490673326e-05 0.00050825305516 0.00055980135221 0.00051018589875 0.00032086024294 0.00022980687208 
-9.2214817414e-05 0.00015679944772 0.00040888006333 0.00065510923741 0.00086148263654 0.00096597964875 0.00085704732919 0.00045969657367 4.38690804e-05 
0.00042208508239 0.0013815069105 0.0026055765338 0.0030460292473 -0.00013889155525 0.00052778015379 0.0012864471646 0.0017757626483 0.0019202830736 
0.0017062125262 0.0013433311833 0.0010169799207 0.00072343583452 0.00017694373673 -0.00035110904719 -0.0015207726974 -0.0015553646954 -0.0015952655813 
-0.0016939399065 -0.0018761384999 -0.0019903455395 -0.0018130830722 -0.0017464903649 -0.0021710204892 -0.0039504715241 -0.0041366377845 -0.0033059332054 
-0.0019920575432 -0.00095036055427 -0.00012244565005 0.00037618284114 0.0004894589656 0.00061741372338 -0.0031115238089 -0.0010653800564 -0.00076772912871 
0.0030389365274 0.0032834380399 -0.00013383872283 -0.00033011854975 -3.2418032788e-05 0.00011931411427 0.00077208445873 0.0014533562353 0.0020659365691 
0.0025158715434 0.00056603539269 0.00057653372642 0.00033915272797 9.5376872196e-06 -0.00026210807846 -0.00049713940825 -0.0011535857338 -0.0018780635437 
-0.0023814335 -0.0022997511551 -0.0021516373381 -0.0015954568516 -0.0015016867546 -0.0018880901625 -0.0021220059134 -0.0014012110187 -0.00049096002476 
0.00017048843438 0.00036127038766 0.0003110235557 0.00030166906072 0.00034284606227 0.00038845228846 0.00031982111977 0.00017757499882 2.5050867407e-05 
-0.00015388151223 -0.00013666752784 4.394948337e-05 9.1937356046e-05 -0.00051906384761 -0.0011544211302 -0.0017090141773 -0.0018499576254 -0.0015959186712 
-0.0014095435617 -0.00089015485719 0.0020453215111 0.00025110779097 0.00031455120188 0.0007722445298 0.00085812952602 0.0012122838525 0.0018431971548 
0.0023018708453 0.0032553025521 0.0039582047611 0.0029710910749 0.0015226114774 0.0011979819974 0.0018543766346 -6.9726716902e-05 0.00072728958912 
0.0015027463669 0.0021509113722 0.0023895658087 0.0021694814786 0.0016305897152 0.0025024067145 0.0022608854342 0.0017764398362 0.0013667119201 
0.00091033225181 0.00064962991746 0.0019134426257 0.0016242066631 0.00083823973546 0.00089596811449 0.00062313338276 0.00025641493266 -0.0002862609108 
-0.00031745023443 0.00015149044339 0.00037156156031 0.0015576841542 0.00083979603369 0.0022963213269 0.0028652793262 0.0024094399996 0.0018364408752 
0.00084646861069 0.00052780512488 0.00056522176601 -0.0018669456476 -0.0019426909275 -0.0022020624019 -0.0016587750288 -0.00090257276315 -0.00035595634836 
-0.00021824374562 -0.00026735721622 -0.00012155837612 0.00011237404397 0.00022631708998 0.00022057982278 0.00029564375291 -7.9751498561e-06 -0.00051310751587 
-0.0011987176258 -0.00049224315444 0.00031140746432 -0.00025764660677 -0.0009377609822 -0.0013614217751 -0.001656889217 -0.0020171015058 -0.0025738461409 
-0.0028169921134 -0.0030606868677 0.00024618153111 -0.00362486206 -0.0036491453648 -0.0030690385029 -0.0021267414559 -0.0012874071253 -0.00049620453501 
8.3074621216e-05 0.00033687954419 0.00086472090334 0.0016986028058 0.001411364763 0.0012035486288 0.0010515546892 0.0012623695657 0.001429921831 
0.0010797091527 0.00042354952893 0.00013211238547 -0.00016052163846 -0.00028319828562 -6.7429748015e-05 -0.00016908484395 -0.00049733312335 -0.00082833395572 
-0.00087670399807 -0.00097413698677 -0.0012667338597 0.0016015248839 0.0017807884142 0.0018897347618 0.0015447367914 0.00061020522844 -0.00049613363808 
7.3169445386e-05 0.00043118858594 0.00033580878517 0.0012233343441 -0.0017214985564 0.00072584318696 0.0011323312065 0.00092832243536 0.0010994620388 
-0.0021108677611 0.0011747125536 0.0017376206815 0.0024445182644 0.0024887972977 0.0029092554469 0.0028045880608 0.0011544536101 0.0008172573871 
0.0012272153981 0.0012580243638 5.4955678934e-05 -0.0005663294578 0.0010099882493 8.8673463324e-05 9.527891234e-05 -3.1897103327e-05 6.1470760556e-05 
-0.001337344409 -0.0019603576511 -0.0025857989676 -0.0028986842372 -0.0029303373303 -0.0042218351737 -0.0035329530947 -0.0028397904243 -0.0025341261644 
-0.0019527745899 -0.0015693659661 -0.001011357177 -0.00062864663778 -0.00091813679319 0.0041187973693 0.00098143913783 -0.00029237649869 -0.0002905013971 
-0.00035066640703 -0.00066340301419 -0.00047330095549 -0.0001989130833 0.00050005118828 0.000482963369 0.00034599460196 0.00020434822363 0.00017035653582 
0.00013747758931 0.0013188698795 0.0012616987806 -0.0019281448331 -0.0018728331197 0.00032737047877 0.00047080748482 0.00065346434712 0.0004811945546 
0.00020918545488 0.00025884364732 
Stress_YZ 1 1064 double
0.0035079016816 0.0050975382328 0.00082875054795 0.0028686921578 0.0019851799589 0.0025351480581 0.0049070627429 0.0043274513446 0.0034435831476 
0.0026410294231 0.0021829730831 0.0016325305915 0.0014927050797 0.0015611964045 0.0013537857449 0.0010520634241 0.0007728698547 0.00082985323388 
0.00061151455157 0.001071334118 0.00096272444353 -1.3559333638e-05 -0.00098720251117 -0.0012932147365 -0.0011306527304 -0.00059723120648 -0.00097416265635 
-0.0021003126167 -0.0030660959892 -0.0035816780291 -0.0035100951791 -0.0027344943956 -0.0019867806695 -0.0015987170627 -0.0013748059282 -0.0016921672504 
-0.002436252078 -0.0028369722422 -0.0023284603376 -0.00060785503592 0.0016455309233 0.0029261312447 0.00063157378463 0.0012321374379 0.001417512889 
0.0012305346318 0.0015640457859 0.0022814164404 0.0027380709071 0.0031003127806 0.0032474903855 0.0032644001767 0.0038097254001 0.0037745060399 
0.0038836924359 0.0039517488331 0.0043344045989 0.0034368664492 0.0020694318227 0.0010680479463 0.0002034700592 -0.00092785974266 -0.0017737174639 
-0.0024780381937 -0.0027904042508 -0.0035353675485 -0.0045822025277 -0.0049246344715 -0.0034924820065 -0.0017399779754 -0.00025703891879 0.00022574407922 
0.0002848248987 0.00054855959024 0.0012629604898 0.0023921418469 0.0017588739283 0.0016065518139 0.00079275958706 0.0010793615365 0.00030235914164 
0.0021381110419 0.002002381254 0.00067428447073 -0.00061143300263 -0.0018753230106 -0.0029252599925 -0.0024819846731 -0.0026967381127 -0.0038292175159 
-0.0042531243525 -0.0036490359344 -0.0025690679904 -0.0024488405325 -0.0014958181418 -0.00050522625679 -0.00016922743816 -0.00018492816889 -0.00027180364123 
0.00019243638963 0.002972128801 0.0040540490299 0.0045374440961 0.0051637035795 0.0057455296628 0.0055379844271 0.003641835181 0.0026681737509 
0.0019237080123 0.00093335256679 -5.9416099248e-05 -0.00057613832178 -0.00070888712071 -0.00079818948871 -0.00069985212758 -0.00054393353639 -0.00059150822926 
-0.00053747720085 3.0666211387e-05 0.00048123137094 0.00064400088741 0.00056054239394 -6.5018088208e-05 -0.0014316240558 -0.0023440178484 -0.0023268393707 
-0.0022810501978 -0.0024501213338 -0.0025901116896 -0.0021338181105 -0.00095122097991 -1.0994822333e-05 0.00067520566517 0.0010854551801 0.0010295610409 
0.00047893580631 -8.387743037e-06 -0.00023556753877 -4.0642251406e-05 0.0002877387451 -0.00026391685242 0.00013400154421 0.00023373872682 0.00028669214225 
0.00026559591061 0.00060721824411 0.0015714683104 0.0027161221951 0.0033621164039 0.0036693317816 0.0036681881174 0.0035241933074 0.0039170403033 
0.0038199797273 0.0037377723493 0.0038388536777 0.0039070951752 0.0035587523598 0.0021954965778 -5.3520358051e-05 -0.0026656563859 -0.0044240849093 
-0.0048474674113 -0.00418112427 -0.003291557543 -0.0018329389859 -0.00043543532956 0.0010708705522 0.0010352757527 0.00022974291642 -0.00044687485206 
-0.0010768177453 -0.0016381478636 -0.0013335682452 0.00067156978184 0.002607771894 0.0028201080859 0.0023881890811 0.0025290104095 0.0030813163612 
0.0030706855468 0.0018465790199 0.00016501720529 -0.0013935613679 -0.0023401721846 -0.0033773947507 -0.004067517817 -0.0043144184165 -0.003891767934 
-0.0031780775171 -0.0026421833318 -0.0021093743853 -0.0013672384666 -0.00026982164127 0.00035898102215 0.00058062002063 0.00057220389135 0.00024271513394 
0.00016740059073 -0.0020590510685 -0.0024069503415 0.005324525293 0.0049093221314 0.0044213612564 0.003703229595 0.0025980344508 0.0017613427481 
0.00076045235619 -0.00017284443311 -0.00070865487214 -0.0009725180571 -0.00070492795203 -0.00028899637982 5.5112928976e-07 -7.2339958024e-06 -4.092727977e-05 
0.00016712925571 0.00071515946183 0.0011794849997 0.001091451617 5.7760815253e-05 -0.0011648586951 -0.0013620849932 -0.0015166836092 -0.0016659141984 
-0.0016652022023 -0.0013798184227 -0.00071712449426 6.3281273469e-05 0.00056680879788 0.00079135224223 0.00066412100568 0.00032945588464 2.2675361834e-05 
-0.00037488236558 -0.00088745454559 -0.0013879778562 -0.00060791190481 0.0010380436433 0.0026753824204 -0.00076477311086 -0.00013629646855 -0.00083474273561 
-0.0009117773152 0.00013143723481 0.00033539094147 -8.6135041784e-05 -0.00024271063739 -0.00051302101929 -0.00091839843662 -0.0012773382477 0.00017659638252 
0.0016611345345 0.0024939991999 0.0025091646239 0.0026349478867 0.002569509903 0.0022745633032 0.0018539746525 0.00091337488266 -0.00036663620267 
-0.0019231747137 -0.0034017500002 -0.0042974832468 -0.0039115687832 -0.0035044346005 -0.0031361575238 -0.0027076909319 -0.002205447061 -0.0015237082262 
-0.00064725620905 0.00020188045164 0.00069918500958 0.00080136506585 0.00043305251165 9.7398711659e-05 -0.00022558364435 -0.00037840663572 -0.000345173612 
-0.00011403011013 0.00046638387721 0.0014676799765 0.0023228188511 0.0030482469592 0.0037360126153 0.0040562357754 0.0040133460425 0.0037032971159 
0.0032197819091 0.0028845963534 0.0029055713676 0.0025678973179 0.0012143643107 -0.00045985952602 -0.0023317323066 -0.0042758411728 -0.0050660544075 
-0.0047279139981 -0.0038464521058 -0.0025795877445 -0.00095614267047 -1.3855104044e-05 0.00055782945128 -0.0010426123627 -0.0016988728894 0.0010366829811 
0.00011099090625 -0.00038486294216 -0.00047518775682 -0.00052795279771 -0.00064918823773 -0.00078263593605 -0.00085256621242 -0.0006627003313 -0.00028870455571 
-1.7441358068e-05 9.6425406809e-05 -1.6151276213e-05 -0.00046994470176 -0.00093930272851 -0.0016573547618 -0.0014504021965 0.00012630940182 0.0013580981176 
0.0031585562974 0.0039498158731 0.0036262059584 0.0032999985851 0.0028814880643 0.002316637896 0.0014782780781 0.00057837372879 -0.00015709112631 
-0.00066358887125 -0.00084202951984 -0.00047967472346 4.038429779e-06 0.00022760340653 0.00018243657541 0.00018546990759 0.00038128683809 0.0007886866224 
0.0012501312885 0.0010625924915 0.00067844102159 0.00077169988072 0.0024399571121 0.0027335735504 0.0015351427719 0.0043412996456 0.0042091505602 
-0.0011822947999 -0.0012088965159 -8.1959733507e-05 -0.00058046838967 -0.00069328851532 -0.0006561204209 -0.00081981072435 -0.0011503242422 -0.0012636102038 
-0.0011952751083 -0.0016700115521 -0.0011721407063 -0.0001131335739 0.00097311456921 0.0017368368572 0.0022441647016 0.0023982673883 0.0025145665277 
0.0030463268049 0.0026930281892 0.002036007354 0.00076549540972 -0.0012204981176 -0.0028141341172 -0.0033470469061 -0.0034818879794 -0.0035629158374 
-0.003156619845 -0.0029090330936 -0.0025778312702 -0.0018362996634 -0.00090090505546 7.3661990427e-06 0.00069682515459 0.00092871324159 0.00050847930834 
9.2424001195e-05 -0.00016091820726 -0.00034688427695 -0.00043961062329 -0.00024106432102 0.00022331521905 0.001041300362 0.0020567465108 0.0029518790543 
0.0035302995238 0.0038489310537 0.0037062633783 0.0030734050088 0.0024149301462 0.0020960511174 0.0019733640365 0.00050372828264 -0.0011082154233 
-0.0025559565984 -0.0036319051869 -0.004325739108 -0.0042202658951 -0.0033861342818 -0.0019518561894 -0.00077631726163 -5.7876561186e-05 5.3672545619e-05 
0.00010335139814 -0.00012399513798 -0.0008861158276 -0.00095648039132 -0.00071737373946 -0.00054746033857 -0.00042748035048 0.00020719501481 0.00055100227473 
0.00059674779186 0.00022223121778 0.00010376417777 -9.4633593108e-05 -0.00051257031737 -0.00055763719138 -0.0003218788188 -0.00034331640927 0.0014694869751 
0.0015510536032 0.00072028720751 0.00018994916172 1.9533910745e-05 1.1320707927e-05 -8.3069251559e-05 -0.00033613265259 -0.00067430216586 -0.0010113347089 
-0.0011256361613 -0.0010324140312 -0.001075614593 -0.0012821397977 -0.0016021582996 -0.0018540861784 -0.0019097437616 -0.0019214259228 -0.0017293521669 
-0.0016561421799 -0.001467290218 -0.00040056483704 0.0011965659214 0.0020027335268 0.0027863036375 0.0038791790139 0.00410710508 0.0038752369583 
0.0037438385189 0.0036654989235 0.0035817588214 0.0033415646758 0.0026952724438 0.0020739526954 0.0017192112282 0.0013323979219 0.00081538921222 
0.00034162722295 0.00012864517339 -5.6970198784e-05 -0.00020501531253 0.00033434061334 0.00045207017683 0.00038151731133 0.00043414294487 0.00062258529942 
0.00091913045617 0.0011797462357 0.0010873975698 0.0006885281764 0.0015203931835 0.0031358653214 0.0034231583122 0.003137481166 0.002240522299 
0.0013232151978 2.6315834475e-05 -5.8353631175e-05 -0.00068644416751 -0.00045514616068 -0.00090046110563 -0.0010280176066 -0.00076042313594 -0.00016194341879 
0.00062327354681 0.0013764450559 0.0019520996138 0.0022474725265 0.0023098061793 0.0027253767475 0.0029090053868 0.0023911497556 0.0015071041416 
-0.00033601518953 -0.0018730013398 -0.002520193113 -0.0027240724303 -0.0029929950833 -0.003189854091 -0.0030396317597 -0.0026053371839 -0.0019614105113 
-0.0011238399893 -0.00029649672797 0.00042919174302 0.00086168863345 0.00025225841091 8.3886996435e-05 -1.3822533219e-05 -0.0001831772679 -0.00015029514907 
0.00020397682965 0.0010608618613 0.0021975305863 0.0029074659105 0.0030461833812 0.0028746051248 0.0027252554428 0.0023760597687 0.0019895520527 
0.0016588162398 0.0014807767002 0.0013313450618 0.0011513541685 0.0010444041109 0.00056106544798 -0.00018800834368 -0.0011479408713 -0.0024968094658 
-0.0032043226529 -0.0032110861503 -0.0030122282915 0.00055733532645 0.00079385039862 -0.00027913184022 -4.0949020331e-05 0.00034104197402 -9.791876073e-05 
-0.00048860441893 -0.00065680302214 -0.00036860237014 8.7981497927e-05 0.00066719180904 0.0012962676119 0.0018072265666 0.0020930650644 0.002301880857 
0.0019684545696 0.0017638145946 0.0016254137736 0.0012332467595 0.00031158034108 -0.00085347308777 -0.0016488517867 -0.0022490839474 -0.0025727192406 
-0.002696252428 -0.0024024536833 -0.0022579487413 -0.0018485381734 -0.001179853105 -0.0003946472134 0.00025490485132 0.00068705622107 0.00065100716893 
0.00031669740565 0.00034250007593 0.00037063803757 0.00030819518724 0.00023216739646 6.9065557909e-05 -0.00022185858688 -0.00034145248355 5.462151239e-05 
0.0010714865057 0.0018393024802 0.001969936071 0.0019010226242 0.0015466659097 0.0016493406147 0.00179611356 0.0017467862926 0.0014920869144 
0.0013573375763 0.0012528416701 0.0010352306999 0.0008757202886 0.00059298047563 4.7106372222e-05 -0.00048520817654 -0.0011365120299 -0.001980091678 
-0.0021699853241 -0.001557191601 -0.0014567322796 0.00074367912021 0.00029351413832 1.7568869225e-05 -5.4064850701e-05 -0.0001054582317 -0.00026292115217 
-0.0006078305305 -0.0011083988938 -0.0015943996841 -0.0019639260136 -0.00219536433 -0.0023574661463 -0.0024969382212 -0.0026433183812 -0.0025417769793 
-0.0023665213957 -0.0021734999027 -0.0019187480211 -0.0017369400011 -0.0015661759535 -0.00099833286367 0.00018163780624 0.001421427005 0.0018437731778 
0.0021764354315 0.0027437545359 0.0030912635848 0.0031542377546 0.0031431973912 0.0033312635496 0.0034748052713 0.0030485067982 0.0022536120377 
0.0011304853251 6.1126233959e-06 -0.00065575959161 -0.00073846394662 -0.00032561804983 0.00019848989905 0.00047446004464 0.00043621068471 0.00042945815949 
0.00059318239801 0.00017562239373 0.00013010867406 0.00045495299855 0.00065433152486 0.00076966843335 0.0009439222049 0.0012944859918 0.001242249622 
0.0011361030629 0.0009352126508 0.00056198565289 0.0015233296435 0.0025852983817 0.0029478326906 0.0027120376471 0.0021383904386 0.0028122572694 
0.0018459616695 0.0010969862342 -0.00019620210514 0.000229495854 0.00072609836934 0.0011485979194 0.0015826310264 0.0016482827486 0.0014013338368 
0.0012238223571 0.00095077784499 0.00051647674991 0.00061248341808 6.2469160184e-05 -0.00074884516653 -0.0016064356314 -0.0018993588164 -0.0016807037173 
-0.0016580724623 -0.0016287401086 -0.001285801176 -0.00071948498953 -0.0002576225088 0.00015180098126 0.0001684675226 0.00026095475187 0.00018679199275 
8.873725892e-05 0.00011002879182 0.00018480146537 0.00023946654983 0.00020625663456 8.4371306002e-05 -0.0001974748302 -0.00060113525251 -0.00073459837586 
-0.00044197929674 8.4285420598e-05 0.00085269723786 0.0010336895939 0.00098708155565 0.0010707635665 0.0012523190817 0.0013930781279 0.0013575033518 
0.00090223248117 0.00045046253945 0.0010109656723 0.00060577876866 0.00071123032831 0.00070929550566 0.00031838106224 -2.4463462978e-05 0.0004966458655 
-1.9629185772e-05 -0.00039226026274 -0.00045083483565 -0.00037862409954 -0.0003922652686 -0.00059463706566 -0.0010321943555 -0.0017528453609 -0.0027604191564 
-0.0033009825274 -0.0033163072076 -0.0032608795445 -0.003044143552 -0.0026695311535 -0.0019409067463 -0.0018963491311 -0.0017261172179 -0.001499639242 
-0.0011694054119 -0.00070802791743 3.2397321775e-05 0.00073823268758 0.00092986115487 0.0012031374499 0.001782351057 0.0021309733856 0.0023618245032 
0.0026528234594 0.0030841981061 0.0034544467926 0.0030687064864 0.0020608282648 0.00062476674793 -0.00088357209461 -0.0018419489497 -0.0018147190567 
-0.0010540341027 -2.5872242986e-05 0.00057356955949 0.00078167370521 0.00089118472533 0.00096385035431 0.0010389015079 0.00071334029781 0.0005129109486 
0.00037340424024 0.00055052497191 0.0011796656763 0.0015696969349 0.0016238678945 0.0015342128463 0.0010828718077 0.00082822644617 0.00063593994128 
0.00058511161478 0.0010838630842 0.0015611207346 0.0013873162679 0.0015865459573 0.0012937098509 0.0011182952439 0.0020237795543 -0.00050123326946 
0.00023736833828 0.00087903963868 0.00069350673584 0.00026902512764 0.00020126132586 0.00018994853599 0.00010296464461 -2.0863380996e-05 0.00014537670359 
0.00013005935762 -1.331954445e-05 -7.6740718214e-05 0.00027399105602 0.00073418876855 0.0011526168091 0.00079795345664 0.00031893281266 -1.9345185137e-05 
-0.00040891580284 -0.00068446004298 -0.00065016292501 -0.00050414580619 -0.00044247187907 -0.0005454288912 -0.0008712237468 -0.0015804009745 -0.0027603060007 
-0.003812530078 -0.0034202064853 -0.0033769577276 -0.0028139520437 -0.0011520999251 -0.0012262637028 -0.00137922063 -0.0013927951222 -0.0012496517738 
-0.00086216232739 -0.00044939058716 -0.00013199134264 0.00011520530097 0.00026860588696 0.00051683501806 0.0011738233734 0.0015738639049 0.0020367007237 
0.0027971949894 0.0033697565086 0.0032733022235 0.002037555445 0.00048999022692 -0.00063984352164 -0.0020765359513 -0.0013278436381 -0.0003446842602 
0.00042267731624 0.00083345762687 0.00099991890602 0.0011749059195 0.0012596274028 0.0012895406689 -0.0017306759255 0.00084015436005 0.00048057723325 
0.00022151335725 -3.7463665649e-05 -0.00093568710145 -0.0013154232875 -0.00053796143038 -0.00051861535758 0.0001201289997 0.00041738871369 0.0003106019285 
0.00038407393731 0.00033973882091 0.0005735103623 0.0010410508839 0.0012379616965 0.0012366310693 0.00094726704992 0.00044537396752 -0.00015790673206 
-0.00052587606478 -0.0006311837933 0.00013662391575 0.00060048955493 0.0011002602987 0.0011960233096 0.00098946853541 0.00014859436487 -0.00043733531493 
-0.0006110505783 -0.00089158356423 -0.001154016587 -0.00099527591374 -0.00068350345828 -0.00039733335143 -0.00012443310698 6.3806044636e-05 0.00011849396833 
0.00014262080367 0.00014649689547 8.6192660092e-05 -4.4436714234e-05 -3.705216659e-05 7.6773048931e-06 4.6320037654e-05 -4.7008710681e-05 -0.00028567682602 
-0.00062921061181 -0.00096594588831 0.00056390260579 0.00052182638319 0.0010263201548 0.0011411659652 0.0011897400254 0.0008791720029 0.00070306070847 
0.00080832396634 0.0011813511373 0.0016974435421 0.0021495467518 0.0014076880179 0.00092689145822 0.00060325086815 -0.0012991162948 -0.0015160813928 
-0.0014066654257 -0.0011300253682 -0.00059303146554 -0.001085358439 -0.0015167406527 -0.00039417209337 -6.4680134528e-05 0.00034721958218 0.00061201787321 
0.00076732184971 0.00094752991572 0.00066124740988 0.00021927089256 0.00046301665134 1.1367196748e-05 0.00019381474704 0.00043053060654 -5.8355253714e-05 
0.00013045848755 0.00038638987462 0.00037030540989 0.00033582551987 0.00029856705805 0.0005161894951 0.00061999034369 0.00093869341072 0.00077135057654 
0.00082105060574 0.0011612538947 0.00072321435437 0.00087846303359 0.0019157285569 0.0021732265595 0.0017542651622 0.0010566298151 0.00032071946771 
-0.00051041255938 -0.00069473317126 -0.00064434082014 -0.00050381408073 -0.00028920851764 -4.5630949899e-05 9.6788797237e-05 -0.0003839158453 -0.00033371665631 
-0.00022749268101 -0.00066102488199 0.00082644209033 0.0011065134313 0.0010554066394 0.00090013758745 0.00055203848751 -8.4785802756e-05 -0.00078123400453 
-0.0012561279582 -0.0014704521745 -0.00082960317377 -0.0017888513394 -0.0012083472684 -0.00032568071038 0.00043299773824 0.00082402670523 0.0010367558571 
0.0012045725016 0.0012492889073 -0.00092119467445 -0.00060085463338 -0.00035409900011 6.9548727879e-06 0.00027605157811 -0.00086364633171 -0.00071791571099 
-0.00039814936463 2.9786633604e-06 8.6586391262e-05 0.00024184952781 0.00014963344438 -0.00017604326422 -0.00021377712255 -6.2710998463e-05 0.0001682737784 
0.00054715352599 0.0012442514999 0.0022484539077 -0.0024879097473 -0.002672304865 -0.003015865339 -0.0022024635691 -0.002943915315 0.0018493594835 
-8.4321225586e-05 -0.00036590377567 -0.0020561919082 -0.00099909631535 0.0029622844886 -0.0003976325097 -0.00017725257203 -0.00037917520967 -0.00033304860699 
0.0030780248344 -0.00040861230809 0.0011073761852 0.00093006493989 0.001314453315 0.0018116236897 0.0016578244977 -0.00064918090357 -0.001195433666 
-0.00085695798043 0.00083601195365 0.0012323368574 0.0011062311241 -0.00032208848279 0.0002189608058 0.00012529884407 0.00010825568461 4.4192656787e-05 
0.00095181143843 0.0006267458084 -2.2748476113e-05 -0.00071148289135 -0.0012465459295 0.004942279309 0.0049246223643 0.004681834951 0.0045196209103 
0.0051385974512 0.0050664739683 -0.00069372885628 -0.00074869010132 -0.00049297034275 -0.0027162141632 -0.0017598555423 0.0012592200655 0.00023996720847 
0.00059340335429 0.0013158998918 0.0009761195397 0.00072509713937 -0.00035190969356 -5.1470469771e-05 0.00012500461889 0.00024954226683 0.00016300933203 
0.00016920895723 -0.00036585167982 -0.0001232540526 0.0021898578852 0.0013940675417 0.00018736171478 -4.002148853e-05 -0.0002907596936 3.8294172555e-05 
0.000249051227 0.00031741708517 
Stress_XZ 1 1064 double
-0.0038497054484 -0.0046334499493 -0.0041734855622 -0.0016299964627 -0.0024175173603 -0.00082500482677 0.001561084995 0.0018949914956 0.0021923265886 
0.0023909376469 0.0024505699985 0.0023376883473 0.0017826311523 0.0014580597635 0.0011030535679 0.00087832601275 0.00034459409653 -0.00026184198214 
-0.0004354629782 -0.0021243658848 -0.0023249620572 -0.002349102404 -0.0021813448984 -0.0020570112392 -0.001064453274 -6.4412910433e-05 0.0011157164117 
0.0015175711596 0.0015536950668 0.0013060917845 0.0011433168547 0.00077065860387 0.00039621823817 0.00036018702667 0.00057059951359 0.00071337912232 
0.0010921828216 0.00082501413999 6.0598937125e-05 -0.0010431688279 -0.0020089612808 -0.0033185128123 0.0015157238813 0.002046829788 0.0025752366055 
0.0024342264514 0.0020183019806 0.0015366582666 0.0011439076625 0.0010351139354 0.0012175297597 0.0013887492241 0.0013858473394 0.0019977760967 
0.002785049146 0.0036462999415 0.0041901394725 0.0044320118614 0.0037695886567 0.0019910442643 -0.00079982128227 -0.0032263982575 -0.0041957963258 
-0.0039344616234 -0.0032332863193 -0.0030433593784 -0.0024885814637 -0.00236357213 -0.0024708134588 -0.0026187298354 -0.0026173959486 -0.0025280527771 
-0.0022653406486 -0.0011938042007 0.00072651618393 0.0038016568869 0.004726304207 0.0043860538863 0.0033161849715 0.0017532460624 0.001339163864 
0.0010939366184 0.00048119580606 0.00033270620042 0.00096745602787 0.0024714614265 0.0040712519549 0.003015729133 0.002170648193 0.0017790871207 
0.00081600074191 -0.00069200154394 -0.0020605807658 -0.0035058781505 -0.0046970113181 -0.004930570256 -0.0044164382853 -0.0030027087778 -0.0010873459978 
0.00054676650325 -0.0078028575517 -0.0066928537562 -0.0049332519993 -0.0034337602556 -0.0011212377576 0.00084446894471 0.0019737679977 0.0033441232517 
0.0042826039717 0.0041659367271 0.0031656594947 0.0022967616096 0.0017309966497 0.0012636122992 0.00019162645913 -0.0012441735016 -0.0025906998198 
-0.0036971850786 -0.0036755483598 -0.0036703743972 -0.0039792074822 -0.0043962174095 -0.0040618591011 -0.0025182887912 -0.00043425531476 0.0015142069897 
0.0020550880581 0.002166389022 0.0024014341179 0.0026570877526 0.0027215050068 0.0025975487661 0.0021772992332 0.0013938534539 9.7671530966e-05 
-0.0011380433571 -0.0019613625482 -0.0022512730211 -0.0032230070792 -0.0048274653964 -0.007173480466 -0.0085826171562 -0.00073025579331 -0.0001969566074 
0.00067684077658 0.0017046057619 0.0023286279757 0.0027220887132 0.0029458585195 0.0031713291537 0.0036735809408 0.004243993666 0.0049548028037 
0.0049324897118 0.0044186478481 0.004243535921 0.0038607949391 0.0027664036024 0.0012940852903 -2.2736714527e-05 -0.0015520879533 -0.0036273561418 
-0.0052322093397 -0.0053412038833 -0.0051528937183 -0.0038713170215 -0.0045475871302 -0.0048758867197 -0.004156912677 -0.0026749859098 -0.0011935580987 
2.8373664463e-05 0.0014113265788 0.0025055552833 0.0031448882073 0.0044920803048 0.0042932205833 0.0036731550936 0.0033736326732 0.0033047581092 
0.0038892920129 0.0047882576473 0.0053858212195 0.0050579491071 0.0036070880014 0.0019584312104 2.3437780328e-05 -0.0014682156034 -0.002732465975 
-0.0038782174233 -0.0047747166827 -0.0055409236811 -0.0065921805799 -0.0071915211156 -0.0073624048382 -0.0065271272324 -0.0048844148405 -0.0029375860468 
-0.0016864585923 -0.0041439533234 -0.0055392445065 -0.0019968484994 0.0010059399065 0.003388494486 0.0054059275426 0.0066819326021 0.0071400450543 
0.0066136033274 0.0051578977145 0.0038023407105 0.0030180544127 0.0022614328191 0.0010330220684 -0.00062408251688 -0.0023481629323 -0.0037960454356 
-0.0045261750929 -0.0046120891348 -0.0045882756822 -0.0046255965717 -0.0038384690415 0.00052477931604 0.0021002762951 0.0030935613904 0.003913437482 
0.0047556529753 0.0054932576604 0.0058854385279 0.0057311970741 0.005043447949 0.0037184611429 0.0017576154787 -0.00061123701744 -0.0031075798906 
-0.0045575490221 -0.005621205084 -0.0071591679007 -0.009415384382 -0.010550470091 -0.0098850643262 -0.0011281588813 -0.0018526539207 -0.0061525213532 
-0.005903435871 -0.0062083518133 -0.0059066549875 -0.0048895454966 -0.0037951404229 -0.0023649367504 -0.00076654972509 0.00071344553726 0.0026581564452 
0.0038887197152 0.0046322611161 0.0050906431861 0.0058728624135 0.0066397902556 0.0070007876493 0.0072105238214 0.0069663561881 0.0062982789241 
0.0049649076536 0.0033109150827 0.0012164111249 -0.00050275173271 -0.0020549003966 -0.0035917754285 -0.0048426510766 -0.0057939686812 -0.0067884777673 
-0.0072973985225 -0.0074026868679 -0.0068775378168 -0.0058400495909 -0.0044108107686 -0.00304787606 -0.0017901129322 -0.00040339722182 0.0010948423296 
0.0026637078263 0.0039264368825 0.0046239788644 0.0050493529998 0.0054785348475 0.0059709614143 0.0063353120349 0.0066942195408 0.0061925053596 
0.0053822835907 0.004670616705 0.0036393492483 0.0021912113298 0.00094012153568 -0.00037148970296 -0.0020939789247 -0.0040214844048 -0.0056377802975 
-0.0063891280442 -0.0067892726511 -0.0068470826373 -0.0066149500199 -0.0056232050993 -0.0060962871648 0.0021402388811 0.0012443488231 -0.00067585514626 
5.5821732531e-05 0.0010391166434 0.002236454282 0.0032816550229 0.0043654278852 0.0055421926081 0.0065962369554 0.0072830538265 0.0072874398902 
0.0063853678294 0.0046904692426 0.0024309284054 -0.00033924242598 -0.002772887703 -0.0066345264204 -0.0079684527591 -0.0090018603951 -0.00837782491 
-0.0082070417702 -0.00078214111272 0.001715634251 0.0040833102539 0.0063426764682 0.0080797327682 0.0087903337553 0.0081193009391 0.0065773678944 
0.0051535395905 0.0040762261488 0.00291547901 0.0015505356714 -7.194889622e-05 -0.0018453646917 -0.0034601462539 -0.0046392716467 -0.0051036612131 
-0.0047847232781 -0.004630392883 -0.0038784497883 -0.0021765397396 -0.0013956134208 -0.0011363108642 -0.00041440693894 -0.0025826860219 -0.0034464313649 
-0.0052040405571 -0.0036183320917 -0.0052922940813 -0.0044793263078 -0.003631980624 -0.0026308030356 -0.0014797233744 -0.00047154899221 0.00019038753817 
0.00034027450602 0.0011521910783 0.0016723196022 0.0025556688197 0.0037933315616 0.0047780205496 0.0055571692064 0.0065355561674 0.0072499415837 
0.0073244618252 0.0068181417882 0.0062793991528 0.0058031431399 0.0047442470677 0.0034895429853 0.0017768528778 0.00018022340373 -0.0012946773786 
-0.0028591034934 -0.0043295351788 -0.0055381515995 -0.006450174842 -0.0068760500289 -0.0069758449681 -0.0066872918978 -0.0058125886135 -0.0045898146927 
-0.0033664805815 -0.0020540112164 -0.00045293595758 0.0014975806698 0.0033988649957 0.0048442399129 0.0056038694456 0.0061800996773 0.006616811268 
0.0070576420985 0.0071116941981 0.006704704836 0.0060582780279 0.0052334903739 0.0043659559451 0.0033041983843 0.00034978007898 -0.00077822589083 
-0.0023114930373 -0.0039949999191 -0.005379863549 -0.0064462232403 -0.0071069584228 -0.0070939008147 -0.0064323553815 -0.00553386705 -0.0046469229273 
-0.0046590492129 -0.0042075035162 -0.0039171967655 -0.003524892265 -0.0027742823586 -0.0018984469352 -0.0064061423764 -0.0056868796237 -0.0047627328895 
-0.0036330523435 -0.0038095777854 -0.0036233055871 -0.0033766289707 -0.0032513272017 -0.0031296862289 -0.0027067947667 -0.0020589758642 0.0013645464787 
0.0022745591123 0.00039803425898 0.0013021031627 0.0023778015748 0.0035090970341 0.0047075687908 0.0060923779383 0.0074312519282 0.0082695158198 
0.0082869250327 0.0074034119025 0.005783685483 0.0035124982242 0.00097060680855 -0.00098661147058 -0.0015982912155 -0.0012155734003 -0.0029863698874 
-0.0044376109727 -0.005635516718 -0.0063448748551 -0.0066464985721 -0.005488615483 -0.0050132172182 -0.0047754719853 -0.0044775437564 -0.0039760083891 
-0.003518617712 -0.0028816419654 -0.0020685377531 -0.00045689567924 0.0016576965572 0.0039206808433 0.0061188186519 0.008237246424 0.0097914179787 
0.0095270909369 0.0077209477313 0.006205023732 0.0050227092579 0.001583775389 7.9816280049e-05 -0.0017612912925 -0.0035971617326 -0.0049228491262 
-0.0055365157314 -0.0052875401452 -0.0049495529383 -0.0044807973318 -0.0034645122942 -0.0027461706195 -0.0022690002806 -0.0012506803032 -0.00099193712231 
-0.00049408129416 0.0029761076439 0.0038812861312 -0.00031047713128 -0.00016966629482 0.00039761795779 0.0010359635344 0.0017891713651 0.0026822225191 
0.0036334320903 0.0045514306985 0.0053415102884 0.0059546628036 0.0060150823556 0.005654307548 0.0052687488496 0.005095591303 0.0051835617051 
0.0045403731056 0.003561621299 0.0020397959743 0.00051772815641 -0.0008295958396 -0.0021736188792 -0.0035678509157 -0.0047416975722 -0.0056070084684 
-0.006052271463 -0.0061028338969 -0.0058576776646 -0.005086556077 -0.0026002319064 -0.0013923847582 0.00026862279628 0.0023746939842 0.004212517757 
0.0054165222682 0.0061753042974 0.0068912161514 0.0075150327757 0.0076127569191 0.0071985176764 0.006333024241 0.005486917682 0.0046697966754 
0.0038612210192 0.0031342597213 0.0025757031981 0.0019987055566 0.0013144097757 0.00060628895881 -9.2791458883e-05 -0.0012904027244 -0.0026135037187 
-0.0041381199844 -0.0055672354065 -0.0066581382416 -0.0034625572152 -0.0034591953736 -0.00092358066468 -0.00064341991674 -0.00031804849277 2.520594353e-05 
0.00036002416164 0.00091302144574 0.0015775782522 0.0022791977972 0.0031422087923 0.0039203269407 0.0044390433468 0.004617259372 0.0044145397842 
0.0041696573608 0.0039858515374 0.0041546090506 0.0043849344365 0.0040390393697 0.0035780987237 0.0021770279855 0.00071551190922 -0.00048539278214 
-0.0015482023591 -0.0026029639412 -0.0036298315972 -0.0044036912732 -0.0048622959293 -0.00483407313 -0.0045048859902 -0.0038292401005 -0.0030118816067 
-0.0021203053184 -0.0020963649731 -0.0018321298994 -0.0011735325679 -7.666167221e-05 0.0014625641052 0.0031982823275 0.004677628167 0.0056645078585 
0.0063545871526 0.0068175476044 0.0072679226287 0.0071159075014 0.0067553683184 0.0059461332858 0.0050698276609 0.0042535066605 0.0034970536362 
0.0029161134735 0.0026185668539 0.0023168514017 0.001523760031 0.00057016097708 9.0701803856e-05 -0.00045054024667 -0.0016275419621 -0.0031075561419 
-0.0045086550526 -0.0059364535846 -0.0066725327633 0.0003529060632 0.0012941539753 0.0023817629553 0.0035207720939 0.0047316998243 0.0061296541244 
0.0075636929832 0.0086851622909 0.0090485047549 0.0083586163819 0.0068450346589 0.00476442324 0.002603644738 0.00092057645088 0.00016097565822 
0.00038868081174 0.0010949604912 -0.00050720432773 -0.002029185649 -0.0032277912833 -0.0042770029977 -0.0052354903892 -0.0055368877947 -0.0044805039652 
-0.0036302839871 -0.0032070688903 -0.0031673670746 -0.0030923662707 -0.0028469795361 -0.0025193758775 -0.0018793033669 -0.00054366193945 0.0015638784971 
0.0037845489569 0.0058461702429 0.0078376047313 0.0096425106749 0.0097644496709 0.0080215260386 0.006446861662 0.0052055567503 0.0037887908984 
0.002318326151 0.0022890667897 0.002173848683 0.0011884763371 -0.00040897005238 -0.0023196148686 -0.0041981432587 -0.0054274345748 -0.0061166919768 
-0.0059958114289 -0.0055017019622 -0.0053506582044 -0.0048607927747 -0.0039823236875 -0.0033448329195 -0.0025902304333 -0.0021671645809 -0.0013571101008 
-0.00086298346287 -0.00034638447687 0.00107244018 0.0018566681538 0.0026505468413 0.0032940562814 0.0036059669219 0.0036758354399 0.0037039292511 
0.0037898973096 0.0037079055328 0.0038117896765 0.0036089937203 0.0033259221818 0.0022255196236 0.00090978905791 -0.00011182335584 -0.00099390943069 
-0.0018670287682 -0.0026315329596 -0.0032390211709 -0.0036568101496 -0.0038080420345 -0.0036597854923 -0.003465190297 -0.0029402598739 -0.002336590318 
-0.0017813064624 -0.0014667301439 -0.0010778512806 -0.00057020987151 0.00011488309974 0.0011389785213 0.0024386588484 0.0037353744265 0.0049382369034 
0.0058763222769 0.0061920373701 0.0062136440538 0.0062871216796 0.0065057585016 0.0057884929702 0.004931461066 0.004077067133 0.0032810817938 
0.0043504643254 0.0041863801889 0.0030787256546 0.0028900525067 0.0020754106808 0.00093559845118 -1.736719787e-05 -0.00051762443036 0.00037301261909 
0.0012595413718 0.002283183625 0.0033470762428 0.0044963238761 0.0058311005123 0.0072205807082 0.0085557829589 0.0094234356657 0.0091473190114 
0.0076959989965 0.0059417202137 0.0040952223353 0.0026138057001 0.0027031481732 0.0030216255691 0.0014898130903 2.2932688807e-05 -0.0012921110028 
-0.0023236158304 -0.0032407343388 -0.0041140206158 -0.0041780811734 -0.0032312334515 -0.0023293965496 -0.0018997323932 -0.0020698595326 -0.0021365704015 
-0.0020344643854 -0.0018677710323 -0.0013950732537 -0.00024649105035 0.0017960692057 0.0040634409525 0.0061503374018 0.0074888840318 0.0086600668728 
0.0087127732113 0.0071920645423 0.0056849052198 0.0045361067168 0.0034517589957 0.0022681236733 0.0011085557053 0.00095892325044 0.0008001922979 
0.00058784079738 0.0002117069962 -0.00096775434213 -0.003037404269 -0.0047381636687 -0.0056856609881 -0.0060367146507 -0.005913337227 -0.0056025222875 
-0.0054124402814 -0.0049454560503 -0.0045749093406 -0.0042303893715 -0.0038135973737 -0.003146607196 -0.0022347113118 -0.00092110072728 -0.0059713707305 
-0.0057038115337 -0.0048804040998 -0.0038538773078 -0.0043257242069 -0.0029846131802 -0.0028337917756 -0.0028251686599 -0.0027945255861 -0.0024245930836 
-0.0025468997192 -0.002288457239 -0.001703369664 -0.001204543747 -0.00067260907963 -0.00013200922695 7.9989884398e-05 0.00025843337062 0.0006062630564 
0.0013473716099 0.0023027926218 0.0032720130403 0.0042851082981 0.0054784980603 0.0066902833059 0.0079545229673 0.0091435257345 0.0093485126272 
0.0079940697178 0.0066563333385 0.0053040403873 0.0042215106077 0.0031810675282 0.0023267392535 0.0014329596888 0.00036783586256 -0.00077372061787 
-0.0018234786112 -0.0024447327014 -0.00302055059 -0.0031446737703 -0.0025610872544 -0.0020267243963 -0.0011170395883 -0.001163432491 -0.001176543301 
-0.00093195418594 -0.0004433291615 0.00059127301211 0.0024431184866 0.0044630439952 0.005790500436 0.0073980460875 0.0070716282353 0.0058270706795 
0.0045976061374 0.0037054466084 0.0029932153411 0.0021200352348 0.0011946019949 0.00050094048493 0.0067232060246 -0.0012459796853 -0.0015881099971 
0.0070593128912 0.0063087237068 -0.0017350241542 -0.0030653798021 -0.0043830000795 -0.005423325114 -0.0053179776296 -0.0047419271432 -0.0046495357528 
-0.0051040649414 0.0012823445722 0.0021756570786 0.0026950072497 0.0029189803172 0.0031431037933 0.0034192632884 0.0036595675629 0.0040386770852 
0.004366221372 0.0049189762212 0.0050068665296 0.0044693830423 0.0043494384736 0.0035517755896 0.0031669102609 0.0022810669616 0.0010996413184 
1.6477612007e-05 -0.0007268647314 -0.0013895350276 -0.0020896759816 -0.0027398082893 -0.0032464605756 -0.0035354315769 -0.0035644897725 -0.0033849030733 
-0.0032283170149 -0.002685863059 -0.0021090062801 -0.0012358732056 -0.00082676735474 -0.00029419796192 0.00019831635291 0.00077583245002 0.0017234854167 
0.0027852933854 0.0037858712021 -0.0051733860746 -0.0017900583334 -0.0011669127271 -0.0005668712547 0.00022461220215 -0.00021060722065 -0.00032335071592 
-0.00068499788176 -0.00065603270195 -0.0013152696192 -0.0027661917266 -0.0040776398964 -0.0049809701741 -0.0051256767474 0.0047731893137 0.0055524464697 
0.0059416643344 0.005863385275 0.005644983612 0.00594697427 0.0067800087854 0.0070995758288 0.006935287267 0.0067236665636 0.005892124027 
0.0048978249542 0.0039527514018 -0.0049484409392 -0.0038216041867 0.0038206484169 0.0036743623205 0.002760192845 0.0019506074023 -0.0015501286834 
-0.0027341505047 -0.0037632444873 -0.0046478719451 -0.0047557898797 -0.004821059294 -0.0028891451657 -0.0024845497683 -0.0021725841798 -0.0019991965964 
-0.0020865660626 0.00057708437089 0.00085190852406 0.0043592806906 0.0035186749883 0.002824107185 0.0019153704634 0.00086220412049 3.3235970477e-05 
-0.00038707832573 -0.00088307750411 -0.0016400088789 -0.0024099845905 -0.0029905929696 -0.0033348463476 -0.0030222854111 -9.7091447969e-05 0.00036579853622 
0.00076808355516 0.0014878896764 0.001620698371 0.0021175676957 0.0023448483553 0.002712743124 0.0032896513585 0.0040322830901 0.0046679666266 
0.0049355267547 0.0058124512434 0.00096450152341 0.0062759830616 0.0057989927009 0.0047537502833 0.0036709774286 0.0029808394611 0.0024531465024 
0.0019491543062 0.0012788813328 0.00035779748578 0.0069165984169 0.0067141856998 0.0060416874476 0.004960026592 -0.00049267272698 -0.0014183457242 
-0.0018176487647 -0.0027464421 -0.0024713207968 -0.0022869759705 -0.00215513492 -0.0024873898365 -0.0019034147263 -0.0010863624047 -0.00060744938673 
-0.00039801452658 -0.00029809915577 4.765317135e-05 0.0050655938685 0.0059033213183 0.0062680952251 0.0063129505143 0.0075701628812 -0.0015885510948 
0.0017094460782 0.002538501285 0.0087088700384 0.0075004766695 0.00078964431304 0.0033892733045 0.0045353611931 0.0042399349622 0.0051555666141 
0.0018617570167 0.0060898819938 -0.00084951816825 -0.00095389789203 -0.0014174145181 -0.0014715902507 -0.0020633428358 0.0071510621347 0.0082733063027 
0.0071839154698 -0.001542062033 0.0016027088277 0.0020838198252 -0.0012009374332 -0.0027581879403 -0.002724945778 -0.0025264446158 -0.0028937484603 
0.0024190074764 0.0029874928296 0.0038463831879 0.0047919848002 0.005451652687 -0.0074621387757 -0.0058686421253 -0.0044343713671 -0.0083104167134 
-0.0061428854242 -0.0039930823259 -0.0010672520148 -0.00047135099885 -0.0011793317972 0.0015657339245 0.0041638193652 -0.00028392160311 0.0004613280762 
0.00069946976146 -0.00063807750121 -0.00098332809284 0.00066635274561 -0.00063436193159 -0.0015426086029 -0.0034635623451 -0.0033110212535 -0.0034463182092 
-0.0031239157543 0.0063879876398 0.0053650340997 0.0031486854423 0.0042170439847 -0.002774434397 -0.0025751013309 -0.0021010220516 -0.0027251718566 
-0.0030208651442 -0.003117762506 
POINT_DATA 1114
FIELD FieldData 31
Circ_Strain_Pt 1 1114 double
0.94436204061 0.96975952108 0.97891380056 0.95714596977 1.0037972188 0.99714778596 1.0202539095 1.0094951228 1.0085436282 
0.99466477553 0.97752218679 0.96648407351 0.94842050285 0.92938213944 0.92707611325 0.90348036222 0.92786777029 0.9142517484 
0.95758073738 0.95499901292 1.011007433 1.0022081752 1.0615538747 1.0450745892 1.0762835921 1.046708687 1.0544878365 
1.0429204631 1.0524590808 1.0437989688 1.031543028 1.0100358129 1.0293333625 1.0053966311 1.0370791896 1.0170281891 
1.0291150259 1.02402589 1.0228477276 1.0297229423 1.0251416021 1.0290168068 1.0386772169 1.0296435429 1.0463116461 
1.0343094138 1.0485890643 1.0386359055 1.040328383 1.0385701369 1.0125387403 1.0153546822 0.98324640204 0.98709169486 
0.9569209315 0.95110461815 0.93904437679 0.93123665378 0.93331055988 0.93225200175 0.94199604654 0.94243732143 0.9632605445 
0.95539536334 0.97356568118 0.96538081297 0.98231341892 0.97128266759 0.99312097466 0.9813340286 1.0043758072 0.98006596823 
0.99943827205 0.99014500005 1.0209515989 0.99512445004 1.0175782343 0.98064374144 0.99430170757 0.97914508796 0.97226940217 
0.97582701828 0.95739605738 0.95886355205 0.95987565427 0.95933133293 0.95061931724 0.95187861757 0.96384714825 0.95513720819 
0.9830741455 0.97703822656 0.99828624528 1.0010319493 1.0099650448 1.0303187609 1.0147946526 1.0256865652 1.0199856013 
1.0218505534 1.0263464749 1.0238736388 1.0202270916 1.0181724546 1.0109324831 1.0077824656 0.99969891053 0.99798296958 
0.97999861994 0.98351404704 0.96932105941 0.96968224588 0.96786079427 0.96953245913 0.96698732378 0.97119195565 0.96409767923 
0.96352952105 0.96143375082 0.94556702965 0.96577874784 0.95273184697 0.96891314071 0.96423659913 0.97513765184 0.97836679514 
1.002000841 0.99693867198 1.0245810631 1.015739169 1.0445966569 1.0333126809 1.0631517631 1.0401199229 1.0613837889 
1.0465559117 1.0466471917 1.0341492047 1.0108587884 1.0121041 0.98112478479 0.98860368708 0.9601507925 0.97016805391 
0.95758936503 0.95850566301 0.96169512423 0.95110430244 0.97278944466 0.95990299943 0.96481023685 0.96805603233 0.93735605383 
0.96084977244 0.95309610811 0.97237220193 0.97511589708 0.98348838672 0.99172632651 0.99369855814 1.0020438637 1.0027015978 
1.0072588621 1.0087128672 0.99597081232 0.99961612581 0.98280049018 0.98607131272 0.96666551926 0.96858532624 0.95606020423 
0.9562261289 0.94846260786 0.94845310067 0.95662317005 0.96725856392 0.96793803059 0.98179216919 0.98614073624 0.99620626258 
1.0029833365 1.0115556402 1.0187037442 1.027623327 1.0173551099 1.0313135432 1.0120116464 1.02575057 1.0149417937 
1.0262064568 1.0175022761 1.0270414061 1.0190227889 1.0274985879 1.0178387102 1.0221591061 1.0139033153 1.0062963326 
0.99057509599 0.97909200926 0.98625262286 0.97091836198 1.0000136103 0.99906849251 0.96077254985 0.91112518558 0.89080815269 
0.90575642617 0.93952371471 0.98112711389 1.0114558456 1.0201201233 1.0273045761 1.0173411166 1.0005530352 0.98917407015 
0.99314311547 1.010344267 1.0235900493 1.024161305 1.0278245877 1.0310670349 1.0337842275 1.0376255352 1.0216246714 
0.99116785836 0.95687086515 0.93787752434 0.93374429346 0.9381481694 0.94581769288 0.95436468395 0.96639166664 0.96497146446 
0.96817588551 0.97287040334 0.97058686377 0.95044622356 0.96269642712 0.96752065012 0.96714685387 0.95885345361 0.93759304709 
0.93100496417 0.95425755255 0.98378602531 1.0160099351 1.0347274668 1.0319681775 1.0198297055 1.0184374872 1.0003201679 
0.98645880395 0.97918356299 0.97266100801 0.96553180173 0.96326647304 0.95505759216 0.95245595693 0.95132014159 0.96283028123 
0.97933371437 0.99262598891 1.0033898145 1.014682826 1.019903476 1.0382109522 1.0393215558 1.0195253085 0.99929930364 
0.98004106308 0.96723446804 0.95837679285 0.96801949259 0.98589850071 0.98287002777 0.984098137 0.98377716054 0.98758871044 
0.99920875394 1.0078403865 1.0003871754 0.98445859614 0.96795105493 0.95719138479 0.95174002708 0.96749951422 0.98500889903 
0.99213071904 1.0044743226 1.0344540566 1.0424539899 1.0378370569 1.0321099777 1.031772392 1.0360736279 1.0234632151 
1.0044845995 0.9683256235 0.94089975169 1.0328894366 1.0077916383 0.96145234809 0.9924337965 0.92481903523 0.89643643587 
0.89840537166 0.92274961927 0.96072895213 0.99025691209 0.99806615525 1.0083109398 0.99670528386 0.99079769924 0.98526326558 
0.97599425351 0.98630006422 1.001875847 1.009744308 1.0173544595 1.0223498322 1.0262430087 1.0373510212 0.99990526567 
1.026745064 0.96378704702 0.9430133434 0.93902320666 0.93720314423 0.94039152583 0.95122176773 0.96141732875 0.95751816528 
0.95611766769 0.95572318448 0.94747168719 0.94507271325 0.9499757085 0.95317164321 0.95940944805 0.95656186726 0.96620327905 
0.97870251477 1.0441239687 1.0436117393 1.025646887 1.008937728 1.0187634399 1.0045643277 0.99208712566 0.98108605006 
0.9749558632 0.98093807625 0.99730326111 0.9836837466 0.9891107321 0.98533138539 0.98953663293 0.99470444762 0.99904195387 
0.99217773062 0.97637147955 0.95656137355 0.95046006492 0.95605647295 0.97138529012 0.97791480515 0.97603754818 0.99215445291 
1.0132763078 1.033334674 1.045640649 1.0393389535 1.0344683533 1.0268474605 1.0074603737 0.97833466099 0.94202512462 
0.91484800102 0.90905053814 0.92368966861 0.95209039174 0.98299733959 1.0195485968 1.0345673703 1.0301508431 1.0190278704 
1.0026332194 0.99012614844 0.98153922005 0.9777341702 0.97625995984 0.97276385949 0.96406776765 0.94924736109 0.94553590274 
0.95196580982 0.96311276005 0.97914771833 0.9934208003 1.0040387874 1.0042264715 1.0019827047 0.99592804207 0.98644388812 
1.0168731151 0.98283093756 0.99752948275 1.01107281 1.0407725668 1.0390733792 1.013390326 0.98136530728 0.95482852778 
0.94755779189 0.94770539057 0.95418933868 0.95207785827 0.96005129425 0.95723685518 0.95553616417 0.95648623817 0.94749956174 
0.93780933484 0.94079364769 0.94885503798 0.94714031172 0.95208829654 0.95766141344 0.96306557951 0.97350110101 0.95126003939 
0.97863723313 0.92439165339 0.90420689452 0.90482604473 0.92530398049 0.95194088533 0.9737733388 0.98649714137 0.99162099568 
0.98552714742 0.98849208099 0.9757010725 0.96814557109 0.96955699796 0.98156021396 0.99517902589 1.0049258122 1.0063134426 
1.0067541282 1.0258287595 1.0275741562 1.02227521 1.0324268327 1.0211257463 1.0221438626 0.99852954543 0.98774278774 
0.98848375205 0.98278328528 0.95537611449 0.95257996912 1.0069166619 0.99874213814 0.99140055603 0.98716894711 0.99103446403 
0.99974885312 1.0161603649 1.0245044905 1.0319118687 1.0111186711 0.99552463958 0.99218848512 0.98487571476 0.98068326259 
0.98904443977 0.99106252391 0.975008575 0.95589307212 0.9494649129 0.95328418325 0.9623308381 0.97857221208 0.98866129637 
0.99658762402 1.0192372363 1.0461228812 1.052133886 1.049242475 1.0420884367 1.0303343125 1.0110094926 0.97987447954 
0.93859158059 0.90732159238 0.89324591104 0.90825704208 0.93169228554 0.96185339551 0.98898084176 1.0153452967 1.0242905747 
1.0225570944 1.0067662186 0.99095992871 0.97717543108 0.96973150508 0.97035624915 0.97406543333 0.97909420256 0.97493775711 
0.97107246679 0.95787903262 0.94720031583 0.9696313029 0.98181605272 0.98817226555 0.99522647893 0.99807753543 0.99041470617 
0.97337691318 0.96288749527 0.96128669751 0.99013553838 0.95509269216 1.0081199602 1.0138611716 1.0020382351 0.99149152719 
0.99456607876 0.99967444101 0.94315260711 0.95639317103 0.9295746183 0.93869799042 0.96935718705 0.93150248554 0.98819350907 
1.0008409631 1.0017375036 0.99161831574 0.98709884825 0.98701652757 1.0093778259 0.95617958253 0.96939936748 1.0039667167 
0.98322991657 0.96685642971 0.95189242948 0.95668098711 0.96530160886 0.96779482047 0.96556631141 0.9630903495 0.96642415072 
0.97381276179 0.96196179768 0.94987755463 0.95022345482 0.95295315386 0.9624897143 0.96249199719 0.96769363337 0.97232412588 
0.95846424404 0.95798478963 0.96957351387 0.97942492459 0.98414314996 0.98188648213 0.9847491213 0.98626282096 0.98191632576 
0.98065612609 0.9786753748 0.97817663942 0.97295948704 0.95464386721 0.93497828986 0.91845651896 0.91092111637 0.91981569196 
0.93808951645 0.96127073228 0.97677574477 0.98504718118 0.99519246926 0.97741971556 0.99765785982 0.96769744799 0.96860905426 
0.96974854245 0.97921280414 0.98738808919 0.98650230117 0.98689408149 0.98787742681 0.999022441 0.99935701288 0.99841970996 
1.0205399881 1.0030022431 1.0261476899 1.0237570531 1.0108535484 1.0203909395 1.0283891002 1.0243410013 1.0434437289 
1.0517551496 1.0239588892 1.0122312047 0.99847335303 0.978182033 0.97335812649 0.9810677568 0.99211610189 0.9972619323 
0.97820321759 0.95760419956 0.94497031314 0.95002371892 0.97134235749 0.98989826617 0.98901398663 0.98732270375 1.0160345854 
1.0414635472 1.0485300224 1.0504568402 1.0453615499 1.0373751639 1.0232538817 0.99239610089 0.9460376299 0.90220524012 
0.90999702148 0.90038830675 0.92904029996 0.95121715262 0.98125983581 1.0060122897 1.0171853516 1.0135182517 1.0007418026 
0.97846984456 0.96191215607 0.95903131222 0.96623863657 0.97978298534 0.98457418122 0.98632555923 0.97999827782 0.98726865941 
0.9809739001 0.99671496028 0.96116724445 0.95556506729 0.96363608148 0.97516396873 0.9816239906 0.97711270017 0.97617050113 
0.88856713774 0.88587336989 1.0163743694 1.0531331633 1.0620409193 1.0530082928 1.052360396 1.0343973873 1.0102233774 
1.0005465342 0.98729609068 0.97674514449 0.96953426134 0.99221403764 1.0087271399 1.0015354139 0.98457763173 0.96307612516 
0.96622826064 0.98150760697 0.98244403549 0.98698761753 0.99550769577 1.0059636474 1.021816198 1.0372992117 1.0471931981 
1.0528694281 1.0474847432 1.0347229484 1.0048410142 0.97312985207 0.91964460588 0.9046895219 0.90274532824 0.90494558719 
0.90289246649 0.90575796696 0.91799589577 0.93608666506 0.95767987852 0.97939046091 1.0003600009 1.0064410733 1.0082757805 
1.0014351692 0.97645121722 0.95887432175 0.94804624264 0.9563418463 0.96870197182 0.98422513452 0.99402303339 1.00239766 
1.0026761701 1.0039794297 0.98962182183 0.97346738911 0.9630538428 0.96825237076 0.97650414092 0.9790302754 0.9638603215 
1.0094491276 0.98242543447 0.96182851068 0.95802796856 0.96431107207 0.97073048838 0.97185501341 0.97170098903 0.97488690061 
0.98067743826 0.97836759385 0.97009246053 0.96284704852 0.95889437241 0.95732620239 0.96455096828 0.96935600524 0.97224796003 
0.971731907 0.97430899677 0.98033993675 0.98098330756 0.98061304595 0.99307430587 1.0007282156 1.0015977383 0.99436469468 
0.98599693286 0.97938998497 0.97906956306 0.98101854482 0.97815085711 0.97007884871 0.95530232176 0.94072197727 0.92900553199 
0.92651339469 0.93780324733 0.95616618898 0.97045006674 0.98284239967 0.99562358564 1.023584945 1.046180143 1.0563502584 
1.0355208106 1.0126569197 0.9953760085 0.97903691223 0.96764993751 0.96720057022 0.96620473134 0.96429961772 0.96205546459 
0.96311978849 0.96443801394 0.9616258672 0.97599084048 0.98164143406 0.98794383375 1.0089094773 0.99621229471 1.017589209 
1.0229291366 1.0180645616 1.020302923 0.9806969095 0.98280318541 0.98848670366 1.0054701707 1.0211554891 1.0040590004 
0.98632519643 0.97593289908 0.96898372945 0.99212780767 0.98822149435 0.99104672048 0.99421367705 1.0022042303 1.014253435 
1.0385707531 1.0557627514 1.056526769 1.0502368399 1.0298672427 0.99942199246 0.95798951849 0.93101764417 0.93585617008 
0.92410244793 0.92686344554 0.94617112497 0.91488877002 0.92027604888 0.92997182497 0.94196081908 0.95762083043 0.97101283693 
0.98386634887 0.99568039964 0.99840378572 1.0017039334 0.99668727415 0.98667279057 0.94992054269 0.95331546001 0.96114826387 
0.9796509094 0.99693594069 0.98145925974 0.9730661866 0.98683269955 1.006761038 0.9905560058 1.0116966772 1.0032911538 
0.98402263963 0.99986109606 0.98093411765 0.96905738782 0.95954991676 0.96128915587 0.96512650487 0.97131608723 0.97955029841 
0.98933415029 0.98961263366 0.98490242453 0.97627296367 0.96818784851 0.96522408465 0.97662117 0.96974199827 0.97799245214 
0.97439723624 0.97635216842 0.98068091001 0.98407707825 0.98441877093 0.98810348181 0.99755804442 1.0104235315 1.0191566476 
1.0070374467 0.99678785201 0.98958850373 0.98696769651 0.98849162806 0.9880851884 0.98520499014 0.97784446595 0.96490229953 
0.94036870797 0.94050086424 0.94630744823 0.9565115646 0.97069605278 0.98310346667 1.0014245463 1.0303543317 1.0480800381 
1.063919613 1.0723335524 1.0549973829 1.0306133087 1.010831374 0.99572342536 0.98350066405 0.98050869735 0.9762121578 
0.9642640218 0.93730330017 0.94222181943 0.94756569025 0.94202324358 0.949046304 0.95022640227 0.96215654187 0.97443856787 
0.98669161667 1.0061370578 0.99869640219 1.0131226035 0.94131624415 0.92790444143 0.91844329947 0.92858172706 0.95369521518 
0.97229355824 0.98437318173 0.99107331693 0.98992845871 0.98522380208 0.99565263116 1.0081472433 1.0219227741 1.0608436535 
1.0717069892 1.07119232 1.0703886768 1.031989321 0.99618517892 1.0075321968 0.97363152554 0.95876603663 0.96017444684 
0.96297886586 0.97229507571 0.98078103722 0.98587056305 0.98683921708 0.99253690681 0.98362922973 0.98034205734 0.95638299683 
0.96497733 0.97352614517 0.96485290496 0.96606803215 0.97253238511 0.97775823006 0.98266102203 0.98470677839 0.99352140954 
1.0069172049 1.0178022298 1.0222601219 1.0098690838 1.026729882 0.99403560176 0.9869153087 0.98697434378 0.99579695943 
0.99883953232 0.98970160986 0.97799578927 0.96188223399 0.95969262045 0.95411391549 0.97065036325 0.97662903198 0.9868319302 
0.99641003375 1.0110652701 1.0422579298 1.0668148683 1.0333430812 1.0375879596 0.96462143153 0.97568208799 0.98210671091 
0.97702749885 0.96850908782 0.95445768531 0.93900887486 0.92484024635 0.92571488581 1.0220281823 1.0018958237 0.98256401047 
1.0018860832 1.0198319816 1.0182599341 1.0102136362 0.98997676435 0.97424620959 0.9798811415 0.98825200738 0.99322757094 
0.99554425275 0.99618053425 0.9952039984 0.99276031934 0.99874951224 1.0186017647 1.038434058 1.05324322 1.0556920753 
1.047800652 1.0320808736 0.99882651673 0.96691271521 0.94522052833 0.9471819862 0.96008907518 0.94948065052 0.95847698924 
0.94108529914 0.93038847576 0.93277137804 0.94055009 1.0060406159 1.0386427848 1.0551738941 1.0486087142 1.0377278156 
1.0256519716 0.99298501626 0.99772150025 0.99744003328 0.97588995932 0.96219039514 0.98741039642 0.98806200897 0.99280946785 
0.99320525888 0.99010076394 0.98326294278 0.96587260599 0.98187873925 0.96429249837 0.95833285475 0.95520889823 0.96035777248 
0.968592645 0.9635034714 0.97777764998 0.96676991421 1.0017881532 1.0133767157 0.99566813329 0.99801291245 1.0042314893 
1.0275448343 0.99521918996 1.0003720083 0.99804110983 0.99352784078 0.98782503652 0.99325470985 1.0128578013 1.0340662103 
1.0455024848 1.0484910813 1.0306569304 1.0156100449 0.96374983945 0.94745810828 0.9572679097 0.96109651765 0.94885402275 
0.99601171052 0.99565873338 1.001578382 1.0107305504 1.0074626044 0.99295129094 0.98162191211 0.97668094988 0.98279907836 
0.98955666019 0.99539176557 0.99145105499 0.99405927068 1.0145773223 1.0386907336 0.96481784733 0.96281770878 0.95965970793 
0.96985288226 0.9754835971 0.97038786615 1.0040109204 0.99330183285 1.019339817 1.0269486264 1.0371543213 0.97647355518 
0.95933376433 0.95706231883 0.9659409525 1.0143127582 0.9702486067 1.0101950713 0.98923596253 1.0260159648 0.9872584531 
0.99563606413 1.0042248925 1.0187568728 1.0150324036 0.96485702224 0.98859015684 0.98321017407 
Circumferential 3 1114 double
0.79358564266 -0.098704155666 -0.60039929832 0.68525854698 -0.10456992218 -0.7173956823 0.64441752524 -0.10376320717 -0.74991944892 
0.79095036529 -0.042612288592 -0.60736057163 0.45373711772 -0.13330052976 -0.86369045155 0.45738539554 -0.15936607994 -0.8625158899 
0.20679685355 -0.1547474061 -0.9555842885 0.21477221696 -0.22703515801 -0.94305348754 -6.5806296421e-05 -0.15092806195 -0.98372081087 
0.0047503129604 -0.25278999135 -0.96565152139 -0.15054955479 -0.126857535 -0.9794528459 -0.10430076932 -0.22750475351 -0.96736814031 
-0.24344611856 -0.110691781 -0.963484949 -0.21479123163 -0.16982378841 -0.95994482865 -0.3469497324 -0.13648253549 -0.92558559048 
-0.31225018302 -0.14752564286 -0.9377772803 -0.41282112405 -0.12852259355 -0.90105265456 -0.40352443847 -0.13360475328 -0.90309573466 
-0.49101108567 -0.10001326185 -0.8617664647 -0.51114398177 -0.11532568841 -0.85012176181 -0.60563701766 -0.067688275804 -0.79023984287 
-0.62652854781 -0.10713874094 -0.76890322389 -0.71969176811 -0.042783790605 -0.68610435937 -0.76010534567 -0.08718608106 -0.64118590747 
-0.86293086955 -0.039591131241 -0.49892790242 -0.8731284791 -0.064270897985 -0.4799873271 -0.93783703088 -0.00012524002745 -0.33895000727 
-0.94512177884 -0.04768283846 -0.31824471409 -0.98249520049 0.026355956815 -0.16546781308 -0.98863698513 -0.024543020086 -0.13898958337 
-0.99674760255 0.060460043468 -0.032463121234 -0.99838038695 0.030015494566 0.0017821385036 -0.99516737608 0.07370370481 0.049628229006 
-0.98899869291 0.10179991693 0.086626228438 -0.97442453813 0.077694405187 0.18889142064 -0.95886468052 0.13158154182 0.2373493415 
-0.95769592064 0.089507849031 0.27346618045 -0.91727204599 0.15930587145 0.36087844658 -0.95038546498 0.054504207529 0.29917490345 
-0.88996757666 0.19553218229 0.40608278672 -0.92711942679 -0.023624151049 0.36508222238 -0.86390908336 0.19616977619 0.45912603731 
-0.79900233201 0.0099293851687 0.58937629224 -0.77757882507 0.18096399361 0.5935085977 -0.67223957432 0.031516663876 0.73142685869 
-0.6635728242 0.19016844352 0.71501227563 -0.51242198099 0.046586266775 0.84658956957 -0.49525915448 0.17906576239 0.83736205414 
-0.31519746894 0.061885800759 0.94025159734 -0.26865774109 0.13514268073 0.94589201778 -0.097774170297 0.087238529845 0.99019705668 
0.019103247276 0.076093329335 0.9933932468 0.16326945097 0.10916842994 0.97179120239 0.24516502926 0.079950768514 0.96245653532 
0.33873375492 0.13204745963 0.92661374237 0.3969576925 0.099509697586 0.90899038672 0.45602860457 0.14569332061 0.87573830426 
0.50526957428 0.11205182982 0.85390807584 0.53950926485 0.14800138751 0.82774932071 0.57645172506 0.12597741688 0.80625230249 
0.60915867323 0.14344517777 0.77957687244 0.64208436045 0.13891648888 0.75363233746 0.69413249976 0.14099675933 0.7036495905 
0.72736292752 0.12541133478 0.6717185832 0.79013412534 0.12655718638 0.59124853818 0.81681833299 0.10600002292 0.56068218332 
0.87409995314 0.10133491917 0.46600230745 0.89078405273 0.086904233828 0.44229737596 0.93441817727 0.072210967236 0.34635521994 
0.93977047485 0.060787203589 0.33371610384 0.96397032432 0.059285638462 0.25862747708 0.97009492172 0.039317604438 0.23731751415 
0.98443780026 0.039322391048 0.16607638125 0.99173085719 0.025589128795 0.11528991762 0.99586607048 0.022009629519 0.072045751114 
0.9986893115 0.010605535239 0.032678432351 0.99787455998 -0.011468489329 -0.024615221937 0.99639255649 -0.0024169615165 -0.0577558512 
0.98685437628 -0.038961677849 -0.13834487754 0.98330168197 -0.023018664243 -0.17223509417 0.95640182002 -0.046121380879 -0.27467967659 
0.95034313002 -0.028488093503 -0.28515201107 0.89722752021 -0.052193643657 -0.42872731941 0.8826162885 -0.032014455215 -0.4590246765 
0.97207656075 -0.061768886805 -0.22638852592 0.98708426783 -0.018908468057 -0.06351440386 0.99281049416 -0.029452190456 -0.02931437051 
0.98510561643 -0.065802089947 -0.15475395977 0.99728984241 0.0069794301153 0.067669749432 0.99600254483 0.001647023419 0.081229429538 
0.99353432269 -0.016476366538 0.10672261671 0.9907090983 -0.0088754464001 0.129932408 0.98685045755 -0.023679032121 0.15426477217 
0.98316545307 -0.0035370041466 0.17815067259 0.97758950948 -0.016578171109 0.20927790407 0.9728536315 0.019596476388 0.23018155417 
0.95317758275 0.0052763626568 0.29394186334 0.95049648842 0.030009409466 0.30366313301 0.91943381676 0.02778529066 0.38520746707 
0.92152067952 0.040342404879 0.38142406035 0.87201413981 0.050074153286 0.48451738188 0.88146926593 0.048360671699 0.46825123856 
0.77947913581 0.081059160597 0.60938951564 0.82537852424 0.081483973856 0.55190559876 0.69982602153 0.11051585747 0.7042721385 
0.7734423772 0.11761859374 0.62155459789 0.6508097456 0.13554261466 0.74672991888 0.73342855573 0.13508220619 0.66428177104 
0.62520568252 0.1510242836 0.7653913254 0.65926278352 0.16998918083 0.72865086125 0.55302362448 0.18372837493 0.80660278095 
0.55710111092 0.19056556634 0.80372453898 0.43693357144 0.22893187916 0.8693223228 0.42896564048 0.17901972112 0.883844649 
0.34724626487 0.21421774218 0.91085469419 0.32872331397 0.18795711986 0.92324436582 0.25328595176 0.21048756438 0.94141861948 
0.2531023617 0.20956686773 0.94234396148 0.13730232061 0.20558909692 0.96348887942 0.15986223194 0.21897235527 0.96198771012 
-0.07876393759 0.16282014773 0.97403196491 -0.06019411355 0.17869830691 0.96896040093 -0.26229749775 0.14742526994 0.94448391015 
-0.27016236194 0.14523198936 0.94166120761 -0.41920563664 0.14605704071 0.89466885307 -0.44919856977 0.12493328824 0.88344005851 
-0.51576127488 0.14849643867 0.8408247402 -0.5533629514 0.12480368618 0.81871098344 -0.58321527101 0.1526979679 0.79635382583 
-0.6236009047 0.13715093962 0.76877560982 -0.63276728134 0.15651624118 0.75805517945 -0.65237190746 0.16113342592 0.73986662324 
-0.66950058545 0.15218695644 0.7263564183 -0.66733266542 0.16841107988 0.72517574638 -0.72955678263 0.13432133226 0.66499827173 
-0.72211230496 0.15479752461 0.67102706897 -0.80365942189 0.10862962183 0.58391058033 -0.78081915268 0.13756244408 0.60905429535 
-0.87976035167 0.090423517387 0.45081922588 -0.83980007574 0.1180101503 0.52223547885 -0.93266413011 0.071116801293 0.35122079821 
-0.89422272523 0.096143128794 0.43300119561 -0.95200433137 0.050217628287 0.30008273607 -0.93279372687 0.082758476314 0.34480585957 
-0.96764730852 0.040501597169 0.24431274915 -0.95883764352 0.064009661881 0.270140799 -0.98170619703 0.030999036026 0.18316285507 
-0.97836953184 0.040615984086 0.19947019556 -0.99284009541 0.0019475505445 0.097287923288 -0.99171449618 0.022019717564 0.096286789107 
-0.99818920995 0.010235960507 0.028739016016 -0.98625522983 -0.032260745862 -0.054815548979 -0.99763178635 0.05665017129 -0.022119200067 
-0.93199320476 -0.1407105802 -0.31711089313 -0.90285022422 -0.071086968155 -0.2929069896 -0.85441807801 -0.18143395967 -0.46832173073 
-0.80740272444 -0.19999733934 -0.55475548801 -0.78757138883 -0.20038543773 -0.58220801031 -0.78874273437 -0.18669668797 -0.58504686483 
-0.76387531623 -0.18637440973 -0.61714190518 -0.77380661521 -0.17057058183 -0.60962435085 -0.74798577108 -0.17258384812 -0.64062845005 
-0.7616435254 -0.15226798022 -0.6298025379 -0.73636588813 -0.16059878603 -0.65697992411 -0.68481405074 -0.16113756218 -0.70559778573 
-0.6770840375 -0.15720056586 -0.71583456926 -0.59753695994 -0.16490880879 -0.77965841013 -0.59969049596 -0.15661761142 -0.78067135259 
-0.49380448623 -0.16064998816 -0.85098693828 -0.51086823537 -0.15040449594 -0.84386651224 -0.42647546561 -0.16086425378 -0.88875851364 
-0.4585070571 -0.14760588785 -0.87558926416 -0.37370331997 -0.16181766858 -0.91319325482 -0.42597415965 -0.14294487352 -0.89293358862 
-0.32816732256 -0.14434536341 -0.93246292831 -0.37826306908 -0.12614856066 -0.91562679272 -0.24276018982 -0.13162209414 -0.95386748928 
-0.30107755925 -0.11170249334 -0.94224719732 -0.070288938991 -0.12926899914 -0.97993387124 -0.11920503096 -0.12189903162 -0.9751780937 
0.090564500349 -0.11880923095 -0.98089231042 0.063838234645 -0.13162278808 -0.98209578008 0.24183234326 -0.101660828 -0.96113474754 
0.21903333342 -0.13086244227 -0.9634849408 0.3813789641 -0.13059762806 -0.90480607612 0.35725196777 -0.12607809624 -0.91822170408 
0.51503659262 -0.16831169109 -0.84019121774 0.49519216343 -0.1181937279 -0.86003496012 0.58012160035 -0.13627820702 -0.79974444451 
0.57339989501 -0.12649021564 -0.80594436553 0.64625750838 -0.11058563676 -0.75266891867 0.64017378406 -0.12412354972 -0.75606080262 
0.71534989066 -0.10273181687 -0.68694487203 0.71473221191 -0.10981885936 -0.68612164196 0.78120688385 -0.09864404481 -0.6104757585 
0.79012358622 -0.10305205889 -0.59738655982 0.84377259326 -0.098387382964 -0.52307594591 0.86307489705 -0.10024001403 -0.48883893598 
0.90767125002 -0.082961121193 -0.38446493679 0.93068196122 -0.084448287597 -0.31977949667 0.52367310231 -0.088920192005 -0.83916906096 
0.70587217872 -0.0059539657399 -0.70337857912 0.24262986472 -0.20951423571 -0.94076055806 0.011586628613 -0.22945131786 -0.97112500323 
-0.10680664528 -0.1763744129 -0.97782312028 -0.23111417951 -0.1703021211 -0.95686771905 -0.35100919597 -0.15627511924 -0.92230285483 
-0.42205873637 -0.12532750513 -0.89653212263 -0.51039679091 -0.10447617154 -0.85142485645 -0.62150642197 -0.08583512551 -0.77433441343 
-0.74624622158 -0.087686555552 -0.65529345243 -0.85708767075 -0.080304279588 -0.50427656423 -0.93556624853 -0.065163037187 -0.34010683013 
-0.98064921978 -0.032789441713 -0.17977130515 -0.99764823732 0.017473786147 -0.024893937509 -0.99073497013 0.08800595393 0.087683579384 
-0.9603458995 0.12004756909 0.24487548246 -0.90765923477 0.13248420461 0.39612121635 -0.85820993584 0.17522096 0.48225298662 
-0.785506676 0.18985945908 0.5856452413 -0.7033487639 0.19720468039 0.67943174099 -0.61502283551 0.18818954857 0.76065697576 
-0.45326743867 0.14168584468 0.87269077709 -0.15497331375 0.044182930916 0.97784629652 0.14236273943 0.031185111112 0.98697967141 
0.30908602644 0.047158724461 0.94870276812 0.42505689311 0.073212527354 0.89976038016 0.51277651283 0.095510211328 0.85070589689 
0.58700553571 0.11552426972 0.79971300471 0.64631322136 0.12823131955 0.7514872816 0.71653512668 0.11848713243 0.68633428442 
0.80517150617 0.10320356798 0.5788439543 0.88108551202 0.078012948926 0.46115793268 0.93248309018 0.055634595023 0.3547663219 
0.96823168969 0.032173920778 0.24397732871 0.99196123951 0.013147119754 0.11171494635 0.99930150797 0.0072026501286 0.021647715843 
0.99603335342 0.02603172655 -0.066680260457 0.98224605998 0.036589585577 -0.18013125338 0.95586000121 0.13266611355 -0.24835108414 
0.89366570797 0.1505504293 -0.39793295173 0.81256968984 0.062122831004 -0.57721981427 0.99351443696 -0.060723578386 0.074550976577 
0.99230886346 -0.081762559749 -0.037142534068 0.98566308886 -0.040829371945 0.15867401595 0.97391742393 -0.025809302756 0.22113556663 
0.96453374573 -0.0035106893791 0.26344959712 0.95229722117 0.0081589461618 0.30438022547 0.93368615086 0.022075178654 0.35431495923 
0.9116185695 0.043779333837 0.40831895933 0.88333377121 0.072854459782 0.45978139118 0.85618753836 0.10615464317 0.49867444571 
0.81099663855 0.15460670489 0.56127102228 0.72555804856 0.181397015 0.65237016161 0.59174921981 0.19444259166 0.77708588044 
0.42136236638 0.17385432125 0.88332728042 0.30854818828 0.17745004739 0.93298298359 0.2362335691 0.20088056958 0.94968025609 
0.13600723619 0.21585744935 0.96488666658 -0.035421623349 0.18727263369 0.97728841699 -0.23854729296 0.1539343586 0.9494548712 
-0.42014210211 0.11380712543 0.89655964705 -0.54392294252 0.093574080194 0.82890171854 -0.64965256595 0.089545956389 0.75216450906 
-0.69884572165 0.12168581921 0.70286968479 -0.69634899442 0.15106937489 0.70148066888 -0.72745029234 0.16490370556 0.66581110077 
-0.70311471662 0.16860578989 0.68961372843 -0.76945403815 0.16006604647 0.61425691583 -0.81848398421 0.15511475931 0.55077837496 
-0.86977653416 0.14095793232 0.46224671294 -0.9303412459 0.12238294809 0.33385332404 -0.9706788442 0.083292612604 0.2194664265 
-0.98920166674 0.034913259331 0.093092732613 -0.97819602895 -0.070790699648 -0.11530867619 -0.94066274514 -0.13885496439 -0.2921471744 
-0.85650719866 -0.21251289887 -0.45929734885 -0.80219087673 -0.21896533137 -0.55282188687 -0.75988463771 -0.2123467973 -0.61285614654 
-0.73746545478 -0.2007354819 -0.64328311514 -0.71751228077 -0.16178113266 -0.67701713544 -0.68163494269 -0.14420502031 -0.71604570903 
-0.60909094322 -0.15005775816 -0.77502212949 -0.51733504738 -0.15976897378 -0.83827012479 -0.45593383732 -0.15131625674 -0.87495844843 
-0.41631139515 -0.1366638917 -0.89874176236 -0.40128736869 -0.10766322275 -0.90895020664 -0.35701098685 -0.10531122798 -0.92197962894 
-0.30614071262 -0.05104061536 -0.94202949684 -0.17179652343 -0.028594512109 -0.94005721595 0.20694810599 -0.12130992784 -0.95564836047 
0.35662111622 -0.12594437181 -0.92211478266 0.45555919698 -0.11193757497 -0.88142318592 0.5434498972 -0.11035662057 -0.82938840116 
0.61707289638 -0.10813939112 -0.7766507667 0.68738501608 -0.11246461998 -0.71528942639 0.77107855798 -0.10791146078 -0.61794891899 
0.85311185204 -0.10076409812 -0.50876668363 0.92311426412 -0.10576057436 -0.3488828569 0.97385524434 -0.09618865026 -0.18960043843 
-0.69322321492 0.16662925759 0.70076655091 -0.68569059733 0.1547561514 0.71112512301 -0.18054192931 -0.13734133676 -0.97187799444 
-0.094341824327 -0.17931379135 -0.97801034464 -0.2879137092 -0.11868469599 -0.94787035886 -0.39184656742 -0.11462173878 -0.91232703696 
-0.45300394365 -0.11064759841 -0.88303889366 -0.51149101724 -0.11129634482 -0.85065084647 -0.59844233915 -0.095788618874 -0.79393044808 
-0.71962398915 -0.094423848945 -0.68467167961 -0.82899922226 -0.082614981932 -0.54716958069 -0.91595495352 -0.067624762007 -0.39000330304 
-0.96537494312 -0.015681280776 -0.24878383594 -0.99407743864 0.031907344489 -0.070626898815 -0.99194877323 0.089680778189 0.066552221863 
-0.97111690872 0.13172559625 0.19072669662 -0.93034697587 0.12880432882 0.34216173985 -0.87930560641 0.14200783855 0.45139568048 
-0.81312488717 0.14948845425 0.55637077717 -0.7270721533 0.1526732804 0.66530353696 -0.64327596066 0.15060984041 0.7488972229 
-0.49187624057 0.10575890567 0.85838803069 -0.29092224154 0.060893754042 0.94190308784 0.31914764982 0.023174092584 0.94572842062 
0.19813526688 0.013920407331 0.97602813739 0.4293868239 0.037754374573 0.90130047145 0.5310010916 0.045636382624 0.84422433442 
0.61863589644 0.070506297294 0.78118749859 0.67166204916 0.093794332604 0.73438386711 0.7415409069 0.10381195287 0.66023243128 
0.81532709649 0.096527952333 0.56585586392 0.87912734784 0.073996747067 0.46810056494 0.92184301216 0.060121256217 0.38105190299 
0.95576006642 0.0642414272 0.28421444286 0.98324824138 0.036568630219 0.1721216168 0.99366732194 0.06803831423 0.053408707973 
0.98055578368 0.16013315395 -0.077916512804 0.92509612809 0.21310161519 -0.27379427733 0.89830557661 0.26528022949 -0.32020392622 
0.81591347462 0.19162788385 -0.52601717867 0.74236112325 0.02037299902 -0.66561418294 0.63718096792 -0.048618541511 -0.76110654792 
0.51643132758 -0.092042631063 -0.84213383678 0.080842846904 -0.00286380407 0.99164069931 -0.14971367642 0.033128321963 0.98399842993 
-0.70128044853 0.15821601771 0.69458981851 -0.67523397199 0.14253264856 0.72352181925 -0.70822151129 0.15746453407 0.68769503435 
-0.74613806087 0.1611253601 0.64356656311 -0.7953569103 0.17474916177 0.57394119178 -0.86035051046 0.16870052941 0.46587112754 
-0.93206553078 0.13307136389 0.31695592719 -0.97515154176 0.074872743692 0.17259342492 -0.99593629147 -0.0043338073372 0.028174619562 
-0.86704759147 -0.2139826751 -0.44523839757 -0.93022235322 -0.13990733142 -0.31602665554 -0.80821061128 -0.22633269511 -0.53803082614 
-0.75633029469 -0.23372058254 -0.61057310361 -0.7039441265 -0.20949343409 -0.67450989909 -0.66561145232 -0.176919211 -0.72414655084 
-0.63855418649 -0.1539920252 -0.7524117546 -0.55457461868 -0.15624086479 -0.80966932994 -0.4342700492 -0.1712851036 -0.88083163731 
-0.36991105733 -0.16824765901 -0.91210319259 -0.38584029657 -0.15675932019 -0.9084645312 -0.40967791651 -0.15855362612 -0.89826427644 
-0.41932461568 -0.12713206538 -0.897263598 -0.42977517788 -0.067526465083 -0.89886895032 -0.16328369651 -0.076704795354 -0.93509076127 
0.18409899242 -0.11373886149 -0.97400549179 0.31464835013 -0.11102730587 -0.93640360883 0.43678897551 -0.10898243963 -0.89139688207 
0.52542217556 -0.10351852375 -0.8432914402 0.61249814372 -0.10517162358 -0.78005786515 0.70034233511 -0.11394980762 -0.70099785486 
0.7843222254 -0.12550336123 -0.60039950773 0.86243886355 -0.137733613 -0.4826856864 0.92310753475 -0.1303300625 -0.3396505223 
0.9742523986 -0.1193017607 -0.16535382517 0.99065215491 -0.11196398184 -0.016960222406 0.98835195393 -0.082361583701 0.10229794757 
0.97622232739 -0.053932526447 0.20248286674 0.96309556909 -0.040366176754 0.26368696169 0.95434773312 -0.0067777722042 0.29829484446 
0.94918702888 0.0061414330924 0.31423773881 0.9394678963 0.024446460935 0.34069178153 0.92745876905 0.053017035751 0.36943343406 
0.91951493174 0.096668599153 0.37894147545 0.89746600676 0.14030059455 0.41199331409 0.85841867465 0.20176697336 0.46850054886 
0.77671419638 0.21654525148 0.57917959058 0.66835603872 0.21601930564 0.70457476815 0.50042824345 0.19456938219 0.83529712298 
0.34720238826 0.17496851162 0.91592558699 0.22320860079 0.17856316159 0.95730116485 0.13080682547 0.19952958225 0.97038806785 
-0.058471198069 0.17548119359 0.97384281005 -0.2401009555 0.14315906437 0.95365208801 -0.39371232216 0.10465403793 0.90974069734 
-0.54289324419 0.083224598178 0.82598728588 -0.67025003433 0.068547107766 0.73793135837 -0.71256038856 0.08390022648 0.69391480445 
-0.74755046062 0.10844931865 0.65510701037 -0.70647321996 0.13972534276 0.69318070448 -0.68039382922 0.1233893416 0.72174677173 
-0.64313812611 0.10490284068 0.75832888646 -0.6470389324 0.098456695713 0.75528426294 -0.96835379294 -0.094854412995 -0.19918683158 
-0.99260221009 -0.049681467026 -0.060629610572 0.064856818885 -0.0020558530257 0.99662168622 -0.046680383295 0.027698797604 0.99590321075 
0.19158373323 -0.0088025977438 0.97967338233 0.31513940638 -0.037304570126 0.94591759142 0.41957464305 -0.03116062767 0.90623263625 
0.51996874606 -0.0103681642 0.84959285039 0.60843881222 0.013925136288 0.78930956023 0.6817731231 0.039601437724 0.72881667365 
0.73374716969 0.064383982079 0.67371338928 0.80966044818 0.069660951653 0.57904607143 0.86612530848 0.059097030533 0.49284991023 
0.91061504398 0.052555517853 0.40927124578 0.94633566707 0.051494368355 0.31287003119 0.9692834744 0.075918127613 0.22547976142 
0.97848895098 0.12963639558 0.14099991382 0.97248407856 0.21532562061 0.072404703675 0.84888231988 0.31819772395 -0.41592104173 
0.88538802024 0.31492740778 -0.32696069178 0.81080213777 0.19329934111 -0.5283637759 0.71638826748 -0.01259235156 -0.68862702585 
0.5869007419 -0.10980452706 -0.79984288849 0.47071467669 -0.14768844319 -0.86693330972 -0.28441457864 -0.1291568441 -0.94841566275 
-0.22093377499 -0.16008340233 -0.96139786932 -0.35403881525 -0.11223182719 -0.9273713134 -0.42649545434 -0.10928228398 -0.89739569329 
-0.50357981792 -0.11914607855 -0.85469027588 -0.54511356222 -0.1109325107 -0.83066219692 -0.5931809965 -0.09774755461 -0.79758363623 
-0.66428130715 -0.086468681983 -0.73812599343 -0.77981505515 -0.060870919173 -0.61968633773 -0.88661021059 -0.042184975975 -0.45885433703 
-0.95413001467 0.0093388742821 -0.28875556361 -0.99528108369 0.027283807007 -0.060251710071 -0.9943870318 0.056317571586 0.071513519108 
-0.97562643969 0.08054665112 0.20020128249 -0.94768124303 0.090417273404 0.30339456938 -0.91077360618 0.097852829039 0.39626550432 
-0.86038978675 0.10301008771 0.49384301227 -0.79124470674 0.10257111616 0.59772893435 -0.70175840829 0.10049390251 0.70158897842 
-0.58926066213 0.066448757926 0.79662550429 -0.3929192369 0.024681646395 0.91275588437 -0.32160368539 0.067445962593 0.93657661216 
-0.30303768274 0.11055024742 0.94158877668 -0.066648997363 0.088521230957 0.99214563143 -0.22000026231 0.10823812614 0.95903743401 
0.077544869526 0.029868222604 0.99342501939 -0.069694375312 -0.24226923315 -0.96594786476 -0.14726484521 -0.23465241876 -0.95546962436 
-0.019053424868 -0.27782384482 -0.95672591567 -0.085229716374 -0.26709279025 -0.95613221574 0.94742134939 0.27738054497 -0.14358009614 
0.94742216352 0.2977466214 0.014885718748 -0.68295129882 0.10839404928 0.72222820796 -0.75757096702 0.11971596038 0.63298715102 
-0.83722318836 0.11795768933 0.52242536494 -0.91574781499 0.08670917389 0.37224969119 -0.96640274935 0.040986176702 0.22544207454 
-0.98621400164 -0.0038642222031 0.12399171921 -0.99718227719 -0.053197982684 0.033320796729 -0.98525442516 -0.073769736833 -0.12453860902 
-0.99132112091 -0.084792130914 -0.057132552731 -0.96167214903 -0.1020390572 -0.24198451215 -0.90687428878 -0.15649104331 -0.37926619499 
-0.8450485202 -0.20236419875 -0.49198631682 -0.77423561024 -0.22375392952 -0.58365192136 -0.70320506437 -0.23700313015 -0.66946537803 
-0.65989492516 -0.22128923485 -0.71595009908 -0.62044124574 -0.19249390387 -0.75719403144 -0.52734840884 -0.19309103765 -0.82208543466 
-0.3992110536 -0.20094631989 -0.88587708574 -0.28383297811 -0.1792090277 -0.93882065247 -0.29280729627 -0.16709717223 -0.94076816534 
-0.33820958139 -0.15935662755 -0.92687148877 -0.40333569228 -0.16198667492 -0.89963587341 -0.32956995224 -0.16230478063 -0.91782021928 
-0.20014966182 -0.15453061546 -0.95898480642 -0.0057444268416 -0.14300990755 -0.98048482492 0.18351430039 -0.12371457343 -0.97226732413 
0.31483191282 -0.10863352001 -0.93933871307 0.4239277372 -0.099211025433 -0.89962271508 0.51851530511 -0.09942615673 -0.84524276669 
0.61133480322 -0.10770205206 -0.77840758594 0.70330358742 -0.12868091047 -0.69305324694 0.78778523186 -0.15106873238 -0.58525201966 
0.86732122743 -0.17624874887 -0.46133731207 0.91881942461 -0.18374157044 -0.33593142731 0.9784029207 -0.15120425351 -0.098493114549 
0.98235438273 -0.1452932337 0.051027613555 0.97593963098 -0.11826998925 0.16287750279 0.96398997035 -0.071497862823 0.24827412695 
0.9571113148 -0.0431456891 0.28537585845 0.95225645464 -0.020924376627 0.30452712363 0.947885496 0.0096483604242 0.31747324838 
0.94642666002 0.042708127493 0.31861069892 0.94805262409 0.076562454382 0.30842435397 0.93296075453 0.13053802071 0.33097867527 
0.90768591967 0.16296816044 0.38256478483 0.86031294134 0.18245696647 0.4714832975 0.78092249945 0.19225701905 0.58483365276 
0.66300037903 0.18817806891 0.7217545558 0.52012355442 0.16698317553 0.82998842936 0.38736825834 0.15036133267 0.90633244008 
0.31298282469 0.16192536238 0.93216883263 -0.16340240175 0.12608074836 0.96942804761 0.017452293305 0.1571392614 0.98419881532 
-0.32371670717 0.10988275755 0.93406740818 -0.4666336818 0.097676729922 0.87304370382 -0.60508967594 0.081148938582 0.78041072129 
-0.70793631779 0.075142438668 0.69820477207 -0.73011730017 0.086711617695 0.67639389793 -0.73269555029 0.10421641495 0.6714611958 
-0.76104756928 0.11409867077 0.63745155676 -0.74204635507 0.12308623321 0.65646148239 -0.69179220272 0.10344677161 0.71127285491 
-0.60302296734 0.044982281228 0.79510504695 -0.69171601622 0.06145723517 0.71783844929 -0.5995308313 0.05417635331 0.79764953242 
-0.64222405207 0.070765141347 0.76030967911 -0.73686859333 0.063117995436 0.66200570116 -0.84036047868 0.031477051648 0.5257890103 
-0.91798833278 0.0077971330893 0.36640853369 -0.965739437 -0.017714276897 0.23410973433 -0.76524956582 0.10673487675 0.63412186212 
-0.75894985753 0.1201046454 0.63980330587 -0.77646196558 0.079305578327 0.62424998334 -0.73944755562 0.056495616326 0.66815906303 
-0.66994238806 0.014033507838 0.73979905424 -0.77651522726 0.040233895688 0.62864214863 -0.6175962252 -0.0057084850955 0.78607312163 
-0.61113215531 -0.033530625334 0.79023292244 -0.65202613574 -0.013284015357 0.75346231451 -0.71437803336 0.0232182264 0.69704747796 
-0.82113662107 -0.012067536912 0.54162553086 -0.92108084947 -0.054691612087 0.37523709169 -0.9710512903 -0.059978343836 0.20537915308 
0.18585757979 0.17695502052 0.96338585811 0.26623233338 0.15335026516 0.95147679404 0.17521320811 0.010930751514 0.98377570789 
0.28040956758 -0.0032825820885 0.95574572513 0.3879340366 -0.015511288283 0.91758075784 0.51400604882 -0.031480094339 0.85530343926 
0.61554533773 -0.034737856257 0.78355227334 0.69420832802 -0.018793926732 0.71842395897 0.75542817334 0.01042488122 0.65267392319 
0.80391081636 0.038723980188 0.59127469746 0.84775219381 0.053117416482 0.52584047652 0.89240453755 0.061749527593 0.44538261652 
0.93182294542 0.070553909107 0.35434328811 0.94748058914 0.09891424896 0.29947016538 0.95177071767 0.16489738449 0.25737623615 
0.95182217613 0.23018815136 0.18303089586 0.94456599561 0.29077974139 0.14691313585 0.94383605389 0.3214213692 0.025977702553 
0.93541851827 0.30826625694 0.14601955576 0.937605872 0.31685270469 -0.096944957298 0.91495415478 0.3158310852 -0.24241688808 
0.87159830436 0.26039067987 -0.40007756252 0.80773948196 0.12946504083 -0.55589920927 0.68323933728 -0.028589567873 -0.71683663423 
0.56147622754 -0.11664070682 -0.81129767758 0.44567610409 -0.16009100988 -0.87739549924 0.26518890521 -0.23908811984 -0.92731257872 
0.30310949347 -0.19834178299 -0.9275214697 0.10292233243 -0.26945001134 -0.94855879746 0.1284487592 -0.26966202 -0.94561739603 
-0.023984566425 -0.32084984587 -0.94103289511 -0.13442938897 -0.33099165966 -0.92923175185 -0.20114186122 -0.28569818406 -0.93144643949 
-0.2638026162 -0.23005619976 -0.9345118967 -0.31957470966 -0.17283638508 -0.92905694104 -0.37853715423 -0.1406156812 -0.91415203016 
-0.42445945343 -0.13774190649 -0.89429107195 -0.48200824284 -0.1244254749 -0.86649131415 -0.52276448418 -0.10930310819 -0.84483951121 
-0.55666058278 -0.058118537078 -0.82656320532 -0.6051698382 0.0034951363173 -0.79274480631 -0.6888133125 0.049982290057 -0.72216322155 
-0.81309191892 0.050610716184 -0.57387140644 -0.91177849962 0.0081041582762 -0.39693064103 -0.99130921868 0.029899736123 0.12011033909 
-0.99691305912 0.0090414323943 0.00510595041 -0.9684541891 0.035650783428 0.24352111473 -0.93712607458 0.022156385565 0.3448996796 
-0.91393563619 0.016502636832 0.40297033006 -0.87522259121 0.011231736702 0.47905119456 -0.82652251492 -0.0067736108243 0.56162146167 
-0.75416449016 -0.022668905192 0.65144409125 -0.68015332016 -0.024823319872 0.72743025496 -0.5974563874 -0.00083734574448 0.80019936435 
-0.49527989492 0.05232892177 0.85729586743 -0.48648173154 0.10794667626 0.85989332676 -0.48451581898 0.15301529334 0.85423641542 
-0.20666541506 0.12884783243 0.96324642486 -0.3805554758 0.12701649334 0.90534371764 -0.0391158344 0.10573816702 0.98933600023 
0.058486959042 0.093952621443 0.98988700055 -0.98856962936 -0.028077955499 -0.11655555884 -0.96311726377 -0.022403103942 -0.25276953939 
-0.99364711671 -0.084101859304 0.061153647738 -0.98749087728 -0.071498939959 0.073808015057 -0.99256333809 -0.077855220222 -0.054907628017 
-0.99305114434 -0.092469980787 -0.0056104507193 -0.97853276348 -0.093485936349 -0.17484347379 -0.953828887 -0.10467612159 -0.25787552896 
-0.91525235649 -0.12834801911 -0.35829254625 -0.85606577698 -0.16058394859 -0.48553564152 -0.7748336634 -0.20260922363 -0.58664871612 
-0.68536917923 -0.24737307592 -0.68346337535 -0.62136696009 -0.23744101345 -0.74284112021 -0.55341555632 -0.21951715586 -0.80198106965 
-0.4440352116 -0.20421337325 -0.86556137395 -0.31702498838 -0.19707504288 -0.9234471682 -0.21242323926 -0.18132814801 -0.95815771585 
-0.21490295627 -0.16313302303 -0.96263374438 -0.29278109291 -0.14832555175 -0.94149194624 -0.37172069971 -0.15331638776 -0.91376334053 
-0.36395597636 -0.14794574493 -0.91829823839 -0.29875897878 -0.13722818444 -0.94250062285 -0.062184604311 -0.13228113105 -0.97547994932 
0.13123226752 -0.11188902502 -0.98388279881 0.24900756821 -0.098044190585 -0.95813469121 0.3506525728 -0.090213810756 -0.93037234446 
0.43757894802 -0.084962716152 -0.89118835163 0.53353952064 -0.090029869155 -0.83665245776 0.62764360717 -0.10895958434 -0.76651308683 
0.71910391099 -0.13441435888 -0.67298387274 0.81306117183 -0.17729143357 -0.54479241432 0.90068426343 -0.20120487943 -0.34874379363 
0.98306349229 -0.12795449188 0.11134263889 0.97512276185 -0.17212426431 0.011654960152 0.97417201503 -0.099445751489 0.18968589776 
0.96326594776 -0.065042023218 0.2576843051 0.95418005144 -0.034857784537 0.29568044067 0.95149335208 0.0078993891454 0.30651284778 
0.95504814254 0.038198664386 0.29364458512 0.95937612771 0.05749343363 0.27487887104 0.96199659252 0.099434362914 0.25263852015 
0.93995928296 0.13365107877 0.30617975224 0.90233237184 0.14918490331 0.39776082361 0.84708526379 0.14683923375 0.50423462918 
0.75417676804 0.13639395617 0.62769978198 0.64694304573 0.12103303848 0.74995435406 0.50973197417 0.11642295527 0.84223414627 
0.39403680725 0.11895670348 0.90993579898 0.33612291415 0.13138964724 0.9297194267 0.34342689891 0.1322865237 0.92815860295 
0.25714142899 0.15308908988 0.95077786557 0.35599095053 0.13506840973 0.92227025117 0.080827581497 0.13552137094 0.97932607708 
-0.0048951493334 0.14879160766 0.98150370559 -0.16637068884 0.12155438179 0.97125190189 -0.33956240464 0.10166954947 0.92931718468 
-0.48663052409 0.1043275977 0.86262469306 -0.60732144328 0.098334216386 0.78167041259 -0.70281826587 0.094011354375 0.70371887539 
0.96940375291 -0.19337847419 -0.10961911534 0.95308580121 -0.13561957628 -0.25281989394 -0.97768775842 -0.082722632794 0.15827643084 
-0.99160874288 -0.1031076159 0.052304374936 -0.9906341963 -0.092265155007 -0.068356178396 -0.99188814704 -0.099390623763 0.031891196011 
-0.98911993664 -0.076860258608 -0.12114708884 -0.97387217088 -0.08365391822 -0.1809346839 -0.95451607426 -0.099492386532 -0.26607333328 
-0.93124934726 -0.10766810937 -0.33166036666 -0.8822106715 -0.12522879295 -0.43506274554 -0.79395928714 -0.15529194366 -0.55962774183 
-0.69782304606 -0.1849258131 -0.69026036765 -0.62262940838 -0.18690033171 -0.75419077176 -0.54034077702 -0.18410888032 -0.81789486701 
-0.43759183814 -0.16204979808 -0.87773722362 -0.31889426064 -0.1485137632 -0.93134134926 -0.19325882419 -0.14145644515 -0.96724629742 
-0.13902002852 -0.11952119263 -0.98265489793 -0.28827080633 -0.14292554219 -0.94327445433 -0.38651846161 -0.17339786308 -0.9044151085 
-0.35399930046 -0.18161798447 -0.91403877936 -0.272987716 -0.17691916041 -0.94175593888 -0.12585781335 -0.12769039761 -0.97613126296 
0.026681632989 -0.10126066553 -0.99015514971 0.16698624846 -0.10534200517 -0.9735714495 0.28433810732 -0.098955998615 -0.95159689304 
0.36809080745 -0.07734875922 -0.92444473122 0.47363407584 -0.072971113723 -0.87254709507 0.58612722113 -0.077933853616 -0.80425034883 
0.68388863672 -0.10111775415 -0.71140411764 0.7690880195 -0.12158670651 -0.61414906371 0.88385795125 -0.12371015718 -0.42834293158 
0.94338928978 -0.13659158366 -0.23043331778 0.97974306545 -0.15318970682 -0.030466412422 0.97318101438 -0.032426337616 -0.19597798368 
0.98207053894 -0.15865220082 0.0089996638923 0.98361309327 -0.1260435215 0.046640915958 0.98268590504 -0.10510671221 0.13841701955 
0.96963184277 -0.07308795981 0.21680126843 0.95765096232 -0.038944436327 0.28458657322 0.95104407406 -0.023763244301 0.30692222995 
0.94771385496 0.0060756627405 0.31832727443 0.95211247129 0.03035020337 0.3028748688 0.95972916566 0.051223822308 0.27452217589 
0.97162939591 0.057734951105 0.22829759739 0.95832103414 0.091686456949 0.2581548653 0.91184652755 0.10794251334 0.37984730625 
0.85321707119 0.099345435146 0.50854842201 0.77815170282 0.096274160294 0.61108376937 0.69513826502 0.094374721931 0.71045049389 
0.57600810255 0.11032214013 0.7985727689 0.44503791515 0.12073587804 0.88490426948 0.42249173916 0.10281321637 0.89805410102 
0.35286778237 0.10772386406 0.92873771781 0.4516674689 0.086536464387 0.88537024043 0.21134920871 0.13095135486 0.95941704472 
0.12321588467 0.1586805871 0.9782255311 -0.058198106536 0.13046998835 0.98219384575 -0.16867006799 0.12394184799 0.96860553861 
-0.3294268981 0.1080837185 0.93155488794 -0.49475396675 0.099961667577 0.8563244486 -0.64458903671 0.10995743041 0.75065234669 
0.18377866745 0.055281385188 0.97479427717 0.32769737072 -0.0034797187024 0.94122333527 0.4534950653 -0.035603884186 0.88538766402 
0.55236102376 -0.059727786852 0.82998023787 0.63387025812 -0.056817530657 0.76675662 0.70854469926 -0.049811812048 0.70235849224 
0.76181657411 -0.027816694555 0.64469375795 0.81165096048 -0.0055616630189 0.58048487166 0.86069780404 0.020556438224 0.50784393851 
0.90015004278 0.040778619496 0.42983663279 0.92611919788 0.071264882753 0.36731783512 0.93912753311 0.11656002212 0.32076379309 
0.93575323639 0.18590433656 0.29644430446 0.93166307628 0.24671119123 0.25618562433 0.93040820397 0.28678737085 0.21694592922 
0.93286170112 0.25703667645 0.24566304885 0.94908488062 0.24342438267 0.19185652878 0.92946699994 0.19126516332 0.31429679497 
0.94393455867 0.32293942569 0.0088532542537 0.93795237885 0.32657604315 -0.081858596533 0.93090386218 0.28339195273 -0.22385477024 
0.86869050811 0.17278912313 -0.42268675905 0.78718860865 0.061507175491 -0.60410678715 0.6664285675 -0.040184452587 -0.73258750892 
0.5331313467 -0.11935994136 -0.82844832058 0.39443788464 -0.17206948215 -0.90055265715 0.23061210262 -0.22030589502 -0.93693756626 
0.084837387429 -0.27767185777 -0.9500730352 -0.029804529762 -0.3209983472 -0.94021001512 -0.13386632893 -0.33048199833 -0.93174451989 
-0.20556103901 -0.31942011475 -0.92199804377 -0.2719736102 -0.27479311966 -0.9204919781 -0.32027772003 -0.2072879202 -0.92257628147 
-0.34228942401 -0.15880052608 -0.92557702523 -0.36946597708 -0.11729483621 -0.92115036901 -0.43452098471 -0.099518568701 -0.89483889646 
-0.49726440448 -0.070929862769 -0.86218003758 -0.53623137734 0.0006104179233 -0.84021315 -0.59986239963 0.068786281874 -0.79619570484 
-0.69870922182 0.073555736169 -0.706887931 -0.79055304025 0.058097538139 -0.60118143648 -0.87060957515 0.039831800317 -0.48275630845 
-0.9366286815 -0.02403352886 -0.33597110272 -0.9876018984 -0.076953857889 -0.097903042705 -0.97663536175 -0.096611967517 -0.17336818881 
-0.99615594568 -0.045063099823 -0.027047565716 -0.99287049462 -0.037943015787 0.08165959397 -0.97738184122 -0.021095485803 0.19383797449 
-0.93868800766 -0.02756790172 0.33399452032 -0.89397067272 -0.025153493765 0.44424442802 -0.86484275883 -0.035416335952 0.49973181065 
-0.837319204 -0.053136779639 0.54162298584 -0.78710556898 -0.060165441447 0.61362948926 -0.73792757423 -0.042798223185 0.67076086091 
-0.68858562058 -0.017353750946 0.72316011992 -0.66615187941 0.035351279957 0.74099206013 -0.65815499077 0.098969187764 0.74474203451 
-0.60265135418 0.086565478102 0.78710033526 -0.55723348105 0.080145019123 0.82427370396 -0.49570844653 0.086267633394 0.85943587275 
-0.25828635511 0.12312368123 0.95643279237 -0.39372357458 0.092884211804 0.90986568734 -0.22169492187 0.14607417963 0.95712363165 
-0.064854542719 0.11926581607 0.9818113405 0.11013185568 0.068340421522 0.98806059255 -0.94968921189 -0.09115507919 -0.27556507882 
-0.8510625115 -0.12927520511 -0.50237903741 -0.7524896267 -0.14343071306 -0.62710385042 -0.66269380965 -0.14875577119 -0.73325384234 
-0.58385439659 -0.14801650236 -0.79251804388 -0.50058605932 -0.14816077009 -0.85160768356 -0.37079334155 -0.13662671972 -0.90935709212 
-0.25191339553 -0.11798822673 -0.95976772004 -0.19840446839 -0.075217601594 -0.97483532316 -0.17083273766 -0.03021864418 -0.98412435579 
-0.36345761858 -0.17054193901 -0.91471595765 -0.25211452347 -0.12588871086 -0.95517359975 -0.36515975769 -0.18741593697 -0.91058502811 
-0.27842073212 -0.18681944148 -0.93738028918 -0.10606441782 -0.14355567133 -0.96871986477 0.062323292517 -0.10913905758 -0.98941789134 
0.17186468326 -0.10635989012 -0.97403532399 0.27690518227 -0.10040286594 -0.95273468351 0.3772022856 -0.084913886696 -0.91662691616 
0.48940988317 -0.073720890077 -0.86320268769 0.59972856568 -0.078871406138 -0.78641537547 0.70971083563 -0.087485665153 -0.68676013377 
0.80241929049 -0.083340558219 -0.56603462724 0.87299108519 -0.064089889633 -0.46823512379 0.89182441972 -0.018312106731 -0.40283750931 
0.9531088221 0.020413216204 -0.26088363357 0.99028938089 0.04761065028 -0.064473763405 0.97829719008 0.087851137946 -0.10829699961 
0.98492330827 -0.0023993690486 -0.034379524762 0.98052879219 -0.068247126137 0.091237404052 0.97607985743 -0.075863776796 0.18012807679 
0.9691518794 -0.062408595184 0.23375530417 0.9582206913 -0.04797747682 0.27655204979 0.94910852756 -0.033688555703 0.31293174718 
0.94087500359 -0.0035118040275 0.33627533791 0.93281274407 0.03462480991 0.35795055537 0.93925807669 0.045364308972 0.33829542116 
0.95389477995 0.04682018259 0.29328947334 0.96943649534 0.02702469482 0.23957413128 0.96737716825 0.010975348107 0.24755417608 
0.81561657168 0.048568450769 0.57552184262 0.87708697769 0.047045236362 0.46819086545 0.72859323162 0.054676140983 0.67368237781 
0.62059360799 0.060952226415 0.78040826275 0.50922793716 0.077566516082 0.85140727064 -0.17613302738 -0.085032799499 -0.97979226926 
-0.19553068795 -0.028914214242 -0.97965686645 0.5571459316 0.065241359278 0.82395671328 0.42880185167 0.093320086508 0.89540517504 
0.53007772959 0.080627550046 0.84241226166 0.34043745313 0.10010033129 0.93107308044 0.15597398524 0.11305816235 0.97770135634 
-0.083830815651 0.12938810595 0.97736704237 0.2811904569 0.016442839165 0.94972615846 0.40513671655 -0.017474637052 0.91315880217 
0.49103063171 -0.01608071951 0.86689634041 0.5677390273 -0.011432708962 0.82206141505 0.63640433553 -0.020066933506 0.76639826698 
0.70564966458 -0.023911699187 0.70628956798 0.7616168613 -0.021791719239 0.64434830614 0.8158884744 -0.012144348775 0.57526550596 
0.86561576927 -0.0013047721324 0.49919492659 0.91091444519 0.0075948792664 0.40847416054 0.93242232405 0.045533239431 0.35646698473 
0.93537714469 0.10480729436 0.3374843289 0.92436380163 0.1650144305 0.34149070723 0.92282538534 0.2099593068 0.32229359547 
0.93007960602 0.12643950187 0.34248547785 0.9538360593 0.1323283833 0.26107450571 0.94112159212 0.060774036184 0.33205283749 
0.95912356836 0.1733711475 0.21429780149 0.96073185204 0.24135341102 0.067111394258 0.9474036342 0.27125965884 -0.12716026041 
0.93586881369 0.27321516555 -0.2103176015 0.89893039475 0.21614278644 -0.3557332729 0.83009608321 0.14845442118 -0.51790542764 
0.71048348988 0.059785905222 -0.68326324122 0.57204514576 -0.025318487754 -0.80923692736 0.35602649886 -0.11898132608 -0.9228191506 
0.15593764662 -0.18570031397 -0.96114540541 0.0070288333801 -0.24409120282 -0.96585846113 -0.095547246654 -0.30154280653 -0.94327293416 
-0.18329030199 -0.32901407126 -0.92495691579 -0.2442584767 -0.32616836505 -0.91152222704 -0.29409145343 -0.29293914428 -0.90761255001 
-0.33190835747 -0.22145294052 -0.91502437288 -0.33029529183 -0.15202249737 -0.9299443237 -0.3297340851 -0.090456071283 -0.93901019807 
-0.39064362607 -0.056012981651 -0.91782524004 -0.45931503256 -0.012985198579 -0.88573183909 -0.51312708367 0.049947296234 -0.85431413461 
-0.57033355085 0.10935754022 -0.81331225215 -0.65932889215 0.11543370797 -0.73755968077 -0.74868240744 0.091986571367 -0.65026646406 
-0.83980243265 0.031777661027 -0.53162843523 -0.91270794495 -0.048093429881 -0.38359909866 -0.95038508454 -0.069740469451 -0.2840707815 
-0.98473192261 -0.093064288426 -0.092050686974 -0.98391397608 -0.1109692593 -0.11877564401 -0.99289289011 -0.11341957736 0.013433028102 
-0.97764925349 -0.12705436205 0.11942454346 -0.96049524679 -0.13093344444 0.23671592503 -0.92244196652 -0.12020334517 0.35311117967 
-0.87733830765 -0.094892048612 0.46586219515 -0.81397356863 -0.049659129414 0.57451810554 -0.7981634291 -0.02049628334 0.59798873085 
-0.79762195746 -0.024387132365 0.60122789536 -0.79271002221 -0.030165265544 0.60860512086 -0.76525698829 -0.025525699664 0.64239053196 
-0.74432432468 -0.011850107635 0.66598003405 -0.72683754915 0.0019951492583 0.67956289085 -0.704307857 0.013917361562 0.70560559872 
-0.69885730103 0.045024745959 0.71011829907 -0.65714490855 0.067969733503 0.74657589098 -0.56330016652 0.096682207188 0.81690171879 
-0.40173812431 0.10747679583 0.8974378935 -0.1881017676 0.10133750387 0.95848937271 -0.1516006632 0.1124308667 0.96383407165 
-0.076158762675 0.1021322774 0.97646719479 -0.73933045143 0.1214607995 0.66085661215 -0.7717166842 0.086643311227 0.62846489876 
-0.79721778365 0.061903181923 0.60045675743 -0.78984184125 0.00026780130866 0.61287959556 -0.75362219405 0.00071791347929 0.65569169559 
-0.69552764009 -0.025336586143 0.71714371628 -0.64535883407 -0.0826280615 0.75720074396 -0.63853200104 -0.14176436597 0.75494217434 
-0.70122450666 -0.13997476617 0.6892195167 -0.79476019126 -0.09946042009 0.58340397774 -0.90870829192 -0.071675473277 0.36972459885 
-0.96732508608 -0.082839100412 0.22581800919 -0.97038603921 -0.093962282921 0.18581609964 -0.99060365362 -0.095507609515 0.075861150739 
-0.98749860522 -0.087855132197 -0.091975315836 -0.98934433033 -0.10748831221 -0.011675898221 -0.98531102173 -0.095505000806 -0.10988005278 
-0.94706227136 -0.091896805828 -0.25912597547 0.42026408412 0.052753977723 0.90273701831 0.297792117 0.06747180261 0.94412234229 
0.52282230548 0.013837540656 0.84760378401 0.61336518784 -0.0010622804916 0.78816188463 0.67763251922 -0.021536927483 0.73058193423 
0.73348055054 -0.02731648948 0.67784533302 0.78099185257 -0.024897653922 0.62026922887 0.8267851505 -0.025502184139 0.56000028825 
0.86351223715 -0.022860846692 0.50165340183 0.90740027996 -0.0093105677024 0.41462525618 0.94804799399 0.016952892224 0.31692160003 
0.92825922809 0.079340238836 0.36243756456 0.922842902 0.10745563661 0.36910707608 0.96369236066 0.057732691326 0.25550966953 
0.95322103377 0.036039962864 0.29680199877 0.94530508415 0.067750842048 0.31699561216 0.9622244463 0.068857378405 0.25649829235 
0.97789016448 0.11142348517 0.16979926117 0.97383987958 0.16561723286 0.078413444907 0.96523876062 0.22613053984 -0.043008730042 
0.94775416917 0.22129111973 -0.21054172723 0.91468399623 0.1831665921 -0.32986116935 0.82755418934 0.10167312513 -0.54135625082 
0.72117638107 0.04004158209 -0.6757984767 0.61905253495 -0.0058841925191 -0.77873239442 0.54193156239 -0.017173338347 -0.82422311216 
0.059065007971 -0.14721461497 -0.9823768618 0.16389201351 -0.10519462079 -0.97603152637 -0.034775550105 -0.21226137696 -0.97168141353 
-0.16003567779 -0.25455518946 -0.94810739463 -0.26850970841 -0.28426372625 -0.91774094269 -0.3395850899 -0.27558848508 -0.89780033715 
-0.34326571261 -0.20938308907 -0.91442899767 -0.30900326656 -0.13835685544 -0.9390199138 -0.27216503673 -0.07106235801 -0.95920662054 
-0.30218975114 -0.012042965006 -0.95196297512 -0.49165518066 0.066068921918 -0.86644934862 -0.41606641254 0.033482114796 -0.90598039907 
-0.55833256603 0.095066338235 -0.82263500277 -0.62936145203 0.10333481838 -0.76636298891 -0.71181810035 0.090651152424 -0.69592246718 
-0.79123553539 0.050861207268 -0.59926712807 -0.86558900224 0.0083263209399 -0.49371419693 -0.93855818949 -0.078347960649 -0.32099107389 
-0.97115535196 -0.10262121995 -0.18965427841 0.31459071154 -0.071874517195 -0.93912601951 0.4172920955 -0.052121136116 -0.89440063729 
0.94121485986 0.013280083594 0.33267324553 0.95638190552 0.0052756722769 0.28922815613 -0.3583137723 0.077012242452 0.92508948483 
-0.51241023789 0.09298848938 0.84385880421 -0.62766610227 0.10886933855 0.76913617006 -0.68288843435 0.095082533522 0.72178686027 
-0.73516199067 0.070548741559 0.67215761078 -0.77926281886 0.01923425558 0.62460124255 -0.77542452669 -0.043522569661 0.62864654829 
-0.93044376273 -0.094517554631 -0.34129520249 -0.82990931706 -0.097807088747 -0.51230060872 -0.70784574415 -0.097993429837 -0.69446768866 
-0.61918689709 -0.083978572058 -0.7753319627 -0.53354499795 -0.069951555952 -0.84068556023 -0.44026332857 -0.055622633873 -0.89038344722 
-0.35137992835 -0.033287934652 -0.93434780013 -0.28584635012 -0.0023906251258 -0.95530612908 -0.25289137542 0.014195354686 -0.96623312873 
-0.22279299675 -0.063810872906 -0.9713815212 -0.24024464177 -0.093525362042 -0.96395451698 -0.3034647975 -0.13342940705 -0.93939422293 
-0.37367600279 -0.16532117094 -0.91161234425 -0.4011368765 -0.16277933084 -0.90039980186 -0.37970141996 -0.15776129524 -0.90533567007 
-0.23561320364 -0.13220961118 -0.95329798941 -0.051607279307 -0.10409219569 -0.98498050223 0.12633660327 -0.095024879717 -0.98019581874 
0.2331855679 -0.089896332019 -0.96607296356 0.30936173216 -0.092342519665 -0.94343481519 0.41631845724 -0.077398364408 -0.89894735848 
0.52353565883 -0.059832597441 -0.8384292231 0.63627161866 -0.041694979015 -0.76416598392 0.72725951441 -0.024864962686 -0.66940518648 
0.81971614912 -0.0023595059325 -0.56555133732 0.8916699387 0.020038674536 -0.42570283927 0.93548722488 0.065395681192 -0.28142120815 
0.94020402703 0.087686554235 -0.29314138116 0.98943641967 0.089864148686 0.03810998703 0.98274122358 0.11029658682 -0.11628392239 
0.98816192871 0.067257107361 0.085598177891 0.98563635017 0.040115699079 0.10687799368 0.9816562771 0.000548631058 0.17225626729 
0.9764695915 0.028798472426 0.20217566101 -0.94402841272 -0.10631264318 0.29969117596 -0.97442821226 -0.12028608536 0.16026157876 
-0.98925497009 -0.12131344597 0.068744568688 -0.98256549163 -0.11951479598 0.099554256449 -0.97694376059 -0.12697594299 0.1331175594 
-0.9660372189 -0.13657711539 0.21501009507 -0.8908041974 -0.15118158266 0.42153390805 -0.77771502726 -0.18451251542 0.59509341423 
-0.69774738799 -0.10026278288 0.70732109561 -0.7330405337 -0.015053318544 0.67841584758 -0.76976224635 -0.01164269617 0.63741669551 
0.92919484238 0.075163230034 0.36132920021 0.92660916077 0.068742788882 0.36913867776 0.94220005071 0.056787060266 0.32821496311 
0.96092478994 0.026721002557 0.27092979407 0.96686014507 0.011507618884 0.25334397937 0.94648966062 0.021672384288 0.30971406084 
0.90450082764 0.026771369748 0.4237935815 0.92731942641 -0.018716412445 0.36868533133 0.91538650006 0.0091263559618 0.38870375651 
0.87259241356 0.024076083905 0.477052482 0.81662087698 0.034783045687 0.57437700424 0.75006018517 0.041767382072 0.65587951299 
0.65612487283 0.055275026456 0.74703967452 0.67057074709 0.046382958324 0.73577888162 0.55591655127 0.052473399882 0.82727705412 
0.61459908991 0.039855907095 0.7846369899 0.46881125253 0.075969571305 0.87818294827 0.32054122316 0.084851104233 0.9379125513 
-0.68332700675 -0.14444280582 0.71207769658 -0.75888020781 -0.16316390713 0.6237825022 -0.87936631463 -0.15014752333 0.42283593424 
-0.90542261108 -0.066167070587 -0.37601040271 -0.32524234184 -0.13835711255 -0.93154210566 -0.40105390782 -0.20255734691 -0.89319583396 
-0.37531531159 -0.22899587773 -0.89691588551 -0.32866566155 -0.23157098664 -0.91176858585 -0.21896167679 -0.19220040072 -0.94843129291 
-0.049628343412 -0.14936020595 -0.98082179038 0.094600613103 -0.11230113554 -0.98603869804 0.20543327855 -0.098987756446 -0.97101164708 
0.32483780232 -0.081288625215 -0.93684381615 0.47803378205 -0.059705379665 -0.87198096477 0.59543482191 -0.042803204588 -0.78991312718 
0.68742555799 -0.026899119973 -0.72352605529 0.89039457106 0.057774453858 -0.43332221477 0.90183369344 0.045062216823 -0.42416099805 
0.97964546707 0.075735593043 0.15711675273 0.98364091951 0.11313725595 0.030285901275 0.97758138722 0.051586490908 0.20144074565 
-0.81586211022 -0.036926312321 -0.56697348844 -0.71425464294 -0.024045098166 -0.6886138157 -0.62046950079 -0.011246972831 -0.78008308368 
-0.5397757209 -0.00030458565676 -0.83850480889 -0.46890646511 0.0064883468033 -0.88174209139 -0.39065501758 0.023356054897 -0.91723013077 
-0.33041756517 0.022174353106 -0.94323230668 -0.38149563592 0.03028723259 -0.92198158963 -0.46080250947 0.063788503299 -0.88223478239 
-0.52485430442 0.076052962213 -0.84430648348 -0.59328645227 0.073996834305 -0.79544359549 -0.67519850788 0.060426035219 -0.72930759943 
-0.76318566638 0.01584487315 -0.63596254057 -0.86156458864 -0.032832969613 -0.48954030671 -0.92549441767 -0.082288782253 -0.34817679711 
0.86072055015 0.026662468279 0.49947836653 0.81234861137 0.026464568576 0.58181040287 0.75749905288 0.036719953035 0.64861668462 
0.97494730967 0.15410751239 -0.082727840938 0.96711494619 0.19488608617 -0.14441347975 0.95373514584 0.12947295923 -0.23900974251 
0.74812732856 0.035516404082 -0.65258889729 0.82482786488 0.076585544393 -0.54598937614 0.66559331749 0.010540146328 -0.74323886354 
0.5771172893 -0.016675581283 -0.80650601284 0.53682728461 -0.035289076255 -0.83185036878 0.87515945129 -0.014467860473 0.47571238786 
0.65553888357 0.023572293623 0.7516803638 0.69869376182 0.029177452746 0.71423674677 0.76807101534 0.013657664051 0.6363600085 
-0.93901682524 -0.15889904003 0.28045887104 0.82293397734 0.001705062389 0.56704131652 0.72781355506 0.0066437125781 -0.67018316044 
0.81351875491 0.031704878889 -0.56805030032 0.64368831953 -0.01670868796 -0.7609677808 0.33654710705 -0.15370192453 -0.9239512813 
0.10917282295 -0.19257946916 -0.96705749461 -0.9817944771 -0.038552216258 0.15309721703 0.13823641154 0.091393042527 0.98266582342 
0.089017689477 0.10000894725 0.98490348684 0.84743344773 0.028409023748 -0.50860913646 0.7715422835 0.0010388421798 -0.61223317132 
0.87932919158 0.0829754987 -0.43555637669 
Curv_Gaussian 1 1114 double
3.789728558 3.4331480966 -0.030647605349 -0.01796017523 3.9729482928 -0.031345389645 4.2502460463 -0.031890468954 4.017144902 
-0.024360096024 3.7036395776 -0.0029023667552 4.0503657185 -0.021359786877 4.5605137418 -0.0084153199954 4.5149007545 -0.0029031314404 
4.2786695259 -0.0064683946446 4.1381017483 -0.0062076249818 4.0765176257 -0.019959552556 4.5307972889 -0.016991785663 4.6639755981 
-0.0082471034905 5.0125843445 -0.013684802262 5.0135367748 -0.01097282336 5.0320841858 -0.009748362575 5.4588946766 -0.026275286604 
5.7798475949 -0.012196783911 5.8751608936 -0.01530203663 6.0162685564 -0.071449057786 6.029984918 -0.040643642442 5.9977974253 
-0.054088945309 5.7530342814 -0.057773408605 5.1732666562 -0.0386882999 4.1994399787 -0.041725721211 4.227094326 -0.017795855489 
4.0623783758 -0.010408770415 3.7717084452 -0.010490850427 3.517496057 -0.0060398843205 3.518461368 -0.0046153402155 3.6038740797 
-0.009168695367 3.8525885563 -0.009159654213 4.075591149 -0.003179476132 4.1972272434 -0.0053661912617 4.2333171023 -0.006186339704 
3.9922046814 -0.007119297899 3.9039915098 -0.0033776142642 3.6516651519 -0.010737227024 3.2300478774 -0.0011207243381 3.1187120351 
-0.014586548451 3.5379693141 -0.02976667286 5.1808988467 5.2228070414 -0.010879609951 -0.01235165604 5.1929189615 -0.0094730228124 
4.9542997475 -0.0068372620768 4.9110114402 -0.0037406119234 5.0396235997 -0.0014642299059 5.017883519 -0.0012332867508 5.0190710961 
-0.0018735933642 5.0700135432 -0.0040799329773 5.4121702703 -0.012118794231 5.7101022116 -0.016534705312 5.8704335198 -0.0056966609962 
6.4803254033 -0.0083488015569 7.0940789091 -0.01318533781 7.5748393661 -0.019881093538 6.6739768342 -0.010657140424 6.1154315723 
-0.0042567511694 5.8608106242 -0.010621125043 6.164352631 -0.0041478646807 5.9584798145 -0.0027199164972 5.5136518851 -0.0060939619781 
5.1217413144 -0.0085544202903 5.0746299712 -0.0077884771784 5.214215862 -0.0012992203911 5.3511517126 -0.00082251895828 5.200694009 
-0.0046175938737 4.8773557857 -0.0093292593515 4.5348273597 -0.011965971069 4.5049098644 -0.014654010782 4.9273039891 -0.010963540757 
5.3289151213 -0.0085938450438 5.6390723227 -0.0070915034499 5.4207514715 -0.012012690673 5.1590540819 -0.019872905735 4.8530671935 
-0.018250235294 5.0724983575 -0.012022690225 5.3689930755 -0.0061808332349 5.6030613511 -0.0035878424638 5.5405349385 -0.0016608036664 
5.2395762415 0.00037756530785 4.7828755904 -0.0076125215978 4.3502944566 -0.011711770804 3.9557024574 -0.0082025899499 3.7464494203 
-0.0048333971686 3.6636882577 -0.0016924497317 4.5817197568 -0.0047512584025 5.2130111563 -0.0066322158932 5.2181660367 -0.015804786917 
5.4346124562 -0.016332192377 5.8253907989 -0.0092155313365 5.4380353465 -0.0076923868613 4.8532299646 -0.0064113477507 4.2836009737 
-0.0035910378678 3.8609049339 -0.0017821469464 3.8515720642 -0.0053590132153 3.9962563798 -0.00594800711 4.2976186867 -0.0035951578476 
4.7168564974 -0.0079441517646 -0.0066677163653 -0.028957934384 -0.018415686034 -0.0050528011083 -0.0010986559812 0.0016098576414 -0.0031736800953 
-0.00027201205934 0.0031857558652 0.01055490797 0.0040759843428 2.5363863391e-05 -0.0030808773079 -0.0059524578155 -0.0049487962024 -0.0077238032321 
-0.006870921819 -0.0048478604478 -0.0042887883922 -0.011948134233 -0.011073009295 -0.0074923784842 -0.0089102199917 -0.0014468438648 -0.0042708811869 
-0.0051444461238 -0.0029136017873 -0.0035947823526 -0.0032605781697 -0.0022119300017 -0.003694903134 -0.0063669008383 -0.0055029112385 -0.0040994651225 
-0.006114668383 -0.007942206242 -0.0038772386801 -0.016636312896 -0.0061297772107 -0.018730726431 -0.056060731637 -0.047343277136 -0.0028791413845 
-0.0031955181525 -0.0020090088596 -0.0025421698311 -0.0035019656024 -0.0028899264047 -0.0038338101947 -0.0041813997651 -0.0057148585637 -0.0082051853986 
-0.0094799540235 -0.0053305290924 0.0004070105525 -0.00027474490013 0.0010979479717 -0.00048403633841 -0.00033647599431 0.0012733402807 -0.00010242152447 
-0.0025142801841 -0.0020762716134 -0.00078082860178 6.9816815183e-05 0.00064671404991 -0.0021761270886 -0.0014737916426 -0.0050189825535 -0.0065605014561 
-0.0062173481058 0.00064483226336 -0.00034658054245 0.00096407210277 0.0020196310994 -0.011965368345 -0.0027660589316 -0.0026766881203 -0.0025323785567 
-0.0037945826841 -0.00079344238715 -0.0027109300874 -0.0049736881777 -0.0030488971666 -0.002617264431 -0.0029430311064 0.0045394933729 0.00019283117986 
0.0060191591948 0.013440194276 0.0054135926987 0.0033558834906 0.00081219668533 0.00074861036631 0.0017752514376 0.0037586211075 0.0010606047003 
-0.0027965206777 -0.0020448694407 -0.004347857957 -0.00073484113868 0.00064952847837 0.0057445383172 -0.0038064312982 0.0084867259845 0.006979141864 
0.0021098575669 0.0010195328833 0.0080462483659 0.0045096334208 0.0025378919865 -0.0022286693075 -0.0045720017531 -0.0033840182553 -0.0021480215923 
-0.0040890537512 -0.0018764749833 -0.00031222776761 -0.00027614518533 0.00094428272258 0.0012988745167 0.0068850697122 0.0056323619623 -0.004437942155 
-0.0046613721459 -0.0076245059297 -0.00783543655 -0.0050075742231 -0.0030013517473 -0.0045550184303 -0.0029121439327 -0.0038014870343 -0.0041153408849 
-0.0054443706449 -0.0065813969785 -0.007198402413 -0.012461307005 0.0050137525368 0.011347910473 -0.040934060933 -0.043365554745 -0.027690105148 
-0.014151640688 0.00033590959678 -0.0095900761562 -0.0016374116987 -0.00071306982933 -0.00085106396981 0.0010155890439 0.00076835941215 0.00077886201177 
0.0015925643532 0.0071388773945 0.012038351755 -0.0027065431759 0.005931931812 -0.00013155268707 0.0026275647424 -0.00049326162538 -0.0014303011155 
-0.0044160511108 -0.0053881392803 -0.0026696622904 0.00055431208416 -0.0016608466563 -0.00090063798978 0.0069921942662 0.022427863336 0.015842472042 
0.001619761336 0.002080897567 0.0010835203176 -0.0012542024854 -0.0020088186497 -0.0025638189557 -0.0022011268695 -0.0013826841359 2.0180994725e-05 
-0.0018951991754 -0.0048522196634 -0.0045209440344 -0.0034462386204 -0.0015682352667 0.00029378402113 -0.0010431224079 -0.0018445589906 -0.0015247825544 
-0.0042353597954 -0.0053012127656 -0.0058711546753 -0.0055615098604 -0.0043719649982 0.0023851282911 0.0042842281736 0.00052822209584 0.0031583113257 
-0.00042681275333 0.0013242421487 0.0084985952483 0.0055669991372 0.0047523141555 -0.00022491932418 -0.0046596048395 -0.0017739415498 -0.0014507419151 
-0.0010501043341 -0.00094324393345 0.012025532037 0.012772382407 -0.010136342148 -0.0092026741043 -0.012751642072 -0.012589722337 -0.012477897741 
-0.011822544157 -0.0090376730856 -0.005703396292 -0.0072785664394 -0.0042798671303 -0.0057067006492 -0.0067467304225 -0.0072359671643 -0.0085465878283 
-0.009922701497 -0.0050269045078 -0.00055740768279 -0.002970996952 0.0058715572624 0.0059614750336 -0.0019946182839 -0.0086744946377 -0.0020567779897 
-0.0034104480512 -0.0012803619048 0.001655112215 -0.00029348454901 -0.001287250882 -0.0010947507296 -0.0085380709818 -0.016495026476 -0.015845586366 
-0.009953449262 -0.0043486331686 8.7874498931e-05 0.0020180309734 0.0047936529404 0.0057018255361 0.0089196709968 0.014787909652 0.012873895599 
0.022038915344 0.021612229479 -0.0026705851144 -0.010702830342 -0.0066796132772 -0.0014422782102 -0.0010942422131 -0.010503248583 -0.010155580341 
-0.010912372581 -0.0084987901844 -0.0074681821825 -0.0016985931393 -0.0025600968453 0.0045540175032 0.01103134326 0.015376709207 0.013859308596 
0.0085458188582 0.0055706339126 0.011955216099 0.0033469447653 0.013954389228 0.0068597648422 0.0021851193813 0.0017792750499 -0.00019581128198 
-0.0011653522738 0.00029289784159 0.00029582681681 -0.0051994379454 -0.0059601185858 -0.0044513143919 -0.0025092774541 -0.00090535585343 -0.0013031995558 
-0.0016286611487 -0.0018426761787 0.0031724303593 0.0011398674232 -0.0015538745954 -0.00024421996244 -0.00019964168587 -0.0017214029702 -0.0043143100529 
-0.0085370062075 -0.000479062181 -0.010635333623 0.00051811249849 0.0035976339701 0.00029322388932 -0.00032183134827 -0.00017260740935 -0.0009620204801 
-0.0012783078849 -0.00061410943513 -0.00040784032984 -0.00082256913694 0.0016201862119 0.0084558597011 0.010759348794 0.0058447644972 0.007917346872 
0.003529343714 0.0019451182591 0.0057975407032 -4.2843201668e-05 0.0074203057799 0.0095632163443 0.0042062704404 0.00061588117589 8.573571951e-05 
-0.0019939400161 -0.00068854748083 -0.00051779090865 -0.0015592420272 -0.0050601115956 -0.0002538617501 0.0041074305186 0.0065595607239 0.0072334594071 
0.012914913795 0.013017302167 0.0016868066515 0.0025386641393 -0.0013386372965 -0.0038246324752 -0.0020412444367 0.010207807098 -0.0015650043821 
0.0031522906467 0.0055551691373 0.0064661447298 0.0056694814231 0.0064586226002 0.009768366974 0.0039719384476 0.00061673040979 -0.0042800964261 
-0.0046050311452 -0.0062252621951 -0.0067962750605 -0.0067871264743 -0.0046862090778 -0.0060498004947 -0.0055322585771 -0.0040953494517 -0.0036710971571 
-0.0013215020419 -0.0014329122885 -0.0033276995103 -0.0015406727998 9.5191749679e-05 0.00045674184313 0.0014791530826 0.0054481066963 0.010044235685 
0.0096200480813 0.010926992595 0.0017302641035 0.00093538877023 -0.0034998976989 -0.016031318271 -0.0095498702806 -0.014799996734 -0.0075838136111 
-0.006647229209 -0.0084308462358 -0.0061714682189 -0.0039619583875 -0.0030452160143 -0.0044070685649 -0.010370292879 -0.0088549414742 -0.0027153003174 
-0.0024409640962 -0.012703477131 -0.028038122029 -0.019230558114 -0.0097581041652 -0.0023766195924 -0.0054003543142 0.0023055043945 0.0043004234991 
0.011598257107 0.012422243225 0.017891111558 0.017673794605 0.016795590029 0.0081642391617 -0.011323600842 -0.0039227830071 0.0034063952891 
0.0090128173368 0.015775442531 0.0013918704436 0.0012460214864 -0.0099644763907 -0.0056965910079 0.0057949292704 0.0079622617316 0.0046877973494 
0.0037678103096 -0.0032737909024 -0.0016302173898 0.00049962561011 0.011495730675 0.014136204844 0.013382065205 0.0062342438888 0.00058846273407 
0.0088257948078 0.0096350416348 0.0026289723701 -0.00056752219102 -0.0017376740255 -0.0025718592464 -0.00020497444962 0.0052449973329 0.0048778401626 
-0.00074674652946 -0.00099114776446 0.0010622646271 0.00089355021036 -0.00054362528279 -0.00088073336928 -0.00041719639429 0.00042087049734 0.0017531101237 
-0.00037208547438 0.0034210892573 0.00020100366685 0.00034516278489 -7.1707613649e-05 0.00028236617407 -0.0002037961831 -0.00086995570431 -0.0032270328012 
0.00023991948842 0.004137971272 0.0067598856992 0.0096025904937 0.010820493323 0.0077270452405 0.0056304133389 0.0037911747533 0.0039361974042 
0.0054537024724 0.0027664614965 0.001987737408 0.0038486260777 0.0017560243363 0.0045632779204 -0.00036017253744 0.0021349699924 0.0044548163895 
0.0035930623529 -0.0040063011624 0.006371970535 0.0029994312955 0.0046750031634 0.0025449827598 0.0044210361921 0.0063513002984 0.0050070458756 
0.013170175662 0.01985500565 0.013462679245 0.0073815175962 0.0085952395118 0.0090168552404 0.0033506478604 0.0046502353873 0.0066935360411 
-0.0026994301105 -0.0077485714552 -0.0042633140374 0.0014555155261 0.0086283911891 0.0033672094111 -0.0017588970087 0.00056483429246 0.0018077767025 
-0.00074881417292 -0.00016106321362 0.0039080608681 0.0081472013046 0.016885364475 0.011898878599 0.018135030701 0.018624098862 0.011284943834 
0.012344308638 0.0019671583887 0.00078876408397 5.7711252071e-05 -0.00039964633633 -0.00052763287595 -0.00045481231452 -0.0033377476679 -0.0039980039529 
-0.0023374610888 0.0099019684164 0.015345624929 0.0098073522908 0.0099349271517 0.011525654322 0.010349376586 0.0079638889868 0.0021823134574 
0.0023961039473 -0.00025947920295 0.0097346702569 0.015343793091 0.0032004672068 0.0021564878295 0.0048569957292 0.0063802844104 0.0019861971095 
0.0016671536718 0.0027232191162 0.0027446154524 0.00069115290302 -0.00044703386415 -0.0019310448186 -0.0020943945938 -0.0015132375084 -0.0010595329776 
-0.00039665638396 -0.00034382770459 -0.00074513542742 -0.00065364809756 -0.00037150591557 7.6860260556e-05 0.0030078674797 0.010985250375 0.004486501572 
0.0022795111014 0.0027426175394 0.0069716182725 0.0047432862328 0.0010581564789 0.002393621025 0.0032876329718 0.0035595129056 0.0063904014591 
0.0041920586389 -0.0010671865026 -0.002075987892 -0.00084580393316 -2.3429087409e-05 -0.0027653694532 -0.0012550020436 -0.0033940258918 -0.0071878660159 
-0.0027534616937 0.0015104166253 -0.0026735577454 -0.0086360528826 -0.0095929527312 -0.0047895280392 0.002608306625 0.00046466684183 0.0047827808029 
-0.0047229943319 -0.0067268121563 -0.0094579137359 -0.011515819337 -0.0081293955351 0.00046656162526 0.0059483189836 0.0058773144461 0.0030320507433 
-0.00095282427972 -0.0053504416494 -0.0068437778597 0.0046882703306 0.0064918648959 0.0064720949872 0.019994605308 0.0092721275591 0.018915891591 
0.013483690206 0.013664528419 0.014699094127 0.016789098584 0.0083211201973 0.00096940515515 0.0052645076862 0.011460548891 0.014651336932 
0.015444159957 0.0098286918787 0.00257597578 -0.0034465205317 -0.004132005501 -0.0032279777373 -0.0093059872486 -0.0022609470276 0.0036727808918 
0.00091684786114 0.0011979187142 0.0091368624222 0.014678423407 0.013564366254 0.013889122627 0.013385478223 0.011883322647 0.0087618412642 
0.0085581413311 0.0066769782225 0.0071126178672 0.0066839250776 0.0092349420497 0.0073968918477 0.0055926328522 0.004861591437 0.0036471517065 
0.0017961046401 -0.00059495033519 -0.0004938111221 -0.00057514325742 -0.00066716378197 -0.00076609695475 0.0042557751215 0.0088490741364 0.0057736822202 
0.0090181168759 0.0044480064623 -0.0065423271736 -0.0030022744141 -0.00051316804381 0.0041885328404 0.00717918694 0.00049796952273 0.0019035790415 
0.0086904828487 0.010888729081 0.0062284252536 0.005071817666 0.0036332132821 0.0032780270801 0.0026837439854 0.0021218587821 0.00088068950025 
-0.00046362177738 0.00056263075722 -3.8432631734e-05 -0.0017774619252 -0.00079519879787 0.00093883623952 0.0011817187911 0.0024172869925 0.0033337692232 
0.014419632937 0.013534851551 0.0050205039482 0.0058157054765 0.012538497819 0.016320404628 0.012999691379 0.01358449133 0.015695726658 
0.011041840571 0.0049099512155 0.0035664945918 0.0021632012364 -0.00097320086302 -0.0018105618146 0.00012005133204 0.00053394475018 -0.00065163527571 
-0.0040626384152 -0.0016727049758 0.00036044555699 -0.0024507496516 -0.0012188879545 -6.1982338178e-06 0.0032022593847 0.0083368047285 0.0038838964141 
0.0027437636623 0.0083806400326 0.0035225581333 -0.0012483983205 -0.0084706444076 -0.0087392382141 -0.009390180094 -0.014757146022 -0.010800132538 
-0.0039007882894 -0.00094711526956 -0.0023675824113 -0.0035921673765 -0.0031672740809 0.0050996356359 0.0029681282525 0.00086457973314 0.0010120529565 
0.0019173611287 0.012139159946 0.0013987030974 0.021107406505 -0.00037167522211 -0.0014976643912 -0.00092911738987 -0.0010036878163 -0.0033791647077 
0.0043973168789 -0.00076451799286 -0.0042995964959 0.0075659160085 0.02671938533 0.020435257878 0.0077137557181 0.0087627181662 0.0065992679846 
0.011066801972 0.010284821429 0.0080201911278 0.010047242341 0.016515672873 0.022567384871 0.004475846523 0.0036509322474 0.0039570425781 
0.0040645461591 0.0029408019904 0.0012545725588 -0.00021168651855 0.0010875131171 -0.004090436712 -0.0056617181844 -0.0016535100516 -6.785460789e-05 
0.00054301471975 -0.0002777424168 0.0037538414897 0.0035182905357 0.010262271132 0.013274717544 0.0081438410714 0.0091570268426 0.011688676863 
0.013708103297 0.01603076365 0.017277030503 0.0046507388788 0.010464725559 0.0023957001636 0.0055922340288 0.0051440546135 0.0012908348593 
-0.0006027532516 -0.0022590500975 -0.003477897894 -0.0015060255499 -0.00079905476193 -0.0025291721645 0.00031350197534 0.00021452331615 0.0021794861802 
0.006855274693 0.0097399744161 0.012135928386 0.013483929286 0.016885066118 0.015978592393 0.0037619536287 -0.0022443713853 0.012580539971 
0.0064084662683 -8.8388389949e-05 -0.0013138790592 -0.0012689069761 -0.00032882838896 -4.2985869094e-05 0.018314740966 0.018459356347 0.0149299119 
0.0096295009913 0.006536984731 0.0091732758248 0.012466515213 0.0076506339452 0.002876427273 -0.0051427550146 -0.0060507864287 -0.0072543741917 
-0.0054587682655 0.0039579318406 0.012160578695 0.016938118224 0.017099520749 0.007082705949 0.0017408639126 0.0014381713116 0.0023946258962 
0.0017812562482 0.0024263617618 0.0045473025922 0.0066636957809 0.0076002188887 0.0067988659695 0.014257303477 0.0053087409899 0.013773408609 
0.0026146419709 0.00089706063485 0.0020457872149 0.00027116715871 0.015261830179 0.0075847740872 0.0085509364311 0.0034688572287 0.0014343964035 
4.6642229301e-05 0.0031955982437 -0.011139704697 -0.004637064715 -0.004905018523 -0.001352425258 0.001057874261 0.0014758061177 -0.0031973027485 
-0.002831822162 -0.0020511266633 0.0037829046616 0.016220757871 0.010632278612 0.0043074059348 0.0050956123237 0.0022373224734 0.001362852135 
0.001410925543 0.008428797439 0.0053010966584 0.0044332829945 0.0064819942521 0.011718788214 -0.0024793474255 0.0026383908552 0.0071469042722 
0.020801451127 -0.0069375063298 -0.0054643514709 0.0011108758225 0.0083726669494 0.015145912155 0.014186125678 0.0040501377896 0.0036854866648 
0.0084879097332 0.0077774261862 0.0056491690056 0.0050846633723 0.013463373532 0.0074325665807 0.004446575603 0.0075270617991 0.0019318958765 
0.022835303359 0.015721951087 0.011750329521 0.010385256455 0.0061284770375 0.0085149029523 0.01112821911 0.0017307309976 -0.00034838946926 
0.0025725892709 0.0047387055119 0.0064115130726 0.011801616821 0.017331922834 0.019315836131 0.011425061226 0.0054134935869 0.0086040843335 
0.012716719045 0.013544066739 0.015775864807 0.016179371521 0.016782121587 0.01235120701 0.014946454885 0.012227137477 0.0062791094715 
0.0041259661356 0.0051764086124 0.00665120184 0.012837929725 0.0037681552428 0.014965357101 0.016798175351 0.011419129611 -0.016375305242 
-0.0048945916674 0.0090102359327 0.02464608317 0.015659968018 0.0068160011247 0.0060602176691 0.019472557756 
Curv_Mean 1 1114 double
0.049091277625 -0.093047236853 0.02264556363 0.071657507991 -0.13900240324 -0.015212448642 -0.1452388315 0.018658979794 -0.10614457412 
0.047031686369 -0.048208051843 0.13155207572 -0.091214572713 0.071617492119 0.09919779401 0.0025949750217 0.049096054762 0.0099790998285 
-0.053393845683 -0.016296168817 -0.070265918467 0.020986792021 -0.11847679179 0.0051082803139 -0.13344699008 0.021496063862 0.0063072431909 
-0.046960345488 -0.17995992719 0.018767768618 -0.037458500382 0.052376314728 -0.099511854883 0.082089010306 -0.14560321474 0.052725501093 
-0.03841151419 0.10992542021 -0.10423051797 0.16990933494 -0.37879641611 0.19302284444 -0.074384151174 0.19776643991 -0.033353841724 
0.16818678405 -0.068241486559 0.12785314592 -0.083289230593 0.092123218923 -0.010037172008 0.0028784498321 0.0046980274814 -0.018009774965 
-0.12283328062 0.0034135317795 -0.10078433213 0.048172629947 0.01105691853 0.0066800019761 -0.10350389194 0.02503715537 -0.10524858846 
0.0031545490306 -0.041601839174 -0.0038111390394 -0.041511925143 -0.038173961728 -0.097470629544 0.013559068927 -0.0054781374982 0.00027381366222 
-0.055446012067 0.0043397379129 -0.074575409644 0.045021044101 -0.054197409043 0.0081550384509 -0.033956551189 0.011486223601 -0.060241590088 
-0.01546990786 -0.092974105751 -0.0073812351223 0.056719754222 -0.13065702464 0.021537708226 -0.013833160554 -0.21961715183 0.048548787862 
-0.022453529529 0.034964399094 0.059306026093 0.011812263129 0.039504526816 -0.010135191814 -0.026986666681 -0.014365696048 -0.051214305956 
-0.013210647358 -0.0035739335942 -0.0026508329529 -0.22404835136 0.0043866885901 -0.36941532058 0.010955047945 -0.33494913268 0.073852838628 
0.0073348535571 0.045482078536 0.13061527374 0.018646816423 0.031123805027 0.048003621061 0.02616030644 0.081709742723 -0.18160654247 
0.080661436163 -0.3892723791 0.044034708488 -0.0073793767256 -0.051117831527 0.15712855599 -0.068573881758 0.18353159267 -0.010499929561 
0.029884988862 0.0003898750934 -0.038713118022 0.009598981242 -0.04664049298 0.011806490033 0.033696239692 0.0013397363205 -0.027167865413 
0.01816781715 -0.17002794484 0.0076518671823 -0.24434646779 0.024649008001 -0.20565533853 0.040717822104 -0.0034524000439 0.037392303194 
-0.14508500139 0.059443062015 -0.31704195571 0.093357721515 -0.035334558704 0.072023572502 0.078907973423 0.05604308704 0.022160951156 
-0.057589660304 0.05111466973 0.0039374451084 0.09431995077 0.064826148549 0.13572883794 0.036686491314 0.14455235408 0.03862227846 
0.12692926398 0.071849560484 0.016280696387 0.051234584695 -0.064559883469 0.038022683737 -0.098451777157 0.023770037203 -0.1533770208 
0.022191009673 -0.20866589954 0.012880053735 -0.12004235188 0.023710093496 -0.099884341551 0.017865968821 -0.22923026623 0.0011405740444 
-0.2117155283 0.00090268128673 -0.073029342198 0.021110196508 -0.075301244245 0.0099193344232 -0.10853822172 -0.020305245368 -0.025659354073 
-0.012886546126 0.013243265622 -0.010630296215 -0.071571504941 0.0091380480356 0.002202261776 0.0028616241844 0.23730434684 -0.039100338255 
0.19897732211 -0.03160585145 -0.048479503223 0.056954872235 -0.038452870206 -0.010682020865 -0.024993975204 -0.074854089318 -0.0010156516102 
-0.030795882495 -0.066599049957 -0.1095131902 -0.075352166199 -0.061008193212 -0.014731409463 -0.022582054814 0.0095724262844 0.037779802141 
-0.015805505559 -0.0021621535538 0.026962610708 0.036755676515 0.056462281147 0.042804780491 -0.03107593003 -0.088548286425 -0.069601376314 
-0.012171986709 -0.017008704013 -0.0061986962956 0.0027167971578 0.0068417647081 -0.032241183172 -0.011918286772 -0.0094612963546 -0.0033567791845 
-0.018940356891 -0.0021972510578 0.071308087035 0.048055066794 0.12790587878 0.15352121131 0.10921017787 0.072811645895 -0.0090163099831 
-0.021185083196 -0.011835374885 0.002134912686 0.039284391735 0.034727776212 0.021084790241 0.02513924572 0.043987182229 0.028688426911 
-0.0095027894122 -0.025327473146 -0.06004840312 -0.052200426848 -0.026500903514 -0.020188794144 -0.048558672442 -0.085583858351 -0.065435639229 
-0.029842882149 -0.034888060114 -0.034140090498 0.013096274336 0.029559180703 0.0009757875723 0.00056065279366 -0.0046539187118 -0.0099170432441 
-0.030573591675 -0.042895941563 -0.01779021014 -0.047203210454 -0.066394594045 -0.031859591431 -0.025311049168 0.027399333167 0.071542782246 
0.037291066933 0.043792109307 0.010159581064 -0.010513573547 -0.018216698432 -0.028721457798 -0.029829764998 -0.065470194255 -0.061400332257 
-0.092287691559 -0.1127026312 -0.07422174029 -0.062669025521 -0.041351594426 -0.039272374321 -0.045562727486 -0.060240415645 -0.050059752649 
-0.030710247931 -0.045829131596 -0.036727043067 -0.00081725943047 -0.02175665102 -0.088409043808 -0.014836748061 -0.1073412493 -0.092277932135 
-0.065778748309 -0.051215141113 -0.093339099369 -0.084817627957 -0.091796842533 -0.026754956424 -0.023693130739 -0.0144894617 -0.00057902487311 
-0.016033458513 -0.01369192769 -0.024359762137 -0.033068868599 -0.038608637059 -0.049096207849 -0.10548814361 -0.10130544623 -0.0031647097617 
-0.018404509267 0.025758451601 0.023501789334 0.022271429605 0.016391696597 -0.0070451441963 -0.036216059782 -0.020435474197 0.0023065360196 
0.00014291676212 -0.0060528057615 0.051965447033 0.056813675135 0.13897948422 0.071771442275 0.064984908091 0.025658052332 0.048213088917 
-0.0010064790648 -0.032638790531 -0.024225446286 -0.018027241393 -0.029443843418 -0.038168743505 -0.06340856503 -0.066774860287 -0.06832070025 
-0.069736868893 -0.091791361517 -0.11445098239 -0.0074113706596 -0.071219678123 -0.023344194405 -0.055373764433 -0.012444276833 0.018129031719 
0.0032183233766 -0.029200338811 -0.064555124134 -0.036757193534 0.0038919205434 -0.0073014706582 -0.054623212018 -0.13519778506 -0.12186392807 
-0.063804561469 -0.05511954941 -0.040231056329 -0.026659054089 -0.017736625824 -0.018541559942 -0.027665055445 -0.037349285211 -0.051454726378 
-0.041924479418 -0.011085748195 0.0026706041862 0.0010899347677 -0.0039245656681 0.039767436247 0.038476027298 0.029287811972 0.042614255189 
0.041539421285 0.031347450062 0.0046004555891 -0.018238852004 -0.038343840364 -0.072416495115 -0.057133422588 -0.03319949915 -0.069333528849 
-0.053013791221 -0.06143451253 -0.09764817524 -0.07822183203 -0.075093091837 -0.045891458769 -0.017610717172 -0.0029369973489 0.0026888364452 
-0.0028116812785 0.0055119195728 -0.11537542934 -0.11776373905 0.050854575637 0.0053328837113 0.045153451111 0.074672511857 0.063619507758 
0.046860014196 0.04008692079 0.057805784848 0.03546025133 -0.017666728882 0.042226994635 0.010324168956 0.0047141946398 0.01431629808 
0.017302887837 -0.013922491529 -0.027946867359 0.079390092691 -0.12991177234 -0.10530547912 -0.014491679697 0.0043834297693 -0.032000188537 
-0.024400401126 -0.022264084313 -0.042457685834 -0.018176980983 0.008396116542 0.0033877414529 -0.0088260702978 -0.00067400629913 0.046307402966 
0.014619398936 -0.013946020946 -0.025334136603 -0.055681136535 -0.071415174533 -0.086601714485 -0.10423225136 -0.13197901248 -0.13104142254 
-0.15746322727 -0.17147788622 -0.10675603978 -0.093571313867 -0.056965631565 -0.091697993047 -0.009243395271 0.0095105764993 0.043956091448 
0.014345066941 0.028220841845 -0.016821866661 -0.039765228305 -0.014784042358 -0.066292451265 -0.10715538479 -0.12546696869 -0.11852624207 
-0.092973754609 -0.077441196791 -0.11050493301 -0.066913265403 -0.1257307484 -0.103428926 -0.063266974246 -0.047722310795 -0.030163724509 
-0.011759376156 -0.011588323329 -0.061293248967 -0.060116727312 -0.01010485772 0.0071718616577 0.011114739593 0.0052045332258 -0.016908337366 
-0.062319661811 -0.062036122198 -0.066594992971 -0.042228236825 -0.017686552892 -0.033198950442 -0.039089170671 -0.032949599637 -0.016813350889 
0.013441524958 -0.044117196604 0.0031812778384 -0.055425500565 -0.057916912929 -0.014607249901 0.0024343444068 0.011301591788 0.013105961792 
0.019176979959 0.042799009922 0.011865295121 -0.0085377472314 -0.041631420956 -0.08755507275 -0.10610376572 -0.081674494397 -0.086453361274 
-0.058849308124 -0.066998501329 -0.087186453002 -0.054097208218 -0.087258373526 -0.097449967901 -0.069025816538 -0.048429974745 -0.023546994819 
-0.0031726444654 0.028573919277 0.032931768997 -0.0015201015691 0.0039876393359 -0.028421380739 -0.071633167353 -0.085969731165 -0.085491384042 
-0.11278848293 -0.11383249908 -0.0075515453021 -0.048484448649 0.0061765132244 0.0093035423382 0.01658822851 0.12158545388 -0.051122036855 
-0.082896438762 -0.098207195427 -0.091901001401 -0.083853981295 -0.086074403213 -0.099029629107 -0.067857524045 -0.027590328642 -0.021977413257 
-0.0083056236675 0.0054194466185 0.013634569745 0.01374221373 0.044220717622 0.049787474643 0.032781809431 0.03560628607 -0.0077127363762 
0.0049068752729 -0.011696253755 -0.020409955603 -0.036665479326 -0.045194154778 -0.038949351591 -0.052412209741 -0.10693978296 -0.15947627392 
-0.086683209102 -0.1192211964 -0.06798560992 -0.049869584379 -0.013005475351 -0.022886999792 -0.026403996027 -0.0066771061502 -0.022203266617 
-0.0042871908175 0.015757341796 0.048739992654 0.068582952688 0.053484047346 0.05520647171 0.060738587289 0.071069237131 0.097816248622 
0.12174127407 0.11476013316 0.059460893415 0.055261050751 0.0067074865301 -0.035621936107 -0.012152457835 -0.075074661145 -0.11294282055 
-0.142943869 -0.13904769639 -0.15987805995 -0.16157224618 -0.1528386842 -0.096440097052 -0.049481180504 -0.067485298941 -0.077051183217 
-0.12242477703 -0.16068510489 -0.053940204143 -0.059362666271 0.0066336983172 -0.019552637064 -0.077522072107 -0.089746623639 -0.072732918371 
-0.066027995168 -0.035047750115 -0.05501883649 -0.074916151236 -0.11783954127 -0.11869600382 -0.12858469669 -0.10057123447 -0.089547275616 
-0.11384182921 -0.10113634476 -0.065225813255 0.01506859565 0.031157771118 -0.020721571167 -0.051027272944 -0.086907158218 -0.075638465038 
-0.042901954074 -0.033500919193 -0.045749604064 -0.046292912704 -0.036559324244 -0.039059149224 -0.044301081337 -0.056005334317 -0.068663072575 
-0.040262244375 -0.065897273005 -0.033006319456 -0.025967760729 -0.037572149707 -0.0081547319991 0.0088514766864 -0.030446888522 -0.041203501369 
-0.061027013627 -0.071343706181 -0.08874764665 -0.10295298456 -0.10445741236 -0.089322864024 -0.078252137347 -0.06139995498 -0.07187955046 
-0.073129812967 -0.074743872412 -0.060504176029 -0.079925005327 -0.066620226805 -0.072256465698 -0.042710062498 -0.059255539172 -0.070565290987 
-0.072140665312 -0.027754333841 -0.08234673022 -0.061054223417 -0.070987444227 -0.059726563868 -0.070606712496 -0.079175308225 -0.071662087697 
-0.10844453542 -0.14039873445 -0.11824506126 -0.096498956326 -0.10258238052 -0.10509972549 -0.078099540508 -0.080399337232 -0.095293552204 
-0.063937993489 -0.013182931192 0.012101299932 -0.042722549241 -0.10031032689 -0.080550532344 -0.053910252903 -0.048017506431 -0.049219480746 
-0.043838631609 -0.046284202775 -0.066550346222 -0.08750483601 -0.12779106255 -0.10465914792 -0.14167615089 -0.14205636968 -0.10768817031 
-0.11168438371 -0.055546728361 -0.041969297767 -0.02058864073 -0.0087126771021 -0.015365848239 -0.0015229105489 -0.034879230158 -0.03595470001 
-0.020504442146 -0.10715238143 -0.13110890557 -0.1080447669 -0.10468158991 -0.10850510882 -0.10523790708 -0.096048984093 -0.057605824952 
-0.051359991731 -0.025984550892 -0.096464204628 -0.12130817377 -0.078616282284 -0.072083052504 -0.079357433676 -0.080848411622 -0.050964747617 
-0.059456850766 -0.057862979608 -0.056774217334 -0.038512158271 -0.022322069436 -0.0028458231257 0.022412839562 0.011292694181 -0.029253639446 
-0.023494604503 -0.01810714468 -0.0062052765723 0.0085337042561 -0.014101381095 -0.036297598108 -0.06994096798 -0.12326844158 -0.099525184969 
-0.049456910188 -0.053673958669 -0.087921578987 -0.087917113677 -0.073652102054 -0.066413081803 -0.064355272043 -0.067095741695 -0.085587590649 
-0.074158811421 -0.03857066912 -0.0068135374623 0.032009883922 0.06072807258 0.054205104523 0.077115177508 0.059544293457 0.041940918142 
0.081663521361 0.095413553492 0.082071504002 0.042107767719 0.021713268785 -0.012824648003 -0.071494460563 -0.043828053545 -0.074259602656 
-0.0014118541144 0.014424603995 -0.0062928905092 -0.041124703331 -0.017717629426 -0.06277180119 -0.098210881099 -0.082331097266 -0.061951763625 
-0.031130711939 -0.0049804631517 0.018164303809 -0.083655845339 -0.093463001337 -0.092196706126 -0.16344209371 -0.10562267617 -0.17920765367 
-0.12375147885 -0.11698779401 -0.11553205462 -0.13364007619 -0.086336569189 -0.043035432822 -0.073005645299 -0.11404769254 -0.12809885593 
-0.13343172093 -0.11999398415 -0.073473529353 0.014056253387 0.015803957887 -0.037485736844 0.00057672817839 -0.04406850866 -0.077354898902 
-0.047181017127 -0.040167778925 -0.089286342516 -0.12394242912 -0.12180395105 -0.12389417205 -0.11816436518 -0.1093130435 -0.096888667311 
-0.096156889369 -0.082551864832 -0.089597053064 -0.072163666443 -0.085511040106 -0.092247623103 -0.086638909479 -0.088457935941 -0.080451468028 
-0.075477207272 -0.055206911634 -0.0091857641994 0.03120780995 0.0053668542065 -0.016388145198 -0.065433899366 -0.085514910435 -0.07848554695 
-0.094329150842 -0.065166268067 -0.027931016803 -0.025251339411 -0.031887218586 -0.064968896998 -0.094798616763 -0.037316852661 -0.080322379569 
-0.098566075272 -0.1051085602 -0.079912631018 -0.07163583777 -0.061776682876 -0.058953340125 -0.053575986446 -0.04951429297 -0.039068692491 
-0.030626929388 -0.042029431738 -0.039496351964 -0.00843581084 -0.040235354818 -0.053669552839 -0.066798080639 -0.057400859963 -0.075577347212 
-0.13885136625 -0.13351027395 -0.076163761459 -0.076937516917 -0.10881053905 -0.12775653491 -0.11647477123 -0.12076443683 -0.12956887682 
-0.11019109491 -0.079246660353 -0.064073803203 -0.043912211506 -0.028822855415 -0.0032126502723 0.030244378447 0.014233778411 -0.0073068689166 
0.01878382806 0.032883744055 0.033904031211 -0.011146003354 -0.027011167535 -0.039745796074 -0.061335086436 -0.10159923394 -0.065155818706 
-0.05671035915 -0.099690638704 -0.071032406163 -0.074473554671 -0.068868828686 -0.035940009837 -0.011550712372 -0.033180023372 0.0023223032736 
0.0010203036745 0.023007676336 -0.00065437079069 -0.0075952460733 -0.027091186995 -0.088629547904 -0.064012347651 -0.042663949574 -0.039444957333 
-0.062395770251 -0.1158826234 -0.077807651448 -0.1483097431 -0.025891210183 -0.012522317877 0.023621086398 0.02510265603 0.025886201589 
0.11115918601 0.015439666755 0.0069069200392 -0.067994103149 -0.16840142234 -0.14244668063 -0.091475267075 -0.08792439331 -0.092637058105 
-0.11813062596 -0.1164336018 -0.090017757021 -0.096943602002 -0.14055315647 -0.16003740572 -0.07578383833 -0.064675686756 -0.064598319192 
-0.064416754323 -0.055106623129 -0.040149241806 -0.028667034121 -0.044113141306 -0.060379962204 -0.066510923688 -0.070979715713 -0.0099613465473 
-0.021072839774 -0.0068135595619 -0.068889266872 -0.064708558979 -0.10908656976 -0.12802579231 -0.094254795066 -0.097626986791 -0.10924021548 
-0.11929428492 -0.12955826864 -0.1325297473 -0.091157714801 -0.10788879594 -0.088204135022 -0.085799211839 -0.062332300475 -0.037360704688 
0.012044870431 0.02563327171 -0.0010222101812 -0.025772712902 0.0011659023656 -0.005732685203 -0.0079108869441 -0.023866216063 -0.050141878412 
-0.0839616125 -0.10425453807 -0.10324858198 -0.12914855197 -0.13125560293 -0.1277293972 -0.075039964246 -0.048922802436 -0.11366706152 
-0.071202513471 -0.029644691043 -0.021233894439 -0.015781861307 0.00051420365247 -0.041118114248 -0.13189875317 -0.14077797501 -0.1364081141 
-0.11145228214 -0.09807911729 -0.10989543075 -0.12578752236 -0.082555743652 -0.10838783942 -0.022854182621 0.0023356997529 0.0015359753837 
-0.020840108071 -0.071227127579 -0.11443995935 -0.13060613254 -0.12870858947 -0.085958761333 -0.055827858727 -0.052780116567 -0.058897166299 
-0.052003794989 -0.054595635835 -0.071489169699 -0.087899424476 -0.092759123387 -0.08908523662 -0.12110748537 -0.078824859902 -0.11798508225 
-0.049708108294 -0.028083662362 -0.04104552855 -0.021286758826 -0.12183244669 -0.099973670587 -0.10075847612 -0.065757728606 -0.055657999382 
-0.04563203441 -0.059575451483 -0.044935087927 0.020066088317 0.043495940149 0.027177192923 -0.036792087171 -0.023718810517 -0.0060464319279 
-0.0071669279258 -0.010485986431 -0.078796843194 -0.12706430949 -0.12630589043 -0.071422733108 -0.063911726161 -0.051781572879 -0.055552591108 
-0.050981884393 -0.097985005583 -0.085857232532 -0.076935153683 -0.094828445267 -0.10038313234 -0.011232794649 -0.055967879601 -0.092350541586 
-0.14936266364 -0.0056785726538 -0.023079528379 -0.062746706956 -0.10024990851 -0.12638166576 -0.12360535196 -0.080520041842 -0.06637355558 
-0.087970639938 -0.090280105107 -0.076502960501 -0.072443782515 -0.11691022238 -0.092475222013 -0.071323868233 -0.086400797448 -0.042859771824 
-0.15636820238 -0.13754426335 -0.12719262512 -0.12613140573 -0.097997480603 -0.11127686034 -0.12281569822 -0.051649242296 -0.039367156352 
-0.053748206333 -0.071171313045 -0.083256672882 -0.12205013992 -0.13604359662 -0.14421360331 -0.1088433566 -0.083862347571 -0.099957768874 
-0.1143205578 -0.12263079777 -0.12719875673 -0.12737735831 -0.12890024563 -0.11360396417 -0.12460381626 -0.11329578311 -0.087258290883 
-0.06992474288 -0.075371929033 -0.086026547028 -0.12309598541 -0.068813808422 -0.12034373543 -0.12760391635 -0.10835374675 -0.066707563783 
-0.057306456314 -0.095097641715 -0.16016698753 -0.12550638012 -0.087817175601 -0.081017876366 -0.14062047169 
Displacement_Root 3 1114 double
-0.0012168884277 -0.15603637695 0.24750518799 -0.0012168884277 -0.15603637695 0.24750518799 -0.0012168884277 -0.15603637695 0.24750518799 
-0.0012168884277 -0.15603637695 0.24750518799 -0.0012168884277 -0.15603637695 0.24750518799 -0.0012168884277 -0.15603637695 0.24750518799 
-0.0012168884277 -0.15603637695 0.24750518799 -0.0012168884277 -0.15603637695 0.24750518799 -0.0012168884277 -0.15603637695 0.24750518799 
-0.0012168884277 -0.15603637695 0.24750518799 -0.0012168884277 -0.15603637695 0.24750518799 -0.0012168884277 -0.15603637695 0.24750518799 
-0.0012168884277 -0.15603637695 0.24750518799 -0.0012168884277 -0.15603637695 0.24750518799 -0.0012168884277 -0.15603637695 0.24750518799 
-0.0012168884277 -0.15603637695 0.24750518799 -0.0012168884277 -0.15603637695 0.24750518799 -0.0012168884277 -0.15603637695 0.24750518799 
-0.0012168884277 -0.15603637695 0.24750518799 -0.0012168884277 -0.15603637695 0.24750518799 -0.0012168884277 -0.15603637695 0.24750518799 
-0.0012168884277 -0.15603637695 0.24750518799 -0.0012168884277 -0.15603637695 0.24750518799 -0.0012168884277 -0.15603637695 0.24750518799 
-0.0012168884277 -0.15603637695 0.24750518799 -0.0012168884277 -0.15603637695 0.24750518799 -0.0012168884277 -0.15603637695 0.24750518799 
-0.0012168884277 -0.15603637695 0.24750518799 -0.0012168884277 -0.15603637695 0.24750518799 -0.0012168884277 -0.15603637695 0.24750518799 
-0.0012168884277 -0.15603637695 0.24750518799 -0.0012168884277 -0.15603637695 0.24750518799 -0.0012168884277 -0.15603637695 0.24750518799 
-0.0012168884277 -0.15603637695 0.24750518799 -0.0012168884277 -0.15603637695 0.24750518799 -0.0012168884277 -0.15603637695 0.24750518799 
-0.0012168884277 -0.15603637695 0.24750518799 -0.0012168884277 -0.15603637695 0.24750518799 -0.0012168884277 -0.15603637695 0.24750518799 
-0.0012168884277 -0.15603637695 0.24750518799 -0.0012168884277 -0.15603637695 0.24750518799 -0.0012168884277 -0.15603637695 0.24750518799 
-0.0012168884277 -0.15603637695 0.24750518799 -0.0012168884277 -0.15603637695 0.24750518799 -0.0012168884277 -0.15603637695 0.24750518799 
-0.0012168884277 -0.15603637695 0.24750518799 -0.0012168884277 -0.15603637695 0.24750518799 -0.0012168884277 -0.15603637695 0.24750518799 
-0.0012168884277 -0.15603637695 0.24750518799 -0.0012168884277 -0.15603637695 0.24750518799 -0.0012168884277 -0.15603637695 0.24750518799 
-0.0012168884277 -0.15603637695 0.24750518799 -0.0012168884277 -0.15603637695 0.24750518799 -0.0012168884277 -0.15603637695 0.24750518799 
-0.0012168884277 -0.15603637695 0.24750518799 -0.0012168884277 -0.15603637695 0.24750518799 -0.0012168884277 -0.15603637695 0.24750518799 
-0.0012168884277 -0.15603637695 0.24750518799 -0.0012168884277 -0.15603637695 0.24750518799 -0.0012168884277 -0.15603637695 0.24750518799 
-0.0012168884277 -0.15603637695 0.24750518799 -0.0012168884277 -0.15603637695 0.24750518799 -0.0012168884277 -0.15603637695 0.24750518799 
-0.0012168884277 -0.15603637695 0.24750518799 -0.0012168884277 -0.15603637695 0.24750518799 -0.0012168884277 -0.15603637695 0.24750518799 
-0.0012168884277 -0.15603637695 0.24750518799 -0.0012168884277 -0.15603637695 0.24750518799 -0.0012168884277 -0.15603637695 0.24750518799 
-0.0012168884277 -0.15603637695 0.24750518799 -0.0012168884277 -0.15603637695 0.24750518799 -0.0012168884277 -0.15603637695 0.24750518799 
-0.0012168884277 -0.15603637695 0.24750518799 -0.0012168884277 -0.15603637695 0.24750518799 -0.0012168884277 -0.15603637695 0.24750518799 
-0.0012168884277 -0.15603637695 0.24750518799 -0.0012168884277 -0.15603637695 0.24750518799 -0.0012168884277 -0.15603637695 0.24750518799 
-0.0012168884277 -0.15603637695 0.24750518799 -0.0012168884277 -0.15603637695 0.24750518799 -0.0012168884277 -0.15603637695 0.24750518799 
-0.0012168884277 -0.15603637695 0.24750518799 -0.0012168884277 -0.15603637695 0.24750518799 -0.0012168884277 -0.15603637695 0.24750518799 
-0.0012168884277 -0.15603637695 0.24750518799 -0.0012168884277 -0.15603637695 0.24750518799 -0.0012168884277 -0.15603637695 0.24750518799 
-0.0012168884277 -0.15603637695 0.24750518799 -0.0012168884277 -0.15603637695 0.24750518799 -0.0012168884277 -0.15603637695 0.24750518799 
-0.0012168884277 -0.15603637695 0.24750518799 -0.0012168884277 -0.15603637695 0.24750518799 -0.0012168884277 -0.15603637695 0.24750518799 
-0.0012168884277 -0.15603637695 0.24750518799 -0.0012168884277 -0.15603637695 0.24750518799 -0.0012168884277 -0.15603637695 0.24750518799 
-0.0012168884277 -0.15603637695 0.24750518799 -0.0012168884277 -0.15603637695 0.24750518799 -0.0012168884277 -0.15603637695 0.24750518799 
-0.0012168884277 -0.15603637695 0.24750518799 -0.0012168884277 -0.15603637695 0.24750518799 -0.0012168884277 -0.15603637695 0.24750518799 
-0.0012168884277 -0.15603637695 0.24750518799 -0.0012168884277 -0.15603637695 0.24750518799 -0.0012168884277 -0.15603637695 0.24750518799 
-0.0012168884277 -0.15603637695 0.24750518799 -0.0012168884277 -0.15603637695 0.24750518799 -0.0012168884277 -0.15603637695 0.24750518799 
-0.0012168884277 -0.15603637695 0.24750518799 -0.0012168884277 -0.15603637695 0.24750518799 -0.0012168884277 -0.15603637695 0.24750518799 
-0.0012168884277 -0.15603637695 0.24750518799 -0.0012168884277 -0.15603637695 0.24750518799 -0.0012168884277 -0.15603637695 0.24750518799 
-0.0012168884277 -0.15603637695 0.24750518799 -0.0012168884277 -0.15603637695 0.24750518799 -0.0012168884277 -0.15603637695 0.24750518799 
-0.0012168884277 -0.15603637695 0.24750518799 -0.0012168884277 -0.15603637695 0.24750518799 -0.0012168884277 -0.15603637695 0.24750518799 
-0.0012168884277 -0.15603637695 0.24750518799 -0.0012168884277 -0.15603637695 0.24750518799 -0.0012168884277 -0.15603637695 0.24750518799 
-0.0012168884277 -0.15603637695 0.24750518799 -0.0012168884277 -0.15603637695 0.24750518799 -0.0012168884277 -0.15603637695 0.24750518799 
-0.0012168884277 -0.15603637695 0.24750518799 -0.0012168884277 -0.15603637695 0.24750518799 -0.0012168884277 -0.15603637695 0.24750518799 
-0.0012168884277 -0.15603637695 0.24750518799 -0.0012168884277 -0.15603637695 0.24750518799 -0.0012168884277 -0.15603637695 0.24750518799 
-0.0012168884277 -0.15603637695 0.24750518799 -0.0012168884277 -0.15603637695 0.24750518799 -0.0012168884277 -0.15603637695 0.24750518799 
-0.0012168884277 -0.15603637695 0.24750518799 -0.0012168884277 -0.15603637695 0.24750518799 -0.0012168884277 -0.15603637695 0.24750518799 
-0.0012168884277 -0.15603637695 0.24750518799 -0.0012168884277 -0.15603637695 0.24750518799 -0.0012168884277 -0.15603637695 0.24750518799 
-0.0012168884277 -0.15603637695 0.24750518799 -0.0012168884277 -0.15603637695 0.24750518799 -0.0012168884277 -0.15603637695 0.24750518799 
-0.0012168884277 -0.15603637695 0.24750518799 -0.0012168884277 -0.15603637695 0.24750518799 -0.0012168884277 -0.15603637695 0.24750518799 
-0.0012168884277 -0.15603637695 0.24750518799 -0.0012168884277 -0.15603637695 0.24750518799 -0.0012168884277 -0.15603637695 0.24750518799 
-0.0012168884277 -0.15603637695 0.24750518799 -0.0012168884277 -0.15603637695 0.24750518799 -0.0012168884277 -0.15603637695 0.24750518799 
-0.0012168884277 -0.15603637695 0.24750518799 -0.0012168884277 -0.15603637695 0.24750518799 -0.0012168884277 -0.15603637695 0.24750518799 
-0.0012168884277 -0.15603637695 0.24750518799 -0.0012168884277 -0.15603637695 0.24750518799 -0.0012168884277 -0.15603637695 0.24750518799 
-0.0012168884277 -0.15603637695 0.24750518799 -0.0012168884277 -0.15603637695 0.24750518799 -0.0012168884277 -0.15603637695 0.24750518799 
-0.0012168884277 -0.15603637695 0.24750518799 -0.0012168884277 -0.15603637695 0.24750518799 -0.0012168884277 -0.15603637695 0.24750518799 
-0.0012168884277 -0.15603637695 0.24750518799 -0.0012168884277 -0.15603637695 0.24750518799 -0.0012168884277 -0.15603637695 0.24750518799 
-0.0012168884277 -0.15603637695 0.24750518799 -0.0012168884277 -0.15603637695 0.24750518799 -0.0012168884277 -0.15603637695 0.24750518799 
-0.0012168884277 -0.15603637695 0.24750518799 -0.0012168884277 -0.15603637695 0.24750518799 -0.0012168884277 -0.15603637695 0.24750518799 
-0.0012168884277 -0.15603637695 0.24750518799 -0.0012168884277 -0.15603637695 0.24750518799 -0.0012168884277 -0.15603637695 0.24750518799 
-0.0012168884277 -0.15603637695 0.24750518799 -0.0012168884277 -0.15603637695 0.24750518799 -0.0012168884277 -0.15603637695 0.24750518799 
-0.0012168884277 -0.15603637695 0.24750518799 -0.0012168884277 -0.15603637695 0.24750518799 -0.0012168884277 -0.15603637695 0.24750518799 
-0.0012168884277 -0.15603637695 0.24750518799 -0.0012168884277 -0.15603637695 0.24750518799 -0.0012168884277 -0.15603637695 0.24750518799 
-0.0012168884277 -0.15603637695 0.24750518799 -0.0012168884277 -0.15603637695 0.24750518799 -0.0012168884277 -0.15603637695 0.24750518799 
-0.0012168884277 -0.15603637695 0.24750518799 -0.0012168884277 -0.15603637695 0.24750518799 -0.0012168884277 -0.15603637695 0.24750518799 
-0.0012168884277 -0.15603637695 0.24750518799 -0.0012168884277 -0.15603637695 0.24750518799 -0.0012168884277 -0.15603637695 0.24750518799 
-0.0012168884277 -0.15603637695 0.24750518799 -0.0012168884277 -0.15603637695 0.24750518799 -0.0012168884277 -0.15603637695 0.24750518799 
-0.0012168884277 -0.15603637695 0.24750518799 -0.0012168884277 -0.15603637695 0.24750518799 -0.0012168884277 -0.15603637695 0.24750518799 
-0.0012168884277 -0.15603637695 0.24750518799 -0.0012168884277 -0.15603637695 0.24750518799 -0.0012168884277 -0.15603637695 0.24750518799 
-0.0012168884277 -0.15603637695 0.24750518799 -0.0012168884277 -0.15603637695 0.24750518799 -0.0012168884277 -0.15603637695 0.24750518799 
-0.0012168884277 -0.15603637695 0.24750518799 -0.0012168884277 -0.15603637695 0.24750518799 -0.0012168884277 -0.15603637695 0.24750518799 
-0.0012168884277 -0.15603637695 0.24750518799 -0.0012168884277 -0.15603637695 0.24750518799 -0.0012168884277 -0.15603637695 0.24750518799 
-0.0012168884277 -0.15603637695 0.24750518799 -0.0012168884277 -0.15603637695 0.24750518799 -0.0012168884277 -0.15603637695 0.24750518799 
-0.0012168884277 -0.15603637695 0.24750518799 -0.0012168884277 -0.15603637695 0.24750518799 -0.0012168884277 -0.15603637695 0.24750518799 
-0.0012168884277 -0.15603637695 0.24750518799 -0.0012168884277 -0.15603637695 0.24750518799 -0.0012168884277 -0.15603637695 0.24750518799 
-0.0012168884277 -0.15603637695 0.24750518799 -0.0012168884277 -0.15603637695 0.24750518799 -0.0012168884277 -0.15603637695 0.24750518799 
-0.0012168884277 -0.15603637695 0.24750518799 -0.0012168884277 -0.15603637695 0.24750518799 -0.0012168884277 -0.15603637695 0.24750518799 
-0.0012168884277 -0.15603637695 0.24750518799 -0.0012168884277 -0.15603637695 0.24750518799 -0.0012168884277 -0.15603637695 0.24750518799 
-0.0012168884277 -0.15603637695 0.24750518799 -0.0012168884277 -0.15603637695 0.24750518799 -0.0012168884277 -0.15603637695 0.24750518799 
-0.0012168884277 -0.15603637695 0.24750518799 -0.0012168884277 -0.15603637695 0.24750518799 -0.0012168884277 -0.15603637695 0.24750518799 
-0.0012168884277 -0.15603637695 0.24750518799 -0.0012168884277 -0.15603637695 0.24750518799 -0.0012168884277 -0.15603637695 0.24750518799 
-0.0012168884277 -0.15603637695 0.24750518799 -0.0012168884277 -0.15603637695 0.24750518799 -0.0012168884277 -0.15603637695 0.24750518799 
-0.0012168884277 -0.15603637695 0.24750518799 -0.0012168884277 -0.15603637695 0.24750518799 -0.0012168884277 -0.15603637695 0.24750518799 
-0.0012168884277 -0.15603637695 0.24750518799 -0.0012168884277 -0.15603637695 0.24750518799 -0.0012168884277 -0.15603637695 0.24750518799 
-0.0012168884277 -0.15603637695 0.24750518799 -0.0012168884277 -0.15603637695 0.24750518799 -0.0012168884277 -0.15603637695 0.24750518799 
-0.0012168884277 -0.15603637695 0.24750518799 -0.0012168884277 -0.15603637695 0.24750518799 -0.0012168884277 -0.15603637695 0.24750518799 
-0.0012168884277 -0.15603637695 0.24750518799 -0.0012168884277 -0.15603637695 0.24750518799 -0.0012168884277 -0.15603637695 0.24750518799 
-0.0012168884277 -0.15603637695 0.24750518799 -0.0012168884277 -0.15603637695 0.24750518799 -0.0012168884277 -0.15603637695 0.24750518799 
-0.0012168884277 -0.15603637695 0.24750518799 -0.0012168884277 -0.15603637695 0.24750518799 -0.0012168884277 -0.15603637695 0.24750518799 
-0.0012168884277 -0.15603637695 0.24750518799 -0.0012168884277 -0.15603637695 0.24750518799 -0.0012168884277 -0.15603637695 0.24750518799 
-0.0012168884277 -0.15603637695 0.24750518799 -0.0012168884277 -0.15603637695 0.24750518799 -0.0012168884277 -0.15603637695 0.24750518799 
-0.0012168884277 -0.15603637695 0.24750518799 -0.0012168884277 -0.15603637695 0.24750518799 -0.0012168884277 -0.15603637695 0.24750518799 
-0.0012168884277 -0.15603637695 0.24750518799 -0.0012168884277 -0.15603637695 0.24750518799 -0.0012168884277 -0.15603637695 0.24750518799 
-0.0012168884277 -0.15603637695 0.24750518799 -0.0012168884277 -0.15603637695 0.24750518799 -0.0012168884277 -0.15603637695 0.24750518799 
-0.0012168884277 -0.15603637695 0.24750518799 -0.0012168884277 -0.15603637695 0.24750518799 -0.0012168884277 -0.15603637695 0.24750518799 
-0.0012168884277 -0.15603637695 0.24750518799 -0.0012168884277 -0.15603637695 0.24750518799 -0.0012168884277 -0.15603637695 0.24750518799 
-0.0012168884277 -0.15603637695 0.24750518799 -0.0012168884277 -0.15603637695 0.24750518799 -0.0012168884277 -0.15603637695 0.24750518799 
-0.0012168884277 -0.15603637695 0.24750518799 -0.0012168884277 -0.15603637695 0.24750518799 -0.0012168884277 -0.15603637695 0.24750518799 
-0.0012168884277 -0.15603637695 0.24750518799 -0.0012168884277 -0.15603637695 0.24750518799 -0.0012168884277 -0.15603637695 0.24750518799 
-0.0012168884277 -0.15603637695 0.24750518799 -0.0012168884277 -0.15603637695 0.24750518799 -0.0012168884277 -0.15603637695 0.24750518799 
-0.0012168884277 -0.15603637695 0.24750518799 -0.0012168884277 -0.15603637695 0.24750518799 -0.0012168884277 -0.15603637695 0.24750518799 
-0.0012168884277 -0.15603637695 0.24750518799 -0.0012168884277 -0.15603637695 0.24750518799 -0.0012168884277 -0.15603637695 0.24750518799 
-0.0012168884277 -0.15603637695 0.24750518799 -0.0012168884277 -0.15603637695 0.24750518799 -0.0012168884277 -0.15603637695 0.24750518799 
-0.0012168884277 -0.15603637695 0.24750518799 -0.0012168884277 -0.15603637695 0.24750518799 -0.0012168884277 -0.15603637695 0.24750518799 
-0.0012168884277 -0.15603637695 0.24750518799 -0.0012168884277 -0.15603637695 0.24750518799 -0.0012168884277 -0.15603637695 0.24750518799 
-0.0012168884277 -0.15603637695 0.24750518799 -0.0012168884277 -0.15603637695 0.24750518799 -0.0012168884277 -0.15603637695 0.24750518799 
-0.0012168884277 -0.15603637695 0.24750518799 -0.0012168884277 -0.15603637695 0.24750518799 -0.0012168884277 -0.15603637695 0.24750518799 
-0.0012168884277 -0.15603637695 0.24750518799 -0.0012168884277 -0.15603637695 0.24750518799 -0.0012168884277 -0.15603637695 0.24750518799 
-0.0012168884277 -0.15603637695 0.24750518799 -0.0012168884277 -0.15603637695 0.24750518799 -0.0012168884277 -0.15603637695 0.24750518799 
-0.0012168884277 -0.15603637695 0.24750518799 -0.0012168884277 -0.15603637695 0.24750518799 -0.0012168884277 -0.15603637695 0.24750518799 
-0.0012168884277 -0.15603637695 0.24750518799 -0.0012168884277 -0.15603637695 0.24750518799 -0.0012168884277 -0.15603637695 0.24750518799 
-0.0012168884277 -0.15603637695 0.24750518799 -0.0012168884277 -0.15603637695 0.24750518799 -0.0012168884277 -0.15603637695 0.24750518799 
-0.0012168884277 -0.15603637695 0.24750518799 -0.0012168884277 -0.15603637695 0.24750518799 -0.0012168884277 -0.15603637695 0.24750518799 
-0.0012168884277 -0.15603637695 0.24750518799 -0.0012168884277 -0.15603637695 0.24750518799 -0.0012168884277 -0.15603637695 0.24750518799 
-0.0012168884277 -0.15603637695 0.24750518799 -0.0012168884277 -0.15603637695 0.24750518799 -0.0012168884277 -0.15603637695 0.24750518799 
-0.0012168884277 -0.15603637695 0.24750518799 -0.0012168884277 -0.15603637695 0.24750518799 -0.0012168884277 -0.15603637695 0.24750518799 
-0.0012168884277 -0.15603637695 0.24750518799 -0.0012168884277 -0.15603637695 0.24750518799 -0.0012168884277 -0.15603637695 0.24750518799 
-0.0012168884277 -0.15603637695 0.24750518799 -0.0012168884277 -0.15603637695 0.24750518799 -0.0012168884277 -0.15603637695 0.24750518799 
-0.0012168884277 -0.15603637695 0.24750518799 -0.0012168884277 -0.15603637695 0.24750518799 -0.0012168884277 -0.15603637695 0.24750518799 
-0.0012168884277 -0.15603637695 0.24750518799 -0.0012168884277 -0.15603637695 0.24750518799 -0.0012168884277 -0.15603637695 0.24750518799 
-0.0012168884277 -0.15603637695 0.24750518799 -0.0012168884277 -0.15603637695 0.24750518799 -0.0012168884277 -0.15603637695 0.24750518799 
-0.0012168884277 -0.15603637695 0.24750518799 -0.0012168884277 -0.15603637695 0.24750518799 -0.0012168884277 -0.15603637695 0.24750518799 
-0.0012168884277 -0.15603637695 0.24750518799 -0.0012168884277 -0.15603637695 0.24750518799 -0.0012168884277 -0.15603637695 0.24750518799 
-0.0012168884277 -0.15603637695 0.24750518799 -0.0012168884277 -0.15603637695 0.24750518799 -0.0012168884277 -0.15603637695 0.24750518799 
-0.0012168884277 -0.15603637695 0.24750518799 -0.0012168884277 -0.15603637695 0.24750518799 -0.0012168884277 -0.15603637695 0.24750518799 
-0.0012168884277 -0.15603637695 0.24750518799 -0.0012168884277 -0.15603637695 0.24750518799 -0.0012168884277 -0.15603637695 0.24750518799 
-0.0012168884277 -0.15603637695 0.24750518799 -0.0012168884277 -0.15603637695 0.24750518799 -0.0012168884277 -0.15603637695 0.24750518799 
-0.0012168884277 -0.15603637695 0.24750518799 -0.0012168884277 -0.15603637695 0.24750518799 -0.0012168884277 -0.15603637695 0.24750518799 
-0.0012168884277 -0.15603637695 0.24750518799 -0.0012168884277 -0.15603637695 0.24750518799 -0.0012168884277 -0.15603637695 0.24750518799 
-0.0012168884277 -0.15603637695 0.24750518799 -0.0012168884277 -0.15603637695 0.24750518799 -0.0012168884277 -0.15603637695 0.24750518799 
-0.0012168884277 -0.15603637695 0.24750518799 -0.0012168884277 -0.15603637695 0.24750518799 -0.0012168884277 -0.15603637695 0.24750518799 
-0.0012168884277 -0.15603637695 0.24750518799 -0.0012168884277 -0.15603637695 0.24750518799 -0.0012168884277 -0.15603637695 0.24750518799 
-0.0012168884277 -0.15603637695 0.24750518799 -0.0012168884277 -0.15603637695 0.24750518799 -0.0012168884277 -0.15603637695 0.24750518799 
-0.0012168884277 -0.15603637695 0.24750518799 -0.0012168884277 -0.15603637695 0.24750518799 -0.0012168884277 -0.15603637695 0.24750518799 
-0.0012168884277 -0.15603637695 0.24750518799 -0.0012168884277 -0.15603637695 0.24750518799 -0.0012168884277 -0.15603637695 0.24750518799 
-0.0012168884277 -0.15603637695 0.24750518799 -0.0012168884277 -0.15603637695 0.24750518799 -0.0012168884277 -0.15603637695 0.24750518799 
-0.0012168884277 -0.15603637695 0.24750518799 -0.0012168884277 -0.15603637695 0.24750518799 -0.0012168884277 -0.15603637695 0.24750518799 
-0.0012168884277 -0.15603637695 0.24750518799 -0.0012168884277 -0.15603637695 0.24750518799 -0.0012168884277 -0.15603637695 0.24750518799 
-0.0012168884277 -0.15603637695 0.24750518799 -0.0012168884277 -0.15603637695 0.24750518799 -0.0012168884277 -0.15603637695 0.24750518799 
-0.0012168884277 -0.15603637695 0.24750518799 -0.0012168884277 -0.15603637695 0.24750518799 -0.0012168884277 -0.15603637695 0.24750518799 
-0.0012168884277 -0.15603637695 0.24750518799 -0.0012168884277 -0.15603637695 0.24750518799 -0.0012168884277 -0.15603637695 0.24750518799 
-0.0012168884277 -0.15603637695 0.24750518799 -0.0012168884277 -0.15603637695 0.24750518799 -0.0012168884277 -0.15603637695 0.24750518799 
-0.0012168884277 -0.15603637695 0.24750518799 -0.0012168884277 -0.15603637695 0.24750518799 -0.0012168884277 -0.15603637695 0.24750518799 
-0.0012168884277 -0.15603637695 0.24750518799 -0.0012168884277 -0.15603637695 0.24750518799 -0.0012168884277 -0.15603637695 0.24750518799 
-0.0012168884277 -0.15603637695 0.24750518799 -0.0012168884277 -0.15603637695 0.24750518799 -0.0012168884277 -0.15603637695 0.24750518799 
-0.0012168884277 -0.15603637695 0.24750518799 -0.0012168884277 -0.15603637695 0.24750518799 -0.0012168884277 -0.15603637695 0.24750518799 
-0.0012168884277 -0.15603637695 0.24750518799 -0.0012168884277 -0.15603637695 0.24750518799 -0.0012168884277 -0.15603637695 0.24750518799 
-0.0012168884277 -0.15603637695 0.24750518799 -0.0012168884277 -0.15603637695 0.24750518799 -0.0012168884277 -0.15603637695 0.24750518799 
-0.0012168884277 -0.15603637695 0.24750518799 -0.0012168884277 -0.15603637695 0.24750518799 -0.0012168884277 -0.15603637695 0.24750518799 
-0.0012168884277 -0.15603637695 0.24750518799 -0.0012168884277 -0.15603637695 0.24750518799 -0.0012168884277 -0.15603637695 0.24750518799 
-0.0012168884277 -0.15603637695 0.24750518799 -0.0012168884277 -0.15603637695 0.24750518799 -0.0012168884277 -0.15603637695 0.24750518799 
-0.0012168884277 -0.15603637695 0.24750518799 -0.0012168884277 -0.15603637695 0.24750518799 -0.0012168884277 -0.15603637695 0.24750518799 
-0.0012168884277 -0.15603637695 0.24750518799 -0.0012168884277 -0.15603637695 0.24750518799 -0.0012168884277 -0.15603637695 0.24750518799 
-0.0012168884277 -0.15603637695 0.24750518799 -0.0012168884277 -0.15603637695 0.24750518799 -0.0012168884277 -0.15603637695 0.24750518799 
-0.0012168884277 -0.15603637695 0.24750518799 -0.0012168884277 -0.15603637695 0.24750518799 -0.0012168884277 -0.15603637695 0.24750518799 
-0.0012168884277 -0.15603637695 0.24750518799 -0.0012168884277 -0.15603637695 0.24750518799 -0.0012168884277 -0.15603637695 0.24750518799 
-0.0012168884277 -0.15603637695 0.24750518799 -0.0012168884277 -0.15603637695 0.24750518799 -0.0012168884277 -0.15603637695 0.24750518799 
-0.0012168884277 -0.15603637695 0.24750518799 -0.0012168884277 -0.15603637695 0.24750518799 -0.0012168884277 -0.15603637695 0.24750518799 
-0.0012168884277 -0.15603637695 0.24750518799 -0.0012168884277 -0.15603637695 0.24750518799 -0.0012168884277 -0.15603637695 0.24750518799 
-0.0012168884277 -0.15603637695 0.24750518799 -0.0012168884277 -0.15603637695 0.24750518799 -0.0012168884277 -0.15603637695 0.24750518799 
-0.0012168884277 -0.15603637695 0.24750518799 -0.0012168884277 -0.15603637695 0.24750518799 -0.0012168884277 -0.15603637695 0.24750518799 
-0.0012168884277 -0.15603637695 0.24750518799 -0.0012168884277 -0.15603637695 0.24750518799 -0.0012168884277 -0.15603637695 0.24750518799 
-0.0012168884277 -0.15603637695 0.24750518799 -0.0012168884277 -0.15603637695 0.24750518799 -0.0012168884277 -0.15603637695 0.24750518799 
-0.0012168884277 -0.15603637695 0.24750518799 -0.0012168884277 -0.15603637695 0.24750518799 -0.0012168884277 -0.15603637695 0.24750518799 
-0.0012168884277 -0.15603637695 0.24750518799 -0.0012168884277 -0.15603637695 0.24750518799 -0.0012168884277 -0.15603637695 0.24750518799 
-0.0012168884277 -0.15603637695 0.24750518799 -0.0012168884277 -0.15603637695 0.24750518799 -0.0012168884277 -0.15603637695 0.24750518799 
-0.0012168884277 -0.15603637695 0.24750518799 -0.0012168884277 -0.15603637695 0.24750518799 -0.0012168884277 -0.15603637695 0.24750518799 
-0.0012168884277 -0.15603637695 0.24750518799 -0.0012168884277 -0.15603637695 0.24750518799 -0.0012168884277 -0.15603637695 0.24750518799 
-0.0012168884277 -0.15603637695 0.24750518799 -0.0012168884277 -0.15603637695 0.24750518799 -0.0012168884277 -0.15603637695 0.24750518799 
-0.0012168884277 -0.15603637695 0.24750518799 -0.0012168884277 -0.15603637695 0.24750518799 -0.0012168884277 -0.15603637695 0.24750518799 
-0.0012168884277 -0.15603637695 0.24750518799 -0.0012168884277 -0.15603637695 0.24750518799 -0.0012168884277 -0.15603637695 0.24750518799 
-0.0012168884277 -0.15603637695 0.24750518799 -0.0012168884277 -0.15603637695 0.24750518799 -0.0012168884277 -0.15603637695 0.24750518799 
-0.0012168884277 -0.15603637695 0.24750518799 -0.0012168884277 -0.15603637695 0.24750518799 -0.0012168884277 -0.15603637695 0.24750518799 
-0.0012168884277 -0.15603637695 0.24750518799 -0.0012168884277 -0.15603637695 0.24750518799 -0.0012168884277 -0.15603637695 0.24750518799 
-0.0012168884277 -0.15603637695 0.24750518799 -0.0012168884277 -0.15603637695 0.24750518799 -0.0012168884277 -0.15603637695 0.24750518799 
-0.0012168884277 -0.15603637695 0.24750518799 -0.0012168884277 -0.15603637695 0.24750518799 -0.0012168884277 -0.15603637695 0.24750518799 
-0.0012168884277 -0.15603637695 0.24750518799 -0.0012168884277 -0.15603637695 0.24750518799 -0.0012168884277 -0.15603637695 0.24750518799 
-0.0012168884277 -0.15603637695 0.24750518799 -0.0012168884277 -0.15603637695 0.24750518799 -0.0012168884277 -0.15603637695 0.24750518799 
-0.0012168884277 -0.15603637695 0.24750518799 -0.0012168884277 -0.15603637695 0.24750518799 -0.0012168884277 -0.15603637695 0.24750518799 
-0.0012168884277 -0.15603637695 0.24750518799 -0.0012168884277 -0.15603637695 0.24750518799 -0.0012168884277 -0.15603637695 0.24750518799 
-0.0012168884277 -0.15603637695 0.24750518799 -0.0012168884277 -0.15603637695 0.24750518799 -0.0012168884277 -0.15603637695 0.24750518799 
-0.0012168884277 -0.15603637695 0.24750518799 -0.0012168884277 -0.15603637695 0.24750518799 -0.0012168884277 -0.15603637695 0.24750518799 
-0.0012168884277 -0.15603637695 0.24750518799 -0.0012168884277 -0.15603637695 0.24750518799 -0.0012168884277 -0.15603637695 0.24750518799 
-0.0012168884277 -0.15603637695 0.24750518799 -0.0012168884277 -0.15603637695 0.24750518799 -0.0012168884277 -0.15603637695 0.24750518799 
-0.0012168884277 -0.15603637695 0.24750518799 -0.0012168884277 -0.15603637695 0.24750518799 -0.0012168884277 -0.15603637695 0.24750518799 
-0.0012168884277 -0.15603637695 0.24750518799 -0.0012168884277 -0.15603637695 0.24750518799 -0.0012168884277 -0.15603637695 0.24750518799 
-0.0012168884277 -0.15603637695 0.24750518799 -0.0012168884277 -0.15603637695 0.24750518799 -0.0012168884277 -0.15603637695 0.24750518799 
-0.0012168884277 -0.15603637695 0.24750518799 -0.0012168884277 -0.15603637695 0.24750518799 -0.0012168884277 -0.15603637695 0.24750518799 
-0.0012168884277 -0.15603637695 0.24750518799 -0.0012168884277 -0.15603637695 0.24750518799 -0.0012168884277 -0.15603637695 0.24750518799 
-0.0012168884277 -0.15603637695 0.24750518799 -0.0012168884277 -0.15603637695 0.24750518799 -0.0012168884277 -0.15603637695 0.24750518799 
-0.0012168884277 -0.15603637695 0.24750518799 -0.0012168884277 -0.15603637695 0.24750518799 -0.0012168884277 -0.15603637695 0.24750518799 
-0.0012168884277 -0.15603637695 0.24750518799 -0.0012168884277 -0.15603637695 0.24750518799 -0.0012168884277 -0.15603637695 0.24750518799 
-0.0012168884277 -0.15603637695 0.24750518799 -0.0012168884277 -0.15603637695 0.24750518799 -0.0012168884277 -0.15603637695 0.24750518799 
-0.0012168884277 -0.15603637695 0.24750518799 -0.0012168884277 -0.15603637695 0.24750518799 -0.0012168884277 -0.15603637695 0.24750518799 
-0.0012168884277 -0.15603637695 0.24750518799 -0.0012168884277 -0.15603637695 0.24750518799 -0.0012168884277 -0.15603637695 0.24750518799 
-0.0012168884277 -0.15603637695 0.24750518799 -0.0012168884277 -0.15603637695 0.24750518799 -0.0012168884277 -0.15603637695 0.24750518799 
-0.0012168884277 -0.15603637695 0.24750518799 -0.0012168884277 -0.15603637695 0.24750518799 -0.0012168884277 -0.15603637695 0.24750518799 
-0.0012168884277 -0.15603637695 0.24750518799 -0.0012168884277 -0.15603637695 0.24750518799 -0.0012168884277 -0.15603637695 0.24750518799 
-0.0012168884277 -0.15603637695 0.24750518799 -0.0012168884277 -0.15603637695 0.24750518799 -0.0012168884277 -0.15603637695 0.24750518799 
-0.0012168884277 -0.15603637695 0.24750518799 -0.0012168884277 -0.15603637695 0.24750518799 -0.0012168884277 -0.15603637695 0.24750518799 
-0.0012168884277 -0.15603637695 0.24750518799 -0.0012168884277 -0.15603637695 0.24750518799 -0.0012168884277 -0.15603637695 0.24750518799 
-0.0012168884277 -0.15603637695 0.24750518799 -0.0012168884277 -0.15603637695 0.24750518799 -0.0012168884277 -0.15603637695 0.24750518799 
-0.0012168884277 -0.15603637695 0.24750518799 -0.0012168884277 -0.15603637695 0.24750518799 -0.0012168884277 -0.15603637695 0.24750518799 
-0.0012168884277 -0.15603637695 0.24750518799 -0.0012168884277 -0.15603637695 0.24750518799 -0.0012168884277 -0.15603637695 0.24750518799 
-0.0012168884277 -0.15603637695 0.24750518799 -0.0012168884277 -0.15603637695 0.24750518799 -0.0012168884277 -0.15603637695 0.24750518799 
-0.0012168884277 -0.15603637695 0.24750518799 -0.0012168884277 -0.15603637695 0.24750518799 -0.0012168884277 -0.15603637695 0.24750518799 
-0.0012168884277 -0.15603637695 0.24750518799 -0.0012168884277 -0.15603637695 0.24750518799 -0.0012168884277 -0.15603637695 0.24750518799 
-0.0012168884277 -0.15603637695 0.24750518799 -0.0012168884277 -0.15603637695 0.24750518799 -0.0012168884277 -0.15603637695 0.24750518799 
-0.0012168884277 -0.15603637695 0.24750518799 -0.0012168884277 -0.15603637695 0.24750518799 -0.0012168884277 -0.15603637695 0.24750518799 
-0.0012168884277 -0.15603637695 0.24750518799 -0.0012168884277 -0.15603637695 0.24750518799 -0.0012168884277 -0.15603637695 0.24750518799 
-0.0012168884277 -0.15603637695 0.24750518799 -0.0012168884277 -0.15603637695 0.24750518799 -0.0012168884277 -0.15603637695 0.24750518799 
-0.0012168884277 -0.15603637695 0.24750518799 -0.0012168884277 -0.15603637695 0.24750518799 -0.0012168884277 -0.15603637695 0.24750518799 
-0.0012168884277 -0.15603637695 0.24750518799 -0.0012168884277 -0.15603637695 0.24750518799 -0.0012168884277 -0.15603637695 0.24750518799 
-0.0012168884277 -0.15603637695 0.24750518799 -0.0012168884277 -0.15603637695 0.24750518799 -0.0012168884277 -0.15603637695 0.24750518799 
-0.0012168884277 -0.15603637695 0.24750518799 -0.0012168884277 -0.15603637695 0.24750518799 -0.0012168884277 -0.15603637695 0.24750518799 
-0.0012168884277 -0.15603637695 0.24750518799 -0.0012168884277 -0.15603637695 0.24750518799 -0.0012168884277 -0.15603637695 0.24750518799 
-0.0012168884277 -0.15603637695 0.24750518799 -0.0012168884277 -0.15603637695 0.24750518799 -0.0012168884277 -0.15603637695 0.24750518799 
-0.0012168884277 -0.15603637695 0.24750518799 -0.0012168884277 -0.15603637695 0.24750518799 -0.0012168884277 -0.15603637695 0.24750518799 
-0.0012168884277 -0.15603637695 0.24750518799 -0.0012168884277 -0.15603637695 0.24750518799 -0.0012168884277 -0.15603637695 0.24750518799 
-0.0012168884277 -0.15603637695 0.24750518799 -0.0012168884277 -0.15603637695 0.24750518799 -0.0012168884277 -0.15603637695 0.24750518799 
-0.0012168884277 -0.15603637695 0.24750518799 -0.0012168884277 -0.15603637695 0.24750518799 -0.0012168884277 -0.15603637695 0.24750518799 
-0.0012168884277 -0.15603637695 0.24750518799 -0.0012168884277 -0.15603637695 0.24750518799 -0.0012168884277 -0.15603637695 0.24750518799 
-0.0012168884277 -0.15603637695 0.24750518799 -0.0012168884277 -0.15603637695 0.24750518799 -0.0012168884277 -0.15603637695 0.24750518799 
-0.0012168884277 -0.15603637695 0.24750518799 -0.0012168884277 -0.15603637695 0.24750518799 -0.0012168884277 -0.15603637695 0.24750518799 
-0.0012168884277 -0.15603637695 0.24750518799 -0.0012168884277 -0.15603637695 0.24750518799 -0.0012168884277 -0.15603637695 0.24750518799 
-0.0012168884277 -0.15603637695 0.24750518799 -0.0012168884277 -0.15603637695 0.24750518799 -0.0012168884277 -0.15603637695 0.24750518799 
-0.0012168884277 -0.15603637695 0.24750518799 -0.0012168884277 -0.15603637695 0.24750518799 -0.0012168884277 -0.15603637695 0.24750518799 
-0.0012168884277 -0.15603637695 0.24750518799 -0.0012168884277 -0.15603637695 0.24750518799 -0.0012168884277 -0.15603637695 0.24750518799 
-0.0012168884277 -0.15603637695 0.24750518799 -0.0012168884277 -0.15603637695 0.24750518799 -0.0012168884277 -0.15603637695 0.24750518799 
-0.0012168884277 -0.15603637695 0.24750518799 -0.0012168884277 -0.15603637695 0.24750518799 -0.0012168884277 -0.15603637695 0.24750518799 
-0.0012168884277 -0.15603637695 0.24750518799 -0.0012168884277 -0.15603637695 0.24750518799 -0.0012168884277 -0.15603637695 0.24750518799 
-0.0012168884277 -0.15603637695 0.24750518799 -0.0012168884277 -0.15603637695 0.24750518799 -0.0012168884277 -0.15603637695 0.24750518799 
-0.0012168884277 -0.15603637695 0.24750518799 -0.0012168884277 -0.15603637695 0.24750518799 -0.0012168884277 -0.15603637695 0.24750518799 
-0.0012168884277 -0.15603637695 0.24750518799 -0.0012168884277 -0.15603637695 0.24750518799 -0.0012168884277 -0.15603637695 0.24750518799 
-0.0012168884277 -0.15603637695 0.24750518799 -0.0012168884277 -0.15603637695 0.24750518799 -0.0012168884277 -0.15603637695 0.24750518799 
-0.0012168884277 -0.15603637695 0.24750518799 -0.0012168884277 -0.15603637695 0.24750518799 -0.0012168884277 -0.15603637695 0.24750518799 
-0.0012168884277 -0.15603637695 0.24750518799 -0.0012168884277 -0.15603637695 0.24750518799 -0.0012168884277 -0.15603637695 0.24750518799 
-0.0012168884277 -0.15603637695 0.24750518799 -0.0012168884277 -0.15603637695 0.24750518799 -0.0012168884277 -0.15603637695 0.24750518799 
-0.0012168884277 -0.15603637695 0.24750518799 -0.0012168884277 -0.15603637695 0.24750518799 -0.0012168884277 -0.15603637695 0.24750518799 
-0.0012168884277 -0.15603637695 0.24750518799 -0.0012168884277 -0.15603637695 0.24750518799 -0.0012168884277 -0.15603637695 0.24750518799 
-0.0012168884277 -0.15603637695 0.24750518799 -0.0012168884277 -0.15603637695 0.24750518799 -0.0012168884277 -0.15603637695 0.24750518799 
-0.0012168884277 -0.15603637695 0.24750518799 -0.0012168884277 -0.15603637695 0.24750518799 -0.0012168884277 -0.15603637695 0.24750518799 
-0.0012168884277 -0.15603637695 0.24750518799 -0.0012168884277 -0.15603637695 0.24750518799 -0.0012168884277 -0.15603637695 0.24750518799 
-0.0012168884277 -0.15603637695 0.24750518799 -0.0012168884277 -0.15603637695 0.24750518799 -0.0012168884277 -0.15603637695 0.24750518799 
-0.0012168884277 -0.15603637695 0.24750518799 -0.0012168884277 -0.15603637695 0.24750518799 -0.0012168884277 -0.15603637695 0.24750518799 
-0.0012168884277 -0.15603637695 0.24750518799 -0.0012168884277 -0.15603637695 0.24750518799 -0.0012168884277 -0.15603637695 0.24750518799 
-0.0012168884277 -0.15603637695 0.24750518799 -0.0012168884277 -0.15603637695 0.24750518799 -0.0012168884277 -0.15603637695 0.24750518799 
-0.0012168884277 -0.15603637695 0.24750518799 -0.0012168884277 -0.15603637695 0.24750518799 -0.0012168884277 -0.15603637695 0.24750518799 
-0.0012168884277 -0.15603637695 0.24750518799 -0.0012168884277 -0.15603637695 0.24750518799 -0.0012168884277 -0.15603637695 0.24750518799 
-0.0012168884277 -0.15603637695 0.24750518799 -0.0012168884277 -0.15603637695 0.24750518799 -0.0012168884277 -0.15603637695 0.24750518799 
-0.0012168884277 -0.15603637695 0.24750518799 -0.0012168884277 -0.15603637695 0.24750518799 -0.0012168884277 -0.15603637695 0.24750518799 
-0.0012168884277 -0.15603637695 0.24750518799 -0.0012168884277 -0.15603637695 0.24750518799 -0.0012168884277 -0.15603637695 0.24750518799 
-0.0012168884277 -0.15603637695 0.24750518799 -0.0012168884277 -0.15603637695 0.24750518799 -0.0012168884277 -0.15603637695 0.24750518799 
-0.0012168884277 -0.15603637695 0.24750518799 -0.0012168884277 -0.15603637695 0.24750518799 -0.0012168884277 -0.15603637695 0.24750518799 
-0.0012168884277 -0.15603637695 0.24750518799 -0.0012168884277 -0.15603637695 0.24750518799 -0.0012168884277 -0.15603637695 0.24750518799 
-0.0012168884277 -0.15603637695 0.24750518799 -0.0012168884277 -0.15603637695 0.24750518799 -0.0012168884277 -0.15603637695 0.24750518799 
-0.0012168884277 -0.15603637695 0.24750518799 -0.0012168884277 -0.15603637695 0.24750518799 -0.0012168884277 -0.15603637695 0.24750518799 
-0.0012168884277 -0.15603637695 0.24750518799 -0.0012168884277 -0.15603637695 0.24750518799 -0.0012168884277 -0.15603637695 0.24750518799 
-0.0012168884277 -0.15603637695 0.24750518799 -0.0012168884277 -0.15603637695 0.24750518799 -0.0012168884277 -0.15603637695 0.24750518799 
-0.0012168884277 -0.15603637695 0.24750518799 -0.0012168884277 -0.15603637695 0.24750518799 -0.0012168884277 -0.15603637695 0.24750518799 
-0.0012168884277 -0.15603637695 0.24750518799 -0.0012168884277 -0.15603637695 0.24750518799 -0.0012168884277 -0.15603637695 0.24750518799 
-0.0012168884277 -0.15603637695 0.24750518799 -0.0012168884277 -0.15603637695 0.24750518799 -0.0012168884277 -0.15603637695 0.24750518799 
-0.0012168884277 -0.15603637695 0.24750518799 -0.0012168884277 -0.15603637695 0.24750518799 -0.0012168884277 -0.15603637695 0.24750518799 
-0.0012168884277 -0.15603637695 0.24750518799 -0.0012168884277 -0.15603637695 0.24750518799 -0.0012168884277 -0.15603637695 0.24750518799 
-0.0012168884277 -0.15603637695 0.24750518799 -0.0012168884277 -0.15603637695 0.24750518799 -0.0012168884277 -0.15603637695 0.24750518799 
-0.0012168884277 -0.15603637695 0.24750518799 -0.0012168884277 -0.15603637695 0.24750518799 -0.0012168884277 -0.15603637695 0.24750518799 
-0.0012168884277 -0.15603637695 0.24750518799 -0.0012168884277 -0.15603637695 0.24750518799 -0.0012168884277 -0.15603637695 0.24750518799 
-0.0012168884277 -0.15603637695 0.24750518799 -0.0012168884277 -0.15603637695 0.24750518799 -0.0012168884277 -0.15603637695 0.24750518799 
-0.0012168884277 -0.15603637695 0.24750518799 -0.0012168884277 -0.15603637695 0.24750518799 -0.0012168884277 -0.15603637695 0.24750518799 
-0.0012168884277 -0.15603637695 0.24750518799 -0.0012168884277 -0.15603637695 0.24750518799 -0.0012168884277 -0.15603637695 0.24750518799 
-0.0012168884277 -0.15603637695 0.24750518799 -0.0012168884277 -0.15603637695 0.24750518799 -0.0012168884277 -0.15603637695 0.24750518799 
-0.0012168884277 -0.15603637695 0.24750518799 -0.0012168884277 -0.15603637695 0.24750518799 -0.0012168884277 -0.15603637695 0.24750518799 
-0.0012168884277 -0.15603637695 0.24750518799 -0.0012168884277 -0.15603637695 0.24750518799 -0.0012168884277 -0.15603637695 0.24750518799 
-0.0012168884277 -0.15603637695 0.24750518799 -0.0012168884277 -0.15603637695 0.24750518799 -0.0012168884277 -0.15603637695 0.24750518799 
-0.0012168884277 -0.15603637695 0.24750518799 -0.0012168884277 -0.15603637695 0.24750518799 -0.0012168884277 -0.15603637695 0.24750518799 
-0.0012168884277 -0.15603637695 0.24750518799 -0.0012168884277 -0.15603637695 0.24750518799 -0.0012168884277 -0.15603637695 0.24750518799 
-0.0012168884277 -0.15603637695 0.24750518799 -0.0012168884277 -0.15603637695 0.24750518799 -0.0012168884277 -0.15603637695 0.24750518799 
-0.0012168884277 -0.15603637695 0.24750518799 -0.0012168884277 -0.15603637695 0.24750518799 -0.0012168884277 -0.15603637695 0.24750518799 
-0.0012168884277 -0.15603637695 0.24750518799 -0.0012168884277 -0.15603637695 0.24750518799 -0.0012168884277 -0.15603637695 0.24750518799 
-0.0012168884277 -0.15603637695 0.24750518799 -0.0012168884277 -0.15603637695 0.24750518799 -0.0012168884277 -0.15603637695 0.24750518799 
-0.0012168884277 -0.15603637695 0.24750518799 -0.0012168884277 -0.15603637695 0.24750518799 -0.0012168884277 -0.15603637695 0.24750518799 
-0.0012168884277 -0.15603637695 0.24750518799 -0.0012168884277 -0.15603637695 0.24750518799 -0.0012168884277 -0.15603637695 0.24750518799 
-0.0012168884277 -0.15603637695 0.24750518799 -0.0012168884277 -0.15603637695 0.24750518799 -0.0012168884277 -0.15603637695 0.24750518799 
-0.0012168884277 -0.15603637695 0.24750518799 -0.0012168884277 -0.15603637695 0.24750518799 -0.0012168884277 -0.15603637695 0.24750518799 
-0.0012168884277 -0.15603637695 0.24750518799 -0.0012168884277 -0.15603637695 0.24750518799 -0.0012168884277 -0.15603637695 0.24750518799 
-0.0012168884277 -0.15603637695 0.24750518799 -0.0012168884277 -0.15603637695 0.24750518799 -0.0012168884277 -0.15603637695 0.24750518799 
-0.0012168884277 -0.15603637695 0.24750518799 -0.0012168884277 -0.15603637695 0.24750518799 -0.0012168884277 -0.15603637695 0.24750518799 
-0.0012168884277 -0.15603637695 0.24750518799 -0.0012168884277 -0.15603637695 0.24750518799 -0.0012168884277 -0.15603637695 0.24750518799 
-0.0012168884277 -0.15603637695 0.24750518799 -0.0012168884277 -0.15603637695 0.24750518799 -0.0012168884277 -0.15603637695 0.24750518799 
-0.0012168884277 -0.15603637695 0.24750518799 -0.0012168884277 -0.15603637695 0.24750518799 -0.0012168884277 -0.15603637695 0.24750518799 
-0.0012168884277 -0.15603637695 0.24750518799 -0.0012168884277 -0.15603637695 0.24750518799 -0.0012168884277 -0.15603637695 0.24750518799 
-0.0012168884277 -0.15603637695 0.24750518799 -0.0012168884277 -0.15603637695 0.24750518799 -0.0012168884277 -0.15603637695 0.24750518799 
-0.0012168884277 -0.15603637695 0.24750518799 -0.0012168884277 -0.15603637695 0.24750518799 -0.0012168884277 -0.15603637695 0.24750518799 
-0.0012168884277 -0.15603637695 0.24750518799 -0.0012168884277 -0.15603637695 0.24750518799 -0.0012168884277 -0.15603637695 0.24750518799 
-0.0012168884277 -0.15603637695 0.24750518799 -0.0012168884277 -0.15603637695 0.24750518799 -0.0012168884277 -0.15603637695 0.24750518799 
-0.0012168884277 -0.15603637695 0.24750518799 -0.0012168884277 -0.15603637695 0.24750518799 -0.0012168884277 -0.15603637695 0.24750518799 
-0.0012168884277 -0.15603637695 0.24750518799 -0.0012168884277 -0.15603637695 0.24750518799 -0.0012168884277 -0.15603637695 0.24750518799 
-0.0012168884277 -0.15603637695 0.24750518799 -0.0012168884277 -0.15603637695 0.24750518799 -0.0012168884277 -0.15603637695 0.24750518799 
-0.0012168884277 -0.15603637695 0.24750518799 -0.0012168884277 -0.15603637695 0.24750518799 -0.0012168884277 -0.15603637695 0.24750518799 
-0.0012168884277 -0.15603637695 0.24750518799 -0.0012168884277 -0.15603637695 0.24750518799 -0.0012168884277 -0.15603637695 0.24750518799 
-0.0012168884277 -0.15603637695 0.24750518799 -0.0012168884277 -0.15603637695 0.24750518799 -0.0012168884277 -0.15603637695 0.24750518799 
-0.0012168884277 -0.15603637695 0.24750518799 -0.0012168884277 -0.15603637695 0.24750518799 -0.0012168884277 -0.15603637695 0.24750518799 
-0.0012168884277 -0.15603637695 0.24750518799 -0.0012168884277 -0.15603637695 0.24750518799 -0.0012168884277 -0.15603637695 0.24750518799 
-0.0012168884277 -0.15603637695 0.24750518799 -0.0012168884277 -0.15603637695 0.24750518799 -0.0012168884277 -0.15603637695 0.24750518799 
-0.0012168884277 -0.15603637695 0.24750518799 -0.0012168884277 -0.15603637695 0.24750518799 -0.0012168884277 -0.15603637695 0.24750518799 
-0.0012168884277 -0.15603637695 0.24750518799 -0.0012168884277 -0.15603637695 0.24750518799 -0.0012168884277 -0.15603637695 0.24750518799 
-0.0012168884277 -0.15603637695 0.24750518799 -0.0012168884277 -0.15603637695 0.24750518799 -0.0012168884277 -0.15603637695 0.24750518799 
-0.0012168884277 -0.15603637695 0.24750518799 -0.0012168884277 -0.15603637695 0.24750518799 -0.0012168884277 -0.15603637695 0.24750518799 
-0.0012168884277 -0.15603637695 0.24750518799 -0.0012168884277 -0.15603637695 0.24750518799 -0.0012168884277 -0.15603637695 0.24750518799 
-0.0012168884277 -0.15603637695 0.24750518799 -0.0012168884277 -0.15603637695 0.24750518799 -0.0012168884277 -0.15603637695 0.24750518799 
-0.0012168884277 -0.15603637695 0.24750518799 -0.0012168884277 -0.15603637695 0.24750518799 -0.0012168884277 -0.15603637695 0.24750518799 
-0.0012168884277 -0.15603637695 0.24750518799 -0.0012168884277 -0.15603637695 0.24750518799 -0.0012168884277 -0.15603637695 0.24750518799 
-0.0012168884277 -0.15603637695 0.24750518799 -0.0012168884277 -0.15603637695 0.24750518799 -0.0012168884277 -0.15603637695 0.24750518799 
-0.0012168884277 -0.15603637695 0.24750518799 -0.0012168884277 -0.15603637695 0.24750518799 -0.0012168884277 -0.15603637695 0.24750518799 
-0.0012168884277 -0.15603637695 0.24750518799 -0.0012168884277 -0.15603637695 0.24750518799 -0.0012168884277 -0.15603637695 0.24750518799 
-0.0012168884277 -0.15603637695 0.24750518799 -0.0012168884277 -0.15603637695 0.24750518799 -0.0012168884277 -0.15603637695 0.24750518799 
-0.0012168884277 -0.15603637695 0.24750518799 -0.0012168884277 -0.15603637695 0.24750518799 -0.0012168884277 -0.15603637695 0.24750518799 
-0.0012168884277 -0.15603637695 0.24750518799 -0.0012168884277 -0.15603637695 0.24750518799 -0.0012168884277 -0.15603637695 0.24750518799 
-0.0012168884277 -0.15603637695 0.24750518799 -0.0012168884277 -0.15603637695 0.24750518799 -0.0012168884277 -0.15603637695 0.24750518799 
-0.0012168884277 -0.15603637695 0.24750518799 -0.0012168884277 -0.15603637695 0.24750518799 -0.0012168884277 -0.15603637695 0.24750518799 
-0.0012168884277 -0.15603637695 0.24750518799 -0.0012168884277 -0.15603637695 0.24750518799 -0.0012168884277 -0.15603637695 0.24750518799 
-0.0012168884277 -0.15603637695 0.24750518799 -0.0012168884277 -0.15603637695 0.24750518799 -0.0012168884277 -0.15603637695 0.24750518799 
-0.0012168884277 -0.15603637695 0.24750518799 -0.0012168884277 -0.15603637695 0.24750518799 -0.0012168884277 -0.15603637695 0.24750518799 
-0.0012168884277 -0.15603637695 0.24750518799 -0.0012168884277 -0.15603637695 0.24750518799 -0.0012168884277 -0.15603637695 0.24750518799 
-0.0012168884277 -0.15603637695 0.24750518799 -0.0012168884277 -0.15603637695 0.24750518799 -0.0012168884277 -0.15603637695 0.24750518799 
-0.0012168884277 -0.15603637695 0.24750518799 -0.0012168884277 -0.15603637695 0.24750518799 -0.0012168884277 -0.15603637695 0.24750518799 
-0.0012168884277 -0.15603637695 0.24750518799 -0.0012168884277 -0.15603637695 0.24750518799 -0.0012168884277 -0.15603637695 0.24750518799 
-0.0012168884277 -0.15603637695 0.24750518799 -0.0012168884277 -0.15603637695 0.24750518799 -0.0012168884277 -0.15603637695 0.24750518799 
-0.0012168884277 -0.15603637695 0.24750518799 -0.0012168884277 -0.15603637695 0.24750518799 -0.0012168884277 -0.15603637695 0.24750518799 
-0.0012168884277 -0.15603637695 0.24750518799 -0.0012168884277 -0.15603637695 0.24750518799 -0.0012168884277 -0.15603637695 0.24750518799 
-0.0012168884277 -0.15603637695 0.24750518799 -0.0012168884277 -0.15603637695 0.24750518799 -0.0012168884277 -0.15603637695 0.24750518799 
-0.0012168884277 -0.15603637695 0.24750518799 -0.0012168884277 -0.15603637695 0.24750518799 -0.0012168884277 -0.15603637695 0.24750518799 
-0.0012168884277 -0.15603637695 0.24750518799 -0.0012168884277 -0.15603637695 0.24750518799 -0.0012168884277 -0.15603637695 0.24750518799 
-0.0012168884277 -0.15603637695 0.24750518799 -0.0012168884277 -0.15603637695 0.24750518799 -0.0012168884277 -0.15603637695 0.24750518799 
-0.0012168884277 -0.15603637695 0.24750518799 -0.0012168884277 -0.15603637695 0.24750518799 -0.0012168884277 -0.15603637695 0.24750518799 
-0.0012168884277 -0.15603637695 0.24750518799 -0.0012168884277 -0.15603637695 0.24750518799 -0.0012168884277 -0.15603637695 0.24750518799 
-0.0012168884277 -0.15603637695 0.24750518799 -0.0012168884277 -0.15603637695 0.24750518799 -0.0012168884277 -0.15603637695 0.24750518799 
-0.0012168884277 -0.15603637695 0.24750518799 -0.0012168884277 -0.15603637695 0.24750518799 -0.0012168884277 -0.15603637695 0.24750518799 
-0.0012168884277 -0.15603637695 0.24750518799 -0.0012168884277 -0.15603637695 0.24750518799 -0.0012168884277 -0.15603637695 0.24750518799 
-0.0012168884277 -0.15603637695 0.24750518799 -0.0012168884277 -0.15603637695 0.24750518799 -0.0012168884277 -0.15603637695 0.24750518799 
-0.0012168884277 -0.15603637695 0.24750518799 -0.0012168884277 -0.15603637695 0.24750518799 -0.0012168884277 -0.15603637695 0.24750518799 
-0.0012168884277 -0.15603637695 0.24750518799 -0.0012168884277 -0.15603637695 0.24750518799 -0.0012168884277 -0.15603637695 0.24750518799 
-0.0012168884277 -0.15603637695 0.24750518799 -0.0012168884277 -0.15603637695 0.24750518799 -0.0012168884277 -0.15603637695 0.24750518799 
-0.0012168884277 -0.15603637695 0.24750518799 -0.0012168884277 -0.15603637695 0.24750518799 -0.0012168884277 -0.15603637695 0.24750518799 
-0.0012168884277 -0.15603637695 0.24750518799 -0.0012168884277 -0.15603637695 0.24750518799 -0.0012168884277 -0.15603637695 0.24750518799 
-0.0012168884277 -0.15603637695 0.24750518799 -0.0012168884277 -0.15603637695 0.24750518799 -0.0012168884277 -0.15603637695 0.24750518799 
-0.0012168884277 -0.15603637695 0.24750518799 -0.0012168884277 -0.15603637695 0.24750518799 -0.0012168884277 -0.15603637695 0.24750518799 
-0.0012168884277 -0.15603637695 0.24750518799 -0.0012168884277 -0.15603637695 0.24750518799 -0.0012168884277 -0.15603637695 0.24750518799 
-0.0012168884277 -0.15603637695 0.24750518799 -0.0012168884277 -0.15603637695 0.24750518799 -0.0012168884277 -0.15603637695 0.24750518799 
-0.0012168884277 -0.15603637695 0.24750518799 -0.0012168884277 -0.15603637695 0.24750518799 -0.0012168884277 -0.15603637695 0.24750518799 
-0.0012168884277 -0.15603637695 0.24750518799 -0.0012168884277 -0.15603637695 0.24750518799 -0.0012168884277 -0.15603637695 0.24750518799 
-0.0012168884277 -0.15603637695 0.24750518799 -0.0012168884277 -0.15603637695 0.24750518799 -0.0012168884277 -0.15603637695 0.24750518799 
-0.0012168884277 -0.15603637695 0.24750518799 -0.0012168884277 -0.15603637695 0.24750518799 -0.0012168884277 -0.15603637695 0.24750518799 
-0.0012168884277 -0.15603637695 0.24750518799 -0.0012168884277 -0.15603637695 0.24750518799 -0.0012168884277 -0.15603637695 0.24750518799 
-0.0012168884277 -0.15603637695 0.24750518799 -0.0012168884277 -0.15603637695 0.24750518799 -0.0012168884277 -0.15603637695 0.24750518799 
-0.0012168884277 -0.15603637695 0.24750518799 -0.0012168884277 -0.15603637695 0.24750518799 -0.0012168884277 -0.15603637695 0.24750518799 
-0.0012168884277 -0.15603637695 0.24750518799 -0.0012168884277 -0.15603637695 0.24750518799 -0.0012168884277 -0.15603637695 0.24750518799 
-0.0012168884277 -0.15603637695 0.24750518799 -0.0012168884277 -0.15603637695 0.24750518799 -0.0012168884277 -0.15603637695 0.24750518799 
-0.0012168884277 -0.15603637695 0.24750518799 -0.0012168884277 -0.15603637695 0.24750518799 -0.0012168884277 -0.15603637695 0.24750518799 
-0.0012168884277 -0.15603637695 0.24750518799 -0.0012168884277 -0.15603637695 0.24750518799 -0.0012168884277 -0.15603637695 0.24750518799 
-0.0012168884277 -0.15603637695 0.24750518799 -0.0012168884277 -0.15603637695 0.24750518799 -0.0012168884277 -0.15603637695 0.24750518799 
-0.0012168884277 -0.15603637695 0.24750518799 -0.0012168884277 -0.15603637695 0.24750518799 -0.0012168884277 -0.15603637695 0.24750518799 
-0.0012168884277 -0.15603637695 0.24750518799 -0.0012168884277 -0.15603637695 0.24750518799 -0.0012168884277 -0.15603637695 0.24750518799 
-0.0012168884277 -0.15603637695 0.24750518799 -0.0012168884277 -0.15603637695 0.24750518799 -0.0012168884277 -0.15603637695 0.24750518799 
-0.0012168884277 -0.15603637695 0.24750518799 -0.0012168884277 -0.15603637695 0.24750518799 -0.0012168884277 -0.15603637695 0.24750518799 
-0.0012168884277 -0.15603637695 0.24750518799 -0.0012168884277 -0.15603637695 0.24750518799 -0.0012168884277 -0.15603637695 0.24750518799 
-0.0012168884277 -0.15603637695 0.24750518799 -0.0012168884277 -0.15603637695 0.24750518799 -0.0012168884277 -0.15603637695 0.24750518799 
-0.0012168884277 -0.15603637695 0.24750518799 -0.0012168884277 -0.15603637695 0.24750518799 -0.0012168884277 -0.15603637695 0.24750518799 
-0.0012168884277 -0.15603637695 0.24750518799 -0.0012168884277 -0.15603637695 0.24750518799 -0.0012168884277 -0.15603637695 0.24750518799 
-0.0012168884277 -0.15603637695 0.24750518799 -0.0012168884277 -0.15603637695 0.24750518799 -0.0012168884277 -0.15603637695 0.24750518799 
-0.0012168884277 -0.15603637695 0.24750518799 -0.0012168884277 -0.15603637695 0.24750518799 -0.0012168884277 -0.15603637695 0.24750518799 
-0.0012168884277 -0.15603637695 0.24750518799 -0.0012168884277 -0.15603637695 0.24750518799 -0.0012168884277 -0.15603637695 0.24750518799 
-0.0012168884277 -0.15603637695 0.24750518799 
Displacement_Total 3 1114 double
-0.073532104492 -0.16405487061 0.56466674805 -0.088608749834 -0.23675110693 0.53374070715 -0.078212992724 -0.32363730037 0.56271386755 
-0.066105334769 -0.26750075087 0.60038466139 -0.084459167442 -0.26908756646 0.52236645411 -0.081698947505 -0.37307775483 0.55475506 
-0.07258106559 -0.32024848425 0.558456501 -0.067933982035 -0.4367584861 0.57584415766 -0.043969746826 -0.38610552007 0.59657880491 
-0.036889553185 -0.51570294121 0.60086917223 -0.0013188965839 -0.43314568065 0.59292797658 0.010109548682 -0.5700963864 0.59949611212 
0.020356311415 -0.43152579557 0.56919261047 0.067720496013 -0.57939822451 0.56616181037 0.076178631455 -0.42099108519 0.48255621793 
0.1286887329 -0.55236306887 0.46877490216 0.1393361486 -0.42252246706 0.39226349734 0.17541751932 -0.54012969291 0.36841049848 
0.18836892456 -0.41403138008 0.32964086118 0.22656270659 -0.50413174065 0.28235696491 0.21824472514 -0.38635455438 0.30878289035 
0.27269519154 -0.47918449836 0.23846976129 0.26327896332 -0.36707858901 0.31346337831 0.29016858524 -0.45581301632 0.24732105072 
0.32865755101 -0.3556798662 0.36618963986 0.32899285252 -0.432166711 0.27058161447 0.37043900788 -0.31155107635 0.37686617404 
0.36835503222 -0.40894604302 0.27199676194 0.41992561126 -0.27847901862 0.36559463746 0.39928383663 -0.37253569233 0.26344324292 
0.45143355259 -0.24541940774 0.32796261925 0.43017031477 -0.33022099925 0.20964913339 0.48009856922 -0.22743820272 0.27878555044 
0.42694825809 -0.29811033096 0.16147460852 0.51256689926 -0.22284806006 0.22428207295 0.4313771766 -0.28091667567 0.12095341515 
0.50857706205 -0.2281014225 0.16170809404 0.43276091002 -0.28254237417 0.070901702406 0.50771510473 -0.24068071785 0.11088373346 
0.43322748991 -0.29753587499 0.034515135708 0.53337425226 -0.25344245002 0.081451876541 0.45862043158 -0.31460019521 0.021146851572 
0.54995365146 -0.23738995119 0.048939728602 0.45642776594 -0.33068260189 -0.010972460879 0.5650991233 -0.20145255716 0.0039257407277 
0.46620995921 -0.30842118323 -0.039884315661 0.57487246029 -0.15558879364 -0.041605062751 0.47324694066 -0.27006019328 -0.078010480017 
0.57318268111 -0.10838959796 -0.085223760739 0.46386462211 -0.22280662759 -0.12913889561 0.55251914735 -0.06992410036 -0.1281040203 
0.46162282508 -0.16175627514 -0.16765620779 0.5432528431 0.0020371760412 -0.10922843821 0.43217081414 -0.10697909367 -0.16839572708 
0.49404768517 0.047710676931 -0.063041313468 0.38827801747 -0.07500010245 -0.11625092172 0.4253367345 0.072526183034 0.019171709006 
0.31980729588 -0.048623515234 -0.025976361626 0.35191648839 0.079047543304 0.12100970079 0.24783775052 -0.05523949883 0.073700341702 
0.28234420871 0.066659485962 0.20923778434 0.16700756619 -0.038196021629 0.18377501137 0.20762975155 0.032716885397 0.30871128988 
0.091186839579 -0.061834003046 0.27464354574 0.15098559432 0.027293086873 0.38220313009 0.031716887468 -0.071294887677 0.36943442033 
0.10514248616 0.02119596769 0.45766708283 -0.01589147456 -0.076593596921 0.46464888339 0.06553914843 0.0055332123773 0.54075004208 
-0.050684060106 -0.073079313878 0.54177002971 0.028627019098 -0.0074809997752 0.61027579956 -0.07973565966 -0.077523009606 0.61908540799 
-0.013338529769 0.00079214366175 0.65530438658 -0.080379253638 -0.087116366353 0.6735808818 -0.027667831625 -0.0039136108457 0.70191460594 
-0.098933639286 -0.09597964171 0.71090243603 -0.057712090101 0.0031441323863 0.7234358503 -0.093748846105 -0.11475682862 0.7344656976 
-0.078625634801 -0.0028062439875 0.72069207944 -0.075681457354 -0.12845738893 0.74400809808 -0.075217018112 -0.034610357603 0.68658908222 
-0.072424831167 -0.15275094989 0.71885539963 -0.066656081396 -0.084939259807 0.62080397454 -0.078131411626 -0.20378223101 0.66738522485 
0.1236038208 -0.034477233887 -0.24098968506 0.076936812171 -0.0323381106 -0.23161297593 0.0747357337 -0.089281564317 -0.24773804636 
0.12395661262 -0.10371902725 -0.26878408881 0.036511998834 -0.029523266398 -0.21923024188 0.029966262293 -0.078112200006 -0.22521969829 
0.014234930741 -0.024743919251 -0.19810818269 -0.0063847500182 -0.071229198973 -0.20626713636 0.0056299574408 -0.029206025324 -0.19127066434 
-0.01773498256 -0.080846679116 -0.19334916717 0.0090570763326 -0.041801048762 -0.19700421979 -0.0079599950955 -0.10175731143 -0.18717865612 
0.026694876102 -0.072432952353 -0.22482109274 0.032501773542 -0.14365026736 -0.20240520041 0.04917709088 -0.10846997525 -0.25313206752 
0.063459848225 -0.19001307588 -0.22269928586 0.07821238303 -0.15163068057 -0.28033442514 0.078013214952 -0.24138635481 -0.24997768282 
0.13409537383 -0.18605929761 -0.30804294752 0.1300552208 -0.28756130712 -0.27299365109 0.19233692878 -0.21648707928 -0.33438188079 
0.17671447177 -0.32788746956 -0.29838724365 0.24783855699 -0.24280862213 -0.35848388014 0.21423310281 -0.36325384596 -0.32303595854 
0.29333979299 -0.27779759105 -0.39745160605 0.23863647054 -0.38598211946 -0.34828365409 0.314431771 -0.30694752743 -0.43263972238 
0.25145251932 -0.40339538776 -0.3788856082 0.31528993542 -0.33015800041 -0.46204428577 0.2316519593 -0.42653956846 -0.41083247256 
0.3457029128 -0.35632210596 -0.47646276314 0.2279858851 -0.44367113429 -0.42142323557 0.34589309286 -0.3792152311 -0.49746598735 
0.22939128116 -0.46740584111 -0.43979087303 0.3337388172 -0.40358502629 -0.52132743811 0.23733471702 -0.48380825442 -0.47012756564 
0.34631211111 -0.44499812126 -0.54066309757 0.23663337726 -0.51589843496 -0.50514543294 0.34558756751 -0.47674828575 -0.56106613006 
0.23387038036 -0.55886410074 -0.52584427879 0.33501776821 -0.50350249593 -0.57888607711 0.23179132214 -0.60676024458 -0.53429393904 
0.30559930923 -0.52866248578 -0.57930228029 0.22418805504 -0.62847963281 -0.52828970989 0.26697228506 -0.51921218065 -0.58966107769 
0.19414414996 -0.6284366377 -0.52649887076 0.21900828921 -0.48908569706 -0.60149458175 0.12221218339 -0.60947321432 -0.52838517979 
0.14465323824 -0.44745129771 -0.58947788343 0.030196100454 -0.55828899242 -0.524559073 0.082988311064 -0.39780994979 -0.56583716321 
0.0013918777141 -0.46483256156 -0.53017075849 0.030765434319 -0.34457376477 -0.53428517139 -0.033872280753 -0.41611567754 -0.50873498704 
0.027301549487 -0.32317173751 -0.47761151577 -0.032766571253 -0.39389623188 -0.45328152843 0.041784527415 -0.30271179096 -0.41543451798 
-0.020378622799 -0.36978495107 -0.39020511475 0.082234526232 -0.2836149255 -0.3452948248 0.023440833428 -0.36122441967 -0.30418833075 
0.12572404183 -0.28353360457 -0.29038967499 0.077611053118 -0.37104095078 -0.22067013086 0.16869171143 -0.29062741987 -0.23857048976 
0.13680480134 -0.38989301843 -0.1411744557 0.20274930726 -0.30673505239 -0.17745801131 0.18804952136 -0.4233663981 -0.076995934355 
0.2281130983 -0.3293632204 -0.1381543649 0.22117539931 -0.46539940797 -0.025763134697 0.24460010312 -0.3586491638 -0.12111856838 
0.24189410824 -0.47677118777 -0.0074167459756 0.26175843624 -0.36898000179 -0.11904656652 0.25129221198 -0.49779814573 0.0065529333624 
0.27483841798 -0.37479754044 -0.1154248276 0.25802273368 -0.51448673418 0.016933247229 0.26701097801 -0.37422493846 -0.091353308573 
0.25559776961 -0.5302475618 0.036393415675 0.26142052854 -0.37867121464 -0.085717931252 0.25285519737 -0.54078798242 0.039047482241 
0.2575525586 -0.38701464395 -0.094842640343 0.2464184777 -0.54397025558 0.032258619925 0.23195677871 -0.3564584416 -0.095338682589 
0.22417174575 -0.52682381581 0.028846082777 0.20527142417 -0.31800381756 -0.083651837816 0.19332543561 -0.49033866168 0.037376775765 
0.17686994913 -0.26710888645 -0.052776494161 0.14733745561 -0.42864027688 0.058214096067 0.16181373483 -0.20065714516 -0.024347834021 
0.13048815603 -0.34662166882 0.089295571639 0.15459457034 -0.12690415621 0.0018976954689 0.12762663344 -0.24975117021 0.11950688003 
0.19604741875 -0.030174988313 0.0054852989811 0.17065353584 -0.14346134877 0.11523089153 0.23227611009 0.054553503621 0.0080993379568 
0.20949711823 -0.045860258021 0.099195026148 0.2570971346 0.11307686596 0.0085874646134 0.23615099298 0.024493974551 0.083016515399 
0.26424969648 0.16542519074 -0.00039727705916 0.24376796898 0.073391390745 0.056481257919 0.25682440501 0.21267863013 -0.01719787053 
0.23991813217 0.10671943677 0.030712499685 0.23500111516 0.21672752639 -0.047036196862 0.22536946747 0.11170030991 -0.016247598159 
0.20933398477 0.20857300476 -0.080012532127 0.20815312139 0.11405451677 -0.067583249174 0.17945392964 0.17198334358 -0.10871497417 
0.18345229318 0.089845817558 -0.10087003735 0.15582517643 0.13294053546 -0.13307981157 0.16459721953 0.058356435371 -0.13022989992 
0.14978307044 0.086996344233 -0.1452417633 0.1600997849 0.013611528869 -0.16185756547 0.14120126069 0.053114353112 -0.16696730355 
0.15699798916 -0.021052264565 -0.1921588353 0.13003587117 0.031502949091 -0.19842165319 0.15649457176 -0.045099671265 -0.22279803388 
0.12555033766 0.00033002660776 -0.22132986482 0.14401541939 -0.076004932474 -0.24908809478 -0.080278985238 -0.48081249255 0.55191591489 
-0.071116237443 -0.44307128864 0.57009461604 -0.068937264815 -0.53804669084 0.56288180677 -0.0034719301452 -0.64634329822 0.6044252931 
0.066568731529 -0.69234322218 0.60714627362 0.13298823921 -0.71091023615 0.55947879035 0.20350006648 -0.70598675743 0.44411606438 
0.2519125206 -0.6635372723 0.33011174716 0.29843683284 -0.61207608386 0.23747553482 0.32394202063 -0.5614609304 0.17638794832 
0.33435156361 -0.52207094427 0.17485228737 0.33826902304 -0.50046767414 0.18752444417 0.36327344305 -0.4948367787 0.17784304861 
0.39091379445 -0.44153598095 0.15898674688 0.40159591998 -0.39939375346 0.10607374504 0.40080898405 -0.35135067716 0.054478764961 
0.38124354785 -0.33922959311 0.024579892985 0.36592959085 -0.33017535483 -0.0046302409255 0.36808259828 -0.36351175953 -0.021490658227 
0.37786735451 -0.39365986533 -0.024468577178 0.38645141634 -0.41335420683 -0.035111939676 0.39762800866 -0.40576486282 -0.060803106436 
0.39886737601 -0.37020221902 -0.099033399909 0.36429984044 -0.34204849266 -0.16971399872 0.34895979236 -0.25172694107 -0.20792375351 
0.31253080074 -0.22639511451 -0.21244518045 0.26505728886 -0.20382825886 -0.15941634728 0.19748210801 -0.18229026788 -0.067924061529 
0.12134626999 -0.16418254768 0.038773302548 0.039282055341 -0.15346844055 0.14670868517 -0.036839471877 -0.15877758329 0.25092441644 
-0.093967842878 -0.14857293979 0.355078411 -0.14021351224 -0.14580001707 0.45040654881 -0.17204327145 -0.1514794277 0.53568968485 
-0.17664862937 -0.16105162204 0.60182505112 -0.18006938427 -0.18050268847 0.65177812137 -0.18372546704 -0.20295308608 0.68340091483 
-0.13955714281 -0.23998478237 0.69443720363 -0.10045406252 -0.27383005969 0.69936697134 -0.078329743351 -0.30356327329 0.68668613219 
-0.06921497606 -0.33643471731 0.6553481243 -0.067975393331 -0.38962951635 0.61310693575 -0.0050830428775 -0.1814283125 -0.1800388753 
0.050421495226 -0.19945988069 -0.20694873077 -0.038797190835 -0.18159525409 -0.15051680117 -0.07085551556 -0.18992731592 -0.12757026852 
-0.08343440718 -0.20478689957 -0.1121298851 -0.036423350287 -0.25689501573 -0.11972913409 -0.001092542374 -0.30724881965 -0.12904456139 
0.02343349279 -0.36172582527 -0.15109153057 0.080981272853 -0.41130914917 -0.17780303881 0.11116048252 -0.45759588642 -0.2198744334 
0.12535663997 -0.48678579541 -0.25994780066 0.1324007692 -0.50628980577 -0.29071553937 0.1459552042 -0.51413157943 -0.33095779635 
0.12484308073 -0.50930620063 -0.35437986133 0.10514394827 -0.51676119212 -0.36934796919 0.085174926948 -0.53548233285 -0.3904595584 
0.10003847183 -0.56464728121 -0.43001929902 0.12037972937 -0.60542514224 -0.46522265994 0.11923021445 -0.65975328455 -0.48060105916 
0.12260059468 -0.72285227706 -0.47785652917 0.11767479342 -0.75073191104 -0.47627362826 0.094622120133 -0.76156351714 -0.47142567354 
0.040323125929 -0.73654371553 -0.45892600258 -0.029430037421 -0.70648746272 -0.44182806576 -0.093767287166 -0.49428823935 -0.47215622895 
-0.057966931633 -0.51677934188 -0.49493556368 -0.080564985612 -0.47154502751 -0.40907855295 -0.047984042626 -0.44870706164 -0.33793262131 
0.025348579585 -0.44913148737 -0.25607007885 0.087578461464 -0.44964687586 -0.15487066054 0.14690001698 -0.46271842027 -0.053714632743 
0.20465952656 -0.49700387536 0.0212734019 0.24007297642 -0.56904831578 0.096767720289 0.23265044175 -0.60441046273 0.095965282077 
0.25168850177 -0.63235255091 0.10071241475 0.2648466475 -0.6662077971 0.10300012244 0.28100912514 -0.69192839565 0.11169556363 
0.28959856361 -0.71167950692 0.10906643301 0.28506980112 -0.72902924094 0.10549623607 0.24864502345 -0.70860372284 0.10851127675 
0.21403857764 -0.66441869504 0.13080998998 0.17621974911 -0.58624984506 0.15998859823 0.14449284637 -0.48786076831 0.19032994668 
0.12186103866 -0.3818317539 0.21675399804 0.15767620827 -0.27277381952 0.21647623557 0.18454361414 -0.17423190175 0.20534409394 
0.22013136951 -0.092345222638 0.17786688124 0.23168887629 -0.033069046165 0.13779455812 0.22110934918 0.0076127923971 0.079513800365 
0.2060555989 0.0062073057396 0.025901971647 0.1911725084 -0.0076516080148 -0.027122088095 0.1756300122 -0.026086126331 -0.064023655923 
0.17277203823 -0.050585527001 -0.098210340244 0.18090075815 -0.098896129565 -0.12686101317 0.18749366732 -0.14238434548 -0.16338253387 
0.18969518129 -0.17905202799 -0.20217582977 0.15353395781 -0.20103893265 -0.21947250796 0.10815888881 -0.2106963149 -0.23101941909 
-0.072051224654 -0.59518294039 -0.46972975454 -0.083498648826 -0.71093084387 -0.41512265613 0.15893133201 -0.79579560186 0.56910031662 
0.099562447805 -0.76143580289 0.57378104289 0.23556061012 -0.81000963227 0.50736941908 0.32185677107 -0.79485669941 0.40311326026 
0.37191287523 -0.75005364807 0.26974435029 0.39522607085 -0.69345116035 0.17423467479 0.39593580192 -0.6279008111 0.1082043212 
0.38239131848 -0.5802996705 0.1013236863 0.36389203465 -0.5593019845 0.11406561381 0.3681338759 -0.55276584072 0.10832314269 
0.38169269766 -0.50783034609 0.082181698623 0.38066915501 -0.454984904 0.02620777965 0.37803269724 -0.40570451469 -0.018804947405 
0.35521467667 -0.37667629947 -0.04278823403 0.32917047784 -0.38884523323 -0.072985283727 0.32829328461 -0.40990637975 -0.059359122794 
0.32617483215 -0.44507861648 -0.057326824538 0.32543156395 -0.47431408945 -0.055434635816 0.33910410105 -0.48841563525 -0.063470850233 
0.3311625981 -0.46303736099 -0.085817751774 0.2923351877 -0.45223846492 -0.12829392885 0.17936837164 -0.33058135717 -0.22636933119 
0.20957805026 -0.35793625009 -0.2321056103 0.13531743335 -0.30774050133 -0.17341896018 0.072271431466 -0.28582318853 -0.094997814394 
-0.00065435642878 -0.2711455247 0.010005584975 -0.078664058632 -0.25586459844 0.11664728157 -0.14868927752 -0.22716516343 0.22852944752 
-0.20186245086 -0.21522512964 0.33284152928 -0.24844535041 -0.21890485344 0.42719789949 -0.27927711798 -0.22901967057 0.51360195444 
-0.2726853163 -0.23076702851 0.56470770922 -0.25955493418 -0.26310708924 0.59760625592 -0.23262583083 -0.29048107539 0.61297033301 
-0.19314220507 -0.35532014135 0.60171760072 -0.13126295788 -0.38612132942 0.62010636844 -0.11472611402 -0.38738675141 0.62947610888 
-0.098423852913 -0.41162850786 0.61250486969 -0.099052887259 -0.4564113076 0.57587711102 -0.087662267343 -0.51879809911 0.55164526268 
-0.076827056365 -0.56358511869 0.54029554391 0.22571858959 -0.40162098918 -0.20866052695 0.21624879472 -0.46799666755 -0.1714523947 
-0.088349533263 -0.58141028377 -0.4232237789 -0.09257185062 -0.70169177728 -0.37087795893 -0.066352349234 -0.5603960495 -0.35758294192 
-0.016908002766 -0.53079324026 -0.28405813257 0.059880035271 -0.5212752114 -0.17402127223 0.12970405688 -0.5124208945 -0.073966135291 
0.18578198775 -0.5159299609 0.012876180448 0.22349693412 -0.54653281893 0.084279346333 0.25386771152 -0.595854966 0.14586505747 
0.27965876624 -0.73267153386 0.14332100729 0.24561903897 -0.69676231838 0.13952202529 0.29606657405 -0.77740004508 0.14568724704 
0.31584487855 -0.8174373358 0.15073497221 0.3181638314 -0.84962373831 0.15942206442 0.31366579354 -0.86863334224 0.16493327231 
0.292124079 -0.84849572095 0.17760978032 0.25643236498 -0.79887862185 0.2010257582 0.2134459025 -0.71829082273 0.23181651267 
0.16579530479 -0.62526244228 0.26848051102 0.11981885488 -0.52109159273 0.30027685878 0.13479206005 -0.407457057 0.30315432752 
0.16329951806 -0.31053935386 0.29194196666 0.19404382686 -0.23349165838 0.26940009766 0.20301896856 -0.17237400669 0.2182579379 
0.19794700067 -0.13256164537 0.15868017482 0.18066810286 -0.13477861484 0.091162432507 0.16730821909 -0.14674633787 0.03039689684 
0.17333319635 -0.17166164904 -0.011271816407 0.17720633055 -0.19150744407 -0.043989847441 0.19401764991 -0.23945175415 -0.069898279669 
0.19272118351 -0.29082256262 -0.0876108313 0.18894520383 -0.33694196365 -0.10943771837 0.13327076418 -0.36915844201 -0.10330295813 
0.071478220276 -0.36856923748 -0.11080655136 -0.010484793632 -0.35174209147 -0.087947800748 -0.073708523028 -0.32296727914 -0.060198051678 
-0.13109811099 -0.30846744967 -0.025128129264 -0.15727058871 -0.31801937432 0.0079370925774 -0.16445462253 -0.33599759631 0.03301553558 
-0.14181854679 -0.37400808117 0.039393389204 -0.097565282443 -0.43082444502 0.026555355862 -0.058049667501 -0.4946782501 -0.0020004502438 
-0.029938339961 -0.55145750186 -0.062696624266 -0.0012067700468 -0.59416529488 -0.12133525884 0.023178020567 -0.61502947232 -0.18462503062 
0.025618460223 -0.61287477826 -0.23208497251 0.022977113184 -0.60392425182 -0.27167818067 0.0080178105402 -0.60176974168 -0.28510033804 
-0.011982268031 -0.58724063417 -0.29993104634 -0.05649222583 -0.59280155731 -0.30971150648 -0.023467747582 -0.61406099363 -0.38510417807 
0.0025086321727 -0.68141060186 -0.40392159662 0.020539145086 -0.75292036951 -0.41904805324 0.047240317861 -0.84344769651 -0.4234086362 
0.032761394815 -0.8783176262 -0.41591925661 0.011872501846 -0.89637508933 -0.41033073475 -0.018594890629 -0.85213967453 -0.39897703782 
-0.074685007675 -0.84917599047 -0.36870914877 -0.11273220886 -0.86279186633 -0.34593021196 -0.076035138865 -0.83815547111 -0.32160090093 
-0.021403642442 -0.66896015379 -0.28715948231 -0.0072749645103 -0.81885757801 -0.2673025571 0.23972301656 -0.66450722419 0.15199891481 
0.26607939447 -0.66613304653 0.18024706335 0.12525330908 -0.44620536717 -0.23737203909 0.12260957978 -0.46524009965 -0.19376831653 
0.11514095423 -0.41377411133 -0.24668147288 0.078513979443 -0.39970190362 -0.23540152437 0.04493192747 -0.38354478725 -0.19332431841 
-0.018372057952 -0.35464911639 -0.1076600596 -0.084812935953 -0.33484986348 -0.0093386756211 -0.15655520137 -0.31690782033 0.095922710857 
-0.23522833776 -0.28666025954 0.19212991847 -0.28207649245 -0.27629387735 0.29350853961 -0.33547319938 -0.28186357056 0.38997778751 
-0.35322427539 -0.27569518869 0.47755699471 -0.35670299352 -0.30013072746 0.52827653097 -0.33796995402 -0.33047793367 0.55558857345 
-0.30385719264 -0.35961102666 0.56019334954 -0.26954459509 -0.38944298135 0.54538386363 -0.14686633658 -0.42475322057 0.56234409328 
-0.16418394101 -0.43681398918 0.55640679402 -0.14226204194 -0.42301564812 0.5495470593 -0.14209487981 -0.48101502808 0.52279359392 
-0.13171873998 -0.55270773522 0.49657693631 -0.12345559211 -0.60462776736 0.48906520351 0.28387629466 -0.87807518186 0.49190268315 
0.19548850231 -0.83676913066 0.51777211169 0.3753184512 -0.89383649441 0.42513822988 0.45828938699 -0.88151555314 0.33067934976 
0.52041436949 -0.83411246937 0.19758716811 0.52438141164 -0.77088860997 0.098317864471 0.49602903073 -0.70190963826 0.042135848907 
0.4517447372 -0.64266347381 0.032573098656 0.39812577139 -0.6041337769 0.056910327004 0.38151288169 -0.59228707492 0.070642975292 
0.37040488178 -0.55842932769 0.047485342409 0.37437257439 -0.49087633299 -0.026133546605 0.37327741457 -0.44077754418 -0.078236421744 
0.3475821181 -0.40821080783 -0.08892802234 0.31481073989 -0.41213330692 -0.094820361584 0.29670963501 -0.45203753186 -0.07695468996 
0.29066294781 -0.5019126141 -0.064480055375 0.29093903973 -0.54290220144 -0.062902980408 0.28756796315 -0.55725107906 -0.07323179256 
0.27956288826 -0.5504263793 -0.089760931985 0.24772551378 -0.5487787294 -0.10462691937 0.17139896705 -0.53657666708 -0.13817192417 
0.097683105394 -0.53231165139 -0.15976739367 0.058434372216 -0.45651961314 -0.20241581552 0.036849231884 -0.51945508975 -0.16110306028 
0.055191032219 -0.43675873195 -0.23260841738 0.056372843776 -0.7359346444 0.53048316023 0.14533571811 -0.79093380413 0.48517155366 
0.03345466301 -0.71934757015 0.48977026796 0.090513679864 -0.7557784751 0.47563395677 -0.20283651115 -0.42579725821 0.54166072335 
-0.25079333978 -0.45542092631 0.52011701455 0.053155822738 -0.61003405915 -0.19527592897 0.14151035045 -0.57738750389 -0.093848285583 
0.20709292672 -0.55473507811 -0.0071829469243 0.24071461575 -0.55471553098 0.065417732019 0.26653350987 -0.58284230643 0.12512503469 
0.28079863611 -0.6334061875 0.16019232004 0.30807798553 -0.69642567396 0.19579457578 0.27823295353 -0.74123118381 0.19894449707 
0.31316654636 -0.75813841763 0.20990499711 0.24758721744 -0.73141942756 0.18646102991 0.24434118726 -0.75167324126 0.17283170619 
0.25510504844 -0.79975984288 0.1644565274 0.27800998324 -0.8461779679 0.17894543426 0.30386048022 -0.89293845223 0.19121351874 
0.32403849985 -0.9222015793 0.20161552622 0.32716011804 -0.94399563168 0.21145577604 0.30514962821 -0.92417079997 0.22021095013 
0.28136508313 -0.88872329521 0.25427941308 0.23955383556 -0.82399955567 0.2948154532 0.19907791932 -0.7433220123 0.33453104534 
0.16569951163 -0.64300578623 0.3615249936 0.14461713616 -0.53577701337 0.36670674945 0.14367690509 -0.45024931827 0.36001585252 
0.16282019457 -0.37393182265 0.33870822195 0.1657654498 -0.33002998677 0.29911653477 0.15725938064 -0.30083005167 0.24329404428 
0.14373754874 -0.30324776153 0.16999427323 0.13566113014 -0.30525932373 0.10747165077 0.14554261841 -0.31970464445 0.059630020701 
0.15975340882 -0.34925091442 0.022847082079 0.17924323108 -0.40412631704 0.0052653616726 0.18154028337 -0.45930755997 0.010459526302 
0.17514288091 -0.51832012634 0.037866238002 0.072399639349 -0.61189692228 0.10502331174 -0.0093706211331 -0.55317995369 0.083671783816 
-0.082515826244 -0.50833857115 0.080674153896 -0.1467080828 -0.47797924987 0.10118395484 -0.20295852325 -0.45224972576 0.1359551074 
-0.23471584431 -0.45103287695 0.17076856791 -0.25636821298 -0.45798271093 0.2041383607 -0.23125579346 -0.50820290818 0.20774402315 
-0.20067058149 -0.56391064738 0.18818704609 -0.15883841688 -0.62567135219 0.14686309741 -0.13153926377 -0.67737796973 0.061946153534 
-0.11153296119 -0.70742624205 -0.024308664304 -0.098220505189 -0.71795637171 -0.096316248156 -0.099794048125 -0.70823134315 -0.1506092568 
-0.10078167807 -0.69494667043 -0.19796682291 -0.10226523387 -0.64595700487 -0.21373073377 -0.11510103974 -0.62455539548 -0.22615185229 
-0.15931904033 -0.6218786597 -0.21620853272 -0.056275199106 -0.75199940208 -0.33628343114 -0.091348762838 -0.67969536559 -0.31090480346 
-0.039245228158 -0.83610206906 -0.34415339166 -0.037658027442 -0.93365793875 -0.33494106131 -0.052213618239 -0.98721856434 -0.34341945997 
-0.066520357432 -0.99895694022 -0.35589771362 -0.070993576558 -0.94667416139 -0.3611118138 -0.10342307859 -0.97640546279 -0.33222886848 
-0.12370624158 -0.98858952141 -0.30274565847 -0.10820098115 -0.97116883742 -0.27387764894 -0.032419067873 -0.93246401898 -0.23747023357 
0.099994203963 -0.79310773448 -0.20111610009 0.072574035496 -0.87855736689 -0.19447544553 0.13039441541 -0.71575638057 -0.17253065245 
0.18704314628 -0.64922032047 -0.1053183749 0.25695984939 -0.62650227328 -0.013332129525 0.30558284819 -0.61369150748 0.06550956056 
0.32110173914 -0.61094373109 0.1179364641 0.325491529 -0.62768525386 0.15516192107 -0.12674835123 -1.0513933543 -0.23393722727 
-0.17777741391 -1.0838296267 -0.25373630105 -0.065039890169 -1.0018483426 -0.21686699914 0.035231213482 -0.93862009125 -0.18831076024 
0.17095838259 -0.8190931749 -0.15375775931 0.15463027965 -0.86116588521 -0.16470876156 0.20075964034 -0.75467759093 -0.1379967832 
0.23464478318 -0.70325564203 -0.10820361205 0.28416284056 -0.66894344557 -0.039282436522 0.34009490411 -0.65463422586 0.047023912816 
0.37633215377 -0.6672045394 0.10717567125 0.39720414465 -0.67793163171 0.1535650207 0.37178542575 -0.69399278565 0.17141761042 
-0.1467646418 -0.64216151688 -0.24525355324 -0.2096595336 -0.6166906858 -0.18337142318 0.047087178862 -0.42762766709 -0.25261274366 
0.017154459863 -0.41425024422 -0.2287636811 -0.016295486549 -0.40683495937 -0.18907718358 -0.064997352564 -0.40193033358 -0.11573953878 
-0.12587428159 -0.37270003617 -0.031743397728 -0.19490208701 -0.35186314074 0.066389514431 -0.26206797923 -0.33140013635 0.15602249551 
-0.31955117059 -0.32656708074 0.25469340743 -0.36418326771 -0.32682698403 0.34971377098 -0.37150165563 -0.33859498768 0.4236802904 
-0.38613274478 -0.36810902635 0.4854517785 -0.37239643747 -0.38754809158 0.50683309163 -0.35028575674 -0.42096139813 0.52479117129 
-0.31440227484 -0.4578266086 0.51458310186 -0.29251105337 -0.48545481098 0.49344396587 -0.25764966866 -0.50179943246 0.48040440582 
-0.28946440723 -0.52368860864 0.45705883535 -0.22413152557 -0.47083196395 0.49902659813 -0.19924295168 -0.45936640282 0.50190880817 
-0.18662039802 -0.47220930115 0.4875770072 -0.18393394506 -0.46985166879 0.47002414238 -0.18914898021 -0.52619473662 0.44465301145 
-0.17577384058 -0.57809555068 0.44060845347 -0.15541022584 -0.62632146051 0.44248390255 -0.081290402165 -0.64007246597 0.4926067581 
-0.11642950292 -0.63943468058 0.45005417325 -0.021030874014 -0.68184563303 0.49364748584 -0.05986036908 -0.66870772688 0.45583960532 
0.012382285239 -0.7070512361 0.45051894868 0.092044617635 -0.74797416493 0.44020270658 0.1798147273 -0.80766968737 0.43423707498 
0.2749960223 -0.87005105219 0.42815718692 0.38597821517 -0.92032398332 0.39766191948 0.49615107309 -0.93796073039 0.32865021896 
0.59373324323 -0.93275249673 0.24200761104 0.62908879992 -0.90076668879 0.1356398337 0.62120049448 -0.83378646707 0.05038074166 
0.57454774528 -0.76336535256 0.0017567044376 0.5025959582 -0.69944935194 -0.001201193936 0.41517557386 -0.63703877469 0.043146205514 
0.3704542576 -0.62138825293 0.087568501002 0.3313555004 -0.61192230815 0.12356771023 0.36938044767 -0.47880284055 -0.067539780851 
0.37405707198 -0.51883083288 -0.01337564499 0.33403180604 -0.46026216581 -0.10515089464 0.31006119334 -0.45887624759 -0.1104096777 
0.2798048079 -0.49583549643 -0.10382351856 0.26069882266 -0.55165140363 -0.092458074847 0.25022067624 -0.60612872635 -0.08681242595 
0.23652582566 -0.63662036281 -0.092082341502 0.21003062612 -0.64790386359 -0.097909363857 0.16201763663 -0.65530484689 -0.10252369709 
0.10818421152 -0.64398573656 -0.12121315719 0.045098708065 -0.61939894779 -0.12310373574 -0.013616214595 -0.5962401112 -0.12432343922 
-0.0065858626974 -0.49656042882 -0.15919906722 -0.046855840767 -0.56789350315 -0.1340972393 -0.004010754404 -0.46522039763 -0.18963040435 
-0.0086454242861 -0.43353649759 -0.22698897443 0.36174506235 -0.57163273315 0.057687326414 0.31705117095 -0.6390528791 0.16223202017 
0.37809837902 -0.77660938251 0.20078465899 0.33786373298 -0.70446596289 0.18883868936 0.32063385667 -0.81673448752 0.22912632992 
0.38646200132 -0.82655873676 0.2153365557 0.28049046555 -0.80879420043 0.21910647922 0.26278218128 -0.80274300293 0.20544989226 
0.25147762524 -0.81487492199 0.20200575975 0.24022649126 -0.83214589123 0.21296665734 0.25811798825 -0.87009437985 0.24054638807 
0.27502148986 -0.90117603195 0.27466535099 0.29754900702 -0.93767853033 0.27402077978 0.30561552889 -0.96570788466 0.27045515776 
0.29627922606 -0.95204858816 0.26865168911 0.28085175651 -0.92285675431 0.29600282318 0.2567160811 -0.88389596545 0.34236117525 
0.22689937263 -0.83726589539 0.3829123199 0.18217032423 -0.74933502258 0.40171468112 0.13260878564 -0.65931209093 0.40792630901 
0.12837875126 -0.58532299982 0.39386278564 0.13072737476 -0.51978862322 0.38391068054 0.12838339501 -0.48434770942 0.35630205148 
0.11264022258 -0.46701646999 0.31278354139 0.098470230584 -0.46993086808 0.24435869119 0.089009373659 -0.46803147794 0.18654799218 
0.10003989464 -0.4765978776 0.14265403434 0.12083667652 -0.49735951285 0.10484890344 0.15597058421 -0.53556451937 0.086083500789 
0.17501775371 -0.59091857236 0.096219990754 0.16804169479 -0.65943557643 0.12720310075 0.086359716867 -0.72679739636 0.19293291547 
-0.16112571607 -0.6336911867 0.24150292147 -0.097774646862 -0.68083874472 0.23923170375 -0.21844677086 -0.60536335138 0.25957974538 
-0.27795841632 -0.58214757361 0.28576667817 -0.30624244508 -0.57942893232 0.31950854243 -0.32069618595 -0.59220417907 0.34795163183 
-0.29597543641 -0.6423140632 0.34771601778 -0.27519093983 -0.69046532584 0.3235162372 -0.24571037671 -0.74007861161 0.28026547546 
-0.22787745704 -0.79005336833 0.18902154256 -0.21264724994 -0.81325846155 0.081349127383 -0.20592529878 -0.80356517935 -0.019098328928 
-0.20408927559 -0.78148246568 -0.091119660882 -0.19929837888 -0.75106358072 -0.15048724568 -0.20152484492 -0.69856302578 -0.16585066502 
-0.20669361019 -0.65680644286 -0.17562326656 -0.21069932289 -0.6447227176 -0.18084153842 -0.23724484682 -0.63482896512 -0.15062570509 
-0.22957093737 -0.61907338777 -0.14597995582 -0.26879054591 -0.61969951232 -0.12131138208 -0.17336717693 -0.66072825481 -0.20294767865 
-0.13081111228 -0.70086904388 -0.24716882913 -0.1042756089 -0.76944470573 -0.2610384071 -0.088537621462 -0.85134226984 -0.25728079921 
-0.10195979753 -0.95952943668 -0.24843166561 -0.1260953992 -1.0348690182 -0.26487248911 -0.12917809343 -1.0611976533 -0.30325578191 
-0.046343045634 -0.74739658408 0.25529705544 -0.0027999756841 -0.79938253066 0.27035666815 0.41710595616 -0.7635665018 0.1826236138 
0.44133146722 -0.81974650437 0.19934863042 0.35153417328 -0.86862543462 0.26041970761 0.40953369361 -0.85681481641 0.24085739892 
0.30412915683 -0.86533097293 0.25370335051 0.27340991308 -0.84360804565 0.25379006555 0.24921320534 -0.82504408975 0.24935232471 
0.23172601956 -0.83552777307 0.26812604478 0.21868713919 -0.85375568034 0.29775341892 0.2358601128 -0.88200157088 0.33931401622 
0.25430696212 -0.90896181823 0.37593465231 0.2718318522 -0.92064920285 0.35711169835 0.28793693752 -0.9300399976 0.33399767584 
0.29287117939 -0.9313735233 0.30526654343 0.29927260149 -0.92520026618 0.30706946199 0.30617107566 -0.91369088641 0.34180886367 
0.28066779913 -0.90127392702 0.37559888386 0.20982239759 -0.82816005288 0.41187274888 0.15374673586 -0.77142728906 0.41684595062 
0.12798613408 -0.71543028503 0.42859783855 0.10760794234 -0.65281263942 0.43666587229 0.073332578422 -0.62220219873 0.41308634715 
0.049776129509 -0.59868133534 0.37719471295 0.032688319768 -0.6005010974 0.33416347105 0.023714974823 -0.60061646287 0.27946287982 
0.034571624532 -0.60396342808 0.21474436899 0.062508318538 -0.61380411164 0.17155084698 0.11524115063 -0.63052806762 0.15235466387 
0.14779323603 -0.67503364131 0.15263072463 0.15879807608 -0.73469629903 0.17355305262 0.10435132612 -0.78475789271 0.21826366795 
0.0094741325233 -0.80901981673 0.26134706733 -0.094341797954 -0.81355447836 0.30278851199 -0.069833201894 -0.82023851533 0.29440831558 
-0.13310360546 -0.78457768845 0.31498802648 -0.17918711962 -0.7585185792 0.330534183 -0.23163306178 -0.72881156245 0.3454435106 
-0.2720236433 -0.70427548323 0.36553477374 -0.32298940727 -0.68231454819 0.3908125933 -0.34667512541 -0.68414803138 0.41989780846 
-0.36526105337 -0.69513809779 0.44887641378 -0.35418609579 -0.73739927138 0.44588575505 -0.33402183629 -0.77850688941 0.41568028018 
-0.30225261271 -0.82071717434 0.34853231881 -0.29966932713 -0.8561761766 0.25119258913 -0.27711364033 -0.85388589909 0.12711151077 
-0.26461367089 -0.83452321462 0.029380426466 -0.26016342927 -0.79697962124 -0.050762469595 -0.25380162768 -0.75695384432 -0.12282696548 
-0.2635479874 -0.71004198199 -0.12130718994 -0.26179697506 -0.66445190654 -0.12939447366 -0.280386249 -0.64180972469 -0.11635732467 
-0.29037442148 -0.59104914816 -0.11053822182 -0.28261940825 -0.61015240282 -0.119805002 -0.24370464188 -0.61490677419 -0.12596409429 
-0.18393201461 -0.64359245243 -0.15604418828 -0.14895857224 -0.69768893944 -0.19518513854 -0.1352722708 -0.73280898107 -0.17964391768 
-0.12175245655 -0.80565568866 -0.16925233725 -0.13860007813 -0.93019922303 -0.16355925506 -0.18600424422 -1.0483515454 -0.19806071311 
-0.022083661295 -0.42594628915 -0.24457732465 -0.043797046358 -0.43860862664 -0.23644968189 -0.065046816463 -0.44105273631 -0.19263099562 
-0.095465026005 -0.4295491105 -0.12867217392 -0.14843212793 -0.40617694146 -0.048681737694 -0.20410849158 -0.38336453812 0.031431136889 
-0.26367357161 -0.37351089584 0.12233283661 -0.3146533805 -0.37841358105 0.21784277235 -0.35827242001 -0.39606576753 0.30863641507 
-0.38604883288 -0.42085453304 0.37271655708 -0.39702527595 -0.45315809905 0.43281107803 -0.39218121594 -0.4799382793 0.48081915857 
-0.37202229566 -0.48696954675 0.48757994896 -0.34446288166 -0.49821254631 0.48395165949 -0.31953744637 -0.50855428312 0.47367495572 
-0.31797895344 -0.55524440188 0.44940481522 -0.28682756685 -0.57996162397 0.406951314 -0.30918901561 -0.63072497119 0.4315425725 
-0.25362061672 -0.54271273473 0.4313590684 -0.23883461395 -0.52562170196 0.45112479452 -0.22071234498 -0.50779741962 0.45090226869 
-0.22230420505 -0.50719495156 0.42515773153 -0.22372345979 -0.52509465069 0.40158484969 -0.22905215204 -0.56329945706 0.38048309985 
-0.22768229146 -0.59702634417 0.3792714973 -0.22376895659 -0.62360718808 0.39285746276 -0.16945807187 -0.63320517595 0.41193346474 
-0.099495654017 -0.65799862736 0.42078552515 -0.019543314543 -0.69690928845 0.41438374763 0.07642501894 -0.74635752857 0.40252697963 
0.18440631612 -0.80788485735 0.3827977553 0.30199196583 -0.87023782162 0.36391104567 0.43640121848 -0.91780864078 0.33388725864 
0.5441828122 -0.94186832101 0.26964340011 0.6509473075 -0.93790577314 0.19832189821 0.70583655601 -0.91092494997 0.11447311359 
0.67737017742 -0.86432603037 0.059682758153 0.60975321342 -0.79746819526 0.023316760546 0.52746114753 -0.71821795928 0.017184631756 
0.42497857858 -0.66725192081 0.072619953571 0.34468601429 -0.65708222804 0.14774574207 0.28203116846 -0.66554023011 0.22901759976 
0.26493690181 -0.70477109747 0.27536735548 0.33694095213 -0.65901551195 0.18234853141 0.29334334275 -0.72847097854 0.28706702072 
0.37594698732 -0.59681370608 0.082086230901 0.39321035998 -0.54411104803 0.010888352695 0.38129314147 -0.5164667391 -0.043056549117 
0.35463118487 -0.50140729352 -0.092414927941 0.31909265327 -0.51637090406 -0.11841204894 0.28734248739 -0.56319693128 -0.12275119013 
0.25489818863 -0.6214092467 -0.12417745294 0.23116296494 -0.6914161628 -0.11839454602 0.19994190777 -0.71310412551 -0.1111460653 
0.16978851049 -0.72144714102 -0.10767325005 0.11404611354 -0.73287411884 -0.10684847682 0.049260472775 -0.74556979166 -0.10769571712 
-0.013687789136 -0.72675044477 -0.11675931366 -0.06074883551 -0.70990769971 -0.10713411513 -0.089548545667 -0.65950050101 -0.096670538515 
-0.07241048662 -0.51280501228 -0.12539385421 -0.106688748 -0.58761890959 -0.090128021739 -0.04080527734 -0.4787203274 -0.16239231791 
-0.054242461254 -0.45569592751 -0.18576713433 -0.074921550677 -0.42059261041 -0.22651241854 0.24805255807 -0.865370555 0.28903937586 
0.2066615564 -0.87393633669 0.37248749805 0.2158029944 -0.88332196019 0.41969229972 0.22263504624 -0.88743948613 0.46156395825 
0.24740471662 -0.88879354891 0.43168564794 0.27167479191 -0.89305584356 0.39894229586 0.29389510248 -0.88653604799 0.35427718255 
0.31530174196 -0.87900892423 0.32296591204 0.35379484109 -0.88461987377 0.33135699137 0.40671471136 -0.8924525825 0.32763080696 
0.17594588283 -0.8208080162 0.41070051549 0.2503665583 -0.85642360566 0.39239083492 0.14948572528 -0.78466539819 0.42624399797 
0.10036066305 -0.75210872894 0.43300086576 0.063797476797 -0.71778687559 0.44316500109 0.026619042826 -0.6902795518 0.4416449964 
-0.008144282954 -0.69462930137 0.39752743919 -0.030042239199 -0.69608029987 0.34515168264 -0.02538207205 -0.69557050911 0.27671268972 
0.00064578483185 -0.69876998667 0.22104938576 0.063046556759 -0.70861216513 0.19873485657 0.10570846072 -0.73161607381 0.19045606692 
0.10725405052 -0.76506136525 0.20550103799 0.086174826959 -0.79129263834 0.22488496617 0.0033887740103 -0.79881513534 0.25730076128 
-0.0932942098 -0.7860892597 0.28540261912 -0.15101457056 -0.77728889116 0.31094176195 -0.15579695394 -0.73352855698 0.2955998481 
-0.15319642283 -0.80959613691 0.32487962365 -0.17474849348 -0.79867118275 0.33678903162 -0.20825975369 -0.79236852396 0.36543888139 
-0.25230537826 -0.77760547673 0.38830571638 -0.30506562326 -0.75986615794 0.41304305095 -0.35195680471 -0.73919766516 0.43432449553 
-0.36696455073 -0.74805536058 0.45909721594 -0.38122442835 -0.75164866711 0.48203827899 -0.37380359337 -0.78334512503 0.46046371447 
-0.36137002463 -0.81172074583 0.4348293 -0.33860231687 -0.84433965799 0.37765575084 -0.33093801397 -0.85875127284 0.31045922957 
-0.31146561776 -0.81165012896 0.037412077995 -0.30397720596 -0.84040496636 0.12131204378 -0.30434859256 -0.77120928357 -0.032488790403 
-0.29969439805 -0.72720277603 -0.10010020189 -0.29167110705 -0.67890189111 -0.10803113651 0.33014482759 -0.9048480657 0.37605387502 
0.4436488712 -0.90418658064 0.31646776445 -0.28188302429 -0.6445420667 -0.13026654501 -0.26072813599 -0.56953631304 -0.14086228682 
-0.24914264645 -0.60245118897 -0.1556122677 -0.26073969153 -0.55083289903 -0.1218152366 -0.22425038902 -0.57209141822 -0.11731802167 
-0.17736496526 -0.6696373495 -0.13205184071 -0.094393211261 -0.43286281436 -0.23624160387 -0.10571119273 -0.44792685663 -0.23351696126 
-0.11812989686 -0.4526718448 -0.18595459851 -0.12981299457 -0.45621992019 -0.13961392719 -0.16157153486 -0.44277554306 -0.073760752641 
-0.20218017268 -0.43195158212 -0.0024117768712 -0.24887259607 -0.43159543759 0.082954624152 -0.29482341241 -0.4460721202 0.16978049729 
-0.33965585865 -0.48273067613 0.25273144865 -0.37194372134 -0.53083322403 0.31932928492 -0.39436712467 -0.57782434582 0.38707128368 
-0.39667950321 -0.58993425328 0.44046613104 -0.38059323038 -0.57664096242 0.4556563278 -0.35157672783 -0.57578653417 0.46168921056 
-0.35887236979 -0.6875637747 0.43616839182 -0.3066905139 -0.68943569756 0.38360386514 -0.34237423696 -0.72864233798 0.41506089523 
-0.28393139496 -0.64804929058 0.36967698203 -0.25380299365 -0.59852443703 0.37638459401 -0.24071617754 -0.57236829533 0.40173289574 
-0.23254818005 -0.5653492611 0.41025825993 -0.23571453392 -0.56493537365 0.37730423418 -0.24055511328 -0.56898176385 0.34862808767 
-0.24751126531 -0.60229806859 0.33150074144 -0.26206106846 -0.6270803613 0.33134095396 -0.27401325313 -0.66779378388 0.34771400506 
-0.2056693979 -0.668667552 0.3875941562 -0.12985829119 -0.68187010011 0.40783548158 -0.039340959541 -0.70119381049 0.40616064667 
0.06304280882 -0.74071630059 0.39502769037 0.1730849654 -0.79707747763 0.37368381213 0.28659619818 -0.85409356586 0.3464464881 
0.40400795592 -0.9113678073 0.31090040825 0.53645094867 -0.9342960673 0.27342212683 0.64889735252 -0.93175320714 0.22832044451 
0.68737434683 -0.90035855089 0.15168333273 0.67372187455 -0.84575037071 0.089516852505 0.61527513117 -0.78620069965 0.060701748917 
0.51104162449 -0.72395613301 0.079780055373 0.40173147721 -0.6818240874 0.14669582758 0.30212603006 -0.6767009465 0.2343080537 
0.23805448513 -0.71733355624 0.32087602441 0.22446898517 -0.76138837893 0.3647727613 0.26159624236 -0.79865773665 0.36153795673 
0.34890325762 -0.75253655205 0.2658044589 0.30778893245 -0.82882273929 0.3315669922 0.38410316136 -0.67861190357 0.18279891938 
0.38946228905 -0.61486998721 0.10984234549 0.40118807149 -0.56794831812 0.041856249505 0.38209827149 -0.54704038228 -0.022089796284 
0.35109709962 -0.54067182255 -0.081237439481 0.31295785792 -0.56272016233 -0.12080090857 0.28598683172 -0.60319427911 -0.12353756148 
0.25625415847 -0.66558229686 -0.13684243737 0.20661424802 -0.75915239406 -0.14298567456 0.16150027378 -0.77037487243 -0.12965582278 
0.13459055703 -0.7684065177 -0.12103329021 0.090980147421 -0.79951365927 -0.12146093381 0.010151541559 -0.83171744246 -0.12444437687 
-0.065380131892 -0.85104799544 -0.12364432954 -0.11829793139 -0.83141726488 -0.11435650641 -0.14329363291 -0.78785759472 -0.087789218746 
-0.14142103972 -0.69910558291 -0.075147773355 -0.142682186 -0.53440697758 -0.10816511741 -0.16035153868 -0.62045536162 -0.081074725921 
-0.10792726737 -0.47821886911 -0.15164784349 -0.18467451082 -1.0594192931 -0.18679950473 -0.093098064165 -1.0106752305 -0.17830802457 
0.01493906565 -0.96508563303 -0.16699424856 0.12258233114 -0.86163164648 -0.15034634189 0.22634171669 -0.76968902705 -0.13685857128 
0.25241931837 -0.74099480093 -0.13065010743 0.27390581071 -0.69744175797 -0.10248827695 0.3029981469 -0.67096306666 -0.072922143614 
0.35591970054 -0.66129627118 -0.010041398694 0.42042614786 -0.66202692002 0.062495941818 0.45343923684 -0.70408209934 0.11829368982 
0.4507492672 -0.73515932981 0.15953431599 0.46461610975 -0.78593349507 0.17720350706 0.44691523784 -0.82065854462 0.20901628522 
0.34395036195 -0.89269714048 0.30691621904 0.38204544263 -0.83111627851 0.27415462737 0.30318023839 -0.89816490602 0.33303886436 
0.26411611943 -0.8879196716 0.3232582041 -0.16435736552 -0.49419967704 -0.2101293418 -0.15783858675 -0.46950873718 -0.20188734889 
-0.15737453394 -0.50190905571 -0.19484331675 -0.1628798972 -0.4934523895 -0.15060012541 -0.17395050127 -0.49113906677 -0.092273850139 
-0.19590485646 -0.50174728537 -0.033587767247 -0.23633038918 -0.51020738679 0.042842080921 -0.27774931817 -0.52992328498 0.12363888732 
-0.32087281076 -0.58078549196 0.20092423936 -0.35469888142 -0.64848534192 0.27674940228 -0.36445303184 -0.72370781815 0.34615886939 
-0.38513128075 -0.70647804913 0.42460247326 -0.38010797206 -0.69436936305 0.44876348497 -0.3223670586 -0.75780664703 0.40590185817 
-0.36028099009 -0.74716786243 0.43682752326 -0.36837731823 -0.74554896513 0.4479779912 -0.27813739555 -0.74342056493 0.36103881903 
-0.25865050286 -0.68748132071 0.34590020846 -0.25131586085 -0.65231143709 0.34964426175 -0.24225258435 -0.6251963865 0.36163188856 
-0.23426758182 -0.61248313597 0.37162546638 -0.23274350325 -0.61917425287 0.33516139389 -0.24359899872 -0.60481900931 0.31479312325 
-0.25989324963 -0.6240928002 0.3037830886 -0.27133455247 -0.6495759776 0.2962624406 -0.26819595685 -0.67543024961 0.31195612121 
-0.11848764346 -0.70293868795 0.4157858583 -0.17843384707 -0.69471093805 0.38488234172 -0.052861431403 -0.71113558523 0.4186120073 
0.035647884702 -0.74358487963 0.40427464083 0.14258939674 -0.79878868046 0.37799445689 0.25009523717 -0.84861568833 0.34657448534 
0.36038465829 -0.88785244423 0.31721101467 0.47101208567 -0.91167100636 0.2883583066 0.56555821465 -0.92261606838 0.26347557067 
0.59748439132 -0.87174110846 0.22900992721 0.57109334656 -0.79041409923 0.1403181288 0.61604593695 -0.8354215932 0.15829140577 
0.47916053243 -0.73766911871 0.16899669763 0.37929457562 -0.72063447185 0.23367505528 0.26810149571 -0.710900198 0.32186723093 
0.21736558331 -0.77719465122 0.38082823107 0.17676966978 -0.83242723878 0.44038637622 0.22160084927 -0.85293335322 0.41523496686 
0.26899140878 -0.89347601098 0.38172118136 -0.23355593787 -0.69765157844 0.3451303518 -0.22509792865 -0.69893402709 0.30455315662 
-0.32367098197 -0.86295771007 0.20366713386 -0.33804953587 -0.83789090328 0.24725144574 -0.13867586562 -0.71636364196 -0.10192892351 
-0.14617071141 -0.830327895 -0.10368235619 -0.15119194773 -0.93211129618 -0.11710976357 -0.13919146337 -0.96138051575 -0.13768730058 
-0.09253598038 -0.95409675126 -0.14751013521 0.0023810155477 -0.9036699067 -0.14788605311 0.091261023732 -0.85595604206 -0.13896268019 
0.20748204508 -0.89975984175 0.42021158305 0.18781136153 -0.89589746679 0.4739787759 0.18689993248 -0.8835736082 0.50274218595 
0.2226812786 -0.8628796065 0.47292606914 0.26714372486 -0.84136523709 0.42110744318 0.30674001282 -0.83882713083 0.36300934979 
0.35538409335 -0.8401838673 0.30550786674 0.41272455933 -0.85713811403 0.29241455901 0.49557508908 -0.85652932596 0.26676461957 
0.44777978915 -0.91136326742 0.31708180414 0.35426010603 -0.9041281836 0.35777183532 0.28980950444 -0.88977556936 0.3751163301 
0.22025336795 -0.86204942492 0.39522727261 0.16198734496 -0.81652995864 0.41856302067 0.10192504357 -0.77412896343 0.43918099846 
0.052648062831 -0.74729764757 0.45095841987 -0.0070499957898 -0.72521495825 0.4542793597 -0.049351789732 -0.72766648813 0.41589656559 
-0.08231088363 -0.72628807414 0.37524092615 -0.080394595422 -0.72057059074 0.31696453763 -0.064690512206 -0.72199833461 0.26682922255 
-0.0093780567596 -0.72902502347 0.23087540074 0.027638627728 -0.74115571852 0.20931117758 0.033750575231 -0.75923464296 0.22014456574 
0.024530555251 -0.76937071089 0.23215546546 -0.036094833738 -0.76824880198 0.25462514472 -0.10693578857 -0.73838915025 0.27056851178 
-0.14861992088 -0.70628463764 0.28766294227 -0.19473994959 -0.73275879757 0.31420051206 -0.1944668707 -0.70179601327 0.31210809306 
-0.21266704027 -0.76190887446 0.33065640167 -0.22154569536 -0.78890769373 0.34678294592 -0.23298869723 -0.78822774533 0.3602544336 
-0.26899103273 -0.77808794627 0.37824228165 0.47881008216 -0.73033612778 0.14100347612 0.44724242633 -0.75173198812 0.17973954928 
0.41784279269 -0.75323592111 0.21531013233 0.4135947408 -0.68738711991 0.16225714839 0.41037190764 -0.63566044975 0.11950540182 
0.42807768493 -0.60561256831 0.075839736047 0.39949182013 -0.60918591445 0.0096893468152 0.3572738604 -0.59119460651 -0.038747154522 
0.33941438832 -0.61742403621 -0.093483026176 0.28586623726 -0.6631396931 -0.12542997447 0.26242372981 -0.70092716166 -0.14188769346 
-0.37456272276 -0.73967331904 0.46230737965 -0.37283184351 -0.77268813697 0.44733152477 -0.37193604065 -0.79074828012 0.41050165691 
-0.35120032491 -0.81788665512 0.36234061612 -0.33939329573 -0.83597795754 0.32155101216 -0.33740411304 -0.79136747602 0.28261624865 
-0.32457445014 -0.79649037213 0.19404004784 -0.32949892503 -0.74172922923 0.22967348391 -0.32637217715 -0.82532254896 0.17095264933 
-0.31589285547 -0.79986271503 0.11219137654 -0.30522282618 -0.76335436306 0.038977052001 -0.29529909351 -0.72372599097 -0.024000887167 
-0.27844501891 -0.683497598 -0.094313569101 -0.24210914091 -0.61852870962 -0.10907120403 -0.20732261392 -0.54984406898 -0.17924006539 
-0.20473697703 -0.54884455275 -0.13879290862 -0.21304184504 -0.52666550514 -0.18110824064 -0.21779433303 -0.49723588794 -0.16334214619 
0.35035177673 -0.63820680703 -0.049834078783 0.37071343182 -0.62409113196 -0.0075277340362 0.42035903266 -0.66272280803 0.066637895574 
0.22242815783 -0.92550271629 0.43124076314 0.37611153028 -0.90225879528 0.32801408426 0.29122694691 -0.8910084666 0.34793568728 
0.20400216094 -0.84016095916 0.3755234499 0.11192644015 -0.78825259963 0.40433221519 0.027165696834 -0.74415572284 0.43174817798 
-0.038155298488 -0.72306225853 0.4469646976 -0.089332798822 -0.72713882452 0.43546034839 -0.14258820904 -0.72450869992 0.39601599117 
-0.17043738163 -0.72284346616 0.33993125854 -0.16143194445 -0.72419591002 0.29043790466 -0.10986316122 -0.72810611794 0.25497344688 
-0.071167432549 -0.72944563776 0.22831080576 -0.11643834492 -0.70870337788 0.26817247497 -0.068364118949 -0.74367075184 0.25274619915 
-0.23136928658 -0.73916193482 0.32912526784 -0.22303300603 -0.69109532445 0.32745174861 -0.24974399613 -0.77124972118 0.34685131572 
0.18072524405 -0.89775263603 0.48228027932 0.19354803262 -0.85651901376 0.49386457037 0.24211695316 -0.82369911004 0.45485030584 
0.29861231262 -0.79651112535 0.3859693194 0.37297128226 -0.80482582636 0.32181294757 0.4329374724 -0.81776898911 0.27280287124 
0.46655829758 -0.83097177874 0.25874681568 0.53675762258 -0.82897617547 0.21639163064 0.50380245024 -0.79472238716 0.20686031613 
0.42632729642 -0.76132957099 0.25298253031 0.3353688404 -0.74865734937 0.32060137381 0.25002494752 -0.76540025981 0.40008860092 
0.19198168245 -0.82261838441 0.46386263194 0.16883211156 -0.87324045364 0.47366843645 0.19179911907 -0.89683635497 0.4537458458 
-0.30987592799 -0.74650563826 0.12976956767 -0.29382355781 -0.69710459587 0.054603846537 -0.26895764206 -0.66347554204 -0.023050640013 
-0.22459498713 -0.66779107166 0.33464823196 -0.22613352949 -0.64998064505 0.34329911942 -0.20920220614 -0.67096690791 0.3120773916 
-0.22363797633 -0.66074719168 0.28349515941 -0.20643944998 -0.64855453163 0.28863043866 -0.2329721093 -0.67187394916 0.2724922394 
-0.23144557193 -0.68393916482 0.28297669416 -0.19276788531 -0.69943125298 0.27197129444 -0.31169221061 -0.67470079417 0.15905728379 
-0.19819378219 -0.53043948721 -0.09941080883 -0.21996254785 -0.5520335872 -0.059668676944 -0.25620879785 -0.58437849771 0.011492730958 
0.44379804182 -0.68647928262 0.1144948789 -0.2818012111 -0.61976701397 0.082263602493 -0.15163581894 -0.68772441853 0.25826691064 
-0.13531401939 -0.68707837065 0.26579489887 -0.16553260326 -0.69692611448 0.24833260479 -0.069216172418 -0.59426063495 0.53678096447 
-0.010350802856 -0.66402426546 0.54912463134 0.32129437485 -0.65390088211 0.17335328722 -0.13938461821 -0.43839725322 -0.19118324212 
-0.18830022501 -0.4919379983 -0.14199709687 -0.060507632917 -0.73947423754 0.24381523145 -0.06386051617 -0.73588166878 0.2363657175 
-0.18945486011 -0.66102449109 0.2934909632 
Displacement_Wall 3 1114 double
-0.072315216064 -0.0080184936523 0.31716156006 -0.087391861406 -0.080714729973 0.28623551916 -0.076996104296 -0.16760092342 0.31520867956 
-0.064888446342 -0.11146437392 0.3528794734 -0.083242279014 -0.11305118951 0.27486126612 -0.080482059078 -0.21704137788 0.30724987202 
-0.071364177162 -0.1642121073 0.31095131301 -0.066717093607 -0.28072210914 0.32833896967 -0.042752858398 -0.23006914311 0.34907361692 
-0.035672664757 -0.35966656425 0.35336398424 -0.00010200815615 -0.2771093037 0.34542278859 0.01132643711 -0.41406000945 0.35199092413 
0.021573199843 -0.27548941862 0.32168742248 0.068937384441 -0.42336184756 0.31865662238 0.077395519883 -0.26495470824 0.23505102994 
0.12990562133 -0.39632669192 0.22126971417 0.14055303703 -0.2664860901 0.14475830935 0.17663440775 -0.38409331596 0.12090531049 
0.18958581298 -0.25799500313 0.082135673193 0.22777959501 -0.3480953637 0.034851776927 0.21946161357 -0.23031817743 0.061277702363 
0.27391207997 -0.32314812141 -0.0090354266933 0.26449585175 -0.21104221206 0.065958190319 0.29138547367 -0.29977663936 -0.00018413727084 
0.32987443943 -0.19964348925 0.11868445187 0.33020974095 -0.27613033405 0.02307642648 0.37165589631 -0.15551469939 0.12936098605 
0.36957192065 -0.25290966606 0.024491573953 0.42114249969 -0.12244264166 0.11808944947 0.40050072505 -0.21649931538 0.015938054932 
0.45265044102 -0.089383030788 0.080457431264 0.4313872032 -0.1741846223 -0.037856054595 0.48131545765 -0.071401825762 0.031280362451 
0.42816514652 -0.14207395401 -0.08603057947 0.51378378768 -0.066811683104 -0.02322311504 0.43259406503 -0.12488029871 -0.12655177284 
0.50979395048 -0.072065045545 -0.085797093948 0.43397779845 -0.12650599722 -0.17660348558 0.50893199316 -0.0846443409 -0.13662145452 
0.43444437834 -0.14149949803 -0.21299005228 0.53459114069 -0.097406073063 -0.16605331145 0.45983732001 -0.15856381826 -0.22635833642 
0.55117053989 -0.081353574237 -0.19856545939 0.45764465437 -0.17464622494 -0.25847764887 0.56631601172 -0.045416180205 -0.24357944726 
0.46742684764 -0.15238480627 -0.28738950365 0.57608934872 0.00044758331013 -0.28911025074 0.47446382908 -0.11402381632 -0.32551566801 
0.57439956954 0.04764677899 -0.33272894873 0.46508151053 -0.06677025064 -0.3766440836 0.55373603577 0.086112276594 -0.37560920829 
0.4628397135 -0.0057198981825 -0.41516139578 0.54446973153 0.15807355299 -0.3567336262 0.43338770257 0.04905728328 -0.41590091507 
0.49526457359 0.20374705388 -0.31054650146 0.3894949059 0.081036274503 -0.36375610971 0.42655362293 0.22856255999 -0.22833347898 
0.32102418431 0.10741286172 -0.27348154961 0.35313337682 0.23508392026 -0.1264954872 0.24905463894 0.10079687812 -0.17380484629 
0.28356109713 0.22269586291 -0.038267403646 0.16822445462 0.11784035532 -0.063730176615 0.20884663998 0.18875326235 0.061206101893 
0.092403728006 0.094202373907 0.02713835775 0.15220248275 0.18332946383 0.1346979421 0.032933775895 0.084741489276 0.12192923234 
0.10635937459 0.17723234464 0.21016189484 -0.014674586132 0.079442780032 0.21714369541 0.066756036857 0.16156958933 0.29324485409 
-0.049467171678 0.082957063075 0.29426484172 0.029843907526 0.14855537718 0.36277061157 -0.078518771233 0.078513367348 0.37158022 
-0.012121641342 0.15682852061 0.40779919859 -0.07916236521 0.0689200106 0.42607569381 -0.026450943197 0.15212276611 0.45440941795 
-0.097716750858 0.060056735243 0.46339724804 -0.056495201673 0.15918050934 0.47593066231 -0.092531957677 0.04127954833 0.48696050961 
-0.077408746373 0.15323013297 0.47318689145 -0.074464568927 0.027578988018 0.49650291009 -0.074000129685 0.12142601935 0.43908389423 
-0.071207942739 0.0032854270615 0.47135021164 -0.065439192968 0.071097117146 0.37329878655 -0.076914523199 -0.047745854052 0.41988003687 
0.12482070923 0.12155914307 -0.48849487305 0.078153700598 0.12369826635 -0.47911816392 0.075952622128 0.066754812637 -0.49524323435 
0.12517350104 0.052317349706 -0.5162892768 0.037728887262 0.12651311056 -0.46673542987 0.031183150721 0.077924176947 -0.47272488628 
0.015451819169 0.1312924577 -0.44561337067 -0.0051678615905 0.08480717798 -0.45377232435 0.0068468458685 0.12683035163 -0.43877585233 
-0.016518094132 0.075189697837 -0.44085435516 0.01027396476 0.11423532819 -0.44450940778 -0.0067431066677 0.054279065522 -0.43468384411 
0.027911764529 0.0836034246 -0.47232628073 0.03371866197 0.012386109595 -0.44991038839 0.050393979308 0.047566401702 -0.50063725551 
0.064676736652 -0.033976698931 -0.47020447385 0.079429271458 0.004405696381 -0.52783961313 0.07923010338 -0.085349977852 -0.49748287081 
0.13531226225 -0.030022920658 -0.55554813551 0.13127210922 -0.13152493016 -0.52049883907 0.19355381721 -0.060450702322 -0.58188706877 
0.17793136019 -0.17185109261 -0.54589243164 0.24905544542 -0.086772245173 -0.60598906813 0.21544999124 -0.20721746901 -0.57054114653 
0.29455668141 -0.12176121409 -0.64495679404 0.23985335896 -0.22994574251 -0.59578884208 0.31564865943 -0.15091115048 -0.68014491037 
0.25266940774 -0.2473590108 -0.62639079618 0.31650682384 -0.17412162346 -0.70954947375 0.23286884773 -0.27050319151 -0.65833766055 
0.34691980123 -0.200285729 -0.72396795113 0.22920277352 -0.28763475734 -0.66892842356 0.34710998128 -0.22317885415 -0.74497117534 
0.23060816959 -0.31136946416 -0.68729606102 0.33495570563 -0.24754864933 -0.76883262609 0.23855160544 -0.32777187747 -0.71763275362 
0.34752899954 -0.28896174431 -0.78816828556 0.23785026568 -0.35986205801 -0.75265062093 0.34680445594 -0.3207119088 -0.80857131805 
0.23508726879 -0.40282772378 -0.77334946677 0.33623465663 -0.34746611897 -0.8263912651 0.23300821057 -0.45072386762 -0.78179912703 
0.30681619765 -0.37262610882 -0.82680746828 0.22540494347 -0.47244325586 -0.77579489788 0.26818917349 -0.3631758037 -0.83716626568 
0.19536103839 -0.47240026075 -0.77400405875 0.22022517763 -0.33304932011 -0.84899976974 0.12342907182 -0.45343683737 -0.77589036778 
0.14587012667 -0.29141492075 -0.83698307142 0.031412988881 -0.40225261546 -0.77206426099 0.084205199492 -0.24177357284 -0.8133423512 
0.0026087661418 -0.30879618461 -0.77767594647 0.031982322747 -0.18853738782 -0.78179035938 -0.032655392325 -0.26007930059 -0.75624017503 
0.028518437915 -0.16713536056 -0.72511670376 -0.031549682826 -0.23785985492 -0.70078671642 0.043001415843 -0.14667541401 -0.66293970597 
-0.019161734372 -0.21374857412 -0.63771030274 0.08345141466 -0.12757854855 -0.59280001279 0.024657721855 -0.20518804271 -0.55169351874 
0.12694093026 -0.12749722762 -0.53789486298 0.078827941546 -0.21500457383 -0.46817531885 0.16990859986 -0.13459104292 -0.48607567775 
0.13802168977 -0.23385664147 -0.38867964369 0.20396619568 -0.15069867544 -0.42496319929 0.18926640979 -0.26733002115 -0.32450112234 
0.22932998673 -0.17332684345 -0.38565955289 0.22239228774 -0.30936303102 -0.27326832269 0.24581699154 -0.20261278684 -0.36862375637 
0.24311099667 -0.32073481081 -0.25492193396 0.26297532467 -0.21294362484 -0.36655175451 0.2525091004 -0.34176176877 -0.24095225463 
0.27605530641 -0.21876116349 -0.36293001559 0.25923962211 -0.35845035722 -0.23057194076 0.26822786644 -0.2181885615 -0.33885849656 
0.25681465804 -0.37421118485 -0.21111177231 0.26263741697 -0.22263483768 -0.33322311924 0.2540720858 -0.38475160546 -0.20845770575 
0.25876944703 -0.23097826699 -0.34234782833 0.24763536613 -0.38793387863 -0.21524656806 0.23317366714 -0.20042206464 -0.34284387058 
0.22538863418 -0.37078743886 -0.21865910521 0.2064883126 -0.16196744061 -0.3311570258 0.19454232404 -0.33430228473 -0.21012841222 
0.17808683756 -0.1110725095 -0.30028168215 0.14855434404 -0.27260389992 -0.18929109192 0.16303062326 -0.044620768205 -0.27185302201 
0.13170504445 -0.19058529187 -0.15820961635 0.15581145876 0.029132220747 -0.24560749252 0.12884352187 -0.093714793256 -0.12799830795 
0.19726430718 0.12586138864 -0.24201988901 0.17187042426 0.012575028182 -0.13227429646 0.23349299852 0.21058988057 -0.23940585003 
0.21071400665 0.11017611893 -0.14831016184 0.25831402303 0.26911324291 -0.23891772337 0.23736788141 0.1805303515 -0.16448867259 
0.26546658491 0.32146156769 -0.24790246505 0.24498485741 0.2294277677 -0.19102393007 0.25804129343 0.36871500709 -0.26470305852 
0.2411350206 0.26275581372 -0.2167926883 0.23621800359 0.37276390334 -0.29454138485 0.2265863559 0.26773668686 -0.26375278615 
0.21055087319 0.36460938172 -0.32751772012 0.20937000981 0.27009089372 -0.31508843716 0.18067081807 0.32801972053 -0.35622016216 
0.18466918161 0.24588219451 -0.34837522534 0.15704206486 0.28897691242 -0.38058499956 0.16581410796 0.21439281232 -0.37773508791 
0.15099995886 0.24303272119 -0.39274695129 0.16131667333 0.16964790582 -0.40936275346 0.14241814911 0.20915073007 -0.41447249154 
0.15821487758 0.13498411239 -0.43966402329 0.13125275959 0.18753932604 -0.44592684118 0.15771146019 0.11093670569 -0.47030322187 
0.12676722608 0.15636640356 -0.46883505281 0.14523230781 0.080031444479 -0.49659328277 -0.07906209681 -0.3247761156 0.3044107269 
-0.069899349016 -0.28703491169 0.32258942805 -0.067720376387 -0.38201031389 0.31537661878 -0.0022550417175 -0.49030692127 0.35692010511 
0.067785619956 -0.53630684523 0.35964108564 0.13420512764 -0.55487385919 0.31197360236 0.20471695491 -0.54995038048 0.19661087639 
0.25312940903 -0.50750089535 0.082606559168 0.29965372127 -0.4560397069 -0.01002965317 0.32515890906 -0.40542455345 -0.071117239672 
0.33556845204 -0.36603456732 -0.072652900615 0.33948591147 -0.34443129718 -0.059980743816 0.36449033148 -0.33880040175 -0.069662139381 
0.39213068288 -0.28549960399 -0.08851844111 0.40281280841 -0.2433573765 -0.14143144295 0.40202587248 -0.1953143002 -0.19302642303 
0.38246043628 -0.18319321615 -0.222925295 0.36714647928 -0.17413897788 -0.25213542891 0.36929948671 -0.20747538258 -0.26899584621 
0.37908424294 -0.23762348838 -0.27197376517 0.38766830476 -0.25731782988 -0.28261712766 0.39884489709 -0.24972848586 -0.30830829442 
0.40008426443 -0.21416584206 -0.3465385879 0.36551672887 -0.18601211571 -0.4172191867 0.35017668079 -0.095690564113 -0.4554289415 
0.31374768917 -0.07035873756 -0.45995036844 0.26627417728 -0.047791881902 -0.40692153527 0.19869899644 -0.026253890928 -0.31542924952 
0.12256315842 -0.0081461707238 -0.20873188544 0.040498943768 0.0025679364034 -0.10079650282 -0.03562258345 -0.0027412063379 0.0034192284519 
-0.09275095445 0.0074634371663 0.10757322301 -0.13899662381 0.010236359878 0.20290136082 -0.17082638302 0.0045569492496 0.28818449686 
-0.17543174094 -0.0050152450902 0.35431986313 -0.17885249584 -0.024466311513 0.40427293338 -0.18250857861 -0.046916709127 0.43589572684 
-0.13834025438 -0.083948405419 0.44693201564 -0.099237174092 -0.11779368274 0.45186178335 -0.077112854924 -0.14752689633 0.4391809442 
-0.067998087633 -0.18039834036 0.40784293631 -0.066758504903 -0.23359313939 0.36560174776 -0.0038661544497 -0.025391935544 -0.42754406329 
0.051638383654 -0.04342350374 -0.45445391876 -0.037580302408 -0.025558877132 -0.39802198916 -0.069638627132 -0.033890938967 -0.37507545651 
-0.082217518753 -0.048750522615 -0.35963507309 -0.035206461859 -0.10085863877 -0.36723432208 0.00012434605372 -0.1512124427 -0.37654974938 
0.024650381218 -0.20568944832 -0.39859671856 0.082198161281 -0.25527277222 -0.4253082268 0.11237737095 -0.30155950946 -0.46737962139 
0.1265735284 -0.33074941845 -0.50745298865 0.13361765763 -0.35025342881 -0.53822072735 0.14717209263 -0.35809520247 -0.57846298434 
0.12605996916 -0.35326982368 -0.60188504932 0.1063608367 -0.36072481517 -0.61685315718 0.086391815376 -0.3794459559 -0.63796474639 
0.10125536025 -0.40861090426 -0.677524487 0.1215966178 -0.44938876529 -0.71272784793 0.12044710288 -0.5037169076 -0.72810624715 
0.12381748311 -0.56681590011 -0.72536171716 0.11889168185 -0.59469553408 -0.72377881625 0.095839008561 -0.60552714018 -0.71893086153 
0.041540014357 -0.58050733857 -0.70643119057 -0.028213148993 -0.55045108577 -0.68933325375 -0.092550398738 -0.3382518624 -0.71966141694 
-0.056750043205 -0.36074296492 -0.74244075167 -0.079348097184 -0.31550865056 -0.65658374094 -0.046767154198 -0.29267068469 -0.5854378093 
0.026565468012 -0.29309511042 -0.50357526684 0.088795349892 -0.29361049891 -0.40237584853 0.14811690541 -0.30668204332 -0.30121982073 
0.20587641499 -0.3409674984 -0.22623178609 0.24128986485 -0.41301193883 -0.1507374677 0.23386733017 -0.44837408578 -0.15153990591 
0.2529053902 -0.47631617395 -0.14679277323 0.26606353592 -0.51017142014 -0.14450506555 0.28222601357 -0.5358920187 -0.13580962436 
0.29081545204 -0.55564312996 -0.13843875498 0.28628668955 -0.57299286399 -0.14200895192 0.24986191188 -0.55256734589 -0.13899391124 
0.21525546607 -0.50838231809 -0.116695198 0.17743663754 -0.43021346811 -0.087516589756 0.1457097348 -0.33182439136 -0.057175241304 
0.12307792709 -0.22579537695 -0.03075118995 0.1588930967 -0.11673744257 -0.03102895242 0.18576050256 -0.018195524795 -0.042161094046 
0.22134825793 0.063691154315 -0.069638306749 0.23290576472 0.12296733079 -0.10971062987 0.22232623761 0.16364916935 -0.16799138762 
0.20727248732 0.16224368269 -0.22160321634 0.19238939683 0.14838476894 -0.27462727608 0.17684690062 0.12995025062 -0.31152884391 
0.17398892666 0.10545084995 -0.34571552823 0.18211764658 0.057140247388 -0.37436620116 0.18871055574 0.013652031469 -0.41088772186 
0.19091206972 -0.023015651032 -0.44968101776 0.15475084623 -0.045002555695 -0.46697769595 0.10937577724 -0.054659937951 -0.47852460708 
-0.070834336227 -0.43914656344 -0.71723494253 -0.082281760398 -0.55489446691 -0.66262784412 0.16014822044 -0.63975922491 0.32159512864 
0.10077933623 -0.60539942593 0.3262758549 0.23677749855 -0.65397325532 0.25986423109 0.32307365949 -0.63882032245 0.15560807227 
0.37312976366 -0.59401727112 0.022239162303 0.39644295928 -0.53741478339 -0.073270513199 0.39715269035 -0.47186443414 -0.13930086678 
0.3836082069 -0.42426329355 -0.14618150169 0.36510892308 -0.40326560755 -0.13343957418 0.36935076433 -0.39672946376 -0.13918204529 
0.38290958609 -0.35179396914 -0.16532348936 0.38188604343 -0.29894852705 -0.22129740834 0.37924958567 -0.24966813773 -0.26631013539 
0.3564315651 -0.22063992252 -0.29029342202 0.33038736627 -0.23280885628 -0.32049047172 0.32951017304 -0.25387000279 -0.30686431078 
0.32739172058 -0.28904223953 -0.30483201253 0.32664845238 -0.3182777125 -0.3029398238 0.34032098947 -0.3323792583 -0.31097603822 
0.33237948653 -0.30700098404 -0.33332293976 0.29355207613 -0.29620208797 -0.37579911684 0.18058526006 -0.17454498022 -0.47387451918 
0.21079493869 -0.20189987314 -0.47961079829 0.13653432178 -0.15170412438 -0.42092414816 0.073488319893 -0.12978681158 -0.34250300238 
0.00056253199896 -0.11510914775 -0.23749960301 -0.077447170204 -0.09982822149 -0.13085790642 -0.14747238909 -0.071128786478 -0.018975740467 
-0.20064556243 -0.059188752684 0.085336341288 -0.24722846198 -0.062868476488 0.1796927115 -0.27806022955 -0.072983293619 0.26609676645 
-0.27146842787 -0.07473065156 0.31720252124 -0.25833804575 -0.10707071229 0.35010106793 -0.23140894241 -0.13444469844 0.36546514503 
-0.19192531664 -0.1992837644 0.35421241273 -0.13004606945 -0.23008495246 0.37260118045 -0.11350922559 -0.23135037446 0.38197092089 
-0.097206964485 -0.25559213091 0.3649996817 -0.097835998831 -0.30037493065 0.32837192303 -0.086445378916 -0.36276172215 0.30414007469 
-0.075610167937 -0.40754874174 0.29279035592 0.22693547802 -0.24558461222 -0.45616571494 0.21746568314 -0.3119602906 -0.41895758269 
-0.087132644835 -0.42537390681 -0.67072896689 -0.091354962193 -0.54565540033 -0.61838314692 -0.065135460806 -0.40435967255 -0.60508812991 
-0.015691114339 -0.37475686331 -0.53156332056 0.061096923699 -0.36523883445 -0.42152646022 0.1309209453 -0.35638451755 -0.32147132328 
0.18699887618 -0.35989358395 -0.23462900754 0.22471382255 -0.39049644198 -0.16322584166 0.25508459995 -0.43981858904 -0.10164013052 
0.28087565467 -0.57663515691 -0.1041841807 0.2468359274 -0.54072594142 -0.1079831627 0.29728346248 -0.62136366813 -0.10181794095 
0.31706176698 -0.66140095884 -0.096770215783 0.31938071983 -0.69358736135 -0.088083123568 0.31488268197 -0.71259696528 -0.082571915674 
0.29334096743 -0.692459344 -0.069895407669 0.25764925341 -0.6428422449 -0.046479429786 0.21466279093 -0.56225444578 -0.015688675314 
0.16701219322 -0.46922606533 0.020975323036 0.12103574331 -0.36505521577 0.052771670796 0.13600894847 -0.25142068005 0.055649139536 
0.16451640648 -0.1545029769 0.044436778668 0.19526071529 -0.077455281423 0.021894909672 0.20423585698 -0.016337629741 -0.029247250083 
0.1991638891 0.023474731587 -0.088825013167 0.18188499129 0.021257762116 -0.15634275548 0.16852510752 0.0092900390821 -0.21710829115 
0.17455008478 -0.015625272087 -0.2587770044 0.17842321898 -0.035471067115 -0.29149503543 0.19523453834 -0.083415377196 -0.31740346766 
0.19393807193 -0.13478618567 -0.33511601929 0.19016209226 -0.1809055867 -0.35694290636 0.13448765261 -0.21312206506 -0.35080814611 
0.072695108704 -0.21253286052 -0.35831173935 -0.0092679052043 -0.19570571452 -0.33545298874 -0.0724916346 -0.16693090218 -0.30770323967 
-0.12988122256 -0.15243107271 -0.27263331725 -0.15605370028 -0.16198299737 -0.23956809541 -0.1632377341 -0.17996121936 -0.21448965241 
-0.14060165836 -0.21797170421 -0.20811179878 -0.096348394015 -0.27478806807 -0.22094983213 -0.056832779073 -0.33864187315 -0.24950563823 
-0.028721451533 -0.3954211249 -0.31020181225 1.011838089e-05 -0.43812891793 -0.36884044683 0.024394908995 -0.45899309537 -0.43213021861 
0.026835348651 -0.4568384013 -0.4795901605 0.024194001612 -0.44788787487 -0.51918336866 0.0092346989679 -0.44573336473 -0.53260552603 
-0.010765379603 -0.43120425722 -0.54743623433 -0.055275337402 -0.43676518036 -0.55721669447 -0.022250859155 -0.45802461668 -0.63260936606 
0.0037255206004 -0.52537422491 -0.65142678461 0.021756033514 -0.59688399256 -0.66655324123 0.048457206289 -0.68741131956 -0.67091382419 
0.033978283243 -0.72228124925 -0.66342444459 0.013089390274 -0.74033871237 -0.65783592274 -0.017378002201 -0.69610329757 -0.64648222581 
-0.073468119248 -0.69313961352 -0.61621433676 -0.11151532043 -0.70675548937 -0.59343539994 -0.074818250437 -0.68211909416 -0.56910608892 
-0.020186754014 -0.51292377684 -0.5346646703 -0.0060580760826 -0.66282120105 -0.51480774509 0.24093990498 -0.50847084724 -0.095506273174 
0.2672962829 -0.51009666957 -0.067258124643 0.1264701975 -0.29016899022 -0.48487722707 0.12382646821 -0.3092037227 -0.44127350452 
0.11635784266 -0.25773773438 -0.49418666086 0.07973086787 -0.24366552666 -0.48290671235 0.046148815898 -0.22750841029 -0.4408295064 
-0.017155169524 -0.19861273943 -0.35516524758 -0.083596047526 -0.17881348653 -0.25684386361 -0.15533831294 -0.16087144338 -0.15158247713 
-0.23401144933 -0.13062388259 -0.055375269514 -0.28085960402 -0.1202575004 0.046003351621 -0.33425631095 -0.1258271936 0.14247259953 
-0.35200738696 -0.11965881173 0.23005180673 -0.35548610509 -0.1440943505 0.28077134298 -0.33675306559 -0.17444155671 0.30808338547 
-0.30264030422 -0.20357464971 0.31268816155 -0.26832770666 -0.2334066044 0.29787867564 -0.14564944815 -0.26871684362 0.31483890529 
-0.16296705258 -0.28077761222 0.30890160604 -0.14104515351 -0.26697927117 0.30204187131 -0.14087799139 -0.32497865113 0.27528840593 
-0.13050185155 -0.39667135826 0.24907174832 -0.12223870368 -0.4485913904 0.24156001553 0.28509318309 -0.72203880491 0.24439749516 
0.19670539074 -0.68073275371 0.2702669237 0.37653533963 -0.73780011746 0.17763304189 0.45950627542 -0.72547917619 0.083174161768 
0.52163125791 -0.67807609242 -0.049918019877 0.52559830007 -0.61485223302 -0.14918732352 0.49724591916 -0.54587326131 -0.20536933908 
0.45296162562 -0.48662709686 -0.21493208933 0.39934265982 -0.44809739994 -0.19059486098 0.38272977012 -0.43625069797 -0.1768622127 
0.37162177021 -0.40239295073 -0.20001984558 0.37558946282 -0.33483995604 -0.27363873459 0.37449430299 -0.28474116723 -0.32574160973 
0.34879900653 -0.25217443087 -0.33643321033 0.31602762832 -0.25609692997 -0.34232554957 0.29792652344 -0.29600115491 -0.32445987795 
0.29187983624 -0.34587623715 -0.31198524336 0.29215592816 -0.38686582448 -0.3104081684 0.28878485158 -0.4012147021 -0.32073698055 
0.28077977669 -0.39439000235 -0.33726611997 0.24894240221 -0.39274235245 -0.35213210735 0.17261585548 -0.38054029012 -0.38567711215 
0.098899993822 -0.37627527444 -0.40727258166 0.059651260644 -0.30048323619 -0.44992100351 0.038066120311 -0.36341871279 -0.40860824827 
0.056407920647 -0.280722355 -0.48011360537 0.057589732203 -0.57989826745 0.28297797224 0.14655260654 -0.63489742718 0.23766636567 
0.034671551438 -0.5633111932 0.24226507997 0.091730568292 -0.59974209814 0.22812876878 -0.20161962272 -0.26976088126 0.29415553536 
-0.24957645136 -0.29938454935 0.27261182656 0.054372711166 -0.45399768219 -0.44278111696 0.14272723888 -0.42135112694 -0.34135347357 
0.20830981514 -0.39869870116 -0.25468813491 0.24193150417 -0.39867915403 -0.18208745597 0.2677503983 -0.42680592948 -0.1223801533 
0.28201552453 -0.47736981055 -0.087312867947 0.30929487395 -0.54038929701 -0.051710612213 0.27944984196 -0.58519480686 -0.048560690923 
0.31438343479 -0.60210204067 -0.037600190878 0.24880410587 -0.57538305061 -0.061044158077 0.24555807569 -0.59563686431 -0.0746734818 
0.25632193686 -0.64372346593 -0.083048660589 0.27922687167 -0.69014159095 -0.06855975373 0.30507736865 -0.73690207528 -0.056291669246 
0.32525538828 -0.76616520234 -0.045889661769 0.32837700646 -0.78795925473 -0.036049411949 0.30636651663 -0.76813442301 -0.027294237853 
0.28258197156 -0.73268691825 0.0067742250892 0.24077072399 -0.66796317872 0.047310265209 0.20029480774 -0.58728563535 0.087025857347 
0.16691640006 -0.48696940927 0.11401980561 0.14583402459 -0.37974063642 0.11920156146 0.14489379352 -0.29421294131 0.11251066453 
0.164037083 -0.2178954457 0.091203033966 0.16698233822 -0.17399360982 0.051611346783 0.15847626907 -0.14479367472 -0.0042111437093 
0.14495443717 -0.14721138458 -0.077510914761 0.13687801857 -0.14922294677 -0.14003353722 0.14675950684 -0.1636682675 -0.18787516729 
0.16097029724 -0.19321453747 -0.22465810591 0.1804601195 -0.24808994009 -0.24223982632 0.18275717179 -0.30327118301 -0.23704566169 
0.17635976934 -0.36228374939 -0.20963894999 0.073616527777 -0.45586054533 -0.14248187625 -0.0081537327054 -0.39714357673 -0.16383340417 
-0.081298937817 -0.35230219419 -0.16683103409 -0.14549119437 -0.32194287292 -0.14632123314 -0.20174163482 -0.29621334881 -0.11155008059 
-0.23349895588 -0.29499649999 -0.076736620074 -0.25515132455 -0.30194633397 -0.04336682729 -0.23003890503 -0.35216653122 -0.039761164841 
-0.19945369307 -0.40787427042 -0.059318141896 -0.15762152845 -0.46963497524 -0.10064209058 -0.13032237534 -0.52134159278 -0.18555903445 
-0.11031607276 -0.5513898651 -0.27181385229 -0.097003616762 -0.56191999476 -0.34382143614 -0.098577159697 -0.5521949662 -0.39811444478 
-0.099564789645 -0.53891029348 -0.44547201089 -0.10104834544 -0.48992062792 -0.46123592176 -0.11388415131 -0.46851901853 -0.47365704028 
-0.1581021519 -0.46584228274 -0.46371372071 -0.055058310678 -0.59596302513 -0.58378861913 -0.090131874411 -0.52365898864 -0.55840999144 
-0.038028339731 -0.6800656921 -0.59165857965 -0.036441139014 -0.7776215618 -0.5824462493 -0.050996729812 -0.83118218738 -0.59092464796 
-0.065303469004 -0.84292056326 -0.60340290161 -0.06977668813 -0.79063778444 -0.60861700179 -0.10220619016 -0.82036908584 -0.57973405647 
-0.12248935316 -0.83255314445 -0.55025084646 -0.10698409272 -0.81513246047 -0.52138283693 -0.031202179445 -0.77642764202 -0.48497542156 
0.10121109239 -0.63707135753 -0.44862128808 0.073790923924 -0.72252098993 -0.44198063352 0.13161130384 -0.55972000362 -0.42003584044 
0.1882600347 -0.49318394352 -0.35282356289 0.25817673782 -0.47046589632 -0.26083731751 0.30679973662 -0.45765513053 -0.18199562743 
0.32231862757 -0.45490735413 -0.12956872389 0.32670841743 -0.4716488769 -0.09234326692 -0.1255314628 -0.89535697734 -0.48144241526 
-0.17656052548 -0.92779324971 -0.50124148904 -0.063823001742 -0.84581196564 -0.46437218713 0.03644810191 -0.78258371429 -0.43581594823 
0.17217527102 -0.66305679795 -0.4012629473 0.15584716808 -0.70512950825 -0.41221394955 0.20197652877 -0.59864121398 -0.38550197119 
0.2358616716 -0.54721926508 -0.35570880003 0.28537972899 -0.51290706861 -0.28678762451 0.34131179253 -0.49859784891 -0.20048127517 
0.3775490422 -0.51116816244 -0.14032951674 0.39842103307 -0.52189525475 -0.093940167284 0.37300231417 -0.5379564087 -0.076087577571 
-0.14554775338 -0.48612513992 -0.49275874123 -0.20844264517 -0.46065430884 -0.43087661117 0.048304067289 -0.27159129013 -0.50011793165 
0.018371348291 -0.25821386726 -0.47626886909 -0.015078598121 -0.25079858241 -0.43658237157 -0.063780464137 -0.24589395662 -0.36324472677 
-0.12465739316 -0.21666365922 -0.27924858572 -0.19368519858 -0.19582676379 -0.18111567356 -0.2608510908 -0.1753637594 -0.091482692475 
-0.31833428216 -0.17053070379 0.0071882194407 -0.36296637928 -0.17079060708 0.10220858299 -0.3702847672 -0.18255861073 0.17617510241 
-0.38491585635 -0.21207264939 0.23794659051 -0.37117954904 -0.23151171463 0.25932790364 -0.34906886831 -0.26492502117 0.2772859833 
-0.31318538642 -0.30179023164 0.26707791387 -0.29129416494 -0.32941843403 0.24593877788 -0.25643278024 -0.3457630555 0.23289921783 
-0.2882475188 -0.36765223169 0.20955364736 -0.22291463714 -0.31479558699 0.25152141014 -0.19802606326 -0.30333002587 0.25440362019 
-0.18540350959 -0.3161729242 0.24007181921 -0.18271705664 -0.31381529184 0.2225189544 -0.18793209178 -0.37015835967 0.19714782346 
-0.17455695215 -0.42205917373 0.19310326548 -0.15419333741 -0.47028508356 0.19497871456 -0.080073513737 -0.48403608901 0.24510157011 
-0.1152126145 -0.48339830362 0.20254898526 -0.019813985587 -0.52580925608 0.24614229785 -0.058643480653 -0.51267134993 0.20833441733 
0.013599173667 -0.55101485915 0.20301376069 0.093261506062 -0.59193778797 0.1926975186 0.18103161572 -0.65163331041 0.18673188699 
0.27621291073 -0.71401467524 0.18065199893 0.3871951036 -0.76428760637 0.1501567315 0.49736796151 -0.78192435344 0.081145030973 
0.59495013166 -0.77671611977 -0.0054975769461 0.63030568834 -0.74473031184 -0.11186535429 0.62241738291 -0.67775009012 -0.19712444633 
0.57576463371 -0.6073289756 -0.24574848355 0.50381284663 -0.54341297499 -0.24870638192 0.41639246228 -0.48100239773 -0.20435898247 
0.37167114603 -0.46535187598 -0.15993668699 0.33257238883 -0.45588593119 -0.12393747776 0.37059733609 -0.3227664636 -0.31504496884 
0.37527396041 -0.36279445593 -0.26088083298 0.33524869446 -0.30422578885 -0.35265608263 0.31127808177 -0.30283987064 -0.35791486568 
0.28102169632 -0.33979911948 -0.35132870655 0.26191571109 -0.39561502667 -0.33996326284 0.25143756467 -0.4500923494 -0.33431761394 
0.23774271409 -0.48058398585 -0.33958752949 0.21124751454 -0.49186748664 -0.34541455184 0.16323452505 -0.49926846993 -0.35002888508 
0.10940109995 -0.48794935961 -0.36871834518 0.046315596493 -0.46336257083 -0.37060892373 -0.012399326167 -0.44020373425 -0.37182862721 
-0.0053689742696 -0.34052405186 -0.40670425521 -0.04563895234 -0.4118571262 -0.38160242729 -0.0027938659763 -0.30918402067 -0.43713559234 
-0.0074285358583 -0.27750012064 -0.47449416242 0.36296195078 -0.4155963562 -0.18981786157 0.31826805937 -0.48301650214 -0.085273167815 
0.37931526745 -0.62057300555 -0.046720528997 0.3390806214 -0.54842958594 -0.058666498631 0.3218507451 -0.66069811056 -0.018378858073 
0.38767888975 -0.67052235981 -0.032168632293 0.28170735397 -0.65275782348 -0.028398708764 0.26399906971 -0.64670662597 -0.042055295725 
0.25269451366 -0.65883854504 -0.045499428234 0.24144337969 -0.67610951428 -0.034538530645 0.25933487668 -0.71405800289 -0.0069587999214 
0.27623837829 -0.74513965499 0.027160163003 0.29876589545 -0.78164215337 0.026515591787 0.30683241732 -0.80967150771 0.022949969775 
0.29749611449 -0.7960122112 0.02114650112 0.28206864493 -0.76682037735 0.048497635191 0.25793296953 -0.7278595885 0.09485598726 
0.22811626106 -0.68122951844 0.13540713191 0.18338721266 -0.59329864563 0.15420949313 0.13382567407 -0.50327571398 0.16042112102 
0.12959563969 -0.42928662287 0.14635759765 0.13194426318 -0.36375224627 0.13640549255 0.12960028344 -0.32831133246 0.10879686349 
0.113857111 -0.31098009304 0.065278353399 0.099687119011 -0.31389449113 -0.0031464967968 0.090226262087 -0.31199510099 -0.060957195808 
0.10125678306 -0.32056150065 -0.10485115365 0.12205356495 -0.3413231359 -0.14265628455 0.15718747264 -0.37952814242 -0.1614216872 
0.17623464214 -0.43488219541 -0.15128519723 0.16925858322 -0.50339919948 -0.12030208724 0.087576605295 -0.5707610194 -0.054572272522 
-0.15990882764 -0.47765480974 -0.00600226652 -0.096557758434 -0.52480236777 -0.0082734842358 -0.21722988243 -0.44932697442 0.012074557388 
-0.27674152789 -0.42611119666 0.038261490178 -0.30502555665 -0.42339255537 0.072003354446 -0.31947929752 -0.43616780212 0.10044644384 
-0.29475854798 -0.48627768624 0.1002108298 -0.2739740514 -0.53442894889 0.07601104921 -0.24449348829 -0.58404223466 0.032760287473 
-0.22666056861 -0.63401699138 -0.058483645429 -0.21143036151 -0.6572220846 -0.16615606061 -0.20470841035 -0.6475288024 -0.26660351692 
-0.20287238717 -0.62544608873 -0.33862484887 -0.19808149045 -0.59502720377 -0.39799243367 -0.20030795649 -0.54252664882 -0.413355853 
-0.20547672176 -0.5007700659 -0.42312845454 -0.20948243446 -0.48868634065 -0.42834672641 -0.2360279584 -0.47879258817 -0.39813089308 
-0.22835404894 -0.46303701082 -0.39348514381 -0.26757365748 -0.46366313537 -0.36881657007 -0.1721502885 -0.50469187785 -0.45045286664 
-0.12959422386 -0.54483266693 -0.49467401712 -0.10305872047 -0.61340832878 -0.50854359508 -0.087320733034 -0.69530589289 -0.5047859872 
-0.1007429091 -0.80349305973 -0.49593685359 -0.12487851077 -0.87883264127 -0.51237767709 -0.127961205 -0.90516127634 -0.5507609699 
-0.045126157206 -0.59136020712 0.0077918674539 -0.0015830872564 -0.64334615371 0.022851480163 0.41832284458 -0.60753012485 -0.064881574188 
0.44254835565 -0.66371012742 -0.048156557568 0.3527510617 -0.71258905767 0.012914519625 0.41075058204 -0.70077843946 -0.0066477890705 
0.30534604526 -0.70929459598 0.0061981625259 0.27462680151 -0.6875716687 0.0062848775596 0.25043009376 -0.6690077128 0.0018471367172 
0.23294290799 -0.67949139612 0.02062085679 0.21990402762 -0.69771930338 0.050248230928 0.23707700123 -0.72596519393 0.091808828231 
0.25552385055 -0.75292544128 0.12842946433 0.27304874063 -0.76461282589 0.10960651036 0.28915382595 -0.77400362064 0.086492487854 
0.29408806782 -0.77533714634 0.057761355443 0.30048948992 -0.76916388923 0.059564274002 0.30738796409 -0.75765450946 0.094303675684 
0.28188468756 -0.74523755007 0.12809369587 0.21103928602 -0.67212367593 0.16436756089 0.15496362428 -0.61539091211 0.16934076263 
0.1292030225 -0.55939390807 0.18109265056 0.10882483076 -0.49677626247 0.1891606843 0.07454946685 -0.46616582178 0.16558115916 
0.050993017937 -0.44264495839 0.12968952496 0.033905208196 -0.44446472044 0.086658283058 0.02493186325 -0.44458008592 0.031957691828 
0.03578851296 -0.44792705112 -0.032760818997 0.063725206965 -0.45776773468 -0.075954341011 0.11645803906 -0.47449169067 -0.095150524114 
0.14901012446 -0.51899726436 -0.094874463357 0.16001496451 -0.57865992207 -0.073952135368 0.10556821455 -0.62872151576 -0.029241520034 
0.010691020951 -0.65298343978 0.013841879344 -0.093124909526 -0.65751810141 0.055283324003 -0.068616313467 -0.66420213837 0.046903127591 
-0.13188671704 -0.6285413115 0.067482838493 -0.1779702312 -0.60248220225 0.083028995011 -0.23041617335 -0.5727751855 0.097938322616 
-0.27080675487 -0.54823910627 0.11802958575 -0.32177251884 -0.52627817124 0.14330740532 -0.34545823698 -0.52811165443 0.17239262047 
-0.36404416494 -0.53910172083 0.20137122579 -0.35296920736 -0.58136289443 0.19838056706 -0.33280494786 -0.62247051246 0.16817509219 
-0.30103572429 -0.66468079739 0.10102713082 -0.29845243871 -0.70013979964 0.003687401142 -0.2758967519 -0.69784952214 -0.12039367722 
-0.26339678246 -0.67848683766 -0.21812476152 -0.25894654085 -0.64094324429 -0.29826765758 -0.25258473925 -0.60091746736 -0.37033215346 
-0.26233109897 -0.55400560504 -0.36881237793 -0.26058008663 -0.50841552958 -0.37689966165 -0.27916936058 -0.48577334774 -0.36386251266 
-0.28915753305 -0.43501277121 -0.35804340981 -0.28140251982 -0.45411602586 -0.36731018999 -0.24248775346 -0.45887039723 -0.37346928227 
-0.18271512618 -0.48755607548 -0.40354937627 -0.14774168381 -0.54165256248 -0.44269032653 -0.13405538238 -0.57677260412 -0.42714910567 
-0.12053556812 -0.64961931171 -0.41675752523 -0.13738318971 -0.77416284608 -0.41106444305 -0.18478735579 -0.89231516844 -0.44556590109 
-0.020866772868 -0.2699099122 -0.49208251264 -0.042580157931 -0.28257224969 -0.48395486988 -0.063829928035 -0.28501635936 -0.44013618361 
-0.094248137577 -0.27351273355 -0.37617736191 -0.14721523951 -0.25014056451 -0.29618692568 -0.20289160315 -0.22732816117 -0.2160740511 
-0.26245668318 -0.21747451889 -0.12517235138 -0.31343649207 -0.22237720409 -0.029662415635 -0.35705553158 -0.24002939058 0.061131227082 
-0.38483194445 -0.26481815609 0.12521136909 -0.39580838753 -0.2971217221 0.18530589004 -0.39096432751 -0.32390190234 0.23331397058 
-0.37080540723 -0.3309331698 0.24007476097 -0.34324599323 -0.34217616936 0.23644647151 -0.31832055795 -0.35251790616 0.22616976773 
-0.31676206502 -0.39920802493 0.20189962723 -0.28561067842 -0.42392524701 0.15944612601 -0.30797212718 -0.47468859424 0.18403738451 
-0.25240372829 -0.38667635777 0.18385388041 -0.23761772552 -0.36958532501 0.20361960653 -0.21949545655 -0.35176104267 0.2033970807 
-0.22108731662 -0.35115857461 0.17765254354 -0.22250657136 -0.36905827374 0.15407966171 -0.22783526361 -0.40726308011 0.13297791186 
-0.22646540303 -0.44098996722 0.13176630931 -0.22255206816 -0.46757081113 0.14535227478 -0.16824118344 -0.47716879899 0.16442827675 
-0.098278765589 -0.50196225041 0.17328033716 -0.018326426115 -0.5408729115 0.16687855964 0.077641907368 -0.59032115162 0.15502179164 
0.18562320455 -0.65184848039 0.13529256731 0.30320885425 -0.71420144467 0.11640585768 0.43761810691 -0.76177226383 0.086382070647 
0.54539970063 -0.78583194406 0.022138212119 0.65216419592 -0.78186939619 -0.049183289781 0.70705344444 -0.75488857302 -0.13303207439 
0.67858706584 -0.70828965341 -0.18782242984 0.61097010185 -0.6414318183 -0.22418842744 0.52867803596 -0.56218158233 -0.23032055623 
0.42619546701 -0.51121554385 -0.17488523442 0.34590290272 -0.50104585109 -0.099759445918 0.28324805689 -0.50950385316 -0.018487588232 
0.26615379024 -0.54873472052 0.027862167494 0.33815784055 -0.502979135 -0.065156656574 0.29456023117 -0.57243460158 0.039561832736 
0.37716387575 -0.44077732913 -0.16541895709 0.39442724841 -0.38807467108 -0.23661683529 0.3825100299 -0.36043036215 -0.29056173711 
0.3558480733 -0.34537091657 -0.33992011593 0.3203095417 -0.36033452711 -0.36591723693 0.28855937582 -0.40716055433 -0.37025637811 
0.25611507705 -0.46537286975 -0.37168264093 0.23237985337 -0.53537978584 -0.36589973401 0.2011587962 -0.55706774856 -0.35865125329 
0.17100539892 -0.56541076406 -0.35517843804 0.11526300197 -0.57683774189 -0.35435366481 0.050477361203 -0.5895334147 -0.35520090511 
-0.012470900708 -0.57071406782 -0.36426450165 -0.059531947083 -0.55387132276 -0.35463930312 -0.08833165724 -0.50346412406 -0.3441757265 
-0.071193598193 -0.35676863533 -0.37289904219 -0.10547185958 -0.43158253264 -0.33763320973 -0.039588388912 -0.32268395045 -0.4098975059 
-0.053025572826 -0.29965955055 -0.43327232232 -0.073704662249 -0.26455623345 -0.47401760653 0.2492694465 -0.70933417804 0.041534187874 
0.20787844483 -0.71789995974 0.12498231006 0.21701988283 -0.72728558324 0.17218711174 0.22385193466 -0.73140310918 0.21405877026 
0.24862160505 -0.73275717195 0.18418045996 0.27289168034 -0.7370194666 0.15143710787 0.2951119909 -0.73049967104 0.10677199456 
0.31651863039 -0.72297254728 0.075460724052 0.35501172952 -0.72858349681 0.083851803384 0.40793159979 -0.73641620554 0.080125618967 
0.17716277126 -0.66477163925 0.1631953275 0.25158344672 -0.70038722871 0.14488564693 0.15070261371 -0.62862902123 0.17873880998 
0.10157755148 -0.59607235198 0.18549567778 0.065014365225 -0.56175049864 0.19565981311 0.027835931253 -0.53424317484 0.19413980841 
-0.0069273945262 -0.53859292442 0.15002225121 -0.028825350772 -0.54004392292 0.097646494653 -0.024165183623 -0.53953413216 0.029207501733 
0.0018626732596 -0.54273360972 -0.026455802226 0.064263445186 -0.55257578818 -0.04877033142 0.10692534915 -0.57557969686 -0.057049121064 
0.10847093895 -0.6090249883 -0.042004149993 0.087391715387 -0.63525626138 -0.022620221814 0.004605662438 -0.64277875839 0.0097955732938 
-0.092077321372 -0.63005288275 0.037897431134 -0.14979768213 -0.62125251421 0.063436573959 -0.15458006552 -0.57749218002 0.048094660108 
-0.1519795344 -0.65355975996 0.077374435663 -0.17353160505 -0.6426348058 0.089283843628 -0.20704286527 -0.636332147 0.1179336934 
-0.25108848983 -0.62156909977 0.1408005284 -0.30384873483 -0.60382978099 0.16553786296 -0.35073991628 -0.5831612882 0.18681930754 
-0.3657476623 -0.59201898362 0.21159202795 -0.38000753992 -0.59561229015 0.234533091 -0.37258670495 -0.62730874808 0.21295852648 
-0.36015313621 -0.65568436888 0.18732411202 -0.33738542845 -0.68830328104 0.13015056285 -0.32972112555 -0.70271489589 0.062954041579 
-0.31024872933 -0.655613752 -0.21009310999 -0.30276031753 -0.6843685894 -0.12619314421 -0.30313170413 -0.61517290662 -0.27999397839 
-0.29847750963 -0.57116639908 -0.34760538988 -0.29045421862 -0.52286551416 -0.3555363245 0.33136171602 -0.74881168875 0.12854868704 
0.44486575963 -0.74815020369 0.068962576463 -0.28066613587 -0.48850568975 -0.377771733 -0.25951124756 -0.41349993609 -0.38836747481 
-0.24792575802 -0.44641481202 -0.40311745568 -0.2595228031 -0.39479652207 -0.36932042459 -0.22303350059 -0.41605504127 -0.36482320966 
-0.17614807684 -0.51360097255 -0.3795570287 -0.093176322834 -0.27682643741 -0.48374679186 -0.1044943043 -0.29189047967 -0.48102214924 
-0.11691300844 -0.29663546784 -0.4334597865 -0.12859610614 -0.30018354324 -0.38711911518 -0.16035464643 -0.28673916611 -0.32126594063 
-0.20096328425 -0.27591520517 -0.24991696486 -0.24765570764 -0.27555906064 -0.16455056384 -0.29360652398 -0.29003574325 -0.077724690695 
-0.33843897022 -0.32669429918 0.0052262606605 -0.37072683291 -0.37479684708 0.071824096934 -0.39315023624 -0.42178796887 0.1395660957 
-0.39546261478 -0.43389787632 0.19296094305 -0.37937634195 -0.42060458547 0.20815113981 -0.3503598394 -0.41975015722 0.21418402258 
-0.35765548136 -0.53152739775 0.18866320383 -0.30547362548 -0.5333993206 0.13609867715 -0.34115734854 -0.57260596102 0.16755570725 
-0.28271450653 -0.49201291362 0.12217179404 -0.25258610522 -0.44248806007 0.12887940602 -0.23949928911 -0.41633191838 0.15422770775 
-0.23133129162 -0.40931288415 0.16275307194 -0.23449764549 -0.40889899669 0.1297990462 -0.23933822486 -0.4129453869 0.10112289968 
-0.24629437689 -0.44626169164 0.083995553456 -0.26084418003 -0.47104398435 0.083835765971 -0.27279636471 -0.51175740693 0.10020881707 
-0.20445250947 -0.51263117505 0.14008896821 -0.12864140276 -0.52583372316 0.16033029359 -0.038124071113 -0.54515743354 0.15865545869 
0.064259697248 -0.58467992364 0.14752250238 0.17430185383 -0.64104110068 0.12617862414 0.28781308661 -0.69805718891 0.098941300108 
0.40522484435 -0.75533143034 0.063395220258 0.5376678371 -0.77825969035 0.025916938838 0.65011424095 -0.77571683019 -0.019184743475 
0.68859123526 -0.74432217394 -0.095821855255 0.67493876298 -0.68971399375 -0.15798833548 0.6164920196 -0.6301643227 -0.18680343907 
0.51225851291 -0.56791975606 -0.16772513262 0.40294836564 -0.52578771045 -0.10080936041 0.30334291849 -0.52066456955 -0.013197134286 
0.23927137356 -0.56129717928 0.073370836423 0.2256858736 -0.60535200197 0.11726757332 0.26281313079 -0.64262135969 0.11403276875 
0.35012014605 -0.5965001751 0.018299270914 0.30900582088 -0.67278636234 0.084061804212 0.38532004979 -0.52257552662 -0.064706268609 
0.39067917748 -0.45883361025 -0.1376628425 0.40240495992 -0.41191194116 -0.20564893848 0.38331515991 -0.39100400533 -0.26959498427 
0.35231398805 -0.38463544559 -0.32874262747 0.31417474635 -0.40668378538 -0.36830609656 0.28720372015 -0.44715790216 -0.37104274947 
0.2574710469 -0.50954591991 -0.38434762535 0.20783113645 -0.60311601711 -0.39049086255 0.16271716221 -0.61433849547 -0.37716101077 
0.13580744545 -0.61237014074 -0.36853847819 0.092197035849 -0.64347728232 -0.3689661218 0.011368429986 -0.67568106551 -0.37194956485 
-0.064163243464 -0.69501161849 -0.37114951753 -0.11708104296 -0.67538088793 -0.3618616944 -0.14207674448 -0.63182121777 -0.33529440673 
-0.14020415129 -0.54306920595 -0.32265296134 -0.14146529758 -0.37837060063 -0.3556703054 -0.15913465025 -0.46441898466 -0.32857991391 
-0.10671037894 -0.32218249216 -0.39915303148 -0.18345762239 -0.9033829161 -0.43430469272 -0.091881175737 -0.85463885359 -0.42581321256 
0.016155954078 -0.80904925608 -0.41449943655 0.12379921956 -0.70559526953 -0.39785152988 0.22755860512 -0.6136526501 -0.38436375926 
0.2536362068 -0.58495842398 -0.37815529542 0.27512269914 -0.54140538102 -0.34999346494 0.30421503533 -0.51492668971 -0.3204273316 
0.35713658897 -0.50525989422 -0.25754658668 0.42164303629 -0.50599054307 -0.18500924617 0.45465612527 -0.54804572239 -0.12921149817 
0.45196615563 -0.57912295286 -0.087970871994 0.46583299818 -0.62989711811 -0.070301680926 0.44813212627 -0.66462216767 -0.038488902773 
0.34516725037 -0.73666076353 0.059411031052 0.38326233105 -0.67507990156 0.026649439382 0.30439712682 -0.74212852906 0.085533676369 
0.26533300786 -0.73188329465 0.075753016111 -0.16314047709 -0.33816330009 -0.45763452979 -0.15662169832 -0.31347236023 -0.44939253688 
-0.15615764551 -0.34587267875 -0.44234850474 -0.16166300878 -0.33741601255 -0.3981053134 -0.17273361284 -0.33510268982 -0.33977903813 
-0.19468796803 -0.34571090842 -0.28109295523 -0.23511350075 -0.35417100984 -0.20466310707 -0.27653242975 -0.37388690803 -0.12386630067 
-0.31965592233 -0.42474911501 -0.046580948628 -0.35348199299 -0.49244896496 0.029244214294 -0.36323614341 -0.56767144119 0.0986536814 
-0.38391439232 -0.55044167218 0.17709728527 -0.37889108363 -0.5383329861 0.20125829698 -0.32115017017 -0.60177027007 0.15839667019 
-0.35906410167 -0.59113148548 0.18932233527 -0.3671604298 -0.58951258818 0.20047280322 -0.27692050712 -0.58738418797 0.11353363104 
-0.25743361443 -0.53144494376 0.098395020469 -0.25009897242 -0.49627506014 0.10213907376 -0.24103569593 -0.46916000955 0.11412670057 
-0.23305069339 -0.45644675902 0.12412027839 -0.23152661483 -0.46313787592 0.087656205903 -0.2423821103 -0.44878263236 0.06728793526 
-0.2586763612 -0.46805642325 0.056277900615 -0.27011766404 -0.49353960064 0.048757252611 -0.26697906842 -0.51939387266 0.064450933226 
-0.11727075503 -0.546902311 0.16828067031 -0.17721695865 -0.53867456109 0.13737715373 -0.051644542975 -0.55509920828 0.17110681931 
0.03686477313 -0.58754850268 0.15676945284 0.14380628517 -0.64275230351 0.13048926891 0.2513121256 -0.69257931138 0.099069297355 
0.36160154671 -0.73181606728 0.069705826677 0.4722289741 -0.75563462941 0.040853118611 0.56677510307 -0.76657969143 0.015970382678 
0.59870127974 -0.7157047315 -0.018495260775 0.57231023499 -0.63437772227 -0.10718705919 0.61726282538 -0.67938521625 -0.089213782214 
0.48037742086 -0.58163274176 -0.078508490363 0.38051146405 -0.5645980949 -0.01383013271 0.26931838414 -0.55486382104 0.074362042939 
0.21858247173 -0.62115827426 0.13332304308 0.1779865582 -0.67639086183 0.19288118823 0.2228177377 -0.69689697626 0.16772977888 
0.27020829721 -0.73743963403 0.13421599337 -0.23233904944 -0.54161520149 0.097625163811 -0.22388104022 -0.54289765014 0.057047968632 
-0.32245409354 -0.70692133312 -0.043838054129 -0.33683264745 -0.68185452632 -0.0002537422497 -0.1374589772 -0.56032726501 -0.34943411149 
-0.14495382298 -0.67429151805 -0.35118754418 -0.1499750593 -0.77607491923 -0.36461495156 -0.13797457494 -0.8053441388 -0.38519248857 
-0.091319091952 -0.79806037431 -0.3950153232 0.0035979039754 -0.74763352975 -0.3953912411 0.09247791216 -0.69991966511 -0.38646786818 
0.20869893351 -0.74372346479 0.17270639506 0.18902824996 -0.73986108984 0.22647358791 0.18811682091 -0.72753723124 0.25523699796 
0.22389816703 -0.70684322955 0.22542088115 0.26836061329 -0.68532886013 0.17360225519 0.30795690125 -0.68279075387 0.11550416181 
0.35660098178 -0.68414749034 0.058002678755 0.41394144776 -0.70110173708 0.044909371026 0.49679197751 -0.70049294901 0.019259431583 
0.44899667758 -0.75532689047 0.069576616153 0.35547699446 -0.74809180664 0.11026664733 0.29102639287 -0.7337391924 0.12761114211 
0.22147025638 -0.70601304797 0.14772208462 0.16320423339 -0.66049358168 0.17105783268 0.10314193199 -0.61809258647 0.19167581047 
0.053864951258 -0.59126127061 0.20345323188 -0.0058331073621 -0.5691785813 0.20677417172 -0.048134901304 -0.57163011118 0.1683913776 
-0.081093995202 -0.57025169719 0.12773573816 -0.079177706995 -0.56453421378 0.069459349644 -0.063473623778 -0.56596195765 0.01932403456 
-0.0081611683318 -0.57298864652 -0.016629787245 0.028855516155 -0.58511934156 -0.038194010413 0.034967463658 -0.603198266 -0.027360622248 
0.025747443679 -0.61333433394 -0.01534972253 -0.03487794531 -0.61221242502 0.007119956728 -0.10571890015 -0.5823527733 0.023063323791 
-0.14740303245 -0.55024826068 0.040157754278 -0.19352306116 -0.57672242062 0.066695324069 -0.19324998227 -0.54575963632 0.064602905067 
-0.21145015184 -0.6058724975 0.083151213687 -0.22032880693 -0.63287131678 0.099277757935 -0.2317718088 -0.63219136837 0.11274924561 
-0.2677741443 -0.62205156932 0.13073709366 0.48002697059 -0.57429975083 -0.10650171187 0.44845931476 -0.59569561117 -0.067765638704 
0.41905968112 -0.59719954416 -0.032195055655 0.41481162923 -0.53135074295 -0.085248039595 0.41158879606 -0.4796240728 -0.12799978617 
0.42929457335 -0.44957619136 -0.17166545194 0.40070870856 -0.4531495375 -0.23781584117 0.35849074883 -0.43515822955 -0.28625234251 
0.34063127675 -0.46138765925 -0.34098821416 0.28708312569 -0.50710331615 -0.37293516246 0.26364061824 -0.5448907847 -0.38939288145 
-0.37334583434 -0.58363694208 0.21480219166 -0.37161495508 -0.61665176002 0.19982633678 -0.37071915223 -0.63471190317 0.16299646892 
-0.34998343648 -0.66185027817 0.11483542814 -0.3381764073 -0.67994158059 0.074045824168 -0.33618722462 -0.63533109906 0.035111060662 
-0.32335756171 -0.64045399518 -0.05346514015 -0.3282820366 -0.58569285228 -0.01783170408 -0.32515528872 -0.66928617201 -0.076552538658 
-0.31467596705 -0.64382633808 -0.13531381144 -0.30400593775 -0.60731798611 -0.20852813599 -0.29408220508 -0.56768961402 -0.27150607516 
-0.27722813048 -0.52746122104 -0.34181875709 -0.24089225248 -0.46249233267 -0.35657639202 -0.2061057255 -0.39380769203 -0.42674525338 
-0.2035200886 -0.3928081758 -0.38629809661 -0.21182495661 -0.37062912819 -0.42861342863 -0.2165774446 -0.34119951099 -0.41084733418 
0.35156866516 -0.48217043008 -0.29733926677 0.37193032025 -0.468054755 -0.25503292202 0.42157592108 -0.50668643107 -0.18086729241 
0.22364504626 -0.76946633933 0.18373557515 0.37732841871 -0.74622241833 0.080508896274 0.29244383533 -0.73497208965 0.10043049929 
0.20521904937 -0.68412458221 0.12801826191 0.11314332858 -0.63221622267 0.1568270272 0.028382585262 -0.58811934589 0.18424298999 
-0.03693841006 -0.56702588157 0.19945950961 -0.088115910395 -0.57110244756 0.1879551604 -0.14137132061 -0.56847232296 0.14851080318 
-0.1692204932 -0.5668070892 0.092426070549 -0.16021505603 -0.56815953307 0.042932716674 -0.10864627279 -0.57206974099 0.0074682588951 
-0.069950544121 -0.57340926081 -0.019194382223 -0.11522145649 -0.55266700093 0.020667286978 -0.067147230521 -0.58763437489 0.0052410111651 
-0.23015239816 -0.58312555787 0.081620079853 -0.2218161176 -0.5350589475 0.079946560622 -0.2485271077 -0.61521334423 0.099346127729 
0.18194213248 -0.74171625908 0.23477509133 0.19476492105 -0.70048263681 0.24635938239 0.24333384159 -0.66766273309 0.20734511786 
0.29982920105 -0.6404747484 0.13846413141 0.37418817069 -0.6487894494 0.074307759579 0.43415436083 -0.66173261215 0.025297683251 
0.46777518601 -0.67493540179 0.011241627687 0.53797451101 -0.67293979851 -0.031113557348 0.50501933867 -0.63868601021 -0.040644871854 
0.42754418484 -0.60529319404 0.0054773423195 0.33658572883 -0.59262097242 0.073096185822 0.25124183595 -0.60936388286 0.15258341293 
0.19319857088 -0.66658200746 0.21635744395 0.17004899998 -0.71720407668 0.22616324846 0.1930160075 -0.74079997802 0.20624065781 
-0.30865903957 -0.5904692613 -0.11773562032 -0.29260666938 -0.54106821891 -0.19290134145 -0.26774075363 -0.50743916509 -0.270555828 
-0.2233780987 -0.51175469471 0.087143043973 -0.22491664107 -0.4939442681 0.095793931433 -0.20798531772 -0.51493053096 0.064572203612 
-0.2224210879 -0.50471081473 0.035989971422 -0.20522256156 -0.49251815468 0.041125250674 -0.23175522088 -0.51583757221 0.024987051411 
-0.2302286835 -0.52790278787 0.035471506168 -0.19155099688 -0.54339487603 0.024466106453 -0.31047532218 -0.51866441721 -0.088447904198 
-0.19697689376 -0.37440311026 -0.34691599682 -0.21874565943 -0.39599721024 -0.30717386493 -0.25499190942 -0.42834212076 -0.23601245703 
0.44501493025 -0.53044290567 -0.13301030909 -0.28058432267 -0.46373063702 -0.1652415855 -0.15041893051 -0.53168804158 0.010761722648 
-0.13409713097 -0.53104199369 0.018289710884 -0.16431571483 -0.54088973753 0.00082741680396 -0.06799928399 -0.438224258 0.28927577648 
-0.0091339144282 -0.5079878885 0.30161944335 0.32251126328 -0.49786450515 -0.074151900764 -0.13816772978 -0.28236087626 -0.43868843011 
-0.18708333659 -0.33590162134 -0.38950228486 -0.059290744489 -0.58343786059 -0.0036899565414 -0.062643627743 -0.57984529183 -0.011139470485 
-0.18823797168 -0.50498811413 0.045985775209 
I1_Pt 1 1114 double
1.7933472184 1.8285676121 1.8306746384 1.8052357162 1.846249241 1.8603783099 1.8593691777 1.87488261 1.8540554937 
1.84871144 1.8210154678 1.7951585843 1.7747637965 1.7483379253 1.7519848384 1.7167354265 1.7739460432 1.7456624256 
1.8193603189 1.8085377017 1.8655078299 1.8663329645 1.9153382431 1.9226564272 1.9598467888 1.9314860388 1.916142676 
1.9068464644 1.9098312783 1.9134383773 1.8994260498 1.8830271934 1.9178567281 1.8862951256 1.9531413848 1.9055712873 
1.957238419 1.9099098486 1.9587405354 1.9195055999 1.9734615583 1.9261661462 1.9606802286 1.9117432512 1.9479086003 
1.9025939219 1.9348025918 1.8994914388 1.9185839722 1.8960533432 1.8939348339 1.8755621756 1.850691422 1.8372898309 
1.8293364962 1.7955275511 1.8058289328 1.7853950727 1.7895858994 1.7944279826 1.8148783687 1.8242751477 1.8559782764 
1.8496471779 1.8484784587 1.8681134502 1.8500286367 1.872151901 1.88062818 1.8916342732 1.9252610466 1.8882996498 
1.9038427054 1.888582235 1.9256766354 1.8821557009 1.904504475 1.8477050611 1.8552443898 1.8143394041 1.81895941 
1.8042173069 1.8037884917 1.8012198616 2.0099293998 1.9567580204 2.066820906 2.0599223315 1.9246865632 2.0795828086 
1.9539582703 2.1094716878 1.9960236705 2.1362404622 2.0493481277 2.1684716976 2.0775693575 2.1730468931 2.1104675002 
2.1754018494 2.1530355375 2.1791378098 2.1781793107 2.1754037104 2.1837337006 2.1566160399 2.163158502 2.1222278935 
2.1178770127 2.0797531869 2.0974627856 2.0390188483 2.0987755389 2.0218297444 2.051878489 2.0058989375 2.0207748093 
1.9955358584 2.0011338474 1.996475568 1.9941717694 2.0351926768 2.0593515 2.0737582028 2.1456143673 2.1049054303 
2.1528458285 2.1385979442 2.1576944768 2.1634329117 2.161069806 2.1755342884 2.1633497996 2.1695110536 2.1649146817 
2.1568069473 2.164491413 2.1430649708 2.122742367 2.1280724478 2.0892979573 2.1111112195 2.0678693893 2.1195050831 
2.0975167883 2.1270830592 2.1414617724 2.1358576382 2.1787596695 2.1573590081 2.1881284895 2.1853813786 2.1689803998 
2.2242396706 2.2003013862 2.22921776 2.237782444 2.2329785475 2.2630724649 2.2429768785 2.2610896137 2.2598246377 
2.2373198312 2.2780526834 2.2408037652 2.2739291633 2.2311977308 2.2557350796 2.2009745109 2.2232939173 2.1796743934 
2.194824225 2.1612698238 2.1682415469 2.1322610947 2.1612920979 2.113838932 2.1639734131 2.1185339955 2.1656054161 
2.1513648106 2.1671058567 2.2074098051 2.1707449991 2.2106112186 2.1666838466 2.1982100168 2.1490299964 2.1350592954 
2.1401379409 2.0870904414 2.1355198045 2.081832394 2.142497775 2.0827685775 2.1409538329 2.0900060037 2.1254218135 
2.0575176048 2.0935350751 1.890009451 1.8617184922 1.8971754994 1.8806740429 1.8147949919 1.7416527675 1.7155446924 
1.741999525 1.7960304702 1.8565879129 1.9016084267 1.9130789156 1.9195847908 1.9074686511 1.889108182 1.8821979382 
1.8821761338 1.8869819454 1.9055744727 1.8990691696 1.9039654284 1.9126727688 1.9205786137 1.9162802806 1.8631918404 
1.8253538698 1.7912278436 1.7837252451 1.790782121 1.8096663037 1.8408489089 1.8691185625 1.8810877225 1.8764175211 
1.8830913706 1.8859946231 1.8806807424 1.8598972139 1.8508683706 1.8598388403 1.8729495828 1.8633732782 2.0954880411 
2.0889445994 2.1117570414 2.143696061 2.180539192 2.2032208634 2.1999353953 2.1900636574 2.1869549369 2.1454823969 
2.0975953965 2.0531455237 2.008853152 1.9770348814 1.9572037855 1.9435204196 1.9604480108 1.9996895993 2.0549360151 
2.1065956855 2.1420592979 2.1613769713 2.1669786952 2.158746224 2.1583568837 2.1625618367 2.1422837057 2.1279101755 
2.1195465575 2.1148848259 2.1045144967 2.1137423242 2.117719805 2.1468592755 2.16055242 2.1664034896 2.1748575157 
2.1994335428 2.2271535504 2.2334991323 2.2145262013 2.1945221494 2.1826387794 2.1749397507 2.1812139395 2.1905067002 
2.2006669931 2.2070365264 2.2129998066 2.2168306909 2.2083935843 2.1928084679 2.184417131 2.1815630046 2.173942188 
2.1634294576 2.1322919569 2.1057231193 2.1604278861 2.1499429186 1.8451582321 1.9045683013 1.7874217673 1.7486812236 
1.7452732456 1.7868271514 1.8453172525 1.8943264927 1.9133793788 1.9360211201 1.9193642107 1.9042007811 1.8992182149 
1.8992578266 1.9074174894 1.915362711 1.9122442796 1.9147573307 1.9188349541 1.9235939892 1.9342228621 1.8578009761 
1.8952526618 1.8275805438 1.8199308129 1.8271930278 1.8422977564 1.8634677716 1.8770540651 1.8874920347 1.8865366813 
1.8879978492 1.8932255761 1.9024315351 1.941636673 1.974001835 2.0030951041 2.0103684497 1.9841779275 1.9585018044 
1.942866853 1.9318204021 1.9489325496 2.1510304275 2.130517662 2.1433850847 2.136534133 2.1264610667 2.115288722 
2.1037036692 2.0982299489 2.101103135 2.0751857239 2.0787979536 2.0878379555 2.1045715503 2.1238152471 2.142949386 
2.1384746041 2.1347213863 2.133549026 2.1481965861 2.1633726965 2.1730296425 2.185874904 2.2045805523 2.2367706394 
2.2662764892 2.2595525648 2.2486767744 2.233670589 2.2231935105 2.2128744494 2.1903394539 2.1621882795 2.1265861157 
2.0984430248 2.0909887157 2.1026404935 2.123982901 2.1418237286 2.1731687722 2.1841533399 2.1756096003 2.1643847361 
2.1291475676 2.0963884336 2.0662584287 2.0358783861 2.0102387831 1.9871405611 1.9628843993 1.9480925894 1.952606828 
2.0004194861 2.0532440371 2.1039153133 2.1434459848 2.1682510603 2.1728448992 2.1710715624 2.1271468017 2.0881611899 
2.1202620952 2.0523739843 2.0879986146 2.11114558 1.9615682288 1.9783985643 1.933437473 1.9025952387 1.8767737799 
1.8694727213 1.8755120442 1.8928063644 1.8957293488 1.902460075 1.9033553903 1.9064480842 1.898821672 1.9020481211 
1.9131624199 1.9299808881 2.0558916313 2.0355644437 2.0582903263 2.0493172578 2.0251930668 2.0038405511 1.8562055045 
1.908987723 1.8132032478 1.7876831329 1.7841962826 1.8144736141 1.8532305617 1.8899313976 1.937942764 1.9577004491 
1.9687718813 1.945591464 1.9190160395 1.9094316196 1.917524872 1.9190886561 1.9159326848 1.9090254929 1.8972828608 
1.8908282516 1.9097541436 1.9225914757 1.9251132313 1.9617596977 1.9514758093 1.9756105908 1.9396606708 1.9675456577 
1.9881550575 1.996896949 1.9896442843 1.9543128257 2.1146241396 2.1059407793 2.0995994665 2.0948848208 2.0950093132 
2.1026215907 2.1134614066 2.1229889306 2.1184242794 2.1065094642 2.0781768003 2.0704910361 2.0628456209 2.0619030943 
2.0666277475 2.0653020022 2.060000461 2.0579290173 2.0844939938 2.1120726363 2.1400118967 2.1728784738 2.2076171698 
2.2304641278 2.259261033 2.2841173989 2.2825487811 2.2670781455 2.2403566509 2.2135791785 2.185387592 2.1506526226 
2.1099251797 2.0482299318 2.0553118724 2.0582227322 2.0763466893 2.1030182561 2.1232716523 2.1419285323 2.1527969639 
2.1418634376 2.1031694176 2.0685549714 2.038453935 2.0149746576 2.0022309779 1.987529773 1.9790635043 1.9630754514 
1.95560174 2.0216374844 1.9811256655 2.0555034056 2.081416251 2.1125846672 2.1396383026 2.1525964735 2.1227530412 
2.0779149674 2.0271030475 1.9876022495 2.0113845728 1.9483490436 2.0521623246 2.0727686608 2.0739025849 2.0762551447 
2.0903260736 2.1008768879 1.9522971122 2.004987206 1.9079328727 1.9056120053 1.9347199167 1.8673287403 1.9746280121 
2.0035011969 2.0188800151 2.0215039578 2.0384290141 2.0586626371 2.0968659838 1.9499205328 1.9532146108 1.9518520245 
1.9275231237 1.9097113788 1.8985681057 1.916301337 1.9372722311 1.9398624535 1.9327796823 1.9256599181 1.9126547439 
1.9178732319 1.9127155954 1.9173425891 1.9326902314 1.9414012934 1.9678254258 1.9419871947 1.9908949349 2.0190337528 
2.035058991 2.0422504403 2.040431756 2.0457415968 2.0443297612 1.9847806638 2.0491984005 1.9825793243 2.032189718 
2.018944198 2.0065454645 1.9909697535 1.9642816081 1.9227261797 1.8866934202 1.8555986507 1.8266288103 1.8266463859 
1.8561505402 1.907282877 1.956507169 2.0131787351 2.0375566907 1.9421166064 1.980170418 1.9137455102 1.903908219 
1.8953133205 1.8954482798 1.8914015297 1.8819166502 1.8753966845 1.8767567817 1.9021590684 1.9006602144 1.8936799858 
1.9556835118 1.916960129 1.9753054178 1.9728422978 2.0130842916 2.0633631176 2.1071566034 2.1147966831 2.1163710764 
2.1046393903 2.1109481915 2.1025038876 2.0844277569 2.0599695446 2.0456942943 2.039965628 2.0411460279 2.0367991469 
2.0168649471 2.0044953722 2.0137831128 2.0445332146 2.1099018903 2.1490553559 2.17544879 2.198536294 2.2341892952 
2.2499859932 2.2544935493 2.2525138087 2.2407373285 2.2183687165 2.1812011287 2.1288917305 2.0631005556 1.9992709977 
2.0393803947 2.0214750912 2.0629208348 2.0866277234 2.1228559164 2.1483751793 2.1451679549 2.1200565954 2.0789391049 
2.0281476612 1.9925448601 1.9849103654 1.9858320893 1.9950454473 1.9906644777 1.9851680922 1.9723248446 1.9783189898 
1.9627128499 1.9764894968 1.9510959077 1.9580333291 1.9781184608 1.993445011 2.0115727727 2.034617138 2.0752440243 
1.9884079904 1.9520077413 2.0789187575 2.0847114584 2.0961138203 2.064612863 2.108371743 2.1072222747 2.0945943482 
2.0812126425 2.0601445962 2.0345721637 2.0082335958 2.0032063958 1.9966043662 1.9810999138 1.9693491551 1.973631391 
2.0182512416 2.1047210319 2.1319701097 2.1479959109 2.1625905961 2.1730825481 2.182713114 2.1970209205 2.2041664782 
2.2050384728 2.1879394177 2.1574066396 2.1077067207 2.060454431 1.9770001534 1.9291594399 1.9248076846 1.8837640686 
1.9599497493 1.9840635639 2.0094349039 2.035396472 2.0608421497 2.0768240966 2.0932112934 2.0951685239 2.0902399704 
2.0723175629 2.0088138802 1.9855170027 1.9607810266 1.9587322956 1.9638673876 1.976564533 1.9843563286 1.9769469596 
1.9647395487 1.9664691769 1.9550794188 1.9487494095 1.9468007366 1.9448160954 1.9493130876 1.9520114099 1.9432539745 
1.9605129874 1.9361006454 1.9192283081 1.9302527325 1.9412440036 1.9492964408 1.9426782696 1.9296246541 1.9179512397 
1.9065257966 1.8916761029 1.8819118853 1.8936662477 1.909872035 1.9255309087 1.9111835168 1.9225767057 1.8891990301 
1.9699582728 1.9801948559 1.998146417 2.015752032 2.0282619525 2.0458362601 2.0604134661 2.0663370482 2.0391325914 
2.0223908518 2.016926218 2.0140729613 2.0209113045 2.0112058701 1.9990075127 1.9697233074 1.9449404402 1.925266362 
1.9218679451 1.9524919194 2.0122962863 2.0446905591 2.0621479411 2.0785127092 2.0682533328 2.0594475737 2.0518034362 
2.058121558 2.0215471225 1.9915800179 1.9493174095 1.9076340506 1.8975748109 1.8937874 1.8890201365 1.8751312776 
1.8696647192 1.8659366411 1.8570302002 1.8620536659 1.8762350938 1.8875706906 1.9358637614 1.9055693924 1.9473292283 
1.9644511182 1.9651519086 2.0827728222 2.0254242205 1.9951840993 1.972289429 1.9767826416 1.9840055297 1.982695784 
1.981200995 2.0019069739 2.0171016815 2.0870742705 2.0688853487 2.0975469869 2.0848462736 2.0970468052 2.1119056819 
2.1293477324 2.1406534237 2.1353183762 2.1225529182 2.0927522242 2.049402813 1.9902927844 1.9412812839 1.9180243006 
1.8740127914 1.8755635756 1.8761019636 1.8901981275 1.9299166766 1.960772971 1.9790211713 1.9942266719 2.0132858031 
2.0206828187 2.0273431764 2.0195220666 2.01616701 1.9991255079 1.9688604795 1.916099999 1.9329281919 1.9290667754 
1.9512323772 1.9685928387 2.0475889041 2.0301418781 1.9474682476 1.9551521713 1.93405864 1.960744289 1.949653453 
1.9425565052 1.9414156362 1.9191190987 1.916610984 1.9161767303 1.920542789 1.9250540261 1.9302872882 1.9272490572 
1.9151539162 1.8817699987 1.8691837192 1.8728312095 1.8736891285 1.8841479419 1.8962045915 1.8992944009 1.9295022536 
1.9128974592 1.9444934918 1.9721286213 1.9788699113 1.9845412651 1.9953324332 2.0133834434 2.0235898885 2.0105294726 
2.002616232 2.0024576881 2.0176846529 2.0311034464 2.0425544581 2.0473461983 2.0441032147 2.0363514424 2.02284595 
2.0048141208 2.0150752537 2.024383339 2.0409152948 2.0767074136 2.0778428308 2.0663387678 2.0441297679 2.0241212816 
2.0265535229 2.0209600715 2.0386069444 2.0242992957 2.000770785 1.9712454647 1.9463236567 1.9402205011 1.9200159643 
1.899768569 1.8588646713 1.8592652049 1.8623993679 1.8423723239 1.8372590903 1.8400577067 1.8525299458 1.8724753518 
1.9001578208 1.9276001629 1.9287316797 1.9484532053 1.8932931265 1.8718063567 1.8387516766 1.8534326667 1.8884183545 
1.9155579909 1.9410820722 1.9723458172 1.983841293 1.9921093162 2.0217591763 2.0514203249 2.0367263862 2.0385889044 
2.0574495913 2.0249357559 2.0891999093 2.0739525369 1.9306251715 1.9453751108 1.9013672709 1.8920516355 1.8946043052 
1.8935350799 1.8935659602 1.8919405836 1.8839501382 1.8754080204 1.8897921756 1.8867838402 1.8911365823 1.9343667263 
1.9655281332 1.9594424543 1.9052142612 1.8986792279 1.9175598489 1.9441149366 1.9608256474 1.9557276755 1.973546824 
1.9878490456 1.9963860552 1.9907662081 1.9829948343 1.9887948604 1.9863048113 1.9982164344 2.0170310406 2.0490891429 
2.0695414615 2.0773378434 2.0789734449 2.0685439597 2.0576268731 2.0536916132 2.0674365072 2.0597284609 2.0541044801 
2.031708514 2.0153614158 2.0048925769 2.0253588506 2.0012151469 2.0027627639 1.9384739455 1.9149120745 1.9202307011 
1.9030037995 1.8843834445 1.8586052707 1.8389842172 1.8337913295 1.8309607497 2.063201288 2.0254928213 1.9839784529 
1.9791686439 1.992885872 2.0035214994 2.0147717719 2.0205546505 2.0435303428 2.0573427214 2.0672182842 2.0771629696 
2.0778071944 2.0603629914 2.0421021874 2.0344427222 2.0299101173 2.0475480476 2.0660817119 2.0789794689 2.0802188572 
2.0704269338 2.0450488753 1.9943961561 1.9406195687 1.8989749615 1.876724478 1.8997377974 1.8800489707 1.8987289164 
1.892332194 1.9031344545 1.9297525493 1.9299841198 2.0025693014 2.0076791064 2.0109319317 2.0089171996 2.0088584797 
1.9887893366 1.9599110965 1.9632001788 1.9556949491 1.9144209888 1.8922233902 1.960283067 1.9472546629 1.9310185912 
1.9252104588 1.9263006799 1.8892653638 1.8847421086 1.8797642652 1.9084798021 1.8984364856 1.8916128981 1.8977047683 
1.9173056102 1.8852176009 1.9071935325 1.8901240847 1.9472001044 1.9559031972 1.9612956203 1.9790320165 1.9888627838 
2.0189357597 2.0826847896 2.0639699791 2.0453340807 2.0234129714 1.9996287548 1.9886827906 1.9982960964 2.0189999637 
2.0281965124 2.031194167 1.9989617747 1.9765214668 1.8983705506 1.8800833613 1.8923349025 1.8955482449 1.9048359638 
1.9887495919 1.9805852278 1.9965316855 2.0280365607 2.0494400901 2.0582290022 2.0613445406 2.068628917 2.0715419458 
2.0683120355 2.0536887426 2.0229250508 1.9893899802 1.9914560131 1.9962153246 1.8772804017 1.8717316009 1.8725488311 
1.9202212461 1.937995652 1.9220803976 1.9544689706 1.9437598482 1.9771287223 1.9891059598 2.0019728927 1.8730113537 
1.883062887 1.8755460268 1.8749755307 1.979107769 1.8727294871 1.9593127991 1.9296498708 1.9827056872 1.9488579195 
1.9450064025 2.1051484918 1.9598645422 1.9480740574 1.9049559967 1.9389008376 1.9282136805 
IAS 1 1114 double
0 0 0 0 0 0 0 0 0 
0 0 0 0 0 0 0 0 0 
0 0 0 0 0 0 0 0 0 
0 0 0 0 0 0 0 0 0 
0 0 0 0 0 0 0 0 0 
0 0 0 0 0 0 0 0 0 
0 0 0 0 0 0 0 0 0 
0 0 0 0 0 0 0 0 0 
0 0 0 0 0 0 0 0 0.32755940185 
0.37673244617 0.83372257104 0.80254588229 0 0 0 0 0 0 
0 0 0 0 0 0 0 0 0 
0 0 0 0 0 0 0 0 0 
0 0 0 0 0 0 0 0 0 
0 0 0 0 0 0 0 0 0 
0 0 0 0 0 0 0 0 0 
0 0 0 0 0 0 0 0 0 
0 0 0 0 0 0 0 0 0 
0 0 0 0 0 0 0 0 0 
0 0 0 0 0 0 0 0 0 
0 0 0 0 0 0 0 0 0 
0 0 0 0 0 0 0 0 0 
0 0 0 0 0 0.27988748432 0.31868372145 0.84449779884 0.88133860667 
0.57984967559 0.54000354987 0 0 0 0 0 0 0 
0 0 0 0 0 0 0 0 0 
0 0 0 0 0 0 0 0 0 
0 0 0 0 0 0 0 0 0 
0 0 0 0 0 0.47670195137 0.76166709793 0.0053127446635 0 
0 0 0 0 0 0 0 0 0 
0 0 0 0 0 0 0 0 0 
0 0 0 0 0 0 0 0 0 
0 0 0 0 0 0 0 0 0 
0 0 0 0 0 0 0 0 0 
0 0 0 0 0 0 0 0 0.35770613159 
0.92198963493 0.49517221571 0 0 0 0 0 0 0 
0 0 0 0 0 0 0 0 0 
0 0 0 0 0 0 0 0 0 
0 0 0 0 0 0 0 0 0 
0 0 0 0 0 0.46308131328 0.77865949758 0.056545912367 0 
0 0 0 0 0 0 0 0 0 
0 0 0 0 0 0 0 0 0 
0 0 0 0 0 0 0 0 0 
0 0 0 0 0 0 0.37340774694 0.94414606877 0.45585463877 
0 0 0 0 0 0 0 0 0 
0 0 0 0 0 0 0 0 0 
0 0 0 0 0 0 0 0 0 
0 0 0 0 0 0 0 0 0 
0 0 0 0 0 0 0 0 0 
0 0 0.52159097096 0 0.79072761137 0.10880313871 0 0 0 
0 0 0 0 0 0 0 0 0 
0 0 0 0 0 0 0 0 0 
0 0 0 0 0 0 0 0 0 
0 0 0 0 0 0 0 0 0 
0 0 0 0 0 0 0 0 0 
0 0 0 0 0 0 0 0 0 
0 0 0 0 0 0 0 0 0.35681208106 
0.94275017229 0.35347943363 0 0 0 0 0 0 0 
0 0 0 0 0 0 0 0 0 
0 0 0 0 0 0 0 0 0 
0 0 0 0 0 0 0 0 0 
0 0 0 0 0 0 0 0 0 
0 0 0 0 0 0 0 0 0 
0 0 0 0 0 0 0 0 0 
0 0 0 0 0 0 0 0 0 
0.50427113156 0.80836684708 0.16699383459 0 0 0 0 0 0 
0 0 0 0 0 0 0 0 0 
0 0 0 0 0 0 0 0 0 
0 0 0 0 0 0 0 0 0 
0 0 0 0 0 0 0 0 0 
0 0 0 0 0 0 0 0 0 
0 0 0 0 0 0 0 0 0 
0 0 0 0 0 0 0.31899731159 0.85125048055 0.61407210548 
0 0 0 0 0 0 0 0 0 
0 0 0 0 0 0 0 0 0 
0 0 0 0 0 0 0 0 0 
0 0.18182188362 0 0 0 0 0 0 0 
0 0 0 0 0 0 0 0 0 
0 0 0 0 0 0 0 0 0 
0 0 0 0.24578503044 0.74535516339 0.77172429306 0.40928692653 0 0.1274938114 
0 0 0 0 0 0 0 0 0 
0 0 0 0 0 0 0 0 0 
0 0 0 0 0 0 0 0 0 
0 0 0 0 0 0 0 0 0 
0 0 0 0 0 0 0 0 0 
0 0 0 0.54314227475 0.80491676657 0.2043686296 0 0 0 
0 0 0 0 0 0 0 0 0 
0 0 0 0 0 0 0 0 0 
0 0 0 0 0 0 0 0 0 
0 0 0 0 0 0 0 0 0 
0 0 0 0 0 0 0 0 0 
0 0 0 0 0 0 0 0 0 
0 0 0 0 0 0.17934219681 0.63755607253 0.93007572918 0.61911771528 
0.37836423659 0 0.15863644705 0 0 0 0 0 0 
0 0 0 0 0 0 0 0 0 
0 0 0 0 0 0 0 0 0 
0 0 0 0 0 0 0 0 0 
0 0 0 0 0 0 0 0 0 
0 0 0 0.040623260938 0.57410078941 0.84062175567 0.27588549808 0 0 
0 0 0 0 0 0 0 0 0 
0 0 0 0 0 0 0 0 0 
0 0 0 0 0 0 0 0 0 
0 0 0 0 0 0 0 0 0 
0 0 0 0 0 0 0 0 0 
0 0 0 0 0 0 0 0 0 
0 0 0 0 0 0 0 0 0 
0 0 0 0 0 0 0 0 0 
0 0 0 0 0 0 0.075885976699 0.54400133436 0.86389587769 
0.36694692418 0 0 0 0 0 0 0 0 
0 0 0 0 0 0 0 0 0 
0 0 0 0 0 0 0 0 0 
0 0 0 0 0 0 0 0 0 
0 0 0 0 0 0 0 0 0 
0 0 0 0 0 0 0 0 0 
0 0.1116023419 0.52770435655 0.90234288873 0.80581507398 0.61193820759 0.42707922595 0 0 
0 0 0 0 0 0 0 0 0 
0 0 0 0 0 0 0 0 0 
0 0 0 0 0 0 0 0 0 
0 0 0 0 0 0 0 0 0 
0 0 0 0 0 0 0 0 0 
0 0 0 0.06268747158 0.85810204688 0.94418749261 0 0 0 
0 0 0 0 0 0 0 0 0 
0 0 0 0 0 0 0 0 0 
0 0.031921481784 0.24411326154 0.40688405791 0.8270297802 0.027235326445 0 0 0 
0 0 0 0 0 0.42536339553 0.79532999486 0.054456021045 0 
0 0 0 0 0.79731551626 0.45295929481 0.74429733009 
J_Pt 1 1114 double
0.89436460609 0.91174121348 0.91212794541 0.90015491397 0.91829934505 0.92597338931 0.92329849202 0.93169974005 0.92108213349 
0.9187499913 0.9064026438 0.89300734039 0.88441307238 0.87127528405 0.87405210839 0.856495912 0.88562323916 0.87128325752 
0.90786113504 0.90222582247 0.92893956648 0.93007735716 0.95135373364 0.95689282862 0.97414396687 0.96156304821 0.95260819484 
0.94876395463 0.94970627509 0.95246597052 0.9458058334 0.93875958378 0.95560212579 0.94065959312 0.97383904113 0.95016347729 
0.97666102163 0.95210144263 0.97750338364 0.95652052753 0.98458056271 0.95969717828 0.97783319956 0.9523184684 0.97068633901 
0.94683437321 0.96331861766 0.94434482211 0.95454000859 0.94199212165 0.941852304 0.93174097474 0.9201104041 0.91313024982 
0.91039862564 0.89326187991 0.8993414835 0.88931564869 0.89145275892 0.89399461883 0.90454588754 0.90918781351 0.92460865042 
0.92172490857 0.91983316974 0.93079168665 0.92013403761 0.93262133613 0.93576232672 0.94261586494 0.95854554605 0.94149187115 
0.94900755841 0.94146172618 0.95950713837 0.93816738735 0.94866893839 0.92117955704 0.92441813407 0.90376850055 0.90664238629 
0.89827342037 0.89905961811 0.89755530662 1.0037318299 0.97778213903 1.0299177284 1.0267967781 0.96220156809 1.0362073703 
0.97676682525 1.0516981037 0.99775303215 1.06574913 1.0243899795 1.0826834697 1.0378522427 1.0844051365 1.0537598356 
1.0852368008 1.0747276016 1.0872798483 1.0869521942 1.0853734881 1.089336936 1.0759918416 1.0785944769 1.0591344162 
1.0559598786 1.0381953783 1.0456489068 1.0180932423 1.0461767231 1.0098826639 1.0240862934 1.0022070189 1.0089306314 
0.99692958295 0.99885026186 0.99683973743 0.99455208373 1.0150594896 1.0255609625 1.0333497034 1.0673939598 1.0482743937 
1.0733843232 1.0658205597 1.0770542887 1.0791357679 1.0793857915 1.0861751644 1.0812361314 1.083733104 1.0820869512 
1.077803412 1.081526582 1.0706267726 1.0594406539 1.0623337566 1.0412726711 1.052831584 1.028773499 1.0550366158 
1.0425369916 1.0573169884 1.0637562847 1.0604427797 1.0822037402 1.0717148654 1.0873156088 1.0859412056 1.0788112117 
1.1038237809 1.0930596067 1.1064342188 1.1102636769 1.108570301 1.1228620559 1.1141344529 1.1228269981 1.1225979955 
1.1126903848 1.131320756 1.1123588361 1.1278485017 1.10603347 1.1171280333 1.0902676191 1.0991962227 1.0789241516 
1.0841304325 1.0691909086 1.0707355885 1.0574256681 1.0700292505 1.0507906863 1.0736315158 1.0553583312 1.0771904686 
1.0725845019 1.0802304554 1.1002549391 1.0834324035 1.1016256406 1.0818839241 1.0952862485 1.0733844584 1.0649917162 
1.0688158127 1.0419164921 1.0663410008 1.0391511855 1.069571211 1.0395037342 1.0684874512 1.0430280024 1.0602728849 
1.0270805261 1.0440015686 0.9423759768 0.92874174564 0.94382389617 0.93471716712 0.90356308056 0.86865707592 0.85645212455 
0.86972975288 0.89647167726 0.9262194453 0.94847696902 0.9539354504 0.95685450835 0.95122990822 0.9426885866 0.93956258322 
0.93921289607 0.94085848852 0.94985824078 0.94626758334 0.94854895618 0.95273523727 0.95621490949 0.95324991153 0.92575518046 
0.90778705198 0.89159206715 0.88864917003 0.89234343586 0.90165056415 0.91775405684 0.9319946871 0.93796576328 0.93563443586 
0.93953243608 0.94103163747 0.93870953327 0.92909089752 0.92361900843 0.92748966895 0.93423042802 0.93004130707 1.041693756 
1.0381823418 1.0506719608 1.0679862426 1.0875755092 1.0994563444 1.0976864336 1.0922673742 1.0907540642 1.0700880333 
1.0464188466 1.0249134534 1.0034895041 0.98803556061 0.97835378826 0.97138651714 0.9792479909 0.99762284468 1.0235321232 
1.0486764454 1.06678368 1.077329544 1.0812893258 1.0777364275 1.0782806939 1.0803987261 1.0696563099 1.061693944 
1.0565104478 1.0532426796 1.0476641732 1.052733709 1.0559719116 1.0694640992 1.0755852956 1.0783094064 1.0826348428 
1.0949205457 1.108228872 1.1099728115 1.0989373191 1.0873584869 1.0801794231 1.0754033526 1.0794959836 1.0863234366 
1.0935903248 1.0994729015 1.1040858273 1.1063750457 1.1022065618 1.0944333744 1.0903372614 1.0890194247 1.0846449329 
1.0784647142 1.0613934898 1.0467361759 1.0790330926 1.0725289475 0.91815562199 0.94632647861 0.89128215649 0.87350448802 
0.8718051695 0.89228648881 0.92122158287 0.94583184927 0.95544750816 0.96672116074 0.95866931772 0.95113163941 0.94875436829 
0.949068985 0.95275256618 0.95628677108 0.95426627203 0.95518070196 0.95687501753 0.95855887324 0.96348818988 0.92551923135 
0.94358406673 0.91153497123 0.90811665211 0.91176023775 0.9191773762 0.92981038441 0.93674922156 0.94210843394 0.94169972703 
0.94263613079 0.94572815235 0.95059112227 0.97033298707 0.98623661723 1.000244592 1.0039736761 0.99104060334 0.9781395624 
0.96989108843 0.96209764617 0.97123105499 1.0741974859 1.0628466045 1.0702863502 1.0663631118 1.0610422348 1.055166484 
1.0492175978 1.0468371022 1.0490773088 1.0357184927 1.0379831831 1.0417887761 1.0499885435 1.0595320973 1.0687876857 
1.0660682442 1.0624787346 1.0595993043 1.0648078288 1.0712023234 1.0773229017 1.0851525225 1.0957754337 1.113238236 
1.1291421845 1.1264879035 1.1215560537 1.1141252679 1.1088555426 1.1035398208 1.0915326355 1.0761707549 1.0562896565 
1.0406421661 1.03649647 1.0432329 1.055920633 1.0669221815 1.0843304867 1.0903279553 1.0860255963 1.0801025887 
1.0625853674 1.0463335666 1.0314216065 1.0164819225 1.0040064195 0.99304852056 0.98110780617 0.97301375671 0.9744436342 
0.99642236195 1.0212247827 1.045718911 1.0667396576 1.080451714 1.0832503849 1.0826888391 1.0604649619 1.0410006117 
1.0585275243 1.0236389197 1.0428932953 1.0546883933 0.97837942507 0.98751571159 0.96506084999 0.95028710715 0.93777889047 
0.93425106588 0.93727498727 0.94581973072 0.94692614626 0.9503427933 0.95078320674 0.9526098147 0.94887169331 0.9504535476 
0.95595583145 0.96435267183 1.0263457015 1.0163470761 1.0274933808 1.0227656018 1.0108385565 1.0000732267 0.9238179497 
0.94816522218 0.904529908 0.89305420052 0.89137095595 0.90622960519 0.92539214476 0.94373380879 0.96835735735 0.97838897272 
0.98418331283 0.97248460198 0.95921804604 0.9544969093 0.95855647132 0.95886649573 0.9567485458 0.95280168525 0.94656505008 
0.94276176797 0.95164537117 0.95850446849 0.96022798255 0.97922419751 0.97430028431 0.98685866321 0.96357096424 0.97699907814 
0.98866989229 0.9927301755 0.99395074882 0.97652125889 1.0561336344 1.0516783354 1.0483934414 1.0460280105 1.0461880499 
1.0501762967 1.0559604063 1.0608415567 1.0588021603 1.0523600875 1.0379190261 1.0336059345 1.029809845 1.029507475 
1.0321339132 1.0316365538 1.0281782486 1.0259416649 1.0370320961 1.0494221763 1.0624721945 1.0799462564 1.0981515501 
1.1101201461 1.125073151 1.1379996593 1.1374891237 1.1301474736 1.11734432 1.104148202 1.0896733955 1.0709750822 
1.0484955251 1.0175463127 1.0191691926 1.0220812779 1.0325335352 1.0473568391 1.058794169 1.0693378563 1.074925329 
1.0696557213 1.0505686021 1.0332417767 1.0180474598 1.0061702499 0.99983107015 0.992808171 0.98892336794 0.98109590542 
0.9772481448 1.0047209203 0.98639713551 1.0205726261 1.0341812389 1.0513799613 1.066517892 1.0732849609 1.0583744775 
1.0364133117 1.0110598252 0.9914610097 1.0040399422 0.97192770817 1.0250280253 1.0356999847 1.0361482257 1.0372261209 
1.0441654202 1.0494314177 0.97443445078 1.0002161475 0.95284037522 0.95048587243 0.9648712468 0.93169733381 0.98553707856 
1.0006226263 1.0087099348 1.0102508305 1.0186717548 1.0286707486 1.0477392123 0.97314356164 0.97555898688 0.97522428374 
0.9633305597 0.95457051278 0.9490468879 0.95799081794 0.96843644214 0.96959762369 0.96596601569 0.9623847637 0.95600993856 
0.95858323041 0.95595193656 0.95835643971 0.96586190202 0.97014680785 0.98340669402 0.9704498272 0.99476535621 1.008691213 
1.0164750933 1.0199362621 1.0188695847 1.0213059359 1.0204716277 0.98906040585 1.0224750241 0.98671867812 1.0126773657 
1.0043966406 0.99673251432 0.98864528308 0.97559965675 0.95712135182 0.94146625195 0.92721758557 0.91248810233 0.91198844959 
0.9260870433 0.95129733235 0.97624956965 1.0054439263 1.0180761299 0.97090458257 0.98994695127 0.95667647203 0.95156351945 
0.94708879104 0.94672033553 0.94424685317 0.9393924626 0.93590795519 0.93645771368 0.94936081999 0.94861178876 0.94494506775 
0.97647076203 0.9568064807 0.98650976324 0.98530839826 1.0063549413 1.0312569321 1.053199725 1.0568287424 1.0579385714 
1.0520537455 1.0550706671 1.0506331647 1.0414057853 1.0288921007 1.0216566982 1.0188733511 1.0196446015 1.0175368853 
1.0074841465 1.0008466406 1.0048938164 1.0195179871 1.0506258948 1.0704493333 1.0835604278 1.0949628705 1.1132788177 
1.1217513476 1.1240532188 1.1230315872 1.1172678819 1.1065249606 1.0883928533 1.06187578 1.0279278139 0.99509868878 
1.0137339403 1.0048047093 1.0262201212 1.0390091689 1.0581326122 1.071715327 1.0709260427 1.0589229638 1.0386099117 
1.013287069 0.99539470357 0.99137295783 0.9918709667 0.99662088601 0.99475815628 0.99224680813 0.98565588147 0.98870025322 
0.9802841418 0.98787414552 0.97202286588 0.97475384521 0.98337888753 0.99006760617 0.999610722 1.0126385098 1.0342561671 
0.98881452924 0.97210184873 1.0391207325 1.0419689979 1.0476644563 1.0314924995 1.0539935544 1.0533119145 1.046791115 
1.0399930354 1.0293170646 1.0164437969 1.0032045476 1.000791839 0.99754316721 0.98977815916 0.98398064521 0.98626296526 
1.0081022954 1.0498714682 1.0629920933 1.0710357253 1.0785509014 1.083952466 1.089135287 1.0963129948 1.0999485936 
1.1006489265 1.0924516304 1.0774673714 1.0525030187 1.0284665075 0.98603476051 0.96259964777 0.96042663086 0.94029375731 
0.9769286226 0.98820387736 1.0007635107 1.0141405458 1.0276230567 1.0364261319 1.0453916562 1.0466759539 1.0443958596 
1.0354678384 1.003837037 0.99194717862 0.97947945365 0.97853190107 0.98119629122 0.98774277744 0.99183860892 0.98796901479 
0.98183795695 0.9825852584 0.97623666011 0.9720925561 0.96871233714 0.96702044209 0.96850608524 0.96993837686 0.96816263222 
0.97944330067 0.96770613264 0.95946410486 0.96503091402 0.97044256367 0.97432635791 0.97076400191 0.96414981595 0.95841314427 
0.95244061577 0.94494062588 0.940215543 0.94632429945 0.95446863544 0.96227875575 0.95490257229 0.96062363664 0.94367768372 
0.98459627097 0.98972883666 0.99869300355 1.0074420192 1.0135696101 1.0221252603 1.0291803581 1.0319418246 1.0177385989 
1.0085520159 1.0049889808 1.0025085178 1.0053659017 1.0004380516 0.99507158349 0.98224519077 0.9712501486 0.96155605372 
0.95831391354 0.97196933741 1.0010452269 1.0183661684 1.0285828075 1.0377266294 1.033508848 1.0292245286 1.024952922 
1.0288063857 1.0106376215 0.99567026759 0.97442547461 0.95337978383 0.94793846998 0.94585313506 0.94346961699 0.93667818938 
0.93409163425 0.93209276212 0.92757990436 0.92943020431 0.93633881182 0.941818055 0.96634386838 0.95073539179 0.97214534498 
0.98075942751 0.98129033091 1.0409451634 1.0122558913 0.99718053002 0.98576582594 0.98769709114 0.99098543727 0.9904459801 
0.98982537161 1.0000386652 1.0074895324 1.0421996804 1.0333133726 1.0472812088 1.041208071 1.047352804 1.0548467273 
1.0637564637 1.0695046453 1.0668411891 1.0605037762 1.0457667638 1.0239686543 0.99388986141 0.96904797687 0.95761435857 
0.93546037918 0.93682804744 0.93728105519 0.94384285663 0.96351229079 0.97881744862 0.98805404675 0.99595865581 1.0056150252 
1.0096653798 1.0132471525 1.0094175057 1.0078106658 0.99915152613 0.98385765274 0.9573317147 0.9657235945 0.96394266912 
0.97504815045 0.98371966648 1.0228264352 1.0138991347 0.97321905748 0.97663903513 0.96635519207 0.97938613021 0.97357714738 
0.96777853118 0.96980804804 0.95906614064 0.95804948994 0.95804139529 0.96012652555 0.96221438798 0.9645051064 0.96262082696 
0.95604426481 0.93895418771 0.93281164412 0.93528142901 0.93599780626 0.94133533075 0.94730779054 0.94907264831 0.96446788752 
0.95580627252 0.97178868631 0.98585466023 0.98925987799 0.99210509753 0.99746781276 1.0064726772 1.0113476245 1.0045144454 
1.0002417792 0.99966847127 1.0065028733 1.01246889 1.01750738 1.0198138329 1.018967363 1.0159412979 1.0097542648 
0.99979451289 1.0030703442 1.0066022158 1.0141460359 1.0324162616 1.0351480093 1.0314776542 1.021242358 1.0107360029 
1.0116236059 1.0080855758 1.0182637228 1.0116738596 1.0000764824 0.98521435513 0.97261193469 0.96942825917 0.95919932569 
0.94892555738 0.92853756885 0.92893046907 0.93058098487 0.92043548494 0.91758148263 0.91896320595 0.92474922453 0.93336857265 
0.94719362464 0.96194585019 0.96206344565 0.97260101933 0.94528832968 0.93456469246 0.91829825724 0.92557879363 0.94256989108 
0.95544531332 0.96839406815 0.98491163241 0.99111556673 0.99557827513 1.0106004747 1.0254448425 1.0178002239 1.0175676614 
1.0271420257 1.0100945331 1.0438677211 1.0367020297 0.9642009702 0.97128099934 0.95021696667 0.94582785637 0.94697688843 
0.94626077041 0.94583731935 0.94447206571 0.939903396 0.93541686422 0.9433794141 0.94236589597 0.94465332065 0.96681659289 
0.98231517432 0.97948619639 0.9522779443 0.94896340778 0.95840046515 0.97176400171 0.98025275937 0.97750165302 0.98627636656 
0.99321237546 0.99729515954 0.99416613201 0.99056855447 0.99327073884 0.99216163424 0.99756621279 1.0061347618 1.0221665323 
1.0326165167 1.036514634 1.0372821091 1.0311431629 1.023651217 1.0228880058 1.0276349968 1.0245578385 1.0239272703 
1.0140216478 1.0069491472 1.0010820597 1.0105298874 0.9992911424 0.99966687836 0.96844221442 0.95644303151 0.95524079942 
0.94734435925 0.93903875559 0.92732532182 0.91837452318 0.91611763502 0.91473279153 1.0312991745 1.0124000333 0.99159538342 
0.98896319295 0.99548112109 1.0007421073 1.0062693668 1.0090029834 1.0200613428 1.0273920343 1.0325743075 1.0375545797 
1.0378796815 1.0293341796 1.0204145363 1.0168410956 1.0146538612 1.0234118116 1.0324271327 1.0386345928 1.0390459707 
1.0341975443 1.0214288322 0.99594845299 0.96887459385 0.94792550551 0.93704157014 0.94871877418 0.93953495578 0.94874757156 
0.94557174247 0.9507577904 0.96385522583 0.96423579351 1.0006703648 1.0023393148 1.0035724223 1.0029809427 1.0034552563 
0.99348067779 0.97939578495 0.98089132012 0.97654501565 0.95560255268 0.94468334919 0.97990126632 0.97320400137 0.96476079314 
0.96165665663 0.96215486332 0.94322324879 0.94138285392 0.9378806767 0.95340446367 0.94844312643 0.94520712455 0.94844158274 
0.95828911237 0.94217208773 0.9530798612 0.94466369402 0.97284380919 0.9766600651 0.97928051762 0.98883371522 0.99385827455 
1.0086092618 1.0400826037 1.0309626366 1.0216380047 1.0107838809 0.9991488387 0.99373301324 0.9984845067 1.0084759823 
1.0126009636 1.013630014 0.99723205552 0.98594730953 0.94750554881 0.9382757963 0.94581411094 0.94728899136 0.95197087919 
0.99388345833 0.98978014409 0.99718494068 1.0123422916 1.0225959361 1.0268884183 1.0285161503 1.0310643518 1.0318359902 
1.0300144383 1.0234774747 1.0093421618 0.99399734948 0.9947882274 0.99658244444 0.93767850112 0.93497191239 0.93575627876 
0.95968580913 0.96869805285 0.96043132911 0.97567438553 0.9705032441 0.98688996876 0.99279229976 0.99890225193 0.93460509642 
0.94124618024 0.93745781963 0.93677812798 0.98867983447 0.93510442943 0.97746463686 0.96279009963 0.98906203878 0.97151089945 
0.96767933773 1.0516231911 0.9782934611 0.97239992601 0.95060351508 0.96735880885 0.96273725549 
Label 4 1114 double
1 1 1 1 1 1 1 1 1 
1 1 1 1 1 1 1 1 1 
1 1 1 1 1 1 1 1 1 
1 1 1 1 1 1 1 1 1 
1 1 1 1 1 1 1 1 1 
1 1 1 1 1 1 1 1 1 
1 1 1 1 1 1 1 1 1 
1 1 1 1 1 1 1 1 1 
1 1 1 1 1 1 1 1 1 
1 1 1 1 1 1 1 1 1 
1 1 1 1 1 1 1 1 1 
1 1 1 1 1 1 1 1 1 
1 1 1 1 1 1 1 1 1 
1 1 1 1 1 1 1 1 1 
1 1 1 1 1 1 1 1 1 
1 1 1 1 1 1 1 1 1 
1 1 1 1 1 1 1 1 1 
1 1 1 1 1 1 1 1 1 
1 1 1 1 1 1 1 1 1 
1 1 1 1 1 1 1 1 1 
1 1 1 1 1 1 1 1 1 
1 1 1 1 1 1 1 1 1 
1 1 1 1 1 1 1 1 1 
1 1 1 1 1 1 1 1 1 
1 1 1 1 1 1 1 1 1 
1 1 1 1 1 1 1 1 1 
1 1 1 1 1 1 1 1 1 
1 1 1 1 1 1 1 1 1 
1 1 1 1 1 1 1 1 1 
1 1 1 1 1 1 1 1 1 
1 1 1 1 1 1 1 1 1 
1 1 1 1 1 1 1 1 1 
1 1 1 1 1 1 1 1 1 
1 1 1 1 1 1 1 1 1 
1 1 1 1 1 1 1 1 1 
1 1 1 1 1 1 1 1 1 
1 1 1 1 1 1 1 1 1 
1 1 1 1 1 1 1 1 1 
1 1 1 1 1 1 1 1 1 
1 1 1 1 1 1 1 1 1 
1 1 1 1 1 1 1 1 1 
1 1 1 1 1 1 1 1 1 
1 1 1 1 1 1 1 1 1 
1 1 1 1 1 1 1 1 1 
1 1 1 1 1 1 1 1 1 
1 1 1 1 1 1 1 1 1 
1 1 1 1 1 1 1 1 1 
1 1 1 1 1 1 1 1 1 
1 1 1 1 1 1 1 1 1 
1 1 1 1 1 1 1 1 1 
1 1 1 1 1 1 1 1 1 
1 1 1 1 1 1 1 1 1 
1 1 1 1 1 1 1 1 1 
1 1 1 1 1 1 1 1 1 
1 1 1 1 1 1 1 1 1 
1 1 1 1 1 1 1 1 1 
1 1 1 1 1 1 1 1 1 
1 1 1 1 1 1 1 1 1 
1 1 1 1 1 1 1 1 1 
1 1 1 1 1 1 1 1 1 
1 1 1 1 1 1 1 1 1 
1 1 1 1 1 1 1 1 1 
1 1 1 1 1 1 1 1 1 
1 1 1 1 1 1 1 1 1 
1 1 1 1 1 1 1 1 1 
1 1 1 1 1 1 1 1 1 
1 1 1 1 1 1 1 1 1 
1 1 1 1 1 1 1 1 1 
1 1 1 1 1 1 1 1 1 
1 1 1 1 1 1 1 1 1 
1 1 1 1 1 1 1 1 1 
1 1 1 1 1 1 1 1 1 
1 1 1 1 1 1 1 1 1 
1 1 1 1 1 1 1 1 1 
1 1 1 1 1 1 1 1 1 
1 1 1 1 1 1 1 1 1 
1 1 1 1 1 1 1 1 1 
1 1 1 1 1 1 1 1 1 
1 1 1 1 1 1 1 1 1 
1 1 1 1 1 1 1 1 1 
1 1 1 1 1 1 1 1 1 
1 1 1 1 1 1 1 1 1 
1 1 1 1 1 1 1 1 1 
1 1 1 1 1 1 1 1 1 
1 1 1 1 1 1 1 1 1 
1 1 1 1 1 1 1 1 1 
1 1 1 1 1 1 1 1 1 
1 1 1 1 1 1 1 1 1 
1 1 1 1 1 1 1 1 1 
1 1 1 1 1 1 1 1 1 
1 1 1 1 1 1 1 1 1 
1 1 1 1 1 1 1 1 1 
1 1 1 1 1 1 1 1 1 
1 1 1 1 1 1 1 1 1 
1 1 1 1 1 1 1 1 1 
1 1 1 1 1 1 1 1 1 
1 1 1 1 1 1 1 1 1 
1 1 1 1 1 1 1 1 1 
1 1 1 1 1 1 1 1 1 
1 1 1 1 1 1 1 1 1 
1 1 1 1 1 1 1 1 1 
1 1 1 1 1 1 1 1 1 
1 1 1 1 1 1 1 1 1 
1 1 1 1 1 1 1 1 1 
1 1 1 1 1 1 1 1 1 
1 1 1 1 1 1 1 1 1 
1 1 1 1 1 1 1 1 1 
1 1 1 1 1 1 1 1 1 
1 1 1 1 1 1 1 1 1 
1 1 1 1 1 1 1 1 1 
1 1 1 1 1 1 1 1 1 
1 1 1 1 1 1 1 1 1 
1 1 1 1 1 1 1 1 1 
1 1 1 1 1 1 1 1 1 
1 1 1 1 1 1 1 1 1 
1 1 1 1 1 1 1 1 1 
1 1 1 1 1 1 1 1 1 
1 1 1 1 1 1 1 1 1 
1 1 1 1 1 1 1 1 1 
1 1 1 1 1 1 1 1 1 
1 1 1 1 1 1 1 1 1 
1 1 1 1 1 1 1 1 1 
1 1 1 1 1 1 1 1 1 
1 1 1 1 1 1 1 1 1 
1 1 1 1 1 1 1 1 1 
1 1 1 1 1 1 1 1 1 
1 1 1 1 1 1 1 1 1 
1 1 1 1 1 1 1 1 1 
1 1 1 1 1 1 1 1 1 
1 1 1 1 1 1 1 1 1 
1 1 1 1 1 1 1 1 1 
1 1 1 1 1 1 1 1 1 
1 1 1 1 1 1 1 1 1 
1 1 1 1 1 1 1 1 1 
1 1 1 1 1 1 1 1 1 
1 1 1 1 1 1 1 1 1 
1 1 1 1 1 1 1 1 1 
1 1 1 1 1 1 1 1 1 
1 1 1 1 1 1 1 1 1 
1 1 1 1 1 1 1 1 1 
1 1 1 1 1 1 1 1 1 
1 1 1 1 1 1 1 1 1 
1 1 1 1 1 1 1 1 1 
1 1 1 1 1 1 1 1 1 
1 1 1 1 1 1 1 1 1 
1 1 1 1 1 1 1 1 1 
1 1 1 1 1 1 1 1 1 
1 1 1 1 1 1 1 1 1 
1 1 1 1 1 1 1 1 1 
1 1 1 1 1 1 1 1 1 
1 1 1 1 1 1 1 1 1 
1 1 1 1 1 1 1 1 1 
1 1 1 1 1 1 1 1 1 
1 1 1 1 1 1 1 1 1 
1 1 1 1 1 1 1 1 1 
1 1 1 1 1 1 1 1 1 
1 1 1 1 1 1 1 1 1 
1 1 1 1 1 1 1 1 1 
1 1 1 1 1 1 1 1 1 
1 1 1 1 1 1 1 1 1 
1 1 1 1 1 1 1 1 1 
1 1 1 1 1 1 1 1 1 
1 1 1 1 1 1 1 1 1 
1 1 1 1 1 1 1 1 1 
1 1 1 1 1 1 1 1 1 
1 1 1 1 1 1 1 1 1 
1 1 1 1 1 1 1 1 1 
1 1 1 1 1 1 1 1 1 
1 1 1 1 1 1 1 1 1 
1 1 1 1 1 1 1 1 1 
1 1 1 1 1 1 1 1 1 
1 1 1 1 1 1 1 1 1 
1 1 1 1 1 1 1 1 1 
1 1 1 1 1 1 1 1 1 
1 1 1 1 1 1 1 1 1 
1 1 1 1 1 1 1 1 1 
1 1 1 1 1 1 1 1 1 
1 1 1 1 1 1 1 1 1 
1 1 1 1 1 1 1 1 1 
1 1 1 1 1 1 1 1 1 
1 1 1 1 1 1 1 1 1 
1 1 1 1 1 1 1 1 1 
1 1 1 1 1 1 1 1 1 
1 1 1 1 1 1 1 1 1 
1 1 1 1 1 1 1 1 1 
1 1 1 1 1 1 1 1 1 
1 1 1 1 1 1 1 1 1 
1 1 1 1 1 1 1 1 1 
1 1 1 1 1 1 1 1 1 
1 1 1 1 1 1 1 1 1 
1 1 1 1 1 1 1 1 1 
1 1 1 1 1 1 1 1 1 
1 1 1 1 1 1 1 1 1 
1 1 1 1 1 1 1 1 1 
1 1 1 1 1 1 1 1 1 
1 1 1 1 1 1 1 1 1 
1 1 1 1 1 1 1 1 1 
1 1 1 1 1 1 1 1 1 
1 1 1 1 1 1 1 1 1 
1 1 1 1 1 1 1 1 1 
1 1 1 1 1 1 1 1 1 
1 1 1 1 1 1 1 1 1 
1 1 1 1 1 1 1 1 1 
1 1 1 1 1 1 1 1 1 
1 1 1 1 1 1 1 1 1 
1 1 1 1 1 1 1 1 1 
1 1 1 1 1 1 1 1 1 
1 1 1 1 1 1 1 1 1 
1 1 1 1 1 1 1 1 1 
1 1 1 1 1 1 1 1 1 
1 1 1 1 1 1 1 1 1 
1 1 1 1 1 1 1 1 1 
1 1 1 1 1 1 1 1 1 
1 1 1 1 1 1 1 1 1 
1 1 1 1 1 1 1 1 1 
1 1 1 1 1 1 1 1 1 
1 1 1 1 1 1 1 1 1 
1 1 1 1 1 1 1 1 1 
1 1 1 1 1 1 1 1 1 
1 1 1 1 1 1 1 1 1 
1 1 1 1 1 1 1 1 1 
1 1 1 1 1 1 1 1 1 
1 1 1 1 1 1 1 1 1 
1 1 1 1 1 1 1 1 1 
1 1 1 1 1 1 1 1 1 
1 1 1 1 1 1 1 1 1 
1 1 1 1 1 1 1 1 1 
1 1 1 1 1 1 1 1 1 
1 1 1 1 1 1 1 1 1 
1 1 1 1 1 1 1 1 1 
1 1 1 1 1 1 1 1 1 
1 1 1 1 1 1 1 1 1 
1 1 1 1 1 1 1 1 1 
1 1 1 1 1 1 1 1 1 
1 1 1 1 1 1 1 1 1 
1 1 1 1 1 1 1 1 1 
1 1 1 1 1 1 1 1 1 
1 1 1 1 1 1 1 1 1 
1 1 1 1 1 1 1 1 1 
1 1 1 1 1 1 1 1 1 
1 1 1 1 1 1 1 1 1 
1 1 1 1 1 1 1 1 1 
1 1 1 1 1 1 1 1 1 
1 1 1 1 1 1 1 1 1 
1 1 1 1 1 1 1 1 1 
1 1 1 1 1 1 1 1 1 
1 1 1 1 1 1 1 1 1 
1 1 1 1 1 1 1 1 1 
1 1 1 1 1 1 1 1 1 
1 1 1 1 1 1 1 1 1 
1 1 1 1 1 1 1 1 1 
1 1 1 1 1 1 1 1 1 
1 1 1 1 1 1 1 1 1 
1 1 1 1 1 1 1 1 1 
1 1 1 1 1 1 1 1 1 
1 1 1 1 1 1 1 1 1 
1 1 1 1 1 1 1 1 1 
1 1 1 1 1 1 1 1 1 
1 1 1 1 1 1 1 1 1 
1 1 1 1 1 1 1 1 1 
1 1 1 1 1 1 1 1 1 
1 1 1 1 1 1 1 1 1 
1 1 1 1 1 1 1 1 1 
1 1 1 1 1 1 1 1 1 
1 1 1 1 1 1 1 1 1 
1 1 1 1 1 1 1 1 1 
1 1 1 1 1 1 1 1 1 
1 1 1 1 1 1 1 1 1 
1 1 1 1 1 1 1 1 1 
1 1 1 1 1 1 1 1 1 
1 1 1 1 1 1 1 1 1 
1 1 1 1 1 1 1 1 1 
1 1 1 1 1 1 1 1 1 
1 1 1 1 1 1 1 1 1 
1 1 1 1 1 1 1 1 1 
1 1 1 1 1 1 1 1 1 
1 1 1 1 1 1 1 1 1 
1 1 1 1 1 1 1 1 1 
1 1 1 1 1 1 1 1 1 
1 1 1 1 1 1 1 1 1 
1 1 1 1 1 1 1 1 1 
1 1 1 1 1 1 1 1 1 
1 1 1 1 1 1 1 1 1 
1 1 1 1 1 1 1 1 1 
1 1 1 1 1 1 1 1 1 
1 1 1 1 1 1 1 1 1 
1 1 1 1 1 1 1 1 1 
1 1 1 1 1 1 1 1 1 
1 1 1 1 1 1 1 1 1 
1 1 1 1 1 1 1 1 1 
1 1 1 1 1 1 1 1 1 
1 1 1 1 1 1 1 1 1 
1 1 1 1 1 1 1 1 1 
1 1 1 1 1 1 1 1 1 
1 1 1 1 1 1 1 1 1 
1 1 1 1 1 1 1 1 1 
1 1 1 1 1 1 1 1 1 
1 1 1 1 1 1 1 1 1 
1 1 1 1 1 1 1 1 1 
1 1 1 1 1 1 1 1 1 
1 1 1 1 1 1 1 1 1 
1 1 1 1 1 1 1 1 1 
1 1 1 1 1 1 1 1 1 
1 1 1 1 1 1 1 1 1 
1 1 1 1 1 1 1 1 1 
1 1 1 1 1 1 1 1 1 
1 1 1 1 1 1 1 1 1 
1 1 1 1 1 1 1 1 1 
1 1 1 1 1 1 1 1 1 
1 1 1 1 1 1 1 1 1 
1 1 1 1 1 1 1 1 1 
1 1 1 1 1 1 1 1 1 
1 1 1 1 1 1 1 1 1 
1 1 1 1 1 1 1 1 1 
1 1 1 1 1 1 1 1 1 
1 1 1 1 1 1 1 1 1 
1 1 1 1 1 1 1 1 1 
1 1 1 1 1 1 1 1 1 
1 1 1 1 1 1 1 1 1 
1 1 1 1 1 1 1 1 1 
1 1 1 1 1 1 1 1 1 
1 1 1 1 1 1 1 1 1 
1 1 1 1 1 1 1 1 1 
1 1 1 1 1 1 1 1 1 
1 1 1 1 1 1 1 1 1 
1 1 1 1 1 1 1 1 1 
1 1 1 1 1 1 1 1 1 
1 1 1 1 1 1 1 1 1 
1 1 1 1 1 1 1 1 1 
1 1 1 1 1 1 1 1 1 
1 1 1 1 1 1 1 1 1 
1 1 1 1 1 1 1 1 1 
1 1 1 1 1 1 1 1 1 
1 1 1 1 1 1 1 1 1 
1 1 1 1 1 1 1 1 1 
1 1 1 1 1 1 1 1 1 
1 1 1 1 1 1 1 1 1 
1 1 1 1 1 1 1 1 1 
1 1 1 1 1 1 1 1 1 
1 1 1 1 1 1 1 1 1 
1 1 1 1 1 1 1 1 1 
1 1 1 1 1 1 1 1 1 
1 1 1 1 1 1 1 1 1 
1 1 1 1 1 1 1 1 1 
1 1 1 1 1 1 1 1 1 
1 1 1 1 1 1 1 1 1 
1 1 1 1 1 1 1 1 1 
1 1 1 1 1 1 1 1 1 
1 1 1 1 1 1 1 1 1 
1 1 1 1 1 1 1 1 1 
1 1 1 1 1 1 1 1 1 
1 1 1 1 1 1 1 1 1 
1 1 1 1 1 1 1 1 1 
1 1 1 1 1 1 1 1 1 
1 1 1 1 1 1 1 1 1 
1 1 1 1 1 1 1 1 1 
1 1 1 1 1 1 1 1 1 
1 1 1 1 1 1 1 1 1 
1 1 1 1 1 1 1 1 1 
1 1 1 1 1 1 1 1 1 
1 1 1 1 1 1 1 1 1 
1 1 1 1 1 1 1 1 1 
1 1 1 1 1 1 1 1 1 
1 1 1 1 1 1 1 1 1 
1 1 1 1 1 1 1 1 1 
1 1 1 1 1 1 1 1 1 
1 1 1 1 1 1 1 1 1 
1 1 1 1 1 1 1 1 1 
1 1 1 1 1 1 1 1 1 
1 1 1 1 1 1 1 1 1 
1 1 1 1 1 1 1 1 1 
1 1 1 1 1 1 1 1 1 
1 1 1 1 1 1 1 1 1 
1 1 1 1 1 1 1 1 1 
1 1 1 1 1 1 1 1 1 
1 1 1 1 1 1 1 1 1 
1 1 1 1 1 1 1 1 1 
1 1 1 1 1 1 1 1 1 
1 1 1 1 1 1 1 1 1 
1 1 1 1 1 1 1 1 1 
1 1 1 1 1 1 1 1 1 
1 1 1 1 1 1 1 1 1 
1 1 1 1 1 1 1 1 1 
1 1 1 1 1 1 1 1 1 
1 1 1 1 1 1 1 1 1 
1 1 1 1 1 1 1 1 1 
1 1 1 1 1 1 1 1 1 
1 1 1 1 1 1 1 1 1 
1 1 1 1 1 1 1 1 1 
1 1 1 1 1 1 1 1 1 
1 1 1 1 1 1 1 1 1 
1 1 1 1 1 1 1 1 1 
1 1 1 1 1 1 1 1 1 
1 1 1 1 1 1 1 1 1 
1 1 1 1 1 1 1 1 1 
1 1 1 1 1 1 1 1 1 
1 1 1 1 1 1 1 1 1 
1 1 1 1 1 1 1 1 1 
1 1 1 1 1 1 1 1 1 
1 1 1 1 1 1 1 1 1 
1 1 1 1 1 1 1 1 1 
1 1 1 1 1 1 1 1 1 
1 1 1 1 1 1 1 1 1 
1 1 1 1 1 1 1 1 1 
1 1 1 1 1 1 1 1 1 
1 1 1 1 1 1 1 1 1 
1 1 1 1 1 1 1 1 1 
1 1 1 1 1 1 1 1 1 
1 1 1 1 1 1 1 1 1 
1 1 1 1 1 1 1 1 1 
1 1 1 1 1 1 1 1 1 
1 1 1 1 1 1 1 1 1 
1 1 1 1 1 1 1 1 1 
1 1 1 1 1 1 1 1 1 
1 1 1 1 1 1 1 1 1 
1 1 1 1 1 1 1 1 1 
1 1 1 1 1 1 1 1 1 
1 1 1 1 1 1 1 1 1 
1 1 1 1 1 1 1 1 1 
1 1 1 1 1 1 1 1 1 
1 1 1 1 1 1 1 1 1 
1 1 1 1 1 1 1 1 1 
1 1 1 1 1 1 1 1 1 
1 1 1 1 1 1 1 1 1 
1 1 1 1 1 1 1 1 1 
1 1 1 1 1 1 1 1 1 
1 1 1 1 1 1 1 1 1 
1 1 1 1 1 1 1 1 1 
1 1 1 1 1 1 1 1 1 
1 1 1 1 1 1 1 1 1 
1 1 1 1 1 1 1 1 1 
1 1 1 1 1 1 1 1 1 
1 1 1 1 1 1 1 1 1 
1 1 1 1 1 1 1 1 1 
1 1 1 1 1 1 1 1 1 
1 1 1 1 1 1 1 1 1 
1 1 1 1 1 1 1 1 1 
1 1 1 1 1 1 1 1 1 
1 1 1 1 1 1 1 1 1 
1 1 1 1 1 1 1 1 1 
1 1 1 1 1 1 1 1 1 
1 1 1 1 1 1 1 1 1 
1 1 1 1 1 1 1 1 1 
1 1 1 1 1 1 1 1 1 
1 1 1 1 1 1 1 1 1 
1 1 1 1 1 1 1 1 1 
1 1 1 1 1 1 1 1 1 
1 1 1 1 1 1 1 1 1 
1 1 1 1 1 1 1 1 1 
1 1 1 1 1 1 1 1 1 
1 1 1 1 1 1 1 1 1 
1 1 1 1 1 1 1 1 1 
1 1 1 1 1 1 1 1 1 
1 1 1 1 1 1 1 1 1 
1 1 1 1 1 1 1 1 1 
1 1 1 1 1 1 1 1 1 
1 1 1 1 1 1 1 1 1 
1 1 1 1 1 1 1 1 1 
1 1 1 1 1 1 1 1 1 
1 1 1 1 1 1 1 1 1 
1 1 1 1 1 1 1 1 1 
1 1 1 1 1 1 1 1 1 
1 1 1 1 1 1 1 1 1 
1 1 1 1 1 1 1 1 1 
1 1 1 1 1 1 1 1 1 
1 1 1 1 1 1 1 1 1 
1 1 1 1 1 1 1 1 1 
1 1 1 1 1 1 1 1 1 
1 1 1 1 1 1 1 1 1 
1 1 1 1 1 1 1 1 1 
1 1 1 1 1 1 1 1 1 
1 1 1 1 1 1 1 1 1 
1 1 1 1 1 1 1 1 1 
1 1 1 1 1 1 1 1 1 
1 1 1 1 1 1 1 1 1 
1 1 1 1 1 1 1 1 1 
1 1 1 1 1 1 1 1 1 
1 1 1 1 1 1 1 1 1 
1 1 1 1 1 1 1 1 1 
1 1 1 1 1 1 1 1 1 
1 1 1 1 1 1 1 1 1 
1 1 1 1 1 1 1 1 1 
1 1 1 1 1 1 1 1 1 
1 1 1 1 1 1 1 1 1 
1 1 1 1 1 1 1 1 1 
1 1 1 1 1 1 1 1 1 
1 1 1 1 1 1 1 1 1 
1 1 1 1 1 1 1 1 1 
1 1 1 1 1 1 1 1 1 
1 1 1 1 1 1 1 1 1 
1 1 1 1 1 1 1 1 1 
1 1 1 1 1 1 1 1 1 
1 1 1 1 1 1 1 1 1 
1 1 1 1 1 1 1 1 1 
1 1 1 1 1 1 1 1 1 
1 
Long_Strain_Pt 1 1114 double
0.83504615074 0.84616101385 0.83391101153 0.82272341953 0.82695682433 0.84572211848 0.81783622427 0.85054906983 0.81969121952 
0.8403806615 0.81803551417 0.81207265845 0.80678969457 0.80583296114 0.81443844942 0.80537649969 0.83799283319 0.82488970326 
0.85518266203 0.84480864593 0.85080620895 0.85570362353 0.84760701824 0.86927909626 0.87389607682 0.8784309558 0.85356634746 
0.86008692045 0.85308265972 0.86673437784 0.86349149989 0.86991425945 0.88031630818 0.87456467688 0.90833345751 0.88285260589 
0.91968386555 0.88152637758 0.92055113657 0.87701604417 0.92600000694 0.86735891966 0.91292697391 0.85349824944 0.89546958064 
0.84385349247 0.87934482079 0.84096635879 0.86728551957 0.8440893103 0.86054153644 0.84696261732 0.85428653487 0.84223540513 
0.86255634375 0.83779110063 0.85835455193 0.84617946498 0.84879784261 0.8539074076 0.86613034485 0.87160370751 0.88371603568 
0.88307576679 0.86630391196 0.89362358684 0.86162115152 0.89490545911 0.88452178627 0.90658629041 0.91747062015 0.90362024252 
0.90191462611 0.89057687975 0.90206609592 0.87384438313 0.88367953745 0.84554768986 0.85792805998 0.80792963986 0.84085105948 
0.79687509324 0.83329865729 0.80530093969 1.038094805 0.98952651231 1.107367301 1.099739359 0.95630198408 1.1147804612 
0.96768591731 1.1230989722 0.99500930284 1.1272861583 1.0363601628 1.1332052998 1.0607604316 1.1425356414 1.0885806836 
1.1480136316 1.1233509338 1.1473687997 1.1497476256 1.1385620676 1.1608686932 1.1206883904 1.1503742301 1.0915055964 
1.1260975034 1.0656428549 1.1175588234 1.040281552 1.1214772519 1.0210376862 1.0795501583 0.99915069122 1.0490559445 
0.99378495561 1.0257675361 1.0135621259 1.0060790541 1.0564687085 1.0702751541 1.0923205876 1.157580072 1.1150206718 
1.1451043958 1.1289225223 1.1302412267 1.1367208297 1.1139647511 1.1367080371 1.0969733839 1.1252727099 1.0994776916 
1.1036645821 1.1128071841 1.0989188046 1.1035306391 1.1006001829 1.098598523 1.1034812945 1.0999522896 1.1317661863 
1.1302186256 1.1524744632 1.1682588057 1.1697229368 1.2005539287 1.1792781544 1.2053534241 1.1961355024 1.1820785822 
1.2385422924 1.2119351845 1.239081428 1.2468872808 1.2373126705 1.2620763197 1.2395061514 1.2519995684 1.2469401237 
1.2218024246 1.256098785 1.2359334224 1.2617843043 1.2401435255 1.2585974776 1.2287278515 1.2468105208 1.218704486 
1.2326478833 1.2077478867 1.2157332657 1.1696473815 1.1863670723 1.1384257274 1.1686361063 1.1222249926 1.1511403858 
1.1394636214 1.1372042044 1.1842923214 1.1293686053 1.1869034923 1.1258805428 1.1765605054 1.1129944371 1.1141305131 
1.1039760544 1.066126229 1.0996240486 1.0587054657 1.105802767 1.0587059529 1.1098646117 1.0662559002 1.1118460954 
1.0556297286 1.10684729 0.88028163301 0.85439891958 0.88173291484 0.87716206914 0.84660311426 0.82055723928 0.81340236652 
0.82421719799 0.84226480381 0.86167711523 0.87885730613 0.88549133383 0.88873890914 0.8874898029 0.88670350086 0.88992042009 
0.88616896752 0.87506584162 0.87993791246 0.87045688605 0.87038326533 0.87334318017 0.87372967573 0.85917069081 0.83471765507 
0.83038341662 0.83004959839 0.84028719529 0.85076650868 0.86361549621 0.88585140505 0.90743077435 0.91005377322 0.90741487702 
0.90920773171 0.90235653908 0.89083006467 0.87346063252 0.82974521647 0.81909234378 0.83311143706 0.84228394719 1.1428850622 
1.1445989767 1.1397490246 1.1412575761 1.1436492681 1.1465659393 1.1451158153 1.1466829306 1.1437061005 1.1176769925 
1.0850398839 1.0492561509 1.0128370008 0.98890086719 0.97235999413 0.97060766521 0.98465767682 1.0284251637 1.0748834024 
1.1125634488 1.131997784 1.1394429043 1.1386977464 1.1337137336 1.1156536729 1.1186491553 1.1155063917 1.1186234766 
1.127520381 1.1373850201 1.139473459 1.1386567374 1.1248807044 1.1505661333 1.1632415189 1.165548582 1.1645142903 
1.1781043535 1.2043296141 1.2199701923 1.21631743 1.211775703 1.2099831627 1.2078584108 1.1988438981 1.185458068 
1.1768365435 1.1665833751 1.1623271259 1.1672264363 1.1651390825 1.1566016287 1.1470883033 1.1370421274 1.1401049823 
1.1465667306 1.1521629305 1.1518207913 1.1247728451 1.1367027152 0.87560483519 0.90737594575 0.84873011884 0.83327642393 
0.82736762123 0.85006522932 0.87325594096 0.89451715194 0.90756341072 0.92080911304 0.91764380824 0.91109622186 0.91226812354 
0.92127205655 0.91940736778 0.91181703985 0.9000898083 0.89340742371 0.88743216277 0.87894935742 0.87852607208 0.85368826691 
0.86008738378 0.85653845471 0.86855649344 0.879013889 0.89302718036 0.91149647486 0.91603347515 0.91898371626 0.92256452045 
0.92528632014 0.92560763532 0.93507294219 0.96558760897 0.97026652342 0.9933659213 1.0012227984 0.98525164511 0.95865443549 
0.94054908104 0.87841891293 0.89037990075 1.1205454393 1.113446072 1.1145489622 1.1172749693 1.1123208681 1.1112713008 
1.1137918788 1.1069281352 1.0925813551 1.0840130063 1.0806981698 1.09335369 1.1033994561 1.1170021492 1.1336984278 
1.1326327616 1.1422346607 1.1585007209 1.1833939838 1.1941571034 1.1899653469 1.1852313621 1.1836053846 1.1927036335 
1.2042358426 1.2021418622 1.1984436521 1.1895361637 1.1823427507 1.1776818854 1.172778048 1.1718359231 1.1696209395 
1.1645942143 1.1551310696 1.1533715162 1.1484260732 1.1336104113 1.1219222361 1.1154806212 1.1119977813 1.1124763398 
1.09490075 1.0779117124 1.0616807875 1.03867689 1.016721056 0.99843813484 0.98627994319 0.98970446271 0.99663512023 
1.0390561128 1.0822971385 1.1182288143 1.1412951897 1.153257756 1.1575592395 1.1588848982 1.1232995986 1.0929042241 
1.093980533 1.0601548458 1.0781013318 1.0821099294 0.9128568265 0.92925059115 0.91257112698 0.9125503944 0.91038979589 
0.91076175036 0.9166584219 0.9257915679 0.92931414954 0.92797622689 0.93353900596 0.94187826385 0.93598334141 0.94810533741 
0.96785671314 0.98374120589 1.0670921921 1.0487317712 1.073745149 1.0715739864 1.0457156959 1.0141190172 0.89513094563 
0.92247796825 0.87843087976 0.87227849038 0.87067328019 0.88210161703 0.89483659951 0.90616562119 0.93953416853 0.95269438665 
0.97269356073 0.95286463191 0.94058349018 0.93859652699 0.94249564006 0.93073961225 0.91205833711 0.89313200246 0.8766022451 
0.8648234751 0.87029708939 0.88331780551 0.89056818063 0.92078960789 0.91007962801 0.94462013023 0.93509446196 0.97246898195 
0.99291184955 1.0084194448 1.021505509 0.99787356762 1.092824221 1.0895540024 1.0887112917 1.0876641027 1.0860867682 
1.0864726219 1.0840587291 1.0809505567 1.0763102676 1.074953195 1.0659946408 1.0707484106 1.0737505204 1.0774192255 
1.0738721405 1.0677462554 1.0720768988 1.0851223086 1.119295268 1.1466196548 1.1691062515 1.1814118713 1.1950797865 
1.2012768894 1.2122287458 1.2262262796 1.2235628335 1.2137625381 1.1916879765 1.1728832906 1.1587586673 1.148902117 
1.141781117 1.1128616922 1.1308686578 1.1238014119 1.1220407792 1.1205691311 1.1123358871 1.1020195625 1.1017025137 
1.0913674156 1.0676952369 1.052354589 1.0410561067 1.0312267903 1.0199409333 1.0015735301 0.98806528921 0.97988533429 
0.97884972863 1.0554748709 1.026046078 1.0776036169 1.0917092982 1.1155972833 1.1341168941 1.1441447342 1.1227060289 
1.0946618718 1.0560832555 1.0200531621 1.0127826672 0.98645515732 1.0308323037 1.0416118009 1.05108912 1.0629317399 
1.0760125755 1.0836669184 1.0004424523 1.0363706242 0.97173480706 0.95649707206 0.95311812837 0.9255729611 0.97533263065 
0.98449393657 0.99340318446 1.0014415153 1.0289283128 1.0561080245 1.0741569974 0.98791631301 0.98003481265 0.94061832666 
0.9393522576 0.93919752418 0.94070890161 0.95223351182 0.96135295806 0.95852724175 0.95520739813 0.95389031971 0.93986957395 
0.93969114007 0.94730373549 0.96480356483 0.97984698122 0.98596522657 1.0025073602 0.97602455432 1.0142728724 1.028013827 
1.0403087245 1.0513455648 1.0519404348 1.0565417877 1.0521816483 0.98619176647 1.0567518764 0.98404645729 1.0436855012 
1.0328726108 1.0214724633 1.004149089 0.98090441028 0.9573444063 0.94157104801 0.92867507346 0.90984250359 0.89746601546 
0.90263018195 0.9242956131 0.95194848067 1.0058735422 1.0267394897 0.95776131507 0.97213728033 0.94045872354 0.92798763977 
0.91483200285 0.9012548959 0.88476224234 0.87837329675 0.87351797471 0.87851895325 0.88985950665 0.88781517166 0.88397364318 
0.91221369916 0.89518851572 0.92804791981 0.93540401156 0.98586761272 1.032854685 1.0687883763 1.0818068254 1.0627805615 
1.0434186648 1.0669186338 1.0667934525 1.0612819267 1.0572845155 1.0532656865 1.0406595918 1.0315762305 1.0209046327 
1.0193426089 1.027850528 1.0519416342 1.0777842764 1.1277454713 1.1492625205 1.1680075317 1.1838038008 1.1951827097 
1.1964083062 1.19735601 1.1953412957 1.1911715228 1.176495691 1.1517092336 1.1259783253 1.1037765282 1.0858979216 
1.1168483718 1.1109249508 1.1230459677 1.1257866386 1.1328075389 1.1326957975 1.1182110542 1.0967628287 1.0690268273 
1.0408255566 1.0222740069 1.0198893931 1.0142371295 1.0094345815 1.0005274821 0.99408739592 0.98854009822 0.98609570754 
0.97492317365 0.9730752154 0.98165581777 0.99350730638 1.0051907 1.0095124418 1.0212976915 1.0484685093 1.0893792652 
1.0911626322 1.0515570954 1.051718531 1.0214202141 1.0213368679 0.99408156915 1.0423497238 1.0565550937 1.0602317142 
1.0552825091 1.0448850842 1.0251431711 1.0029674779 0.98282244979 0.96595654104 0.96108887044 0.96927343146 0.99877666514 
1.0423739076 1.1093367178 1.1303711945 1.1369903871 1.1401894457 1.1404585295 1.1391538188 1.1446148749 1.1457871312 
1.1422454466 1.132179712 1.1169109487 1.0940296264 1.0758294097 1.0392903767 1.0037445086 1.0047203277 0.96182700059 
1.0447623241 1.0711448856 1.0867036169 1.0948282898 1.0992943876 1.0923769596 1.0864727314 1.0817077808 1.0749484323 
1.0651452553 1.0218627891 1.014067283 1.0010642995 0.99336762845 0.98794172089 0.98453485414 0.98324834715 0.9682520882 
0.95624610898 0.9584415628 0.95605546978 0.96451498886 0.97292219782 0.9654622672 0.96229587917 0.96448481776 0.97001917449 
0.94248271071 0.94762287524 0.95376071692 0.96885157613 0.97311781087 0.97343971766 0.96318089864 0.95006442303 0.93618064306 
0.92200344321 0.91101449544 0.90974035618 0.92851169136 0.94872848775 0.96606296707 0.94137916578 0.94575745109 0.91156911684 
0.99301693696 1.0028419542 1.0121646606 1.0253597394 1.0349285594 1.0448936536 1.0552680452 1.0591791122 1.0381406857 
1.029529655 1.0311540221 1.0290502369 1.0349414596 1.0259602433 1.0192006684 1.0032777961 0.99492682238 0.98674222418 
0.98778876987 1.0050054841 1.0467419801 1.0608505622 1.0650424396 1.0722180305 1.0399785108 1.0075139882 0.99064284082 
1.0157585207 1.0004059129 0.98844267586 0.96244814204 0.93319549546 0.92349540827 0.92198235849 0.92038481166 0.90855465722 
0.90200227331 0.89401377347 0.88616686359 0.87349942001 0.88150309246 0.88896859349 0.90338938971 0.89748050355 0.90705980525 
0.91454556037 0.92269369461 1.04000342 1.0179046359 0.98845046088 0.96358401204 0.95237899443 0.94424233307 0.95975660513 
0.97756250186 1.0122835081 1.0377823928 1.0838354999 1.071991874 1.088566445 1.0718397609 1.0769059096 1.0813427114 
1.0775174343 1.0730132235 1.0636755886 1.0540095498 1.0426598574 1.0274435319 1.0095212357 0.98913912552 0.96514715517 
0.93485319698 0.93674913552 0.91933961837 0.96113739347 0.99605549637 1.0200877515 1.0281912063 1.0289628677 1.0360568115 
1.0298249587 1.0245212422 1.0143349256 1.0079672302 0.99633912088 0.97537898524 0.95840288506 0.96805979384 0.96108480495 
0.96494087625 0.96535383573 1.0580140344 1.0493719298 0.95579606929 0.94206802034 0.9355721555 0.94320160981 0.9350921208 
0.94623115868 0.92465039463 0.92872705581 0.94130777722 0.95362536985 0.95674778047 0.95769511137 0.95716822718 0.94480781698 
0.92133466227 0.88875435067 0.88170622891 0.89428542481 0.90210564953 0.91495477379 0.91479866602 0.92539790624 0.94580710866 
0.93098500585 0.95865184015 0.9836118199 0.98931692221 0.99198473308 0.99742460691 1.0055694276 1.0031684808 0.98003158225 
0.98562407686 0.99734826652 1.0214629875 1.0387289827 1.049046237 1.0535599935 1.0509914253 1.0482532172 1.0474284986 
1.0583473549 1.0707111746 1.0741774928 1.0800056228 1.100596391 1.0882072162 1.0588837694 1.0098589157 0.96932339961 
0.95503636079 0.93485404637 0.97677640981 0.98572867881 0.97995361518 0.96645571233 0.95442894178 0.94860742291 0.93493205672 
0.93074321677 0.91748308277 0.91259977761 0.91029283985 0.89024718812 0.87567111323 0.88242963029 0.8869771407 0.8924853281 
0.90365594429 0.90694915516 0.91697407978 0.90803807092 0.94415223542 0.93664626458 0.9144876249 0.91857567847 0.92582776893 
0.93011051682 0.94720261359 0.96151778122 0.97116805118 0.98160932875 1.0094164655 1.0338474536 0.99539741581 0.96427575704 
0.9696856635 0.94008970465 1.0047149902 1.0212705113 0.91333640653 0.91291988708 0.91743602984 0.92966943156 0.93143729974 
0.92739613336 0.91808636461 0.90762873685 0.89390671402 0.88435847744 0.89421278972 0.89839984127 0.90562784431 0.97243118699 
0.99558848991 0.98141717462 0.93626722193 0.92667148459 0.93565194989 0.95416342837 0.96691057503 0.95565143413 0.96530656267 
0.96720393559 0.96414150565 0.95142272766 0.95752399331 0.94928158171 0.97529784592 0.996891675 1.0205540909 1.0473705588 
1.0634933645 1.0800306427 1.0932965261 1.1004830648 1.0947063786 1.0946191358 1.0936201527 1.0785356246 1.0616405071 
1.028821479 0.9974159291 0.95024454155 0.9406205608 0.95194875376 0.94916606874 0.96265514563 0.9304195298 0.92873347923 
0.91865703348 0.91017136787 0.89949390018 0.89553170664 0.90464800524 0.89574589749 1.0158935833 0.99985788797 0.98174582275 
0.9627819226 0.96081191944 0.97186942937 0.99029648217 1.0173761837 1.0585785156 1.0713011207 1.0714856362 1.0755505607 
1.0728028635 1.0534664938 1.0328142432 1.0202046984 1.0061798799 1.0067659432 1.0111051767 1.0134693858 1.0118630453 
1.008607485 0.99780603501 0.97997069434 0.95774092861 0.93804386183 0.91663285236 0.92425625516 0.92278283603 0.9272396999 
0.94186618768 0.96108575542 0.98604440841 0.980091557 0.97294537654 0.95371249376 0.94211762561 0.95045062234 0.96308003278 
0.95426047342 0.95835443368 0.95272389234 0.94976303569 0.92862022537 0.92343684317 0.96784761283 0.95377065274 0.93357923466 
0.92713262877 0.93039499559 0.89819050826 0.90780313424 0.88960448302 0.93388104268 0.93004407564 0.92883958945 0.93138241961 
0.94290070639 0.91331455662 0.91721320212 0.91387688774 0.93317134466 0.92748147576 0.95531013724 0.97115754113 0.97308109109 
0.9692846971 1.0790495158 1.0542359581 1.0375150025 1.0167898614 0.99128411351 0.97151689359 0.96512463745 0.97088634712 
0.97018181747 0.97061061867 0.95607250789 0.94780210075 0.91846011724 0.91735360593 0.92981092841 0.92519965929 0.94937454125 
0.97168176201 0.96881052168 0.98191237278 1.0043312485 1.0279741995 1.0514325766 1.0667216039 1.0821325157 1.0799598422 
1.0719417829 1.051232279 1.0226028012 0.98499609236 0.96315833672 0.94031352355 0.90359434964 0.90238987715 0.90670385484 
0.93758631955 0.94818261912 0.93554372614 0.93295419018 0.93200641332 0.9414309135 0.94569156994 0.95008795828 0.88887240908 
0.91816283988 0.91325347619 0.90470121708 0.95407404324 0.8966050127 0.93321803147 0.92369463481 0.94180316615 0.94721898476 
0.94120888142 1.0849439134 0.91264413767 0.91615068977 0.92525017407 0.93628028398 0.92722978328 
Longtudinal 3 1114 double
-0.066046267433 0.96695037835 -0.24626176391 -0.11871537076 0.96022165628 -0.25167567256 -0.27814730223 0.88466226861 -0.36446399429 
-0.266627364 0.85607958326 -0.41902333531 -0.12461087951 0.96763578608 -0.21794908325 -0.35278540735 0.86934116654 -0.33711360089 
-0.10967713631 0.9765208589 -0.18423290947 -0.41200399454 0.85745835782 -0.30180531356 -0.086995738335 0.98414405951 -0.15227251309 
-0.4334835743 0.87002643311 -0.22848083256 -0.070228657462 0.99054979686 -0.1171907981 -0.45015667792 0.8774197811 -0.15813249262 
-0.081420044822 0.9922870703 -0.093398990021 -0.36906256335 0.91880285724 -0.085749712349 -0.18132879422 0.97892062937 -0.072185466673 
-0.33302042946 0.94133426486 -0.036422484323 -0.21618039236 0.97526529205 -0.039754351182 -0.32645052002 0.94392698505 0.0061839474835 
-0.1983668093 0.97959016 -0.0014494105638 -0.31664450196 0.94562338488 0.06276125305 -0.15754250282 0.9865584136 0.035973549017 
-0.32262940811 0.9362005587 0.1305046201 -0.11579858136 0.99130098525 0.055744543604 -0.27385873576 0.94060434076 0.19822418051 
-0.073497110982 0.99315907321 0.056888368129 -0.18660847906 0.95923718439 0.20914850431 -0.05988787487 0.98401539993 0.15031420403 
-0.12881356792 0.96089693028 0.24255476303 0.017500060729 0.99848126803 0.048605132708 -0.063268168611 0.95453780057 0.28802032912 
0.059327139682 0.99733062967 0.035902137075 0.029743629499 0.94450660912 0.32316301147 0.071939169434 0.99663626533 -0.0058914541052 
0.12844013027 0.92558733638 0.34954378841 0.06104397907 0.99454819433 -0.077396150339 0.20639177842 0.92251997988 0.31022339561 
0.059567162013 0.99144831852 -0.11580371909 0.27906713627 0.90543607461 0.30468030461 0.00046134048652 0.97921118392 -0.17008406139 
0.32514623292 0.90007260261 0.2651416799 -0.12656023133 0.95660800052 -0.26194806835 0.29136255025 0.92351109775 0.15503658493 
-0.1428031152 0.9662377546 -0.21312211071 0.30714070579 0.92813576849 0.10176537474 -0.13641536573 0.97542553846 -0.17091487981 
0.36089950335 0.90609146721 0.082963787475 -0.14310477263 0.97960161708 -0.13959502972 0.42593685406 0.88172124008 0.058694921397 
-0.12908055658 0.98288728144 -0.11549283104 0.42810462074 0.88959782721 0.0064239871683 -0.010797272977 0.99590379408 -0.08921885082 
0.30253696086 0.94927763994 -0.07588423704 0.033370350047 0.99183922945 -0.12008167587 0.21059284887 0.96779133099 -0.13139188724 
-0.040872150949 0.98970278583 -0.11937664753 0.16855794503 0.96886841622 -0.17878516949 -0.063612862716 0.98796232834 -0.13428479078 
0.1415827087 0.96690882689 -0.20994349254 -0.034596691151 0.98723817061 -0.15236640348 0.086724256609 0.97259123961 -0.21466512916 
-0.081574982231 0.98962215675 -0.11824966867 0.047872538499 0.97370826961 -0.22023165851 -0.091755630294 0.98996004343 -0.10726189702 
0.034745368144 0.97477359911 -0.21936299887 -0.05850248094 0.98752370466 -0.14019147691 0.027025878092 0.97309307724 -0.22296580628 
-0.037274659205 0.98902707586 -0.13903062882 0.0085975897193 0.97485729266 -0.21373685157 -0.039437666431 0.99379660796 -0.10271129492 
0.024542320737 0.96816198703 -0.24570930545 -0.024482332238 0.99033555775 -0.13630901402 0.026850672053 0.96228499562 -0.2673221123 
-0.019848748491 0.99310254661 -0.11510092968 0.0055875068123 0.96215071172 -0.26830086484 -0.015143992782 0.99632564751 -0.082160911303 
-0.0027120893509 0.95796127403 -0.26728594817 0.0076534855297 0.99465805505 -0.098437273603 -0.014147266697 0.96284716592 -0.24488686147 
0.019991283044 0.99123955436 -0.1299638537 -0.01261462387 0.96942222648 -0.20406804253 0.0036614075436 0.98864426253 -0.14880334365 
-0.032797297361 0.95833143695 -0.19886901555 -0.030277252983 0.9833759285 -0.17533633346 -0.13499573625 0.90429379472 -0.32024733843 
0.035522820991 0.99235085721 -0.11822819202 0.014874089626 0.98376260174 -0.1717222801 0.031967817364 0.98827246785 -0.12617262911 
0.057493573179 0.99610232908 -0.059104696154 0.0052769923276 0.98007619431 -0.19284022486 0.011414826893 0.98222367286 -0.17993024075 
0.027809975896 0.99064078115 -0.11983198915 0.026695399895 0.98848134078 -0.1447340015 0.039783510678 0.99431593223 -0.097344728286 
0.034801903693 0.98490008359 -0.16088026243 0.042464229456 0.99192805291 -0.11931832263 0.036670967875 0.97074356573 -0.23658290753 
0.044843131204 0.98626348646 -0.15625969109 0.047231477796 0.96892651317 -0.24260026254 0.043410100049 0.98339733628 -0.17601961198 
0.059015390499 0.96779391675 -0.2441866874 0.035883638175 0.98530576553 -0.16690855652 0.078462877418 0.96577271324 -0.24682011621 
0.046563901816 0.98121154209 -0.18615458373 0.043762676505 0.97476306707 -0.21364848922 0.014616876966 0.98148098099 -0.1734015109 
-0.036181517416 0.97790762496 -0.14004864308 -0.087536113568 0.9899215457 -0.10445331537 -0.14173225135 0.98420006665 -0.040067510108 
-0.20613923889 0.973307511 -0.02598751712 -0.24844087252 0.9611862965 -0.0046764811636 -0.25917641389 0.96276680238 -0.037104796612 
-0.32608491915 0.94306974609 -0.00092955055198 -0.2469506545 0.96040853096 -0.12835296617 -0.28362228561 0.95027396218 -0.051387887645 
-0.21075572478 0.96636653971 -0.14520807987 -0.27596090384 0.94893701419 -0.099115100135 -0.18816501998 0.9680443517 -0.16471400069 
-0.28589928459 0.94120371443 -0.13806614957 -0.19886817818 0.96014258795 -0.18382736942 -0.34814625947 0.92459670394 -0.15264513048 
-0.34012057922 0.91574085658 -0.19323633286 -0.36445688575 0.9103928139 -0.192954581 -0.3277182948 0.91420156201 -0.22615926943 
-0.32645725628 0.9148863305 -0.22592076419 -0.23694766444 0.93439716841 -0.26091264955 -0.22858077826 0.94093671819 -0.24809115259 
-0.12685272441 0.95927574078 -0.24163566089 -0.17466469212 0.94872801128 -0.25992056878 -0.074372577851 0.9679022119 -0.23948923552 
-0.10445791313 0.95957636305 -0.25426399065 -0.057243614017 0.96712595734 -0.24765972953 -0.019042683855 0.9728359503 -0.22845372158 
-0.064940740876 0.96280864217 -0.26203170882 -0.01350559545 0.97075911389 -0.2378795612 -0.055395634928 0.96566273614 -0.25262825908 
0.032955613683 0.98075876395 -0.19005672928 -0.036287289802 0.97212730659 -0.23138608417 0.039369008624 0.98426325994 -0.17148936271 
-0.037455448283 0.9604328915 -0.27382039933 0.0074242285963 0.97465492473 -0.21713797426 -0.050557909821 0.93944743722 -0.33234619803 
-0.028053299931 0.95566957228 -0.28142453358 -0.08092791839 0.90501893097 -0.41415449992 -0.067538518982 0.90126042598 -0.4167203526 
-0.070555321099 0.90146087655 -0.42659385922 -0.072573686124 0.88050284196 -0.46351400448 -0.050248603116 0.89893865722 -0.43235861714 
-0.056802228274 0.88018064774 -0.45991422501 -0.044367657631 0.845222634 -0.5261975252 -0.026512466216 0.85783907815 -0.49761328196 
-0.0079016273446 0.83126604822 -0.55214880406 0.0017556715985 0.87568467688 -0.48055223602 0.059793222343 0.85790573017 -0.50878359987 
0.022393159473 0.88732726343 -0.46042223211 0.056777675883 0.88857910303 -0.45144655856 0.037615044649 0.90232706774 -0.42549175595 
0.042920748523 0.91780356449 -0.39391920978 0.04663307688 0.92321282695 -0.3807433091 0.035120467835 0.93637364592 -0.34732157891 
0.054281464242 0.93463725989 -0.34983862551 0.019494540114 0.95464742025 -0.29288930602 0.039359710878 0.94992599427 -0.30236472865 
-0.0024575537244 0.97264772347 -0.23223671726 0.0027911446841 0.96881839213 -0.23898835675 -0.039139927041 0.97983915723 -0.19100381224 
-0.008043036553 0.97612657772 -0.20843534998 -0.062733270927 0.98491772608 -0.16099743254 -0.011385714657 0.98186603166 -0.18589212045 
-0.065710908025 0.98666845433 -0.14867324658 0.0096296448226 0.98316181917 -0.1797837586 -0.049607559384 0.98664936937 -0.15359503613 
0.036808559981 0.98101012019 -0.18477993647 -0.022712750332 0.98568379917 -0.1649802207 0.072543722038 0.97704734695 -0.19176754522 
0.066155673956 0.97997210561 -0.17182743198 0.12019746676 0.97541622864 -0.18362395345 0.1325666929 0.97666325799 -0.1674319012 
0.16732753666 0.96858816165 -0.16389697955 0.14993887274 0.97860135557 -0.13848629397 0.19948548989 0.96652175973 -0.14425261106 
0.18414322624 0.97644764895 -0.095725617975 0.21715731404 0.96677228913 -0.11168403658 0.23223542977 0.97091788619 -0.041566437723 
0.21719435852 0.96941481855 -0.083594162582 0.24321893326 0.96920745381 -0.037666228183 0.19741896978 0.97750793926 -0.05438403526 
0.24386191163 0.96870934777 -0.044528154503 0.20197642686 0.97847157017 -0.017599303528 0.22341186407 0.97387685432 -0.0034138460375 
0.24648562259 0.96671189604 0.029237283728 0.2011961025 0.97898975204 0.028105438201 0.25922855478 0.96283817614 0.058981988666 
0.1740128974 0.98394901998 0.032631256374 0.20086586067 0.97717080638 0.049143119 0.16016339671 0.9856931225 0.048064882877 
0.17161447436 0.98321280888 0.05869827021 0.15987795395 0.98416651432 0.074594761383 0.15957486863 0.98375123344 0.081007002358 
0.10758451947 0.9873613703 -0.0021830606584 0.10932661375 0.98948148924 0.014544488181 -0.47381504303 0.77071873903 -0.39299376357 
-0.46622059528 0.72687882767 -0.48180280443 -0.49022414245 0.80660917331 -0.31396628333 -0.4680344328 0.85611758069 -0.2092449593 
-0.42121719382 0.89810615568 -0.11465463666 -0.40523992089 0.91094611019 -0.065217402371 -0.38268297425 0.92353300296 -0.010791064235 
-0.30551084759 0.94997836326 0.0087777658705 -0.26447931181 0.96061207785 0.04273295048 -0.20314167011 0.97157414654 0.060696309218 
-0.22206411578 0.96231367262 0.12943217753 -0.20998205524 0.95470027352 0.20172659063 -0.165821828 0.94334867289 0.27833253298 
-0.095011382512 0.93231757918 0.34520524661 0.0046783671968 0.90876583003 0.41006007808 0.11722247941 0.88672746986 0.44254914598 
0.21510179336 0.88247783867 0.41560940267 0.30450222255 0.85922245813 0.40946737444 0.3946262204 0.82607430249 0.40211606559 
0.46059452358 0.81251285515 0.35465974909 0.51485636775 0.80197249516 0.29993364956 0.54128282263 0.80502932289 0.23961356458 
0.55055307471 0.81503400314 0.16293270738 0.47244168046 0.87176715655 0.046175517594 0.31460062438 0.94393488339 -0.072271488098 
0.26668255247 0.95234731715 -0.13683206023 0.21778404934 0.95643332351 -0.17991587311 0.17898662356 0.95795670621 -0.21432449045 
0.14431170191 0.95722880283 -0.24437175145 0.10475280857 0.9608534184 -0.25447020884 0.079198913742 0.96465254647 -0.24773084872 
0.070847645822 0.96003715382 -0.26999860711 0.069890031314 0.95276486717 -0.29307502967 0.061925178461 0.94705024904 -0.3123968198 
0.053906922811 0.93830186186 -0.33991097733 0.028833539581 0.92362644315 -0.37517668154 0.0037885831024 0.89461736458 -0.44079763969 
-0.053155269262 0.86361501823 -0.4843164065 -0.12230861765 0.8451742268 -0.50225835095 -0.2474850227 0.76879555612 -0.56418317324 
-0.38589861749 0.64696620348 -0.61596311629 -0.47224277895 0.64549273623 -0.58791355121 0.059644273474 0.99756973591 0.01865837876 
0.086584705419 0.99397158983 0.040304557297 0.042351525369 0.99847266625 -0.00031056138378 0.046817774956 0.99125225044 -0.07882102723 
0.05239238861 0.98100654761 -0.1806860405 0.052345749172 0.9789888182 -0.18849042189 0.045864798013 0.98077402067 -0.1821455893 
0.030600235686 0.98320422827 -0.17243092345 -0.012750631351 0.99085943842 -0.13167172001 -0.11712940129 0.98381878068 -0.018304005992 
-0.24910263408 0.96220775626 0.091187328293 -0.33941888231 0.93055156733 0.11018291374 -0.43500361929 0.89202213614 0.1105754915 
-0.48784908124 0.86862648463 0.059853874239 -0.50436979274 0.86136230975 0.0043179758556 -0.50817755391 0.85813864376 -0.054734744887 
-0.49876030637 0.85775363935 -0.12174450253 -0.42144382052 0.8849600599 -0.17873477354 -0.33422550043 0.91348592903 -0.22859516587 
-0.31084854833 0.91284258836 -0.26251131003 -0.27884513417 0.91564584496 -0.28334622233 -0.21229415798 0.92904757261 -0.29312495496 
-0.10289919613 0.95143662811 -0.26780191189 -0.069244090366 0.95860468994 -0.27548723772 -0.030537259197 0.96175142424 -0.27135105345 
-0.024278717868 0.9650296867 -0.26090252405 -0.072288679319 0.93395371501 -0.34143292198 -0.11975048935 0.89146714502 -0.43206617079 
-0.15565053533 0.81575685991 -0.55212862253 -0.12955746819 0.75587732091 -0.6398418179 -0.094443313035 0.71261453147 -0.69336292218 
-0.044020552467 0.69553675489 -0.71506900701 0.026705731899 0.71275854544 -0.69881434895 0.07246084308 0.7969161736 -0.59521895896 
0.11747517244 0.79396208815 -0.59364188873 0.13342480412 0.83345565279 -0.52884188428 0.13975917261 0.86255384185 -0.47195255839 
0.16287717174 0.86399938216 -0.45463810893 0.14928827421 0.91310006916 -0.37567211675 0.16000232128 0.92494799409 -0.33918036028 
0.15271565769 0.93953912567 -0.30323063903 0.14631896484 0.95033700393 -0.27108278658 0.12290057564 0.9635433384 -0.23121408022 
0.09794389536 0.97514171986 -0.19368177789 0.16531109587 0.96156692103 -0.18764945424 0.16848871519 0.96245219024 -0.16559978272 
0.27506563666 0.94377183843 -0.13271971108 0.3321022124 0.93827675385 -0.086670849827 0.32003340639 0.94544661615 -0.052255043266 
0.27487171039 0.96017616659 -0.026204691247 0.24091768135 0.96979260561 0.0017584213865 0.26402287478 0.96139550812 0.049073655629 
0.27749310749 0.95592538441 0.088777220749 0.27783166931 0.95218873114 0.12017130945 0.23411532389 0.96338485839 0.11636065385 
0.17733433105 0.97837134193 0.1039530307 0.15051721314 0.98296870308 0.086880671575 0.1103462267 0.99127566825 0.065131766284 
-0.040579519393 0.96225388471 -0.26883412762 -0.071077918714 0.95818102819 -0.27714233037 -0.29320184164 0.94976519456 -0.083117647509 
-0.41036775522 0.89807835829 -0.12481422134 -0.23588714886 0.96984726296 -0.04894510184 -0.2233851893 0.97189277461 -0.028348552725 
-0.17613053788 0.97979141314 -0.036544993954 -0.14712119358 0.98556256993 -0.043979371631 -0.12223736933 0.99180300676 -0.02647591166 
-0.1679994616 0.98333937826 0.045532107309 -0.19370762153 0.96844464941 0.15119390253 -0.19327588262 0.93218762729 0.29988400215 
-0.11702887809 0.90601139218 0.40249702721 -0.005520365464 0.87589010808 0.47884277795 0.11091988448 0.86031292251 0.49522849789 
0.20972467381 0.85035203163 0.48156317412 0.28509879956 0.84188567458 0.45782160294 0.35354853728 0.83087249392 0.42774112246 
0.41840630194 0.81768284953 0.3912150371 0.47886961325 0.80798169016 0.33825370165 0.50607732796 0.81801086541 0.27055406453 
0.48089563357 0.85737054916 0.17459724021 0.380156366 0.91486779328 0.075493352766 0.35443464387 0.92282003408 -0.1436067359 
0.34736871701 0.93221201496 -0.085666137624 0.35430263808 0.90935679014 -0.20668698769 0.31726632916 0.90864409095 -0.25201854338 
0.2477871789 0.92527725231 -0.28194643761 0.18437938083 0.93716708159 -0.2892304847 0.13366036327 0.94362856391 -0.29701135109 
0.09387072482 0.94931343318 -0.2993507127 0.10227704311 0.93291678035 -0.34318723057 0.09746863887 0.91930204314 -0.37957956389 
0.066331902527 0.90005586171 -0.42817482728 0.051356863858 0.8657394397 -0.49110229512 -0.018792207978 0.76416090149 -0.62788239066 
-0.16058795909 0.59964127599 -0.77833656824 -0.32282814547 0.44543515336 -0.79037234309 -0.41249373751 0.47021734369 -0.7579934139 
-0.55304335226 0.32911646492 -0.75883638537 -0.61394828853 0.40338965885 -0.67623119545 -0.61638399558 0.5341497462 -0.56229337856 
-0.59141177927 0.66674498775 -0.4434485677 0.36993882493 0.92608368655 -0.032633585761 0.36741337085 0.92347360728 0.01531923859 
-0.064709682239 0.95633629405 -0.28397727409 -0.042665147646 0.97070522791 -0.2315893175 -0.091657535593 0.94414382194 -0.31161845221 
-0.15175929521 0.89974162902 -0.40536789965 -0.15849980843 0.85288230552 -0.48907610734 -0.15070823232 0.79595548924 -0.58009842304 
-0.11367885584 0.73315750867 -0.66345747991 -0.066503218203 0.7253636951 -0.68275737092 -0.024310025884 0.77027723397 -0.63380838359 
0.15264564743 0.74144781002 -0.65236197595 0.11609148856 0.73670021308 -0.66530133141 0.21735288317 0.73868728096 -0.63309056109 
0.28441685646 0.72207313455 -0.62841023907 0.28845098306 0.78065928389 -0.54695693554 0.27291766353 0.84414326408 -0.45620154279 
0.23882314653 0.88933562442 -0.38520137125 0.18607834631 0.9257027953 -0.31730716585 0.12273834494 0.95848906282 -0.25042047807 
0.088552149447 0.9621559158 -0.22082429624 -0.00055574961236 0.98505949017 -0.17027564916 -0.021277067427 0.98548216955 -0.16402392835 
0.028866236493 0.98211640543 -0.15393862183 0.13725458695 0.97527674222 -0.1401278137 0.18567461712 0.97342602941 -0.10958120648 
0.208879957 0.97353490273 -0.070529393155 0.2307324973 0.97180542599 -0.036523982919 0.2292063338 0.97301919094 -0.0059514295604 
0.24299776401 0.96839011175 0.034351640307 0.2424104827 0.96824159518 0.059238067027 0.22983898425 0.97042313344 0.072525276377 
0.21986536685 0.97189896884 0.083127250652 0.21056090438 0.97201285097 0.10110179048 0.18383088367 0.97346990572 0.13122887026 
0.14378486338 0.97996426492 0.13417977873 0.11200834081 0.98487731086 0.12977770692 0.07630388155 0.99182560169 0.086786485145 
0.048453958779 0.99802119953 0.035026199006 0.031580684124 0.99837435322 0.034632071673 0.013709830145 0.99662233169 -0.022006644355 
0.0082214743805 0.99785064084 -0.045499364731 -0.012503181204 0.99720424918 -0.037287762743 -0.0450129137 0.9967769582 -0.026984739541 
-0.11821927658 0.98548869507 0.038410493164 -0.19770478407 0.97155347053 0.097536449652 -0.29630662491 0.94427610561 0.13372579912 
-0.35769336871 0.92320254836 0.13179411844 -0.41319702207 0.9027646417 0.11277850214 -0.4769668589 0.87366898644 0.081223014029 
-0.4813614957 0.87464136722 0.017968546855 -0.46573191017 0.88266289803 -0.055621797144 -0.45763839203 0.88056351453 -0.11850870843 
-0.383461911 0.90186518358 -0.17511470838 -0.3262129956 0.91863535935 -0.22169960201 -0.33731883871 0.90708992814 -0.25108147289 
-0.28395019365 0.91670655854 -0.27120630196 -0.22307496952 0.93012785421 -0.28948825296 -0.17675550483 0.93719583779 -0.29260996568 
-0.11021942512 0.95248466232 -0.28347546579 -0.030237712748 0.97300142906 -0.22627515805 0.012915072109 0.98593778016 -0.15754974811 
-0.063808125492 0.97955294013 -0.18955929562 0.0078905815805 0.99084767513 -0.12057918226 0.058927678011 0.76655243282 -0.63565659784 
-0.013559158885 0.8481556865 -0.52090633141 0.58081688115 0.80897327554 -0.036789810576 0.5270492156 0.83838913899 -0.0069088874466 
0.58953912051 0.78892106781 -0.10799919571 0.60341346592 0.77529723037 -0.17208429639 0.57245414116 0.77985073526 -0.23840936085 
0.50256017051 0.80485690024 -0.29709817852 0.41964370267 0.83309218546 -0.33636713826 0.34545033966 0.85355638918 -0.3730763948 
0.26950934577 0.87694528881 -0.37827557965 0.18864635242 0.90233936646 -0.36471980794 0.18284000619 0.8792647672 -0.42632153471 
0.15748417728 0.87196269701 -0.46204170303 0.12059966436 0.85278679204 -0.50688007656 0.07030961223 0.80688006817 -0.58069704045 
0.0019778594296 0.73206022984 -0.67455900242 -0.082713713251 0.62952511361 -0.77170964521 -0.49569322541 0.2641664002 -0.82059950491 
-0.40700642364 0.24457110134 -0.8707196821 -0.55575086177 0.38509708603 -0.73221005061 -0.60221557959 0.4733680147 -0.64067559987 
-0.63382345375 0.54949286426 -0.54149132171 -0.67432312849 0.55818008534 -0.46348727611 -0.2444738666 0.96639568821 -0.059851363972 
-0.33729291617 0.93517863245 -0.076751950405 -0.18907396378 0.98050737908 -0.046265575337 -0.17007324492 0.9824802256 -0.037739201397 
-0.1710347859 0.98222556579 -0.035886895409 -0.16126033047 0.98585665823 -0.025339591602 -0.17073439809 0.98452052601 0.0054983798432 
-0.20592758523 0.97409533241 0.072009726016 -0.26939759106 0.92729920985 0.24535345973 -0.26255089552 0.86207177077 0.42525480795 
-0.16332457689 0.80835294458 0.55791881715 -0.010112309213 0.84448302581 0.53236549012 0.082740408786 0.85939189431 0.50116710232 
0.16582657881 0.87283457371 0.45602639948 0.21517010127 0.88493135152 0.41043419717 0.24816370929 0.90181934948 0.3486344171 
0.27894227783 0.91101719914 0.29571320504 0.29113576427 0.92348431225 0.22996566305 0.29639747272 0.93509711739 0.16247456743 
0.24104909433 0.9620398675 0.093137703383 0.16086870626 0.98242801684 0.033186947246 0.29033645817 0.95012306981 0.022402398627 
0.36443632318 0.92431224766 -0.0004148127675 0.57952962066 0.81282179441 -0.035369529944 0.40418195256 0.89801317355 -0.030246466879 
0.64592863788 0.7571377323 -0.075505817211 -0.5226219499 0.8277971255 -0.17025360588 -0.52172368796 0.83487285208 -0.1294433766 
-0.63369475452 0.74207054442 -0.20434062843 -0.61336219693 0.76373975964 -0.16288170174 -0.26539039596 0.46559452445 -0.84307325721 
-0.17765154758 0.59113613517 -0.77420317449 -0.11590147065 0.96000170468 -0.25401449078 -0.14576014639 0.91472561146 -0.36163313707 
-0.15761267688 0.87350168731 -0.45663630832 -0.13118821268 0.83313109371 -0.53104490004 -0.099918488561 0.82056429135 -0.55037857961 
-0.075862881671 0.8622541582 -0.48492369876 -0.063667822271 0.92305596424 -0.37438793742 -0.011802681296 0.91378804941 -0.39606089179 
-0.066417422654 0.95558563029 -0.28583773015 0.046535493931 0.85134571783 -0.5129476938 0.13243199256 0.76870871239 -0.62109076146 
0.20967118296 0.72492836318 -0.65539591115 0.24744919382 0.74448217462 -0.61703495219 0.27673966539 0.77626465579 -0.56603525042 
0.29287703546 0.80195238463 -0.51837928626 0.30134821735 0.83240294757 -0.46156824082 0.29124884108 0.86881268676 -0.39501239453 
0.22874526542 0.9067995495 -0.32563935877 0.069339140207 0.96845986985 -0.21349450005 -0.004593930702 0.98400409258 -0.17157869709 
-0.048425203007 0.98710600699 -0.15190769993 -0.066339421462 0.98672139035 -0.14773227328 -0.066003592383 0.98660233598 -0.14839105318 
-0.047424033627 0.98764905993 -0.14829276238 0.009944078735 0.98804302129 -0.134564777 0.11551580172 0.98688647688 -0.099767109785 
0.16470392881 0.98421204228 -0.057227020409 0.18156946773 0.98257229475 -0.022011710639 0.23040729443 0.97065506565 0.032577824135 
0.26401034289 0.96104799084 0.077016916263 0.27761362071 0.95403604262 0.10797575651 0.27614710188 0.95275950733 0.12421437297 
0.2658666925 0.95429694407 0.13399910967 0.26482682311 0.93374173422 0.22971679471 0.16469181607 0.97541994356 0.1416708919 
0.13035148504 0.97124821011 0.19356681099 0.090132448351 0.97620316354 0.18582746285 0.043152786826 0.99005131603 0.12382182422 
0.015402796637 0.99470767812 0.099070278559 -0.0050904209113 0.99624919547 0.084517217646 -0.035018459246 0.99628053884 0.074564203056 
-0.073098055487 0.99186269751 0.086784323576 -0.11535247134 0.98626156415 0.11104482396 -0.19529697208 0.96062253245 0.17088567564 
-0.2535480286 0.94588090927 0.19971636838 -0.30395831629 0.9322820898 0.19133280796 -0.35405940474 0.91803463682 0.17313988316 
-0.40914358042 0.90063008521 0.14001027493 -0.38967299222 0.91396610867 0.069700073949 -0.3961044337 0.91481515893 0.016296307807 
-0.37678122884 0.92368021203 -0.032845176334 -0.35376173721 0.91716679259 -0.17257066518 -0.39665249616 0.90669695551 -0.13720433253 
-0.28221546582 0.93400944055 -0.20043272664 -0.22250206559 0.94614721028 -0.22123684804 -0.1869985914 0.95159351955 -0.23676951425 
-0.14804379836 0.95604745586 -0.24975655093 -0.13106364007 0.95522689192 -0.26262864987 -0.068655641641 0.96993241906 -0.22555957947 
-0.017794101255 0.9789799722 -0.19456195618 0.037407786241 0.9881660938 -0.14482913054 0.04577257099 0.99355002977 -0.10082570993 
0.015916491388 0.9980953684 -0.044020860493 0.029813725571 0.9972673288 -0.057736900764 -0.053294923644 0.98803185857 -0.11013817972 
-0.11082176713 0.97261573734 -0.18783368572 -0.12170662505 0.95820705526 -0.23256116859 -0.12220850716 0.94113123848 -0.27489802793 
-0.11872238008 0.9261800007 -0.33009147508 -0.10497577351 0.92306043506 -0.35559541646 0.013592587464 0.98799648263 -0.15001933933 
0.0054656696805 0.98386570731 -0.17818106179 -0.0031272640686 0.9911985835 -0.13073734723 0.030045928329 0.99595596783 -0.056100725571 
0.087340182913 0.99049869017 0.059022746229 0.066693793054 0.99614740134 0.018071339125 0.043904734154 0.99716531153 0.042240638645 
0.0016352544172 0.99855675688 0.043696300092 -0.047262667356 0.99193235558 -0.031655123068 -0.093236549386 0.98416352358 -0.13266097007 
-0.11145235377 0.98315971464 -0.1429947517 -0.11791114669 0.97956721519 -0.15089635838 -0.11096389941 0.96547771312 -0.22584185585 
-0.37747696348 0.91962487131 -0.094690669747 -0.31509419188 0.9460104529 -0.064242543751 0.68026325987 0.72100256205 -0.12943788759 
0.68235859614 0.70051401294 -0.1996818769 0.66649832939 0.69278283172 -0.2691930857 0.6003940869 0.72404992369 -0.33512984845 
0.54093116224 0.74103943827 -0.39270332981 0.4794590648 0.75594396798 -0.44328174842 0.39173149101 0.79039602 -0.46541239651 
0.32303007992 0.80445080954 -0.49375472102 0.27792135024 0.80151772263 -0.52641630387 0.20260911253 0.82835618417 -0.52016780081 
0.14764066889 0.82087539228 -0.55066331327 0.094462535041 0.81289954479 -0.5709617433 0.028754372334 0.78851326118 -0.61377256809 
-0.049965066071 0.73358167991 -0.67021429583 -0.10669461195 0.70021973433 -0.70542617156 -0.20041252454 0.64743796225 -0.73209987797 
-0.13976854047 0.72926170216 -0.6608245537 -0.28098170386 0.59454857713 -0.74704551872 -0.37913130151 0.50643023294 -0.77211312279 
-0.46011482743 0.45352212372 -0.73975721734 -0.54433407869 0.4871201094 -0.67562327761 -0.61405325298 0.49285695665 -0.61235754196 
-0.6738220495 0.50158659484 -0.53617942399 -0.73192998127 0.49555822135 -0.46392668766 -0.67042101075 0.64110387416 -0.36092437933 
-0.73822901396 0.56389171551 -0.36402038096 -0.64961362945 0.70225421575 -0.27424595303 -0.72127988868 0.62526461619 -0.28175192215 
-0.70471908001 0.6716275753 -0.2113237997 -0.66799021655 0.7106952252 -0.15577367988 -0.60108716654 0.77435876183 -0.1063281062 
-0.51021255404 0.84451753073 -0.06093711045 -0.40354104802 0.90181545306 -0.027208890349 -0.34784605536 0.93352961104 -0.00076692023888 
-0.34647735874 0.93728057162 0.01995346602 -0.36806572445 0.92172191678 0.073416387381 -0.37489536356 0.9173471741 0.11395026826 
-0.39006551094 0.88693220029 0.19821205182 -0.4130271726 0.83897796588 0.313544085 -0.41984322015 0.77749413336 0.4544683807 
-0.391602221 0.68076904417 0.61402873111 -0.29694899877 0.65070375585 0.69138741222 0.085128778828 0.86333875231 0.49237052373 
0.008175421097 0.8055373436 0.57967730058 0.12196931081 0.92776009594 0.35028125216 0.091679941578 0.97312451196 0.19591466181 
0.065087872734 0.98794663323 0.11581382544 0.052922125778 0.98883019107 0.080658012446 0.0048446658626 0.997280029 0.018372124527 
-0.032637028155 0.99418542552 0.0036250626163 -0.056763767612 0.99700491316 -0.020712230446 -0.033591971446 0.99845095366 -0.025817717372 
0.12133887128 0.98263817288 -0.0065104248838 0.18599164425 0.97832556434 -0.022310672295 0.2354563805 0.96993494477 -0.042498496635 
0.3971398302 0.90478974207 -0.051218717847 0.18645491583 0.9722935949 -0.072642200334 0.5676334723 0.81651946354 -0.069862291423 
0.62409027467 0.76899094206 -0.11466283121 -0.10344991935 0.71958036676 0.6802076745 -0.2098082565 0.63928342873 0.73692563745 
-0.093105136041 0.97395912135 -0.19813724479 -0.089948683619 0.95300439458 -0.28698904864 -0.061950810946 0.96928173573 -0.23338049777 
-0.08655847392 0.98481312544 -0.11373447479 -0.044305814616 0.96257844546 -0.26678649969 0.025260938479 0.90112797219 -0.38207880083 
0.10059251583 0.83989381943 -0.48550971229 0.17776092148 0.79491480543 -0.57597409924 0.21781299402 0.79980718149 -0.55496368426 
0.25425510906 0.79808817768 -0.54500492368 0.27569968856 0.82240331436 -0.49452081087 0.28951260255 0.85152053286 -0.434320229 
0.22927319007 0.90552775236 -0.34164319978 0.14705872724 0.95146690818 -0.26005081269 0.075242468572 0.97456739464 -0.20400254386 
-0.022965128661 0.98049426869 -0.16093738805 -0.092742941968 0.9868693654 -0.12865049081 -0.087805148635 0.98743288139 -0.13058999051 
-0.077987059334 0.98745861871 -0.12604897793 -0.054476639458 0.98925752888 -0.1258785628 -0.010241017743 0.99002408468 -0.12311593064 
0.064829505976 0.99214959816 -0.10295945488 0.13690246965 0.98590382298 -0.057959671929 0.21311945117 0.97616633007 -0.013129501463 
0.24250825063 0.96914983348 0.028596020357 0.26672546288 0.96030155228 0.070689495033 0.30015056553 0.94629929029 0.11475513368 
0.32545450745 0.92863000357 0.17030797558 0.34623539576 0.90954991793 0.22694100485 0.30044774334 0.92257240795 0.2283239551 
0.10989327443 0.98075806737 0.15836958626 0.17188981328 0.9620714719 0.19391613969 0.07232533819 0.98579506567 0.14638763883 
0.034272758888 0.99136049105 0.1237244207 0.0020989071784 0.99350942357 0.1105038654 -0.029004718831 0.99546118777 0.063611291709 
-0.058463046436 0.9945873295 0.061838158158 -0.093525529102 0.98672166216 0.11856090153 -0.14237661509 0.97689223279 0.15667186463 
-0.20083968701 0.95900434857 0.19012274953 -0.24490320956 0.94788625476 0.20176799445 -0.26499639515 0.9485714756 0.17106125106 
-0.27124040787 0.95228448084 0.12702772888 -0.26170609925 0.96066069703 0.074449196458 -0.27181893593 0.96071701411 0.03150613079 
-0.29025212842 0.95610768711 0.00097184671241 -0.30434364539 0.9504836601 -0.025683328057 -0.27067901749 0.96125036675 -0.036469813415 
-0.27164291863 0.95862384195 -0.080589859038 -0.18803290624 0.97234796131 -0.076248704278 -0.29566056296 0.94881299848 -0.10681783126 
-0.31902594463 0.93633296945 -0.14042214052 -0.29130497074 0.94128399459 -0.16776369266 -0.24376934345 0.94774312295 -0.18582181595 
-0.13667195522 0.96897045705 -0.19060641623 -0.10096782702 0.97392292782 -0.20088656461 -0.085040577086 0.97224698712 -0.21468454905 
0.21383805861 0.95190104475 0.20789430791 0.17406424018 0.97379972709 0.14346503851 -0.099659334992 0.98548721575 -0.12604629242 
-0.10342460126 0.99373605773 -0.0083396828254 -0.087070063552 0.99349887809 -0.044053471209 -0.095521380929 0.9929630182 0.063689363481 
-0.055372395149 0.98092617226 -0.1731255294 -0.023996218287 0.95890316529 -0.27252539774 -0.0038535462595 0.94564647378 -0.31475971913 
0.036028798065 0.92251168182 -0.36789269079 0.076756468206 0.90321455008 -0.41232726649 0.069864834476 0.92518623528 -0.36547130658 
0.06813481595 0.94371529439 -0.32121403541 0.10638218577 0.94059417689 -0.31715131641 0.12299084471 0.94277724179 -0.29942852569 
0.053634015123 0.96213360397 -0.2187194175 -0.0039540091651 0.98202619612 -0.15943006377 -0.036053059555 0.98094200888 -0.1442708164 
-0.10393361454 0.98340433566 -0.10505030048 -0.10868000917 0.98641429572 -0.11227427121 -0.19942952293 0.97376100308 -0.10120721836 
-0.19407408138 0.9725826542 -0.11490692839 -0.16793850942 0.97361100903 -0.12686410929 -0.040942295637 0.98807738526 -0.11304366445 
0.042800028694 0.9940148652 -0.098782400061 0.071867109328 0.9928345836 -0.092236211288 0.12973801763 0.98693147912 -0.059915311349 
0.19500836231 0.97902320352 -0.0015146116254 0.23428072965 0.96968699808 0.050554559485 0.26590680053 0.95817705039 0.10208716059 
0.29018712302 0.94293102837 0.15374073061 0.3012971308 0.9300465096 0.20345623328 0.2136032547 0.96041639463 0.15035447473 
0.1628752631 0.96868956004 0.14814002807 0.16283406165 0.95702921159 0.18325589328 0.038134571662 0.99442537594 0.015619254587 
0.15727365572 0.96460339966 0.1982906623 0.11932258773 0.97886910321 0.15797399733 0.086592260192 0.98565716665 0.13972849797 
0.051455159958 0.99053666169 0.11215290104 0.015473183414 0.99618582788 0.084252108823 -0.004754331976 0.99553540692 0.091191807939 
-0.029130932741 0.99620978132 0.066189333301 -0.040554550826 0.99768243206 0.02525266072 -0.048390452491 0.99770089944 -0.015428602312 
-0.05548378364 0.9968782419 -0.012484605863 -0.10324318063 0.98517406344 0.023638334129 -0.13509373267 0.9828819419 0.058444433975 
-0.12992496056 0.98817559884 0.023401794892 -0.12766299018 0.9892980689 0.0090102279927 -0.13021393364 0.99038196935 -0.0026643268729 
-0.16925414242 0.9848909941 -0.01483142005 -0.21432141356 0.97528256327 -0.027680229149 -0.067447396893 0.98729618538 -0.087697130545 
-0.049618384381 0.99248637268 -0.097974998618 0.032231027037 0.99263944361 -0.113959552 -0.15108479428 0.97878746912 -0.10635896829 
-0.26989052791 0.95510683006 -0.12086395016 -0.25861754964 0.95414340325 -0.13525738333 -0.21386091506 0.9616901858 -0.15245177007 
-0.17351891747 0.96655994918 -0.17153910255 -0.11133447377 0.97501399255 -0.16941087877 -0.018178344658 0.98429487874 -0.15084032045 
0.64677816401 0.74322162791 -0.16341432787 0.63759456033 0.73652265981 -0.21939109185 0.61348815742 0.73331328371 -0.2827969649 
0.59526606378 0.72572014266 -0.34371235132 0.55433852401 0.72394954762 -0.40561694379 0.51023037065 0.72286359429 -0.46324331645 
0.45528439145 0.72943756888 -0.50689324507 0.39008692169 0.74479105051 -0.53609954267 0.29866806683 0.78813185351 -0.53741236342 
0.22026500754 0.81331791137 -0.53575189739 0.14512383507 0.83594080513 -0.52656216911 0.077239591363 0.84228718909 -0.5314601049 
0.027115149516 0.80519477322 -0.58999447666 -0.031963931918 0.77194537709 -0.62969957045 -0.077725680072 0.74574720911 -0.65672640581 
-0.081890820767 0.82242652298 -0.55415610166 -0.1177440241 0.85616298578 -0.47937015259 -0.078838516441 0.93756335784 -0.33519303433 
-0.2285862671 0.68681007535 -0.68451510395 -0.28426327831 0.65572943984 -0.69511452012 -0.35815353682 0.63296694555 -0.68450833732 
-0.4425512457 0.5981993076 -0.66385663897 -0.52960815033 0.56798035413 -0.62669206215 -0.6013514835 0.55094576367 -0.57494459039 
-0.66554291646 0.54494980989 -0.5041607391 -0.71299748432 0.5570179131 -0.41995736263 -0.69451958359 0.62905986709 -0.32421588007 
-0.70577180039 0.65468654341 -0.25068180892 -0.73189771742 0.64661213475 -0.19902735383 -0.72071170723 0.67737949895 -0.13684921878 
-0.70599117624 0.69995021066 -0.085338526015 -0.64679402231 0.75655302652 -0.034458556628 -0.55767715082 0.8252371669 0.0086153386827 
-0.5351449008 0.84218769856 0.053364365753 -0.54484567781 0.82917015094 0.11347646789 -0.54771133843 0.81236229908 0.1757430348 
-0.57089424407 0.76244422666 0.26013096577 -0.564598469 0.73338185901 0.35793161907 -0.58137525945 0.64550009954 0.49386377895 
-0.52789826382 0.61039072789 0.58649736955 -0.46172293227 0.58086146973 0.66486724879 -0.37869083254 0.57170308754 0.7240556574 
-0.27018692605 0.65087468161 0.70528312947 -0.12440165591 0.71019787916 0.68812882586 -0.19025883076 0.73379530278 0.64895266826 
-0.05385994234 0.702142372 0.7062343489 0.020361631191 0.76800969026 0.63612246877 0.070051817696 0.85325837694 0.49228128061 
0.084140246513 0.94093428386 0.31577299886 0.050461909955 0.98278200309 0.156707291 -0.043343677757 0.99051897105 0.0016861543183 
-0.12674972617 0.98669158906 -0.096429518866 -0.16490374677 0.97945023066 -0.11555387352 -0.1175979908 0.98944380413 -0.069184448999 
-0.063979601821 0.99262989688 -0.038215780369 0.037726144736 0.99189128945 -0.014837311347 0.15316927937 0.98761217352 0.0034829241733 
0.076482483041 0.98832483998 -0.058993360877 0.034272601178 0.99621835845 -0.075297680874 0.028300174238 0.9958877683 -0.082885276293 
0.15814598883 0.97901332608 -0.081463422893 0.030347055233 0.99508111534 -0.089427919861 0.3309675169 0.93621576018 -0.073448999454 
0.41446687989 0.89936751771 -0.084257673109 0.49239693739 0.85713337128 -0.11839727416 0.0056925940041 0.95050098512 -0.27260581976 
-0.015076250476 0.96903873783 -0.23115550237 -0.03801639906 0.98159052313 -0.18221957243 -0.051531802257 0.98666722427 -0.15359975551 
-0.055049935689 0.98496471902 -0.14361394879 -0.049010755233 0.98276588538 -0.14346307786 -0.059442510531 0.98656622035 -0.13037062354 
-0.090700085804 0.989359242 -0.099534159682 -0.20656517948 0.96936830592 -0.039754451305 -0.34669916738 0.93144353578 0.032771767892 
-0.26382735884 0.96150383968 -0.074590668495 -0.28437149288 0.95412870753 -0.050463509382 -0.26306313183 0.95967328478 -0.092175698413 
-0.2690893625 0.95203584185 -0.099793803776 -0.13016880203 0.97491041326 -0.10491281632 -0.012140214326 0.99374284272 -0.10899786189 
0.0075911645646 0.99420922944 -0.10509107768 0.044766697338 0.99256926912 -0.086578696258 0.12996449647 0.98518076496 -0.026942968161 
0.19409207625 0.97952067977 0.025810566039 0.20106529353 0.97746916278 0.056864139391 0.19503063188 0.97667643363 0.078775266382 
0.14813017938 0.98373194708 0.06357710244 0.086999538276 0.99017337744 0.036353245406 0.011441271566 0.99787796706 -0.014502479139 
-0.039347573923 0.99605153299 -0.047767025184 -0.048551726352 0.99341675291 -0.075874332465 -0.10044956466 0.98685650472 -0.12287249922 
0.0073225731095 0.99428763532 -0.022168386249 0.073409698869 0.97750745865 0.073831340507 0.060083067798 0.98891222089 0.10543603193 
0.039190735456 0.99376603331 0.10243846071 0.020520538298 0.994438654 0.10078958551 0.0032062252577 0.99522508669 0.097198036855 
-0.018493929923 0.99659414162 0.063884069587 -0.041241341168 0.99758502087 0.01137605217 -0.024884802717 0.99319718639 -0.068758844636 
-0.00016750053691 0.98617173814 -0.16010201938 0.01359694173 0.98343231068 -0.16208250288 0.037485283723 0.97928199031 -0.18005447692 
0.026213127369 0.98958548479 -0.12294426326 0.016801552241 0.98901802344 -0.11697910915 0.027225631522 0.99144160415 -0.10845969116 
0.012228267792 0.99569749371 -0.086795707629 0.0011111173408 0.99579311666 -0.09111853124 -0.27996875412 0.95444490158 -0.028955600319 
-0.42791200989 0.89952676794 0.059069555702 0.066908759481 0.98910256011 -0.12675083685 0.030129214709 0.99236493869 -0.11872971803 
0.078520802073 0.98312428472 -0.14747839604 0.024768017017 0.99276019887 -0.1166414899 -0.019641371581 0.99224274776 -0.11280752692 
-0.14024167227 0.97865382512 -0.14098527191 0.52183022549 0.83154935636 -0.16783424297 0.552462192 0.80031382368 -0.22795921784 
0.53026264506 0.79535105633 -0.28668187654 0.51233981359 0.78652748048 -0.34294936212 0.49899579361 0.76898940721 -0.39521432428 
0.47024813605 0.7615454494 -0.44423332959 0.42452847642 0.76921708389 -0.47573596145 0.3648260845 0.78394603912 -0.49958164543 
0.29825422778 0.80363856801 -0.51461619198 0.21355486124 0.84330835439 -0.48763336614 0.13173954619 0.87854065217 -0.45695207115 
0.073578290113 0.87561341755 -0.47558654302 0.018510549953 0.87623154037 -0.47654970839 -0.028094526703 0.86706138369 -0.48371610088 
-0.038879865602 0.96559150636 -0.24730566225 -0.072756080841 0.97134581777 -0.21882817394 -0.038266196636 0.99603160864 -0.07271903833 
-0.10862893727 0.95043707591 -0.28740219441 -0.18667766781 0.84084680511 -0.46824120593 -0.28777308237 0.73546459669 -0.60979535397 
-0.34253870955 0.7170254286 -0.60468574317 -0.39420405744 0.72473937691 -0.56118928377 -0.45175015721 0.7244685822 -0.51578503567 
-0.5202232112 0.70655679997 -0.47263872956 -0.5452182574 0.72538102742 -0.40418519124 -0.52279696548 0.7912166776 -0.30565243919 
-0.54087565418 0.80330375853 -0.24085420017 -0.57635562588 0.78795927121 -0.19540298327 -0.64985117776 0.73739655116 -0.16124668655 
-0.68634966421 0.71631480146 -0.11800242097 -0.69477931211 0.71447826535 -0.06848675849 -0.66766730955 0.73985661917 -0.021763770952 
-0.59457938127 0.80058205445 0.022364540794 -0.5602997195 0.82515763486 0.064104042472 -0.56476316986 0.81304343283 0.11987037468 
-0.62238209133 0.74941682065 0.21781790856 -0.6383612183 0.69191290203 0.3196935003 -0.63911460009 0.64018494075 0.42072883028 
-0.59826793591 0.62256412106 0.50323738773 -0.54401304751 0.60046088548 0.58116138492 -0.47620037606 0.60143698118 0.63596602472 
-0.40564730175 0.61011704939 0.67359168344 -0.31256623824 0.691716271 0.64599305957 -0.24168859184 0.74819605772 0.61440405458 
-0.13184950438 0.78487487175 0.60090105733 -0.1520597618 0.86008057673 0.47177155748 -0.07948371965 0.773762756 0.62759151897 
-0.025655553811 0.77478039493 0.62768217458 0.04037885111 0.79409861341 0.60514122487 0.072504642138 0.85479101226 0.50070110096 
0.081276420926 0.92289585669 0.351223652 0.042769937657 0.98328293564 0.14118336006 -0.018352502049 0.99081912324 -0.0040317784151 
-0.094417127665 0.99016511571 -0.086134221068 -0.11669890933 0.98744299728 -0.10353555205 -0.087379767598 0.99302277411 -0.066386429146 
-0.050623197255 0.99540273955 -0.041761457762 -0.03824113062 0.98421881786 -0.058289280419 -0.060690962042 0.99230289147 -0.084919773554 
-0.022634145575 0.99588991159 -0.086514097395 -0.00055395107223 0.99563273862 -0.091529787471 0.022640551844 0.99432838983 -0.10210058642 
0.01817483342 0.99376682536 -0.10885217917 0.025705213559 0.99420794623 -0.09828526785 0.0070516808592 0.99336042457 -0.11480871859 
0.18079855174 0.96909453428 -0.10052596617 0.053088622423 0.99057655401 -0.1231035148 0.02754852791 0.99335768706 -0.10347095565 
0.022043046284 0.99695482169 -0.073334638518 -0.075865349403 0.99118663427 -0.09804512783 -0.057344816103 0.99295726541 -0.072040258711 
0.10518110407 0.97735728209 0.1317362722 0.10128560457 0.97310073142 0.19348970685 0.080572941866 0.96410486731 0.25005734144 
0.035118098204 0.96202137627 0.21783180545 -0.033258463837 0.97716984713 0.10483310001 -0.085114539011 0.99545728097 -0.023178195739 
-0.098990576546 0.99133533399 -0.070404072645 -0.089618110889 0.9935209989 0.045930926791 -0.078783574979 0.98031411061 0.16438952438 
-0.100592088 0.98302446699 0.14585794981 -0.11152126962 0.94013085727 0.29730354367 -0.097686386044 0.99409948665 0.024785855541 
-0.060459624163 0.99029313873 -0.11553733716 0.28846996857 0.9367402355 -0.19182155551 0.23837824638 0.95484734735 -0.14939138632 
0.40794911101 0.86851554333 -0.26134886403 0.41506796048 0.84959855183 -0.32153730675 0.42271210981 0.8261626401 -0.36977536451 
0.40526641617 0.81862929746 -0.40564570032 0.37215746493 0.81651511901 -0.43691911271 0.34562760786 0.80803273308 -0.47420001422 
0.31136151548 0.80840156872 -0.49841552125 0.21890978202 0.86067079065 -0.45073914028 0.077948819136 0.95365337639 -0.28568829736 
0.016996477969 0.96591470503 -0.25451116986 -0.0099970071471 0.96498000534 -0.2563992203 -0.032651224705 0.99438986835 -0.098942418604 
-0.0217097051 0.99384662416 -0.05426087352 -0.0351026543 0.99347206094 -0.10792301674 -0.045942775814 0.99283117822 -0.08877479152 
-0.080252761623 0.97829058025 -0.18245359364 -0.14459349991 0.9387694336 -0.28810416205 -0.22390171959 0.86867096925 -0.42361736441 
-0.2997240068 0.80997394327 -0.49291801848 -0.31253716615 0.84401182847 -0.4227812042 -0.35784871849 0.84115167294 -0.39575597679 
-0.3665960066 0.85460426674 -0.35125126138 -0.36533982393 0.87724733594 -0.29622846345 -0.31397941598 0.91915147104 -0.22961446605 
-0.40383266202 0.89160666627 -0.14462801464 -0.30923987053 0.93304268021 -0.14111975052 -0.5266228503 0.8223638605 -0.14544467859 
-0.58039652003 0.79945239534 -0.11288793832 -0.59401021924 0.79355651304 -0.063962503915 -0.58310408966 0.80932614941 -0.028905745321 
-0.55622805538 0.8300862881 0.018377702784 -0.56064136992 0.8246938043 0.061846672342 -0.55407607973 0.82526955841 0.097162307873 
-0.6024090819 0.76963388843 0.18429716218 -0.65072813638 0.63212692416 0.41725092755 -0.66299253333 0.66579360287 0.32999188933 
-0.60470387897 0.63103189499 0.48339432729 -0.54440313212 0.64508648839 0.53136657996 -0.47667755565 0.66498237391 0.57455870401 
-0.39691313428 0.71143375029 0.57242236597 -0.32299568838 0.7452696745 0.58061254882 -0.225189914 0.83308644866 0.48528901557 
-0.16200383902 0.924717345 0.32215776725 -0.25051092158 0.94912638198 -0.15443496329 -0.15834532917 0.97575557468 -0.13103359534 
0.041582712972 0.98087933254 -0.16672624389 0.058018094513 0.9759079896 -0.20716896789 -0.14114626398 0.98039301474 -0.13683643161 
-0.046220260384 0.9871806763 -0.12527840048 0.031588757674 0.99288204434 -0.11445349351 0.030361058577 0.99427989179 -0.10169115091 
0.012972776604 0.99546646483 -0.090190424914 -0.04959131194 0.99403541281 -0.093212815895 -0.14167830936 0.98298717632 -0.10577760593 
-0.078328838224 0.99415835232 -0.063598292596 -0.076708575496 0.99368028356 -0.05497022003 -0.075156156952 0.99043918452 -0.057324339052 
-0.14860345484 0.98228833152 0.0054600134015 -0.21252410399 0.97315068102 0.051999096462 -0.25931341722 0.96127353475 0.062566146039 
-0.32414673831 0.93894859502 0.08689495449 -0.4048336463 0.90232713977 0.11407416458 -0.46328040086 0.87555219924 0.13418065711 
-0.44478320626 0.89295134741 0.043339771842 -0.38062515036 0.92417880823 0.0042542503318 -0.35298761271 0.93395934149 -0.021771241888 
-0.30766593503 0.94726667839 -0.049091702714 -0.24812777003 0.96293469218 -0.067211046244 -0.20058021081 0.97254324802 -0.080382607953 
-0.15605026325 0.97489462121 -0.081154622991 -0.11239583318 0.98405442493 -0.09833486039 -0.091638032165 0.9854273116 -0.097656001063 
-0.055198986499 0.99102181944 -0.10349646486 -0.038519962472 0.99128050975 -0.1045811739 -0.0056601489165 0.99592325614 -0.08821386679 
-0.0031775644045 0.99705803529 -0.07277128164 -0.0048794639365 0.99778425117 -0.057579460646 -0.012867424805 0.99857040554 -0.04907346371 
-0.027937087626 0.99794307177 -0.046110437984 -0.05032990862 0.99574115289 -0.055352393662 -0.09494835103 0.99034356426 -0.098687808577 
-0.13032649964 0.97771296169 -0.15264709768 -0.085500479285 0.9877047075 -0.12303270327 -0.1320794555 0.97437222236 -0.17675781469 
-0.060759433848 0.99231810612 -0.10072298254 -0.029009862829 0.99578335793 -0.07962814008 0.0026547364874 0.99319508745 -0.016872456161 
-0.016756109285 0.99468478012 -0.059980222795 -0.049336520381 0.9667338379 0.20095133034 -0.055629295922 0.93314270626 0.34579774821 
-0.08064301548 0.89039763028 0.43660454244 -0.042110648842 0.82355774007 0.55361137805 -0.018496638152 0.78612221518 0.61502452272 
0.022986848192 0.7942464611 0.6067215322 0.05596578336 0.89655809653 0.43610389049 0.083457496664 0.90553075123 0.39437525649 
0.082999950602 0.97047298738 0.21925783964 0.013426815115 0.994995368 0.035311525293 -0.062124966588 0.99541458901 -0.058351446078 
-0.039243877013 0.99355110872 -0.10501456381 -0.021771561811 0.99094049055 -0.13089394505 -0.0096381144456 0.98849259417 -0.14621324829 
0.02320803554 0.98067560619 -0.18636344128 0.042650539779 0.97682527333 -0.20675361503 0.052007523597 0.97096512583 -0.21599541272 
0.068600862098 0.97569350672 -0.20798693314 0.15320605091 0.92635949063 -0.32924039396 0.080067332554 0.97375308211 -0.21266389112 
0.085611895115 0.97469837866 -0.20592339161 0.098680052044 0.9749325915 -0.19931197029 0.11271747554 0.97506321932 -0.19065490829 
0.10110511117 0.98019648033 -0.16590632683 0.17145474793 0.95837148312 -0.21979029413 0.22289275175 0.945976539 -0.2138694596 
0.2960011005 0.90736486048 -0.28275258594 0.11165628014 0.98192300815 -0.14579896804 0.066074211662 0.99036164212 -0.11042413226 
0.078309508972 0.95705175247 0.27072401958 0.066951356052 0.93935191775 0.33065246934 0.021397492981 0.928303309 0.36809181574 
-0.1364305423 0.97571905089 0.15762183227 -0.45040129664 0.88841024966 0.020967251922 -0.44130793657 0.89559608788 -0.0045240845443 
-0.45407866206 0.88664638837 -0.034980075766 -0.44070988611 0.89131932493 -0.064783883228 -0.3856923874 0.91601964711 -0.091971660891 
-0.31583226249 0.93803906616 -0.1178979908 -0.23013065751 0.96358676979 -0.12887113785 -0.16820138787 0.97585411782 -0.13220398529 
-0.10420666733 0.9863320794 -0.11623987345 -0.057535572798 0.99216280148 -0.10318539246 -0.040571381643 0.99554699304 -0.083800720708 
-0.037924632103 0.99655870183 -0.072423511385 -0.12084511897 0.98382897777 -0.12073426771 -0.088511498937 0.99243764232 -0.079689741649 
-0.062208484533 0.99087034807 -0.10253401047 -0.10532884374 0.97655095097 -0.18299916232 -0.03733305114 0.99635763508 -0.074932022185 
-0.19669211109 0.94959423233 0.19900069329 -0.24224698926 0.93691533182 0.21149300615 -0.30400982794 0.91396834172 0.21792913678 
-0.35580653681 0.89416224864 0.22444483209 -0.41387559475 0.85696329692 0.21730397607 -0.4721389421 0.836120033 0.2192347619 
-0.49078861778 0.84332311682 0.193041888 -0.60024621599 0.74307274328 0.27506997573 -0.61590591958 0.68971078397 0.37258424589 
-0.56586852999 0.701415831 0.41319375262 -0.49747039806 0.73200001901 0.44089452999 -0.42495536244 0.76772744254 0.4536654632 
-0.33673691447 0.82583253577 0.43622652061 -0.27783963769 0.85644469224 0.41894829923 -0.21925652767 0.90228071831 0.36708160669 
0.10696013018 0.96396049116 -0.23046209382 0.14665488401 0.95265366586 -0.25130434548 0.15534686225 0.9579819536 -0.23190601115 
-0.17216844076 0.93776933075 -0.27303951464 -0.23109982244 0.89730936093 -0.35993240441 -0.19915470934 0.94101329962 -0.24746857819 
-0.24392067212 0.94121972156 -0.21525936068 -0.2387686689 0.93201208058 -0.23999509816 -0.23456760663 0.94463354732 -0.20297671298 
-0.21885838644 0.95452618086 -0.17291606042 -0.11458209694 0.98566528277 -0.11836006144 0.2228579191 0.8911249665 -0.38412289902 
0.35523514695 0.86996451703 -0.33774464059 0.32189087615 0.87810201489 -0.34973736612 0.27193266859 0.89087291853 -0.35319318728 
-0.016387229364 0.88956269258 0.44789861162 0.25509988621 0.88826461101 -0.37395640666 -0.11490446185 0.98393866691 -0.12263637368 
-0.12223337576 0.98258549964 -0.12630503612 -0.10945613323 0.98637238228 -0.11350049255 -0.56044028761 0.75481039767 -0.33450799425 
-0.49836172252 0.82669716042 -0.2290969394 -0.085873558397 0.9274727669 -0.3557112761 0.2368053791 0.95571448925 -0.11513515489 
0.032095675281 0.99263766519 -0.10655852348 -0.077010719483 0.9934425003 -0.078137085596 -0.056822243102 0.99510069526 -0.074175447489 
-0.18678796383 0.95505864727 -0.20335198433 
Motion 1 1114 double
0.87168919445 0.82696348596 0.9268790846 0.96466074248 0.78152498597 0.87944601943 0.7283352404 0.84158442837 0.68855336194 
0.7981337165 0.67517099142 0.75663189969 0.66746946291 0.73925033613 0.71847600052 0.78641946686 0.80054321489 0.85376333061 
0.91240667602 0.95291243481 1.0486825567 1.0712896817 1.1856640185 1.1755057526 1.2557621175 1.2434830544 1.3005917983 
1.26717077 1.2826238315 1.2517604691 1.2267937575 1.182079221 1.1489868738 1.1110783633 1.0670661122 1.0271304959 
0.98725950458 0.96023814474 0.914620194 0.90341853835 0.85056006413 0.84247733939 0.77767366503 0.77720664195 0.67789190606 
0.69254014905 0.56020836605 0.59095064224 0.43108498782 0.47042515956 0.30084548458 0.35118302187 0.21926131192 0.26934345372 
0.19676307902 0.21985216477 0.27614827285 0.2529980964 0.44628980843 0.39065621132 0.65564410945 0.57971872181 0.86561093645 
0.76573267195 1.0467628592 0.93069655816 1.1801592946 1.0551287432 1.2568757437 1.1242478437 1.2686477485 1.1247460516 
1.2151664773 1.1061448964 1.1345073443 1.0763616267 1.0595339864 1.043499965 1.0000854494 1.0334918801 0.95263980891 
1.015250256 0.91131081965 0.97819198715 0.63050202438 0.65374056006 0.59746988763 0.58445037159 0.67170584277 0.61046555796 
0.67434035686 0.61575151384 0.67419101111 0.62003658524 0.67159173661 0.62424440601 0.67905206879 0.62481502769 0.69209426117 
0.62518393188 0.71323086682 0.62648733802 0.71227032449 0.62010597081 0.6991763727 0.61395485939 0.6725865662 0.60427162012 
0.67610138833 0.61019634417 0.67915832757 0.61378492622 0.67927859275 0.61837766584 0.67466895417 0.61371376818 0.64898405189 
0.59337329607 0.61401903129 0.56582274206 0.59286496788 0.53963485943 0.56476932377 0.50597386663 0.53167507711 0.46395384199 
0.48953069088 0.43689539087 0.45991506253 0.411193671 0.4353064589 0.38628772993 0.3997945866 0.35573805386 0.37563762493 
0.34744881581 0.35880744898 0.33409820161 0.35588426559 0.32611536802 0.35060613818 0.32191709183 0.34192068094 0.33600688688 
0.36096520612 0.34346541559 0.38466164592 0.34805132121 0.38545564215 0.34972577523 0.37723810627 0.35011029007 0.35981936953 
0.34238571736 0.36231666083 0.32440458161 0.37130978066 0.31597739343 0.39576193916 0.33867594653 0.42238752416 0.37146464827 
0.45072676619 0.40856635587 0.47007777411 0.43753578261 0.47831900904 0.45440981287 0.46906193948 0.45743838837 0.44900924009 
0.42965229611 0.42531739972 0.39272630813 0.41195294364 0.37286782451 0.39017792953 0.35317242562 0.35003730303 0.32089689107 
0.32274447917 0.30086771537 0.30605208992 0.29238358259 0.30768883825 0.28865483163 0.3143050928 0.28719700805 0.32831848145 
0.30600007341 0.35117579101 0.33372764537 0.39891350459 0.3799467539 0.45266485141 0.42714346142 0.51253372319 0.46974663762 
0.57165916318 0.52744577611 0.95550330782 0.9985571439 0.92494025972 0.90521541609 0.83158545735 0.80219772139 0.81845112472 
0.89501238156 0.99438088223 1.0968729807 1.187729126 1.2466529549 1.2532606137 1.2379552745 1.1672180926 1.0661062154 
0.96997091203 0.89732239742 0.84270505628 0.80497894473 0.7568930738 0.69229509794 0.60850526492 0.49180371566 0.40500441033 
0.34299151567 0.30465668706 0.33923764309 0.4377353753 0.58615162173 0.73139548542 0.86702394154 0.96035811525 1.0060269199 
1.0137787387 1.0061803874 1.007766571 1.0143281384 1.0541254546 1.0605338061 1.0429011102 1.0203046685 0.54787670428 
0.52503282312 0.57049253772 0.58209417876 0.58415942891 0.58017270321 0.57528878277 0.57238869365 0.56701544065 0.56875045902 
0.5667809246 0.5748182786 0.58866123781 0.57932645232 0.57756095167 0.56877972517 0.53657860992 0.49796030764 0.46436508691 
0.44044899381 0.42254356313 0.40003736089 0.37165128144 0.34973302507 0.33201260767 0.33577976338 0.31296738568 0.29999561718 
0.31592897193 0.31771520751 0.32313379756 0.32642633551 0.32609695742 0.3287036876 0.30242263126 0.30318163653 0.30966924337 
0.33912800074 0.37949394981 0.41080804317 0.42718280747 0.42651553731 0.41328878834 0.39439984316 0.36350020021 0.34487337881 
0.32852902397 0.3143688496 0.28969460498 0.28318684085 0.2795294757 0.28660936145 0.30157397362 0.33912465826 0.37792344346 
0.42464002086 0.46523441136 0.50514262348 0.34003940445 0.3465716068 0.85292090591 0.90664743575 0.82895077769 0.84269134571 
0.90947599894 0.99716821761 1.0906124986 1.1750929539 1.2263746988 1.233983913 1.203683045 1.1152170126 1.0114536644 
0.90431677221 0.79843867043 0.76286550404 0.72814167026 0.69875208752 0.66513169063 0.62452326979 0.57504876359 0.4306895622 
0.46047121233 0.41429293005 0.44333878355 0.51036679229 0.62022398621 0.72685034491 0.80617657665 0.86219193239 0.88741632773 
0.88638832067 0.8998823955 0.91115348495 0.93613168404 1.0347020606 1.0494817193 1.0484440425 1.0350272027 1.0325658819 
1.012331719 0.50648715568 0.54061403416 0.32931858137 0.34766571734 0.31793120401 0.30615585373 0.29533096253 0.29288292123 
0.30534472583 0.3074553373 0.3109843044 0.29050317454 0.31302743204 0.28532240425 0.28078783665 0.31602555438 0.35669259054 
0.3970106424 0.41895550015 0.42404821384 0.43615775441 0.41465010028 0.40480862945 0.39144451008 0.37575694442 0.36291467344 
0.35142280948 0.32617864994 0.30412855115 0.2803632618 0.28180201453 0.29772990573 0.32755333389 0.36916560171 0.39785859793 
0.43978237614 0.47767730354 0.5024330447 0.52806908589 0.54582374302 0.55186313885 0.54840451558 0.55042504008 0.55555039835 
0.56018075056 0.56173800836 0.56102963493 0.56414675984 0.56934162824 0.57979367473 0.56900951439 0.55091809714 0.5078649502 
0.48243075871 0.45572779924 0.43687571585 0.42128777167 0.4034929391 0.38394040962 0.36855936738 0.36902200045 0.36891752081 
0.33133032548 0.36141821822 0.32108489146 0.30669659999 0.50811758136 0.51332839791 0.48962974962 0.48028312257 0.48048103856 
0.52384864356 0.58638551692 0.66061089108 0.73693525658 0.78169334212 0.78209480404 0.77860911908 0.76034008945 0.75498435245 
0.7549469306 0.74657761622 0.98163084117 0.94624082211 0.99627481667 0.99204535462 1.0060317214 1.0062750449 0.83735068053 
0.88324385021 0.81122557461 0.80755631137 0.85917585212 0.94256539744 1.0303249871 1.1104000945 1.1718883803 1.1862503508 
1.1341738204 1.0500134183 0.92495917458 0.82189854425 0.73209462254 0.67057367193 0.64088792173 0.62339657896 0.62980112998 
0.60624298484 0.58517889826 0.53606972821 0.47441945272 0.44126908328 0.38572088062 0.46341383184 0.9491548953 0.90854715418 
0.94397770809 0.91431253618 0.82975946306 0.67405035842 0.30055956786 0.27343072462 0.25957110851 0.26723864046 0.27495302346 
0.27762742702 0.26101736128 0.28469757008 0.24563983674 0.31402599059 0.30699955914 0.29558160642 0.28179803012 0.2699888547 
0.2933690081 0.32946993104 0.36882531533 0.41747512947 0.43812544824 0.46160375329 0.47489739952 0.47048954328 0.46523388034 
0.46095628277 0.44746994621 0.43231701699 0.39405338812 0.35677811962 0.32296701822 0.30625198317 0.31193629848 0.33595555758 
0.37310868414 0.4138944097 0.41533341205 0.44044058698 0.46201665478 0.48342391798 0.50159613217 0.5185112433 0.53410956766 
0.54932305361 0.5595381377 0.5676004393 0.57202218329 0.57291063371 0.56844108285 0.5721522517 0.57097082782 0.56451390607 
0.55351198365 0.47355874997 0.50751797194 0.4445429661 0.42601919519 0.41562573772 0.40733046673 0.39279035821 0.3925935033 
0.39297163935 0.37737987584 0.35438389027 0.32241716597 0.2954178194 0.30878645288 0.26453126412 0.22905283382 0.21484669695 
0.2174728545 0.22753067842 0.36142020234 0.39674545738 0.32013822386 0.2574567217 0.21895111862 0.15974706245 0.23841919689 
0.22947514021 0.19767684658 0.16052304961 0.14487952863 0.14242595109 0.18611636665 0.53137143075 0.52940125945 0.4627548805 
0.47080151925 0.49177816349 0.52810496973 0.58037993381 0.6423932838 0.67413173938 0.68244297503 0.6752204946 0.65474733791 
0.61602427029 0.61463096828 0.59285584643 0.56964739086 0.52935893485 0.57163946154 0.45011858557 0.7040981317 0.82650295037 
0.88462595183 0.92218373259 0.93419814311 0.93851463604 0.95013067662 0.9836565489 0.93229687569 0.96418767049 0.90875719681 
0.88002590823 0.84571750683 0.82890637715 0.81118592906 0.76933989964 0.74294448428 0.72234765915 0.74823022104 0.83281542968 
0.91905379685 0.99310098389 1.0660200936 1.0651032129 1.0244792074 0.83428962798 0.93002646557 0.73813105692 0.64142364929 
0.58375870529 0.55583570757 0.54326640395 0.55545266157 0.55634240621 0.52582782066 0.46379781398 0.39018215497 0.29990210799 
0.29370929455 0.2122166884 0.33257809812 0.35847061099 0.97711616556 0.91212338011 0.19218825154 0.22158324338 0.23210102527 
0.16775142935 0.27455660419 0.28887128304 0.29175220327 0.29937564343 0.28137394777 0.25949721676 0.26720716971 0.28296468472 
0.32760249688 0.38359753905 0.4496906995 0.50996106431 0.53858801025 0.55569944667 0.55406406491 0.54736975482 0.52956572674 
0.50058152268 0.45942306946 0.41110434547 0.35947432073 0.3301593903 0.33430011034 0.36884302201 0.4337503096 0.4706535841 
0.40715338054 0.43182560852 0.42131277943 0.43396107725 0.46269031141 0.49705969358 0.52405238187 0.55213947943 0.5822712563 
0.59210361746 0.59121807114 0.57349815812 0.56554081633 0.56388254735 0.55904931715 0.55307267465 0.54572223757 0.519453191 
0.48886757221 0.47344869898 0.50100465678 0.49036344941 0.46034241553 0.43399888793 0.41172203256 0.40479965012 0.40616820451 
0.45140166242 0.45569446787 0.14793100935 0.10463841284 0.16836579275 0.086926856488 0.2328916363 0.26426978898 0.28849949967 
0.29471814667 0.29571849129 0.27520885189 0.2522585668 0.22770560377 0.22041644797 0.28226660464 0.34716879416 0.42518085708 
0.4992608785 0.56964889656 0.59626712169 0.5970162978 0.58590796329 0.56202199162 0.52731379032 0.46779409365 0.41475976202 
0.36605331425 0.33974731465 0.35032155306 0.38593405431 0.44987642614 0.45575820583 0.41988774412 0.40121893614 0.3408063274 
0.40898221415 0.39300381682 0.37707620808 0.37908207187 0.38643771224 0.42165819333 0.45694270514 0.49752966051 0.53781780264 
0.57537227427 0.58214120417 0.58238126558 0.55577651958 0.54153926885 0.52931028896 0.52727973877 0.52335686225 0.4626453234 
0.38842414297 0.35205497191 0.42409531337 0.45816046629 0.46304216948 0.42901208929 0.39349627889 0.37289073413 0.37363176583 
0.38186567003 0.40003288826 0.42827159921 0.47954385306 0.52839581796 0.56804532559 0.57969536784 0.56463953895 0.52481735541 
0.49258608538 0.46505090506 0.45282829286 0.449696099 0.44652674526 0.44635376943 0.35322561179 0.3336402365 0.25269531537 
0.47198626853 0.59167193348 0.71324462642 0.7759242096 0.81991646969 0.82807406778 0.83602538289 0.84156077322 0.81227595695 
0.78308513754 0.74495929771 0.7171694902 0.69003537193 0.67200732938 0.63884352687 0.60118781591 0.58020861081 0.59924845772 
0.66577172316 0.76034740432 0.86449471294 0.92249325946 0.91591394908 0.87006374387 0.76708735703 0.74895399288 0.6257193722 
0.82499521066 0.78174364674 0.70583168933 0.62021110037 0.53538492664 0.48363387508 0.45348537539 0.43234226652 0.44941056108 
0.46022729401 0.41534173526 0.35012442705 0.27163951336 0.2100340822 0.19105793518 0.1564180594 0.16980478808 0.22435189251 
0.23254480718 0.25322050243 0.26761343185 0.27991602174 0.25230282134 0.2238764141 0.20692087235 0.19319694721 0.23407040609 
0.28146258883 0.33348360911 0.35950143411 0.54794842556 0.51989863455 0.55494886323 0.5484738501 0.51837748182 0.48210251512 
0.43509364738 0.38439942145 0.32872299815 0.29538062002 0.30654094893 0.33139823475 0.36548546617 0.36998460857 0.30995085651 
0.21845475025 0.22801452692 0.13787944945 0.29952890844 0.33455469925 0.34477128414 0.34087679543 0.33566458245 0.33767611683 
0.36790888788 0.40058380405 0.45151757537 0.50102203816 0.53551829083 0.54523497086 0.51405478844 0.54165867497 0.47927346307 
0.45378813943 0.45851659191 0.48519928616 0.33731864593 0.33619362871 0.2145644505 0.18854147008 0.25502665241 0.32354521498 
0.39342353394 0.27243531043 0.29795748595 0.34206529615 0.38732995643 0.42562042891 0.44645268821 0.42785672087 0.4043912956 
0.37677712962 0.34526599716 0.33813998298 0.34113494816 0.3237801407 0.32057928429 0.24103337034 0.19175982172 0.20936407409 
0.25105594363 0.3428936609 0.46249045801 0.56080988626 0.60378614879 0.65371300776 0.67027427128 0.6670663869 0.61657353897 
0.6172235551 0.60051835773 0.57335457735 0.54316082447 0.51417116619 0.48968956196 0.4570414009 0.42417067995 0.40127890157 
0.42338832922 0.52932536615 0.63751692069 0.7526418373 0.79986434475 0.77933766199 0.70260462417 0.59601818478 0.45548705162 
0.45133519457 0.31233829732 0.58595981025 0.65102051129 0.64652818468 0.5666519902 0.47340599118 0.38524303154 0.34481244782 
0.33615976467 0.28051516526 0.33512162898 0.37026209699 0.30823047693 0.24469999613 0.20427165295 0.18017551811 0.19670382177 
0.22825283009 0.15565999415 0.26794811903 0.13038685104 0.33132650022 0.26927672658 0.19158091459 0.16626977403 0.16428781167 
0.15821467299 0.16027918569 0.16557932328 0.14093788065 0.10938125422 0.096570266499 0.10829092812 0.07295537974 0.083852364119 
0.11159596655 0.17818265553 0.158987132 0.23619541261 0.15536518227 0.13527509344 0.20772363297 0.27763551892 0.30657641506 
0.30663360079 0.30101666044 0.30422177692 0.31008519551 0.32732203496 0.36725011756 0.32634107429 0.28757811429 0.23644525066 
0.2748577806 0.28833139347 0.17113427373 0.16400276914 0.22834807053 0.30933421706 0.39547021335 0.37426475315 0.47125692706 
0.49847596648 0.48703809898 0.42701071391 0.38613667453 0.39163636109 0.35259204321 0.33817309985 0.32644820194 0.32539325735 
0.30828574697 0.28882507314 0.28787164212 0.2696587993 0.51303081879 0.39993817197 0.6155304513 0.61840657798 0.60132377901 
0.50708512562 0.40840699605 0.31728012815 0.19407590854 0.36190697255 0.28037767604 0.55834656841 0.51333227061 0.34793331096 
0.31595625225 0.28522491146 0.24761022307 0.20862407324 0.18358126362 0.23679947822 0.23510724834 0.21883244106 0.1979115395 
0.18139762927 0.18718022724 0.21416299169 0.23629825239 0.26733113981 0.25924427183 0.3361374997 0.42349132658 0.44321309268 
0.45373192492 0.4408456219 0.42245965179 0.40319982999 0.37812230358 0.33415806795 0.29119735148 0.23581628531 0.20135173439 
0.18912131028 0.18614711109 0.22104333836 0.2286614171 0.18959599172 0.11059890982 0.10918158657 0.15265538971 0.13157468475 
0.19251434828 0.24967429943 0.28105324062 0.26320939688 0.11754994613 0.19713929576 0.32559856381 0.43222740513 0.52584506863 
0.48732581407 0.37118504918 0.29016746531 0.20863094748 0.225191809 0.24035508887 0.32194403275 0.375834916 0.42758243652 
0.46750087742 0.49792263287 0.44531618551 0.46466103066 0.38845895446 0.50772724595 0.48231597642 0.44591865274 0.39850386415 
0.34710863839 0.18939302646 0.10264720663 0.16121692538 0.066576013187 0.11100883799 0.15116066113 0.16669172087 0.18667937352 
0.17036653454 0.34320566446 0.32951903695 0.31404077669 0.30422241755 0.2999587187 0.29838958105 0.29349060197 0.26650915518 
0.22295882094 0.17077858 0.087869763771 0.069044914922 0.11464842714 0.098698001345 0.15334892118 0.15027751443 0.1925090417 
0.22949497771 0.22489173498 0.25109112707 0.29345525165 0.28506305865 0.27274319654 0.25055179672 0.3048056764 0.39688155215 
0.46023395516 0.45880637152 0.40630392025 0.32775617982 0.26488737723 0.20952315384 0.41130536553 0.35904141653 0.28112746435 
0.19092051577 0.25609838338 0.18707227699 0.3163242987 0.27607461427 0.34039536043 0.3269528544 0.22591235269 0.33161404728 
0.22532059377 0.2173388597 0.23093356288 0.33028503403 0.28681860764 0.15307285923 0.13207306441 0.18472063914 0.98058323162 
0.96768978579 0.24134681465 0.12532075243 0.14261833098 0.093500593529 0.085627387758 0.19371293215 
Normal 3 1114 float
-0.606662 -0.204127 -0.768305 -0.716988 -0.24069 -0.650222 -0.719653 -0.377757 -0.568437 
-0.569196 -0.383949 -0.719813 -0.864667 -0.211203 -0.421573 -0.8239 -0.398528 -0.3669 
-0.960507 -0.154659 -0.18257 -0.908771 -0.378913 -0.119889 -0.990551 -0.0970608 0.0153075 
-0.933725 -0.332738 0.0795221 -0.98474 -0.0571394 0.158745 -0.939615 -0.281661 0.16565 
-0.966866 -0.0498697 0.250028 -0.920411 -0.274999 0.255902 -0.922533 -0.108176 0.3622 
-0.893392 -0.285022 0.340941 -0.888995 -0.155513 0.428822 -0.862089 -0.273062 0.42405 
-0.845068 -0.17065 0.501424 -0.805722 -0.277372 0.520369 -0.776552 -0.152595 0.608363 
-0.726247 -0.270982 0.628004 -0.676957 -0.12683 0.718228 -0.6092 -0.236765 0.753369 
-0.494425 -0.0941945 0.860974 -0.456426 -0.218506 0.859548 -0.335104 -0.140484 0.928636 
-0.299618 -0.233333 0.923074 -0.16645 -0.0804568 0.978896 -0.131144 -0.221618 0.962709 
-0.0347424 -0.0386807 0.998008 -0.00791336 -0.23688 0.967678 0.0487433 -0.0113271 0.997575 
0.0576342 -0.235401 0.964476 0.19246 0.0398028 0.975388 0.197679 -0.239578 0.940115 
0.280663 0.0807884 0.956252 0.309305 -0.261801 0.905796 0.300032 0.141513 0.940748 
0.357345 -0.223761 0.894506 0.349504 0.236278 0.903033 0.432624 -0.114223 0.882932 
0.57104 0.258756 0.77003 0.584222 -0.0675814 0.79606 0.71683 0.230879 0.648428 
0.699904 -0.114421 0.688922 0.834723 0.202665 0.493982 0.8053 -0.199234 0.525624 
0.931484 0.165046 0.301304 0.899658 -0.269001 0.296601 0.99202 0.0705452 0.0917843 
0.965597 -0.226181 -0.00205233 0.977351 -0.0271462 -0.160818 0.949101 -0.192911 -0.225975 
0.935092 -0.0236129 -0.339078 0.90642 -0.166003 -0.377109 0.88639 -0.0196742 -0.45827 
0.858051 -0.143359 -0.48803 0.83938 -0.0366508 -0.540528 0.815013 -0.132693 -0.561427 
0.790178 -0.0323276 -0.611494 0.765082 -0.117771 -0.630259 0.712512 -0.0195076 -0.69897 
0.682467 -0.127604 -0.715307 0.600981 -0.0618401 -0.79015 0.570004 -0.143837 -0.803469 
0.474897 -0.0938417 -0.870193 0.450192 -0.170726 -0.87351 0.352246 -0.0983813 -0.929812 
0.338697 -0.191268 -0.919212 0.263851 -0.111278 -0.957935 0.239652 -0.212952 -0.945578 
0.169559 -0.114467 -0.977961 0.1177 -0.206541 -0.968273 0.0738376 -0.0924268 -0.991556 
0.0342608 -0.189499 -0.978104 -0.0257568 -0.0933229 -0.993664 -0.055781 -0.18408 -0.976694 
-0.141914 -0.113207 -0.980469 -0.171705 -0.166963 -0.968239 -0.278259 -0.133886 -0.947076 
-0.278777 -0.202475 -0.929122 -0.431323 -0.15667 -0.883288 -0.433217 -0.313782 -0.83276 
-0.233011 -0.139776 -0.962376 -0.0655521 -0.158123 -0.974411 -0.0296958 -0.0508377 -0.99148 
-0.155781 -0.0151469 -0.986468 0.0683405 -0.161332 -0.983961 0.0812451 -0.0856362 -0.992025 
0.104646 -0.120535 -0.986288 0.127799 -0.117128 -0.984034 0.150497 -0.11647 -0.980614 
0.175517 -0.159942 -0.969387 0.204749 -0.144732 -0.967898 0.228532 -0.227878 -0.946257 
0.290749 -0.165868 -0.939523 0.302103 -0.232379 -0.922563 0.383763 -0.177526 -0.903177 
0.380323 -0.225302 -0.894721 0.485302 -0.174582 -0.855382 0.467698 -0.202437 -0.859481 
0.614078 -0.143654 -0.766517 0.555487 -0.108428 -0.816929 0.70912 -0.0696362 -0.695503 
0.620396 0.0136269 -0.777841 0.745549 0.0643168 -0.661845 0.642238 0.168534 -0.744061 
0.750904 0.143591 -0.642502 0.683114 0.253705 -0.680055 0.792657 0.166306 -0.579105 
0.739956 0.310459 -0.588294 0.868843 0.140338 -0.473655 0.819271 0.323201 -0.463257 
0.913971 0.129489 -0.378908 0.85997 0.333169 -0.375701 0.940502 0.160984 -0.289432 
0.880951 0.34496 -0.315325 0.950682 0.225326 -0.183929 0.900763 0.364958 -0.232806 
0.931358 0.334462 0.01876 0.915737 0.36852 -0.0101922 0.910173 0.331759 0.203913 
0.900218 0.35836 0.20427 0.885365 0.274331 0.370575 0.857816 0.331592 0.38948 
0.845324 0.215813 0.48149 0.807586 0.292573 0.502711 0.807503 0.199256 0.553218 
0.772777 0.238444 0.585471 0.771585 0.205574 0.601617 0.755769 0.178817 0.62757 
0.739912 0.212511 0.637471 0.743905 0.183943 0.641656 0.676403 0.219252 0.697773 
0.688411 0.174546 0.70047 0.591896 0.228175 0.772051 0.623936 0.208876 0.752708 
0.456328 0.298059 0.828677 0.530277 0.300892 0.783255 0.351949 0.362391 0.861069 
0.433907 0.391759 0.808785 0.292699 0.418691 0.858398 0.338373 0.501113 0.791341 
0.236171 0.451338 0.859086 0.259658 0.554724 0.787436 0.175508 0.479944 0.858238 
0.186713 0.578217 0.791946 0.0841169 0.527629 0.841581 0.0922984 0.589409 0.795971 
0.0284355 0.537114 0.842494 -0.0623223 0.567668 0.806029 0.00921533 0.507593 0.861346 
-0.344662 0.484156 0.797435 -0.293003 0.414505 0.802187 -0.497483 0.440634 0.73531 
-0.589095 0.319125 0.741825 -0.608176 0.396332 0.686185 -0.614033 0.266357 0.741787 
-0.638656 0.341001 0.686261 -0.633072 0.208352 0.744007 -0.658704 0.296371 0.689262 
-0.647578 0.146165 0.747801 -0.672231 0.259587 0.69049 -0.721911 0.089069 0.680234 
-0.729613 0.226064 0.640841 -0.79448 0.0471274 0.598943 -0.793649 0.195168 0.570662 
-0.86427 0.0290542 0.496038 -0.853948 0.16874 0.487041 -0.902198 0.050651 0.423803 
-0.883623 0.165799 0.434995 -0.926984 0.0885116 0.363803 -0.898339 0.170154 0.40168 
-0.938071 0.141633 0.309355 -0.906686 0.238509 0.342571 -0.952062 0.179893 0.217952 
-0.922025 0.268891 0.263659 -0.972395 0.185698 0.0458535 -0.947593 0.275622 0.0822197 
-0.965892 0.198994 -0.112088 -0.949798 0.27407 -0.0977894 -0.937246 0.21847 -0.258349 
-0.932202 0.251979 -0.245923 -0.881673 0.206662 -0.401468 -0.89065 0.228417 -0.377423 
-0.820184 0.187216 -0.540284 -0.830834 0.222729 -0.508936 -0.780885 0.175452 -0.596425 
-0.769579 0.242848 -0.585228 -0.735193 0.163325 -0.655288 -0.718568 0.24296 -0.649152 
-0.671514 0.150176 -0.721809 -0.656713 0.213616 -0.719028 -0.598677 0.123676 -0.786459 
-0.574639 0.182391 -0.792388 -0.516524 0.083594 -0.849206 -0.47515 0.131143 -0.866396 
-0.384286 -0.0166562 -0.906775 -0.314509 0.0518873 -0.933474 -0.714934 -0.568413 -0.383394 
-0.572946 -0.575366 -0.569166 -0.856799 -0.492946 -0.109492 -0.893737 -0.43695 0.0925706 
-0.894278 -0.411484 0.172168 -0.87919 -0.382582 0.281107 -0.867367 -0.31422 0.383734 
-0.852393 -0.277863 0.440502 -0.808592 -0.272737 0.516641 -0.734235 -0.265406 0.617457 
-0.612339 -0.282038 0.734188 -0.462741 -0.294496 0.833843 -0.306765 -0.295879 0.90228 
-0.157817 -0.334516 0.926488 -0.0282673 -0.368456 0.927326 0.0485253 -0.388125 0.918222 
0.176401 -0.41786 0.888196 0.294255 -0.469994 0.831725 0.350232 -0.486918 0.7997 
0.443104 -0.485372 0.750239 0.524847 -0.494493 0.68799 0.600436 -0.505743 0.612289 
0.705324 -0.533387 0.452369 0.851097 -0.482215 0.153566 0.940961 -0.30756 -0.127139 
0.918185 -0.270474 -0.285771 0.880625 -0.253209 -0.396507 0.841036 -0.240123 -0.481623 
0.79855 -0.228865 -0.554209 0.757696 -0.213336 -0.615603 0.693157 -0.21023 -0.687994 
0.58573 -0.21789 -0.776209 0.46445 -0.247443 -0.846347 0.355118 -0.276553 -0.891041 
0.241375 -0.312175 -0.916449 0.108905 -0.337105 -0.930727 0.0224391 -0.35306 -0.930291 
-0.0496132 -0.393566 -0.907173 -0.151345 -0.373928 -0.901487 -0.161107 -0.41709 -0.875726 
-0.245615 -0.514983 -0.784362 -0.433965 -0.581331 -0.676946 0.0776866 0.0447246 -0.994015 
-0.0295619 0.0782818 -0.992755 0.159955 0.0157709 -0.986032 0.220569 -0.038941 -0.972415 
0.261872 -0.0937086 -0.959989 0.302547 -0.125623 -0.94292 0.353859 -0.12689 -0.924035 
0.40933 -0.103784 -0.90304 0.463502 -0.043462 -0.882208 0.489203 0.0831557 -0.85942 
0.525524 0.21621 -0.818338 0.578908 0.330301 -0.737499 0.67166 0.406847 -0.613155 
0.759898 0.455358 -0.452279 0.810611 0.463357 -0.355333 0.838185 0.452158 -0.304088 
0.867789 0.439532 -0.220679 0.906062 0.411758 -0.0454299 0.893743 0.396789 0.160772 
0.845006 0.400914 0.345015 0.783794 0.3972 0.470161 0.724051 0.359792 0.58394 
0.701911 0.288058 0.650478 0.713676 0.246192 0.655557 0.68402 0.24192 0.687565 
0.70885 0.220658 0.668715 0.629203 0.3172 0.704116 0.559683 0.411145 0.715172 
0.459616 0.543965 0.694898 0.332041 0.639498 0.68793 0.215219 0.689569 0.689485 
0.0900679 0.703119 0.698619 -0.132949 0.677091 0.707716 -0.311671 0.632176 0.701889 
-0.489891 0.581663 0.641817 -0.568561 0.556469 0.602553 -0.616253 0.531918 0.577222 
-0.643763 0.492506 0.57809 -0.669273 0.427012 0.606822 -0.706129 0.381036 0.593566 
-0.770197 0.328594 0.54126 -0.838574 0.274692 0.464625 -0.878974 0.212693 0.420267 
-0.903925 0.165229 0.393745 -0.909361 0.140891 0.386977 -0.914652 0.189068 0.336688 
-0.912273 0.259845 0.286787 -0.896283 0.29449 0.155613 -0.921166 0.259315 -0.232122 
-0.894999 0.22709 -0.376699 -0.853176 0.221607 -0.468984 -0.799782 0.223062 -0.553285 
-0.74327 0.234632 -0.622945 -0.677998 0.246632 -0.690058 -0.58538 0.228913 -0.770713 
-0.482283 0.206982 -0.8495 -0.329767 0.159047 -0.922897 -0.177162 0.12186 -0.973269 
0.718326 0.231354 0.655609 0.72586 0.212015 0.653849 -0.91183 -0.341685 0.218888 
-0.901967 -0.399866 0.161303 -0.903384 -0.284701 0.310417 -0.876191 -0.246812 0.407818 
-0.854449 -0.219614 0.467 -0.834554 -0.154897 0.523031 -0.779538 -0.145433 0.604912 
-0.660289 -0.192914 0.720193 -0.512275 -0.257539 0.813193 -0.350025 -0.324606 0.876277 
-0.224432 -0.391249 0.889778 -0.0787175 -0.447954 0.888628 0.0156832 -0.476615 0.877825 
0.103035 -0.491533 0.863416 0.233859 -0.50982 0.827463 0.315957 -0.534201 0.783271 
0.396902 -0.554151 0.729101 0.487064 -0.567437 0.662019 0.570733 -0.556496 0.602505 
0.721997 -0.493603 0.472832 0.850949 -0.405884 0.286171 0.890973 -0.3426 -0.292154 
0.906221 -0.373056 -0.179697 0.851847 -0.341649 -0.391681 0.80222 -0.334453 -0.486589 
0.75702 -0.310656 -0.570864 0.72345 -0.284309 -0.626106 0.657859 -0.281453 -0.69515 
0.566769 -0.291377 -0.766535 0.465308 -0.322821 -0.822325 0.377241 -0.347186 -0.857467 
0.28691 -0.385861 -0.875513 0.170982 -0.443348 -0.877049 0.0869668 -0.537601 -0.833553 
0.0589614 -0.695273 -0.710989 0.0033874 -0.731341 -0.657261 0.0377745 -0.770221 -0.607985 
-0.118527 -0.844895 -0.495768 -0.353144 -0.826493 -0.419867 -0.520287 -0.747261 -0.386245 
-0.643755 -0.682848 -0.32207 0.909508 -0.397016 -0.074929 0.910314 -0.372068 0.151704 
0.708145 0.255423 0.656283 0.73693 0.159043 0.655691 0.700887 0.263757 0.660723 
0.650034 0.356784 0.661959 0.58938 0.410566 0.687283 0.48437 0.498807 0.707339 
0.333094 0.601729 0.716564 0.182159 0.624838 0.750168 0.0216805 0.572924 0.811334 
-0.470333 0.632842 0.612297 -0.328927 0.632616 0.690337 -0.543734 0.6261 0.554954 
-0.599017 0.621194 0.504414 -0.644718 0.585482 0.489058 -0.682157 0.532971 0.496516 
-0.713647 0.480567 0.506802 -0.788318 0.376414 0.464719 -0.885596 0.238758 0.389577 
-0.924975 0.115634 0.353093 -0.921692 0.0532425 0.382321 -0.910748 0.0376106 0.40915 
-0.905887 0.0457398 0.418224 -0.901533 0.0570695 0.428161 -0.933989 0.0896093 0.156003 
-0.970024 0.122614 -0.197207 -0.925454 0.151732 -0.32858 -0.873607 0.177309 -0.44948 
-0.816299 0.214624 -0.534667 -0.748244 0.229232 -0.618189 -0.667522 0.230709 -0.704309 
-0.568878 0.215847 -0.788149 -0.452714 0.200932 -0.866275 -0.313757 0.185179 -0.9234 
-0.14516 0.161536 -0.971441 0.000271763 0.154789 -0.984837 0.112159 0.113023 -0.983946 
0.205674 0.0697285 -0.974002 0.264719 0.0416421 -0.962166 0.298657 0.01405 -0.952933 
0.313934 0.0118581 -0.948331 0.339469 0.0192716 -0.938942 0.366871 0.0475932 -0.928346 
0.364396 0.117995 -0.920902 0.380297 0.196453 -0.901381 0.410505 0.267683 -0.870297 
0.499279 0.328462 -0.793785 0.606513 0.379757 -0.691943 0.722368 0.42698 -0.532845 
0.807804 0.432596 -0.389055 0.867026 0.409494 -0.278765 0.879672 0.427145 -0.206105 
0.907803 0.397249 -0.0152485 0.902885 0.378193 0.170911 0.863695 0.371425 0.331258 
0.787607 0.360245 0.483517 0.712868 0.331246 0.616953 0.681183 0.296895 0.666241 
0.658473 0.249898 0.709725 0.706928 0.143645 0.691229 0.731777 0.086133 0.674609 
0.762413 0.175513 0.621801 0.761008 0.0490259 0.645845 -0.213435 0.588557 0.768868 
-0.0773569 0.442831 0.884781 0.882505 -0.459792 -0.0563786 0.825484 -0.546864 0.0579021 
0.826274 -0.527907 -0.16511 0.784402 -0.546097 -0.28088 0.754627 -0.536506 -0.370387 
0.728047 -0.500443 -0.456604 0.694723 -0.469462 -0.534933 0.666103 -0.432251 -0.603027 
0.634253 -0.397095 -0.658355 0.554352 -0.382888 -0.734383 0.472187 -0.39496 -0.784958 
0.387407 -0.447767 -0.804822 0.295501 -0.506368 -0.807728 0.230002 -0.576922 -0.780035 
0.195129 -0.659158 -0.723968 0.209947 -0.729373 -0.648456 0.125648 -0.893669 -0.423647 
0.158781 -0.885175 -0.43254 -0.0480813 -0.900331 -0.401213 -0.292495 -0.90519 -0.286011 
-0.484794 -0.840207 -0.23838 -0.593524 -0.778675 -0.185684 -0.92232 -0.22561 0.307985 
-0.911225 -0.307466 0.262021 -0.912977 -0.16719 0.369051 -0.886118 -0.145842 0.438836 
-0.8475 -0.116794 0.51554 -0.824169 -0.10905 0.555229 -0.787626 -0.12421 0.600822 
-0.715832 -0.189254 0.666218 -0.573077 -0.31428 0.751363 -0.400354 -0.420131 0.812325 
-0.248104 -0.540025 0.798947 -0.0660187 -0.515348 0.853031 0.0337076 -0.505393 0.861039 
0.133548 -0.502441 0.85356 0.222736 -0.490562 0.841586 0.305775 -0.4773 0.821723 
0.397036 -0.458591 0.790729 0.50058 -0.43433 0.741016 0.606556 -0.408184 0.672304 
0.729077 -0.34837 0.574736 0.869808 -0.288226 0.384325 0.887215 -0.297521 0.326949 
0.882636 -0.313974 0.324194 0.828039 -0.545057 0.104298 0.837433 -0.460161 0.25067 
0.750309 -0.655855 -0.0371612 -0.890858 -0.419183 0.171117 -0.853559 -0.44856 0.244785 
-0.801632 -0.556499 0.178663 -0.785609 -0.562794 0.233467 0.169472 -0.841155 -0.508225 
0.252581 -0.75297 -0.603617 0.71552 0.295883 0.632007 0.62802 0.356121 0.67934 
0.51814 0.411884 0.735761 0.368074 0.451611 0.799708 0.217761 0.463043 0.845281 
0.109697 0.427439 0.885731 0.0147725 0.327856 0.941418 -0.139434 0.311443 0.934106 
-0.0760765 0.246934 0.961121 -0.260342 0.438968 0.846452 -0.397151 0.561041 0.718478 
-0.499101 0.614801 0.604191 -0.581077 0.6056 0.536931 -0.658002 0.572241 0.488432 
-0.694654 0.541964 0.471014 -0.728173 0.494987 0.469068 -0.807083 0.399679 0.421326 
-0.891372 0.268051 0.337667 -0.95306 0.0891797 0.269021 -0.954549 0.0306725 0.291304 
-0.938356 0.00310557 0.341684 -0.911229 -0.00609479 0.409585 -0.930178 0.00879752 0.332625 
-0.970391 0.0122432 0.200261 -0.989805 0.0320063 0.0017536 -0.974259 0.0697479 -0.192581 
-0.931589 0.132965 -0.326783 -0.881077 0.181723 -0.435007 -0.812939 0.233729 -0.525083 
-0.734595 0.27159 -0.614129 -0.63999 0.293202 -0.703538 -0.526984 0.299283 -0.786467 
-0.399057 0.29924 -0.864495 -0.269017 0.313856 -0.905462 -0.0638199 0.21666 -0.969777 
0.0766679 0.173288 -0.976493 0.179687 0.138416 -0.971473 0.2557 0.112059 -0.958811 
0.288496 0.101402 -0.951944 0.305115 0.0971182 -0.947275 0.314124 0.115859 -0.94215 
0.308594 0.14732 -0.938918 0.287983 0.202816 -0.935647 0.289868 0.253455 -0.92196 
0.326423 0.29127 -0.89783 0.405428 0.307492 -0.858925 0.516074 0.313112 -0.790064 
0.645881 0.336353 -0.681481 0.761881 0.330583 -0.542225 0.845066 0.326742 -0.4147 
0.881896 0.306393 -0.348307 0.927207 0.328994 0.114723 0.931934 0.346203 -0.0715998 
0.908767 0.288753 0.282199 0.860006 0.249026 0.432655 0.773695 0.222518 0.577603 
0.692029 0.233408 0.677162 0.673743 0.239822 0.69663 0.677312 0.16791 0.71477 
0.646748 0.140252 0.748257 0.666855 0.0854506 0.737677 0.717726 0.0391096 0.691983 
0.796323 0.00309871 0.603136 0.719096 0.00435267 0.691824 0.798583 0.075135 0.593296 
0.761601 0.144574 0.627641 0.661045 0.198626 0.712564 0.51855 0.259333 0.804283 
0.357031 0.276107 0.877845 0.220947 0.293732 0.920988 0.642524 0.0852308 0.761105 
0.650441 0.10149 0.752488 0.629171 0.0778133 0.7724 0.666058 -0.0346173 0.74031 
0.732405 -0.1263 0.66546 0.629584 0.0599368 0.774223 0.779441 -0.121831 0.610727 
0.789938 -0.088266 0.606042 0.753583 -0.0342471 0.647108 0.697641 0.0257134 0.712616 
0.537004 0.0897507 0.817945 0.365134 0.141535 0.914624 0.192415 0.174083 0.957891 
0.91711 0.313646 -0.234104 0.917825 0.259461 -0.29897 0.731386 -0.667555 -0.122908 
0.696836 -0.682549 -0.207488 0.670286 -0.677685 -0.294709 0.639646 -0.648073 -0.406007 
0.597272 -0.625753 -0.494585 0.570592 -0.587051 -0.567359 0.54767 -0.54947 -0.625001 
0.513832 -0.538986 -0.662047 0.462796 -0.549752 -0.691617 0.402246 -0.54954 -0.731495 
0.333102 -0.545876 -0.768336 0.30109 -0.575516 -0.759685 0.302925 -0.622601 -0.720774 
0.297171 -0.675713 -0.672352 0.310629 -0.667654 -0.67363 0.256747 -0.703856 -0.66126 
0.319394 -0.624168 -0.710817 0.210557 -0.779341 -0.582385 0.171364 -0.858253 -0.480646 
0.0511546 -0.880072 -0.455683 -0.151536 -0.883514 -0.421271 -0.367118 -0.86652 -0.312027 
-0.467951 -0.856274 -0.20176 -0.538358 -0.830696 -0.121603 -0.744963 -0.655324 -0.0409229 
-0.598955 -0.796873 -0.0235754 -0.795062 -0.586177 0.0817399 -0.677617 -0.715707 0.1168 
-0.730421 -0.633125 0.237629 -0.765951 -0.552036 0.315863 -0.807642 -0.477577 0.330835 
-0.851758 -0.390372 0.340735 -0.878485 -0.300114 0.363275 -0.87514 -0.259095 0.40348 
-0.848813 -0.278086 0.446639 -0.816819 -0.267987 0.49537 -0.802859 -0.255428 0.531383 
-0.786929 -0.279371 0.544725 -0.741421 -0.357454 0.558912 -0.651598 -0.478174 0.584748 
-0.476011 -0.612185 0.622667 -0.284237 -0.697574 0.647911 0.0907096 -0.484698 0.86939 
0.0023089 -0.549672 0.832728 0.209416 -0.393128 0.89356 0.319925 -0.315262 0.890603 
0.385222 -0.246038 0.884494 0.463906 -0.205258 0.855798 0.554182 -0.15544 0.815605 
0.645822 -0.121648 0.746006 0.726562 -0.0770513 0.676721 0.798663 -0.0362161 0.597128 
0.836407 -0.15768 0.500633 0.829883 -0.203236 0.49915 0.833966 -0.179997 0.507312 
0.850098 -0.440676 0.245084 0.869535 -0.233067 0.404928 0.800934 -0.584182 0.0959922 
0.773185 -0.628079 0.0157303 -0.0714678 -0.615387 0.779841 -0.150193 -0.746125 0.641899 
0.0499452 0.132937 0.986889 0.0556013 0.229941 0.963669 -0.0660928 0.14967 0.982618 
-0.00985791 0.0588828 0.993413 -0.194302 0.291262 0.932693 -0.274122 0.370174 0.8749 
-0.371575 0.431332 0.804347 -0.495507 0.484262 0.715374 -0.596123 0.485342 0.622876 
-0.703619 0.449581 0.544271 -0.755207 0.409506 0.500983 -0.808517 0.356947 0.460331 
-0.873598 0.247589 0.388264 -0.93741 0.145678 0.290553 -0.970827 0.0946194 0.196274 
-0.972998 0.0617625 0.204711 -0.949476 -0.0355441 0.300946 -0.918987 -0.0619187 0.384266 
-0.921706 -0.067971 0.376835 -0.947151 -0.0542306 0.308517 -0.982182 -0.0268255 0.0666678 
-0.987153 0.0553335 -0.137587 -0.953089 0.113163 -0.258388 -0.916062 0.162846 -0.36065 
-0.866457 0.209173 -0.444487 -0.800403 0.250102 -0.536991 -0.71782 0.28754 -0.628232 
-0.607614 0.327801 -0.713962 -0.466319 0.344799 -0.807856 -0.283251 0.287013 -0.901663 
0.130236 0.149084 -0.977738 0.042558 0.170715 -0.976894 0.201691 0.123702 -0.969567 
0.263435 0.0995174 -0.958838 0.297768 0.0757723 -0.95131 0.305704 0.0629617 -0.949951 
0.290257 0.0746096 -0.953721 0.266745 0.103662 -0.957006 0.236521 0.147682 -0.95975 
0.276791 0.193254 -0.93859 0.360837 0.222891 -0.902439 0.473222 0.199927 -0.853113 
0.601032 0.188672 -0.763996 0.725572 0.187053 -0.657306 0.815767 0.207418 -0.523573 
0.879688 0.230817 -0.411882 0.898224 0.242627 -0.360408 0.911933 0.179437 -0.36193 
0.939454 0.170741 -0.281335 0.922968 0.0659271 -0.368267 0.951633 0.256591 -0.113926 
0.947444 0.292678 -0.0400666 0.937866 0.301596 0.122239 0.907609 0.268547 0.302782 
0.857451 0.215448 0.457298 0.78237 0.186925 0.584081 0.706631 0.18378 0.681604 
-0.0697446 0.199666 -0.973204 -0.222645 0.200908 -0.946842 0.152247 0.0743496 0.978157 
0.0551141 -0.0268222 0.994715 -0.0670338 -0.00926626 0.992569 0.0454068 -0.138847 0.986167 
-0.128207 0.0987481 0.985328 -0.193117 0.187187 0.954053 -0.284224 0.287647 0.909321 
-0.347892 0.285576 0.882883 -0.450645 0.274004 0.832873 -0.579921 0.227236 0.758149 
-0.714473 0.18466 0.672638 -0.7764 0.176018 0.597296 -0.837633 0.159109 0.516672 
-0.891957 0.11143 0.420524 -0.941155 0.0216727 0.317444 -0.97052 -0.0742373 0.202013 
-0.970299 -0.162493 0.154605 -0.937508 -0.139288 0.307767 -0.894848 -0.159083 0.41308 
-0.905184 -0.156986 0.382774 -0.934275 -0.146176 0.30032 -0.976254 -0.0954906 0.139426 
-0.991631 -0.0467631 -0.0223821 -0.977225 0.000543167 -0.168124 -0.951172 0.0570734 -0.289005 
-0.915522 0.124917 -0.374281 -0.851986 0.183849 -0.477429 -0.773418 0.232395 -0.586523 
-0.670608 0.257626 -0.681914 -0.575524 0.244445 -0.769183 -0.403716 0.171512 -0.884578 
-0.219252 0.0697486 -0.953067 -0.0160923 0.0610693 -0.992715 -0.193991 -0.0422856 -0.972751 
0.0259614 0.116254 -0.988222 0.0651028 0.147312 -0.980022 0.152212 0.131313 -0.977983 
0.224847 0.107022 -0.965959 0.286884 0.0825891 -0.954235 0.307878 0.0757125 -0.948218 
0.317544 0.0656606 -0.945715 0.303345 0.0140062 -0.951658 0.276351 -0.0351013 -0.959284 
0.231206 -0.057238 -0.970019 0.259602 -0.0641859 -0.956529 0.37907 -0.0102704 -0.914945 
0.507639 0.00615972 -0.856235 0.610972 0.0102541 -0.78141 0.711452 0.0176578 -0.699116 
0.79989 0.0436492 -0.582839 0.880609 0.0937381 -0.455668 0.900884 -0.013465 -0.424598 
0.934462 -0.0254191 -0.352199 0.888277 -0.0895505 -0.444546 0.961626 0.0645969 -0.22271 
0.97013 0.180379 -0.15114 0.962416 0.23797 0.0264719 0.954885 0.221487 0.139384 
0.9252 0.193828 0.305578 0.856544 0.153555 0.478696 0.757219 0.0985245 0.637708 
0.732137 -0.665652 -0.100104 0.678874 -0.690877 -0.239201 0.624636 -0.694626 -0.349472 
0.575558 -0.692506 -0.432964 0.53529 -0.682701 -0.493873 0.496827 -0.66967 -0.550572 
0.476014 -0.648343 -0.592597 0.447136 -0.628708 -0.634513 0.416108 -0.60201 -0.681132 
0.369918 -0.584878 -0.720662 0.340252 -0.564678 -0.751274 0.331034 -0.544946 -0.770226 
0.350019 -0.551876 -0.756762 0.357221 -0.57802 -0.732563 0.354306 -0.601149 -0.715279 
0.353626 -0.561252 -0.745528 0.298423 -0.534608 -0.783567 0.366354 -0.39434 -0.838166 
0.232556 -0.655769 -0.715689 0.184147 -0.70458 -0.680569 0.0712467 -0.750958 -0.654352 
-0.116951 -0.797509 -0.56562 -0.289986 -0.831246 -0.46451 -0.404312 -0.847385 -0.322974 
-0.490852 -0.843421 -0.194832 -0.561486 -0.820923 -0.087769 -0.636868 -0.760968 0.0269352 
-0.680337 -0.711555 0.148313 -0.685959 -0.677064 0.253945 -0.703141 -0.630475 0.324267 
-0.70153 -0.609333 0.366677 -0.736037 -0.549163 0.384551 -0.766035 -0.511923 0.384477 
-0.796668 -0.470091 0.376803 -0.782611 -0.490218 0.37549 -0.764213 -0.481564 0.42318 
-0.700863 -0.547283 0.44159 -0.662434 -0.616234 0.41302 -0.602999 -0.693038 0.393047 
-0.519781 -0.731906 0.434425 -0.425727 -0.761404 0.480778 -0.321748 -0.790075 0.514841 
-0.191634 -0.781083 0.5897 -0.0138729 -0.710555 0.699972 -0.0534654 -0.702909 0.705518 
0.0149838 -0.70518 0.705145 0.0884529 -0.629205 0.768483 0.179765 -0.533773 0.817136 
0.319311 -0.36395 0.867306 0.44296 -0.141533 0.879891 0.498498 -0.00200442 0.8642 
0.53596 0.0814119 0.837352 0.603918 0.121622 0.786475 0.665882 0.0888365 0.737929 
0.721243 0.0536107 0.689888 0.740937 0.00997587 0.668299 0.746195 -0.0215533 0.66314 
0.781649 -0.0867059 0.611189 0.820255 -0.0730096 0.562206 0.858304 -0.0449336 0.499561 
0.925872 -0.2333 0.281726 0.908775 -0.0493044 0.398819 0.879672 -0.372727 0.262227 
0.864122 -0.465821 0.113547 0.819047 -0.559568 -0.0526191 -0.285435 0.159065 0.933066 
-0.514829 0.105046 0.845039 -0.638879 0.0556435 0.753582 -0.742781 0.0149872 0.66772 
-0.795677 -0.043445 0.593294 -0.847817 -0.105233 0.514868 -0.89183 -0.176213 0.389663 
-0.927623 -0.247804 0.273528 -0.914294 -0.332655 0.210161 -0.893754 -0.414241 0.16679 
-0.887087 -0.233367 0.395793 -0.915277 -0.273857 0.276409 -0.88965 -0.212793 0.399712 
-0.93661 -0.138035 0.30639 -0.971727 -0.0792351 0.120285 -0.994975 -0.0260183 -0.0597864 
-0.979117 -0.00542799 -0.172174 -0.956623 0.016828 -0.27944 -0.916602 0.0469084 -0.380674 
-0.860162 0.0735902 -0.494122 -0.781895 0.0820489 -0.604387 -0.681195 0.0817266 -0.714538 
-0.560829 0.0593035 -0.806608 -0.463499 0.0182727 -0.875066 -0.401555 -0.0579582 -0.889971 
-0.254651 -0.117607 -0.947628 -0.0569074 -0.113388 -0.985286 -0.0910979 -0.172774 -0.967832 
-0.0320963 -0.0579002 -0.984081 0.0989062 0.00647269 -0.986401 0.182673 0.00765682 -0.979617 
0.234392 0.0040884 -0.970983 0.276807 -0.00246232 -0.959432 0.312983 0.00222429 -0.949251 
0.336859 -0.0326962 -0.940319 0.359781 -0.0610751 -0.930909 0.341575 -0.0967561 -0.933688 
0.296672 -0.142756 -0.943246 0.240268 -0.163533 -0.956046 0.244516 -0.183859 -0.95079 
0.574125 -0.16798 -0.799938 0.467706 -0.172775 -0.860976 0.672524 -0.150945 -0.715414 
0.780559 -0.121835 -0.61122 0.854294 -0.0766704 -0.504047 -0.928837 -0.30754 0.192247 
-0.866804 -0.461139 0.186691 0.821619 -0.149428 -0.543403 0.897213 -0.12189 -0.416796 
0.830353 -0.216725 -0.502379 0.935534 -0.0759244 -0.334 0.983858 -0.014669 -0.155416 
0.978699 0.117961 0.0674899 0.757981 -0.601162 -0.215743 0.706364 -0.625938 -0.325779 
0.661165 -0.640136 -0.384619 0.615906 -0.65592 -0.434594 0.563635 -0.665166 -0.485557 
0.515346 -0.66635 -0.537443 0.469903 -0.66553 -0.577684 0.432327 -0.645336 -0.628374 
0.395759 -0.606421 -0.687976 0.344897 -0.546584 -0.76185 0.328111 -0.508457 -0.795734 
0.342964 -0.498216 -0.795717 0.376774 -0.495289 -0.781729 0.384755 -0.498788 -0.774006 
0.364622 -0.270068 -0.888892 0.286899 -0.234998 -0.925631 0.337628 -0.150566 -0.92866 
0.268439 -0.373257 -0.881137 0.200316 -0.536634 -0.810074 0.0801152 -0.639178 -0.755977 
0.0341102 -0.675933 -0.729317 -0.102251 -0.703808 -0.690497 -0.252307 -0.733225 -0.615389 
-0.408415 -0.752688 -0.493795 -0.544295 -0.741795 -0.36389 -0.713706 -0.666135 -0.188146 
-0.753377 -0.644102 0.00110172 -0.755322 -0.629677 0.153 -0.711888 -0.636879 0.2748 
-0.690112 -0.626655 0.360152 -0.691224 -0.600029 0.400533 -0.704031 -0.57482 0.415556 
-0.733062 -0.548403 0.400157 -0.754946 -0.547678 0.357532 -0.755954 -0.570359 0.319162 
-0.689426 -0.641654 0.331663 -0.62055 -0.708535 0.328345 -0.60278 -0.728516 0.318173 
-0.587181 -0.746791 0.311615 -0.5221 -0.778764 0.343585 -0.45084 -0.792183 0.40583 
-0.342381 -0.79489 0.492487 -0.213422 -0.752992 0.61074 -0.156055 -0.689022 0.70018 
-0.00923168 -0.643485 0.759465 -0.0368642 -0.565576 0.818506 0.0843551 -0.647551 0.756405 
0.176845 -0.606992 0.766018 0.27085 -0.538233 0.795408 0.370119 -0.450082 0.802457 
0.468108 -0.353679 0.801256 0.572385 -0.205569 0.789679 0.598023 -0.00197081 0.795961 
0.593843 0.112689 0.794315 0.596867 0.162564 0.785516 0.634038 0.135241 0.760433 
0.659773 0.112813 0.741113 0.677296 0.0513771 0.729075 0.703647 0.00954934 0.704666 
0.71031 0.0477572 0.695754 0.749502 0.0591523 0.654512 0.822425 0.0391677 0.562377 
0.903564 0.0236839 0.401512 0.957947 -0.0674153 0.195112 0.970225 0.00427291 0.152102 
0.932713 -0.278344 0.105888 0.67004 0.0618095 0.738483 0.633748 0.0470037 0.771342 
0.603595 0.0746407 0.793646 0.607211 0.13304 0.782604 0.652467 0.0606281 0.750456 
0.717344 -0.0575971 0.692982 0.758782 -0.164779 0.627643 0.76659 -0.191907 0.611407 
0.705041 -0.189155 0.671602 0.595535 -0.161602 0.771595 0.371536 -0.0480146 0.90605 
0.22395 0.0305008 0.969711 0.19587 -0.130665 0.960289 0.0970376 -0.248099 0.959642 
-0.0652549 -0.268062 0.955192 0.0384642 -0.408716 0.899663 -0.0980935 -0.119869 0.982856 
-0.26284 0.0340551 0.948045 0.809717 -0.465284 -0.349879 0.870289 -0.398675 -0.243886 
0.719024 -0.529315 -0.440638 0.64475 -0.571974 -0.504155 0.572185 -0.60624 -0.547658 
0.523738 -0.611774 -0.591735 0.48322 -0.601058 -0.633545 0.436481 -0.595823 -0.6725 
0.395909 -0.58205 -0.709185 0.345606 -0.529445 -0.771678 0.300187 -0.364064 -0.880322 
0.3671 -0.331753 -0.867706 0.383813 -0.303424 -0.870712 0.259458 -0.0769944 -0.961103 
0.299698 -0.0532076 -0.952106 0.321771 -0.078985 -0.942646 0.265037 -0.145948 -0.950562 
0.192925 -0.231488 -0.951477 0.144446 -0.371518 -0.904038 0.0844875 -0.514635 -0.844221 
-0.0445396 -0.574883 -0.810466 -0.178813 -0.553691 -0.798647 -0.386575 -0.587632 -0.699652 
-0.524025 -0.58958 -0.592223 -0.635469 -0.572432 -0.5 -0.718142 -0.494876 -0.460319 
-0.874115 -0.467618 0.0184308 -0.894641 -0.412507 -0.107223 -0.831654 -0.519135 0.144421 
-0.778134 -0.552019 0.278823 -0.725692 -0.561599 0.386986 -0.715099 -0.543743 0.437806 
-0.740706 -0.537641 0.401077 -0.754979 -0.562409 0.330623 -0.767259 -0.583587 0.26094 
-0.704429 -0.666953 0.22975 -0.594157 -0.75402 0.278877 -0.645788 -0.71272 0.266709 
-0.567059 -0.768696 0.29562 -0.54255 -0.764389 0.344054 -0.494359 -0.768232 0.405469 
-0.424409 -0.745681 0.502334 -0.344066 -0.723902 0.591983 -0.212515 -0.60659 0.756593 
-0.118728 -0.458853 0.867606 -0.867843 -0.395775 -0.260354 -0.853245 -0.31513 -0.380105 
0.327793 -0.195513 -0.922189 0.282662 -0.238546 -0.928274 0.926175 0.0897393 0.350773 
0.848387 0.0569023 0.510036 0.775954 0.0420764 0.627323 0.727593 0.0560618 0.681082 
0.675665 0.0770817 0.731337 0.620863 0.130119 0.771338 0.623055 0.104435 0.77416 
-0.335556 -0.0655242 0.93317 -0.501093 -0.119031 0.832375 -0.677631 -0.155432 0.707876 
-0.745049 -0.218394 0.614458 -0.788665 -0.290969 0.521046 -0.82642 -0.334889 0.427101 
-0.848416 -0.397395 0.330452 -0.843047 -0.457512 0.250448 -0.80051 -0.560606 0.200293 
-0.843203 -0.484474 0.224801 -0.881148 -0.388581 0.257348 -0.86476 -0.362455 0.331498 
-0.845899 -0.331633 0.408165 -0.844816 -0.306451 0.432801 -0.861353 -0.275822 0.409874 
-0.919332 -0.244257 0.262362 -0.964991 -0.210794 0.073304 -0.967257 -0.180431 -0.107304 
-0.962921 -0.136917 -0.219706 -0.943788 -0.10618 -0.299154 -0.901228 -0.0806858 -0.410349 
-0.840127 -0.0677324 -0.519596 -0.764803 -0.063373 -0.633478 -0.66895 -0.0751407 -0.724028 
-0.562287 -0.0965333 -0.815405 -0.418445 -0.124718 -0.88577 -0.267168 -0.167589 -0.926972 
-0.259249 -0.268986 -0.911526 0.0528319 -0.16374 -0.978757 -0.0800708 -0.273473 -0.951926 
0.0939298 -0.111872 -0.983261 0.109859 -0.071631 -0.983539 0.174892 -0.0385302 -0.981931 
0.204858 -0.054439 -0.975529 0.317905 -0.27648 0.901177 0.197147 -0.392291 0.888618 
0.122986 -0.525679 0.83866 0.150913 -0.585373 0.78916 0.184765 -0.615652 0.760081 
0.253712 -0.594126 0.762323 0.442042 -0.454261 0.770407 0.626796 -0.270501 0.721669 
0.709644 -0.202524 0.668745 0.677481 -0.0113178 0.731476 0.631925 0.10457 0.765601 
0.367538 -0.114057 -0.921905 0.375348 -0.148224 -0.914167 0.33292 -0.175937 -0.924932 
0.270554 -0.215009 -0.936625 0.249778 -0.227977 -0.939987 0.297782 -0.307618 -0.897487 
0.411058 -0.305778 -0.857579 0.322023 -0.425996 -0.840395 0.378439 -0.247719 -0.884764 
0.467452 -0.248669 -0.841247 0.563688 -0.245412 -0.786585 0.644892 -0.238494 -0.721469 
0.739895 -0.200962 -0.634554 0.696467 -0.356564 -0.612452 0.771981 -0.388976 -0.493909 
0.706152 -0.462189 -0.528697 0.855394 -0.272019 -0.433446 0.926894 -0.1811 -0.30143 
0.724463 -0.237243 0.645117 0.641227 -0.310967 0.696185 0.446786 -0.362032 0.801708 
-0.332886 -0.332248 0.861667 -0.807534 -0.464311 0.349662 -0.78543 -0.423997 0.448777 
-0.785681 -0.427472 0.440398 -0.799698 -0.432195 0.401633 -0.845019 -0.426997 0.282945 
-0.900655 -0.387724 0.104001 -0.939977 -0.314543 -0.0552882 -0.944802 -0.251574 -0.175537 
-0.922674 -0.201894 -0.303261 -0.865281 -0.15581 -0.464048 -0.786428 -0.137609 -0.585405 
-0.719251 -0.136992 -0.678337 -0.406537 -0.240511 -0.868807 -0.41109 -0.168619 -0.893127 
0.168576 -0.156212 -0.9675 0.0587731 -0.248159 -0.956157 0.205664 -0.0977141 -0.972722 
-0.497415 -0.408874 0.74697 -0.601994 -0.449899 0.638522 -0.665186 -0.49511 0.536268 
-0.69249 -0.551639 0.444291 -0.70871 -0.583885 0.370649 -0.724067 -0.613978 0.290693 
-0.74307 -0.619492 0.245622 -0.67235 -0.692543 0.254099 -0.627275 -0.728387 0.272478 
-0.607305 -0.727815 0.308263 -0.589771 -0.713105 0.367532 -0.559481 -0.682469 0.455795 
-0.49713 -0.643183 0.571175 -0.370465 -0.601785 0.691309 -0.251714 -0.534635 0.797254 
0.475193 -0.339246 -0.803844 0.54664 -0.364467 -0.747927 0.612441 -0.359689 -0.697246 
-0.0117351 -0.373013 -0.91344 -0.0334442 -0.467606 -0.875645 -0.166157 -0.386062 -0.89595 
-0.572291 -0.429898 -0.684238 -0.460782 -0.426298 -0.760361 -0.66818 -0.41347 -0.60464 
-0.74179 -0.383283 -0.524777 -0.807466 -0.255357 -0.510776 0.406828 -0.490905 -0.763908 
0.646552 -0.525822 -0.548555 0.624486 -0.509505 -0.59041 0.553715 -0.504193 -0.656294 
0.321992 -0.498347 0.795892 0.487808 -0.508455 -0.70692 -0.642861 -0.259725 -0.701408 
-0.538346 -0.263051 -0.787192 -0.737594 -0.249297 -0.619322 -0.738876 -0.642867 -0.161392 
-0.826974 -0.548323 0.0204138 0.135824 0.311679 0.931854 0.920864 -0.350937 -0.0976929 
0.981835 -0.109782 -0.0777461 -0.497608 -0.160533 -0.838715 -0.604673 -0.148039 -0.762709 
-0.374521 -0.364984 -0.830574 
Radius 1 1114 double
0.15 0.15 0.85584108176 0.99218403359 0.15000075911 0.97473886452 0.14999996448 0.97560705024 0.14999901573 
0.86820679249 0.15000018109 0.72551052683 0.15000106001 0.69312003186 0.14999943096 0.71837606301 0.14999939493 0.70832816307 
0.15 0.71966453258 0.14999972429 0.76165067528 0.14999908507 0.82602534081 0.15 0.99919853122 0.15 
1.0814920483 0.15 1.139429402 0.15 1.0887070608 0.15 1.0827068773 0.14999995455 1.0991284047 
0.14999997566 1.1560749212 0.15000009461 1.279244873 0.15 1.4248085304 0.15 1.5298006055 0.15 
1.5153566332 0.15 1.4585946072 0.15 1.3054601286 0.15 1.0598796775 0.15 1.1381127214 
0.15 1.117477469 0.15 1.0211572256 0.15 0.9229790886 0.15 0.87801946839 0.15 
0.84701319253 0.15 0.87047165233 0.15 0.85790487 0.15 0.80548685385 0.15 0.77069616787 
0.15 0.78028763778 0.15 0.87323560322 0.15 1.0057434064 0.15 0.95662210979 0.15 
0.9533257778 0.15 1.0705025915 0.15 0.15 1.5351037051 1.5189697104 0.15 1.5271497918 
0.15 1.3347869756 0.15 1.2259793587 0.15 1.203852237 0.15 1.1833658073 0.15 
1.1979809955 0.15 1.2628884253 0.15 1.3462060626 0.15 1.4284862788 0.15 1.5364975822 
0.15 1.6480930802 0.15 1.7476060255 0.15 1.8287160922 0.15 1.6591604666 0.15 
1.5180086573 0.15 1.4034866402 0.15 1.3946671814 0.15 1.362258157 0.15 1.3120129678 
0.15 1.2292303557 0.15 1.1977797369 0.15 1.2403468277 0.15 1.3672663914 0.15 
1.2802763236 0.15 1.3061006229 0.15 1.2335403807 0.15 1.1971250011 0.15 1.3571017204 
0.15 1.464131859 0.15 1.5509302364 0.15 1.6224232904 0.15 1.6536683694 0.15 
1.5906957156 0.15 1.7321072592 0.15000009657 1.8448233626 0.1500005542 1.8025300097 0.15000043933 1.7315598648 
0.15 1.6576372 0.15 1.4659325031 0.15 1.3012074015 0.15 1.1374756269 0.15 
0.99642504277 0.15 0.85498169205 0.15 1.0730065275 0.15 1.2267617287 0.15 1.3492752974 
0.15 1.4232193307 0.15 1.4661119268 0.15 1.4992588147 0.15 1.5227737626 0.15 
1.3868481106 0.15 1.276167415 0.15 1.2770946546 0.15 1.2883594269 0.15 1.3040603136 
0.15 1.4153392604 1.2249526761 1.2023289054 1.2777253133 1.1234516763 0.88131677422 0.76858026367 0.72742898139 
0.72818654371 0.75813565542 0.82935098914 0.97916856658 1.2290351716 1.5222937705 1.5398129627 1.4519585241 1.3671575114 
1.31413232 1.3183498671 1.3930383732 1.6026180066 1.7823820206 1.8076401094 1.6892411176 1.5606957183 1.3617408255 
1.4771806435 1.4593560417 1.3701964265 1.2254185891 1.0928030487 1.006871992 1.0103291111 0.98554484146 0.94946732776 
0.95129894291 1.0143261563 1.165013752 1.4485256774 1.6482539201 1.7199924248 1.6587606001 1.3755881917 1.5063947648 
1.5474193654 1.4618982287 1.3582606464 1.2595141879 1.2983249237 1.396990051 1.4462908197 1.5076597555 1.5878051044 
1.6056799555 1.6998317563 1.775223815 1.8520801257 1.7061238749 1.518762052 1.3913101225 1.3509799845 1.2888893804 
1.2282632596 1.1829035115 1.1970868297 1.308595758 1.4454086729 1.5272882801 1.4827941609 1.5073748061 1.4467573511 
1.3995210866 1.4169116003 1.509610095 1.5928029046 1.6576561432 1.6774172846 1.8731479338 2.0152039816 2.1042429894 
2.0092260957 1.8524793892 1.6439091356 1.4710656179 1.3876098932 1.2458393284 1.1196405196 1.230683435 1.3085586665 
1.4475090291 1.5318260951 1.5368430196 1.5602126366 1.5726576581 1.4978957328 1.4500766146 1.4424630259 1.459321241 
1.4647395059 1.5357680103 1.6000878092 1.6197086834 1.6796081448 1.0616989306 1.2462184587 1.00167444 0.96641318045 
0.91565805266 0.96167981085 1.0608809498 1.2168883374 1.4878980589 1.8779931942 1.9483265745 1.8424715888 1.6379024998 
1.4709853118 1.4271067715 1.4500929637 1.5841619588 1.746821869 1.8781605692 1.736241924 1.6386689714 1.8213910182 
1.7516534539 1.8208253811 1.6697205322 1.5111163159 1.3662739343 1.2550154693 1.1932617922 1.1745770078 1.1580921035 
1.197965333 1.3026622913 1.4897859449 1.8892982651 1.9888750058 1.935569405 1.8293611957 1.5091852868 1.3752698119 
1.4235101078 1.7030473657 1.6304864517 1.7298916119 1.8210841114 1.7235105817 1.578219925 1.4751777236 1.4327787173 
1.5111857174 1.5745833714 1.6405814894 1.9242840778 1.7637819488 2.0633029894 2.1714039701 2.0724191621 1.9083233193 
1.5991110848 1.4976428369 1.5448374532 1.4187592595 1.3044794348 1.3097767086 1.3909561674 1.5209085433 1.5652526812 
1.5522216202 1.5811148983 1.6059193855 1.5784181236 1.5666784412 1.6089027174 1.5634231163 1.5083352142 1.6042467046 
1.6549411807 1.5887984112 1.4825118934 1.3210504315 1.2917189916 1.2308754719 1.4023964942 1.5195718468 1.5773635014 
1.6639959724 1.7065920892 1.6727407904 1.7103402476 1.7767642132 1.8758134469 1.8228858897 1.6597245183 1.4920766714 
1.4009277044 1.3185486682 1.219553708 1.2406078082 1.2645229545 1.2944599168 1.3447051051 1.544475565 1.7482119936 
2.0803603995 1.9654869917 1.6675365991 1.6712379231 1.9019334405 1.7717156677 1.9650687587 1.9922457602 1.9621056231 
1.8096935921 1.6412123506 1.4603937737 1.3534163998 1.2789060007 1.287542773 1.2961749997 1.3277710669 1.3897068243 
1.4989078428 1.645102446 1.8273229384 1.8957610869 1.6989209404 1.5118860856 1.3702338254 1.4287227056 1.3414298356 
1.434777798 1.2932125117 1.2344732509 1.1706846925 1.1599827902 1.2343584793 1.4007205356 1.650318515 2.0108010251 
2.2322064773 2.0706568057 1.8170025446 1.5961205 1.544154665 1.5526228607 1.631477062 1.7523716694 1.8605479572 
1.7316356799 1.5625583709 1.5341186619 1.5704429711 1.8838987605 1.6974807794 1.9593220704 1.6162156809 1.7050342516 
1.9069999993 1.9161779008 1.8938190201 1.6905228291 1.8390826776 1.6206162407 1.4872974631 1.5083099944 1.5679119658 
1.6525253861 1.794924549 1.7657895508 1.912946944 1.6746799042 1.6957374653 1.7940186904 1.8297459868 1.8761179521 
1.8309451663 1.7437611446 1.5035574073 1.5708546292 1.7861591276 1.6581660525 1.4694010098 1.4011636703 1.4407490688 
1.5553868114 1.5713098073 1.552031323 1.6297029147 1.6829855297 1.6490885463 1.6442768423 1.681702128 1.6471538009 
1.5708342242 1.6818935246 1.7094401006 1.6338420821 1.4701590328 1.2493847526 1.2006817801 1.2206379773 1.392381846 
1.5236178587 1.6243775313 1.6614006587 1.6827342089 1.63847006 1.6872638982 1.748417802 1.9034113317 1.9585898455 
1.8957842521 1.4735294865 1.5703270739 1.3709539858 1.2770305949 1.2608998265 1.2699202729 1.2979417104 1.3684233247 
1.5013060559 1.6576287394 1.7893954076 2.2139657193 1.9789834306 2.2341907609 2.1178891933 1.7881055034 1.5984361775 
1.6207185239 1.660146764 1.656425347 1.5549358026 1.7776742258 1.9068653781 2.157186785 2.0357630719 2.346236517 
2.4397468623 2.2444197716 1.9049357205 1.7502955007 1.6892322826 1.8060632341 1.737225066 1.8744971371 2.0279250938 
1.9787124391 1.9170265952 1.8252691677 1.6591137206 1.4832389537 1.3709424686 1.3362345995 1.3400561199 1.33648944 
1.3691705105 1.3983976643 1.3917951776 1.4902493756 1.5590935478 1.7094815503 1.5449828098 1.8062671046 1.8011299645 
1.7132502982 1.6006225302 1.4955636444 1.5033057089 1.5604002025 1.7050320457 1.8105650456 1.8277992448 1.9432716151 
2.0556998223 2.0397956506 1.8251896588 1.6073578753 1.4934585616 1.4259469998 1.3978128371 1.366358836 1.2909235374 
1.309131918 1.4910919922 1.8097368703 2.0473153893 2.2890061551 1.8785188489 2.0929526426 1.7082943793 1.6080508625 
1.619627461 1.6756535436 1.7523817084 1.7468692269 1.6820150237 1.6006924098 1.6362212623 1.5634654441 1.5705942057 
1.7569901992 1.6788001595 1.8753644414 1.9673483144 2.3164208017 2.360323211 1.9951545109 1.8661084101 1.9859988849 
2.0010007649 1.856540926 1.773556201 1.7134550364 1.6021638402 1.5934764098 1.562438549 1.5529514936 1.5050102657 
1.3757679387 1.5229611642 1.9444173484 1.8102016669 1.5390307567 1.4083587002 1.480047829 1.6221678777 1.620198251 
1.6778927203 1.7356079712 1.7471865309 1.7003054919 1.6909884003 1.7455794785 1.7048901677 1.6409666064 1.6625905351 
1.5667746964 1.6317441968 1.3890234142 1.2248872678 1.2233306818 1.2575163777 1.4114358835 1.4964994551 1.5089852152 
1.4998587584 1.5050709834 1.5408257222 1.6226558609 1.7252748489 1.8946404757 2.0164615831 1.9567423336 1.9510971623 
1.868319909 1.9037101443 1.8262378573 1.6937247503 1.6027816974 1.4540786453 1.3202655949 1.3341638506 1.370486515 
1.6915024013 1.7357614741 1.8889436245 1.9521822953 2.0047802588 1.8852576006 2.0218496256 1.8530929665 1.6932921459 
1.5899374392 1.4780857738 1.4562267071 1.4404021597 1.4609576616 1.4732719069 1.4486597189 1.5842496676 2.0288924687 
2.1475591691 1.8172369469 1.4490253167 1.5533979039 1.7079418798 1.7252820778 1.7596850779 1.8088845767 1.8166913212 
1.7339307122 1.6744704042 1.6285189945 1.6382298912 1.6273815537 1.7153159626 1.7824924248 1.7555514919 1.8214097316 
1.6548995595 1.5616074914 1.470629509 1.3626496194 1.2348918966 1.2196248085 1.2272091098 1.3042138367 1.357421921 
1.3864191933 1.3647455085 1.362054185 1.4919322676 1.6300884885 1.774630888 1.887815247 1.978782577 1.9256380074 
1.8993711102 1.8838422486 1.8313668685 1.8071866359 1.7760960503 1.7188938531 1.6077194424 1.5118381122 1.5230214887 
1.9880465782 1.938074811 1.9010372441 1.8193119082 1.6586026835 1.5041043187 1.3703754627 1.2972582039 1.2541417258 
1.2986915207 1.3226558983 1.3327433336 1.3202144956 1.3867287473 1.4628913173 1.3854379194 1.5158157303 1.3461697907 
1.7155382114 1.8034901162 1.8590544757 1.7383997888 1.6040314987 1.6103222695 1.6721081681 1.7596575546 1.9021678638 
2.0219162226 2.1125049403 2.0956333142 1.9148967414 1.7095996838 1.5551318822 1.5068356165 1.5484576934 1.5787889949 
1.4735506468 1.4017743808 1.5358068334 1.8428114841 2.012723793 2.1210204196 2.1989329348 2.158890736 2.1635177925 
2.1254401202 2.0306320725 1.8623838645 1.7206946957 1.678369598 1.6920323151 1.7233940801 1.7713492278 1.8492965263 
1.8469907725 1.8314572673 1.8257274049 1.6614426757 1.5869041883 1.6515821027 1.7674255235 1.7575234651 1.7686452961 
1.7815991796 1.8716570259 1.7142996846 1.4869975534 1.4697979967 1.4452412929 1.4943595469 1.5583967661 1.5181578557 
1.5390124276 1.89452425 2.1723152185 1.5055204409 1.8069748927 1.6223188802 1.704492097 1.7419405472 1.7849269923 
1.8274124736 1.8385162211 1.7832747881 1.7496393769 1.747966423 1.7573792552 1.7662894782 1.7707691492 1.78595862 
1.7634410807 1.7581583583 1.7047802347 1.7496762207 1.6625364087 1.5684467113 1.4814134876 1.3886782913 1.2951642334 
1.2866362424 1.2742782298 1.2635551547 1.2748001051 1.3368820935 1.2854472818 1.4287471687 1.3050413409 1.6020913201 
1.7895848043 1.887688873 2.1034503292 2.0941123398 1.7966371811 1.8542176736 1.8271209108 1.8274246422 1.6622102445 
1.671139365 1.8952812574 1.8624106308 1.8668439881 1.8589683337 1.6813304058 1.5157486598 1.3749499735 1.2545787356 
1.1052091173 1.1598655746 1.2417176581 1.272502018 1.2540339323 1.2890689843 1.2675149985 1.41888802 1.4290721968 
1.5342662943 1.6786254343 1.7374713169 1.7901652595 1.6846069599 1.6298924061 1.6759113854 1.731153526 1.7853327683 
1.9309808983 2.0480170374 2.1367069649 2.1051079444 1.972848657 1.8208867444 1.6509543217 1.6267855535 1.6897139834 
1.7898193828 1.6975633424 1.614415523 1.5449233152 1.7528287621 1.8937669755 1.9139473663 1.9421304478 2.0297183405 
2.0335211973 1.9672386345 2.0524847176 2.0219537304 1.9573303702 1.9004456474 1.8613725563 1.8806102025 1.8977712681 
1.8810365128 1.8904956541 1.9917403946 2.0144099486 2.0040073407 1.8487920833 1.6944215603 1.6237159297 1.6291558489 
1.7310270493 1.7310495983 1.7469687357 1.7529669524 1.6446015969 1.7728318793 1.9201110943 1.9639550019 2.0410047999 
2.2552476892 2.3973588097 2.4591033639 2.1994861044 1.9085385735 1.7568097569 1.7415570644 1.7700735585 1.7809198043 
1.8053435285 1.8448785629 1.8724047183 1.8229717347 1.8365776525 1.7765934707 1.8299068676 1.8218363503 1.6760773782 
1.5306141416 1.3993795597 1.2411349164 1.0487671535 1.0507472069 1.1349946901 1.2120362584 1.2240953749 1.4759395931 
1.3607917554 1.3609358233 1.5836515314 1.5998733812 1.6202736984 1.6503093103 1.6758877251 1.6365797609 1.5846651264 
1.6351355063 1.6967332033 1.7463865484 2.0038355163 1.966432238 2.0503848393 2.026702554 1.9325156624 1.7705938014 
1.5859629434 1.6275470891 1.8197305832 2.0651088757 1.7130096956 1.869387049 1.5892759717 1.6324747316 1.7734225593 
1.7550549321 1.7603332963 1.8323210618 1.8398023106 1.8400364464 1.7574139153 1.1594700311 1.1236191714 1.7584215225 
1.6649784869 1.5858014135 1.6228809348 1.6984153605 1.8334878666 2.056059794 1.4673290582 1.3745423946 1.4043566045 
1.4220563151 1.4253234815 1.4815299402 1.5813037011 1.8666733914 2.1189095068 1.9409076676 1.9576125921 1.7579900684 
1.5795782438 1.6552117515 1.7102822128 1.7275970208 1.7767430826 1.8356152741 1.8034972957 1.7630406398 1.7744105389 
1.7983607186 1.805314066 1.7812754341 1.7467495018 1.7268125269 1.6923720915 1.5957122119 1.7055020795 1.6022637202 
1.6776214329 1.6591826651 1.6020527331 1.5535540581 1.6725008142 1.7628028776 1.9010364908 1.9180341398 1.9329485597 
1.8524509008 1.8656430802 2.0057333225 2.3093514323 2.1020562048 2.0011203409 1.335540601 1.2895508076 1.2430517168 
1.2438206796 1.2191096164 1.1109901312 1.0207392264 1.0049465163 1.1061539367 1.1821898578 1.2639122845 1.4116236272 
1.6108740965 1.5934564559 1.8299355874 1.7339089221 1.8525817627 1.7992450398 2.2855513368 2.1153693197 1.8643532589 
1.5293415463 1.68601558 1.6031719856 1.6800299504 1.7663945892 1.8473548563 1.8584567067 1.7868916619 1.7482493249 
1.7437135423 1.7291558159 1.7786716169 1.8010225735 1.6289946998 1.6785953432 1.6841706712 1.617821097 1.6535083277 
1.4186740038 1.4849146367 1.4971519787 1.4940016309 1.5754980866 1.7238911639 1.8365043313 1.8878168937 1.7581384599 
1.6307144164 1.6162909909 1.6776050417 1.6746313476 1.6258645476 1.6616641789 1.0833054338 1.169274404 1.3579946254 
1.5914392739 1.6151789087 1.5654033313 1.641164363 1.6084830163 1.682481729 1.7255598204 1.718392973 1.0453920243 
1.6579447785 1.5440271072 1.3950611516 1.8079257315 1.2086969658 1.6851580972 1.6480907418 1.7214063059 1.5604588614 
1.523382896 1.701580778 1.7107892789 1.6654793182 1.7033702941 1.7516596896 1.5817267091 
STJ 1 1114 double
0 0 0 0 0 0 0 0 0 
0 0 0 0 0 0 0 0 0 
0 0 0 0 0 0 0 0 0 
0 0 0 0 0 0 0 0 0 
0 0 0 0 0 0 0 0 0 
0 0 0 0 0 0 0 0 0 
0 0 0 0 0 0 0 0 0 
0 0 0 0 0 0 0 0 0 
0 0 0 0 0 0 0 0 0 
0 0 0 1 1 0 0 1 0 
1 0 1 0 1 0 1 0 1 
0 1 0 1 0 1 0 1 0 
1 0 1 0 1 0 1 0 1 
0 1 0 1 0 1 0 1 0 
1 0 1 0 1 0 1 0 1 
0 1 0 1 0 1 0 1 0 
1 0 1 0 1 0 1 0 1 
0 1 0 0.99999990074 0 0.99999943037 0 0.99999953841 0 
1 0 1 0 1 0 1 0 1 
0 1 0 1 0 1 0 1 0 
1 0 1 0 1 0 1 0 1 
0 1 0 1 0 1 0 1 0 
1 0 0 0 0 0 0 0 0 
0 0 0 0 0 0 0 0 0 
0 0 0 0 0 0 0 0 0 
0 0 0 0 0 0 0 0 0 
0 0 0 0 0 0 0 0 0 
0 0 0 0 0 0 0 0 0 
0 0 0 0 0 0 0 0 0 
0 0 0 0 0 0 0 0 0 
0 0 0 0 0 0 0 0 0 
0 0 0 0 0 0 0 0 0 
0 0 0 0 0 0 0 0 0 
0 0 0 0 0 0 0 0 0 
0 0 0 0 0 0 0 0 0 
0 0 0 0 0 0 0 0 0 
0 0 0 0 0 0 0 0 0 
0 0 0 0 0 0 0 0 0 
0 0 0 0 0 0 0 0 0 
0 0 0 0 0 0 0 0 0 
0 0 0 0 0 0 0 0 0 
0 0 0 0 0 0 0 0 0 
0 0 0 0 0 0 0 0 0 
0 0 0 0 0 0 0 0 0 
0 0 0 0 0 0 0 0 0 
0 0 0 0 0 0 0 0 0 
0 0 0 0 0 0 0 0 0 
0 0 0 0 0 0 0 0 0 
0 0 0 0 0 0 0 0 0 
0 0 0 0 0 0 0 0 0 
0 0 0 0 0 0 0 0 0 
0 0 0 0 0 0 0 0 0 
0 0 0 0 0 0 0 0 0 
0 0 0 0 0 0 0 0 0 
0 0 0 0 0 0 0 0 0 
0 0 0 0 0 0 0 0 0 
0 0 0 0 0 0 0 0 0 
0 0 0 0 0 0 0 0 0 
0 0 0 0 0 0 0 0 0 
0 0 0 0 0 0 0 0 0 
0 0 0 0 0 0 0 0 0 
0 0 0 0 0 0 0 0 0 
0 0 0 0 0 0 0 0 0 
0 0 0 0 0 0 0 0 0 
0 0 0 0 0 0 0 0 0 
0 0 0 0 0 0 0 0 0 
0 0 0 0 0 0 0 0 0 
0 0 0 0 0 0 0 0 0 
0 0 0 0 0 0 0 0 0 
0 0 0 0 0 0 0 0 0 
0 0 0 0 0 0 0 0 0 
0 0 0 0 0 0 0 0 0 
0 0 0 0 0 0 0 0 0 
0 0 0 0 0 0 0 0 0 
0 0 0 0 0 0 0 0 0 
0 0 0 0 0 0 0 0 0 
0 0 0 0 0 0 0 0 0 
0 0 0 0 0 0 0 0 0 
0 0 0 0 0 0 0 0 0 
0 0 0 0 0 0 0 0 0 
0 0 0 0 0 0 0 0 0 
0 0 0 0 0 0 0 0 0 
0 0 0 0 0 0 0 0 0 
0 0 0 0 0 0 0 0 0 
0 0 0 0 0 0 0 0 0 
0 0 0 0 0 0 0 0 0 
0 0 0 0 0 0 0 0 0 
0 0 0 0 0 0 0 0 0 
0 0 0 0 0 0 0 0 0 
0 0 0 0 0 0 0 0 0 
0 0 0 0 0 0 0 0 0 
0 0 0 0 0 0 0 0 0 
0 0 0 0 0 0 0 0 0 
0 0 0 0 0 0 0 0 0 
0 0 0 0 0 0 0 0 0 
0 0 0 0 0 0 0 0 0 
0 0 0 0 0 0 0 0 0 
0 0 0 0 0 0 0 0 0 
0 0 0 0 0 0 0 0 0 
0 0 0 0 0 0 0 0 0 
0 0 0 0 0 0 0 0 0 
0 0 0 0 0 0 0 0 0 
0 0 0 0 0 0 0 0 0 
0 0 0 0 0 0 0 0 0 
0 0 0 0 0 0 0 0 0 
0 0 0 0 0 0 0 0 0 
0 0 0 0 0 0 0 0 0 
0 0 0 0 0 0 0 0 0 
0 0 0 0 0 0 0 0 0 
0 0 0 0 0 0 0 0 0 
0 0 0 0 0 0 0 0 0 
0 0 0 0 0 0 0 0 0 
0 0 0 0 0 0 0 0 0 
0 0 0 0 0 0 0 0 0 
0 0 0 0 0 0 0 0 0 
0 0 0 0 0 0 0 0 0 
0 0 0 0 0 0 0 0 0 
0 0 0 0 0 0 0 0 0 
0 0 0 0 0 0 0 0 0 
0 0 0 0 0 0 0 0 0 
0 0 0 0 0 0 0 0 0 
0 0 0 0 0 0 0 0 0 
0 0 0 0 0 0 0 0 0 
0 0 0 0 0 0 0 
Thickness 1 1114 double
3.0843743587 3.0843743587 1.7116811635 1.9843670672 3.0843725678 1.9494773495 3.0843744065 1.9512136642 3.0843761364 
1.736414245 3.084373816 1.4510218628 3.0843711819 1.3862395711 3.0843762115 1.4367523966 3.084376142 1.4166554335 
3.0843743587 1.4393290494 3.0843751466 1.5233006804 3.084376773 1.6520508744 3.0843743587 1.9983980624 3.0843743587 
2.1629846179 3.0843743587 2.2788584186 3.0843743587 2.1774147493 3.0843743587 2.1654141557 3.0843744295 2.198256635 
3.0843743994 2.3121498424 3.084374223 2.5584897461 3.0843743587 2.8496172107 3.0843743587 3.0596013582 3.0843743587 
3.0307136909 3.0843743587 2.9171902145 3.0843743587 2.6109210426 3.0843743587 2.1197588039 3.0843743587 2.2762257216 
3.0843743587 2.2349555237 3.0843743587 2.0423150016 3.0843743587 1.8459579354 3.0843743587 1.7560380027 3.0843743587 
1.6940265084 3.0843743587 1.7409430805 3.0843743587 1.7158088229 3.0843743587 1.6109739106 3.0843743587 1.5413928787 
3.0843743587 1.5605758955 3.0843743587 1.7464705097 3.0843743587 2.0114864178 3.0843743587 1.9132440229 3.0843743587 
1.9066514403 3.0843743587 2.1410042746 3.0843743587 3.0843743587 3.0702069954 3.0379384475 3.0843743587 3.0542995836 
3.0843743587 2.6695739511 3.0843743587 2.4519583687 3.0843743587 2.4077034968 3.0843743587 2.3667318307 3.0843743587 
2.3959624854 3.0843743587 2.5257760238 3.0843743587 2.6924116399 3.0843743587 2.8569722938 3.0843743587 3.0729942315 
3.0843743587 3.2961855706 3.0843743587 3.4952118205 3.0843743587 3.6574318639 3.0843743587 3.318321193 3.0843743587 
3.0360173706 3.0843743587 2.8069723377 3.0843743587 2.7893340362 3.0843743587 2.7245162533 3.0843743587 2.6240258918 
3.0843743587 2.4584606665 3.0843743587 2.3955595255 3.0843743587 2.4806938154 3.0843743587 2.7345327827 3.0843743587 
2.5605529739 3.0843743587 2.6122022099 3.0843743587 2.467081194 3.0843743587 2.3942500267 3.0843743587 2.7142041993 
3.0843743587 2.9282646523 3.0843743587 3.1018613394 3.0843743587 3.244847384 3.0843743587 3.3073375313 3.0843743587 
3.1813924158 3.0843743587 3.4642150101 3.0843742755 3.6896467253 3.084373881 3.6050600194 3.0843739521 3.4631197295 
3.0843743587 3.3152743608 3.0843743587 2.9318649104 3.0843743587 2.6024145738 3.0843743587 2.2749504809 3.0843743587 
1.9928497145 3.0843743587 1.7099636173 3.0843743587 2.1460136859 3.0843743587 2.4535240525 3.0843743587 2.6985500713 
3.0843743587 2.8464381602 3.0843743587 2.9322244522 3.0843743587 2.9985186295 3.0843743587 3.0455484035 3.0843743587 
2.7736960076 3.0843743587 2.5523340834 3.0843743587 2.5541886122 3.0843743587 2.5767184912 3.0843743587 2.6081213899 
3.0843743587 2.8306786214 2.4499055813 2.4046569098 2.5554502818 2.2469034537 1.7626335484 1.5371606861 1.454858888 
1.4563730973 1.5162713735 1.6587024579 1.9583373668 2.458070549 3.0445876955 3.079626032 2.9039166643 2.7343153321 
2.628263897 2.6366988285 2.7860765419 3.2052363307 3.5647650412 3.6152812188 3.3784828845 3.1213911136 2.7234816509 
2.9543619159 2.9187123231 2.7403928531 2.4508371371 2.1856054202 2.0137447524 2.0206583805 1.9710893555 1.898933756 
1.9025977918 2.0286530791 2.3300272663 2.8970512433 3.2965069392 3.4399850207 3.3175215157 2.7511755153 3.0127895297 
3.0948383602 2.9237964574 2.7165212929 2.5190283757 2.5966498475 2.7939801021 2.8925819155 3.0153192363 3.1756096242 
3.2113594594 3.3996632714 3.5504479564 3.7041607607 3.4122484967 3.0375244233 2.7826211832 2.7019603633 2.5777784961 
2.4565261502 2.3658067007 2.3941728981 2.6171915497 2.8908166086 3.0545765601 2.9655883218 3.0147496121 2.8935145109 
2.7990419605 2.8338237288 3.0192202575 3.1856058091 3.3153120193 3.3548341958 3.746296052 4.0304079602 4.2084860584 
4.0184525946 3.7049591094 3.2878178902 2.9421305197 2.7752194758 2.4916784762 2.2392809713 2.4613662283 2.6171168806 
2.8950179673 3.0636528326 3.0736866874 3.1204261835 3.1453157194 2.995790859 2.900152446 2.8849258361 2.9186426638 
2.9294791829 3.0715358051 3.2001746866 3.2394173668 3.3592152927 2.1233974762 2.492435933 2.0033487142 1.9328263875 
1.8313169765 1.9233592406 2.1217620574 2.4337766747 2.9757956495 3.7559863884 3.896653149 3.6849432554 3.2758056325 
2.9419707439 2.8542141737 2.9001858946 3.1683242924 3.4936444827 3.7563205436 3.4724844864 3.2773389428 3.6427821792 
3.5033069077 3.6416508859 3.3394412427 3.0222333079 2.7325478686 2.5100309385 2.3865232579 2.3491538517 2.3161838876 
2.3959312759 2.6053253426 2.9795728897 3.7785972563 3.9777503055 3.871138397 3.6587223038 3.0183705735 2.7505398211 
2.8470207498 3.4060949719 3.26097356 3.4597834734 3.6421683178 3.4470217679 3.1564400385 2.9503562076 2.8655579574 
3.0223707251 3.1491669559 3.2811634582 3.8485671556 3.5275635418 4.126605358 4.3428080383 4.1448385023 3.8166466997 
3.1982216225 2.9952849687 3.0896746382 2.837517546 2.608958596 2.6195528034 2.7819120044 3.0418176641 3.1305058186 
3.1044432242 3.162229319 3.2118379694 3.1568355834 3.1333561124 3.217805529 3.1268467134 3.0166708649 3.2084936559 
3.3098819196 3.1775958252 2.9650236235 2.6421014484 2.583438524 2.4617514092 2.8047929884 3.0391436936 3.1547272866 
3.3279927983 3.4131845349 3.3454808572 3.4206801027 3.5535284087 3.7516263493 3.6457717899 3.319449898 2.9841533435 
2.8018556019 2.6370975611 2.439108237 2.4812161966 2.5290455853 2.5889195083 2.6894102103 3.0889509242 3.4964234817 
4.1607206333 3.9309735788 3.3350729802 3.3424758463 3.8038660966 3.543431107 3.9301378257 3.9844921378 3.9242112463 
3.6193871842 3.2824247012 2.9207875473 2.7068327997 2.5578114895 2.5750847812 2.5923499664 2.6555422047 2.7794131408 
2.9978146857 3.290203892 3.6546459091 3.7915229803 3.397841445 3.023772409 2.7404674712 2.8574457443 2.6828589727 
2.8695555502 2.5864240235 2.468946179 2.3413695223 2.3199650004 2.4687163359 2.8014410711 3.30063703 4.0216012093 
4.4644134881 4.1413129336 3.6340048854 3.1922406879 3.0883093301 3.1052450561 3.2629531241 3.5047424997 3.7210957766 
3.4632709436 3.1251177418 3.0682378383 3.1408855997 3.7677965697 3.3949609411 3.9186434876 3.2324303942 3.4100680128 
3.8139992276 3.8323550019 3.7876380403 3.3810451165 3.6781653419 3.2412322303 2.9745946801 3.0166202116 3.1358243851 
3.3050510417 3.5898494526 3.5315794442 3.8258946681 3.3493594649 3.391474909 3.5880383402 3.6594927471 3.7522366286 
3.6618907554 3.4875221538 3.0071141046 3.1417083957 3.5723189637 3.316332337 2.9388014821 2.8023276645 2.8814985153 
3.1107732951 3.1426194719 3.1040636159 3.259406277 3.3659709501 3.2981776443 3.2885546445 3.3634051737 3.2943085512 
3.141669418 3.3637873768 3.4188811943 3.2676845129 2.9403183233 2.4987703673 2.4013645603 2.441276923 2.7847633523 
3.0472348592 3.2487542432 3.3228006248 3.3654682933 3.2769404954 3.3745287068 3.4968365582 3.8068225043 3.9171792591 
3.7915683168 2.9470586035 3.14065347 2.7419081155 2.5540613768 2.521799653 2.5398405457 2.5958834208 2.7368467442 
3.0026128184 3.3152572073 3.5787909846 4.4279314662 3.9579668692 4.4683805219 4.2357773865 3.5762103352 3.1968723028 
3.2414370478 3.320293528 3.3128496939 3.1098711598 3.5553477233 3.8137306678 4.3143735063 4.0715251716 4.6924738653 
4.8794939444 4.4888397491 3.8098722862 3.5005914669 3.3784645652 3.6121268317 3.4744502618 3.7489949266 4.0558501876 
3.9574248782 3.8340532357 3.6505383354 3.3182278854 2.9664784334 2.7418854691 2.6724693898 2.6801120745 2.6729789273 
2.7383412136 2.7967956893 2.7835900953 2.9804981784 3.1181861122 3.4189633116 3.0899658941 3.6125342092 3.6022599289 
3.4265013595 3.2012456158 2.9911281217 3.0066114696 3.1207998855 3.4100650115 3.6211290911 3.6555986504 3.8865425801 
4.1113988718 4.0795905116 3.6503789584 3.2147155929 2.9869163495 2.851893236 2.7956257859 2.7327179318 2.5818465897 
2.6182631963 2.9821838315 3.6194727996 4.0946306966 4.5780123102 3.7570367759 4.1859051176 3.4165894898 3.2161018725 
3.2392543309 3.3513060872 3.5047624168 3.4937374539 3.3640290754 3.2013838196 3.2724417194 3.1269303278 3.1411883818 
3.5139802578 3.3575999121 3.7507286208 3.9346958839 4.6328416034 4.7206459578 3.9903100053 3.7322175476 3.9719987698 
4.0020014868 3.7130820458 3.5471126512 3.4269105616 3.2043280303 3.1869528197 3.1248770979 3.1059026399 3.0100196625 
2.7515352858 3.045921907 3.8888342846 3.6204033572 3.078061968 2.8167175035 2.960096048 3.2443362505 3.2403966177 
3.3557863953 3.4712163538 3.4943729327 3.4006104298 3.3819765988 3.4911596454 3.4097806697 3.2819335943 3.3251815199 
3.1335492556 3.263488238 2.7780465211 2.4497741859 2.4466610085 2.5150323361 2.8228709722 2.9929989069 3.0179711088 
2.9997178286 3.0101419668 3.0816514444 3.245312125 3.4505506685 3.7892812258 4.0329230129 3.9134847994 3.9021941173 
3.7366399703 3.8074196263 3.6524760211 3.3874495007 3.2055633182 2.9081570676 2.6405312752 2.6683276369 2.7409731072 
3.3830047268 3.4715223088 3.7778881296 3.9043640881 4.0095598017 3.7705158675 4.0436993102 3.7061865567 3.3865842917 
3.1798748784 2.9561716707 2.9124539887 2.8808052262 2.9219157092 2.9465437 2.8973186834 3.1684987386 4.0577850595 
4.2951187217 3.6344738939 2.8980507814 3.1067953282 3.4158827595 3.4505631555 3.5193695405 3.6177684724 3.6333819496 
3.4678612784 3.3489408083 3.2570379889 3.2764597823 3.2547631073 3.4306321375 3.5649847887 3.5111023243 3.6428195261 
3.3097989923 3.1232154888 2.9412596481 2.7252991984 2.4697834658 2.439249334 2.4544180358 2.6084282687 2.7148444022 
2.7728382773 2.7294908904 2.7241080834 2.983864508 3.2601766685 3.5492609676 3.7756301304 3.9575650341 3.8512757741 
3.7987429188 3.7676841668 3.662734593 3.614374207 3.5521921753 3.4377876491 3.2154386158 3.0236760349 3.0460427249 
3.976092575 3.8761498998 3.8020754882 3.6386247131 3.3172057625 3.0082082102 2.740751432 2.5945173149 2.5082843951 
2.5973831444 2.6453121606 2.6654875836 2.640429823 2.7734578097 2.9257822495 2.7708768389 3.0316320187 2.6923401587 
3.4310765218 3.6069806256 3.7181082172 3.4767996639 3.2080639974 3.220645539 3.3442165006 3.5193141092 3.8043349731 
4.0438321066 4.2250098315 4.1912663743 3.8297932875 3.4191993676 3.1102637938 3.0136707687 3.0969154091 3.1575788258 
2.9471008733 2.8035488192 3.0716146147 3.6856233864 4.0254472674 4.2420401734 4.3978650905 4.3177818211 4.3270365853 
4.2508802404 4.0612641451 3.7247677124 3.4413893914 3.3567391961 3.3840645837 3.4467882265 3.5426990614 3.6985930175 
3.6939807145 3.6629140346 3.6514548237 3.3228857251 3.1738077249 3.3031637101 3.5348510219 3.5150467607 3.537290693 
3.5631987988 3.7433143735 3.4285990024 2.9739951516 2.9395960348 2.890482653 2.9887192191 3.1167936331 3.0363156715 
3.0780248552 3.7890485 4.344630537 3.0110413264 3.6139502621 3.2446371902 3.4089831941 3.4838806207 3.5698538536 
3.6548242971 3.6770317338 3.5665498477 3.4992794257 3.4959325328 3.5147578284 3.5325792315 3.5415392286 3.5719178591 
3.5268825397 3.5163168273 3.4095606281 3.4993527392 3.3250726635 3.1368925552 2.9628260091 2.7773555973 2.5903275783 
2.5732719611 2.5485564327 2.5271100607 2.5495996004 2.673763944 2.5708948313 2.8574953099 2.6100825875 3.2041831855 
3.5791703166 3.7753780447 4.2069006585 4.1882252642 3.5932735403 3.7084356927 3.6542418526 3.6548494133 3.3244198385 
3.3422788334 3.7905628998 3.7248220133 3.7336889192 3.717937538 3.3626618117 3.0314981427 2.7499009217 2.5091584713 
2.2104188635 2.3197306141 2.4834348282 2.5450040135 2.5080673204 2.5781384808 2.5350296081 2.83777504 2.8581434663 
3.0685322137 3.3572505263 3.474942181 3.5803305596 3.3692144939 3.2597855308 3.3518229245 3.4623067403 3.5706645914 
3.8619612876 4.0960340749 4.2734139297 4.2102160592 3.9456980372 3.6417742396 3.301908824 3.253571107 3.3794280901 
3.5796389014 3.3951266848 3.2288310461 3.0898468253 3.5056584092 3.787534521 3.8278941063 3.8842604865 4.0594365417 
4.0670430096 3.9344775141 4.1049698564 4.0439075192 3.9146607453 3.8008909995 3.7227446248 3.7612204049 3.7955419111 
3.7620727192 3.7809921671 3.9834810911 4.0288198971 4.0080146814 3.6975847835 3.3888434357 3.2474318595 3.2583116979 
3.4620540987 3.4620996096 3.4939372898 3.5059342105 3.2892035503 3.5456645591 3.8402222636 3.927909419 4.0820095998 
4.5104953784 4.7947178333 4.9182060119 4.398971533 3.8170765864 3.5136197893 3.4831150438 3.5401479003 3.561839241 
3.6106873683 3.6897566765 3.7448094985 3.6459428443 3.673155305 3.553187022 3.6598140085 3.6436717588 3.3521537837 
3.0612274493 2.7987591978 2.4822706892 2.0975351497 2.1014952383 2.2699892773 2.4240715798 2.4481903773 2.9518792256 
2.7215832428 2.7218715908 3.1673020628 3.1997457624 3.2405471983 3.3006191337 3.3517758116 3.2731597076 3.1693303888 
3.270271365 3.3934668912 3.4927740161 4.0076710189 3.9328642089 4.1007690949 4.0534045927 3.8650312928 3.5411871667 
3.1719257182 3.2550939316 3.6394609828 4.130217792 3.426019169 3.738774098 3.1785519814 3.2649500986 3.5468456767 
3.510110272 3.5206664377 3.6646426051 3.6796050686 3.6800729215 3.5148274621 2.318940401 2.2472393214 3.5168430449 
3.3299574804 3.171603613 3.2457621694 3.3968307211 3.6669751947 4.1121193062 2.9346579645 2.7490851089 2.8087138567 
2.8441131236 2.8506475319 2.9630597664 3.1626066362 3.7333464382 4.2378195765 3.8818162622 3.9152253335 3.5159801367 
3.1591564875 3.310423503 3.4205645474 3.4551942628 3.5534859991 3.671229865 3.6069937892 3.5260809732 3.5488212213 
3.5967214438 3.6106282262 3.5625514559 3.4935000037 3.4536258597 3.384744795 3.1914247494 3.4110038386 3.2045273824 
3.355243199 3.3183661296 3.2041057721 3.1071085408 3.3450017142 3.525605611 3.8020731921 3.8360690423 3.8658978928 
3.7049027999 3.7312860885 4.0114666257 4.6187021049 4.2041124095 4.0022406819 2.6710810556 2.5791015974 2.4861028265 
2.4876413499 2.4382198237 2.2219806094 2.0414776045 2.0098931356 2.2123082934 2.3643801054 2.5278247519 2.8232463514 
3.221747823 3.186913192 3.6598711749 3.4678175174 3.7051635254 3.5984905923 4.571102243 4.230737872 3.7287061691 
3.0586830069 3.3720315461 3.2063441114 3.3600600594 3.5327894372 3.6947100517 3.7169136114 3.5737835694 3.4964980796 
3.4874267607 3.4583124065 3.5573442234 3.6020461019 3.2579896773 3.3571916305 3.3683405303 3.23564166 3.3070164976 
2.8373473394 2.9698286177 2.9943030707 2.9880025821 3.1509960724 3.4477823278 3.6730086627 3.7756337874 3.5162766938 
3.2614280819 3.2325812812 3.3552099158 3.3492626953 3.2517296662 3.3233291368 2.1666100827 2.3385482345 2.7159888987 
3.1828786677 3.2303585508 3.1308067145 3.2823289253 3.2169657169 3.3649640391 3.4511201486 3.4367859522 2.0907842948 
3.3158887164 3.0880533385 2.7901221788 3.6158522566 2.4173940219 3.370316069 3.2961812404 3.4428128123 3.1209178025 
3.0467666566 3.4031615561 3.4215789925 3.3309593969 3.4067415881 3.5033203791 3.1634528604 
Total_Motion 1 1114 double
6.0221620875 6.0093606116 6.1114761226 6.0869437831 6.2140964798 6.1887911144 6.3903449195 6.3605980702 6.5780357387 
6.620736488 6.8428934621 6.8755203189 7.0656214845 7.1001345127 7.3859137968 7.3129290258 7.7584940067 7.5833075845 
8.2183964565 7.8764669612 8.8176299428 8.3160138739 9.5996055754 8.880163091 10.432549727 9.5032326931 11.027730418 
10.066724557 11.302051973 10.349461875 11.298475196 10.434561048 11.181606327 10.405808259 10.968987591 10.231286378 
10.659018742 9.9893505037 10.266537515 9.6544717467 9.8032372935 9.2954153663 9.3198676857 8.8183865141 8.8759506027 
8.3235550436 8.4001324664 7.8494989181 7.9001352954 7.3380705954 7.4406872484 6.9342686529 7.0393663586 6.5707841734 
6.6491485729 6.1859858938 6.3498133185 5.9265912317 6.2174828045 5.7942770835 6.3201880257 5.8687783479 6.5591924728 
6.1384963186 6.8440273488 6.401874177 7.0860949614 6.6356111172 7.1985687996 6.7462176548 7.0126562659 6.6540701624 
6.8924288665 6.5170074821 6.6702566514 6.3042565706 6.4731181875 6.1594210437 6.3095702538 6.1587029495 6.1542542261 
6.1253234153 6.0304370326 6.1160549057 9.3839756225 9.3408697468 8.7225459851 8.7925159631 9.2819742792 8.6285151158 
9.1771742097 8.4679549546 9.0440912384 8.3280409468 8.8861179714 8.2008579465 8.7773250586 8.0547982591 8.668708925 
7.921628972 8.5561411691 7.7959706307 8.4354829825 7.7243314691 8.3024964003 7.6731223534 8.1523815939 7.6234483555 
8.1253992185 7.6821393067 8.1667513557 7.7667973061 8.2680099 7.8505850118 8.4190125258 7.9294590637 8.4662053366 
7.989934069 8.4527245195 8.0324818992 8.4308428919 7.9192300997 8.2788871814 7.7593801918 8.0536837708 7.5731318984 
7.7733939958 7.3032127288 7.5800908163 7.0971898187 7.450225911 6.9623384775 7.4190598678 6.9764748251 7.4230529207 
7.1602739235 7.4455253822 7.2305358032 7.3995939391 7.1993935071 7.3200931879 7.1393072395 7.1920215562 6.9761764387 
6.9867263853 6.7005760596 6.7609675665 6.3618645368 6.5524128185 6.0242089821 6.3468109613 5.6796064855 6.1442241453 
5.4717692467 6.1904817058 5.4565551286 6.2977758194 5.5159322264 6.4978638273 5.7143408388 6.6675650513 5.8966499714 
6.8122835219 6.066661571 6.7734121597 6.1284287584 6.7589089846 6.1836119699 6.7827866079 6.2281413914 6.8949381235 
6.3353070396 7.0510525311 6.4956970567 7.3841648752 6.8045535735 7.731343007 7.165084099 8.1092357247 7.5859941605 
8.4548825335 7.9163335733 8.7739239639 8.176848177 8.7761370682 8.1897492245 8.6965107263 8.1644259228 8.5889581072 
8.1331834084 8.5384778135 8.135061684 8.6485578107 8.2317001048 8.8141886622 8.3807847229 9.0363300665 8.5474458181 
9.2178692978 8.6817567925 6.2843295813 6.1756439222 6.4031112482 6.7825580489 7.0768240275 7.2389179234 7.4037114029 
7.6297888087 7.8798057535 8.1212211014 8.4521145133 8.8692701768 9.2565258773 9.4952157379 9.5910851341 9.6073803332 
9.4817370393 9.3631501435 9.2459723759 8.959311052 8.596688208 8.168870155 7.6648779962 6.998132415 6.5139718598 
6.1393543927 5.8071254132 5.6172915722 5.5902531849 5.6823358016 5.9360394049 6.1958854701 6.4397187539 6.5534616102 
6.4698390967 6.3704859627 6.2189834851 6.1303390524 6.1799844847 6.2293464027 6.2067372014 6.1947261271 7.881120829 
7.9646076657 7.7467163171 7.589771637 7.411407625 7.2091245908 7.0550506915 6.9678868845 6.9924701593 7.0685140541 
7.1178301187 7.2092971615 7.3458744566 7.4516721688 7.5342985106 7.6012295937 7.6438422116 7.5693840544 7.4349504476 
7.2353269263 7.009348967 6.8094099901 6.6660634123 6.6080708342 7.1408537924 7.0426331391 7.1768885053 7.1731001303 
6.9858374309 6.7098717582 6.3508186832 5.923146022 5.3783176814 5.0085815177 4.9929690346 4.99787121 5.0731202164 
5.2016940719 5.294242514 5.3666418946 5.444755905 5.530411143 5.7060827066 5.9259288309 6.1679785431 6.5041821329 
6.9335103653 7.2861083257 7.5618466245 7.5666446832 7.5444920488 7.475943276 7.4538476265 7.5570691049 7.7232592887 
7.9006276604 7.9493900981 8.0118291747 6.9424606326 6.9030121145 7.3052311259 7.1703712779 7.4495104258 7.5638768776 
7.6980876497 7.8792864982 8.0338631284 8.2101609513 8.4459040473 8.6384920007 8.7736423883 8.8751671914 8.9045600987 
8.8444316209 8.8692654414 8.8145448792 8.6563898775 8.4076855073 8.083401733 7.7080167706 7.2810306983 6.0156308975 
6.2940564045 5.7678727105 5.6790721317 5.7067626628 5.8122208204 6.0987363103 6.3547551545 6.5779746249 6.7062852673 
6.6286647437 6.5561412419 6.4884537393 6.5305773382 6.4829843692 6.3701474391 6.2958767416 6.2613883407 6.3322009709 
6.3822348167 6.6530451683 6.9912184639 7.1906856596 7.245425331 7.4084115438 7.4523819177 7.2340616192 6.9416765561 
6.5929436291 6.2327378178 5.9278590943 4.6762987226 4.8455651547 4.640168869 4.6371529194 4.643762229 4.6857469986 
4.7495623305 4.8268294931 4.9129383784 5.1308132057 5.3129061696 5.5356141907 5.808009184 6.090347977 6.3913013108 
6.6827537431 6.7006375104 6.6832598317 6.6253505202 6.6146341389 6.7669668283 6.917340308 7.0686875783 7.0496936985 
7.1241861056 7.0606016853 7.0035483001 6.9113058484 6.820284538 6.6635207534 6.4467516509 6.3085517015 6.2383851585 
6.3945822949 6.5290816038 6.6502612547 6.7812914745 6.9199039477 7.0568386161 7.1431766848 7.157798496 7.2719462556 
7.2668664279 7.1645151359 6.9766033881 6.8091721545 6.6363003828 6.5777423154 6.4839669964 6.7501689691 7.1704647202 
7.7618773274 7.594463076 5.2407306405 5.8126065213 6.6622347006 6.9557502572 6.3957721829 6.1753384701 5.9968974976 
5.9739003172 6.0901566827 6.3300635658 6.6018013512 6.8124677685 6.9282034822 6.9486467574 6.8974995216 6.8398167548 
6.7724206445 6.7355514217 6.4793945049 6.6497747754 6.3264957931 6.293666569 6.3936601913 6.4740730835 7.5960509507 
7.461112846 7.7021951878 7.7771595586 7.8448068149 7.9356967532 8.0483145246 8.1582801083 8.2060687339 8.2261690263 
8.336777734 8.3908001378 8.3943656875 8.4316998223 8.4181392826 8.3993359137 8.3485473752 8.2404307972 8.0471331135 
7.7285523946 7.4831584129 7.2872145669 7.1189613345 6.8221112843 6.9309617573 6.6739557968 7.1132308988 7.3077775433 
6.9779560242 7.1233960511 6.6951685556 6.7717854481 7.7529303499 7.4782012833 7.2020347789 6.9176395428 6.6041149841 
6.3608262805 6.3149483957 5.8276438021 6.3943160742 5.2996949882 4.952460664 4.6909174946 4.5831060683 4.4865478301 
4.4144596611 4.3801575272 4.3767276128 4.4422115583 4.5095296615 4.6957346833 4.9400544715 5.0707732648 5.1522283822 
5.247525124 5.4244154081 5.6915334693 5.7212838479 5.7199120041 5.6910492451 5.7544753664 5.9322220039 6.0894134034 
6.2488714045 6.0108444493 6.1362455944 6.1430749442 6.1184139179 6.0704168299 5.976152606 5.8619730558 5.6757025014 
5.6097933164 5.6441418715 5.8344988535 6.0413728969 6.2510886782 6.4114232596 6.5636179854 6.6475405074 6.7409245785 
6.7614666587 6.9525036496 6.9378992872 6.8817334669 6.7194536142 6.6217941644 6.5334945062 6.5085127403 6.5772029577 
6.7353488351 7.0473530138 7.4108002533 7.8220688317 7.6207129422 7.9053154414 7.8528386371 7.5893017517 7.3260941732 
7.0834538869 6.8103619397 6.9113860151 6.5823583649 7.2108631483 7.4297678253 7.643589468 7.4632720335 7.8331404079 
7.9140765047 7.8649132578 7.7378761916 7.526921764 7.3005023046 7.0787478828 6.806699107 6.5801577154 6.4712450038 
6.3382655293 6.2880836752 6.3480887373 6.5049356874 6.7479834366 6.9701144384 7.1003071727 7.1808020387 7.1565131949 
7.0703026881 6.9992829676 6.9235269456 6.8647811312 6.849554358 6.7943002357 6.8071557238 6.6903831928 6.5526348852 
6.4757522225 6.3617030819 6.3478009105 6.3986135537 6.4903120791 6.5136490002 6.5752941705 6.740936791 6.7035931279 
6.8567655072 7.0227267789 7.3007650795 7.5770512944 7.748366547 7.853192593 7.8853131324 7.9280873297 8.0017561238 
8.0085393224 7.9844073107 7.9744656714 8.0051665388 8.2202075825 8.3839861868 8.4216136996 8.1970898032 8.1362980984 
8.1202351567 8.1046292969 8.036573567 7.9171383707 7.7788313365 7.6628522569 7.4669571248 7.2320765579 6.966083601 
6.6927802743 6.636284085 6.6341957288 6.534303835 8.4616425479 8.4855696938 6.9692331206 6.7196649467 6.5981020979 
7.1981967745 5.9709079786 5.5321957964 5.2378504497 4.9837890998 4.8531696967 4.6535314449 4.5012221482 4.3607549976 
4.2847332697 4.288573071 4.3780876921 4.5020328632 4.6560735514 4.6801633588 4.7239701733 4.7193002909 4.8654890515 
4.8417331829 4.8828823039 4.9430400091 4.9531904712 5.0437785686 5.2273998826 5.4296135436 5.6535095996 5.4913949861 
5.2565439137 5.328323378 5.293763217 5.3352655574 5.2716730697 5.1963575836 5.084640158 5.0661313929 5.2495970717 
5.4404023501 5.6496199291 5.7971968069 5.9551352909 6.1307551852 6.271106763 6.4036941308 6.4928101157 6.3157614114 
6.3533306599 6.1207235907 6.5691992308 6.6872573899 6.6878407715 6.6205501333 6.4829246778 6.4534947671 6.510605761 
5.2749295626 5.0348256046 7.3279746671 7.7681281657 7.5377291773 8.091131375 6.8139455411 6.1714066708 5.742217116 
5.6169143376 5.4174057104 5.1824335372 4.9239207124 4.664730818 4.4250908901 4.3573887766 4.3715060034 4.5070526492 
4.7334453518 4.6949380497 4.6395017521 4.5144269593 4.4068113662 4.4563439533 4.4983628545 4.5013352081 4.5145436475 
4.490582784 4.5282651424 4.6297421372 4.8745578281 5.1311502516 5.0476410139 4.7871996886 4.7209609442 4.7517209247 
4.7059693026 4.7094292111 4.6895091409 4.7651904094 4.8173781374 4.7807366926 4.724569468 4.7557291606 4.8710636928 
5.079662354 5.2761853941 5.4437566134 5.4984890909 5.5738714469 5.6848851994 5.9165665377 6.1445323662 5.9413922951 
5.9771090447 5.7746809087 6.1934876167 6.4241597243 6.544155558 6.4991232481 6.449683022 6.3941966181 6.4441322057 
6.4586317027 6.3855390311 6.4057892827 6.5494827629 6.7430381611 6.9453970177 7.1170408417 7.1862353258 7.1608578251 
7.1031517901 7.006956673 6.9072159579 6.8713478074 6.855269993 6.839948572 6.7197841026 6.6626416784 6.4069214907 
6.7356647939 6.6734514817 6.5272655377 6.4041299582 6.3175320526 6.2825662386 6.315710147 6.3835244756 6.4183069118 
6.4953766645 6.5990205187 6.7967237173 7.0527372918 7.3719320701 7.6380280611 7.6932694691 7.6617463167 7.6241279726 
7.5793263155 7.6355274777 7.6704619134 7.7183163927 7.8319666907 7.9657337305 8.2720368106 8.7511042443 8.6354295946 
8.7861475684 8.673631886 8.4991941967 8.2826380068 8.0927302883 8.0098808642 7.9594440987 7.9044990165 7.8681940619 
7.8315548426 7.6983948102 7.5335040514 7.1832988281 6.8191995057 6.5298069891 6.3644283569 6.2802621744 6.5118294309 
6.4428532821 6.3310359798 6.2366229157 6.0057786789 5.7012958852 5.3193336278 4.9637409004 4.6259368856 4.5466966561 
4.5182870225 4.6795459278 4.9266530205 4.7551200579 4.909251584 4.6287519571 4.4738905819 4.4966509726 4.5225880201 
4.5795771894 4.5961755393 4.5244913971 4.4506183155 4.4280641258 4.4988423259 4.6686818411 4.7943457973 4.7360011257 
4.8765126119 4.9750325325 5.267283201 4.6854331825 4.612566411 4.4538366176 4.4292850385 4.4474188161 4.490388511 
4.5587771191 4.6782544319 4.7967633775 4.9415682853 5.1808218737 5.3727405468 5.3976715467 5.4388329268 5.4644741798 
5.5665647335 5.7532238842 5.1076294713 5.3041561974 5.653288953 5.7273037766 5.7214483305 5.8096633697 5.9992217098 
6.2999160422 6.300604522 6.2969311936 6.4241323062 6.5534976496 6.7086605467 6.8572104528 6.9640180914 6.9755671278 
6.9350487877 6.8211032583 6.6699103116 6.5598433542 6.571233125 6.6143462278 5.930691589 5.9620120797 5.3256756192 
6.3439980976 6.5769426777 6.5756906553 6.49313747 6.2888625135 6.1052795069 6.068768689 6.0824969477 6.1338600414 
6.1622057768 6.192362701 6.1943701781 6.3088028391 6.5343628982 6.7734921899 6.9887390274 7.051047003 6.9901200533 
6.8610171387 6.9547622812 7.0383827558 7.1981511691 7.2877139692 7.4646460124 7.6987939423 8.0608902614 8.4352786392 
8.8721848669 8.6762626235 9.0355448499 8.9727125694 8.9115392895 8.6391679259 8.3325145038 8.056092089 7.9419223611 
7.8309493923 7.6577825836 7.6967200022 7.7216174625 7.5683960133 7.3464659564 7.0166889468 6.6490053545 6.3634247289 
6.2326800687 6.0732337244 6.110510715 6.195321549 6.7102693202 7.0593638645 7.2432408104 7.4049769548 7.5660389858 
7.629051631 7.7797366073 7.9093860399 7.9557286451 8.0020616378 7.9119883059 7.6675863953 8.1165460542 8.499558005 
8.3398450379 8.6800971419 7.7910947402 6.9030973596 6.1247969803 6.0881232022 6.1895679241 6.3605619005 6.5133646666 
6.5693003366 6.5763794039 6.5926182431 6.5646940744 6.4555734915 6.0760646118 5.9527255512 5.9148691058 4.7731389198 
4.6380057501 4.7872383846 5.4074635525 5.9631474227 6.2675631366 6.4306956918 6.3795704316 6.0597285979 5.8741111762 
5.8174486067 5.75776098 5.724150259 5.6430652787 5.7156127169 5.5849719162 5.6646320505 5.8574506914 6.0241295648 
6.1757002498 6.2000727498 6.1368439148 5.8229234678 6.4338672027 6.1722439768 6.6939689327 6.9154675763 7.1111849462 
7.4646718734 7.7672164582 8.0747424354 8.319145665 5.6861251177 5.4786044752 5.5052282143 5.6150315486 6.3052363828 
6.294735058 6.3910330405 6.719988457 6.984741079 7.1806465535 7.4559804913 6.8001891248 6.368116328 5.8612448646 
5.4182906954 5.068312996 4.9360444067 4.8706551381 4.9558682604 5.2019270251 5.5951715431 5.2978970491 5.2175266611 
5.0997842795 4.9133846168 4.7847897403 4.8064313131 4.7646230522 4.7598213508 4.7587412348 4.7262871013 4.6616070072 
4.518624517 4.4724010825 4.6027793247 4.7579012584 4.8673654302 5.1042658981 5.5540220059 5.378745512 5.7393326751 
4.9654666811 4.6543179124 4.5442064625 4.5886652529 8.3897370463 8.7435765153 9.0155853533 8.9849079398 8.9552213909 
8.9001450901 8.5610909461 8.1883171007 7.9110874483 7.7283881511 7.676352532 5.0084430252 5.1478861665 5.3273129252 
5.5373700202 5.5955481458 5.8103705794 5.7816890435 6.072931438 5.6031462117 5.5655698295 5.5406286942 5.5792415393 
5.5864850355 5.7916593397 5.9168614575 6.0778962357 5.7929931996 5.8152023019 7.9189463626 8.0844813727 8.4048219022 
7.6506484583 5.6027196323 5.5309939551 5.3592565317 5.1932163455 5.0687162663 5.0525192996 5.1040351112 5.1400619009 
5.1509591121 5.0033665176 4.811315881 4.7207214183 5.2725280156 4.9960643636 5.4581509075 5.8605363182 4.9952488791 
7.0483412361 6.4720832548 6.0550918841 5.76248278 5.4941999999 5.3089933895 5.2363606521 5.5839859 5.8185618234 
6.112335256 6.3726295749 6.6413050066 6.9828325202 7.4223217764 7.7773577246 5.8331597984 5.8548385477 5.7934904347 
6.1059124036 6.2261298101 5.8980617583 5.5439123975 5.5822854946 5.4631282781 5.4799885346 5.2347638599 6.1919732183 
6.2472245295 6.1950963573 6.1575022545 8.8552079968 6.1936085934 5.1843928529 5.2355087773 5.1268956042 6.4499251925 
6.7706252844 6.5773224885 6.0818152591 5.9062241596 4.9319083559 4.8295292059 5.6318072973 
VAJ 1 1114 double
1 1 0 0 0.99999881155 0 1.0000000427 0 1.0000013454 
0 0.99999967501 0 0.99999809768 0 1.0000010742 0 1.0000010751 0 
1 0 1.000000481 0 1.0000015243 0 1 0 1 
0 1 0 1 0 1 0 1.0000000581 0 
1.0000000321 0 0.99999988331 0 1 0 1 0 1 
0 1 0 1 0 1 0 1 0 
1 0 1 0 1 0 1 0 1 
0 1 0 1 0 1 0 1 0 
1 0 1 0 1 0 1 0 1 
0 1 0 0 0 0 0 0 0 
0 0 0 0 0 0 0 0 0 
0 0 0 0 0 0 0 0 0 
0 0 0 0 0 0 0 0 0 
0 0 0 0 0 0 0 0 0 
0 0 0 0 0 0 0 0 0 
0 0 0 0 0 0 0 0 0 
0 0 0 0 0 0 0 0 0 
0 0 0 0 0 0 0 0 0 
0 0 0 0 0 0 0 0 0 
0 0 0 0 0 0 0 0 0 
0 0 0 0 0 0 0 0 0 
0 0 0 0 0 0 0 0 0 
0 0 0 0 0 0 0 0 0 
0 0 0 0 0 0 0 0 0 
0 0 0 0 0 0 0 0 0 
0 0 0 0 0 0 0 0 0 
0 0 0 0 0 0 0 0 0 
0 0 0 0 0 0 0 0 0 
0 0 0 0 0 0 0 0 0 
0 0 0 0 0 0 0 0 0 
0 0 0 0 0 0 0 0 0 
0 0 0 0 0 0 0 0 0 
0 0 0 0 0 0 0 0 0 
0 0 0 0 0 0 0 0 0 
0 0 0 0 0 0 0 0 0 
0 0 0 0 0 0 0 0 0 
0 0 0 0 0 0 0 0 0 
0 0 0 0 0 0 0 0 0 
0 0 0 0 0 0 0 0 0 
0 0 0 0 0 0 0 0 0 
0 0 0 0 0 0 0 0 0 
0 0 0 0 0 0 0 0 0 
0 0 0 0 0 0 0 0 0 
0 0 0 0 0 0 0 0 0 
0 0 0 0 0 0 0 0 0 
0 0 0 0 0 0 0 0 0 
0 0 0 0 0 0 0 0 0 
0 0 0 0 0 0 0 0 0 
0 0 0 0 0 0 0 0 0 
0 0 0 0 0 0 0 0 0 
0 0 0 0 0 0 0 0 0 
0 0 0 0 0 0 0 0 0 
0 0 0 0 0 0 0 0 0 
0 0 0 0 0 0 0 0 0 
0 0 0 0 0 0 0 0 0 
0 0 0 0 0 0 0 0 0 
0 0 0 0 0 0 0 0 0 
0 0 0 0 0 0 0 0 0 
0 0 0 0 0 0 0 0 0 
0 0 0 0 0 0 0 0 0 
0 0 0 0 0 0 0 0 0 
0 0 0 0 0 0 0 0 0 
0 0 0 0 0 0 0 0 0 
0 0 0 0 0 0 0 0 0 
0 0 0 0 0 0 0 0 0 
0 0 0 0 0 0 0 0 0 
0 0 0 0 0 0 0 0 0 
0 0 0 0 0 0 0 0 0 
0 0 0 0 0 0 0 0 0 
0 0 0 0 0 0 0 0 0 
0 0 0 0 0 0 0 0 0 
0 0 0 0 0 0 0 0 0 
0 0 0 0 0 0 0 0 0 
0 0 0 0 0 0 0 0 0 
0 0 0 0 0 0 0 0 0 
0 0 0 0 0 0 0 0 0 
0 0 0 0 0 0 0 0 0 
0 0 0 0 0 0 0 0 0 
0 0 0 0 0 0 0 0 0 
0 0 0 0 0 0 0 0 0 
0 0 0 0 0 0 0 0 0 
0 0 0 0 0 0 0 0 0 
0 0 0 0 0 0 0 0 0 
0 0 0 0 0 0 0 0 0 
0 0 0 0 0 0 0 0 0 
0 0 0 0 0 0 0 0 0 
0 0 0 0 0 0 0 0 0 
0 0 0 0 0 0 0 0 0 
0 0 0 0 0 0 0 0 0 
0 0 0 0 0 0 0 0 0 
0 0 0 0 0 0 0 0 0 
0 0 0 0 0 0 0 0 0 
0 0 0 0 0 0 0 0 0 
0 0 0 0 0 0 0 0 0 
0 0 0 0 0 0 0 0 0 
0 0 0 0 0 0 0 0 0 
0 0 0 0 0 0 0 0 0 
0 0 0 0 0 0 0 0 0 
0 0 0 0 0 0 0 0 0 
0 0 0 0 0 0 0 0 0 
0 0 0 0 0 0 0 0 0 
0 0 0 0 0 0 0 0 0 
0 0 0 0 0 0 0 0 0 
0 0 0 0 0 0 0 0 0 
0 0 0 0 0 0 0 0 0 
0 0 0 0 0 0 0 0 0 
0 0 0 0 0 0 0 0 0 
0 0 0 0 0 0 0 0 0 
0 0 0 0 0 0 0 0 0 
0 0 0 0 0 0 0 0 0 
0 0 0 0 0 0 0 0 0 
0 0 0 0 0 0 0 0 0 
0 0 0 0 0 0 0 0 0 
0 0 0 0 0 0 0 0 0 
0 0 0 0 0 0 0 0 0 
0 0 0 0 0 0 0 0 0 
0 0 0 0 0 0 0 0 0 
0 0 0 0 0 0 0 0 0 
0 0 0 0 0 0 0 0 0 
0 0 0 0 0 0 0 0 0 
0 0 0 0 0 0 0 0 0 
0 0 0 0 0 0 0 0 0 
0 0 0 0 0 0 0 0 0 
0 0 0 0 0 0 0 
vtkValidPointMask 1 1114 char
1 1 1 1 1 1 1 1 1 
1 1 1 1 1 1 1 1 1 
1 1 1 1 1 1 1 1 1 
1 1 1 1 1 1 1 1 1 
1 1 1 1 1 1 1 1 1 
1 1 1 1 1 1 1 1 1 
1 1 1 1 1 1 1 1 1 
1 1 1 1 1 1 1 1 1 
1 1 1 1 1 1 1 1 1 
1 1 1 1 1 1 1 1 1 
1 1 1 1 1 1 1 1 1 
1 1 1 1 1 1 1 1 1 
1 1 1 1 1 1 1 1 1 
1 1 1 1 1 1 1 1 1 
1 1 1 1 1 1 1 1 1 
1 1 1 1 1 1 1 1 1 
1 1 1 1 1 1 1 1 1 
1 1 1 1 1 1 1 1 1 
1 1 1 1 1 1 1 1 1 
1 1 1 1 1 1 1 1 1 
1 1 1 1 1 1 1 1 1 
1 1 1 1 1 1 1 1 1 
1 1 1 1 1 1 1 1 1 
1 1 1 1 1 1 1 1 1 
1 1 1 1 1 1 1 1 1 
1 1 1 1 1 1 1 1 1 
1 1 1 1 1 1 1 1 1 
1 1 1 1 1 1 1 1 1 
1 1 1 1 1 1 1 1 1 
1 1 1 1 1 1 1 1 1 
1 1 1 1 1 1 1 1 1 
1 1 1 1 1 1 1 1 1 
1 1 1 1 1 1 1 1 1 
1 1 1 1 1 1 1 1 1 
1 1 1 1 1 1 1 1 1 
1 1 1 1 1 1 1 1 1 
1 1 1 1 1 1 1 1 1 
1 1 1 1 1 1 1 1 1 
1 1 1 1 1 1 1 1 1 
1 1 1 1 1 1 1 1 1 
1 1 1 1 1 1 1 1 1 
1 1 1 1 1 1 1 1 1 
1 1 1 1 1 1 1 1 1 
1 1 1 1 1 1 1 1 1 
1 1 1 1 1 1 1 1 1 
1 1 1 1 1 1 1 1 1 
1 1 1 1 1 1 1 1 1 
1 1 1 1 1 1 1 1 1 
1 1 1 1 1 1 1 1 1 
1 1 1 1 1 1 1 1 1 
1 1 1 1 1 1 1 1 1 
1 1 1 1 1 1 1 1 1 
1 1 1 1 1 1 1 1 1 
1 1 1 1 1 1 1 1 1 
1 1 1 1 1 1 1 1 1 
1 1 1 1 1 1 1 1 1 
1 1 1 1 1 1 1 1 1 
1 1 1 1 1 1 1 1 1 
1 1 1 1 1 1 1 1 1 
1 1 1 1 1 1 1 1 1 
1 1 1 1 1 1 1 1 1 
1 1 1 1 1 1 1 1 1 
1 1 1 1 1 1 1 1 1 
1 1 1 1 1 1 1 1 1 
1 1 1 1 1 1 1 1 1 
1 1 1 1 1 1 1 1 1 
1 1 1 1 1 1 1 1 1 
1 1 1 1 1 1 1 1 1 
1 1 1 1 1 1 1 1 1 
1 1 1 1 1 1 1 1 1 
1 1 1 1 1 1 1 1 1 
1 1 1 1 1 1 1 1 1 
1 1 1 1 1 1 1 1 1 
1 1 1 1 1 1 1 1 1 
1 1 1 1 1 1 1 1 1 
1 1 1 1 1 1 1 1 1 
1 1 1 1 1 1 1 1 1 
1 1 1 1 1 1 1 1 1 
1 1 1 1 1 1 1 1 1 
1 1 1 1 1 1 1 1 1 
1 1 1 1 1 1 1 1 1 
1 1 1 1 1 1 1 1 1 
1 1 1 1 1 1 1 1 1 
1 1 1 1 1 1 1 1 1 
1 1 1 1 1 1 1 1 1 
1 1 1 1 1 1 1 1 1 
1 1 1 1 1 1 1 1 1 
1 1 1 1 1 1 1 1 1 
1 1 1 1 1 1 1 1 1 
1 1 1 1 1 1 1 1 1 
1 1 1 1 1 1 1 1 1 
1 1 1 1 1 1 1 1 1 
1 1 1 1 1 1 1 1 1 
1 1 1 1 1 1 1 1 1 
1 1 1 1 1 1 1 1 1 
1 1 1 1 1 1 1 1 1 
1 1 1 1 1 1 1 1 1 
1 1 1 1 1 1 1 1 1 
1 1 1 1 1 1 1 1 1 
1 1 1 1 1 1 1 1 1 
1 1 1 1 1 1 1 1 1 
1 1 1 1 1 1 1 1 1 
1 1 1 1 1 1 1 1 1 
1 1 1 1 1 1 1 1 1 
1 1 1 1 1 1 1 1 1 
1 1 1 1 1 1 1 1 1 
1 1 1 1 1 1 1 1 1 
1 1 1 1 1 1 1 1 1 
1 1 1 1 1 1 1 1 1 
1 1 1 1 1 1 1 1 1 
1 1 1 1 1 1 1 1 1 
1 1 1 1 1 1 1 1 1 
1 1 1 1 1 1 1 1 1 
1 1 1 1 1 1 1 1 1 
1 1 1 1 1 1 1 1 1 
1 1 1 1 1 1 1 1 1 
1 1 1 1 1 1 1 1 1 
1 1 1 1 1 1 1 1 1 
1 1 1 1 1 1 1 1 1 
1 1 1 1 1 1 1 1 1 
1 1 1 1 1 1 1 1 1 
1 1 1 1 1 1 1 1 1 
1 1 1 1 1 1 1 1 1 
1 1 1 1 1 1 1 
Stress_X_Pt 1 1114 double
0.013014223892 0.010709080612 0.0092748864554 0.012357357657 0.0058288502041 0.0055445086909 0.0029810991837 0.0034651102033 0.00052007107297 
0.0016962767404 0.00086447590729 0.0013674004877 0.0013649469829 0.0019279030562 -0.00013190843401 0.0019376180821 0.00028760269925 0.0025246818768 
0.0014309775434 0.0036382847175 0.0025574754691 0.0050299293944 0.0031540018972 0.0061305506388 0.003732628189 0.0067768215667 0.0045378564391 
0.0073310550069 0.0051873798948 0.0079559088917 0.0057340965141 0.0085124912439 0.0059403432533 0.0087408248801 0.0057571390644 0.0083558887709 
0.0051792883314 0.0073536438867 0.0043947331142 0.0061612745048 0.0039842203259 0.0051515408559 0.0042815653142 0.0045662341872 0.0049308170564 
0.0044063196983 0.0054347829428 0.0042580043082 0.0057490083855 0.004192188906 0.0051220143214 0.0036735102767 0.0031505149673 0.0025250945764 
0.0013646425214 0.0019387234352 0.00048105109454 0.001917878948 7.8775598922e-05 0.0020300991159 -0.00030516628703 0.0022652963848 -0.0009571070841 
0.0024284290121 -0.0013572438038 0.0025809830113 -0.0013112332672 0.0030534383841 -0.0010504703387 0.0038484148972 -0.00041574992429 0.0047503511505 
0.00062019748657 0.005484631276 0.0021962056635 0.0061782001867 0.0046731232433 0.0074642197578 0.0077948125545 0.0095209333813 0.010464145336 
0.011672557332 0.011932746973 0.012844498735 0.0075665970799 0.004683928797 0.0088409689488 0.010788140702 0.002576799714 0.0072620006395 
0.001051616171 0.0061982119296 -6.3924744609e-05 0.0055085873828 -0.00075677150744 0.0050043085503 -0.0007956023037 0.004617212122 -0.00046888770885 
0.0044379367755 -8.5584757471e-05 0.0044340694167 0.00049834861784 0.004674012891 0.0016782690363 0.0053395394498 0.0038984052371 0.0059002788039 
0.0060693474952 0.0060245051282 0.0068539476488 0.0058514705161 0.0065200394019 0.0052617748734 0.0057784293313 0.0043692260515 0.0054770235438 
0.0037899636663 0.005926089827 0.0038132129121 0.0066364912782 0.0039363845426 0.0072302580811 0.0040407630149 0.0070671243593 0.0040830871149 
0.005867655389 0.0042464837898 0.00424305466 0.004718035867 0.0025680640247 0.0047132456675 0.001046809266 0.0049339679594 -5.4635398556e-05 
0.0042317973857 0.00028272233612 0.004953412943 0.0022173391189 0.0071448514936 0.005016584415 0.010004354408 0.0083350492641 0.012387206778 
0.011531804223 0.014043378877 0.014580732677 0.015430968022 0.017443185672 0.016634922009 0.019564982504 0.017707696185 0.018155087717 
0.016953239916 0.013124716002 0.013234572718 0.0077645550482 0.0088854867499 0.0032009526039 0.0056733027741 -0.0016277663526 0.0029760652396 
-0.0038930532755 0.0017667398206 -0.0033533897949 0.0022867648513 -0.0032552530756 0.0026567709283 -0.0027872857172 0.0025515962625 -0.0021542635513 
0.0023121163831 -0.00045988193597 0.0024416943925 0.0019374526164 0.0025051302946 0.0031482398044 0.002544343035 0.0034280378604 0.0027928018826 
0.0035224227468 0.0028310671332 0.0034904561471 0.0028711741907 0.0037586347898 0.0034006792703 0.004767842358 0.0044483413221 0.0063643746544 
0.0057532135397 0.0085149246734 0.0076425494626 0.010488433298 0.009712736588 0.012029879726 0.011574302334 0.012571463361 0.012763651786 
0.010789384134 0.012403674657 0.0081009669229 0.011867775465 0.0051456193323 0.0030866856221 0.0019124764367 0.0021917707927 0.00321157914 
0.0043346766615 0.0059055407764 0.0080693028867 0.010032971622 0.010805841768 0.010955094127 0.011463387869 0.012073528254 0.012394311372 
0.012088406598 0.010910474462 0.0090874992311 0.0070172685664 0.005116528715 0.0036760828225 0.0027680966305 0.0026799862739 0.0024804605637 
0.0018565299106 0.0021539456793 0.0028690421605 0.0036145732156 0.004665950546 0.0059330894146 0.0070697600022 0.0083454966079 0.0098640881479 
0.011104306439 0.011549182935 0.011243867222 0.010782360565 0.011023233877 0.012230243068 0.01359356707 0.013935649768 0.014018118382 
0.014309059596 0.013886272674 0.01371238241 0.013005615678 0.011602958199 0.010377611034 0.0097708315589 0.0094242296182 0.009233887773 
0.0083466984797 0.0067220600322 0.0053597769001 0.0041682936717 0.0029213560629 0.0020992353675 0.0018882631557 0.0017026791757 0.0015161160263 
0.001833157643 0.003083863412 0.0049488077057 0.0062986401608 0.0071871028049 0.0093510337174 0.0083093817035 0.01176997833 0.014272074681 
0.015728185186 0.016022811644 0.015588353388 0.01485535386 0.013716735132 0.0142414195 0.01251834468 0.01002764632 0.0085147566861 
0.0079443742288 0.0079458323307 0.008398063248 0.0084465466207 0.0073591982946 0.0059550103033 0.0045583447209 0.0028944593796 0.0020268523076 
0.0020481392567 0.0020702388429 0.0023313863785 0.0030827333685 0.0041838206234 0.0054827200947 0.0072583500296 0.0093699619174 0.01157296868 
0.013442432508 0.01438722224 0.014557342045 0.0079833846539 0.0083513692953 0.0019599017105 0.0023688824149 0.0021443094884 0.0031548351108 
0.0049425930483 0.0071756326361 0.0098716631765 0.012295238441 0.013135615969 0.012915332103 0.012974296696 0.013347619446 0.013756435364 
0.013865527697 0.013078561984 0.01123965648 0.0088824686827 0.0065047966782 0.0042703924701 0.0026792862336 0.002094531199 0.0016995437327 
0.0024701195944 0.0016769315989 0.002347075264 0.0033952750382 0.0048318811459 0.0065989460563 0.0084208167391 0.010212505702 0.011951018358 
0.013241054257 0.013675560243 0.013131530955 0.011642398313 0.010213366011 0.010428912938 0.011721378192 0.014160013292 0.014975870494 
0.011779825669 0.0028767510084 0.0025612276513 0.0089908863883 0.0090342869516 0.01054511359 0.012077111984 0.013184776297 0.013534623431 
0.013136785012 0.012213494861 0.010771838482 0.010878759203 0.011298133293 0.0098086337093 0.0088746647816 0.008208146086 0.0081973031629 
0.0087626068853 0.0082625485957 0.0064840683481 0.0049707512371 0.0038560253452 0.0026591774076 0.0019359371508 0.0018858315598 0.0020715022983 
0.0024097029818 0.0030268650735 0.0041413090075 0.005706296768 0.0075010077562 0.0093893830199 0.011523512891 0.013362955768 0.014308586484 
0.015013720375 0.015960608143 0.017127666622 0.018134723417 0.018259737641 0.016934889369 0.014481705846 0.012280009687 0.011083084624 
0.010296840221 0.0095692658797 0.0087825255468 0.0075501829851 0.006034048507 0.0044947506976 0.0031315881643 0.0022227986017 0.002022701985 
0.002125991683 0.0022930833511 0.0027400554973 0.0036793993204 0.0048055389198 0.0059814271517 0.0074414723786 0.0085296945181 0.0087455485482 
0.0087256371044 0.00823108654 0.01047204691 0.0092966957018 0.0026060981909 0.0031505010556 0.0019350652583 0.0014360654459 0.0015421279822 
0.0023565277515 0.0036848068703 0.0054735618178 0.0075669836951 0.0096217365935 0.011504176538 0.013253137236 0.014532347675 0.015164471464 
0.015003582463 0.014073303901 0.0086920710746 0.0094194570556 0.0087418408366 0.010187973618 0.011801585555 0.011134895962 0.0016851730179 
0.0020014166366 0.0021924817702 0.0036998813739 0.0059950905852 0.0089289064053 0.012252383865 0.014927268727 0.015601778636 0.014868012397 
0.014432273246 0.01445838064 0.014870152809 0.015055714408 0.014457452809 0.013060843106 0.011022853665 0.0086917331209 0.0063019411173 
0.004041538923 0.0027720215148 0.0030952992383 0.003813432646 0.0028976221802 0.0035597185488 0.0021171416738 0.0033628938254 0.0026086613652 
0.004159439879 0.003171725121 0.010915221414 0.012986097485 0.0094300960191 0.010141700273 0.010442803847 0.01032021991 0.0098219134379 
0.0092151365243 0.0086152816657 0.0085024358705 0.0080307493918 0.0090149161406 0.0095188752748 0.0096402210183 0.0091851789039 0.0084899683716 
0.0076391480397 0.007149207755 0.0073775025085 0.0068834287813 0.0053508288693 0.004499820061 0.0039916713722 0.0027065043396 0.0017654681869 
0.0019072112045 0.0022727952455 0.0024735257612 0.0029171837377 0.0038832612336 0.0052680227673 0.0068167957943 0.0084001164651 0.010232472094 
0.011796526378 0.012649652176 0.014609141741 0.016368788201 0.018514795229 0.020396365784 0.02082738746 0.019369980786 0.016766235931 
0.014400248881 0.012745038606 0.011385889025 0.010049623437 0.0087416942697 0.007401756593 0.0060029373271 0.0045994840912 0.0034450869425 
0.0027051042416 0.0020285421633 0.0018988741504 0.0024962712778 0.00316021865 0.0041392139974 0.0052921196911 0.0062310883465 0.0069908546284 
0.0073978800792 0.0076064848108 0.0077586937696 0.0077803352615 0.0074884613277 0.0075999419205 0.0078625699971 0.008625249262 0.0092301224358 
0.0092677776702 0.0089883676264 0.0062413554406 0.0059381882893 0.0065762442537 0.0061096284771 0.0064996677684 0.0054969853954 0.0072666208725 
0.007223653025 0.0071472880663 0.0077642766992 0.0086729284376 0.008998648962 0.0087097252253 0.0019923633372 0.0023064013803 0.001482009684 
0.0013026272936 0.0016847143124 0.0026409550628 0.0041405368247 0.006142573664 0.0083576913457 0.010454351082 0.012374277692 0.014015022665 
0.015254609054 0.016214956064 0.016616215464 0.015967145795 0.014815358445 0.011978305876 0.013803779148 0.010260510724 0.0088825966232 
0.007904232596 0.0072865774855 0.007467313204 0.008218782139 0.0083091843408 0.0086226563435 0.0072925353888 0.0060727888485 0.0056301202858 
0.0040512052947 0.0029738689191 0.0021885736496 0.00155919799 0.0014459733211 0.0020967843011 0.0036003667628 0.0060804737732 0.0096850126283 
0.013896042714 0.016685803887 0.016787094064 0.01551377424 0.014282812597 0.016402052948 0.016076152446 0.016473224619 0.015874399571 
0.014510378242 0.012595907087 0.010456650984 0.0082289743004 0.0058837392135 0.0044562040712 0.0042419829988 0.0042227497324 0.0038604502333 
0.0024287389533 0.0027827936865 0.0023560211703 0.0017158810224 0.015139195835 0.013259187108 0.0078956357902 0.0084140379913 0.0074165080441 
0.0071297547547 0.0079555384582 0.0085187170189 0.0087815353181 0.0086893534753 0.0082019348629 0.0074090333655 0.0063740453916 0.0055047861533 
0.0051616204437 0.0046034826082 0.0038518323563 0.0039086797624 0.0040816644323 0.002983460814 0.0018109915836 0.00183922 0.0023156339303 
0.0025351750664 0.0027469369816 0.0034121809877 0.0045228873496 0.0057960664853 0.0070481940638 0.0083745726151 0.00945000723 0.0099659506232 
0.016246279003 0.014043006347 0.018657691311 0.020707990509 0.021371294744 0.020527876448 0.018897630274 0.017213173676 0.015388175147 
0.013204122428 0.010905261384 0.0088010160252 0.0070747181308 0.0056675872765 0.0044501912198 0.003498163016 0.0029871807589 0.0028093162109 
0.002068005444 0.0025686707231 0.0016171309835 0.0017171083455 0.0021652626456 0.0026648478233 0.0035219904967 0.0046122623608 0.0057694113348 
0.012000325369 0.010226692772 0.0080608669668 0.0070386636071 0.0062804076588 0.006045398186 0.0067805913277 0.0073578695301 0.0078908737438 
0.0079213419231 0.0077312889043 0.0070568877272 0.0061179159675 0.0050464053638 0.0041832116549 0.003901312477 0.003572214162 0.0032736767316 
0.003899152996 0.004067083355 0.0030724385288 0.0018786878791 0.0017984241713 0.0022333902889 0.0023791639251 0.0023630894721 0.0027876081294 
0.0035893723834 0.0044867830002 0.005427832366 0.0064331148751 0.0074242206756 0.0082377507351 0.0089374314994 0.010651268996 0.0097244023345 
0.011977396905 0.013689816697 0.015726295533 0.017906626686 0.019839692861 0.020856210962 0.020961583592 0.020415822975 0.019176294561 
0.017263432965 0.014978018962 0.011796302861 0.0090358657762 0.0069913930492 0.0054499659454 0.0042864514398 0.0034373460221 0.0032364254002 
0.0023013541941 0.0029749291716 0.0018920478469 0.0015401057462 0.0016756854602 0.0022176877246 0.0026754488354 0.0035233400995 0.0047116301954 
0.0013211393089 0.0014787692344 0.0020899472001 0.0031587445992 0.0047256231192 0.0067127816146 0.0089034433477 0.011253394652 0.013485579519 
0.01505853422 0.016137316823 0.017117124517 0.017581173684 0.016948513221 0.0159296887 0.015687717823 0.012844656827 0.015104873339 
0.011082358193 0.0096431369893 0.0084182807477 0.0074794181855 0.0066667062929 0.0059976512566 0.0057948410977 0.0057334147859 0.0053615118377 
0.0045539031853 0.0034527060925 0.0024551396491 0.0017507410957 0.0014221009915 0.0016156266793 0.0025198723306 0.0040650666924 0.0062356676208 
0.0096453157021 0.013844450237 0.016271653119 0.015770749422 0.014163936954 0.012580954703 0.011064491235 0.012240574695 0.0099164338317 
0.0148278079 0.01695809979 0.017852230463 0.017590231262 0.016527578468 0.014855800662 0.012672731653 0.010240135714 0.0080957615282 
0.0063367224066 0.005138051114 0.0045539631974 0.0040944075445 0.0038367542438 0.0034758392721 0.002006436669 0.0028720750706 0.0017412924596 
0.0018255321484 0.0013930665154 0.0071333225351 0.006906743627 0.0061513083056 0.0051937111421 0.0043952043634 0.0038083639229 0.0036255979794 
0.0036706887768 0.0038749974919 0.0044867665274 0.0031035075663 0.0041999174282 0.0020510682079 0.0019251246413 0.0021103435429 0.0020753486606 
0.0020560774428 0.0023560051923 0.0028961983626 0.003562563099 0.0043787366594 0.0054050399922 0.0065514566377 0.0075118081877 0.0083372648805 
0.0090068858117 0.010273178574 0.0092215563636 0.01119794813 0.012275521178 0.013542250497 0.015074366471 0.0169050158 0.018681853544 
0.019841162022 0.020268251188 0.020035714377 0.019031732809 0.017645492218 0.016665795818 0.0093555352651 0.012231672416 0.00703568873 
0.0053109658184 0.0041071605519 0.0046055369312 0.0049906407949 0.0039338206989 0.0028538873303 0.0038583427668 0.0021455359529 0.002168542915 
0.0021420530102 0.0013575781486 0.0018383832939 0.002601253771 0.0036787991412 0.0051611431409 0.006971572875 0.0090555842035 0.01170286187 
0.014444257133 0.016309578437 0.017497861758 0.018464972731 0.018674079794 0.017562496942 0.017717542872 0.014329475351 0.016557926545 
0.012042998569 0.010372448014 0.0092509335373 0.0083255680511 0.0072804873344 0.0060620850418 0.004974032985 0.0042331977165 0.0035868288483 
0.0036407917505 0.0034152320586 0.0027838398819 0.0019726916798 0.0014483234263 0.001590788801 0.0023014099279 0.0033701603534 0.0046496227733 
0.0062384343473 0.0088245298248 0.012036177097 0.01383976615 0.01323819859 0.011654061032 0.010348661337 0.0091514018131 0.0080272856867 
0.0088801772799 0.0070595836733 0.011143829208 0.013255957048 0.015133087058 0.016389242606 0.016102890484 0.014584696852 0.012861299096 
0.010746098589 0.0078828319907 0.0066356717143 0.0058084544726 0.00516466517 0.0047755204141 0.004346994916 0.0040595427854 0.003742283734 
0.0032687883941 0.0024199764302 0.0028596606571 0.0017745058576 0.0052991991397 0.0053804892814 0.0050080638612 0.0055558539461 0.0064822532004 
0.006389662507 0.0069294238929 0.007139154477 0.0073426659219 0.0071970977588 0.0074873629492 0.0080954050645 0.0067829920445 0.006214262452 
0.0056047524558 0.0064583511557 0.005665982957 0.0063523740973 0.0022736974934 0.0015430723724 0.0031475918368 0.0041389358812 0.0054004570702 
0.0069165846799 0.0088114134269 0.011527107796 0.014664008282 0.017073784955 0.018537924066 0.019573881291 0.019422221463 0.01589682512 
0.017843358219 0.018369668163 0.013596046716 0.011574870441 0.0099759856239 0.0088944225572 0.0081567829475 0.007201123517 0.0059135647025 
0.0046591066057 0.0037185218534 0.003088677011 0.0025386956404 0.0025918155443 0.0021574908751 0.0015976649593 0.0014436917554 0.0021151106048 
0.0033154228586 0.0042703048675 0.0049672364257 0.005827912502 0.0095984925283 0.007635149057 0.010754409246 0.010313265258 0.009126710007 
0.0082762165694 0.0075204877649 0.0066432580352 0.0059043482179 0.0026371139684 0.0028820665902 0.014780353755 0.016155665275 0.0027555500856 
0.0033971476369 0.0041220620624 0.0046544823563 0.0048051930498 0.0049849527422 0.0055990070105 0.0061052913079 0.0055233192397 0.0048090899363 
0.0044425423257 0.0042512821383 0.004194820358 0.0043866662309 0.0048206400825 0.005418812274 0.0050097446656 0.0049086773458 0.0045680875191 
0.00350093405 0.0024020252458 0.0018360602262 0.0016576026974 0.0017594987294 0.0019483241194 0.0022099783528 0.0027132789837 0.0033866706653 
0.0041518940707 0.0050983998226 0.0062070384156 0.0071922692005 0.0077462855261 0.0079220910557 0.0078900376102 0.010223233374 0.0090349679813 
0.011475416599 0.012648487231 0.013467478255 0.014307686593 0.007069345098 0.0074280900881 0.0078923567198 0.0098616409814 0.011698376387 
0.011766710551 0.012092528166 0.012014958309 0.0098522886634 0.0090570171596 0.0085096939777 0.018999632448 0.01939396793 0.019117780961 
0.018250823952 0.017457500721 0.01736643957 0.015017386526 0.016337871319 0.014238181214 0.012198215118 0.0095704584382 0.0071533479495 
0.0052617356414 0.005405852478 0.0036384613486 0.0046276783687 0.0026760277688 0.0019181193784 0.0080214083816 0.0087592998752 0.0085915696807 
0.0055640319362 0.0046936904546 0.0037780380226 0.0025322638976 0.0016246390587 0.0013884387736 0.0017360750062 0.0020601594006 0.0022443241905 
0.0026123518473 0.0031656121719 0.0038220754359 0.0046324560535 0.0068166839192 0.0070596858859 0.011461663758 0.0099712787196 0.013054674258 
0.0053964352701 0.005200752872 0.0052512965631 0.0054481773404 0.0056490668794 0.0057298501488 0.0056609348394 0.0064808636671 0.0074716666713 
0.0079025978921 0.0075625821482 0.006914630183 0.0064624922816 0.0061416313984 0.0059053433749 0.012667794712 0.0099370751996 0.0075140078552 
0.0087869127747 0.0080943002055 0.0079278465128 0.0047249536728 0.0058469941141 0.0037724392605 0.0032306559539 0.0033633530256 0.013855535537 
0.0054592440526 0.0064329977613 0.0081915971823 0.0092583795777 0.010766875697 0.005043502897 0.0059975895565 0.0040959003381 0.0076601441251 
0.0049622217775 0.0087713816514 0.0013897359313 0.001923200587 0.0066318672616 0.0056752035161 0.0067882074509 
Stress_Y_Pt 1 1114 double
0.015849845018 0.01402782416 0.013579933904 0.015146815684 0.0045910251574 0.0062710810344 0.00048509578482 0.0017124510232 -0.0012716734491 
-0.00021668235422 -0.0010626972653 -0.00081244036846 -0.0015602709027 -0.001819972822 -0.0045640051831 -0.0038308204967 -0.0038290031953 -0.0033878813847 
-0.0021930264193 -0.0015720782831 -0.0009844340384 5.3797484725e-05 -0.00064027425833 0.00076380398241 -0.00026694862754 0.00094032306515 0.00052072588005 
0.0013155490597 0.0013434102875 0.0021033036464 0.0024374110508 0.0031145880057 0.0032249813667 0.0039465359296 0.00372762396 0.0043080634205 
0.0026863209205 0.0032423819066 0.00065902532333 0.0014550532751 0.00019701915699 0.00079132725205 0.00074509237311 0.0010826271173 0.0019721884164 
0.0021950895607 0.0037668281002 0.0037064147182 0.0052830553614 0.0048790905857 0.0052755111828 0.0047540643136 0.0027158440498 0.0024009275221 
-0.00049302322441 -0.00051381591766 -0.0023960195249 -0.0022811595118 -0.0031371647492 -0.0030242987559 -0.0035258549033 -0.0031965196249 -0.0038125104038 
-0.0031124448287 -0.003656911198 -0.0029443044332 -0.00349181809 -0.002815245185 -0.0035534882918 -0.0027778398944 -0.0038446218241 -0.0030355195631 
-0.0045977758709 -0.0038192067877 -0.0050634976942 -0.0044285390759 -0.0039946926991 -0.0036643572384 -0.0007026635576 -0.00060478350497 0.0046699811937 
0.0047930421133 0.010256763082 0.010613228893 0.0038058453938 0.0020871513989 0.002265824558 0.004063233966 0.0017897216603 0.0019105777319 
0.0022915591253 0.0024672704749 0.0020522058476 0.0023732460104 0.00062539053761 0.0011368103333 -0.00042516856774 -0.00019208510275 -0.00095877441345 
-0.00084014830645 -0.00097347819246 -0.00064103115619 1.7747632228e-05 0.00057602658308 0.0023858155473 0.00327515768 0.005434961291 0.0061156274751 
0.0072914885823 0.0074109868146 0.0070361418184 0.0071096237516 0.0061100125313 0.006116637378 0.0060119191185 0.0057329388801 0.0069210079964 
0.006499350653 0.0087540373206 0.0080348041374 0.010490243789 0.0092434063554 0.011046981439 0.009723377414 0.0099683934823 0.0093501931988 
0.0080207027495 0.0084601531271 0.0055515198037 0.0068731519859 0.0015429191699 0.0032307399524 -0.0021192683198 -0.00079874537769 -0.0039408811135 
-0.0030608299421 -0.0038571724435 -0.0025898116364 -0.00081883923849 0.00076020982669 0.0037239987287 0.0052170729905 0.0069419594947 0.0076990645612 
0.0076628243551 0.0076266444521 0.0077104233205 0.0070544871269 0.0085873557255 0.0071989403805 0.0106725269 0.0088013630593 0.011779556517 
0.0099943408277 0.0074019295862 0.0067918417626 0.0012128782109 0.0018189151306 -0.0009571412229 -0.00033013532084 0.00023103895364 0.00045499018597 
0.0033056756365 0.0032417279726 0.005101748975 0.0059065892128 0.0049487974029 0.006864653551 0.0049011926167 0.006706970511 0.0052210423164 
0.0067722029053 0.005665125791 0.0072628136259 0.0059617853258 0.0072291909019 0.0063063846901 0.0072878680658 0.0064694487955 0.0073299191426 
0.0066142939031 0.0069342860952 0.006478842115 0.0064204556402 0.0060651842505 0.0059704906307 0.0062064433005 0.0061091698008 0.0070216318127 
0.0067374113714 0.0079637398012 0.0075335338479 0.0081310742535 0.0077918465249 0.0083492631093 0.0080500297481 0.0085162795149 0.0081375394948 
0.0066859826911 0.006549640093 0.0070026169997 0.010787718929 0.0033843868587 0.0018152725766 0.00036615369027 -0.00091632761905 -0.0018202577266 
-0.001666819644 -0.00014772402574 0.0017254940904 0.0028538197803 0.0027569174708 0.0024012605136 0.0028863676125 0.0037197712227 0.0044518060749 
0.0046405820176 0.0039154349361 0.0028828606301 0.0022295793169 0.0021952523675 0.0027149172965 0.0032121993718 0.0035307643004 0.0035451304866 
0.0017743733333 -0.00031940403278 -0.0016356929118 -0.0021580417815 -0.0019252280763 -0.0013460707876 -0.0010751793332 -0.00094865754363 -0.00080013591651 
-0.00089124275837 -0.0014268012328 -0.0018989754444 -0.001650109426 0.00038116451378 0.0043971602863 0.0085491330829 0.011266598478 0.0026127989695 
0.0029050456069 0.0032333686831 0.0034275873331 0.0025155741605 0.00087621799321 4.0003113099e-05 0.00064590952206 0.0022144295126 0.0048409301671 
0.0070390797919 0.0075227556517 0.0070335867349 0.0060720446054 0.0054595627589 0.0058570065303 0.0067029538332 0.0071845958009 0.0075322275516 
0.008038740023 0.008562012692 0.0083959077019 0.0060171723017 0.0028201464957 -0.00046593457955 -0.0018365780124 0.0031390289296 0.0069269486703 
0.0083965160884 0.0075121530099 0.0061477191048 0.0054627101636 0.0058383538388 0.0070224970113 0.0055195183959 0.0028271735355 0.0012073702164 
0.001313226232 0.0034863936016 0.0071213024203 0.0094268294051 0.0092699553352 0.0086491093971 0.0087708442006 0.0087150756735 0.0085696745664 
0.0080529842526 0.0069785257801 0.0062222420238 0.0057692331029 0.0057913222117 0.0060445927083 0.0063714693533 0.0065419760067 0.0067822432611 
0.0068830120144 0.0059281679569 0.0043257143116 -0.00063643344765 0.0016752571755 0.0017488670273 0.0025671914045 0.00073505807813 0.00015665569663 
0.00032668344284 0.0012492032147 0.0027911445359 0.0039167648647 0.0036521934671 0.0028433433035 0.0029003571253 0.003612735658 0.0042321507353 
0.0043825602625 0.0041584856808 0.0039167229552 0.0037245611893 0.0036649887334 0.0034124281956 0.0027242949582 0.0024186305236 0.0013853476557 
0.0026484042173 9.775840681e-05 -0.00063713669715 -0.00077289742734 -0.00030730226393 0.00044163128518 0.00090133769595 0.0010931918223 0.0013053781367 
0.001419316337 0.0013644893461 0.0012932609698 0.0014628929981 0.0016986721303 0.0031801072764 0.0042457516538 0.0053194973152 0.0061243592645 
0.005169087206 0.003181673761 0.0030325850821 0.00096937916533 0.0021892308869 0.0040673990443 0.0072684021434 0.0083236806095 0.0072527246084 
0.0057399492944 0.0049403765006 0.0046220164513 0.0047193239443 0.0053415099392 0.0035766360234 0.0028105204401 0.0025834596308 0.0040943224449 
0.0077191077871 0.010298266076 0.010217526462 0.0092916362919 0.0089959679171 0.009162995033 0.0089635252953 0.0078369128751 0.0065719741397 
0.005930545507 0.0055323624983 0.0053753351094 0.0052814600058 0.0051016793586 0.0049372179201 0.0050745604094 0.0052487819921 0.004892673227 
0.004244119802 0.0037209570874 0.0038947249413 0.0046863734024 0.0051343064988 0.0044886043761 0.0029974510689 0.0021899076382 0.0029398564075 
0.0044291124796 0.0060588042252 0.0071685402654 0.0071417451836 0.0065133041935 0.0058260638034 0.0054259090684 0.0052951510064 0.0054493127391 
0.0056026183302 0.0059495037422 0.0066851041047 0.0077754339436 0.0085819999222 0.0078406709945 0.0059179157251 0.0043094446883 0.0035159962717 
0.0042138333432 0.0033390632016 0.0048654136481 0.0043965413934 0.0031927611562 0.0035344153875 0.002397438453 0.0014683411719 0.00066720548148 
0.00028025019219 0.00033291908363 0.00083323009636 0.001594460613 0.0021832762868 0.0025514176814 0.0029077738291 0.003106156073 0.0033556937124 
0.003635577159 0.0037547415704 0.0022486223024 0.0025033660932 0.0014987244576 0.0014255976785 0.0025549737911 0.0034151949803 0.0024599769968 
0.003347112739 0.0015087719512 0.0011310250848 0.0013659046235 0.0022899764881 0.0037266549189 0.0046093134442 0.0040979470941 0.0030278742197 
0.0027561454568 0.0036759857321 0.0043899144512 0.0044935458573 0.0043952221749 0.0045023234561 0.0045973656233 0.0045509729534 0.0040885847993 
0.0029768047971 0.0023791223648 0.0029802666395 0.0035130003816 0.0032557123923 0.003362714604 0.0029242997989 0.0033023229917 0.0037214824115 
0.0039291463909 0.003944496857 0.0030031229835 0.00423562387 0.007287652581 0.0080776474206 0.0069467377616 0.0054629895603 0.0046485414496 
0.0044642793946 0.0042891949415 0.0043024236802 0.0041181106353 0.0045300453203 0.0048125749454 0.0046959815081 0.0042742195656 0.0040217926726 
0.0038690109504 0.0048211047542 0.0076724970713 0.010165171698 0.010461720638 0.0098779727705 0.0097592328675 0.0097437633667 0.0091235656291 
0.0077660648385 0.0064591031987 0.0057226920035 0.005302597885 0.00496273709 0.004584003007 0.0041435011663 0.003742543573 0.0037236381904 
0.0038673574454 0.0038645629305 0.0042094398523 0.0044808866223 0.005188665702 0.0062382406322 0.006903273752 0.0065807773499 0.0055810193298 
0.0051522222348 0.00573326624 0.0065311213257 0.0069258443546 0.0068605311681 0.006416539778 0.005896327435 0.0055512634572 0.0053756342968 
0.0052074149717 0.0042601892492 0.0042175214039 0.0047750243684 0.0057689663954 0.0072084029671 0.0085094433744 0.0087129855528 0.0079241580097 
0.0064072142122 0.0049069734523 0.0038847023388 0.0035607685568 0.00311979861 0.0052382589784 0.0071139266947 0.0076316383202 0.0065884360811 
0.0050986737479 0.0043444060721 0.0063136406243 0.0076569666853 0.0048618715373 0.0035728026996 0.002591529832 0.0025527215039 0.0038808595273 
0.0056759272702 0.0071225260617 0.00726744649 0.0059302154696 0.0046023089672 0.0040492372937 0.0045006111031 0.0048294613371 0.0023669613875 
0.0018558964075 0.0014001685922 0.0011384963873 0.0012223527301 0.0016678880638 0.0023172704969 0.0030386599828 0.0037848813226 0.0043216847116 
0.0046415110701 0.0051126223407 0.0055823953589 0.0056892168941 0.0057883408153 0.0048719529295 0.0062135587214 0.0038069625734 0.002879379841 
0.001861633471 0.00066666664497 0.00029171413189 0.001080528622 0.002230636368 0.0037463704939 0.0034149730345 0.0039163653855 0.0041899987846 
0.0044374427525 0.0044721149607 0.0043713415507 0.0039706226089 0.0032376160962 0.0024090041697 0.0019691174384 0.0021597499435 0.0031435562414 
0.0045758925262 0.0050680771237 0.0042153134709 0.0031203653198 0.002469617757 0.0048523562727 0.0041147114243 0.0049065026687 0.0046898544533 
0.0046398561681 0.0047113735927 0.0046484983759 0.0043529763352 0.0034863495384 0.0030594870332 0.0036896168021 0.0040373957017 0.0038853123551 
0.0027284061071 0.0031350256177 0.0028774848906 0.0026745415526 0.0029287613579 0.0022988593555 0.0039312102017 0.0040547900717 0.0041398172034 
0.0039742397494 0.0043207863346 0.0045412736945 0.004727785592 0.0048104387242 0.0048446223373 0.0049265520647 0.0049702919787 0.0055812819628 
0.0073794052005 0.0093389530666 0.010102573317 0.010009502992 0.01021531783 0.010229374748 0.0092552625574 0.0077464962378 0.0065175450873 
0.0057105933083 0.0050941510126 0.0045540161664 0.0040183777455 0.0034435067209 0.0029307056102 0.002723810263 0.0027571557439 0.0029230493237 
0.0052908178186 0.0045511981007 0.0062713938532 0.0074572638841 0.008309766301 0.0084479569923 0.0081915989285 0.0082152950345 0.0084022855153 
0.0081139043905 0.0072761327028 0.0064478854183 0.005890156026 0.0055703803664 0.0054556638934 0.0053679861594 0.0052754764135 0.0051365599502 
0.0041643772856 0.0047850882402 0.0033759272774 0.0031516860472 0.0034114373266 0.0039212417905 0.0053417962044 0.0071498537436 0.0083080199547 
0.0038402570062 0.0031114916201 0.0038321102038 0.0037917106529 0.0041465084651 0.0039298292832 0.0042336697225 0.0043726363219 0.004538436265 
0.0045706512174 0.0046615109313 0.0049473656109 0.0052801121492 0.0054391874 0.0058084449265 0.007000584621 0.0084605695447 0.0092437795829 
0.009309098497 0.010016295128 0.010222731158 0.0092383697629 0.0078030870063 0.0066588555928 0.0057123353472 0.0049348595785 0.004311717581 
0.0036576885032 0.0029769698158 0.0024510491639 0.00215321008 0.0020171076176 0.0021447470644 0.0024081515439 0.0033444026485 0.0025738059194 
0.004244178941 0.0050786898937 0.0060065918369 0.0071181750391 0.0083359486889 0.0093683893792 0.010099580977 0.01057420345 0.010739240563 
0.010343617061 0.0087873131037 0.0069409452844 0.0059727209155 0.0056033838773 0.0054360284703 0.0054280631011 0.0053622096311 0.005244260421 
0.0041217705002 0.0049411474029 0.0031448314548 0.0024694585591 0.0026157894172 0.0028246194706 0.003219656588 0.0049003588501 0.0070941984653 
0.0023743704078 0.002215704124 0.0020464610134 0.0019360402075 0.0020680112939 0.0024216271413 0.0029013825697 0.0037554669543 0.0049164056545 
0.0057993802475 0.0065120374784 0.0072514819913 0.0076315166662 0.0074118759949 0.006986695497 0.007703801617 0.0066259437008 0.0081601507263 
0.0051906672306 0.0039625322679 0.0027519621945 0.0015199788613 0.00052325994875 0.00014624294454 0.00061585894946 0.0015644665109 0.0028919396282 
0.0042814180488 0.0050170398317 0.0051618884318 0.0050540207885 0.0048071400961 0.0043935453868 0.0038617344107 0.0034852039535 0.0033840743708 
0.0038978895172 0.0049014199758 0.0050050928257 0.0039686164237 0.0030830430915 0.00263013324 0.0024192039273 0.0023657777929 0.002479441755 
0.0030897419201 0.0045808655559 0.0056102244416 0.0056209497852 0.0050826026127 0.0045384933474 0.0042891736375 0.0041747309151 0.0040581135545 
0.003765296482 0.0039111635415 0.0047591858311 0.0051189656369 0.0049072291004 0.0041568278684 0.002545187599 0.0030619957834 0.0024183181425 
0.0026825084351 0.0024822519044 0.0043497791048 0.0043806133326 0.0046703846892 0.0050714290701 0.0053462000797 0.0056405097712 0.0064395726658 
0.0075700810412 0.0082239686744 0.0082192821428 0.009854509728 0.0096413332503 0.0090890366118 0.007978394744 0.0068538786145 0.0057479494717 
0.0049455245025 0.004197367758 0.0033442035201 0.0026148195029 0.0021110655798 0.0018387517775 0.0016334069078 0.0015210685087 0.0018033696106 
0.0021029800118 0.0028789612697 0.0023487608996 0.003723970789 0.0045950519852 0.0054157967679 0.0063760686899 0.0075159063563 0.0086913991254 
0.0098347715102 0.010994601296 0.011936429655 0.01216018619 0.011510377284 0.010153844254 0.0056638779351 0.0063607763732 0.0054926640587 
0.0054533618968 0.0054377574706 0.008790967986 0.0079293657327 0.0054155937396 0.0044397677411 0.0051369328285 0.0032900723745 0.0021685302956 
0.0022139799839 0.0023741048062 0.0025346944458 0.0026866261032 0.0027667054092 0.0029469238361 0.0032124891295 0.003509334987 0.00430813001 
0.0056971876184 0.0072275847197 0.0087667478947 0.0098412577063 0.009948071558 0.0091030113399 0.0099862761796 0.0076936781406 0.0086940128822 
0.0065182588296 0.0051930428017 0.0038676084368 0.0026086917787 0.0013674931542 0.00038116447649 7.9986051787e-05 0.00036816747524 0.001245992654 
0.0028070013796 0.0044133265037 0.0055254340405 0.0058708419092 0.0058646873804 0.0059145645937 0.0058565109503 0.0056882982608 0.00545082998 
0.0049332967028 0.0046711580362 0.004866512958 0.0045858867234 0.003654607397 0.0029533848865 0.0027541638119 0.0027547331993 0.0029129802133 
0.0026139544207 0.0031595549663 0.0025778258569 0.0031232992769 0.0044169136672 0.0060761468485 0.0065148158465 0.0055053960532 0.0042672660784 
0.0035171161289 0.0033049677499 0.0037054542918 0.0037746118226 0.0043043162441 0.0055619482882 0.0062486286042 0.0060277382145 0.0051109618507 
0.0036353673786 0.0023128631292 0.0023415689066 0.0024969880469 0.0072080784012 0.0060644695768 0.0045433840132 0.0034592751181 0.002346135705 
0.0027044246381 0.0042546295444 0.0059799271403 0.0073009246262 0.0066884278785 0.0050358864246 0.0041491933516 0.0036988039501 0.0034185862169 
0.0040051946416 0.0033275451278 0.0042718286859 0.0042501538992 0.0030683648656 0.0024717509514 0.003533346171 0.0036917297984 0.0038172320928 
0.0039919206174 0.0041528511792 0.0047090541339 0.0059817455476 0.0080301284324 0.010672585666 0.011944896542 0.011635910952 0.0075366701931 
0.0086403110375 0.0095014532562 0.0066603531595 0.0058527949732 0.0048297187313 0.0036204847274 0.0026169522898 0.0015929496149 0.00061614838341 
0.00030865519511 0.00043193185411 0.00073147838702 0.0047104663099 0.0032317262958 0.005904089543 0.0064765919233 0.0067982366309 0.0072118780809 
0.0075368328253 0.0074284404982 0.0070366928121 0.006595832482 0.0049729254097 0.0055272800382 0.0043761376292 0.0036173617118 0.0030635680305 
0.0029312866391 0.0030074713286 0.0033285794198 0.0037960774498 0.0020236343553 0.0012766861182 0.0073699811473 0.0084087102441 0.0026759392058 
0.0043041735771 0.0060937152011 0.0069884835975 0.0067616042215 0.0055162783246 0.004189786152 0.0042666167719 0.0043908846565 0.0046794225927 
0.004995047464 0.0053229115438 0.0058859487763 0.006587122567 0.0071219070815 0.0071833106922 0.0079909992637 0.0086463571837 0.0092290868051 
0.00941243954 0.0088854264468 0.0080241599353 0.0069864777615 0.0059946132824 0.0050744056934 0.004010279139 0.0029939420056 0.002256810345 
0.0017629298673 0.001524197578 0.0014409850701 0.0011483402195 0.0011518875399 0.0015845309244 0.0018714875623 0.0034544377704 0.0027972324169 
0.0042534172535 0.0049973737914 0.0055360595385 0.0062301566359 0.0041207518661 0.0031947214156 0.0026878666831 0.0027877975372 0.0032039176828 
0.0039864156861 0.0058801498963 0.0071256505325 0.0056212662254 0.0035152397468 0.0027759222624 0.010880458867 0.012191629736 0.012600382324 
0.011938208481 0.010938929394 0.0097281029448 0.0068919534096 0.0076807287987 0.0065650343895 0.0060827975394 0.0056567504071 0.0055585963419 
0.0055745310383 0.0052915534936 0.0044614440412 0.0046010859078 0.0037741881097 0.002718678501 0.0066663545246 0.0073337977519 0.0056305087171 
0.0040563422255 0.0085826853756 0.0087934385519 0.0083249512827 0.0076304276008 0.006887298543 0.0061167087406 0.0050183322746 0.0036959363497 
0.0026058541553 0.0018355615903 0.001368423953 0.0011952911736 0.0011004580592 0.00080852356041 0.004989632871 0.0041680919239 0.0056911126012 
0.0039362052921 0.0040737352683 0.0043077097507 0.0046173828887 0.0051368816057 0.0057990240166 0.0063859921259 0.0061917521525 0.0053038157057 
0.0045400429517 0.0039284633822 0.0035341263283 0.003370733175 0.0033416060614 0.0035196406146 0.0059790472733 0.0055454383837 0.0054183644243 
0.0032336681616 0.0026499809852 0.0022661316907 0.00068414799898 0.0009165855372 0.00063760924968 0.0006928476893 0.00096472157747 0.005961479852 
0.0044647217728 0.0047000439372 0.0048474729992 0.0035801080521 0.0051351457369 0.0010501052602 0.0010610926256 0.00091072561918 0.0038099982194 
0.0033033406944 0.0042598860649 0.0022805161425 0.0020758279134 0.0010692520445 0.0012896786502 0.0013213586062 
Stress_Z_Pt 1 1114 double
0.010684689507 0.014094369486 0.011329504079 0.0080080784392 0.013603299856 0.012451769318 0.011163979769 0.011674615322 0.0085793419275 
0.010862053954 0.0058250962757 0.009549055947 0.0011166679906 0.0071878098533 -0.0010739448808 0.0060865084943 0.00053679945631 0.0062064374924 
0.001534787938 0.0057856370695 0.00190401898 0.0048367989075 0.0017372860457 0.0037795249082 0.0014394298196 0.0028850881499 0.0010849581449 
0.0022363785829 0.00079096172703 0.0018924277683 0.00075497367652 0.0016682261776 0.00083406062913 0.0016243356076 0.00099379484891 0.0018004964659 
0.00091053856886 0.0019981048972 0.0012184802035 0.0025110294373 0.001805817592 0.0030943619204 0.0028780224966 0.0039306627004 0.0051970359636 
0.0057982669096 0.0079180924222 0.0083223287947 0.010813129134 0.010912196944 0.011681342963 0.011904744431 0.0086614773609 0.010121766012 
0.0046046079369 0.0074674208299 0.0019014339778 0.0056441324705 0.00021274852043 0.0044661585634 -0.0010142678075 0.0035960097957 -0.0016907334793 
0.0029221385485 -0.0016735441168 0.0023657376587 -0.0015239247587 0.0018750703894 -0.0013609670568 0.0015249369899 -0.0012637961772 0.0012695137702 
-0.0013657118543 0.0010410965479 -0.0012458827114 0.0009512557881 -0.00063456892531 0.0010542415221 0.000883124354 0.0017444715158 0.0036586131901 
0.0033965597977 0.0066008728463 0.0052274691407 0.00092727185256 -0.00088630679966 0.0012013491687 0.0023262600625 -0.0019090587739 0.00054557796102 
-0.0022145068506 0.00047355319839 -0.0027466376778 0.00039505574387 -0.003949058475 -6.4643041696e-05 -0.0050426139496 -0.00061457039556 -0.0057768491097 
-0.00088678544853 -0.0058699732181 -0.00070182734635 -0.005058946088 0.00011393264867 -0.0032883544918 0.0017722406192 -0.00090191232448 0.0035980495231 
0.0015266732225 0.0052512669427 0.0035274262773 0.0067755205673 0.0055390391499 0.0081214008387 0.0081763458438 0.0099425592925 0.011722614523 
0.01264978922 0.016192103736 0.015760323266 0.019661135972 0.017899660859 0.019725723192 0.018201767467 0.015839960892 0.016467529582 
0.010193928611 0.013286837609 0.0053300199797 0.0098942627083 0.0023295652936 0.0071283337602 0.00066731699008 0.0058650728919 -0.00093876235223 
0.0036847489419 -0.0016900752671 0.0032031468581 -0.00043807597831 0.0036877304083 0.0017170464853 0.0040953665157 0.0031389968935 0.0035078941728 
0.0034916555742 0.0025825570629 0.0037321737036 0.0023438630305 0.0041975260247 0.0026483741094 0.0062950532883 0.0045963633456 0.008470183704 
0.0064762468683 0.0061086377827 0.0051573431701 0.0035954745254 0.0037991876598 0.0045583334286 0.0042732208385 0.005681473529 0.004653875425 
0.0044224361191 0.00404989667 0.0024467790499 0.0038727652282 0.0020930670435 0.0049068339285 0.0026276767021 0.0062568410649 0.0036975786788 
0.0081128209713 0.0041113817133 0.009443212999 0.0046631742734 0.0099288228666 0.0067311711609 0.011029931949 0.0094744130038 0.012427464826 
0.011763982009 0.013061016332 0.012713018339 0.012856378919 0.012544767465 0.012237802846 0.012046634685 0.011628365144 0.011157313362 
0.010764997685 0.0097207301296 0.0094969738275 0.0077857691795 0.007845643675 0.0059674885124 0.0061778600793 0.0045695035951 0.0047554774792 
0.0029466124251 0.0034783643787 0.012523155659 0.010913683451 0.012876154855 0.01398184821 0.01496254513 0.015063012484 0.014505179832 
0.012981419684 0.010776960058 0.0082203017082 0.0059628764866 0.0041266673943 0.0028830290248 0.0023932901677 0.0020772835414 0.0019253464125 
0.0020962257404 0.0025520972267 0.0033445967129 0.0042228240636 0.0052701130044 0.0070032520453 0.0094337309711 0.012240380794 0.012723641936 
0.011799089378 0.010668139439 0.010000562528 0.0095424980391 0.0090328922961 0.0081365185324 0.0067058858695 0.0052248234861 0.0039697766188 
0.0030124904297 0.002449820895 0.0023090208997 0.0022193752811 0.0022985110991 0.003126114374 0.0047534775222 0.0076076402329 0.0024485064205 
0.0027480697026 0.0025453945855 0.0028854753473 0.0032786398078 0.0034605819965 0.0038467826089 0.00466490502 0.005662081996 0.0070694979513 
0.0085213435814 0.0095579468179 0.010275680805 0.010703791166 0.011578292586 0.013239071239 0.014898261288 0.015796761494 0.016303988639 
0.01663731318 0.015978170559 0.014178841608 0.011840905529 0.0099653592333 0.0076466306346 0.0079496007723 0.0074312051293 0.0063831052976 
0.0044283106108 0.0025184828846 0.0014841985976 0.0015288647992 0.0031641818583 0.0043549814727 0.0037436881685 0.0035027166596 0.0037737898529 
0.0039702319191 0.0047544345725 0.0068268064642 0.0091894757934 0.011142868083 0.013152278494 0.014907956356 0.015673469054 0.015857797815 
0.015480956528 0.014488289598 0.013418782735 0.01230499032 0.011375979288 0.010564640164 0.0095378283877 0.0081716071581 0.0067063111346 
0.0053480044007 0.0041239075945 0.0033219084726 0.0080820048461 0.008690363029 0.016137127066 0.014662622707 0.01647319179 0.015882934211 
0.014475326054 0.012055639178 0.0093137632357 0.0069462391548 0.0047554980847 0.0028638739313 0.0019197994843 0.0016352494131 0.0015672274458 
0.0016735149547 0.0020580356359 0.0030293329037 0.0044910943252 0.0061945504276 0.0080325517338 0.010269732913 0.012577663641 0.01244259323 
0.013451833744 0.011596172815 0.011373655638 0.011339147342 0.011022812687 0.01006505033 0.0083291393239 0.0062360978918 0.0043166158139 
0.002798284142 0.0019693249778 0.0019786002813 0.0021770251449 0.0024024015293 0.0039027144667 0.0062566736015 0.0096309075598 0.012588820653 
0.013070227811 0.013914926676 0.014109239681 0.0071981225628 0.007182172616 0.0066280559404 0.0059956366895 0.0050384463975 0.0035923121031 
0.0023288790544 0.0019900426851 0.00238061251 0.0031038131565 0.0036510875798 0.0030719145434 0.0038215626846 0.0049123263452 0.0069493773626 
0.0099529334111 0.011979273753 0.012854389846 0.01387100108 0.015128693543 0.016132429708 0.016258331481 0.015460166847 0.014585465193 
0.013862235472 0.012762150494 0.011646960163 0.010757593438 0.0096727206837 0.0083122565411 0.0070496733533 0.0058026919141 0.0041626807651 
0.0027750628651 0.0020701552567 0.001871421031 0.002000724664 0.0023724121857 0.0029905797564 0.0035150165204 0.0041393695865 0.0051755222958 
0.0062038372271 0.0073006654857 0.0086302689742 0.0096316002309 0.010048189899 0.010253631044 0.010893267812 0.012031225488 0.01385294809 
0.014795402065 0.015252124518 0.015301480656 0.014726036927 0.013547589304 0.011898759753 0.010409317445 0.0090997582301 0.0073125823401 
0.0053024577908 0.0054664044874 0.0034507281962 0.0026593066286 0.013906128006 0.014368075412 0.013571108924 0.013066769578 0.012596599758 
0.01255352702 0.012753699441 0.012743639993 0.012060217792 0.010368372547 0.0080481186742 0.0058284001425 0.0039995900006 0.0030377659714 
0.0030444820877 0.0031822190504 0.004656431207 0.0031552907894 0.0063030716265 0.0086363004521 0.011049338849 0.011653807713 0.014090317069 
0.013329596259 0.014334856067 0.014369386481 0.013882003026 0.012571319705 0.010618852917 0.0085461738054 0.0063151106006 0.0040045237984 
0.002352974331 0.0018044087337 0.0018675317697 0.0019511930877 0.0023588116455 0.0036344457767 0.0054727176903 0.0072224097094 0.0086768335896 
0.010303718969 0.012315084925 0.01432481315 0.014586276608 0.013154594693 0.012597010937 0.013173580635 0.012651396915 0.011896303156 
0.010887545301 0.010814366552 0.0026450729929 0.0030373063637 0.0049843824236 0.0047270770883 0.0038280602312 0.0027269517886 0.0020673809631 
0.0020773085707 0.0021660954226 0.0025700592087 0.0021093174 0.0029259544099 0.0029763315106 0.002913172706 0.0032668259228 0.0043286463479 
0.005926249898 0.0084726775531 0.011431531049 0.012805415317 0.012954220641 0.013762747403 0.015273101162 0.016394974664 0.016430031974 
0.015649858629 0.014824402519 0.014106595656 0.01309968112 0.011919627199 0.010792291956 0.0095140361227 0.0081181647256 0.0069693867117 
0.0057915172074 0.0037627528422 0.0024376644287 0.001893008739 0.0018179690233 0.0020215896366 0.0024715135805 0.0031799760764 0.0038674886455 
0.004656951176 0.0055473000975 0.0062707299367 0.0069671961246 0.0077511218842 0.0084985598223 0.0090350776445 0.0093552723993 0.0098060306627 
0.01025754516 0.013387308456 0.012702711392 0.013950330205 0.0139953373 0.013352479087 0.012602056144 0.011965699804 0.010718726786 
0.0091737746261 0.007726867334 0.0063546597958 0.0042094843811 0.0049637644552 0.0036729064886 0.0036714994349 0.0038669285132 0.003659457725 
0.0028657390503 0.0021766151185 0.0085014650831 0.0099952926394 0.0069819886703 0.0052652192535 0.0030507548945 0.0036496208631 0.0028518907493 
0.0026582482969 0.0026842704974 0.0030111770029 0.003116323729 0.0027510167565 0.002213767264 0.01163130044 0.010321366135 0.013170903549 
0.013117664261 0.012940903427 0.01285907533 0.013024070533 0.01313891029 0.012698038947 0.011423309101 0.0095284188865 0.0073894683737 
0.0054505148437 0.0042939606938 0.0040097094607 0.0039647879894 0.0036719147465 0.0028998439666 0.0033479207195 0.0028841539752 0.0034128987463 
0.0044447157998 0.0058939099545 0.0080101108178 0.0098988851532 0.01043965295 0.011323530227 0.010160559323 0.011102632619 0.0098485767376 
0.0099209446926 0.010489618173 0.011301443214 0.011886968045 0.011998966802 0.011764385272 0.011632715352 0.011834383477 0.011967716506 
0.011301150778 0.009596479591 0.0073831069749 0.0052116709412 0.0035133991041 0.0025774739042 0.0024078073038 0.0027424180298 0.0032531740144 
0.0045830826275 0.0064008682966 0.0078393592266 0.0088678989559 0.0099417886231 0.01163049601 0.013337749755 0.013167667668 0.011192038655 
0.010024763644 0.0091134964023 0.011137889931 0.011676130584 0.002279266715 0.0027019528789 0.0019287419273 0.0019718686235 0.0020201864536 
0.0018877753173 0.0023365333909 0.0026349564432 0.0027169648674 0.0028542994987 0.0035005664104 0.0047636992531 0.0065169832669 0.0088574477704 
0.011041986058 0.011761339381 0.011858579703 0.012995685916 0.015206951415 0.016955069732 0.016935638618 0.01592938113 0.015096482588 
0.014349298785 0.013201825321 0.011857963633 0.010647331132 0.00931702042 0.0078213521047 0.0064803889254 0.0052518792218 0.0038583794376 
0.0018801386759 0.0021244509844 0.0018754336634 0.0020758260798 0.0024923261954 0.0031589271966 0.0039725383976 0.004889302887 0.0055215503089 
0.0058022041339 0.0062186752912 0.0068976258626 0.0076375134522 0.0082200238248 0.0086149857379 0.0090095247142 0.0094341334576 0.0093193033244 
0.010071614059 0.0091399257071 0.011135836132 0.011979348725 0.01245317189 0.012849585153 0.012942609377 0.012309842976 0.011307006702 
0.0024825683213 0.0027056414983 0.0020685551572 0.0019496128662 0.0019512115396 0.0020571974455 0.0019906839589 0.0021389636095 0.0023239319368 
0.002435034723 0.0028418116854 0.0037022305769 0.0050560071832 0.006692357827 0.008589058998 0.010361677269 0.010944510112 0.010941365268 
0.012207155302 0.014819586184 0.017008873634 0.017044208478 0.015902040061 0.014927522745 0.013880458428 0.012473901035 0.011130121304 
0.010010123486 0.0087283354951 0.0072363995714 0.0057850533631 0.0045890636975 0.0035988698946 0.0028128514532 0.002186013211 0.0023650319199 
0.0020734510035 0.0019385714841 0.0019075087039 0.0020069490711 0.0022534306045 0.0026733688428 0.0033879939583 0.0042289108969 0.0048289110418 
0.0049232541351 0.0051496238448 0.0060520230327 0.006710967049 0.0074423060287 0.0078580715926 0.0081851645373 0.008643694222 0.0084301093593 
0.0089984275401 0.0082721614745 0.0099904560484 0.010841408744 0.011533058559 0.011669778731 0.011767930584 0.01201290614 0.011373601295 
0.012090788921 0.01237431285 0.01234415709 0.012211232912 0.012295766501 0.012413133401 0.012173713883 0.01154293702 0.01048255153 
0.008699495811 0.0067829717882 0.0054600085132 0.0046986248344 0.0043156035244 0.0040684922133 0.003983490984 0.0031417715945 0.0036217066227 
0.0028269007453 0.0028261012048 0.0031844056211 0.0041751263198 0.0058267832501 0.0075807200046 0.008725523483 0.0089356349781 0.0088893680368 
0.009190820856 0.0097716967575 0.010590159334 0.011449335376 0.011908090673 0.011773369275 0.01119410852 0.010502426652 0.010241952492 
0.010522416793 0.010567618534 0.0095423916355 0.007694092812 0.0059338654391 0.0045262438944 0.003550509864 0.0026209459174 0.003115823376 
0.002595005848 0.0033161424217 0.0039407875738 0.0040561966598 0.0042550770449 0.0050839650212 0.0062753119273 0.0072496451903 0.0080567906843 
0.0089801278664 0.010119609069 0.010921281995 0.010729800444 0.010004240321 0.0093978249934 0.0081886616535 0.009172784863 0.0084512767692 
0.0091140787117 0.0098648967687 0.002276207204 0.0028374458198 0.0037351419451 0.0049597792095 0.0063951791963 0.0078607291216 0.0092268800363 
0.010112111457 0.010549928527 0.011340512196 0.016723089386 0.014903805219 0.016631304752 0.015417962102 0.014062153641 0.012648643693 
0.011353382375 0.010271678446 0.0092883361503 0.0081800642656 0.0069107965101 0.0056690319907 0.0046197853517 0.0037804045132 0.0032643104787 
0.0028319739504 0.0021769322921 0.0023989736219 0.0020182002045 0.0018822185812 0.0018397578679 0.0019075972959 0.0020974279614 0.0024103561882 
0.0028797253035 0.0034833290265 0.0040720421821 0.0043364312733 0.0041759919841 0.0041544393171 0.0070921992883 0.0065871264087 0.007593495422 
0.0078260016162 0.0080196950585 0.01326466701 0.012470325921 0.0080117876641 0.0083265688736 0.0081936067436 0.0090454414021 0.010164870881 
0.010846299585 0.010525076883 0.010941437213 0.011026892345 0.010996791301 0.011125774821 0.011245994596 0.01107301726 0.010794498492 
0.010337228887 0.0090923171956 0.0074607905699 0.006221301388 0.0052343979478 0.0045250356197 0.0040063182358 0.0029264801415 0.002905808622 
0.0028188443976 0.0026469021104 0.0026140389382 0.0029265515041 0.0038356666337 0.005155623774 0.006403393345 0.0070275561884 0.0074096987024 
0.0082779140212 0.009195873281 0.010159170721 0.011230949545 0.012346850475 0.013228034833 0.013407710474 0.012713670963 0.011336582247 
0.009952531429 0.0092970945407 0.0091948399786 0.0087617256213 0.0075253772084 0.0061044562608 0.0049959503813 0.0041060908115 0.0034513564315 
0.0029215425602 0.0030071588699 0.0028554679011 0.0029345413786 0.0036675403244 0.0046968486859 0.0046508937376 0.0041658686241 0.0044682204025 
0.0050932680024 0.0055342821404 0.0068412121618 0.0078213230396 0.0082719376078 0.0089875229169 0.0094046571758 0.0099241840653 0.010427405126 
0.010528157698 0.0093797713052 0.010486103129 0.0083713559434 0.0095676181372 0.0076031571953 0.0058565740474 0.0050983652472 0.0032781132031 
0.0018232319271 0.0015824956936 0.0018008607149 0.0024040151911 0.0027385650319 0.0026339123724 0.0024147174554 0.0021113709081 0.0022166001145 
0.0024191557895 0.0026328704553 0.0022145374096 0.0021757907234 0.0094836435746 0.0092522921041 0.0096289862413 0.0097879958339 0.010017075576 
0.01009663078 0.0098878710996 0.0096304980107 0.0092805835884 0.0083774491213 0.0067619610578 0.0061214276357 0.0051032215124 0.0022610346787 
0.0025221707765 0.0029223894817 0.0022730172495 0.0023370983545 0.0023536812514 0.0023686281056 0.0025612258469 0.0031749922782 0.0044317578431 
0.0053178275703 0.0058400550624 0.0064280231018 0.0095582769718 0.0086725656874 0.01050833147 0.01171705965 0.013263470028 0.014940487919 
0.015782340895 0.014908213634 0.012884373311 0.010869850591 0.0085328777786 0.0091619868763 0.0081243468449 0.0072302104672 0.00603326282 
0.0050154147903 0.004168312822 0.0034618614591 0.0029103663401 0.0078605709132 0.0071330092615 0.0057428302243 0.004922101507 0.010973613942 
0.011460257461 0.01131927548 0.010139471851 0.0086058904417 0.0074361632578 0.0067540248856 0.0027568093501 0.0035729602096 0.0045719838818 
0.0058126893127 0.0070826178417 0.0082894185325 0.0093374706339 0.010068402626 0.010560101131 0.013919446617 0.014226214339 0.015622229548 
0.016851507127 0.01611615927 0.014312844956 0.012604201445 0.011337872362 0.010403097142 0.0095925431233 0.0088579745498 0.0080286414595 
0.0070215059677 0.0059771577362 0.0050351985265 0.0041777692386 0.0035924689146 0.0031801224686 0.0026984179858 0.002042002714 0.0021688572015 
0.0019036892627 0.001835276722 0.0018371943152 0.0019398917211 0.0026682009338 0.0026993475039 0.0026984266005 0.0028410497471 0.0030469575431 
0.0035156656522 0.0041816604789 0.0037609902793 0.002461029822 0.0027930142824 0.0036938557557 0.0035397077445 0.0042677966412 0.004894581507 
0.0048203855986 0.0044016394143 0.0054721523775 0.0060177190462 0.006875488325 0.0062031274041 0.0068087276304 0.0074405802879 0.0078474596376 
0.0079883844592 0.0084132654592 0.0086865811609 0.0089543939102 0.0086447715294 0.0089899259619 0.0018377041367 0.0027504163736 0.0033807118889 
0.0028794612736 0.015915367752 0.016949260142 0.01581778354 0.013645474566 0.011822979897 0.010672062635 0.009864870226 0.0091420966201 
0.0084561144467 0.007704734453 0.0068529656855 0.0059454372386 0.0034401342855 0.0036231779183 0.0019572859746 0.0020704846538 0.0019462514902 
0.003614188754 0.0044845556258 0.0055700583616 0.0067432321375 0.0079528139904 0.0090460614301 0.0097046165417 0.0095834538806 0.0087273220997 
0.0078750184039 0.0068874018034 0.0057869373122 0.0047633447684 0.0039195007412 0.0033879134183 0.0069452048047 0.0077310907654 0.0082018980756 
0.0021613928257 0.0022404894698 0.0023477346986 0.0047751117963 0.0040360952844 0.005461336812 0.0060371219491 0.0063926132862 0.0078679439612 
0.009313966458 0.0091420242097 0.0088608746883 0.0032588604372 0.0084744145861 0.00486570457 0.0040734084323 0.0056310556829 0.012725044275 
0.012872375548 0.0020085294576 0.0088577931747 0.0094374099281 0.0042832973995 0.005141637288 0.0032448722632 
Stress_XY_Pt 1 1114 double
0.0038039226783 0.002508884063 0.00090911966981 0.0027577392757 0.00053411631961 -0.00029281753814 -0.00029275831184 -0.00047347015061 -0.0012500585872 
-0.00069110861659 -0.00052310702449 2.1251180442e-06 0.0002202786136 0.00084159500739 -0.00040842668295 0.00086888551641 -0.00047283789172 0.00074391462476 
-2.8758611734e-05 0.00087773592713 4.3720298549e-05 0.00082815467641 -0.00043088005202 0.00016674923819 -0.001167878625 -0.00081840532584 -0.0015251999139 
-0.0013402146578 -0.0016518534976 -0.0015261303342 -0.0016316632391 -0.001576793904 -0.0015383419814 -0.0014843990793 -0.0016097331536 -0.0013293275406 
-0.0010124076216 -0.0007901760473 -0.00060753113939 -0.00063548038452 -0.00066475644417 -0.00087582581182 -0.00047837181774 -0.00093597654632 -0.00086396685219 
-0.0012776634976 -0.0016538233031 -0.0016575483896 -0.0022278972901 -0.0016453731369 -0.0021091316012 -0.0014500960679 -0.0011113975488 -0.0011287271191 
0.00020812556613 -0.00056587456493 0.00094281087513 -0.00019522719958 0.00095043628244 -0.00022156082559 0.00078533074702 -0.00033542780147 0.00094212815748 
-0.00011092578643 0.0012959939777 0.00044255574812 0.0017590572243 0.0011711133184 0.0024935787078 0.0021264139796 0.0034144420642 0.0032678612042 
0.0041664702585 0.00434298662 0.00423269975 0.00491063355 0.0035282366443 0.0047993677435 0.0025729701156 0.0042167766369 0.0019432367408 
0.0035215498938 0.0025069411495 0.0032492647006 -0.0026450431906 -0.0018611275591 -0.0032076346688 -0.003833163646 -0.0018553006812 -0.0029487944266 
-0.0020233400282 -0.0028191539168 -0.002150574117 -0.002529961348 -0.0014684186899 -0.0015970839886 -0.00079811128671 -0.00063962570857 -0.00067687127739 
-0.00014616003318 -0.00041779098683 0.00044387461094 0.00020188646158 0.0014040118549 0.0013795639388 0.0025736970128 0.00253216899 0.0034307789756 
0.0029046894051 0.0034122464713 0.0027523468016 0.0028809724608 0.0025561690563 0.002452558314 0.0023370225681 0.0020370816928 0.0020782696083 
0.0014526430678 0.0022093565203 0.00095788345061 0.0026004941901 0.00078530138126 0.0027750765439 0.00099634373328 0.0026251648087 0.001535605872 
0.0021368074231 0.0020217211859 0.0010658141837 0.0018829904802 -0.00034250317549 0.0011010337112 -0.0013411802938 7.426506636e-06 -0.0016793133109 
-0.00098445211097 -0.001779849641 -0.0013369362423 -0.002023191133 -0.0020357805479 -0.0028713482898 -0.0032091623871 -0.0034413376125 -0.003810550028 
-0.0026077892981 -0.0030762425449 -0.0010908541008 -0.0016602491596 0.00084568084276 0.00016198352387 0.0024631194538 0.0020661810195 0.001785907778 
0.0027389971074 0.0012503957842 0.0027703063097 0.0016694096266 0.0026301031176 0.0020793011063 0.0024107472564 0.0029024765827 0.0026238157297 
0.0044133998454 0.003419503395 0.0051796885673 0.0038594275829 0.003813791438 0.0028526504175 0.0024130249512 0.0015667072876 0.0018586904043 
0.00077688023157 0.0013970951259 0.00023239511938 0.00021405340522 -0.00054790022841 -0.00071803771425 -0.0011348373664 -0.0010159254889 -0.0011957296811 
-0.00095771250199 -0.00090184531291 -0.00061317709333 -0.00043077703458 -0.00026645379694 -4.4840121063e-05 5.0352842663e-05 0.00022129021818 -0.00013441753254 
9.192651487e-05 -0.0010795070848 -0.00070301481537 -0.002227689547 -0.0018559172022 -0.0032490614103 -0.0029991975753 -0.0038230568171 -0.0039508374757 
-0.0037140486529 -0.0043492504046 -0.0019093459268 -0.0012392031931 -0.0014488161833 -0.00081225443282 0.00048088977201 0.001477342521 0.0020756463928 
0.0020008642168 0.0016934975574 0.001220202932 0.00029663967507 -0.00069647718556 -0.0011531845084 -0.00123191897 -0.0012251042208 -0.0011091763299 
-0.00076257513865 -0.00036170265685 -0.00037357036399 -0.00068532218756 -0.0010365833441 -0.0013798451546 -0.0014038316149 -0.00062596317439 -0.00035236130316 
-0.00083884474407 -0.0012614535081 -0.0014250573586 -0.00150544598 -0.0014944045106 -0.0012252362358 -0.00057184590059 0.00037473319298 0.0014895688946 
0.0027320029913 0.0040097752353 0.0050656633684 0.00562493701 0.0055786587764 0.004841114278 0.0034437604481 0.0011440604139 -0.0043961963966 
-0.0048091650242 -0.0038919531507 -0.0031078512548 -0.0018465474423 -0.00039294069575 0.00083257189544 0.0020034758491 0.0033054093074 0.0042310550343 
0.0043400634313 0.0036862561828 0.0027271766448 0.0019687461318 0.0013677722454 0.00059565925221 -0.00029756716503 -0.00082937879779 -0.00060246990324 
0.00034675726056 0.0015052625677 0.0022748968331 0.0023696988937 0.0016192546027 -0.0010963014793 -0.00044207897614 -0.0023495897767 -0.0037157511106 
-0.0042509903433 -0.0036818360095 -0.0024024635495 -0.00083156488108 0.0011469372723 0.0034101385972 0.0040406043991 0.0035202418221 0.0026989731705 
0.0022291287314 0.002298930136 0.002469357627 0.0020581738208 0.0011111347267 3.3947078919e-05 -0.00078263729665 -0.0011955352675 -0.0013123927638 
-0.0010778221767 -0.00064027628105 -0.00016453421495 0.00020024929609 0.00036210392864 0.0002938841717 -0.000185962861 -0.0011118807524 -0.0022660613467 
-0.0035554951755 -0.0045747578843 -0.0049567698734 -0.00020478547867 0.00046847108752 0.00033409615571 -0.00091755176254 0.0013698770199 0.001911129948 
0.0019710362831 0.0014862631215 0.00054349722632 -0.00051543508016 -0.0010620280809 -0.00093957469653 -0.00060728758035 -0.00040473762783 -0.00033286396138 
-0.00018009054111 2.6265856832e-05 4.2006048716e-05 -0.0001649339938 -0.00045685041914 -0.00074723366561 -0.00090744816407 -0.00070408114334 -0.00054672490114 
8.9406150437e-05 -0.0011395403999 -0.0014493314375 -0.0015363222337 -0.0014495151408 -0.0012185454834 -0.00074356416735 2.0024701371e-05 0.00097668752278 
0.002007847972 0.0030610435642 0.0039994664257 0.0043561332859 0.0045483831782 0.003814824624 0.0023849110876 0.00044641499699 -0.0019924806693 
-0.0033416271326 0.00018572344197 -0.00033147180875 -0.0010962226515 -0.00038549679084 -0.0021537794964 -0.0032618382829 -0.0038897678605 -0.0036216729204 
-0.0025766144681 -0.0012966588838 -0.00031195153133 0.0032553856145 0.0026658997231 0.0030411912594 0.002502905787 0.0020805160457 0.0021084543259 
0.0024529223447 0.0024051336222 0.0016432991251 0.0004555174055 -0.00064915698385 -0.0011461553513 -0.0010301560542 -0.00062593473922 -0.00024947144993 
8.0740908743e-05 0.00036341893065 0.00048632427934 0.0004674251868 0.00021630243646 -0.0003914021363 -0.0013362074533 -0.0025286676828 -0.0037208324648 
-0.0045447503217 -0.0048165479675 -0.0046641990775 -0.0042575576226 -0.0035107898875 -0.0022115167812 -0.00045407401922 0.0013939148484 0.0030282250955 
0.0042458836106 0.0046751607442 0.0041090561426 0.0030477191322 0.0020106213051 0.0012561001786 0.00076973791147 0.00023229719809 -0.00026685330704 
-0.00053291343647 -0.00041389651597 0.00012279005023 0.00088473960932 0.0016397121362 0.0020320469339 0.0018226408865 0.0011625193438 0.00054032671687 
-0.00082617440494 0.00041652756045 0.0012585100339 0.00012554758268 0.00013688287254 -0.00017335698794 -8.5556768681e-05 -0.00057954441945 -0.00096261667204 
-0.0011438954534 -0.001168049479 -0.0010799389711 -0.00091808350408 -0.00063093526114 -8.5404404672e-05 0.00070956461423 0.0015924020554 0.002517887915 
0.0033116466948 0.0036562891328 0.0025739620905 0.003365845012 0.0016022537893 0.00032505230774 -0.0017942993654 -0.0034178076894 6.3636252889e-07 
-0.0010161249811 0.0008315061059 0.0012699072977 0.0012762739061 0.00073222957144 -0.00032404650119 -0.0012226787803 -0.0012386832095 -0.00053908029804 
0.00045942964207 0.00072359897604 0.00065856999936 0.00048692900964 0.00032822683352 0.00018865121274 4.9058065997e-05 9.5061404863e-06 -3.5833545553e-05 
-0.00018085449119 -0.00035232003938 -0.00047917994016 -0.00033594413617 -0.00021667179681 -8.188737047e-05 -0.00016380985653 -0.002038868668 -0.0018722798268 
-0.0026761781191 -0.0023435998398 0.0036069953348 0.0036476330715 -0.0019072810101 -0.0025935985905 -0.0027239074116 -0.0022222597327 -0.001386248332 
-0.00070091616362 -0.00032352887956 0.00016569437412 -0.00013504109029 0.00079203673522 0.0015692298766 0.0021411480557 0.0023476453207 0.0022538866615 
0.002041116968 0.0020830949943 0.0025130605791 0.0025622324902 0.0016905020166 0.00033007910315 -0.00078931996177 -0.0012541195028 -0.0010671279306 
-0.00050307889978 3.286392166e-05 0.00041696826884 0.00067335173662 0.00078783700883 0.00081366594532 0.000666755579 0.00021767998987 -0.00055805843294 
-0.0016107114207 -0.002770175878 -0.0039003704442 -0.0043165839743 -0.0044391116826 -0.0043128397083 -0.0036982220481 -0.002425852872 -0.00055792865169 
0.0016052551073 0.0035417737672 0.004580632085 0.0044514819165 0.0034663958941 0.0022456031293 0.0012947080395 0.0007536398698 0.00046363504953 
0.00028134108288 -0.00033774407348 -0.00016724829851 -0.00030463488656 -1.382926348e-05 0.00049427378326 0.0011388789571 0.0016236413891 0.0014264643542 
0.00117809925 0.00099725973269 0.00097386806738 0.00078128050882 0.0012095260172 0.00017615114848 -0.00051760665883 -0.0011123501863 -0.0014745839289 
-0.0014318658505 -0.0011189981888 0.00084850569692 0.00070094826515 0.0010620463727 0.001402676251 0.0017148193147 0.001820660982 0.0015522868489 
0.0012173681025 0.00062174928098 -0.00015612245988 -0.00058237630947 -0.00066819314452 -0.00069077758235 4.1879869116e-05 0.00019628741211 -0.00029898608955 
-0.00050949907018 -0.00062988304853 -0.00063128337206 -0.00054920996263 -0.00044083753619 -0.00039107801877 -0.00033368474396 -1.2002183212e-05 0.00060769493575 
0.0014295303845 0.0024366776634 0.0033236402669 0.0037767867325 0.0038252912927 0.0033688492258 0.0035240916186 0.0031276460504 0.0026695867418 
0.0019505558594 0.0012831787171 0.0004240935657 -0.00097785095682 -0.002223666379 -0.0035811470007 -0.0028188744909 -0.0031548084226 -0.0029027240234 
-0.0026821587235 -0.0023460655357 -0.0019225751166 -0.0012683070963 -0.00050055191969 1.786438952e-05 0.00012374552171 -0.00014599588758 -0.00081816960301 
-0.0017225228657 -0.0020481454558 -0.001390491685 -0.00033901829011 0.00053397294687 0.0017390409193 0.0018955262785 0.0012218670599 0.00061589389952 
0.00029417109181 0.00033508269189 0.00058914518377 0.00091294611047 0.00096423826471 0.00060810521609 0.00021710184592 0.00023567243989 0.00045530085117 
-3.0870791306e-05 0.00035544814273 -0.00026570055343 -0.00029495121271 0.0015529067314 0.0010443643405 -0.00022118521463 -0.00058398419787 8.7085036284e-06 
8.1005277593e-05 8.5477080574e-05 0.00032372672558 0.00074354181561 0.0013567750284 0.0018463648739 0.0019487764803 0.0018416669918 0.0019453129498 
0.0021452132496 0.0018419130356 0.00091999621873 -0.0002809515172 -0.0011801202199 -0.001465633075 -0.0011921169789 -0.00056178133673 0.00010626875883 
0.00062154860643 0.00089491470135 0.00098601574427 0.0010308120545 0.00095329347823 0.00061369593459 -6.9041616371e-06 -0.00082920839304 -0.0015327043948 
-0.0038497679052 -0.0033817616641 -0.0040738557 -0.0039646458463 -0.0033037031535 -0.002029870273 -0.00019318943669 0.0019374167023 0.0037412630045 
0.004469994572 0.0039363109972 0.002750362095 0.0016569927684 0.00095150490233 0.00056031197892 0.00037170576252 0.00029936586119 0.00028896152071 
0.00012098741513 0.00025729128538 6.8242658756e-05 -1.8794360528e-05 -0.00016178759779 -0.00014442339125 -9.9298880741e-05 0.00018282292513 0.000769550119 
-0.0026592035429 -0.0017757676251 -0.00022446980199 0.00020806180203 0.00031266368751 0.00046795159142 0.00018249074583 0.00013010076509 0.00017332075974 
0.00046765225488 0.0009781918925 0.0013437017042 0.0013774293475 0.0012629052508 0.0012536192371 0.0010981029081 0.00044770852037 -0.00039632215703 
-0.001189638293 -0.0014759370242 -0.0017108345637 -0.0013479285844 -0.00061791524422 7.3452141805e-05 0.00056678659166 0.00084105809219 0.0009268620197 
0.00096892734291 0.00092118840257 0.00069171789801 0.00026861727565 -0.00023837710069 -0.0006994713076 -0.00091263411741 -0.0015564782952 -0.00078413689334 
-0.0022811153322 -0.0028342634323 -0.0032275410485 -0.0033556909184 -0.0030928080087 -0.0023357547179 -0.0010808401785 0.00051810855075 0.0021274188475 
0.0033416989027 0.0036277436651 0.0031912323902 0.0022339784482 0.0013773147948 0.00084905925905 0.00053135266353 0.00036790993181 0.00038156851951 
0.00023056042664 0.00042215667054 0.00010241021278 9.7648518704e-05 6.6266971165e-05 -5.8656315559e-05 -0.00015839897424 -0.00017704750553 0.00012518438525 
-0.00031516033778 -0.00031544739613 -0.00025037218165 -0.00011478375836 6.9082034315e-05 0.00022038280713 0.00021119424764 7.9363664554e-05 6.3808011419e-05 
0.00038790815461 0.0012072702375 0.0024049298954 0.0034875110723 0.004002711561 0.0040025265577 0.0036488187616 0.0029172347276 0.0027504133759 
0.0028360571596 0.0025773202651 0.0021828626923 0.0016991375014 0.0011722643976 0.00049590399681 -0.00044847055437 -0.0013985313853 -0.0021194081928 
-0.0024430972408 -0.0023815189488 -0.0022058102768 -0.0019835568382 -0.0016083179216 -0.0011088953106 -0.00085447407037 -0.0010273255393 -0.0015278576175 
-0.0023779322219 -0.0031581348157 -0.0029724361375 -0.0018282803503 -0.00062278202677 0.00020226489869 0.00066098906973 0.0013349029032 0.00087951742171 
0.002016031387 0.0027402637643 0.0028082476347 0.0020564479055 0.0010893287108 0.00060679650051 0.00083196861669 0.0013504976378 0.0017952957423 
0.0018378516543 0.0014062209375 0.00093725023908 0.00081570287875 0.000790034479 0.00050070257566 -7.2708086009e-05 -7.6733187598e-05 -9.3495766729e-05 
-0.00024734387262 -0.0003094758431 0.00039049653788 0.00068831756653 0.00075755602302 0.00059468281279 0.00037524787649 0.00017926174769 -0.00019987906489 
-0.00088259884433 -0.0015830498305 -0.00201028632 -0.0018962979957 -0.0015999088646 -0.0016101619694 -0.00079637606905 -4.7886362154e-05 0.0003740593238 
0.00053601220134 0.00056152229081 0.00058023371821 0.00057847106655 0.00049436411791 0.00028662501063 4.3257912694e-05 -0.00020446238159 -0.00033179762977 
-0.00023900401538 -0.00043284289495 6.3595152824e-05 -0.001096371343 -0.0017338861944 -0.0021439926641 -0.0022713723592 -0.0021831656923 -0.0018428381009 
-0.0011126310837 -8.4588076788e-05 0.0010125817134 0.0019550531288 0.0025998096098 0.0027818018571 0.0018021129945 0.0023877138738 0.0012138214806 
0.00079400921823 0.00053711176588 -0.0015683526872 -0.0020006456762 0.00062663515564 0.00044977837388 0.00073215148586 0.00012903890638 -0.00014030870661 
-5.1053139032e-05 -0.00024364725687 -8.8438086095e-05 0.00010633831243 0.0003295082015 0.00055704570696 0.00072135074879 0.00071524461964 0.00048845863057 
0.00017942098884 0.00023952311994 0.00098455475381 0.0021718911885 0.0031603322132 0.003604238038 0.0021548860706 0.0015460146824 0.00080623005124 
0.0020415252657 0.0021933395474 0.002055925841 0.0017414909089 0.0013889796392 0.00098949864332 0.00046382511209 -0.00020986045274 -0.00091725628008 
-0.0015895218239 -0.0018710301083 -0.0018781766994 -0.0018646743847 -0.0018892015796 -0.0018662501243 -0.0016754491953 -0.0015547159128 -0.00176912389 
-0.0023767295352 -0.0032779126777 -0.0039110245998 -0.0035777267185 -0.0024009526533 -0.0011944436701 -0.00029128941605 0.00030395655995 0.00055811680795 
0.00099057682382 0.00066866319685 0.0014984358568 0.0021064411849 0.0028982255026 0.0034700692631 0.0029958101804 0.0018210910057 0.0010975633922 
0.0013320930448 0.0020038099494 0.0021998829325 0.0020511234179 0.0018166803056 0.0014510765614 0.001073272957 0.00069992926728 0.00036689680564 
-6.5459556936e-05 -0.00050817364536 -0.0003692172686 -0.00040550100675 0.00055298652114 0.0010567495628 0.0015935035481 0.0020997511456 0.001856549643 
0.0019790779334 0.0023187425104 0.0022001741454 0.001613120563 0.00076201524644 0.00015487911514 -9.7964382803e-05 0.00027735068034 0.00053871253476 
0.0005538015248 0.00070189728285 0.00048101825814 0.00042048106843 0.00014223566541 -0.00016505329404 0.00043067782099 0.00067953873076 0.00088609408704 
0.0010254092194 0.0010380482854 0.00082211372501 0.00041415795658 0.0003529920441 0.0011696537549 0.0019144016551 0.0022584797698 -0.00062176335778 
-0.00081286332473 -2.9333497878e-05 0.00039204142377 0.0010432780618 0.0014557840477 0.0015796967491 0.0013897936733 0.00091493583168 0.00066128995968 
0.00036401037141 -5.0643640861e-05 -0.00039063952499 -0.0011952938366 -0.00097795495822 -0.0012503678154 -0.0013825190836 -0.0016395777056 -0.0019247125892 
-0.0019606103015 -0.0018386659794 -0.00198402346 -0.0025589239318 -0.0038402791834 -0.0034368860652 -0.0035401887144 -0.0026234426768 -0.0015891416697 
-0.00071410446617 -3.9848180677e-05 0.00032139899304 0.00049288933951 -0.0006248817881 -0.00032186050157 0.002771416679 0.0023964789871 -0.00026691710445 
-0.0001321240934 0.0001524870213 0.00052568904175 0.0011557302205 0.0017476048961 0.0021351430623 0.00050479958736 0.00024236182799 -0.00021167929344 
-0.00063793828713 -0.00094438961969 -0.0013311789662 -0.001905649231 -0.0024125838245 -0.002639715909 -0.0018717182393 -0.0016566589087 -0.0018013252411 
-0.0020387123514 -0.0018460135907 -0.0011133797088 -0.00039475017547 -1.0610317986e-05 4.6673245379e-05 5.5944256019e-05 0.00015883269771 0.00026749737117 
0.00028879258025 0.0002220831193 0.00014433265642 0.00010537804519 8.7772328698e-05 0.00016843329831 0.00041279617108 1.6237386717e-05 0.00052123504065 
-0.00054864191088 -0.0011438151123 -0.0015858964762 -0.0012842092692 0.00066753799183 0.0010206101942 0.0011450696475 0.0018094049883 0.0021965287548 
0.0026226222399 0.0031528900145 0.0031607848359 0.0024919782532 0.0016602803662 0.0015588550984 0.00081013172348 0.0014030873135 0.0018310452288 
0.0019937371835 0.0020345946929 0.0014887533034 0.0017637333949 0.00094998451823 0.0021539649849 0.0017868232098 0.0014395162871 0.0011330368725 
0.00086243914848 0.0010359585052 0.00066903331754 0.00092061623582 0.00034597658669 -5.4998778069e-05 0.0026931024622 0.0024899310956 0.0018677973188 
0.00035925391567 -0.001902653632 -0.0020459414809 -0.0019233009371 -0.001387395052 -0.00087484998949 -0.00060626026971 -0.00054765972891 -0.00042864566785 
-0.00016890057486 2.5544135497e-05 0.00011023448133 0.00014747117712 0.00033816634095 0.00030016066739 0.00014745494218 0.00065479162686 -0.00048947169125 
-0.00011440323033 -0.00077477036393 -0.0013992212043 -0.0018911169027 -0.0022896184819 -0.0026049923035 -0.0027737251949 -0.0031082195928 -0.003275757248 
-0.0030506667681 -0.0024354841444 -0.0016779626603 -0.00092182138178 -0.00023112592316 0.00015830328145 0.0013901293278 0.0012902496674 0.0012089179945 
0.0010505827086 0.001173206411 0.00080653127952 0.00018490357252 0.00033019700641 8.7431390057e-06 -0.00015853900913 -8.02635941e-05 0.00090090397862 
0.0010533718936 0.0011670511449 0.0012274337059 0.0019822401518 0.0011294490687 0.00013265385496 0.00022101826107 6.5582539719e-05 -0.0030604222557 
-0.0024737210188 -0.00085271353601 -0.00039923682925 -0.000421570865 0.00025459298195 0.00018034195091 0.00048320921633 
Stress_YZ_Pt 1 1114 double
0.0032170164632 0.0043027199572 0.0029278925649 0.0015760294045 0.0029631443904 0.0032381166529 0.0018487213529 0.0030722339579 0.0024269360583 
0.003638754948 0.0022601640085 0.0038573903148 0.0037211054005 0.0046814312227 0.0046172570437 0.0046035834239 0.0038855172461 0.003520260856 
0.0030423062854 0.0026691235835 0.0024120012531 0.0019202657713 0.0019077518373 0.0011723600355 0.0015626178356 0.00062242031254 0.0015269507421 
0.00044221901044 0.0014574910747 0.00035197638499 0.0012029245845 0.00022695188818 0.00091246663942 0.00014528690372 0.00080136154429 0.00011682033073 
0.00072068389272 7.8095588833e-05 0.00084142433479 0.00029400942003 0.0010170292808 0.00063648903597 0.00047458255494 0.00051859934206 -0.0005003809224 
5.0945359135e-05 -0.0011402086238 -0.00044622323549 -0.0012119337334 -0.00098012740273 -0.00086394196842 -0.0013758814603 -0.00078569693142 -0.0015605627705 
-0.0015372376365 -0.0019205912104 -0.0025832043029 -0.0024743950344 -0.0033238870092 -0.0029220017605 -0.0035458866041 -0.0029539257521 -0.0031222947873 
-0.0023324071663 -0.0023606375325 -0.0014208727168 -0.0017927488661 -0.00073032172236 -0.0014867614955 -0.00030321553641 -0.0015334865893 -0.00023798923939 
-0.0020642096642 -0.00065498062031 -0.0026366121601 -0.0012006690642 -0.0025827162899 -0.0013523469654 -0.0014681576868 -0.00080313129092 0.00051883794367 
0.00032119309526 0.002285831084 0.0011488710152 0.00041200508713 0.00093185561127 0.00056621263502 0.00030853147473 0.0013248251635 0.000792520299 
0.0013240237604 0.00080008389341 0.0013972902088 0.0009168486431 0.0019227311132 0.0015060371952 0.0025097436737 0.0023267694633 0.0029191918438 
0.0029791555717 0.0031739015831 0.0033448128379 0.0032559452811 0.0034623526153 0.0035370627884 0.0035666267504 0.00379211572 0.0037563662627 
0.0038290992379 0.0038488046266 0.0039177206345 0.0038482983364 0.004143076716 0.0039656948647 0.0038856355241 0.0038793049753 0.002753149136 
0.0032430364517 0.0015687398845 0.0022229321767 0.00063575900276 0.00085337355631 -0.00036219484173 -0.00086089160686 -0.0013507886033 -0.0024478296255 
-0.0021258778288 -0.0033808269945 -0.0026342212223 -0.0035742585314 -0.0031628858997 -0.0034496134031 -0.0040587850381 -0.0031750258058 -0.0047534184996 
-0.0033497067634 -0.004208558239 -0.0026713726984 -0.002616229991 -0.0011492561898 -0.00099850844708 2.7282352676e-05 -1.5647419787e-05 0.00030843095738 
0.00025528448896 7.3359260568e-05 0.00041669224447 -0.00017257702712 0.00090576004004 -0.00022586138221 0.0018275511684 0.00017084655701 0.0020755078876 
0.00087225432799 0.0016827128711 0.0016611918545 0.0011996557005 0.0019567978452 0.0009360605618 0.0017701045726 0.00069086033909 0.0015747300422 
0.0012202350918 0.0020126992385 0.0020702461479 0.002573123551 0.0013383328624 0.0018984825729 3.1425734051e-05 0.00051861192333 -0.0012433780066 
-0.00092882504396 -0.0024002915015 -0.0021335791389 -0.0027036223328 -0.0027812029002 -0.0025893613929 -0.0031559088384 -0.0032629778143 -0.0037269729655 
-0.0040411709342 -0.0040721320547 -0.0039510801435 -0.0037430014345 -0.0031090519624 -0.0030095911934 -0.0025089542614 -0.00244236656 -0.0019723293371 
-0.0018553178816 -0.0010005221993 -0.00090952612663 -0.00033722684748 -0.00014632357852 -0.00017707780353 0.00014636135893 -0.00022836590506 0.00017402302547 
-3.9683625801e-05 0.00018388794342 0.0035552952904 0.0017048891023 0.0045624278719 0.0050461488776 0.0052857701667 0.0051535493694 0.0043261026149 
0.0031528182444 0.0022378147405 0.0013447139208 0.00036538609766 -0.00037926343157 -0.00074154959293 -0.00079613065463 -0.00062299148703 -0.00038305772863 
-0.00028553115804 -0.00029428667642 -9.515225338e-05 0.00034854657497 0.00075496917998 0.00086886997451 0.00041118418449 -0.00046799018164 -0.0014263184275 
-0.0017994502268 -0.0018716645427 -0.0019784423348 -0.002092837356 -0.0019422376063 -0.0012954955018 -0.00040401475576 0.00032357522855 0.00077970547136 
0.00089262236725 0.00062551843439 0.00020566982744 -0.00014904057139 -0.00038463667534 -0.00050708397703 -0.00049301696708 7.5054107583e-05 -2.0889852749e-05 
6.8238596214e-05 -4.2823048716e-05 0.00010340260815 0.00063276008041 0.0015554135898 0.0024671843566 0.0031006284989 0.0035304448684 0.0037461574539 
0.0038777038571 0.0038634157972 0.0036202077754 0.0034202510724 0.0033840291435 0.0032348290551 0.0023841276416 0.00072412025111 -0.0013776921442 
-0.0034243286937 -0.0046533619752 -0.0047056400217 -0.0040117619792 -0.0030311369337 -0.00076217859896 -0.0016012557899 0.00027556584973 0.00058885055114 
0.00023404324747 -0.00024321589808 -0.00073877801333 -0.0012276755733 -0.0013981079217 -0.00038200361087 0.0012792681482 0.0023957534286 0.0025528652477 
0.0025153280003 0.0027036961401 0.0027490187786 0.0022614506306 0.0011947364401 -0.00017045137065 -0.0015058861172 -0.0027606229123 -0.0037860364537 
-0.0041477470659 -0.0039055474335 -0.0034276093938 -0.0029160273261 -0.0024161739275 -0.0018014420348 -0.00095200613578 -8.9054094133e-05 0.000460166626 
0.00066334349685 0.0005123341507 0.00023514173699 -0.0015531303652 -0.001694355873 0.004452467314 0.004670528695 0.0040642219828 0.0035765193752 
0.0028748475015 0.0020385732932 0.0011446117278 0.00025222263139 -0.0004255448257 -0.00079669783008 -0.00074978756311 -0.00036739015638 -1.4200853556e-05 
0.00010083927886 7.9936301859e-05 0.00017323968041 0.00051306554451 0.00098336559313 0.0011459150992 0.00072256148633 0.00034290131225 -0.00084674859681 
-0.00055087596047 -0.00097047728923 -0.0010899347108 -0.0011907351436 -0.0011700556934 -0.00090305236517 -0.00040131202695 8.0986039393e-05 0.00035928627221 
0.00038393684463 0.00012687022809 -0.00026427904595 -0.00073654020962 -0.0010254966182 -0.00134579734 -0.00082999563892 0.0004786348145 0.0020575201197 
0.0038239597343 6.1651076976e-05 0.0010280108763 -0.00026431334118 -0.00031172776471 0.00023567447352 -0.00010329305587 -0.00040065064604 -0.00052628514823 
-0.00072683765029 -0.0010414679127 -0.0013475363958 0.00067442797808 -0.00053782256509 0.0017162712902 0.0022460413456 0.0024466361501 0.0025293229264 
0.0026012416347 0.0024669732375 0.0018740962696 0.00083706036094 -0.00068620340608 -0.0023398892372 -0.0034651035676 -0.0037594967289 -0.0036152018001 
-0.0033400319517 -0.0029773753486 -0.0026000005892 -0.0020358215552 -0.0012270422885 -0.00033472865346 0.00040131420371 0.0007815221179 0.00066790253186 
0.00028283863321 -4.9169784688e-05 -0.00027794819107 -0.00037751878699 -0.00028496966661 8.3651166278e-05 0.00079966985868 0.0017221364251 0.0025949228439 
0.0033166095382 0.003792869742 0.0039061940624 0.0036240778863 0.003102853545 0.0026538398815 0.0024648957187 0.0020934746601 0.0014388692216 
3.7504411011e-05 -0.0016139409636 -0.0031988588162 -0.0043248849688 -0.0045849933522 -0.0040451915702 -0.0029410075804 -0.0015659759665 -0.00045104789933 
8.8274174777e-05 2.1323069632e-05 -0.0013959093776 -0.0014569424384 0.00085077596668 0.0019363391038 0.00015909108333 -0.00016264190663 -0.00024307148396 
-0.00031222239477 -0.00046275651948 -0.00066140924173 -0.00080022585462 -0.0007720939393 -0.00061604902658 -0.00050726114387 -0.00056937006502 -0.00084259851883 
-0.0012163729771 -0.0014780072961 -0.0012439030033 -0.0014907704899 -0.00013202292757 0.0011709267419 0.0023264228948 0.0036915795645 0.0034032147378 
0.003803609754 0.0029238574207 0.0024936626432 0.0020624337776 0.0014856757771 0.00080341706052 0.0002228887497 -0.00018725125574 -0.0004419009756 
-0.00031175147051 -2.8744961469e-05 0.00025451315662 0.00031090686753 0.0002958916848 0.00040587124749 0.00067792230402 0.0010344236507 0.0011449668964 
0.00087923981482 0.00091476556554 0.0019669788744 0.002933138574 0.0019581134547 0.0028836838319 0.0010805810743 0.0045746897813 0.0039494269877 
0.0041275152471 0.0038728293342 -0.0014441714156 -0.0016923545918 -0.00041813477219 -0.00077908828098 -0.00075581576675 -0.00068519130582 -0.00080283104035 
-0.00096408835088 -0.00097350489523 -0.0011984413431 -0.00080933163554 -0.0011576482502 -0.00055191020874 0.00033032778083 0.0011774175073 0.0018273865571 
0.0022105010576 0.0023675281554 0.0026490190648 0.0028434342821 0.0025072976714 0.0016749391652 0.00017902156105 -0.0015609121911 -0.0026385938691 
-0.0030183001072 -0.0031904678326 -0.0032255962142 -0.0030737846973 -0.0027829583269 -0.0022452196572 -0.0014556138049 -0.00057846889342 0.00020922159217 
0.00072910469316 0.00073001338169 0.00035262426172 6.6912800321e-05 -0.00010943450525 -0.00024587367534 -0.00025353684032 8.983144653e-06 0.000632363568 
0.0015891098301 0.0025284055155 0.0031089569675 0.0033250047709 0.0032887637499 0.0029702458996 0.0024634867441 0.002039837389 0.0018022520235 
0.0015841348504 -0.00048510908891 0.00058656809051 -0.0018272305897 -0.002972248476 -0.0035932632745 -0.0036923298612 -0.0035395428228 -0.0024517377606 
-0.0011530965203 -0.00026361978962 0.00018849831849 0.00012075483482 0.0003559134575 -2.8782887966e-06 -0.00040432871901 -0.00072820093192 -0.00063834253524 
-0.00048250732652 -0.00051936898672 -0.00012103756671 -0.00098565937515 0.00046865131662 0.00068007411028 0.00030254721787 0.0004401352453 0.00015472714404 
2.2807962068e-05 -0.00012067264697 -0.00019869286189 -0.00019069404925 -0.00018881387268 -0.00029803982761 0.0011565025343 0.0012695392361 0.00048685740694 
0.00013014152 -1.4103407011e-06 -5.7817906509e-05 -0.00019689532201 -0.00047029662528 -0.00085046657478 -0.001209942362 -0.0014290939725 -0.0015668297419 
-0.0017276462168 -0.0019346756162 -0.0021491252701 -0.0022372313251 -0.0021848670149 -0.001826616528 -0.0020950488106 -0.0016721525753 -0.0014219853038 
-0.00067113752812 0.0005997664739 0.0016161249077 0.0022023114434 0.0028964181547 0.0044632964418 0.0034553255537 0.0043971998384 0.0035569608444 
0.0034791276557 0.0034709495958 0.0035133316414 0.0033616588917 0.0028347389889 0.0020383306255 0.001232440468 0.00060049054548 0.00018839089898 
2.3233609681e-05 8.5786061391e-05 0.00018615622957 0.00016217130451 0.00015057497512 0.00047392382839 0.0002364295301 0.00056439686159 0.00063231272361 
0.00082378411025 0.0010196128424 0.0011193073442 0.0010846148798 0.00081828101247 0.0010735591641 0.0021912216325 0.0030230386765 0.003055127454 
0.002509055601 0.0027000416303 0.0016266713501 0.00091513160442 6.8423317771e-05 0.00028497733001 -0.00036541779718 -0.00055180911295 -0.00048553261149 
-6.3242991928e-05 -0.00076847153832 -0.0007034615337 -0.00030074685674 0.00030412585875 0.00099079450592 0.0016080097121 0.0020249659428 0.0022380561568 
0.0023263795883 0.0023416628246 0.0021723458776 0.0016892286076 0.00067897901317 -0.00068772731902 -0.0017238798318 -0.0022855503194 -0.0026347176754 
-0.0028629552107 -0.0028320479905 -0.0025763428421 -0.0021683086525 -0.0015284104447 -0.00074870925891 -1.7618367565e-06 0.00055821036221 0.00074840060552 
0.00021912699776 0.00037210674054 9.2824354397e-05 -8.7448207523e-05 -0.00022419587185 -5.8287322645e-05 0.00059773667726 0.0015422953584 0.002228558762 
0.0024561519967 0.00234211926 0.002198966773 0.0021366923465 0.0019771279185 0.0017218103749 0.0014972543577 0.0013898197794 0.0012732196192 
0.00091611476091 0.0010787867068 0.00056138910168 -1.6261175006e-05 -0.00073941735536 -0.0016903385113 -0.0024628022802 -0.0025356464321 -0.0023093095806 
0.00051608095964 0.00052601376228 -3.0707630685e-05 0.00032706819457 0.00034000237065 0.00075645025208 -7.1733888035e-05 -0.00034023868284 -0.00040720249914 
-6.183178084e-05 0.00042769188258 0.00095953892742 0.0014586807811 0.0017828013515 0.0018611406267 0.0017238729051 0.0014767173416 0.0012141207408 
0.00094556646072 0.00076488574996 3.3264957892e-05 -0.00079717522021 -0.001563304133 -0.0020818994089 -0.0022122585506 -0.0021093705727 -0.0019868037489 
-0.0017552570498 -0.001258419361 -0.00063790195418 -6.1390972405e-05 0.00031555739406 0.00044187141611 0.0003538628298 0.00023850693469 0.00017556386229 
0.00028435153217 0.0002811391023 0.00020774763107 4.7032357543e-05 -0.00023785077792 -0.0004747611747 -0.00036585216094 0.00019210353548 0.00096194291109 
0.0014239063457 0.0010177395961 0.0011640708617 0.0013134629116 0.0014421342057 0.0015470742655 0.0014973636717 0.0013649423781 0.0011641353485 
0.00083286920562 0.0008408013673 0.00062409433303 0.00023350111178 -0.00015418842243 -0.00064546769272 -0.0013419285242 -0.00150086543 -0.0010569973965 
0.00037855248456 -2.5201610242e-05 -0.00021989776997 -0.0002472455044 -0.000284817188 -0.00046441350423 -0.00083576521138 -0.0013719595736 -0.0020178975537 
-0.0025551730068 -0.0027925300528 -0.0028578977799 -0.0028613199247 -0.0027363632689 -0.0025415041794 -0.0024814416538 -0.0019286785682 -0.0021700717334 
-0.0017203611205 -0.0014930401521 -0.0011104855366 -0.00037308141327 0.00059342370514 0.0012333235063 0.0015383018035 0.0019764196186 0.0024370856408 
0.0026845748071 0.0028280207771 0.0030528706266 0.0033361784299 0.0032616163371 0.0026079133968 0.0015174230939 0.00021944815046 -0.00084379200314 
-0.0012627228862 -0.00098320878897 -0.00030175862412 0.00030516181505 0.00056647849851 0.00063463181868 0.00071941890928 0.00049876400954 0.00082731863949 
0.00029801156415 0.00037724772119 0.00070986879291 0.0010433406424 0.0012267888669 0.0013491222344 0.001288455067 0.0010723627347 0.00088387052529 
0.00067956246494 0.00093857249885 0.001688402961 0.0021203920187 0.0021584331407 0.0019326709735 0.0022059466864 0.0015999387542 0.002227332831 
0.0015564868809 0.00077320484343 8.8421846158e-05 0.00046721085164 0.00087231438374 0.0012525603815 0.0014263766352 0.0013083786762 0.0010044493029 
0.0006155168594 0.00019586794951 -4.7530142183e-05 0.00071511110582 0.00095274987689 0.00011292172348 -0.000661005437 -0.0011385450853 -0.0012706741691 
-0.0013460940827 -0.0013590262679 -0.0011483301641 -0.0007715307438 -0.00037471848918 -4.161214747e-05 0.00012564212921 0.00017263426162 0.00018421611094 
0.00012705470181 2.931929248e-05 1.9755683752e-05 6.6363848873e-05 0.00011956633944 0.00011125862784 -1.0514399037e-05 -0.00025699774051 -0.00059844164571 
-0.00090019895288 -0.00099794384005 -0.00082011017366 -0.00039992703387 4.0832499508e-05 -0.00017054099408 0.00075427064439 0.00037278359014 0.00092560559278 
0.0010900622437 0.0011772692669 0.00076336121856 0.00013909805421 0.00075682275201 0.00048533861263 0.00031849434095 0.00064403839497 0.00053410759865 
-0.00017503118897 7.701702134e-05 -0.00037631632358 -0.00054442951659 -0.0004959419166 -0.00042937676335 -0.00049370077613 -0.00076087101479 -0.0013091661094 
-0.0022134928731 -0.0031585594406 -0.0034625065746 -0.0033435877413 -0.0031239832169 -0.0028109602281 -0.0023344310466 -0.0016106850526 -0.0015197814791 
-0.0015986205253 -0.001467050839 -0.0011952146888 -0.00079724656098 -0.00031425313136 0.00018846099192 0.0005129762576 0.00072960987745 0.00096461102366 
0.001481825544 0.0018101212918 0.0021563031478 0.0026427293196 0.0031763990992 0.0032915530028 0.0026100981049 0.0013032851712 -0.00010216466035 
-0.0012740101229 -0.0018659699708 -0.0015682831872 -0.00068810856101 0.00015642259314 0.00065284455195 0.00087655874086 0.0010074649763 0.0011093212961 
0.0009552884585 0.0011944524013 0.00070212098944 0.00059942496591 0.00072840107896 0.0011522463319 0.0016490882263 0.0016876998998 0.0013731650542 
0.0010368067451 0.0006334896374 0.00060303573264 0.00059498472062 0.00072353117866 0.00091051418713 0.0008957073951 0.00091068367328 0.00090923777316 
0.00073221336424 0.0013149185397 0.00054162950437 0.0016120647488 -0.00016558782227 0.00041348142258 0.00057513425418 0.00041430193232 0.00032320205355 
0.00028166756238 0.00035727325485 0.00041019625451 0.00045863932746 0.00046695931087 0.00036490420052 0.00017643929414 0.00063908159063 0.0010135729244 
0.0011003412073 0.0011932658672 0.00075033862959 0.0003406352007 -0.00038590021177 8.5033383584e-05 -0.00052453981334 -0.00048277911264 -0.00041471037548 
-0.00043239042134 -0.00061861146241 -0.0010740598227 -0.0018980831373 -0.0028932358255 -0.0030789961573 -0.0031213336042 -0.0028377810959 -0.00079085518955 
-0.00091575214174 -0.0012942544126 -0.0010240280972 -0.0011307034001 -0.0011068219756 -0.00092334403598 -0.00060690449754 -0.0002463993631 6.1216985614e-06 
0.00011834406064 0.00027846920602 0.00034722380587 0.00086577864568 0.00052988512834 0.0013504924136 0.0020816502802 0.0028444224736 0.0031708420138 
0.002644685097 0.0013989666477 0.00021630841366 -0.00086710629985 -0.0016003945493 -0.0017666288477 -0.00080163896928 4.6327520977e-05 0.00062828984665 
0.00092353977379 0.001104038296 0.0012220986828 0.0012399277184 0.00026106086807 6.0097572714e-05 -6.8700634074e-05 -0.00075843371269 -0.00054475178877 
-0.00033413408892 -7.4970375863e-05 6.7596527515e-05 0.00029297757283 0.00043126589298 0.00047995647037 0.00061572640698 0.00088687919197 0.0011102331628 
0.0011075342481 0.00090901854855 0.00046497342555 -0.00014463814296 -0.00068028618989 -0.0009709099977 0.00075241101149 0.0010316057984 0.0014015199267 
0.0015686117404 0.0012663886555 0.00063053850681 8.2240847405e-05 -0.00042308180855 -0.00081268647045 -0.00087209162302 -0.00070673356822 -0.00046846485202 
-0.00021415148149 1.4187829947e-05 0.00014871290296 0.00015891541443 0.00012772777882 7.2364216066e-05 -7.4014747952e-05 -0.00020432860492 -0.00019247634009 
-0.00018675184083 -0.00012680299869 -7.6060451344e-05 -0.00030530077493 0.00080130227434 0.0010277185647 0.0010793635447 0.00090491845913 0.00081381653824 
0.0010585483396 0.001501217921 0.0018291096203 0.0012702478212 0.00076750996595 0.00058313773964 -0.0017657407443 -0.0020207403577 -0.0020562152495 
-0.0017353464355 -0.0012936178246 -0.001937119494 -0.00087771592371 -0.0018789860478 -0.00035323562042 -0.00016810354646 0.00015302333202 0.00041558654345 
0.00061347999872 8.9985760314e-05 -0.0001395885854 -0.00023567327366 4.3530088078e-05 0.00041617746865 0.0010721694174 0.0012948730437 0.0011108980281 
0.0010385072208 0.0015945292544 0.002339209459 0.0024919502612 0.0020054083434 0.0012175136726 0.00040042798355 -0.00012242960656 -0.00030837780287 
-0.00035616075547 -0.00029571074629 -0.00011667251874 8.2694999037e-05 0.00014038652716 0.00017973683377 -0.00061710758746 -0.00063016663626 -0.00051295934827 
0.0010678808758 0.0010549906583 0.00088352536841 0.00051404335181 -6.6744670676e-05 -0.00070601215702 -0.0010946359641 -0.0014404943504 -0.0012388068571 
-0.00056706483656 0.00017782859004 0.00070889542258 0.00097970628121 0.001144974085 0.0012287327554 -0.00070275198232 -0.00039248844689 -5.1524820378e-05 
-0.00056389005476 -0.00047938451947 -0.0002656170027 0.00010845617612 0.00011189883912 0.00014049761194 0.00016657955227 3.1509630389e-05 -0.0012769199675 
-0.00029649212956 -0.00026054188493 -0.00038672473602 0.0010469765984 -0.00076685605745 0.00019062995852 0.00024319770819 0.00011173903567 0.0048812800087 
0.0049528821837 -0.00064512976678 0.00085212263002 0.00090262998128 0.00023525379947 0.00020770294577 -2.6281323699e-05 
Stress_XZ_Pt 1 1114 double
-0.0035841091303 -0.0042415776988 -0.0062171575264 -0.0057310789707 -0.0044034677558 -0.0058256617049 -0.0029017410125 -0.0043573969451 -0.0020237569115 
-0.0031036315195 -0.0016212610935 -0.0019493800501 0.00036804008414 0.00011482783884 0.0017280382453 0.0015685783583 0.0020436590421 0.0023513023334 
0.0022916321177 0.0030524978647 0.0024207538227 0.003322512086 0.0023941291729 0.0030299636419 0.0020601597498 0.002395685151 0.0016203454579 
0.0018171122938 0.0012805566657 0.0013889305701 0.00099068979034 0.00085915458476 0.00061146005464 4.2593266699e-05 4.1376057197e-05 -0.00093803030177 
-0.00034865248017 -0.0017462974647 -0.0012799144315 -0.0024831405754 -0.002224663971 -0.0029488126747 -0.0023370322306 -0.0030809115851 -0.0022652236512 
-0.0032264680485 -0.0021191780688 -0.0031741081621 -0.0015607322566 -0.0024254031014 -0.00056443309222 -0.0010203525726 0.00052565175065 0.00053281379405 
0.0013166437857 0.0015506456548 0.0015356331132 0.0018231858267 0.0014298934257 0.0018569024978 0.0012247043196 0.0018769826274 0.0009569877293 
0.0018231420545 0.00058343842102 0.0016214826537 0.00037820263242 0.001382813316 0.00046539327013 0.0011254848068 0.00064198931796 0.0006938759052 
0.00090278097196 0.00019129752945 0.00095859848079 -0.00029555223591 0.00044280653856 -0.00083175562304 -0.00049128494538 -0.0016142124978 -0.0015260650543 
-0.0027756506461 -0.0026637370465 -0.0043321049889 0.0010312451923 0.0017812768347 0.00028645982093 -0.00064038856362 0.0023110331967 0.0009237134982 
0.0025047315285 0.0013723368065 0.002226264216 0.0017084937426 0.0017774801236 0.0018970484962 0.0013402829645 0.0019328206545 0.0010895107989 
0.0019617422076 0.0011263218476 0.0020924578421 0.0013031394919 0.0023627972696 0.0013872982818 0.0026730427926 0.001691811718 0.0031456049765 
0.0023914126214 0.0036675294396 0.0032156745438 0.0039456216618 0.003918219707 0.0041246557957 0.0043110756669 0.0041816205485 0.004100800259 
0.0037071997649 0.0028803164605 0.0024552804534 0.00059561149101 0.00061564288944 -0.0020131097699 -0.0014002610519 -0.0037110972917 -0.0031504096696 
-0.0040651289746 -0.0042474558577 -0.0035838739714 -0.0044352902914 -0.0031383228488 -0.0041926858248 -0.002765970421 -0.0040736064781 -0.0024260767968 
-0.0032168559846 -0.0024171927944 -0.0033133224351 -0.0025447716471 -0.003628254286 -0.002618062892 -0.0035672312952 -0.0025727243628 -0.0029943368281 
-0.0023966967128 -0.0021654843586 -0.0017295724247 -0.0011560823209 -0.0002336440084 0.00024310305662 0.0022640865354 0.0021112637332 0.004263980547 
0.0035446011461 0.0045561790466 0.0041873316513 0.0038511194289 0.0041218849365 0.002534715517 0.0032589516777 0.0015462049632 0.0025347994233 
0.0012165502412 0.0022778728162 0.00078756621224 0.0021922956366 0.00040695100324 0.0023728629167 0.00065008111414 0.0028685602738 0.0017194587272 
0.0034706719453 0.0032713566907 0.0038019376225 0.003543490544 0.0031631250749 0.002593188663 0.0017920615792 0.0019748676568 0.00062623937265 
0.0012975439313 -0.00040139842895 6.1999598984e-05 -0.0016216710501 -0.0013762911549 -0.002851379104 -0.0027832294581 -0.00397052482 -0.0041014447343 
-0.0050839984324 -0.004813790787 -0.0058528208174 -0.0046735042706 -0.0059752336238 -0.0037095735315 -0.0053271697834 -0.0020450273878 -0.0038753992121 
-0.00027028974728 -0.0020906450954 -0.0081727980869 -0.0092052522814 -0.0065198519733 -0.0040999657009 -0.0013864766515 0.0010294163949 0.0029031647427 
0.0043514378485 0.0053621762199 0.0055505472701 0.0047757743159 0.0036056648823 0.0027120383456 0.0020685240452 0.0011874234115 -0.00016090187273 
-0.0017017796927 -0.0031080233166 -0.0039237384917 -0.0041210467461 -0.0042124866741 -0.0043973242864 -0.004230535531 -0.0026798859471 -0.00088898091781 
0.00092625182151 0.0021907831833 0.0028071189881 0.0033092283993 0.0038268581266 0.0041893222369 0.0042339223437 0.0038873732556 0.0030832654447 
0.0017419004016 2.6501658795e-05 -0.0017045557033 -0.0029694411205 -0.0039132585516 -0.0052077113651 -0.0071438745363 -0.0089304880239 -0.00078018063869 
-0.0018136758445 0.00029283231925 0.0015349991736 0.0026558446116 0.0034002831089 0.0038353197742 0.0041612688801 0.0045736015891 0.005055962014 
0.0055570820114 0.005693504354 0.0052314816276 0.0046787710162 0.0041035742033 0.0031144397799 0.0017979554395 0.00045999510212 -0.0010100733239 
-0.0028237268561 -0.004629707546 -0.0056500803912 -0.0059181245742 -0.0060821233783 -0.005132672959 -0.0046395687386 -0.0053846201627 -0.0049572499702 
-0.0038791461266 -0.0025071552955 -0.0010741677274 0.00034664901386 0.0016029830207 0.0026122097042 0.0035459611681 0.0043265704298 0.0044223199948 
0.0045025733416 0.0047977608629 0.0052086570067 0.0057222152827 0.0060877397191 0.0059271013597 0.0049820559216 0.003460335487 0.0016272987996 
-0.00018277960771 -0.0016895834269 -0.0030643398059 -0.0042718401528 -0.0052380650304 -0.0061788876774 -0.0069673944963 -0.007313502836 -0.0070424391888 
-0.0060322823701 -0.0045182153117 -0.0030206828669 -0.0054347887635 -0.0062884496292 -1.4353863662e-05 -0.00233868949 0.0025483447243 0.0048051021877 
0.0066275673453 0.007673011045 0.007665820769 0.0066170424689 0.0051727864775 0.0040125402156 0.0030677980976 0.0019401173922 0.00047188158169 
-0.0012223897593 -0.0028624298284 -0.0041054096073 -0.0047202992719 -0.004772187327 -0.0046572471038 -0.0042432270711 -0.0029365281225 0.0014751566341 
0.00012288970265 0.0026779867476 0.0036635204451 0.0046441777376 0.0055968350498 0.0063144967426 0.0065467823297 0.0061118631857 0.004959436541 
0.0031493685674 0.00080951611017 -0.0017077367593 -0.0038520778529 -0.0055043302709 -0.006845838041 -0.0083862163592 -0.0093363849446 -0.0092551002745 
-0.0084661653964 -0.00090021155393 -0.0015251655568 -0.0060901490506 -0.0061217409093 -0.0058758970117 -0.0051419552183 -0.0041989982128 -0.0031057152082 
-0.0018105032213 -0.0005010941386 0.00041915822658 0.0032239691354 0.0022565959371 0.0042730832356 0.0050145235145 0.0057640577434 0.006574537605 
0.0070537453284 0.007088478771 0.0068186052376 0.0063367943512 0.0054526441963 0.0041274031973 0.0024484305177 0.00066768391844 -0.00091802652605 
-0.0024501141743 -0.0039057662943 -0.005126076634 -0.0061426932225 -0.0068530252902 -0.0071379950969 -0.0069858403876 -0.0063043669797 -0.0051633159164 
-0.0038537455257 -0.0025646201975 -0.001175114332 0.00043402245501 0.0021637489554 0.0037083124043 0.0047496312764 0.0053643252468 0.0058311996982 
0.0062809874071 0.0066189024365 0.0067114826525 0.0064124269411 0.0057166393381 0.0049130866537 0.0039950300707 0.0025547729107 0.0012114148558 
3.5046505218e-05 -0.0013887968889 -0.0031054890715 -0.0047585320426 -0.0059632487828 -0.0066828955896 -0.0069593036314 -0.0067470722133 -0.0060510943877 
-0.0051756678149 -0.0051157610724 0.0015522745962 0.00073180048639 -0.00015910152342 -0.00090554659255 0.00069876894941 0.0017388689157 0.0028512519784 
0.0039659371832 0.0051768918056 0.0064155148575 0.0073950146325 0.0077817336423 0.0073407861637 0.0060657336144 0.0041043953388 0.001643697753 
-0.00078203369776 -0.0022440306202 -0.0066458426882 -0.0054779236671 -0.0074904216453 -0.00737869984 -0.0067716748454 -0.0063644674374 0.00053357350407 
-0.0014725651417 0.0028443304764 0.0051163715543 0.0071946185781 0.0087246827316 0.0090570359025 0.0079861768754 0.0064142197371 0.0051143746823 
0.0037743616384 0.0022564744286 0.00078554461106 -0.00089969715009 -0.0026659909927 -0.0041548571899 -0.0050505744293 -0.0051781100919 -0.0049130523112 
-0.0044847982354 -0.0035000747885 -0.0024457090185 -0.0018867737963 -0.00075918405491 -0.0014119821426 -3.9386977733e-05 -0.0036141427699 -0.0027448242763 
-0.0038438572083 -0.0032822303474 -0.0040615883772 -0.0023546416487 -0.0044740801677 -0.0038883489906 -0.0031404895708 -0.0021958139259 -0.0012292428291 
-0.00045494111691 -6.2791521486e-05 0.00073151176912 6.4437259425e-05 0.001412411395 0.0021748455765 0.0031661637477 0.004189053725 0.0050570326857 
0.0058472246164 0.0064388107276 0.0065609483281 0.0062664150028 0.0058654702734 0.0055904238252 0.0050678312546 0.0040839461144 0.0027169532841 
0.0011286501031 -0.00035658041452 -0.0017892488977 -0.0032325271168 -0.0045443088165 -0.0055842581205 -0.0062463762006 -0.0065017500892 -0.0064059121069 
-0.0058610285632 -0.0044821423944 -0.003504771099 -0.0023532771156 -0.00090767728398 0.00092199037317 0.0028709143517 0.0044680362334 0.005509983981 
0.0062126223929 0.0068007899681 0.0072005607653 0.007245152723 0.0068369852379 0.0061457311967 0.0053621206898 0.0045326160034 0.0036664087675 
0.002822180104 -0.00045290999878 0.00055695601441 -0.0017484063428 -0.0032645291649 -0.0047700547148 -0.0060128651094 -0.0067371066349 -0.0068828825606 
-0.006651232834 -0.0060148111079 -0.0051576006226 -0.0041847138782 -0.0042130714864 -0.0039666218217 -0.0036881641136 -0.0034557756153 -0.0030339139048 
-0.0023596249812 -0.0015510016528 -0.0059420510661 -0.0062466248637 -0.0052584570367 -0.0042825166602 -0.0033152587712 -0.0036993167596 -0.003272960952 
-0.003154907201 -0.0029617687105 -0.0028381265583 -0.0026679594885 -0.0021893993835 -0.0014663144975 0.0013899510814 0.0020408444107 0.00083679936506 
0.001838955417 0.0029473584145 0.0041172844358 0.0054153251695 0.0068042442435 0.0079874057556 0.0085725269746 0.008274364518 0.0070976871066 
0.0052264104015 0.0029627932527 0.00087705413171 -0.00037583764424 -0.00056605203645 -0.0016845833161 -5.978410627e-05 -0.0031702394481 -0.0043944804929 
-0.00537322124 -0.0059409379028 -0.0055381264538 -0.0046531551634 -0.0041565105203 -0.0056459491607 -0.0039068629267 -0.0046891414095 -0.0036783213727 
-0.003358492977 -0.0029416537727 -0.0023372147407 -0.0012370996847 0.00055525435891 0.0027317012136 0.0049175546737 0.0070099600125 0.0088771949522 
0.0096813673154 0.0087585035944 0.007098589791 0.0057200378506 0.0044745857595 0.00061077448845 0.0019805520133 -0.0011025149834 -0.0029690527881 
-0.0045363971731 -0.0055008728523 -0.0057341398206 -0.0054336516187 -0.0050706776092 -0.0045391901513 -0.003763449844 -0.0030855818768 -0.0023636859842 
-0.0011156777473 -0.0018412963545 -0.00067384658905 -2.8636772186e-05 0.002830077312 0.0030693674926 -0.00051178600188 -0.000721185148 0.00015329544203 
-0.0002764821902 0.00067665677489 0.0013289336493 0.0020820424834 0.0029342652997 0.0038118496304 0.0045630778186 0.0050881189527 0.0052503860788 
0.0050633967621 0.0047696413239 0.0046262001852 0.0047046741238 0.0045369771542 0.0039297831245 0.0028391359956 0.0013625160063 -2.0437139028e-05 
-0.001259202465 -0.0024731590238 -0.0036355860066 -0.0045955572277 -0.0052313167835 -0.0054628686048 -0.0053248676704 -0.0048195899581 -0.0038467182894 
-0.0013107027262 -0.0022671128972 6.5535117756e-05 0.0018260408033 0.0036157805589 0.0049927940127 0.0059027303942 0.0065596638015 0.0071229297901 
0.0073779049562 0.0071706376038 0.0065582608804 0.0057089757174 0.0048700121697 0.0040703944978 0.0033521619625 0.0028753587976 0.0025272722705 
0.0013517590851 0.0021144709608 0.00064539037885 3.8414764276e-05 -0.00086531909801 -0.0021597511368 -0.0035919587244 -0.005037616007 -0.006208589999 
-0.0027125618653 -0.0026719368179 -0.0011187284981 -0.00070965530904 1.1395176443e-05 -0.00026066922874 0.00031248163305 0.00073793721094 0.0011876799593 
0.0016964710958 0.0024821553961 0.0032517847139 0.0038148483727 0.0040845262702 0.0041028909618 0.0040195059264 0.0039133279352 0.0039150389493 
0.0041776355356 0.004095857963 0.0036380134989 0.0028266421286 0.001506962144 0.00025702120729 -0.00078483198195 -0.0017530261248 -0.0026828393165 
-0.0034760192502 -0.0040404546307 -0.0042903053109 -0.0042016966618 -0.00386477547 -0.0033116429695 -0.0026022592792 -0.001690312929 -0.0019262330607 
-0.0013941390062 -0.00086524730978 9.1684523795e-07 0.0012408849507 0.0027087199269 0.0041373804561 0.0052891738014 0.0060218636645 0.0063944540452 
0.0066465589916 0.0068077976815 0.0068590868032 0.006248938269 0.0054339787457 0.0045829656301 0.0037771773059 0.0030782039394 0.002823806426 
0.0017129051412 0.002590260061 0.00075303806534 3.1467788176e-05 -0.00029248762439 -0.0010826826983 -0.0023838755151 -0.0037661477691 -0.0052445609123 
0.00081990350736 0.0018046604819 0.0028831987293 0.0040239680093 0.0052971945843 0.006686257082 0.0080063047353 0.0089282214176 0.0089944689535 
0.0080117422622 0.0063117942773 0.0043512526317 0.0025583123061 0.0013152729334 0.00070513013149 0.0014381308501 0.00052512548564 0.0020773868309 
-0.00095139207269 -0.0022181759414 -0.0032672861125 -0.0042168120854 -0.0047661199933 -0.0043566765962 -0.0034178544884 -0.0027666204551 -0.0025860069727 
-0.0026165408199 -0.0025275951484 -0.0023171477078 -0.0019153808826 -0.0010161324026 0.00064244867826 0.002801984403 0.0049611243885 0.0068307491019 
0.0084072665777 0.0091949501075 0.0084227033658 0.0068363393657 0.0054683575872 0.0042455533403 0.0029567499296 0.0015916271223 0.001663482195 
0.001462737142 0.0010404682034 5.8647347032e-06 -0.001683435883 -0.0035733315162 -0.0050123506226 -0.0058166255476 -0.0060156388208 -0.0057533432264 
-0.0054668306839 -0.0051423368277 -0.0045908704633 -0.0040331138298 -0.0034947625245 -0.0029293998959 -0.0015084816259 -0.0022842585458 -0.0010470647636 
-0.00060359756753 5.1008653827e-05 0.0012044289906 0.0019913041615 0.0027038168628 0.0031285026926 0.0033359716181 0.0034855329432 0.003643164353 
0.0037990118726 0.0039811484166 0.0043208418647 0.0034134004381 0.0039651680272 0.002749854757 0.0016290042404 0.00047852115813 -0.00045402997648 
-0.0012443344895 -0.0019944431842 -0.0026750096004 -0.0032205250463 -0.0035616860841 -0.0036419372191 -0.0035185921588 -0.0032546675648 -0.0027977575664 
-0.0022281915299 -0.0013276692916 -0.0016671986377 -0.00091638668528 -0.00043598569027 0.00012970550779 0.00093829487196 0.002021604043 0.0031862994656 
0.0043081679614 0.0052850487409 0.0058906176127 0.0060526827583 0.0060022836551 0.0060469508171 0.0062275105156 0.0068060063059 0.0053774757544 
0.0044647761388 0.0035974064958 0.0043389165075 0.0046454014955 0.003435544495 0.0024190658587 0.0032863140223 0.00140699232 -0.00018977455547 
-0.00095503611647 0.00086031341925 0.0017982223071 0.0028012663824 0.0038501303643 0.0050227576867 0.0063051156467 0.0076052924851 0.0087693168316 
0.0092656982597 0.0085464750882 0.0070720305666 0.0054993290687 0.0040586447576 0.0027760496014 0.0038351395167 0.0020677844004 0.003173312929 
0.00082838533262 -0.00041876576734 -0.0015532315156 -0.0024581403704 -0.0032050095615 -0.0036143315374 -0.0032787689124 -0.002537110413 -0.0018179886043 
-0.0015831527999 -0.0016217255034 -0.0016277526447 -0.0015026832261 -0.0011595319083 -0.00037340511335 0.0011459924135 0.00319141816 0.0051168306964 
0.0065382319735 0.0075675507542 0.0079606286017 0.0072008841671 0.0058254116448 0.0046310161706 0.0036716319155 0.0027082833112 0.0016728291521 
0.0005203709843 0.00075717759682 0.00030628940294 9.4921124401e-05 -0.00013537069754 -0.00068183741678 -0.0020216549892 -0.0036548498902 -0.0048706086818 
-0.0054572556401 -0.0053011035547 -0.0054483276326 -0.0053961162145 -0.0051199308364 -0.0048061490525 -0.0045955369715 -0.0043782294961 -0.0038428302505 
-0.0029696783749 -0.0013611670001 -0.0018755796482 -0.00085791273159 -0.005604121252 -0.0051610301016 -0.0045314360759 -0.0044833005522 -0.0040644045803 
-0.003132288577 -0.0027581638424 -0.0025692070485 -0.0023477248615 -0.0022643138655 -0.0021779953386 -0.0017466072459 -0.0012085309718 -0.00063460057208 
0.00025650137832 6.6680513555e-06 0.00044185403749 0.00074973738083 0.0019745278987 0.0010544038814 0.0028756450629 0.0037965824013 0.0047897769837 
0.0058535574935 0.0069714376004 0.0081306042848 0.0088685536757 0.0084054038161 0.0069603223354 0.0060329475673 0.0051236165455 0.002300895052 
0.0032507440386 0.0039759868523 0.0015530225355 0.00078077364014 -0.00013518999913 -0.0011270544201 -0.0018760514504 -0.0024218251929 -0.0029092095792 
-0.0027308809804 -0.0023365271045 -0.002014236321 -0.00082148399815 -0.0010142077663 -0.00075902236858 -0.00058973586783 -0.00013449646576 0.0006998362951 
0.0020112084894 0.0036035321536 0.0049049229128 0.005650400091 0.0066361625213 0.0065524216043 0.0058628604747 0.0047123511322 0.0037387174089 
0.0030331619782 0.0023788878461 0.0016356682172 0.0008878770459 -0.0014559667034 -0.00203351237 0.0068507249234 0.0065338206477 -0.0022711707861 
-0.0034864437184 -0.0045543604065 -0.0050525584957 -0.0049091884866 -0.0047739234287 -0.004968856927 0.0014826521365 0.0021522325987 0.0025191009045 
0.0027799188974 0.003141190391 0.0036001913249 0.0040996235912 0.0045020979596 0.0050082938978 0.0045131435618 0.0043452885002 0.003909233259 
0.003265367006 0.0025468637177 0.001539570716 0.00050288975535 -0.00026605736866 -0.0008466388972 -0.001500574348 -0.0022198694351 -0.0028467116063 
-0.0032768328674 -0.0034702714765 -0.0034266830771 -0.0033469509217 -0.0031000069575 -0.0025980640203 -0.0020819345664 -0.00069852348497 -0.0011534452933 
-0.0002130645571 0.00025950012059 0.00058074411936 0.0011888227746 -0.001646399789 -0.0010313410457 -0.00035059611037 -0.00058434349921 -0.00065408216324 
-0.00092808574846 -0.0012150767725 -0.0019040986081 -0.0028561738785 -0.0039423398557 -0.0046427503694 0.0048887622543 0.0056157564977 0.0059941165382 
0.0060223536566 0.0059683027988 0.0066525241127 0.0070741649251 0.0076398795936 0.0069838205042 0.0068224344868 0.0063429159345 0.0054479157552 
0.0044078128412 0.0044710865244 0.0030905824387 0.0039597329451 0.0022396869026 0.0012564689969 -0.0022401589279 -0.0019266784657 -0.0017033658922 
0.0011862562853 0.0038109212765 0.0028383061581 0.0018477197445 0.00090371801707 0.00016124852664 -0.0002624890094 -0.00056890493579 -0.0010542245436 
-0.0017599426501 -0.0024478455307 -0.0029266444035 -0.0031997071928 -0.0028723959113 -0.0032012034208 0.00039775152436 -0.00021658215519 0.00089656832279 
0.0018561986799 0.0022413108381 0.0026160229463 0.003209067625 0.0039900756092 0.004735971801 0.0050183820228 0.0056189034367 0.0055796533125 
0.0047977777431 0.0038146509323 0.0030145792989 0.0024842033163 0.0020222073654 0.0016102481556 0.007078794064 0.0065819440642 0.0056886839448 
-0.00093657945399 -0.0014789773074 -0.0016655542131 -0.0026752241538 -0.0027510590735 -0.0025024217903 -0.0023228518354 -0.0025156794582 0.0079166421201 
0.0046436209232 0.0052864609752 0.006248491467 -0.0011907231528 0.0072490678867 -0.0029069786542 -0.0029178124969 -0.0028172636521 -0.0069460207596 
-0.0051097453106 -0.00090597827026 5.9699683334e-05 -6.3895771746e-05 -0.0032283028122 -0.0032255300903 -0.002543932409 
Disp_X 1 1114 double
0 0 0.0017648171633 -0.00076916912803 0.0028743373696 0.0011935209623 0 -0.0052973376587 0 
-0.015675969422 -0.0073423814029 -0.024170193821 -0.0052800215781 -0.025731204078 0 -0.022324107587 0 -0.018065158278 
0 -0.013800214045 0 -0.010128090158 0 -0.0082164146006 0 -0.0071740471758 0 
-0.0058005205356 0 -0.0040503703058 0 -0.0024087429047 0 -0.0010841730982 0 -6.2827923102e-05 
0 0.00074170506559 0.00014783840743 0.0022114210296 0 0.0035950033925 0 0.0043647182174 0 
0.0044707506895 0 0.0033735753968 0 0.0021700451616 0 0.0025543593802 0 0.0064855576493 
0 0.010403603315 0 0.012454999611 0 0.013174845837 0 0.012986419722 0 
0.012631855905 0 0.012090211734 0 0.011257371865 0 0.010082656518 0 0.0086059235036 
0 0.0070479786955 0 0.0047228643671 0 0.0015629120171 0 -0.0014735973673 0 
-0.0030103554018 0 -0.0026490273885 0 0 -0.001825504587 -0.0039947368205 0 0.00080536719179 
0 0.0033363245893 0 0.0051844725385 0 0.0071047064848 0 0.0094142835587 0 
0.01169799827 0 0.013667874038 0 0.01505253464 0 0.015465253964 0 0.014721471816 
0 0.013454723172 0 0.01262667682 0 0.01215667557 0 0.012119484134 0 
0.011029034853 0 0.0085298325866 0 0.0063606481999 0 0.0068228766322 0 0.0099202012643 
0 0.014514659531 0 0.019336063415 0 0.024832274765 0 0.030568599701 0 
0.019668357447 0 0.015224175528 0 0.011446029879 0 0.0080942763016 0 0.005894924514 
0 0.0035481464583 0 0.00052151008276 0 -0.0024534820113 0 -0.0047307191417 0 
-0.0023860249203 0 -0.0035268731881 -0.0074409446679 -0.0093304729089 -0.01052178815 -0.015485549346 -0.0096705174074 -0.019432347268 
0 -0.022744245827 0 -0.023544948548 0 -0.024956654757 0 -0.026986967772 0 
-0.029241852462 0 -0.029920380563 0 -0.026701152325 0 -0.022083286196 0 -0.016985841095 
0 -0.013295251876 0 -0.011316488497 0 -0.010466460139 0 -0.0093219969422 0 
-0.0084931747988 0 -0.0071461941116 0 -0.0058628688566 0 -0.0045828782022 0 -0.004338091705 
0 -0.004548186902 0.0030168478843 0.0040566660464 -0.0065787388012 -0.025875067338 -0.039541527629 -0.043551579118 -0.040968552232 
-0.033974982798 -0.024746820331 -0.016546521336 -0.012550443411 -0.011194842868 -0.0088681187481 -0.0056765149347 -0.0030234043952 -0.0010487590916 
9.0162364359e-05 0.0012123087654 0.0031662024558 0.0056035113521 0.0076308711432 0.0079886941239 0.0057822428644 0.0022962619551 0.0049533941783 
0.011275123805 0.016462272033 0.019608223811 0.021117864177 0.021414481103 0.021318642423 0.021007917821 0.019856955856 0.017839955166 
0.01513609197 0.011978084221 0.0081999702379 0.0040461523458 0.00018578708114 -0.0027189857792 -0.0036122498568 -0.000472914282 -0.00061478605494 
-0.0045327902772 0.0033899946138 0.0075171878561 0.011770603247 0.016446372494 0.021323833615 0.024822771549 0.026437915862 0.02653988637 
0.024845985696 0.022706849501 0.020922811702 0.019826542586 0.019072510302 0.017029661685 0.013269597664 0.010958876461 0.012008519843 
0.016333954409 0.023148350418 0.031476628035 0.040000073612 0.047988772392 0.026203788817 0.029527617618 0.019171208143 0.010819525458 
0.0054304599762 0.0020885609556 -0.00063570786733 -0.003582457779 -0.0052313543856 -0.0036345010158 -0.0059266854078 -0.011981900781 -0.018858013675 
-0.024866856635 -0.029884196818 -0.032973356545 -0.035245228559 -0.039770293981 -0.045726925135 -0.048638172448 -0.045318260789 -0.037223976105 
-0.027661444619 -0.020343372598 -0.01682712324 -0.015277352184 -0.013843396679 -0.01225666143 -0.010254097171 -0.0085212998092 -0.0073040826246 
-0.0076523232274 -0.0081967422739 -0.0073693883605 0.040915638208 0.053908195347 -0.054604265839 -0.045049857348 -0.058785375208 -0.055585391819 
-0.046388641 -0.033977847546 -0.022210806608 -0.015689421445 -0.01368700061 -0.01087283995 -0.006507714279 -0.0029068484437 -0.00091369700385 
-0.00012294387852 0.00083294860087 0.0036072896328 0.007269599475 0.010225347243 0.011023066007 0.009082460776 0.0053365845233 0.01492888201 
0.0086584482342 0.020321717486 0.023890957236 0.025870302692 0.026749022305 0.027183961123 0.027367733419 0.026546314359 0.024312106892 
0.020824329928 0.016456117854 0.011672941037 0.0060904519632 0.00049071625108 -0.0036274387967 -0.0032899409998 0.0013173838379 0.0070663103834 
0.0051739332266 0.0040199244395 0.003898432944 0.038995966315 0.052580397576 0.028914481401 0.014325464144 0.0039714276791 -0.0011890864698 
-0.0028747618198 -0.0042770886794 -0.0050481832586 -0.0080202659592 -0.0047761732712 -0.013778547756 -0.020296204835 -0.027029840276 -0.032877147198 
-0.036364588886 -0.040271818638 -0.048537999392 -0.058803446591 -0.06378403306 -0.059982981533 -0.049129519612 -0.036609273404 -0.025363586843 
-0.019405175 -0.016774250194 -0.014731261879 -0.012523973361 -0.010409578681 -0.0086688324809 -0.0075780735351 -0.0087421787903 -0.010209053755 
-0.0094810407609 -0.00613231631 -0.001477700891 0.0034853371326 0.0088149476796 0.015128555708 0.02218869701 0.029124621302 0.033870339394 
0.035774264485 0.035280708224 0.032594136894 0.028866384178 0.025971382856 0.024097828194 0.022572539747 0.019286315888 0.013989262283 
0.011719356291 0.013284404762 0.019048973918 0.028403978795 0.039269465953 0.048449791968 0.057234298438 0.063213162124 0.063826829195 
0.041210845113 0.058330457658 -0.0046079619788 -0.0050082686357 0.0075583774596 0.0052612740546 0.012279731221 0.017738720402 0.022622607648 
0.026193289086 0.028422813863 0.029718581587 0.030625706539 0.031437210739 0.031094843522 0.029083656147 0.025264164433 0.019727822393 
0.014168377966 0.0085495971143 -0.0055499523878 -0.0028961175121 -0.0039034781512 0.0019686096348 0.0074203009717 0.0056718960404 -0.068079993129 
-0.059577807784 -0.071268804371 -0.066886290908 -0.056107770652 -0.041849762201 -0.028168153018 -0.019386146218 -0.015498839319 -0.011979115196 
-0.0061381375417 -0.0021448791958 -0.00092887011124 -0.0010562562384 8.4734732809e-05 0.0040265149437 0.0092924879864 0.013506343588 0.015324934386 
0.014421724714 0.011387197301 0.0084012160078 0.0072484812699 0.0073319934309 0.007825832814 0.010237660259 -0.03720992431 -0.050647038966 
-0.03346388042 -0.044264357537 -9.6870709967e-05 0.0025211332832 0.017766740173 0.0033919236157 -0.0039529404603 -0.0054509462789 -0.0054230964743 
-0.005221624393 -0.005082229618 -0.0046756668016 -0.0047431872226 -0.0045164497569 -0.0057103834115 -0.0087455604225 -0.013984924182 -0.020012361929 
-0.026406258345 -0.032081253827 -0.035718161613 -0.042806241661 -0.055686857551 -0.068800121546 -0.075103789568 -0.071471743286 -0.059102885425 
-0.044265743345 -0.030220057815 -0.021636780351 -0.017298327759 -0.014308590442 -0.011662814766 -0.0096130343154 -0.0082172118127 -0.0074935331941 
-0.0090268366039 -0.011858667247 -0.010594521649 -0.0073539800942 -0.0026375434827 0.0026271846145 0.009002007544 0.016980925575 0.026143150404 
0.034608103335 0.040189906955 0.042458109558 0.041274406016 0.037805426866 0.033225122839 0.029335116968 0.026616122574 0.024585222825 
0.022120799869 0.011489817873 0.012743209489 0.014023491181 0.021646741778 0.033610384911 0.045201618224 0.051890190691 0.059379599988 
0.066271677613 0.069159992039 0.066266588867 0.048874247819 0.058451581746 0.033901330084 0.015284021385 0.001688833232 -0.0053995526396 
-0.0068582263775 -0.006292253267 0.067967519164 0.062619782984 0.067655213177 0.062105055898 0.047605644912 0.052233822644 0.037549264729 
0.023936862126 0.0091295642778 -0.0032142784912 -0.0075885299593 -0.0078932438046 -0.0061423736624 0.016446169466 0.020021364093 0.014744996093 
0.019746024162 0.024340754375 0.027898656204 0.030252119526 0.031859409064 0.033146318048 0.034200217575 0.034411966801 0.033039461821 
0.02911968343 0.022757997736 0.015894863755 0.0096726184711 0.0042218500748 -0.0030714473687 -0.00026054051705 -0.0059643834829 -0.0081284176558 
-0.0073758102953 -0.0041385740042 0.0021414258517 0.0059138950892 0.0032131467015 -0.0037238339428 -0.0059062093496 -0.018753206357 -0.019630929455 
-0.034508924931 -0.047983177006 -0.059421125799 -0.070476308465 -0.078784234822 -0.081441134214 -0.076573878527 -0.064995698631 -0.049626979977 
-0.034258231521 -0.023560672998 -0.017293358222 -0.012842944823 -0.0081812683493 -0.0018127858639 -0.0013725692406 -0.002444869373 -0.00028316918178 
0.0055656158365 0.012904809788 0.018682222813 0.021454615518 0.021850423887 0.02066203393 0.017889315262 0.015152147971 0.012894887477 
0.0091715157032 0.011692415923 0.0094435717911 0.012161228806 -0.0025786443148 -0.0043792533688 -0.0048977159895 -0.0052690706216 -0.0043689087033 
-0.0043529355898 -0.004600585904 -0.0050377855077 -0.0061416816898 -0.0082215899602 -0.012395796366 -0.017755243927 -0.023631125689 -0.029013175517 
-0.034253310412 -0.04501292482 -0.061152458191 -0.076955400407 -0.084229975939 -0.080484874547 -0.067464843392 -0.051553424448 -0.035503026098 
-0.024445122108 -0.01846608147 -0.014123904519 -0.010950736701 -0.008806980215 -0.0077451402321 -0.007564577274 -0.0091915829107 -0.01202482637 
-0.00845631212 -0.011502318084 -0.0037288984749 0.0015521923779 0.0084915775806 0.017925573513 0.028426211327 0.038053929806 0.044650334865 
0.04729296267 0.045375041664 0.04077000916 0.035763021559 0.031641948968 0.028242059052 0.025825560093 0.023723071441 0.023072434589 
0.017817340791 0.021990383044 0.014180980623 0.011622656137 0.011127481237 0.014442623593 0.024081707001 0.039698898792 0.053933050483 
-0.013840462081 -0.014331272803 -0.0055625434034 -0.0048821750097 -0.003925990779 -0.0040641287342 -0.0042116683908 -0.0046971244738 -0.0050547472201 
-0.005607994739 -0.0067491554655 -0.0099654244259 -0.014580818824 -0.020089274272 -0.025838760659 -0.033581208438 -0.046145401895 -0.06370742619 
-0.083725839853 -0.090961031616 -0.086626157165 -0.07364308089 -0.056988034397 -0.040732160211 -0.028228450567 -0.020560482517 -0.015003723092 
-0.01094852481 -0.0084497770295 -0.0074812462553 -0.0077503514476 -0.0094155715778 -0.011926223524 -0.014127627015 -0.015877617523 -0.015770832077 
-0.014508717693 -0.012065209448 -0.0090321414173 -0.0042740572244 0.00091886986047 0.0081462012604 0.017666382715 0.028207361698 0.038246836513 
0.046118177474 0.049851804972 0.046108789742 0.04093106091 0.036312635988 0.032526709139 0.029155740514 0.026108644903 0.025911480188 
0.020582862198 0.02543223463 0.01545730792 0.012213902548 0.011123161763 0.010790635832 0.014237435535 0.024221962318 0.045605044812 
0.016443416476 0.021283194423 0.025823766366 0.029429957271 0.031852949411 0.033654216677 0.035043168813 0.036048222333 0.03701550886 
0.036454916 0.032614063472 0.025669740513 0.017736285925 0.010666103102 0.005862345919 0.0028699508402 -0.004821929615 -0.0010721464641 
-0.0075343246572 -0.0094355382025 -0.011013682932 -0.0092341946438 -0.0044444315135 0.0011554203229 0.0037011224777 0.00066591671202 -0.0083306822926 
-0.0219819583 -0.037051096559 -0.051985569298 -0.065617911518 -0.077857643366 -0.086559295654 -0.088969141245 -0.083667971194 -0.071489244699 
-0.055203985423 -0.038631673902 -0.026487117633 -0.018466807902 -0.012807849795 -0.0085911080241 -0.0053954068571 -0.002582373796 -0.0034302163403 
-0.001899230876 -0.0023594989907 -0.0037400596775 -0.0039649032988 0.00065711495699 0.009268194437 0.018834507093 0.026542263106 0.029832720757 
0.030415054411 0.030918659642 0.029953483492 0.026820583269 0.022193877026 0.016841545701 0.011224533431 0.013075629249 0.010279333219 
0.010811540298 0.01328436099 -0.005047022365 -0.0052754152566 -0.0077089113183 -0.011835076846 -0.017198992893 -0.023283068091 -0.032003570348 
-0.044551089406 -0.060170397162 -0.075613960624 -0.08995629847 -0.094935074449 -0.077954031527 -0.06177662313 -0.045749198645 -0.03234827891 
-0.023315977305 -0.016515746713 -0.011537792161 -0.0085021136329 -0.0074350372888 -0.0076788552105 -0.0090347537771 -0.011337730102 -0.012886442244 
-0.01433400251 -0.016134362668 -0.015504802577 -0.015341823921 -0.013814543374 -0.012367339805 -0.0093947872519 -0.0048834788613 -1.4892845002e-06 
0.0064752334729 0.015103803948 0.02585769631 0.036079015583 0.043755427003 0.04774645716 0.039423961192 0.042990267277 0.035800371319 
0.032697215676 0.029387891293 -0.092318400741 -0.087164372206 0.029496470466 0.024907022715 0.02962699905 0.018953001127 0.012073751539 
0.010513296351 0.017613053322 0.022669449449 0.027168031782 0.030733320862 0.033075504005 0.034958038479 0.036364991218 0.037232328206 
0.038691755384 0.03942373395 0.035875361413 0.028165623546 0.018306847662 0.0094041032717 0.0073016122915 -0.0042403652333 0.00017644044419 
-0.0085965888575 -0.011415431276 -0.012370458804 -0.012828250416 -0.010431627743 -0.0058283088729 -0.0011823672103 0.00076508335769 -0.0024466735777 
-0.011361026205 -0.024567268789 -0.039381783456 -0.054793681949 -0.069481052458 -0.082365810871 -0.091265141964 -0.093716263771 -0.088533133268 
-0.076043263078 -0.058745972812 -0.041518121958 -0.027754237875 -0.019005114213 -0.012642772868 -0.0083182901144 -0.0056170313619 -0.0040021720342 
-0.0030186672229 -0.0032569216564 -0.0028728267644 -0.0032390363049 -0.0047585330904 -0.0061312071048 -0.0047197365202 0.0033592153341 0.014714153484 
0.025644922629 0.038310628384 0.039262630045 0.037224519998 0.040463231504 0.04246064648 0.039917416871 0.033307831734 0.02438451536 
0.016276499256 0.011166069657 0.011197878048 0.011302162893 0.059715114534 0.062837287784 0.059601265937 0.051624700427 0.040507223457 
0.035490650684 0.025314755738 0.014725510962 0.0024870971683 -0.0075114862993 -0.0094779757783 -0.0076319170184 -0.0062315054238 -0.004864868708 
-0.003484856803 -0.0035637565888 -0.0037076508161 -0.0043596071191 0.023744415492 0.018409948796 0.028178898618 0.03158981353 0.033688034862 
0.03551479429 0.036875735968 0.037733774632 0.039400540292 0.042036645114 0.040577888489 0.030693817884 0.019319541752 -0.0040531684645 
-6.0654161643e-05 0.0048771500587 -0.0076952995732 -0.011203338392 -0.013309339061 -0.014440972358 -0.014079841785 -0.011862969957 -0.0075997058302 
-0.0039225067012 -0.002523899544 -0.0035691873636 -0.026748415083 -0.015522505157 -0.040369935334 -0.055842839181 -0.07078102231 -0.08418161422 
-0.093323804438 -0.096325129271 -0.091802977026 -0.078230932355 -0.042537149042 -0.05911353603 -0.028815114871 -0.019471121952 -0.01260156557 
-0.0081781633198 -0.0052747903392 -0.0041341991164 -0.0034315881785 -0.0084291836247 -0.0058059203438 0.047275815159 0.047694370151 0.012561530806 
0.020453067496 0.033855959773 0.045990694314 0.052634947002 0.05244166404 0.047633159906 -0.0042893630452 -0.0057120653801 -0.0092009315267 
-0.014548011124 -0.021102491766 -0.030264949426 -0.041523892432 -0.054534085095 -0.066371545196 -0.094417713583 -0.095280453563 -0.096333198249 
-0.091968528926 -0.081441268325 -0.066571012139 -0.050902359188 -0.036374140531 -0.025771923363 -0.017636928707 -0.011903462932 -0.008530347608 
-0.0073434878141 -0.0073547493666 -0.0083910236135 -0.010329959914 -0.011788344011 -0.012833369896 -0.013750129379 -0.015580529347 -0.016217328608 
-0.014287412167 -0.012785866857 -0.011627433822 -0.0090698627755 -0.0087409839034 -0.0058877943084 -0.0039757578634 -0.0043488503434 -0.0048120911233 
-0.0069084893912 -0.0079903462902 -0.0038930256851 0.010276585817 0.023055391386 0.03007732518 0.012449089438 0.022744376212 0.033183544874 
0.040956772864 0.045248668641 0.045787021518 0.04435428232 0.043674968183 0.043747954071 0.040781036019 0.038069553673 0.035456884652 
0.032716382295 0.033503338695 0.028957625851 0.032148528844 0.024338278919 0.018607191741 0.0071348231286 -0.0024944068864 -0.0090771308169 
-0.0037482606713 -0.096956126392 -0.093255370855 -0.083704344928 -0.069934561849 -0.054708726704 -0.03939146921 -0.027024241164 -0.01750815101 
-0.01103250403 -0.0077429646626 -0.0068054553121 -0.0069141602144 -0.01138149295 -0.011239614338 -0.012953084894 -0.014641738497 -0.010917613283 
-0.0048822192475 -0.0080679180101 -0.013082049787 -0.019693726674 -0.029443493113 -0.040154073387 -0.04944286868 -0.054580591619 -0.041462566704 
-0.029119778425 -0.019498402253 -0.012662616558 -0.0079268896952 -0.005093134474 -0.0039032604545 0.040083967149 0.037847537547 0.035908706486 
-0.015386926942 -0.015349178575 -0.014707677066 -0.0060988203622 -0.0086766313761 -0.004800089635 -0.004667179659 -0.005714233499 0.039739042521 
0.033801838756 0.035320866853 0.036719728261 -0.0071979635395 0.037885606289 -0.0072208079509 -0.0092614488676 -0.0061313081533 -0.0042384755798 
-0.020460391417 -0.0055895694532 0.013887164183 0.013289626688 -0.0096289785579 -0.0077953105792 -0.011767326854 
Disp_Y 1 1114 double
0 0 0.011082600802 0.010339551605 0.010838867165 0.0072425245307 0 0.0015349806054 0 
-0.0064921746962 -0.0071383882314 -0.0092875910923 -0.0078481109813 -0.011358761229 0 -0.010292800143 0 -0.0080710574985 
0 -0.006464516744 0 -0.0039915470406 0 -0.0022826462518 0 -0.0012291976018 0 
-0.00043485782226 0 0.00084863841766 0 0.0021243183874 0 0.0030041430146 0 0.0032270085067 
0 0.0035862028599 0.0037790713832 0.0033263214864 0 0.00195543468 0 0.001435127575 0 
0.0017613851232 0 0.0027808761224 0 0.0036310951691 0 0.002668029163 0 0.0012011295184 
0 -0.00015751371393 0 -0.0011882479303 0 -0.0020002927631 0 -0.0026592363138 0 
-0.0035007805564 0 -0.0040956651792 0 -0.0050145075656 0 -0.0051262187771 0 -0.0056707374752 
0 -0.0055291699246 0 -0.0045361770317 0 -0.003381687915 0 -0.00066001311643 0 
0.002984265564 0 0.006957795471 0 0 -0.0085192518309 -0.007106339559 0 -0.0084579829127 
0 -0.0091215921566 0 -0.0085240257904 0 -0.0070466189645 0 -0.006803358905 0 
-0.0061561958864 0 -0.0056997011416 0 -0.0063161244616 0 -0.0060797310434 0 -0.0072179655544 
0 -0.0061014005914 0 -0.0051575871184 0 -0.0036759050563 0 -0.0038703260943 0 
-0.0038016200997 0 -0.0039433743805 0 -0.0040645012632 0 -0.0040521509945 0 -0.0035417901818 
0 -0.0031545963138 0 -0.001504876418 0 0.001413354883 0 0.0058537498116 0 
0.0056802835315 0 0.006539855618 0 0.0042834309861 0 0.0013202477712 0 -0.0011649506632 
0 -0.002214200329 0 -0.0022949227132 0 -0.0025004213676 0 -0.0033347259741 0 
-0.0022733230144 0 -0.003595248796 -0.010259485804 -0.006421990227 -0.012012342922 -0.009376113303 -0.012322222814 -0.0098289009184 
0 -0.0090582957491 0 -0.0082025043666 0 -0.0082622040063 0 -0.0072819963098 0 
-0.0060859797522 0 -0.004613653291 0 -0.0042781820521 0 -0.0040208203718 0 -0.0041126040742 
0 -0.0048580388539 0 -0.0050212224014 0 -0.0051743132062 0 -0.0045697009191 0 
-0.0054368162528 0 -0.0059838066809 0 -0.0067171771079 0 -0.0075084730051 0 -0.0076235230081 
0 -0.0077936179005 0.0097275292501 0.016028612852 -0.00043477184954 -0.012270927429 -0.01800824143 -0.020038714632 -0.018738182262 
-0.015628404915 -0.011463672854 -0.0070575079881 -0.0030484106392 -0.00055094721029 0.0011492157355 0.0027395072393 0.004184235353 0.0049974559806 
0.0049406946637 0.0038824565709 0.0018707824638 8.0694124335e-05 -0.00064493494574 -0.00029242233722 0.0011890315218 0.0033943396993 0.0027984622866 
0.00078987062443 -0.00077861535829 -0.0019942098297 -0.0029554381035 -0.0039212028496 -0.0053230668418 -0.0064117689617 -0.0076925768517 -0.0088624665514 
-0.009644924663 -0.0091076418757 -0.0072859022766 -0.0049235438928 -0.00082882464631 0.0040340553969 0.0094900736585 0.015259453095 -0.012639794499 
-0.012089499272 -0.013236287981 -0.013512327336 -0.013110552914 -0.012149452232 -0.011108603328 -0.010329158045 -0.010725122876 -0.0099677704275 
-0.0092511577532 -0.0085059097037 -0.0068514305167 -0.0053063067608 -0.0046964329667 -0.004728897009 -0.0052818260156 -0.0057904697023 -0.0058822492138 
-0.0052973157726 -0.0035692504607 -0.00017851579469 0.002933673095 0.0056081702933 0.0094763273373 0.008376725018 0.007769451011 0.004969581496 
0.00088642444462 -0.0017167470651 -0.0023112117779 -0.0022342968732 -0.0022470962722 -0.0021749825682 -0.0029548204038 -0.0044678947888 -0.0067582423799 
-0.0086493827403 -0.010893524624 -0.011862693354 -0.011275948025 -0.0092686461285 -0.0075764525682 -0.0067223752849 -0.0056683979928 -0.0055935326964 
-0.0052503179759 -0.0061489660293 -0.0071849939413 -0.0078227641061 -0.0080221826211 -0.0088234646246 -0.0095941750333 -0.010442249477 -0.011367375031 
-0.011785441078 -0.011731821112 -0.01132358145 0.0086405007169 0.0073818592355 -0.025580521673 -0.022171109915 -0.026772877201 -0.024989487603 
-0.020211191848 -0.014236625284 -0.0086772432551 -0.0036147898063 -0.00011871644529 0.0021066521294 0.0039771599695 0.0053288512863 0.005885894876 
0.0050200656988 0.0024473380763 -0.00095610326389 -0.0038723470643 -0.0053389589302 -0.0052133626305 -0.0039091412909 -0.0016040651826 -0.00024405530712 
0.0012146228692 -0.001766387606 -0.0029734533746 -0.0039137168787 -0.004938127473 -0.0063119009137 -0.0080038337037 -0.009967494756 -0.01174070593 
-0.012860463001 -0.012760367244 -0.011471626349 -0.009847022593 -0.0041213501245 0.001969381934 0.0090592382476 0.015188965015 0.015598547645 
0.0088390298188 0.0015856551472 -0.00080760003766 0.0095184501261 0.0069390917197 0.0095350546762 0.0078127495944 0.0037269114982 -0.00017175351968 
-0.0019576181658 -0.0020091566257 -0.001523821149 -0.0025566709228 -0.0018766921712 -0.003641047515 -0.0053945607506 -0.0078421346843 -0.01077290345 
-0.012666932307 -0.011445856653 -0.0090783657506 -0.0093745039776 -0.0093885175884 -0.0079431198537 -0.0064585646614 -0.0049961316399 -0.0060364375822 
-0.0075947227888 -0.0089024072513 -0.0096721770242 -0.010430200957 -0.011123415083 -0.011862820946 -0.01279703062 -0.013455642387 -0.013747143559 
-0.013818566687 -0.014567070641 -0.015480615199 -0.016167655587 -0.016272716224 -0.015939403325 -0.014920942485 -0.01385252364 -0.013119930401 
-0.012247582898 -0.011230356991 -0.010114866309 -0.0092204706743 -0.0077658551745 -0.0062413704582 -0.0054148766212 -0.0054955082014 -0.0062185726129 
-0.006888769567 -0.0068367426284 -0.0055676978081 -0.0029707453214 0.00061309582088 0.0027759214863 0.0043178102933 0.0043791076168 0.0024120635353 
0.0050858086906 -0.00080817745766 -0.0016290994827 -0.001335933106 0.00013419393508 -0.0012033852981 -0.00037230417365 -0.0015662516234 -0.0029773893766 
-0.0042893602513 -0.0053652189672 -0.0063160997815 -0.0076288436539 -0.0094763515517 -0.011635843664 -0.014155023731 -0.015909180045 -0.01643788442 
-0.01591094397 -0.015355326235 -0.00055763393175 -0.0068488558754 0.0063873180188 0.011740674265 0.011906544678 0.0058852564543 -0.029522340745 
-0.026831960306 -0.030026322231 -0.028050540015 -0.023185838014 -0.016480665654 -0.0098593151197 -0.0045164707117 -0.00056059216149 0.0018514802214 
0.0040574972518 0.005891112145 0.0058812471107 0.0035360462498 -0.00088826852152 -0.0058660586365 -0.0098186628893 -0.012072701007 -0.011901670136 
-0.010498503223 -0.0084757898003 -0.0062517076731 -0.0053883418441 -0.0022312358487 -0.0050228610635 -0.0012225249084 -0.019343236461 -0.02311020717 
-0.017561594024 -0.020704876631 -0.012030507438 -0.01571347937 0.0056867380626 0.003583505284 0.00058132398408 -0.0015103010228 -0.0019541343208 
-0.0017227265052 -0.0015277686762 -0.0014910836471 -0.0017711614491 -0.0016152298776 -0.0021946835332 -0.0030618112069 -0.004090375267 -0.0055980216712 
-0.0077624102123 -0.010325587355 -0.011291385628 -0.0098516251892 -0.009163829498 -0.010887241922 -0.012159977108 -0.010815145448 -0.0083826389164 
-0.0057428665459 -0.0058337678201 -0.0069541833363 -0.0085417116061 -0.0095581877977 -0.01042222511 -0.011239601299 -0.011985412799 -0.012803908437 
-0.013663031161 -0.014616117813 -0.015421325341 -0.01633060351 -0.01721341908 -0.017840227112 -0.017841752619 -0.017288640141 -0.016574341804 
-0.0158686582 -0.015166793019 -0.013879942708 -0.012498162687 -0.010891657323 -0.0094912275672 -0.0080368677154 -0.0068669491448 -0.0059683271684 
-0.0056853410788 -0.0070804269053 -0.0066855908372 -0.006747696083 -0.0051235882565 -0.0022930274718 0.00067013385706 0.0021988237277 0.0021967361681 
0.00082271383144 -0.0017856454942 -0.0051435925998 -0.0056050424464 -0.0087942257524 -0.0019389432855 9.656889597e-05 -2.1446418032e-05 -0.0009514328558 
-0.0019435083959 -0.0021572571713 -0.0051028952003 -0.0019575038459 -0.0084908949211 -0.011628496461 -0.012036182918 -0.014217374846 -0.0099160913378 
-0.0076030665077 -0.0056225582957 -0.0045588836074 -0.0033789288718 -0.0029120109975 -0.0025639920495 -0.0060564717278 -0.0055873803794 -0.0015935123665 
-0.0027151182294 -0.0041606915183 -0.0056013772264 -0.0067951851524 -0.0078199515119 -0.0090116122738 -0.010642241687 -0.012926921248 -0.015936391428 
-0.018454739824 -0.019536741078 -0.019306886941 -0.018565136939 -0.01824262552 -0.016414629295 -0.018473254517 -0.013529676013 -0.0092667471617 
-0.0032335144933 0.0028905526269 0.0067244982347 0.0062008476816 0.0017239430454 -0.0031357358675 -0.0052314237691 -0.011279080063 -0.011926301755 
-0.017276953906 -0.021425496787 -0.024859562516 -0.028389031067 -0.030982246622 -0.031413588673 -0.029476696625 -0.02515126206 -0.018633367494 
-0.011601559818 -0.0058906157501 -0.0021592674311 0.00018284961698 0.0014666807838 0.0043870294467 0.0055645438842 0.00018779720995 -0.0059158904478 
-0.01202968508 -0.016404516995 -0.018885964528 -0.018297955394 -0.016900461167 -0.014915524982 -0.012509054504 -0.011159555987 -0.0091965459287 
-0.0051093236543 -0.0070179253817 -0.0031342187431 -0.0021714603063 0.0040790988132 0.0015381070552 -0.0024044266902 -0.0020730160177 -0.0024151843973 
-0.0029930416495 -0.002106372267 -0.0022843598854 -0.0030364901759 -0.0040221875533 -0.0050683375448 -0.0064005814493 -0.0079621598125 -0.0094673568383 
-0.0094143338501 -0.0083386162296 -0.0097402771935 -0.013396509923 -0.015255729668 -0.013773076236 -0.010358181782 -0.0065632592887 -0.0059317820705 
-0.0060884379782 -0.0072937645018 -0.0082952845842 -0.009388496168 -0.010400938801 -0.011268475093 -0.012159882113 -0.013148993254 -0.01419109758 
-0.017528472468 -0.016625611112 -0.01828529872 -0.018944073468 -0.019246021286 -0.019382217899 -0.019144413993 -0.01818482019 -0.0168230813 
-0.015405833721 -0.013717563823 -0.01172234118 -0.0096504548565 -0.0080301156268 -0.0069389846176 -0.0061309114099 -0.0057743405923 -0.0055302996188 
-0.0052712014876 -0.0050251618959 -0.0058059585281 -0.0064513697289 -0.0067838341929 -0.0063411374576 -0.0048476601951 -0.0024372518528 0.00030972363311 
-0.015867182985 -0.01508877892 -0.0030434592627 -0.0037015164271 -0.0037968531251 -0.0041793431155 -0.0032876632176 -0.0029807554092 -0.0029546944425 
-0.0037176201586 -0.0047613792121 -0.0056943548843 -0.0068321074359 -0.0078418012708 -0.008445167914 -0.0085535533726 -0.0091304015368 -0.012217166834 
-0.0177645199 -0.018509555608 -0.016938697547 -0.012491170317 -0.0077654672787 -0.0059917415492 -0.005339788273 -0.00607573241 -0.0070239799097 
-0.0081264795735 -0.0092803584412 -0.010382493958 -0.011459420435 -0.012599039823 -0.013613961637 -0.014422364533 -0.015877345577 -0.015094484203 
-0.016494777054 -0.017268318683 -0.018106460571 -0.018934959546 -0.019927715883 -0.020907782018 -0.021737022325 -0.021596111357 -0.02042952925 
-0.018599415198 -0.016736159101 -0.014293326996 -0.011875027791 -0.0094501590356 -0.0076038837433 -0.0065388125367 -0.0058317631483 -0.0053367419168 
-0.0043526808731 -0.004834969528 -0.0046494756825 -0.0053935945034 -0.0059440690093 -0.0059957001358 -0.0058544976637 -0.0052985576913 -0.005023912061 
-0.0024258538615 -0.0034000719897 -0.0048787267879 -0.0063878740184 -0.0076727159321 -0.0087415212765 -0.0098718497902 -0.011178463697 -0.013321666978 
-0.016711121425 -0.019988762215 -0.021698059514 -0.021574091166 -0.020584348589 -0.019730454311 -0.020436936989 -0.018958514556 -0.021361647174 
-0.016863182187 -0.01423093304 -0.01093525812 -0.0061678565107 -0.0014518077951 0.00099516217597 0.00037552544381 -0.0030542558525 -0.0074023329653 
-0.012414470315 -0.016704190522 -0.02078391239 -0.024512078613 -0.028246615082 -0.031136946753 -0.031933892518 -0.030583383515 -0.026964139193 
-0.021193731576 -0.014136708342 -0.007953107357 -0.0041492362507 -0.0018828002503 -0.00077126524411 -0.00062242586864 0.0008262002375 -0.0011028613662 
0.0027272650041 0.0032697881106 0.00097142782761 -0.0047210394405 -0.011223522015 -0.016777435318 -0.020383935422 -0.022318605334 -0.021650202572 
-0.020195763558 -0.018560875207 -0.01691101864 -0.014945616014 -0.012305846438 -0.0087836729363 -0.0054167034104 -0.0061526042409 -0.0048635182902 
-0.0035141436383 -0.0026393774897 -0.0039496892132 -0.004988648463 -0.0057619144209 -0.0067259445786 -0.007526924368 -0.0079592475668 -0.0085252728313 
-0.010155862197 -0.014102307148 -0.019577907398 -0.020187105983 -0.022491173819 -0.015352689661 -0.010488335975 -0.0072524133138 -0.0054977876134 
-0.0058457925916 -0.006620013155 -0.0075570768677 -0.0086747873574 -0.0097803166136 -0.010956273414 -0.011955133639 -0.012966858223 -0.013534802943 
-0.013946739957 -0.015541030094 -0.014515485615 -0.016196027398 -0.016813471913 -0.017627000809 -0.018386311829 -0.019482474774 -0.020759435371 
-0.022178657353 -0.023498978466 -0.02374663949 -0.022827139124 -0.021095653996 -0.018984440714 -0.011217025109 -0.013587228023 -0.0089506562799 
-0.0071698073298 -0.0060750059783 -0.023250017315 -0.024726904929 -0.0057360287756 -0.0043385648169 -0.0053354753181 -0.0035903768148 -0.0037622861564 
-0.0051355408505 -0.0027952743694 -0.003691843478 -0.0051469048485 -0.0065882648341 -0.0078043215908 -0.0087949745357 -0.0098290462047 -0.01086414326 
-0.012828457169 -0.016607804224 -0.020714914426 -0.02306589298 -0.023437678814 -0.022257775068 -0.024223901331 -0.021122084931 -0.02265301533 
-0.019338995218 -0.017341749743 -0.014907486737 -0.012209366076 -0.0089437467977 -0.0059996857308 -0.0043824063614 -0.0047502866946 -0.0070587620139 
-0.00894510746 -0.012006659061 -0.01522255037 -0.018836315721 -0.02275861986 -0.026716476306 -0.02990151383 -0.03141958639 -0.030621429905 
-0.027267139405 -0.022048085928 -0.015821808949 -0.009865693748 -0.0060037374496 -0.0038109677844 -0.0025622406974 -0.0022822485771 -0.0026634281967 
-0.002125385683 -0.0033411760814 -0.00060986366589 0.00052207999397 -0.00036649938556 -0.0037869508378 -0.0099349571392 -0.015654705465 -0.018914446235 
-0.020453236997 -0.020801087841 -0.021067874506 -0.020852496848 -0.019539611414 -0.01859026961 -0.016140704975 -0.012721760198 -0.0092890085652 
-0.006503758952 -0.0039207548834 -0.0047118347138 -0.003630501451 -0.0084969513118 -0.011731408536 -0.014719591476 -0.017865402624 -0.017533525825 
-0.014904051088 -0.013530081138 -0.011377009563 -0.0098800621927 -0.007915825583 -0.0052165836096 -0.0038514810149 -0.0043475329876 -0.0045768041164 
-0.00440688245 -0.0040532252751 -0.0044742925093 -0.0042111785151 -0.0037533314899 -0.0028059359174 -0.0051127532497 -0.0063889608718 -0.0074423113838 
-0.0082348575816 -0.0091923698783 -0.010168036446 -0.011931505054 -0.015887798741 -0.021863378584 -0.025041149929 -0.025671275333 -0.020188761875 
-0.021165827289 -0.022716131061 -0.019948208705 -0.018974026665 -0.017311690375 -0.015526895411 -0.013431485742 -0.011568763293 -0.0092364046723 
-0.0079208044335 -0.007841207087 -0.0080090975389 -0.010524261743 -0.0092368852347 -0.012502546422 -0.015788679942 -0.019705088809 -0.024052189663 
-0.02791538462 -0.030041746795 -0.029516749084 -0.025507582352 -0.015580868348 -0.020666670054 -0.010807674378 -0.0073782061227 -0.0053175729699 
-0.0040521384217 -0.0035623277072 -0.0036783497781 -0.0041514807381 -0.0087023694068 -0.0085697751492 -0.015684043989 -0.017046166584 -0.0054785129614 
-0.0061971982941 -0.0081618595868 -0.011169651523 -0.014633444138 -0.01735044457 -0.019865579903 -0.0049320263788 -0.0055321720429 -0.0063952305354 
-0.0072105135769 -0.0078783482313 -0.0089427232742 -0.011046321131 -0.014926982112 -0.019609678537 -0.027783736587 -0.025779172778 -0.025433050469 
-0.02303227596 -0.01822595112 -0.013015622273 -0.0092094698921 -0.0068728583865 -0.0067029665224 -0.0071022138 -0.0077173849568 -0.0084567293525 
-0.0092973476276 -0.010250753723 -0.011140001006 -0.012070257217 -0.012638557702 -0.012901228853 -0.013216500171 -0.016047686338 -0.015266358852 
-0.016755079851 -0.017370887101 -0.017798896879 -0.018527932465 -0.0057708662935 -0.0047750058584 -0.0034460739698 -0.0024864145089 -0.0015853521181 
-0.003443636233 -0.0076411510818 -0.012798514217 -0.0160699673 -0.01752634719 -0.018669145182 -0.024820107967 -0.025849396363 -0.025236334652 
-0.023323306814 -0.020754938945 -0.019079826772 -0.014353610575 -0.014891662635 -0.014263368212 -0.012501842342 -0.010354023427 -0.0084696356207 
-0.0068629090674 -0.0066092517227 -0.0050724903122 -0.0061726081185 -0.0039164093323 -0.0029578791 -0.013639178127 -0.01224478893 -0.0081898458302 
-0.0046308841556 -0.028039259836 -0.025619065389 -0.021136302501 -0.016232592985 -0.012321077287 -0.0094180610031 -0.0084221540019 -0.0082396185026 
-0.0082898624241 -0.0085159605369 -0.0090125892311 -0.0097916908562 -0.012136123143 -0.012190413661 -0.017877083272 -0.016821624711 -0.018468946218 
-0.0049813413061 -0.0057610240765 -0.006753929425 -0.007909193635 -0.0097385570407 -0.012150934897 -0.014796788804 -0.017455864698 -0.013919841498 
-0.010573370382 -0.007932365872 -0.0062446892262 -0.0050724670291 -0.0044806408696 -0.0042820437811 -0.011752896942 -0.0096295299008 -0.0080308197066 
-0.015637716278 -0.014594208449 -0.01385558024 -0.0096476720646 -0.010766130872 -0.0091375615448 -0.0087377764285 -0.008925546892 -0.01141470205 
-0.0069992286153 -0.0074638035148 -0.0084396675229 -0.0046232966706 -0.0095644285902 -0.010146462359 -0.011140987277 -0.0095674833283 -0.0017629532376 
-0.011736515909 -0.001989405835 -0.0025400405284 -0.0026383372024 -0.011373579502 -0.01049759239 -0.012106981128 
Disp_Z 1 1114 double
0 0 0.00074230495375 0.00099410035182 0.00022857845761 -0.0012703837128 0 -0.0021217139438 0 
0.00016970880097 0.0038928645663 0.0059863314964 0.0074646142311 0.010167254135 0 0.013632220216 0 0.014285792597 
0 0.014612286352 0 0.013764091767 0 0.012793135829 0 0.012645243667 0 
0.013335360214 0 0.013485884294 0 0.012988091446 0 0.012041708454 0 0.011075448245 
0 0.010630510747 0.0029215314426 0.0089797554538 0 0.0073150107637 0 0.004699206911 0 
0.0015335784992 0 -0.00099327741191 0 -0.0019994387403 0 -0.00013194794883 0 0.00034804598545 
0 -0.0029188769404 0 -0.0064957621507 0 -0.0094472505152 0 -0.01153584104 0 
-0.013203561306 0 -0.014725885354 0 -0.016345094889 0 -0.017803929746 0 -0.018634747714 
0 -0.019379639998 0 -0.019025335088 0 -0.016892945394 0 -0.012343146838 0 
-0.0067347576842 0 -0.0018708457937 0 0 -0.019909501076 -0.016279432923 0 -0.022693024948 
0 -0.025078982115 0 -0.02676224336 0 -0.027991894633 0 -0.0283432547 0 
-0.027663584799 0 -0.025810701773 0 -0.02301531285 0 -0.01980673708 0 -0.01757982932 
0 -0.015207109042 0 -0.013208015822 0 -0.010518510826 0 -0.0079707670957 0 
-0.0044161849655 0 -0.0012918587308 0 -0.00013723866141 0 0.00022797173006 0 0.0015035914257 
0 0.0049468898214 0 0.00945982337 0 0.016010630876 0 0.028166186064 0 
0.024945093319 0 0.025506163016 0 0.026193177328 0 0.023807574064 0 0.020285552368 
0 0.017532305792 0 0.014618302695 0 0.011570273899 0 0.0087524559349 0 
0.0076171881519 0 0.012771938927 0.0059090582654 0.015907265246 0.0071564815007 0.01711313054 0.00609835051 0.016650473699 
0 0.016507394612 0 0.016086766496 0 0.016241429374 0 0.016033899039 0 
0.014630381949 0 0.012299792841 0 0.008084830828 0 0.0033828390297 0 0.00092495896388 
0 0.00060282606864 0 0.00051955971867 0 -0.00055525265634 0 -0.0021994165145 0 
-0.0040024695918 0 -0.0059013981372 0 -0.0074205808342 0 -0.0090069668368 0 -0.010372526012 
0 -0.01295399759 -0.00060045963619 0.0039890077896 -0.0038141410332 -0.00043368947809 0.0080851670355 0.016287986189 0.0224197153 
0.026164907962 0.026675954461 0.02415686287 0.020641645417 0.019228473306 0.019435970113 0.01907209307 0.017638841644 0.015928341076 
0.0146084195 0.013938457705 0.013131965883 0.011170938611 0.0076152556576 0.0024750498123 -0.0023117985111 -0.0025828941725 0.0010587761644 
-2.2603571779e-05 -0.0046565751545 -0.0099003473297 -0.014663531445 -0.018679495901 -0.021687399596 -0.02487946488 -0.028242992237 -0.031024858356 
-0.032852567732 -0.033561568707 -0.032173920423 -0.027363641188 -0.018984602764 -0.0087839746848 0.00010564554395 0.005008767359 -0.036696217954 
-0.031184721738 -0.041074454784 -0.044804111123 -0.047765895724 -0.04912590608 -0.047750204802 -0.043731346726 -0.037969764322 -0.031274031848 
-0.025463217869 -0.021181574091 -0.017545478418 -0.014172890224 -0.010122928768 -0.0052043804899 -0.0013938510092 -0.00051945424639 -0.00034194509499 
0.00084753008559 0.004471915774 0.010581026785 0.021842682734 0.037736158818 0.043904658407 0.039246082306 0.04479149729 0.040324501693 
0.033216942102 0.027037052438 0.022292550653 0.018271125853 0.015373554081 0.0151467463 0.019736111164 0.023398933932 0.025348616764 
0.025936264545 0.025657624006 0.02538391389 0.026565134525 0.027635838836 0.025297425687 0.018963404 0.010126207955 0.0020925111603 
-0.0021440838464 -0.0021614595316 -0.0012506631901 -0.0016132129822 -0.003377243178 -0.0054896031506 -0.007548189722 -0.0092090526596 -0.011081262492 
-0.013591002673 -0.018543485552 -0.024784551933 0.04663528502 0.053779710084 0.013100376353 0.0052907913923 0.022618226707 0.031017335132 
0.035373799503 0.035228535533 0.031235799193 0.025478426367 0.022242801264 0.021554667503 0.020612005144 0.018615396693 0.016635898501 
0.015394045971 0.015477866866 0.015663150698 0.014066507109 0.01000448782 0.0039943256415 -0.0019302304136 -0.0040960512124 -0.0020016108174 
0.00061474333052 -0.0072621409781 -0.013189816847 -0.01879927516 -0.02375638485 -0.027996474877 -0.032267425209 -0.036883972585 -0.041075538844 
-0.043799806386 -0.044422809035 -0.042258974165 -0.035514056683 -0.021200114861 -0.0070663113147 0.0042727403343 0.010551237501 0.0086884377524 
0.0027690159623 -9.0115536295e-05 -0.0025611117017 0.058031536639 0.067335672677 0.062022715807 0.05557159707 0.044299256057 0.033517349511 
0.02632387355 0.02181109786 0.019514862448 0.025041570887 0.020916216075 0.028706040233 0.031022785231 0.031919792295 0.031377810985 
0.031883433461 0.035190913826 0.037386287004 0.034139562398 0.025406347588 0.01317224279 0.001831126865 -0.0050420560874 -0.0048046056181 
-0.0027329614386 -0.0018304927507 -0.0031053991988 -0.0046770037152 -0.0062297433615 -0.0078581590205 -0.0098968939856 -0.01277813036 -0.019829472527 
-0.029161527753 -0.037831712514 -0.045494649559 -0.052215900272 -0.058324880898 -0.063601948321 -0.065941080451 -0.063899800181 -0.057647388428 
-0.048622310162 -0.038594350219 -0.029455466196 -0.022970004007 -0.018462594599 -0.014856132679 -0.010313735344 -0.0044979141094 -0.0008351590368 
-0.00081810884876 -0.0011880293023 -0.00093123654369 0.0031763282605 0.010214757174 0.022504296154 0.037452343851 0.053064893931 0.067634522915 
0.076111070812 0.077177070081 0.018749633804 0.019803093746 0.00024152874539 -0.00072117656237 -0.0008108196198 -0.0042614145204 -0.0093760071322 
-0.01521505136 -0.020969944075 -0.026517104357 -0.03153167665 -0.036646474153 -0.042516533285 -0.04775236547 -0.051502931863 -0.052461344749 
-0.050337225199 -0.045857638121 -0.0034243059345 -0.017817886546 0.008327412419 0.013390854001 0.011355868541 0.0050596804358 0.019088840112 
0.010896952823 0.028973942623 0.037462994456 0.041730646044 0.0406210199 0.035237241536 0.028400341049 0.023539455608 0.021522035822 
0.019364250824 0.017269583419 0.01555623766 0.015361098573 0.017025414854 0.018622849137 0.017721153796 0.013718433678 0.0077600469813 
0.0011032640468 -0.0036470207851 -0.0045751850121 -0.0033770843875 -0.00023004286049 -0.001841642661 -7.7189288277e-05 0.0011071759509 0.0060342396609 
-0.00032694794936 0.0024544328917 -0.030887164176 -0.041373848915 0.066754490137 0.052464257926 0.039019562304 0.029437543824 0.024114072323 
0.021754471585 0.021346697584 0.021519752219 0.021926296875 0.022136971354 0.024820107967 0.02872678265 0.032337084413 0.035016939044 
0.03619601205 0.036122988909 0.03808613494 0.043185167015 0.045322179794 0.04083462432 0.030467448756 0.016339033842 0.0029053415637 
-0.0058194394223 -0.006202863995 -0.0042531578802 -0.0022230998147 -0.0025501521304 -0.0033876318485 -0.004264050629 -0.0055370782502 -0.007345567923 
-0.010230954736 -0.01845960319 -0.031094137579 -0.041077889502 -0.049872469157 -0.058372013271 -0.06682843715 -0.073949746788 -0.076926141977 
-0.074081487954 -0.065872326493 -0.054101150483 -0.041580174118 -0.030584638938 -0.022746676579 -0.017512725666 -0.014299255796 -0.010115476325 
-0.0063668410294 -0.001158502535 -0.00035679354914 -0.002065525623 -0.0018774933415 0.0031076597515 0.011393380351 0.02076898329 0.030295651406 
0.044527377933 0.059143468738 0.069875352085 0.079672582448 0.074221849442 0.078300178051 0.069537997246 0.055926352739 0.041137117893 
0.03074436076 0.025282897055 0.043845366687 0.028082093224 0.056202672422 0.062764726579 0.072456493974 0.063277743757 0.076123200357 
0.074047140777 0.065672703087 0.05353975296 0.039162330329 0.029618047178 0.024578727782 -0.0012432617368 -0.0032396821771 -0.0015320832608 
-0.005033084657 -0.0097797615454 -0.015450978652 -0.021491186693 -0.02732520923 -0.033141795546 -0.039292223752 -0.045897323638 -0.052162121981 
-0.057251907885 -0.059161428362 -0.057308223099 -0.053115468472 -0.04896081239 -0.037378545851 -0.046294819564 -0.02630402334 -0.013524285518 
-0.0007749426295 0.0098051792011 0.013338130899 0.011547810398 0.005866354797 -0.0010807529325 -0.00022793523385 -0.0019534493331 -0.0027975875419 
-0.0016809033696 0.0016359345755 0.0074577466585 0.015078529716 0.024033838883 0.033909976482 0.042033035308 0.046004708856 0.044439055026 
0.03836434707 0.030769564211 0.025238251314 0.021902859211 0.019315347075 0.014615193941 0.014904832467 0.01664781943 0.020931562409 
0.024447895586 0.024521946907 0.020844077691 0.014705547132 0.0074533661827 0.0014885548735 -0.0022577240597 -0.0041385083459 -0.003468333045 
-0.001294801943 -0.0021048213821 -0.0003562211059 -0.00016922640498 0.016031771898 0.016993546858 0.022421903908 0.022640444338 0.022870011628 
0.022362954915 0.023367907852 0.024385614321 0.026892419904 0.030734112486 0.034363906831 0.037532389164 0.039328094572 0.040718663484 
0.044582866132 0.050882872194 0.052489172667 0.046308975667 0.034178156406 0.01864541322 0.0035395892337 -0.0065958481282 -0.0069100875407 
-0.0056304400787 -0.0030712729786 -0.0027294694446 -0.0025511023123 -0.0026172720827 -0.0032548073214 -0.0045973341912 -0.0065662707202 -0.010814203881 
-0.042896643281 -0.033328570426 -0.052019916475 -0.061590608209 -0.071433544159 -0.07951477915 -0.082656942308 -0.079080164433 -0.069260202348 
-0.054941844195 -0.040298365057 -0.029550103471 -0.021692929789 -0.016460852697 -0.013088022359 -0.0095366947353 -0.0071741356514 -0.0054719313048 
-0.0010214189533 -0.0034153116867 -5.7930643379e-05 -0.00024392167688 -0.0014915029751 -0.0029155784287 -0.0021370595787 0.005467236042 0.017225649208 
-0.023767462 -0.015482178889 0.023335553706 0.021947043017 0.022495649755 0.02089362964 0.023867407814 0.02486862801 0.025600746274 
0.027543049306 0.030892768875 0.034489545971 0.038135394454 0.041020788252 0.044458396733 0.049133505672 0.055838543922 0.05797425285 
0.05178578943 0.036308009177 0.02001340501 0.0039040728007 -0.007062329445 -0.0085722394288 -0.0073829544708 -0.0046854563989 -0.0035744393244 
-0.0026609958149 -0.0018706487026 -0.0016899324255 -0.002269761404 -0.0034800083376 -0.0060972184874 -0.0094938585535 -0.019640481099 -0.012932790443 
-0.027169309556 -0.035549588501 -0.044298764318 -0.053322900087 -0.062909036875 -0.072726763785 -0.080794751644 -0.0843122527 -0.081369206309 
-0.071165345609 -0.053116563708 -0.036645848304 -0.027344301343 -0.020594360307 -0.015399474651 -0.011820743792 -0.0081700412557 -0.0070013254881 
-0.0015809807228 -0.0056745312177 0.00054809905123 0.00066993344808 -6.7278087954e-05 -0.0015298411017 -0.0032758414745 -0.0023543951102 0.009399080649 
-0.0015665558167 -0.0045472239144 -0.0091198114678 -0.014664409682 -0.020789191127 -0.02671373263 -0.032955601811 -0.039663676172 -0.046509880573 
-0.054190065712 -0.061261612922 -0.064576856792 -0.063191734254 -0.058641325682 -0.054104272276 -0.053989667445 -0.043285984546 -0.052592642605 
-0.033760011196 -0.022842183709 -0.010833945125 0.00082179222954 0.0097155049443 0.0124917496 0.010629802942 0.0049609378912 -0.00093362305779 
-0.0044505763799 -0.0036669173278 0.00025612339959 0.0073751187883 0.016303924844 0.02654973045 0.037062313408 0.045380089432 0.049690298736 
0.048622000962 0.0426934883 0.034477777779 0.028086565435 0.023783400655 0.020608555526 0.018320484087 0.014997418039 0.016712924466 
0.013791524805 0.013587593101 0.015664646402 0.021031441167 0.028566243127 0.03414773941 0.035333603621 0.032402206212 0.024651706219 
0.016496505588 0.010460284539 0.0050914161839 0.00070234527811 -0.001917847083 -0.0023208376952 -0.0016166841378 -0.0022321844008 -0.0013628161978 
-0.00034737153328 0.0003045758931 0.026619924232 0.029580038041 0.033037934452 0.037033367902 0.040975425392 0.046203721315 0.051850903779 
0.059023272246 0.061347484589 0.059460114688 0.019941071048 0.034470617771 0.0048317005858 -0.0048389076255 -0.0087439464405 -0.0093275122344 
-0.00628094282 -0.0044696643017 -0.0030214842409 -0.0015631708084 -0.00067406985909 -0.00060877820943 -0.0012467940105 -0.0028573435266 -0.0053827841766 
-0.0079756621271 -0.016679985449 -0.010692501441 -0.023307282478 -0.030307471752 -0.037279095501 -0.044923108071 -0.053708210588 -0.062557637691 
-0.07096503675 -0.078742019832 -0.083206154406 -0.08164062351 -0.073358111084 -0.060922518373 -0.025878367946 -0.033398836851 -0.020131444559 
-0.015088783577 -0.011064001359 0.046374004334 0.053676825017 -0.010475832969 -0.0043477308936 -0.0092819519341 -0.000169622057 0.0010537911439 
-0.0007643874269 -0.00088952208171 -0.0035871397704 -0.0081846984103 -0.013767422177 -0.019674679264 -0.025295283645 -0.031339004636 -0.037967342883 
-0.044863551855 -0.053641594946 -0.063476972282 -0.069077990949 -0.067869573832 -0.061706010252 -0.064778074622 -0.048875793815 -0.058660823852 
-0.03975931555 -0.030108228326 -0.020017780364 -0.0093071274459 0.00069470220478 0.0084781870246 0.010648845695 0.0089161470532 0.0030236032326 
-0.0028964488301 -0.0064982897602 -0.0065455958247 -0.0029603030998 0.0046105398796 0.014540138654 0.026360535994 0.037986773998 0.047251708806 
0.052421260625 0.052156079561 0.047141835093 0.0395142138 0.032184232026 0.027165139094 0.023315191269 0.020491013303 0.018861815333 
0.015832057223 0.018149895594 0.014102332294 0.013472271152 0.014481873251 0.019499778748 0.029249234125 0.039775323123 0.045580282807 
0.046888861805 0.046610224992 0.033425353467 0.023851724342 0.021588385105 0.016039025038 0.0098258992657 0.0039044397417 -0.00057291804114 
-0.0024668227416 -0.00099862832576 -0.0019091090653 -0.00045193874394 0.02568584308 0.039099935442 0.047538328916 0.050016611814 0.059487115592 
0.065577551723 0.067109160125 0.065007887781 0.057071477175 0.04464154318 0.033069912344 0.026148762554 0.022422365844 0.019599748775 
0.0205095727 0.018183982 0.02293298766 0.025049246848 -0.0028543702792 -3.9888400352e-05 -0.0078304391354 -0.013341451064 -0.018532367423 
-0.023198245093 -0.028693666682 -0.034829203039 -0.041060447693 -0.050061348826 -0.064268283546 -0.073402769864 -0.072959795594 -0.052665673196 
-0.060813523829 -0.066706910729 -0.04434966296 -0.03589271009 -0.027053581551 -0.018012950197 -0.0091507676989 -0.0014002609532 0.0058703254908 
0.0077668912709 0.0069229872897 0.0043171895668 -0.0082316966727 -0.0050155092031 -0.0091583039612 -0.0062968907878 0.0011041169055 0.011130942032 
0.023974796757 0.036561477929 0.047791458666 0.056498028338 0.05098503083 0.055838674307 0.043983560055 0.036507155746 0.031188113615 
0.02666194737 0.023342395201 0.021413149312 0.020827945322 -0.0015827303287 0.0014452878386 -0.041657183319 -0.048701245338 -0.003049655119 
-0.0022817307618 0.0032562976703 0.012941385619 0.02284004353 0.031040336937 0.034721169621 0.027087150142 0.030899463221 0.035383511335 
0.040085103363 0.045819114894 0.052014034241 0.058616977185 0.061139974743 0.060874056071 0.045183748007 0.041458439082 0.032552588731 
0.019451705739 0.0051261214539 -0.0052349222824 -0.010030671023 -0.011234615929 -0.0078051523305 -0.0052659939975 -0.0029799568001 -0.00097188103246 
0.00033530322253 0.0007252698415 0.00035841402132 -0.0006349182222 -0.0026292288676 -0.0039669387043 -0.0054856995121 -0.020235538483 -0.013770267367 
-0.02708333917 -0.033555943519 -0.038245577365 -0.043830372393 0.024765558541 0.018679421395 0.016146864742 0.014955593273 0.014650056139 
0.01709263213 0.025587618351 0.038793191314 0.05320591107 0.056239247322 0.054881114513 -0.073620088398 -0.078980378807 -0.078489504755 
-0.071522705257 -0.063320867717 -0.054725918919 -0.038972590119 -0.043790780008 -0.037251055241 -0.031932216138 -0.025932073593 -0.020758509636 
-0.015438877046 -0.01602306217 -0.008218084462 -0.013600600883 -0.0031807476189 0.00026259175502 0.05570165813 0.047021184117 0.030797205865 
0.024114944041 0.034121416509 0.021000843495 0.0075281723402 -0.0028519988991 -0.0093056252226 -0.011520952918 -0.0089068710804 -0.0057152658701 
-0.0027967649512 -0.00010721080616 0.0014726836234 0.0019648068119 -0.00065206189174 -0.00063357281033 -0.031662479043 -0.023909946904 -0.038651809096 
0.028373222798 0.032933287323 0.038062062114 0.044158473611 0.050436805934 0.056246910244 0.059716805816 0.058659311384 0.054222822189 
0.047863621265 0.040902387351 0.034976400435 0.030086793005 0.026335680857 0.023883905262 -0.03310168907 -0.027541933581 -0.022272376344 
-0.016519473866 -0.010751920752 -0.0077027129009 0.0052063819021 0.0036757013295 0.0051923072897 0.0042819902301 0.0028369901702 -0.03654159233 
-0.017543716356 -0.020489374176 -0.025571959093 0.0180742722 -0.030956398696 0.0032165583689 0.0019968491979 0.003448283067 -0.0029912895989 
-0.0026857296471 0.023073427379 0.00090910773724 0.0010745590553 0.00083422131138 0.0017059727106 -0.00042623621994 
Disp_FEB 3 1114 double
0 0 0 0 0 0 0.0017648171633 0.011082600802 0.00074230495375 
-0.00076916912803 0.010339551605 0.00099410035182 0.0028743373696 0.010838867165 0.00022857845761 0.0011935209623 0.0072425245307 -0.0012703837128 
0 0 0 -0.0052973376587 0.0015349806054 -0.0021217139438 0 0 0 
-0.015675969422 -0.0064921746962 0.00016970880097 -0.0073423814029 -0.0071383882314 0.0038928645663 -0.024170193821 -0.0092875910923 0.0059863314964 
-0.0052800215781 -0.0078481109813 0.0074646142311 -0.025731204078 -0.011358761229 0.010167254135 0 0 0 
-0.022324107587 -0.010292800143 0.013632220216 0 0 0 -0.018065158278 -0.0080710574985 0.014285792597 
0 0 0 -0.013800214045 -0.006464516744 0.014612286352 0 0 0 
-0.010128090158 -0.0039915470406 0.013764091767 0 0 0 -0.0082164146006 -0.0022826462518 0.012793135829 
0 0 0 -0.0071740471758 -0.0012291976018 0.012645243667 0 0 0 
-0.0058005205356 -0.00043485782226 0.013335360214 0 0 0 -0.0040503703058 0.00084863841766 0.013485884294 
0 0 0 -0.0024087429047 0.0021243183874 0.012988091446 0 0 0 
-0.0010841730982 0.0030041430146 0.012041708454 0 0 0 -6.2827923102e-05 0.0032270085067 0.011075448245 
0 0 0 0.00074170506559 0.0035862028599 0.010630510747 0.00014783840743 0.0037790713832 0.0029215314426 
0.0022114210296 0.0033263214864 0.0089797554538 0 0 0 0.0035950033925 0.00195543468 0.0073150107637 
0 0 0 0.0043647182174 0.001435127575 0.004699206911 0 0 0 
0.0044707506895 0.0017613851232 0.0015335784992 0 0 0 0.0033735753968 0.0027808761224 -0.00099327741191 
0 0 0 0.0021700451616 0.0036310951691 -0.0019994387403 0 0 0 
0.0025543593802 0.002668029163 -0.00013194794883 0 0 0 0.0064855576493 0.0012011295184 0.00034804598545 
0 0 0 0.010403603315 -0.00015751371393 -0.0029188769404 0 0 0 
0.012454999611 -0.0011882479303 -0.0064957621507 0 0 0 0.013174845837 -0.0020002927631 -0.0094472505152 
0 0 0 0.012986419722 -0.0026592363138 -0.01153584104 0 0 0 
0.012631855905 -0.0035007805564 -0.013203561306 0 0 0 0.012090211734 -0.0040956651792 -0.014725885354 
0 0 0 0.011257371865 -0.0050145075656 -0.016345094889 0 0 0 
0.010082656518 -0.0051262187771 -0.017803929746 0 0 0 0.0086059235036 -0.0056707374752 -0.018634747714 
0 0 0 0.0070479786955 -0.0055291699246 -0.019379639998 0 0 0 
0.0047228643671 -0.0045361770317 -0.019025335088 0 0 0 0.0015629120171 -0.003381687915 -0.016892945394 
0 0 0 -0.0014735973673 -0.00066001311643 -0.012343146838 0 0 0 
-0.0030103554018 0.002984265564 -0.0067347576842 0 0 0 -0.0026490273885 0.006957795471 -0.0018708457937 
0 0 0 0 0 0 -0.001825504587 -0.0085192518309 -0.019909501076 
-0.0039947368205 -0.007106339559 -0.016279432923 0 0 0 0.00080536719179 -0.0084579829127 -0.022693024948 
0 0 0 0.0033363245893 -0.0091215921566 -0.025078982115 0 0 0 
0.0051844725385 -0.0085240257904 -0.02676224336 0 0 0 0.0071047064848 -0.0070466189645 -0.027991894633 
0 0 0 0.0094142835587 -0.006803358905 -0.0283432547 0 0 0 
0.01169799827 -0.0061561958864 -0.027663584799 0 0 0 0.013667874038 -0.0056997011416 -0.025810701773 
0 0 0 0.01505253464 -0.0063161244616 -0.02301531285 0 0 0 
0.015465253964 -0.0060797310434 -0.01980673708 0 0 0 0.014721471816 -0.0072179655544 -0.01757982932 
0 0 0 0.013454723172 -0.0061014005914 -0.015207109042 0 0 0 
0.01262667682 -0.0051575871184 -0.013208015822 0 0 0 0.01215667557 -0.0036759050563 -0.010518510826 
0 0 0 0.012119484134 -0.0038703260943 -0.0079707670957 0 0 0 
0.011029034853 -0.0038016200997 -0.0044161849655 0 0 0 0.0085298325866 -0.0039433743805 -0.0012918587308 
0 0 0 0.0063606481999 -0.0040645012632 -0.00013723866141 0 0 0 
0.0068228766322 -0.0040521509945 0.00022797173006 0 0 0 0.0099202012643 -0.0035417901818 0.0015035914257 
0 0 0 0.014514659531 -0.0031545963138 0.0049468898214 0 0 0 
0.019336063415 -0.001504876418 0.00945982337 0 0 0 0.024832274765 0.001413354883 0.016010630876 
0 0 0 0.030568599701 0.0058537498116 0.028166186064 0 0 0 
0.019668357447 0.0056802835315 0.024945093319 0 0 0 0.015224175528 0.006539855618 0.025506163016 
0 0 0 0.011446029879 0.0042834309861 0.026193177328 0 0 0 
0.0080942763016 0.0013202477712 0.023807574064 0 0 0 0.005894924514 -0.0011649506632 0.020285552368 
0 0 0 0.0035481464583 -0.002214200329 0.017532305792 0 0 0 
0.00052151008276 -0.0022949227132 0.014618302695 0 0 0 -0.0024534820113 -0.0025004213676 0.011570273899 
0 0 0 -0.0047307191417 -0.0033347259741 0.0087524559349 0 0 0 
-0.0023860249203 -0.0022733230144 0.0076171881519 0 0 0 -0.0035268731881 -0.003595248796 0.012771938927 
-0.0074409446679 -0.010259485804 0.0059090582654 -0.0093304729089 -0.006421990227 0.015907265246 -0.01052178815 -0.012012342922 0.0071564815007 
-0.015485549346 -0.009376113303 0.01711313054 -0.0096705174074 -0.012322222814 0.00609835051 -0.019432347268 -0.0098289009184 0.016650473699 
0 0 0 -0.022744245827 -0.0090582957491 0.016507394612 0 0 0 
-0.023544948548 -0.0082025043666 0.016086766496 0 0 0 -0.024956654757 -0.0082622040063 0.016241429374 
0 0 0 -0.026986967772 -0.0072819963098 0.016033899039 0 0 0 
-0.029241852462 -0.0060859797522 0.014630381949 0 0 0 -0.029920380563 -0.004613653291 0.012299792841 
0 0 0 -0.026701152325 -0.0042781820521 0.008084830828 0 0 0 
-0.022083286196 -0.0040208203718 0.0033828390297 0 0 0 -0.016985841095 -0.0041126040742 0.00092495896388 
0 0 0 -0.013295251876 -0.0048580388539 0.00060282606864 0 0 0 
-0.011316488497 -0.0050212224014 0.00051955971867 0 0 0 -0.010466460139 -0.0051743132062 -0.00055525265634 
0 0 0 -0.0093219969422 -0.0045697009191 -0.0021994165145 0 0 0 
-0.0084931747988 -0.0054368162528 -0.0040024695918 0 0 0 -0.0071461941116 -0.0059838066809 -0.0059013981372 
0 0 0 -0.0058628688566 -0.0067171771079 -0.0074205808342 0 0 0 
-0.0045828782022 -0.0075084730051 -0.0090069668368 0 0 0 -0.004338091705 -0.0076235230081 -0.010372526012 
0 0 0 -0.004548186902 -0.0077936179005 -0.01295399759 0.0030168478843 0.0097275292501 -0.00060045963619 
0.0040566660464 0.016028612852 0.0039890077896 -0.0065787388012 -0.00043477184954 -0.0038141410332 -0.025875067338 -0.012270927429 -0.00043368947809 
-0.039541527629 -0.01800824143 0.0080851670355 -0.043551579118 -0.020038714632 0.016287986189 -0.040968552232 -0.018738182262 0.0224197153 
-0.033974982798 -0.015628404915 0.026164907962 -0.024746820331 -0.011463672854 0.026675954461 -0.016546521336 -0.0070575079881 0.02415686287 
-0.012550443411 -0.0030484106392 0.020641645417 -0.011194842868 -0.00055094721029 0.019228473306 -0.0088681187481 0.0011492157355 0.019435970113 
-0.0056765149347 0.0027395072393 0.01907209307 -0.0030234043952 0.004184235353 0.017638841644 -0.0010487590916 0.0049974559806 0.015928341076 
9.0162364359e-05 0.0049406946637 0.0146084195 0.0012123087654 0.0038824565709 0.013938457705 0.0031662024558 0.0018707824638 0.013131965883 
0.0056035113521 8.0694124335e-05 0.011170938611 0.0076308711432 -0.00064493494574 0.0076152556576 0.0079886941239 -0.00029242233722 0.0024750498123 
0.0057822428644 0.0011890315218 -0.0023117985111 0.0022962619551 0.0033943396993 -0.0025828941725 0.0049533941783 0.0027984622866 0.0010587761644 
0.011275123805 0.00078987062443 -2.2603571779e-05 0.016462272033 -0.00077861535829 -0.0046565751545 0.019608223811 -0.0019942098297 -0.0099003473297 
0.021117864177 -0.0029554381035 -0.014663531445 0.021414481103 -0.0039212028496 -0.018679495901 0.021318642423 -0.0053230668418 -0.021687399596 
0.021007917821 -0.0064117689617 -0.02487946488 0.019856955856 -0.0076925768517 -0.028242992237 0.017839955166 -0.0088624665514 -0.031024858356 
0.01513609197 -0.009644924663 -0.032852567732 0.011978084221 -0.0091076418757 -0.033561568707 0.0081999702379 -0.0072859022766 -0.032173920423 
0.0040461523458 -0.0049235438928 -0.027363641188 0.00018578708114 -0.00082882464631 -0.018984602764 -0.0027189857792 0.0040340553969 -0.0087839746848 
-0.0036122498568 0.0094900736585 0.00010564554395 -0.000472914282 0.015259453095 0.005008767359 -0.00061478605494 -0.012639794499 -0.036696217954 
-0.0045327902772 -0.012089499272 -0.031184721738 0.0033899946138 -0.013236287981 -0.041074454784 0.0075171878561 -0.013512327336 -0.044804111123 
0.011770603247 -0.013110552914 -0.047765895724 0.016446372494 -0.012149452232 -0.04912590608 0.021323833615 -0.011108603328 -0.047750204802 
0.024822771549 -0.010329158045 -0.043731346726 0.026437915862 -0.010725122876 -0.037969764322 0.02653988637 -0.0099677704275 -0.031274031848 
0.024845985696 -0.0092511577532 -0.025463217869 0.022706849501 -0.0085059097037 -0.021181574091 0.020922811702 -0.0068514305167 -0.017545478418 
0.019826542586 -0.0053063067608 -0.014172890224 0.019072510302 -0.0046964329667 -0.010122928768 0.017029661685 -0.004728897009 -0.0052043804899 
0.013269597664 -0.0052818260156 -0.0013938510092 0.010958876461 -0.0057904697023 -0.00051945424639 0.012008519843 -0.0058822492138 -0.00034194509499 
0.016333954409 -0.0052973157726 0.00084753008559 0.023148350418 -0.0035692504607 0.004471915774 0.031476628035 -0.00017851579469 0.010581026785 
0.040000073612 0.002933673095 0.021842682734 0.047988772392 0.0056081702933 0.037736158818 0.026203788817 0.0094763273373 0.043904658407 
0.029527617618 0.008376725018 0.039246082306 0.019171208143 0.007769451011 0.04479149729 0.010819525458 0.004969581496 0.040324501693 
0.0054304599762 0.00088642444462 0.033216942102 0.0020885609556 -0.0017167470651 0.027037052438 -0.00063570786733 -0.0023112117779 0.022292550653 
-0.003582457779 -0.0022342968732 0.018271125853 -0.0052313543856 -0.0022470962722 0.015373554081 -0.0036345010158 -0.0021749825682 0.0151467463 
-0.0059266854078 -0.0029548204038 0.019736111164 -0.011981900781 -0.0044678947888 0.023398933932 -0.018858013675 -0.0067582423799 0.025348616764 
-0.024866856635 -0.0086493827403 0.025936264545 -0.029884196818 -0.010893524624 0.025657624006 -0.032973356545 -0.011862693354 0.02538391389 
-0.035245228559 -0.011275948025 0.026565134525 -0.039770293981 -0.0092686461285 0.027635838836 -0.045726925135 -0.0075764525682 0.025297425687 
-0.048638172448 -0.0067223752849 0.018963404 -0.045318260789 -0.0056683979928 0.010126207955 -0.037223976105 -0.0055935326964 0.0020925111603 
-0.027661444619 -0.0052503179759 -0.0021440838464 -0.020343372598 -0.0061489660293 -0.0021614595316 -0.01682712324 -0.0071849939413 -0.0012506631901 
-0.015277352184 -0.0078227641061 -0.0016132129822 -0.013843396679 -0.0080221826211 -0.003377243178 -0.01225666143 -0.0088234646246 -0.0054896031506 
-0.010254097171 -0.0095941750333 -0.007548189722 -0.0085212998092 -0.010442249477 -0.0092090526596 -0.0073040826246 -0.011367375031 -0.011081262492 
-0.0076523232274 -0.011785441078 -0.013591002673 -0.0081967422739 -0.011731821112 -0.018543485552 -0.0073693883605 -0.01132358145 -0.024784551933 
0.040915638208 0.0086405007169 0.04663528502 0.053908195347 0.0073818592355 0.053779710084 -0.054604265839 -0.025580521673 0.013100376353 
-0.045049857348 -0.022171109915 0.0052907913923 -0.058785375208 -0.026772877201 0.022618226707 -0.055585391819 -0.024989487603 0.031017335132 
-0.046388641 -0.020211191848 0.035373799503 -0.033977847546 -0.014236625284 0.035228535533 -0.022210806608 -0.0086772432551 0.031235799193 
-0.015689421445 -0.0036147898063 0.025478426367 -0.01368700061 -0.00011871644529 0.022242801264 -0.01087283995 0.0021066521294 0.021554667503 
-0.006507714279 0.0039771599695 0.020612005144 -0.0029068484437 0.0053288512863 0.018615396693 -0.00091369700385 0.005885894876 0.016635898501 
-0.00012294387852 0.0050200656988 0.015394045971 0.00083294860087 0.0024473380763 0.015477866866 0.0036072896328 -0.00095610326389 0.015663150698 
0.007269599475 -0.0038723470643 0.014066507109 0.010225347243 -0.0053389589302 0.01000448782 0.011023066007 -0.0052133626305 0.0039943256415 
0.009082460776 -0.0039091412909 -0.0019302304136 0.0053365845233 -0.0016040651826 -0.0040960512124 0.01492888201 -0.00024405530712 -0.0020016108174 
0.0086584482342 0.0012146228692 0.00061474333052 0.020321717486 -0.001766387606 -0.0072621409781 0.023890957236 -0.0029734533746 -0.013189816847 
0.025870302692 -0.0039137168787 -0.01879927516 0.026749022305 -0.004938127473 -0.02375638485 0.027183961123 -0.0063119009137 -0.027996474877 
0.027367733419 -0.0080038337037 -0.032267425209 0.026546314359 -0.009967494756 -0.036883972585 0.024312106892 -0.01174070593 -0.041075538844 
0.020824329928 -0.012860463001 -0.043799806386 0.016456117854 -0.012760367244 -0.044422809035 0.011672941037 -0.011471626349 -0.042258974165 
0.0060904519632 -0.009847022593 -0.035514056683 0.00049071625108 -0.0041213501245 -0.021200114861 -0.0036274387967 0.001969381934 -0.0070663113147 
-0.0032899409998 0.0090592382476 0.0042727403343 0.0013173838379 0.015188965015 0.010551237501 0.0070663103834 0.015598547645 0.0086884377524 
0.0051739332266 0.0088390298188 0.0027690159623 0.0040199244395 0.0015856551472 -9.0115536295e-05 0.003898432944 -0.00080760003766 -0.0025611117017 
0.038995966315 0.0095184501261 0.058031536639 0.052580397576 0.0069390917197 0.067335672677 0.028914481401 0.0095350546762 0.062022715807 
0.014325464144 0.0078127495944 0.05557159707 0.0039714276791 0.0037269114982 0.044299256057 -0.0011890864698 -0.00017175351968 0.033517349511 
-0.0028747618198 -0.0019576181658 0.02632387355 -0.0042770886794 -0.0020091566257 0.02181109786 -0.0050481832586 -0.001523821149 0.019514862448 
-0.0080202659592 -0.0025566709228 0.025041570887 -0.0047761732712 -0.0018766921712 0.020916216075 -0.013778547756 -0.003641047515 0.028706040233 
-0.020296204835 -0.0053945607506 0.031022785231 -0.027029840276 -0.0078421346843 0.031919792295 -0.032877147198 -0.01077290345 0.031377810985 
-0.036364588886 -0.012666932307 0.031883433461 -0.040271818638 -0.011445856653 0.035190913826 -0.048537999392 -0.0090783657506 0.037386287004 
-0.058803446591 -0.0093745039776 0.034139562398 -0.06378403306 -0.0093885175884 0.025406347588 -0.059982981533 -0.0079431198537 0.01317224279 
-0.049129519612 -0.0064585646614 0.001831126865 -0.036609273404 -0.0049961316399 -0.0050420560874 -0.025363586843 -0.0060364375822 -0.0048046056181 
-0.019405175 -0.0075947227888 -0.0027329614386 -0.016774250194 -0.0089024072513 -0.0018304927507 -0.014731261879 -0.0096721770242 -0.0031053991988 
-0.012523973361 -0.010430200957 -0.0046770037152 -0.010409578681 -0.011123415083 -0.0062297433615 -0.0086688324809 -0.011862820946 -0.0078581590205 
-0.0075780735351 -0.01279703062 -0.0098968939856 -0.0087421787903 -0.013455642387 -0.01277813036 -0.010209053755 -0.013747143559 -0.019829472527 
-0.0094810407609 -0.013818566687 -0.029161527753 -0.00613231631 -0.014567070641 -0.037831712514 -0.001477700891 -0.015480615199 -0.045494649559 
0.0034853371326 -0.016167655587 -0.052215900272 0.0088149476796 -0.016272716224 -0.058324880898 0.015128555708 -0.015939403325 -0.063601948321 
0.02218869701 -0.014920942485 -0.065941080451 0.029124621302 -0.01385252364 -0.063899800181 0.033870339394 -0.013119930401 -0.057647388428 
0.035774264485 -0.012247582898 -0.048622310162 0.035280708224 -0.011230356991 -0.038594350219 0.032594136894 -0.010114866309 -0.029455466196 
0.028866384178 -0.0092204706743 -0.022970004007 0.025971382856 -0.0077658551745 -0.018462594599 0.024097828194 -0.0062413704582 -0.014856132679 
0.022572539747 -0.0054148766212 -0.010313735344 0.019286315888 -0.0054955082014 -0.0044979141094 0.013989262283 -0.0062185726129 -0.0008351590368 
0.011719356291 -0.006888769567 -0.00081810884876 0.013284404762 -0.0068367426284 -0.0011880293023 0.019048973918 -0.0055676978081 -0.00093123654369 
0.028403978795 -0.0029707453214 0.0031763282605 0.039269465953 0.00061309582088 0.010214757174 0.048449791968 0.0027759214863 0.022504296154 
0.057234298438 0.0043178102933 0.037452343851 0.063213162124 0.0043791076168 0.053064893931 0.063826829195 0.0024120635353 0.067634522915 
0.041210845113 0.0050858086906 0.076111070812 0.058330457658 -0.00080817745766 0.077177070081 -0.0046079619788 -0.0016290994827 0.018749633804 
-0.0050082686357 -0.001335933106 0.019803093746 0.0075583774596 0.00013419393508 0.00024152874539 0.0052612740546 -0.0012033852981 -0.00072117656237 
0.012279731221 -0.00037230417365 -0.0008108196198 0.017738720402 -0.0015662516234 -0.0042614145204 0.022622607648 -0.0029773893766 -0.0093760071322 
0.026193289086 -0.0042893602513 -0.01521505136 0.028422813863 -0.0053652189672 -0.020969944075 0.029718581587 -0.0063160997815 -0.026517104357 
0.030625706539 -0.0076288436539 -0.03153167665 0.031437210739 -0.0094763515517 -0.036646474153 0.031094843522 -0.011635843664 -0.042516533285 
0.029083656147 -0.014155023731 -0.04775236547 0.025264164433 -0.015909180045 -0.051502931863 0.019727822393 -0.01643788442 -0.052461344749 
0.014168377966 -0.01591094397 -0.050337225199 0.0085495971143 -0.015355326235 -0.045857638121 -0.0055499523878 -0.00055763393175 -0.0034243059345 
-0.0028961175121 -0.0068488558754 -0.017817886546 -0.0039034781512 0.0063873180188 0.008327412419 0.0019686096348 0.011740674265 0.013390854001 
0.0074203009717 0.011906544678 0.011355868541 0.0056718960404 0.0058852564543 0.0050596804358 -0.068079993129 -0.029522340745 0.019088840112 
-0.059577807784 -0.026831960306 0.010896952823 -0.071268804371 -0.030026322231 0.028973942623 -0.066886290908 -0.028050540015 0.037462994456 
-0.056107770652 -0.023185838014 0.041730646044 -0.041849762201 -0.016480665654 0.0406210199 -0.028168153018 -0.0098593151197 0.035237241536 
-0.019386146218 -0.0045164707117 0.028400341049 -0.015498839319 -0.00056059216149 0.023539455608 -0.011979115196 0.0018514802214 0.021522035822 
-0.0061381375417 0.0040574972518 0.019364250824 -0.0021448791958 0.005891112145 0.017269583419 -0.00092887011124 0.0058812471107 0.01555623766 
-0.0010562562384 0.0035360462498 0.015361098573 8.4734732809e-05 -0.00088826852152 0.017025414854 0.0040265149437 -0.0058660586365 0.018622849137 
0.0092924879864 -0.0098186628893 0.017721153796 0.013506343588 -0.012072701007 0.013718433678 0.015324934386 -0.011901670136 0.0077600469813 
0.014421724714 -0.010498503223 0.0011032640468 0.011387197301 -0.0084757898003 -0.0036470207851 0.0084012160078 -0.0062517076731 -0.0045751850121 
0.0072484812699 -0.0053883418441 -0.0033770843875 0.0073319934309 -0.0022312358487 -0.00023004286049 0.007825832814 -0.0050228610635 -0.001841642661 
0.010237660259 -0.0012225249084 -7.7189288277e-05 -0.03720992431 -0.019343236461 0.0011071759509 -0.050647038966 -0.02311020717 0.0060342396609 
-0.03346388042 -0.017561594024 -0.00032694794936 -0.044264357537 -0.020704876631 0.0024544328917 -9.6870709967e-05 -0.012030507438 -0.030887164176 
0.0025211332832 -0.01571347937 -0.041373848915 0.017766740173 0.0056867380626 0.066754490137 0.0033919236157 0.003583505284 0.052464257926 
-0.0039529404603 0.00058132398408 0.039019562304 -0.0054509462789 -0.0015103010228 0.029437543824 -0.0054230964743 -0.0019541343208 0.024114072323 
-0.005221624393 -0.0017227265052 0.021754471585 -0.005082229618 -0.0015277686762 0.021346697584 -0.0046756668016 -0.0014910836471 0.021519752219 
-0.0047431872226 -0.0017711614491 0.021926296875 -0.0045164497569 -0.0016152298776 0.022136971354 -0.0057103834115 -0.0021946835332 0.024820107967 
-0.0087455604225 -0.0030618112069 0.02872678265 -0.013984924182 -0.004090375267 0.032337084413 -0.020012361929 -0.0055980216712 0.035016939044 
-0.026406258345 -0.0077624102123 0.03619601205 -0.032081253827 -0.010325587355 0.036122988909 -0.035718161613 -0.011291385628 0.03808613494 
-0.042806241661 -0.0098516251892 0.043185167015 -0.055686857551 -0.009163829498 0.045322179794 -0.068800121546 -0.010887241922 0.04083462432 
-0.075103789568 -0.012159977108 0.030467448756 -0.071471743286 -0.010815145448 0.016339033842 -0.059102885425 -0.0083826389164 0.0029053415637 
-0.044265743345 -0.0057428665459 -0.0058194394223 -0.030220057815 -0.0058337678201 -0.006202863995 -0.021636780351 -0.0069541833363 -0.0042531578802 
-0.017298327759 -0.0085417116061 -0.0022230998147 -0.014308590442 -0.0095581877977 -0.0025501521304 -0.011662814766 -0.01042222511 -0.0033876318485 
-0.0096130343154 -0.011239601299 -0.004264050629 -0.0082172118127 -0.011985412799 -0.0055370782502 -0.0074935331941 -0.012803908437 -0.007345567923 
-0.0090268366039 -0.013663031161 -0.010230954736 -0.011858667247 -0.014616117813 -0.01845960319 -0.010594521649 -0.015421325341 -0.031094137579 
-0.0073539800942 -0.01633060351 -0.041077889502 -0.0026375434827 -0.01721341908 -0.049872469157 0.0026271846145 -0.017840227112 -0.058372013271 
0.009002007544 -0.017841752619 -0.06682843715 0.016980925575 -0.017288640141 -0.073949746788 0.026143150404 -0.016574341804 -0.076926141977 
0.034608103335 -0.0158686582 -0.074081487954 0.040189906955 -0.015166793019 -0.065872326493 0.042458109558 -0.013879942708 -0.054101150483 
0.041274406016 -0.012498162687 -0.041580174118 0.037805426866 -0.010891657323 -0.030584638938 0.033225122839 -0.0094912275672 -0.022746676579 
0.029335116968 -0.0080368677154 -0.017512725666 0.026616122574 -0.0068669491448 -0.014299255796 0.024585222825 -0.0059683271684 -0.010115476325 
0.022120799869 -0.0056853410788 -0.0063668410294 0.011489817873 -0.0070804269053 -0.001158502535 0.012743209489 -0.0066855908372 -0.00035679354914 
0.014023491181 -0.006747696083 -0.002065525623 0.021646741778 -0.0051235882565 -0.0018774933415 0.033610384911 -0.0022930274718 0.0031076597515 
0.045201618224 0.00067013385706 0.011393380351 0.051890190691 0.0021988237277 0.02076898329 0.059379599988 0.0021967361681 0.030295651406 
0.066271677613 0.00082271383144 0.044527377933 0.069159992039 -0.0017856454942 0.059143468738 0.066266588867 -0.0051435925998 0.069875352085 
0.048874247819 -0.0056050424464 0.079672582448 0.058451581746 -0.0087942257524 0.074221849442 0.033901330084 -0.0019389432855 0.078300178051 
0.015284021385 9.656889597e-05 0.069537997246 0.001688833232 -2.1446418032e-05 0.055926352739 -0.0053995526396 -0.0009514328558 0.041137117893 
-0.0068582263775 -0.0019435083959 0.03074436076 -0.006292253267 -0.0021572571713 0.025282897055 0.067967519164 -0.0051028952003 0.043845366687 
0.062619782984 -0.0019575038459 0.028082093224 0.067655213177 -0.0084908949211 0.056202672422 0.062105055898 -0.011628496461 0.062764726579 
0.047605644912 -0.012036182918 0.072456493974 0.052233822644 -0.014217374846 0.063277743757 0.037549264729 -0.0099160913378 0.076123200357 
0.023936862126 -0.0076030665077 0.074047140777 0.0091295642778 -0.0056225582957 0.065672703087 -0.0032142784912 -0.0045588836074 0.05353975296 
-0.0075885299593 -0.0033789288718 0.039162330329 -0.0078932438046 -0.0029120109975 0.029618047178 -0.0061423736624 -0.0025639920495 0.024578727782 
0.016446169466 -0.0060564717278 -0.0012432617368 0.020021364093 -0.0055873803794 -0.0032396821771 0.014744996093 -0.0015935123665 -0.0015320832608 
0.019746024162 -0.0027151182294 -0.005033084657 0.024340754375 -0.0041606915183 -0.0097797615454 0.027898656204 -0.0056013772264 -0.015450978652 
0.030252119526 -0.0067951851524 -0.021491186693 0.031859409064 -0.0078199515119 -0.02732520923 0.033146318048 -0.0090116122738 -0.033141795546 
0.034200217575 -0.010642241687 -0.039292223752 0.034411966801 -0.012926921248 -0.045897323638 0.033039461821 -0.015936391428 -0.052162121981 
0.02911968343 -0.018454739824 -0.057251907885 0.022757997736 -0.019536741078 -0.059161428362 0.015894863755 -0.019306886941 -0.057308223099 
0.0096726184711 -0.018565136939 -0.053115468472 0.0042218500748 -0.01824262552 -0.04896081239 -0.0030714473687 -0.016414629295 -0.037378545851 
-0.00026054051705 -0.018473254517 -0.046294819564 -0.0059643834829 -0.013529676013 -0.02630402334 -0.0081284176558 -0.0092667471617 -0.013524285518 
-0.0073758102953 -0.0032335144933 -0.0007749426295 -0.0041385740042 0.0028905526269 0.0098051792011 0.0021414258517 0.0067244982347 0.013338130899 
0.0059138950892 0.0062008476816 0.011547810398 0.0032131467015 0.0017239430454 0.005866354797 -0.0037238339428 -0.0031357358675 -0.0010807529325 
-0.0059062093496 -0.0052314237691 -0.00022793523385 -0.018753206357 -0.011279080063 -0.0019534493331 -0.019630929455 -0.011926301755 -0.0027975875419 
-0.034508924931 -0.017276953906 -0.0016809033696 -0.047983177006 -0.021425496787 0.0016359345755 -0.059421125799 -0.024859562516 0.0074577466585 
-0.070476308465 -0.028389031067 0.015078529716 -0.078784234822 -0.030982246622 0.024033838883 -0.081441134214 -0.031413588673 0.033909976482 
-0.076573878527 -0.029476696625 0.042033035308 -0.064995698631 -0.02515126206 0.046004708856 -0.049626979977 -0.018633367494 0.044439055026 
-0.034258231521 -0.011601559818 0.03836434707 -0.023560672998 -0.0058906157501 0.030769564211 -0.017293358222 -0.0021592674311 0.025238251314 
-0.012842944823 0.00018284961698 0.021902859211 -0.0081812683493 0.0014666807838 0.019315347075 -0.0018127858639 0.0043870294467 0.014615193941 
-0.0013725692406 0.0055645438842 0.014904832467 -0.002444869373 0.00018779720995 0.01664781943 -0.00028316918178 -0.0059158904478 0.020931562409 
0.0055656158365 -0.01202968508 0.024447895586 0.012904809788 -0.016404516995 0.024521946907 0.018682222813 -0.018885964528 0.020844077691 
0.021454615518 -0.018297955394 0.014705547132 0.021850423887 -0.016900461167 0.0074533661827 0.02066203393 -0.014915524982 0.0014885548735 
0.017889315262 -0.012509054504 -0.0022577240597 0.015152147971 -0.011159555987 -0.0041385083459 0.012894887477 -0.0091965459287 -0.003468333045 
0.0091715157032 -0.0051093236543 -0.001294801943 0.011692415923 -0.0070179253817 -0.0021048213821 0.0094435717911 -0.0031342187431 -0.0003562211059 
0.012161228806 -0.0021714603063 -0.00016922640498 -0.0025786443148 0.0040790988132 0.016031771898 -0.0043792533688 0.0015381070552 0.016993546858 
-0.0048977159895 -0.0024044266902 0.022421903908 -0.0052690706216 -0.0020730160177 0.022640444338 -0.0043689087033 -0.0024151843973 0.022870011628 
-0.0043529355898 -0.0029930416495 0.022362954915 -0.004600585904 -0.002106372267 0.023367907852 -0.0050377855077 -0.0022843598854 0.024385614321 
-0.0061416816898 -0.0030364901759 0.026892419904 -0.0082215899602 -0.0040221875533 0.030734112486 -0.012395796366 -0.0050683375448 0.034363906831 
-0.017755243927 -0.0064005814493 0.037532389164 -0.023631125689 -0.0079621598125 0.039328094572 -0.029013175517 -0.0094673568383 0.040718663484 
-0.034253310412 -0.0094143338501 0.044582866132 -0.04501292482 -0.0083386162296 0.050882872194 -0.061152458191 -0.0097402771935 0.052489172667 
-0.076955400407 -0.013396509923 0.046308975667 -0.084229975939 -0.015255729668 0.034178156406 -0.080484874547 -0.013773076236 0.01864541322 
-0.067464843392 -0.010358181782 0.0035395892337 -0.051553424448 -0.0065632592887 -0.0065958481282 -0.035503026098 -0.0059317820705 -0.0069100875407 
-0.024445122108 -0.0060884379782 -0.0056304400787 -0.01846608147 -0.0072937645018 -0.0030712729786 -0.014123904519 -0.0082952845842 -0.0027294694446 
-0.010950736701 -0.009388496168 -0.0025511023123 -0.008806980215 -0.010400938801 -0.0026172720827 -0.0077451402321 -0.011268475093 -0.0032548073214 
-0.007564577274 -0.012159882113 -0.0045973341912 -0.0091915829107 -0.013148993254 -0.0065662707202 -0.01202482637 -0.01419109758 -0.010814203881 
-0.00845631212 -0.017528472468 -0.042896643281 -0.011502318084 -0.016625611112 -0.033328570426 -0.0037288984749 -0.01828529872 -0.052019916475 
0.0015521923779 -0.018944073468 -0.061590608209 0.0084915775806 -0.019246021286 -0.071433544159 0.017925573513 -0.019382217899 -0.07951477915 
0.028426211327 -0.019144413993 -0.082656942308 0.038053929806 -0.01818482019 -0.079080164433 0.044650334865 -0.0168230813 -0.069260202348 
0.04729296267 -0.015405833721 -0.054941844195 0.045375041664 -0.013717563823 -0.040298365057 0.04077000916 -0.01172234118 -0.029550103471 
0.035763021559 -0.0096504548565 -0.021692929789 0.031641948968 -0.0080301156268 -0.016460852697 0.028242059052 -0.0069389846176 -0.013088022359 
0.025825560093 -0.0061309114099 -0.0095366947353 0.023723071441 -0.0057743405923 -0.0071741356514 0.023072434589 -0.0055302996188 -0.0054719313048 
0.017817340791 -0.0052712014876 -0.0010214189533 0.021990383044 -0.0050251618959 -0.0034153116867 0.014180980623 -0.0058059585281 -5.7930643379e-05 
0.011622656137 -0.0064513697289 -0.00024392167688 0.011127481237 -0.0067838341929 -0.0014915029751 0.014442623593 -0.0063411374576 -0.0029155784287 
0.024081707001 -0.0048476601951 -0.0021370595787 0.039698898792 -0.0024372518528 0.005467236042 0.053933050483 0.00030972363311 0.017225649208 
-0.013840462081 -0.015867182985 -0.023767462 -0.014331272803 -0.01508877892 -0.015482178889 -0.0055625434034 -0.0030434592627 0.023335553706 
-0.0048821750097 -0.0037015164271 0.021947043017 -0.003925990779 -0.0037968531251 0.022495649755 -0.0040641287342 -0.0041793431155 0.02089362964 
-0.0042116683908 -0.0032876632176 0.023867407814 -0.0046971244738 -0.0029807554092 0.02486862801 -0.0050547472201 -0.0029546944425 0.025600746274 
-0.005607994739 -0.0037176201586 0.027543049306 -0.0067491554655 -0.0047613792121 0.030892768875 -0.0099654244259 -0.0056943548843 0.034489545971 
-0.014580818824 -0.0068321074359 0.038135394454 -0.020089274272 -0.0078418012708 0.041020788252 -0.025838760659 -0.008445167914 0.044458396733 
-0.033581208438 -0.0085535533726 0.049133505672 -0.046145401895 -0.0091304015368 0.055838543922 -0.06370742619 -0.012217166834 0.05797425285 
-0.083725839853 -0.0177645199 0.05178578943 -0.090961031616 -0.018509555608 0.036308009177 -0.086626157165 -0.016938697547 0.02001340501 
-0.07364308089 -0.012491170317 0.0039040728007 -0.056988034397 -0.0077654672787 -0.007062329445 -0.040732160211 -0.0059917415492 -0.0085722394288 
-0.028228450567 -0.005339788273 -0.0073829544708 -0.020560482517 -0.00607573241 -0.0046854563989 -0.015003723092 -0.0070239799097 -0.0035744393244 
-0.01094852481 -0.0081264795735 -0.0026609958149 -0.0084497770295 -0.0092803584412 -0.0018706487026 -0.0074812462553 -0.010382493958 -0.0016899324255 
-0.0077503514476 -0.011459420435 -0.002269761404 -0.0094155715778 -0.012599039823 -0.0034800083376 -0.011926223524 -0.013613961637 -0.0060972184874 
-0.014127627015 -0.014422364533 -0.0094938585535 -0.015877617523 -0.015877345577 -0.019640481099 -0.015770832077 -0.015094484203 -0.012932790443 
-0.014508717693 -0.016494777054 -0.027169309556 -0.012065209448 -0.017268318683 -0.035549588501 -0.0090321414173 -0.018106460571 -0.044298764318 
-0.0042740572244 -0.018934959546 -0.053322900087 0.00091886986047 -0.019927715883 -0.062909036875 0.0081462012604 -0.020907782018 -0.072726763785 
0.017666382715 -0.021737022325 -0.080794751644 0.028207361698 -0.021596111357 -0.0843122527 0.038246836513 -0.02042952925 -0.081369206309 
0.046118177474 -0.018599415198 -0.071165345609 0.049851804972 -0.016736159101 -0.053116563708 0.046108789742 -0.014293326996 -0.036645848304 
0.04093106091 -0.011875027791 -0.027344301343 0.036312635988 -0.0094501590356 -0.020594360307 0.032526709139 -0.0076038837433 -0.015399474651 
0.029155740514 -0.0065388125367 -0.011820743792 0.026108644903 -0.0058317631483 -0.0081700412557 0.025911480188 -0.0053367419168 -0.0070013254881 
0.020582862198 -0.0043526808731 -0.0015809807228 0.02543223463 -0.004834969528 -0.0056745312177 0.01545730792 -0.0046494756825 0.00054809905123 
0.012213902548 -0.0053935945034 0.00066993344808 0.011123161763 -0.0059440690093 -6.7278087954e-05 0.010790635832 -0.0059957001358 -0.0015298411017 
0.014237435535 -0.0058544976637 -0.0032758414745 0.024221962318 -0.0052985576913 -0.0023543951102 0.045605044812 -0.005023912061 0.009399080649 
0.016443416476 -0.0024258538615 -0.0015665558167 0.021283194423 -0.0034000719897 -0.0045472239144 0.025823766366 -0.0048787267879 -0.0091198114678 
0.029429957271 -0.0063878740184 -0.014664409682 0.031852949411 -0.0076727159321 -0.020789191127 0.033654216677 -0.0087415212765 -0.02671373263 
0.035043168813 -0.0098718497902 -0.032955601811 0.036048222333 -0.011178463697 -0.039663676172 0.03701550886 -0.013321666978 -0.046509880573 
0.036454916 -0.016711121425 -0.054190065712 0.032614063472 -0.019988762215 -0.061261612922 0.025669740513 -0.021698059514 -0.064576856792 
0.017736285925 -0.021574091166 -0.063191734254 0.010666103102 -0.020584348589 -0.058641325682 0.005862345919 -0.019730454311 -0.054104272276 
0.0028699508402 -0.020436936989 -0.053989667445 -0.004821929615 -0.018958514556 -0.043285984546 -0.0010721464641 -0.021361647174 -0.052592642605 
-0.0075343246572 -0.016863182187 -0.033760011196 -0.0094355382025 -0.01423093304 -0.022842183709 -0.011013682932 -0.01093525812 -0.010833945125 
-0.0092341946438 -0.0061678565107 0.00082179222954 -0.0044444315135 -0.0014518077951 0.0097155049443 0.0011554203229 0.00099516217597 0.0124917496 
0.0037011224777 0.00037552544381 0.010629802942 0.00066591671202 -0.0030542558525 0.0049609378912 -0.0083306822926 -0.0074023329653 -0.00093362305779 
-0.0219819583 -0.012414470315 -0.0044505763799 -0.037051096559 -0.016704190522 -0.0036669173278 -0.051985569298 -0.02078391239 0.00025612339959 
-0.065617911518 -0.024512078613 0.0073751187883 -0.077857643366 -0.028246615082 0.016303924844 -0.086559295654 -0.031136946753 0.02654973045 
-0.088969141245 -0.031933892518 0.037062313408 -0.083667971194 -0.030583383515 0.045380089432 -0.071489244699 -0.026964139193 0.049690298736 
-0.055203985423 -0.021193731576 0.048622000962 -0.038631673902 -0.014136708342 0.0426934883 -0.026487117633 -0.007953107357 0.034477777779 
-0.018466807902 -0.0041492362507 0.028086565435 -0.012807849795 -0.0018828002503 0.023783400655 -0.0085911080241 -0.00077126524411 0.020608555526 
-0.0053954068571 -0.00062242586864 0.018320484087 -0.002582373796 0.0008262002375 0.014997418039 -0.0034302163403 -0.0011028613662 0.016712924466 
-0.001899230876 0.0027272650041 0.013791524805 -0.0023594989907 0.0032697881106 0.013587593101 -0.0037400596775 0.00097142782761 0.015664646402 
-0.0039649032988 -0.0047210394405 0.021031441167 0.00065711495699 -0.011223522015 0.028566243127 0.009268194437 -0.016777435318 0.03414773941 
0.018834507093 -0.020383935422 0.035333603621 0.026542263106 -0.022318605334 0.032402206212 0.029832720757 -0.021650202572 0.024651706219 
0.030415054411 -0.020195763558 0.016496505588 0.030918659642 -0.018560875207 0.010460284539 0.029953483492 -0.01691101864 0.0050914161839 
0.026820583269 -0.014945616014 0.00070234527811 0.022193877026 -0.012305846438 -0.001917847083 0.016841545701 -0.0087836729363 -0.0023208376952 
0.011224533431 -0.0054167034104 -0.0016166841378 0.013075629249 -0.0061526042409 -0.0022321844008 0.010279333219 -0.0048635182902 -0.0013628161978 
0.010811540298 -0.0035141436383 -0.00034737153328 0.01328436099 -0.0026393774897 0.0003045758931 -0.005047022365 -0.0039496892132 0.026619924232 
-0.0052754152566 -0.004988648463 0.029580038041 -0.0077089113183 -0.0057619144209 0.033037934452 -0.011835076846 -0.0067259445786 0.037033367902 
-0.017198992893 -0.007526924368 0.040975425392 -0.023283068091 -0.0079592475668 0.046203721315 -0.032003570348 -0.0085252728313 0.051850903779 
-0.044551089406 -0.010155862197 0.059023272246 -0.060170397162 -0.014102307148 0.061347484589 -0.075613960624 -0.019577907398 0.059460114688 
-0.08995629847 -0.020187105983 0.019941071048 -0.094935074449 -0.022491173819 0.034470617771 -0.077954031527 -0.015352689661 0.0048317005858 
-0.06177662313 -0.010488335975 -0.0048389076255 -0.045749198645 -0.0072524133138 -0.0087439464405 -0.03234827891 -0.0054977876134 -0.0093275122344 
-0.023315977305 -0.0058457925916 -0.00628094282 -0.016515746713 -0.006620013155 -0.0044696643017 -0.011537792161 -0.0075570768677 -0.0030214842409 
-0.0085021136329 -0.0086747873574 -0.0015631708084 -0.0074350372888 -0.0097803166136 -0.00067406985909 -0.0076788552105 -0.010956273414 -0.00060877820943 
-0.0090347537771 -0.011955133639 -0.0012467940105 -0.011337730102 -0.012966858223 -0.0028573435266 -0.012886442244 -0.013534802943 -0.0053827841766 
-0.01433400251 -0.013946739957 -0.0079756621271 -0.016134362668 -0.015541030094 -0.016679985449 -0.015504802577 -0.014515485615 -0.010692501441 
-0.015341823921 -0.016196027398 -0.023307282478 -0.013814543374 -0.016813471913 -0.030307471752 -0.012367339805 -0.017627000809 -0.037279095501 
-0.0093947872519 -0.018386311829 -0.044923108071 -0.0048834788613 -0.019482474774 -0.053708210588 -1.4892845002e-06 -0.020759435371 -0.062557637691 
0.0064752334729 -0.022178657353 -0.07096503675 0.015103803948 -0.023498978466 -0.078742019832 0.02585769631 -0.02374663949 -0.083206154406 
0.036079015583 -0.022827139124 -0.08164062351 0.043755427003 -0.021095653996 -0.073358111084 0.04774645716 -0.018984440714 -0.060922518373 
0.039423961192 -0.011217025109 -0.025878367946 0.042990267277 -0.013587228023 -0.033398836851 0.035800371319 -0.0089506562799 -0.020131444559 
0.032697215676 -0.0071698073298 -0.015088783577 0.029387891293 -0.0060750059783 -0.011064001359 -0.092318400741 -0.023250017315 0.046374004334 
-0.087164372206 -0.024726904929 0.053676825017 0.029496470466 -0.0057360287756 -0.010475832969 0.024907022715 -0.0043385648169 -0.0043477308936 
0.02962699905 -0.0053354753181 -0.0092819519341 0.018953001127 -0.0035903768148 -0.000169622057 0.012073751539 -0.0037622861564 0.0010537911439 
0.010513296351 -0.0051355408505 -0.0007643874269 0.017613053322 -0.0027952743694 -0.00088952208171 0.022669449449 -0.003691843478 -0.0035871397704 
0.027168031782 -0.0051469048485 -0.0081846984103 0.030733320862 -0.0065882648341 -0.013767422177 0.033075504005 -0.0078043215908 -0.019674679264 
0.034958038479 -0.0087949745357 -0.025295283645 0.036364991218 -0.0098290462047 -0.031339004636 0.037232328206 -0.01086414326 -0.037967342883 
0.038691755384 -0.012828457169 -0.044863551855 0.03942373395 -0.016607804224 -0.053641594946 0.035875361413 -0.020714914426 -0.063476972282 
0.028165623546 -0.02306589298 -0.069077990949 0.018306847662 -0.023437678814 -0.067869573832 0.0094041032717 -0.022257775068 -0.061706010252 
0.0073016122915 -0.024223901331 -0.064778074622 -0.0042403652333 -0.021122084931 -0.048875793815 0.00017644044419 -0.02265301533 -0.058660823852 
-0.0085965888575 -0.019338995218 -0.03975931555 -0.011415431276 -0.017341749743 -0.030108228326 -0.012370458804 -0.014907486737 -0.020017780364 
-0.012828250416 -0.012209366076 -0.0093071274459 -0.010431627743 -0.0089437467977 0.00069470220478 -0.0058283088729 -0.0059996857308 0.0084781870246 
-0.0011823672103 -0.0043824063614 0.010648845695 0.00076508335769 -0.0047502866946 0.0089161470532 -0.0024466735777 -0.0070587620139 0.0030236032326 
-0.011361026205 -0.00894510746 -0.0028964488301 -0.024567268789 -0.012006659061 -0.0064982897602 -0.039381783456 -0.01522255037 -0.0065455958247 
-0.054793681949 -0.018836315721 -0.0029603030998 -0.069481052458 -0.02275861986 0.0046105398796 -0.082365810871 -0.026716476306 0.014540138654 
-0.091265141964 -0.02990151383 0.026360535994 -0.093716263771 -0.03141958639 0.037986773998 -0.088533133268 -0.030621429905 0.047251708806 
-0.076043263078 -0.027267139405 0.052421260625 -0.058745972812 -0.022048085928 0.052156079561 -0.041518121958 -0.015821808949 0.047141835093 
-0.027754237875 -0.009865693748 0.0395142138 -0.019005114213 -0.0060037374496 0.032184232026 -0.012642772868 -0.0038109677844 0.027165139094 
-0.0083182901144 -0.0025622406974 0.023315191269 -0.0056170313619 -0.0022822485771 0.020491013303 -0.0040021720342 -0.0026634281967 0.018861815333 
-0.0030186672229 -0.002125385683 0.015832057223 -0.0032569216564 -0.0033411760814 0.018149895594 -0.0028728267644 -0.00060986366589 0.014102332294 
-0.0032390363049 0.00052207999397 0.013472271152 -0.0047585330904 -0.00036649938556 0.014481873251 -0.0061312071048 -0.0037869508378 0.019499778748 
-0.0047197365202 -0.0099349571392 0.029249234125 0.0033592153341 -0.015654705465 0.039775323123 0.014714153484 -0.018914446235 0.045580282807 
0.025644922629 -0.020453236997 0.046888861805 0.038310628384 -0.020801087841 0.046610224992 0.039262630045 -0.021067874506 0.033425353467 
0.037224519998 -0.020852496848 0.023851724342 0.040463231504 -0.019539611414 0.021588385105 0.04246064648 -0.01859026961 0.016039025038 
0.039917416871 -0.016140704975 0.0098258992657 0.033307831734 -0.012721760198 0.0039044397417 0.02438451536 -0.0092890085652 -0.00057291804114 
0.016276499256 -0.006503758952 -0.0024668227416 0.011166069657 -0.0039207548834 -0.00099862832576 0.011197878048 -0.0047118347138 -0.0019091090653 
0.011302162893 -0.003630501451 -0.00045193874394 0.059715114534 -0.0084969513118 0.02568584308 0.062837287784 -0.011731408536 0.039099935442 
0.059601265937 -0.014719591476 0.047538328916 0.051624700427 -0.017865402624 0.050016611814 0.040507223457 -0.017533525825 0.059487115592 
0.035490650684 -0.014904051088 0.065577551723 0.025314755738 -0.013530081138 0.067109160125 0.014725510962 -0.011377009563 0.065007887781 
0.0024870971683 -0.0098800621927 0.057071477175 -0.0075114862993 -0.007915825583 0.04464154318 -0.0094779757783 -0.0052165836096 0.033069912344 
-0.0076319170184 -0.0038514810149 0.026148762554 -0.0062315054238 -0.0043475329876 0.022422365844 -0.004864868708 -0.0045768041164 0.019599748775 
-0.003484856803 -0.00440688245 0.0205095727 -0.0035637565888 -0.0040532252751 0.018183982 -0.0037076508161 -0.0044742925093 0.02293298766 
-0.0043596071191 -0.0042111785151 0.025049246848 0.023744415492 -0.0037533314899 -0.0028543702792 0.018409948796 -0.0028059359174 -3.9888400352e-05 
0.028178898618 -0.0051127532497 -0.0078304391354 0.03158981353 -0.0063889608718 -0.013341451064 0.033688034862 -0.0074423113838 -0.018532367423 
0.03551479429 -0.0082348575816 -0.023198245093 0.036875735968 -0.0091923698783 -0.028693666682 0.037733774632 -0.010168036446 -0.034829203039 
0.039400540292 -0.011931505054 -0.041060447693 0.042036645114 -0.015887798741 -0.050061348826 0.040577888489 -0.021863378584 -0.064268283546 
0.030693817884 -0.025041149929 -0.073402769864 0.019319541752 -0.025671275333 -0.072959795594 -0.0040531684645 -0.020188761875 -0.052665673196 
-6.0654161643e-05 -0.021165827289 -0.060813523829 0.0048771500587 -0.022716131061 -0.066706910729 -0.0076952995732 -0.019948208705 -0.04434966296 
-0.011203338392 -0.018974026665 -0.03589271009 -0.013309339061 -0.017311690375 -0.027053581551 -0.014440972358 -0.015526895411 -0.018012950197 
-0.014079841785 -0.013431485742 -0.0091507676989 -0.011862969957 -0.011568763293 -0.0014002609532 -0.0075997058302 -0.0092364046723 0.0058703254908 
-0.0039225067012 -0.0079208044335 0.0077668912709 -0.002523899544 -0.007841207087 0.0069229872897 -0.0035691873636 -0.0080090975389 0.0043171895668 
-0.026748415083 -0.010524261743 -0.0082316966727 -0.015522505157 -0.0092368852347 -0.0050155092031 -0.040369935334 -0.012502546422 -0.0091583039612 
-0.055842839181 -0.015788679942 -0.0062968907878 -0.07078102231 -0.019705088809 0.0011041169055 -0.08418161422 -0.024052189663 0.011130942032 
-0.093323804438 -0.02791538462 0.023974796757 -0.096325129271 -0.030041746795 0.036561477929 -0.091802977026 -0.029516749084 0.047791458666 
-0.078230932355 -0.025507582352 0.056498028338 -0.042537149042 -0.015580868348 0.05098503083 -0.05911353603 -0.020666670054 0.055838674307 
-0.028815114871 -0.010807674378 0.043983560055 -0.019471121952 -0.0073782061227 0.036507155746 -0.01260156557 -0.0053175729699 0.031188113615 
-0.0081781633198 -0.0040521384217 0.02666194737 -0.0052747903392 -0.0035623277072 0.023342395201 -0.0041341991164 -0.0036783497781 0.021413149312 
-0.0034315881785 -0.0041514807381 0.020827945322 -0.0084291836247 -0.0087023694068 -0.0015827303287 -0.0058059203438 -0.0085697751492 0.0014452878386 
0.047275815159 -0.015684043989 -0.041657183319 0.047694370151 -0.017046166584 -0.048701245338 0.012561530806 -0.0054785129614 -0.003049655119 
0.020453067496 -0.0061971982941 -0.0022817307618 0.033855959773 -0.0081618595868 0.0032562976703 0.045990694314 -0.011169651523 0.012941385619 
0.052634947002 -0.014633444138 0.02284004353 0.05244166404 -0.01735044457 0.031040336937 0.047633159906 -0.019865579903 0.034721169621 
-0.0042893630452 -0.0049320263788 0.027087150142 -0.0057120653801 -0.0055321720429 0.030899463221 -0.0092009315267 -0.0063952305354 0.035383511335 
-0.014548011124 -0.0072105135769 0.040085103363 -0.021102491766 -0.0078783482313 0.045819114894 -0.030264949426 -0.0089427232742 0.052014034241 
-0.041523892432 -0.011046321131 0.058616977185 -0.054534085095 -0.014926982112 0.061139974743 -0.066371545196 -0.019609678537 0.060874056071 
-0.094417713583 -0.027783736587 0.045183748007 -0.095280453563 -0.025779172778 0.041458439082 -0.096333198249 -0.025433050469 0.032552588731 
-0.091968528926 -0.02303227596 0.019451705739 -0.081441268325 -0.01822595112 0.0051261214539 -0.066571012139 -0.013015622273 -0.0052349222824 
-0.050902359188 -0.0092094698921 -0.010030671023 -0.036374140531 -0.0068728583865 -0.011234615929 -0.025771923363 -0.0067029665224 -0.0078051523305 
-0.017636928707 -0.0071022138 -0.0052659939975 -0.011903462932 -0.0077173849568 -0.0029799568001 -0.008530347608 -0.0084567293525 -0.00097188103246 
-0.0073434878141 -0.0092973476276 0.00033530322253 -0.0073547493666 -0.010250753723 0.0007252698415 -0.0083910236135 -0.011140001006 0.00035841402132 
-0.010329959914 -0.012070257217 -0.0006349182222 -0.011788344011 -0.012638557702 -0.0026292288676 -0.012833369896 -0.012901228853 -0.0039669387043 
-0.013750129379 -0.013216500171 -0.0054856995121 -0.015580529347 -0.016047686338 -0.020235538483 -0.016217328608 -0.015266358852 -0.013770267367 
-0.014287412167 -0.016755079851 -0.02708333917 -0.012785866857 -0.017370887101 -0.033555943519 -0.011627433822 -0.017798896879 -0.038245577365 
-0.0090698627755 -0.018527932465 -0.043830372393 -0.0087409839034 -0.0057708662935 0.024765558541 -0.0058877943084 -0.0047750058584 0.018679421395 
-0.0039757578634 -0.0034460739698 0.016146864742 -0.0043488503434 -0.0024864145089 0.014955593273 -0.0048120911233 -0.0015853521181 0.014650056139 
-0.0069084893912 -0.003443636233 0.01709263213 -0.0079903462902 -0.0076411510818 0.025587618351 -0.0038930256851 -0.012798514217 0.038793191314 
0.010276585817 -0.0160699673 0.05320591107 0.023055391386 -0.01752634719 0.056239247322 0.03007732518 -0.018669145182 0.054881114513 
0.012449089438 -0.024820107967 -0.073620088398 0.022744376212 -0.025849396363 -0.078980378807 0.033183544874 -0.025236334652 -0.078489504755 
0.040956772864 -0.023323306814 -0.071522705257 0.045248668641 -0.020754938945 -0.063320867717 0.045787021518 -0.019079826772 -0.054725918919 
0.04435428232 -0.014353610575 -0.038972590119 0.043674968183 -0.014891662635 -0.043790780008 0.043747954071 -0.014263368212 -0.037251055241 
0.040781036019 -0.012501842342 -0.031932216138 0.038069553673 -0.010354023427 -0.025932073593 0.035456884652 -0.0084696356207 -0.020758509636 
0.032716382295 -0.0068629090674 -0.015438877046 0.033503338695 -0.0066092517227 -0.01602306217 0.028957625851 -0.0050724903122 -0.008218084462 
0.032148528844 -0.0061726081185 -0.013600600883 0.024338278919 -0.0039164093323 -0.0031807476189 0.018607191741 -0.0029578791 0.00026259175502 
0.0071348231286 -0.013639178127 0.05570165813 -0.0024944068864 -0.01224478893 0.047021184117 -0.0090771308169 -0.0081898458302 0.030797205865 
-0.0037482606713 -0.0046308841556 0.024114944041 -0.096956126392 -0.028039259836 0.034121416509 -0.093255370855 -0.025619065389 0.021000843495 
-0.083704344928 -0.021136302501 0.0075281723402 -0.069934561849 -0.016232592985 -0.0028519988991 -0.054708726704 -0.012321077287 -0.0093056252226 
-0.03939146921 -0.0094180610031 -0.011520952918 -0.027024241164 -0.0084221540019 -0.0089068710804 -0.01750815101 -0.0082396185026 -0.0057152658701 
-0.01103250403 -0.0082898624241 -0.0027967649512 -0.0077429646626 -0.0085159605369 -0.00010721080616 -0.0068054553121 -0.0090125892311 0.0014726836234 
-0.0069141602144 -0.0097916908562 0.0019648068119 -0.01138149295 -0.012136123143 -0.00065206189174 -0.011239614338 -0.012190413661 -0.00063357281033 
-0.012953084894 -0.017877083272 -0.031662479043 -0.014641738497 -0.016821624711 -0.023909946904 -0.010917613283 -0.018468946218 -0.038651809096 
-0.0048822192475 -0.0049813413061 0.028373222798 -0.0080679180101 -0.0057610240765 0.032933287323 -0.013082049787 -0.006753929425 0.038062062114 
-0.019693726674 -0.007909193635 0.044158473611 -0.029443493113 -0.0097385570407 0.050436805934 -0.040154073387 -0.012150934897 0.056246910244 
-0.04944286868 -0.014796788804 0.059716805816 -0.054580591619 -0.017455864698 0.058659311384 -0.041462566704 -0.013919841498 0.054222822189 
-0.029119778425 -0.010573370382 0.047863621265 -0.019498402253 -0.007932365872 0.040902387351 -0.012662616558 -0.0062446892262 0.034976400435 
-0.0079268896952 -0.0050724670291 0.030086793005 -0.005093134474 -0.0044806408696 0.026335680857 -0.0039032604545 -0.0042820437811 0.023883905262 
0.040083967149 -0.011752896942 -0.03310168907 0.037847537547 -0.0096295299008 -0.027541933581 0.035908706486 -0.0080308197066 -0.022272376344 
-0.015386926942 -0.015637716278 -0.016519473866 -0.015349178575 -0.014594208449 -0.010751920752 -0.014707677066 -0.01385558024 -0.0077027129009 
-0.0060988203622 -0.0096476720646 0.0052063819021 -0.0086766313761 -0.010766130872 0.0036757013295 -0.004800089635 -0.0091375615448 0.0051923072897 
-0.004667179659 -0.0087377764285 0.0042819902301 -0.005714233499 -0.008925546892 0.0028369901702 0.039739042521 -0.01141470205 -0.03654159233 
0.033801838756 -0.0069992286153 -0.017543716356 0.035320866853 -0.0074638035148 -0.020489374176 0.036719728261 -0.0084396675229 -0.025571959093 
-0.0071979635395 -0.0046232966706 0.0180742722 0.037885606289 -0.0095644285902 -0.030956398696 -0.0072208079509 -0.010146462359 0.0032165583689 
-0.0092614488676 -0.011140987277 0.0019968491979 -0.0061313081533 -0.0095674833283 0.003448283067 -0.0042384755798 -0.0017629532376 -0.0029912895989 
-0.020460391417 -0.011736515909 -0.0026857296471 -0.0055895694532 -0.001989405835 0.023073427379 0.013887164183 -0.0025400405284 0.00090910773724 
0.013289626688 -0.0026383372024 0.0010745590553 -0.0096289785579 -0.011373579502 0.00083422131138 -0.0077953105792 -0.01049759239 0.0017059727106 
-0.011767326854 -0.012106981128 -0.00042623621994 
