# vtk DataFile Version 5.1
vtk output
ASCII
DATASET POLYDATA
POINTS 1114 double
77.883888245 63.633712769 45.870170593 76.773333956 63.759042593 46.914537704 76.65212859 64.925041763 46.544442598 
77.750616978 64.853534064 45.520242658 76.052685314 63.742539141 48.241610567 75.810015367 64.991351171 47.801084573 
75.645244427 63.810728703 49.69871468 75.341683762 65.173899728 49.25141003 75.554734073 63.972231077 51.204890887 
75.231742779 65.431409692 50.880525284 75.706403021 64.097291744 52.717641114 75.485983432 65.513694014 52.587317628 
75.937207929 64.015878561 54.227555696 75.712302452 65.432651943 54.206497634 76.507160437 63.921378574 55.643157781 
76.145280917 65.379340445 55.706058979 77.041176383 63.9893319 57.069868407 76.705912183 65.392521195 57.187980011 
77.687672929 64.077753906 58.441439573 77.367284422 65.42255396 58.615012059 78.537834663 64.115911402 59.709814494 
78.248686271 65.474482877 59.914146521 79.524997629 64.209041705 60.864075682 79.318322358 65.553100232 61.055360895 
80.773618795 64.217482177 61.729630471 80.594578142 65.628149907 61.952220788 82.194266183 64.296340511 62.290326254 
82.012955141 65.720117846 62.623539679 83.653443003 64.357193878 62.714732344 83.532643835 65.819816915 63.000326814 
85.172110587 64.424088021 62.851153267 85.093141173 65.862822575 63.165600804 86.70059268 64.422940754 62.904962665 
86.656871273 65.867144347 63.157350616 88.211586248 64.415493907 62.757999455 88.193521347 65.851372633 63.013348193 
89.689888952 64.461040356 62.375866788 89.672089876 65.894598653 62.610206704 91.168900575 64.551039963 62.005494507 
91.109015759 65.960460809 62.073582645 92.647833129 64.648399989 61.675763489 92.519402883 65.981814457 61.547005488 
93.883115126 64.710640095 60.775793704 93.786653043 66.021718042 60.681104249 94.978504605 64.635316943 59.71793585 
94.949959109 66.034413065 59.667254115 95.836845387 64.56474155 58.477284646 95.917327042 66.040072778 58.480653399 
96.426778912 64.53703061 57.073815221 96.661894883 66.072471309 56.999695286 96.770356718 64.521312615 55.588570604 
96.982414397 65.85616885 55.398109559 96.496693872 64.095107748 54.145241427 96.732822345 65.560132277 53.906334131 
96.110096576 63.780277154 52.701914084 96.232427276 65.276762206 52.462420262 95.549691724 63.539747892 51.306576541 
95.609595645 65.033892715 51.08194464 94.839226187 63.344262843 49.966942103 94.900930259 64.829148722 49.754906524 
94.05979962 63.177045951 48.661964402 94.107462054 64.661523374 48.476557592 93.143121763 63.095765823 47.440147598 
93.197399297 64.54305482 47.2865555 92.012151216 62.974508533 46.431543568 92.101996849 64.456663967 46.256464261 
90.744721026 62.917566069 45.590515886 90.882290181 64.419059012 45.362068548 89.38377626 62.946203916 44.898867815 
89.520126742 64.452150618 44.684751151 87.94505292 62.988807811 44.381179575 88.097427226 64.520031886 44.123551683 
86.466563396 63.125891989 44.015371083 86.585970722 64.652934878 43.775711201 84.955811085 63.193054034 43.800198767 
85.022238181 64.792976535 43.621483729 83.433736043 63.293541137 43.753079774 83.441753264 64.896633486 43.557304403 
81.925030236 63.429659877 43.917356593 81.876662934 64.91406318 43.733751396 80.452650087 63.504456898 44.298166224 
80.364026307 64.871654069 44.088578666 79.066386115 63.503596276 44.908656401 78.945554258 64.80846025 44.621823514 
78.394554138 88.998214722 37.739414215 79.94793385 88.9803362 37.552772427 79.93683386 87.391216754 37.798728005 
78.378033372 87.376742982 37.890331196 81.499705556 88.957122121 37.472893773 81.492521525 87.399654179 37.770712126 
83.046802354 88.918396133 37.703404341 83.048531069 87.398229795 37.930358527 84.598482841 88.887464742 37.899217477 
84.596005959 87.386212122 38.12625265 86.154197192 88.863392968 38.064495226 86.132935466 87.367841789 38.374761404 
87.659142973 88.889521145 38.487304216 87.628010689 87.397589971 38.824282009 89.13084009 88.953344403 39.002014441 
89.089795361 87.456083435 39.359328831 90.553534205 89.073357615 39.642078197 90.501835643 87.543835453 40.00322593 
91.847936713 89.200396762 40.505951903 91.807970315 87.65833603 40.831342758 92.993838164 89.314410758 41.539355885 
93.053864495 87.779943534 41.731569364 93.94075645 89.406624836 42.78152562 94.153901548 87.891229022 42.809156594 
94.911466589 89.538733994 44.001449174 95.282776231 88.055291617 43.877682446 95.882878038 89.670725915 45.220903809 
96.312516412 88.199727671 45.051558738 96.827620898 89.79258893 46.457099595 97.236830064 88.301940299 46.333710537 
97.433851849 89.819700779 47.89928277 97.881067093 88.279785779 47.801202189 97.97745738 89.844231133 49.365391634 
98.476685562 88.304725145 49.318527316 98.43575501 89.880436479 50.856251488 98.972268442 88.45833592 50.849345196 
98.640201475 89.983774837 52.404045452 99.249977984 88.641826222 52.421109067 98.50148612 90.036561189 53.942683816 
99.151258461 88.738212344 54.017414316 98.143919913 90.062885822 55.460298182 98.719484761 88.748709464 55.525721439 
97.497419331 90.079046687 56.885050494 97.981148515 88.697403745 56.925272763 96.705091192 90.087544397 58.228603793 
97.137576864 88.64275814 58.264733832 95.8219156 90.096302196 59.519602595 96.194393462 88.484748734 59.572367159 
94.867565778 90.131937054 60.758993535 95.08258554 88.088521917 61.115981215 93.844097239 90.154501761 61.94015879 
93.893906617 88.695222605 62.251838644 92.769338267 90.167209308 63.074295007 92.888601427 88.738698322 63.275638183 
91.432639641 90.1261911 63.886512722 91.654858393 88.650289832 64.137114015 90.023403954 90.103145525 64.527880445 
90.307700848 88.631019159 64.891226357 88.509215585 90.10610426 64.922048122 88.851918683 88.66516433 65.516052982 
87.004487728 90.097138083 65.350343373 87.318964723 88.66168273 66.011006947 85.495272886 90.084592833 65.752417426 
85.731497985 88.654466435 66.416140644 83.940568464 90.072104894 65.928148866 84.103053848 88.663609394 66.703120512 
82.3812759 90.087486744 66.009991594 82.372202926 88.648919703 66.798416993 80.817298624 90.131324969 65.995969501 
80.681676978 88.826932573 66.64816197 79.473562931 90.09424758 65.259278453 79.308635127 88.728552117 65.780009492 
78.18652372 90.049858013 64.373636125 78.028483036 88.646492346 64.79800104 76.994954399 90.037799779 63.359653641 
76.820470602 88.564941335 63.754470631 75.789318922 89.983838333 62.364759111 75.653542344 88.465148217 62.687151724 
74.572542007 89.896257411 61.385008004 74.509136634 88.352708412 61.609631965 73.398589531 89.806672181 60.354496773 
73.371378301 88.257345178 60.526881456 72.344136051 89.673558394 59.224268978 72.361762278 88.121854922 59.357260888 
71.477897921 89.471885515 57.936983897 71.493700138 87.954851419 58.065800372 70.797122026 89.232386503 56.554993075 
70.787599554 87.765016239 56.678593243 70.192267869 88.999583484 55.133968582 70.128973528 87.636080135 55.247022388 
69.656665451 89.160854386 53.672713959 69.492980726 87.66014655 53.790483079 69.165587257 89.254693077 52.195101872 
68.898422237 87.709963769 52.31299437 68.771733841 89.201284246 50.681771005 68.477579838 87.714017506 50.790849702 
68.749895201 89.160779409 49.154829971 68.445310657 87.669826647 49.194139672 69.034997634 89.130921371 47.61665949 
68.701656235 87.63491525 47.62403707 69.549654092 89.075712353 46.145090127 69.241821252 87.573167709 46.116061538 
70.140680504 89.014648987 44.701212275 69.861736726 87.54070961 44.636691579 71.154967877 88.967733225 43.510765568 
70.830814017 87.479851127 43.380977572 72.171076557 88.934675772 42.3216402 71.839202013 87.448092684 42.149694099 
73.192309079 88.940605587 41.136232127 72.9343738 87.427924113 41.001319396 74.348433058 88.955000908 40.102087804 
74.142619329 87.407062119 39.976963694 75.641778882 88.978007986 39.221820469 75.428599233 87.387066255 39.051954562 
77.004904788 88.990172068 38.458408879 76.887398468 87.361799803 38.407924834 75.435751065 66.176655084 47.174325003 
76.378247219 66.108200983 46.024850702 74.796539096 66.439424871 48.622525469 74.496100352 67.030426398 50.478796313 
74.834863751 66.873000871 52.608130079 75.178929201 66.788333766 54.309327107 75.680880093 66.767824715 55.876226186 
76.260581904 66.769309041 57.379412864 76.95859206 66.783492926 58.841803949 77.82884098 66.81603248 60.224537764 
78.964610244 66.906118733 61.405251763 80.299423519 67.021144998 62.337570685 81.788863205 67.1740038 63.025382947 
83.371427564 67.280587318 63.50414152 85.014550649 67.278624395 63.719126144 86.656056158 67.234205058 63.745627814 
88.267311957 67.181497069 63.624377493 89.81424376 67.192784631 63.252377052 91.297046624 67.248252802 62.699333398 
92.717756345 67.308514498 62.022949403 94.043221235 67.372873763 61.149758492 95.28480745 67.405442887 60.15441689 
96.505741609 67.452957121 58.96254627 97.597929161 67.787367179 57.099703138 97.512645137 67.318294588 55.093676348 
97.089673855 66.992209272 53.520406129 96.522870586 66.711644826 52.101546479 95.855943586 66.462921243 50.738915184 
95.106577456 66.257922193 49.438555522 94.27731293 66.098206851 48.197676584 93.376835437 65.968472583 47.011593387 
92.276058001 65.903225809 45.99349026 91.058029994 65.886351163 45.101157836 89.725342389 65.925668953 44.360804726 
88.294103062 66.015951659 43.770945973 86.74854785 66.175790701 43.406507992 85.145536447 66.36343167 43.272796003 
83.421856813 66.508983667 43.206299504 81.774299431 66.429529909 43.502797961 80.159727312 66.257237329 43.8879456 
78.746305353 66.08177523 44.285866037 77.467798401 66.010564012 45.004260125 81.515993739 85.844428145 37.70624468 
79.920270411 85.805918985 37.672731253 83.088052212 85.861916271 37.884098556 84.62812864 85.857598473 38.195814745 
86.139215284 85.85563672 38.603221693 87.6365168 85.877201766 39.067792176 89.104144648 85.921661132 39.604848736 
90.537381907 85.997525546 40.227489592 91.880918596 86.109424609 41.010012136 93.233684154 86.252055856 41.786757038 
94.572393805 86.449171831 42.585506185 95.808105064 86.653463785 43.573102996 96.980619549 86.867373584 44.684480931 
97.947674292 86.964263695 45.997173035 98.685829264 86.939260494 47.501790326 99.358246628 86.91008728 49.145472243 
99.848509844 87.153771838 50.831659979 100.03160497 87.334635527 52.482999138 99.859767408 87.420576522 54.138265533 
99.384707381 87.427246761 55.661169324 98.660587043 87.393056686 57.069536908 97.822425397 87.32636264 58.373216601 
96.862067167 87.006307422 59.491401258 95.948393216 86.406182044 60.687286244 93.11303403 87.390516799 63.515926839 
93.826919626 87.608292224 62.683732191 92.013163231 87.225945116 64.460617783 90.742442008 87.209621406 65.450245821 
89.301253025 87.304213837 66.25728391 87.753992846 87.42285629 66.935545804 86.146969313 87.478362709 67.422712858 
84.418780719 87.453601974 67.815019241 82.302858015 87.206428858 68.152408453 80.278666102 87.531278757 67.442062104 
78.852450645 87.473600776 66.471423183 77.587739484 87.370664964 65.461877688 76.410344963 87.210318312 64.358843837 
75.240614702 87.091067854 63.266879341 74.146894236 86.937023137 62.108912281 73.022947388 86.827531801 60.980192024 
72.046850611 86.666937886 59.734504362 71.21146411 86.482946922 58.387644753 70.557716602 86.300190625 56.92526383 
69.955919581 86.174818498 55.424600876 69.246458027 86.152728128 53.957015258 68.600099355 86.164402559 52.444615072 
68.015835773 86.210897837 50.933853766 67.889808732 86.190874927 49.213630402 68.176262582 86.146985755 47.591614085 
68.787018707 86.076025353 46.035998503 69.508013155 86.03161325 44.546145451 70.445350322 85.980046462 43.216799746 
71.433442515 85.958032348 41.921446731 72.526217166 85.932382899 40.719216251 73.803246213 85.86248424 39.682942288 
75.16979675 85.791867846 38.778837908 76.721056567 85.715295783 38.176715941 78.314758651 85.764435549 37.736559959 
94.495517972 86.755767535 62.288546761 95.257097105 85.487468809 61.88795745 74.250054459 68.23276426 52.947425432 
73.88058536 68.461357559 51.313574624 74.653224425 68.160835668 54.546813104 75.15677853 68.139734641 56.098016228 
75.826813426 68.163231093 57.580886347 76.6092314 68.207005103 59.017580022 77.488141337 68.251111371 60.4206575 
78.603320487 68.325333558 61.680803625 79.911991293 68.447141833 62.701200782 81.432075204 68.629463255 63.484817789 
83.167072634 68.793356328 64.140764279 84.999372392 68.687031905 64.431579947 86.706131314 68.585792718 64.470682963 
88.39245531 68.493441685 64.350597941 90.005583579 68.466525999 64.011583373 91.548132993 68.499654263 63.457136774 
93.027306131 68.53309537 62.776949386 94.430682051 68.57678445 61.929777671 95.740428094 68.645091455 60.934423351 
96.987276579 68.791485719 59.877310734 98.033375707 69.356070496 58.4907846 97.465211776 68.412070258 53.016867171 
97.966471469 68.798882693 54.439062683 96.84844123 68.104138055 51.636998052 96.142551061 67.853681428 50.323411205 
95.351155271 67.656203769 49.072621536 94.509204683 67.499055217 47.859551035 93.59192908 67.377890908 46.698468697 
92.530132263 67.311928665 45.649306924 91.330923322 67.309205721 44.733843093 90.009638465 67.365507352 43.95809402 
88.579518325 67.4749349 43.333706613 87.06112104 67.631491059 42.87989216 85.39436827 67.870097999 42.566077341 
83.338434179 68.244476837 42.184679214 81.33780429 67.808354084 42.635790752 79.669992607 67.330103812 42.951958227 
78.21628546 67.048388056 43.45165452 76.939725712 66.92856516 44.197140545 75.914631262 67.144184435 45.261244242 
74.993246752 67.326374243 46.425356185 98.413044475 69.38652702 55.934948984 98.815274455 70.341108016 57.251206012 
93.650170104 86.07885945 63.428166407 94.360468674 84.58307051 63.089155897 92.552414414 85.649984321 64.713288003 
91.215823886 85.700592579 65.986291684 89.779187797 85.863777348 67.004243017 88.235167042 86.106051692 67.842170432 
86.633567717 86.255881891 68.395788938 85.03774367 86.264017453 68.834365777 83.497606519 85.949610879 69.307139486 
78.235930518 86.293254561 67.23207131 79.544509675 86.283835958 68.179435676 76.965530114 86.19986943 66.225497741 
75.743470213 86.087639121 65.167858501 74.685641004 85.819999627 63.960384519 73.634946211 85.602570518 62.736821162 
72.583652478 85.429810296 61.509250168 71.667716145 85.21539565 60.168777103 70.921636346 84.977157253 58.742892487 
70.455171929 84.749398511 57.14445741 69.915425468 84.632365487 55.558856831 69.210269299 84.592157097 54.037081776 
68.461301176 84.576355358 52.530750494 67.694045646 84.564347339 51.056783112 67.540696055 84.541658324 49.255538028 
67.802157492 84.518942829 47.5778403 68.440391483 84.506807845 45.981853901 69.164594187 84.481752991 44.45893977 
70.035658801 84.457570094 43.048410234 71.043097469 84.435467536 41.729379672 72.146383574 84.396185644 40.490774343 
73.449605446 84.290417541 39.411014867 74.838678525 84.172961517 38.445756819 76.536976714 84.019021921 37.797257495 
78.312895785 84.148416077 37.394645252 79.958061323 84.247621969 37.377733983 81.589515827 84.315651828 37.482495933 
83.175625996 84.341088719 37.732684965 84.721873204 84.337462241 38.083030397 86.23490258 84.323425711 38.541992256 
87.747055634 84.333212357 39.026028346 89.241310359 84.36760221 39.557447841 90.711304216 84.432299696 40.18038788 
92.181866871 84.565922777 40.814535025 93.624044582 84.752357213 41.516709144 95.046019019 85.006210682 42.253576822 
96.386197698 85.261260131 43.191480007 97.648296235 85.518969914 44.261159208 98.655266234 85.631790172 45.561324188 
99.50427343 85.561655523 47.102556441 100.38232508 85.194613549 48.972765671 100.74275098 85.745085388 50.950236902 
100.70417646 85.935787956 52.704009177 100.5243592 86.038926935 54.347517116 100.06947971 86.077848107 55.881679372 
99.297966259 86.058004537 57.262657125 98.494119892 86.056521721 58.502155468 97.54810832 85.795748057 59.411299041 
96.812519679 85.127246227 60.330109573 96.101253214 84.219878538 61.292428803 95.215658435 83.20596096 62.304135156 
93.05308467 83.543861109 64.664652549 94.261953981 82.047953385 63.375333046 81.004987503 85.934784403 69.059924223 
82.236280418 85.057511557 69.754165361 98.964660534 70.662662792 55.004631411 99.441744759 71.392545605 56.218149066 
98.531233033 70.109678147 53.670350214 97.935914431 69.74962189 52.366212152 97.291961929 69.416250147 51.064914969 
96.554745801 69.16400904 49.803445697 95.744311984 68.97313668 48.59919195 94.838399525 68.847311301 47.448691114 
93.894425148 68.744354376 46.320394568 92.84401309 68.697148471 45.275066732 91.649066309 68.724207635 44.365437631 
90.385366275 68.773444441 43.502342896 88.98611052 68.888900689 42.815653142 87.506761804 69.013591564 42.236413855 
86.025460422 69.17363413 41.693335339 84.531202617 69.452345723 41.042396478 78.965301536 67.981486975 41.779871062 
80.502321398 68.60947661 41.345649156 77.476640914 67.507952375 42.318979036 76.179566558 67.546560833 43.169611518 
75.143081207 67.896904367 44.291611352 74.276881831 68.226102227 45.496507802 73.865522002 69.602283976 53.244027425 
73.468017844 69.718285095 51.790743549 74.301783895 69.573685833 54.737571015 74.81139907 69.583528902 56.25136618 
75.487036817 69.625231138 57.704766736 76.321119596 69.675094789 59.099449835 77.254756797 69.720656081 60.457447418 
78.283771509 69.78293074 61.733309181 79.503541496 69.912599889 62.896531973 80.944947154 70.156040299 63.89536731 
82.872066308 70.569362146 65.001302024 85.102010086 70.130768171 65.271879268 86.922281177 69.928449784 65.281271842 
88.614107307 69.807516698 65.144955162 90.249158735 69.7724744 64.782678449 91.821442557 69.798965331 64.219613369 
93.322978128 69.830425952 63.521139954 94.764608196 69.868885095 62.703781922 96.047924227 69.957458445 61.718553422 
97.239549654 70.171912424 60.637066714 98.301204876 70.696282237 59.456591199 99.044237791 71.459718737 58.302618732 
99.757398248 72.327015546 57.293532513 100.20891115 72.252392518 55.331734231 100.47469628 73.136082358 56.339771581 
99.798990495 71.666164864 54.135453732 73.425088974 68.979560721 49.971576806 73.108527926 69.950738121 50.541017185 
72.90531685 69.587461711 49.046962174 72.7473162 70.079749643 49.737471209 82.072429481 69.104862292 40.783329564 
83.326558174 69.966814466 40.11231901 91.431353081 83.917911664 66.402248272 89.974871456 84.271684854 67.61000376 
88.53443908 84.635421631 68.573039375 87.0230716 84.943133377 69.189107432 85.505898346 85.033701848 69.591977448 
84.224598047 84.808674742 69.836992749 83.212013645 84.067552564 70.241680841 81.250589458 83.983073284 70.084540867 
82.299937869 83.07542044 70.439381534 80.058616649 84.767424443 69.612062026 78.818661949 85.087865591 68.834782155 
77.544899918 85.154187192 68.001655177 76.334133224 85.000523203 66.989892111 75.117226847 84.839325496 65.920000989 
74.095343847 84.543637904 64.685145257 73.080685918 84.279242523 63.410794218 72.063004495 84.052830923 62.118593378 
71.315540142 83.717551738 60.617688746 70.740473137 83.394634551 59.047094979 70.342123616 83.133181741 57.375708622 
69.914404016 83.043259026 55.688358036 69.244700954 83.010004857 54.09455393 68.503002475 82.980483723 52.541328955 
67.712866401 82.947100205 51.058958435 67.513703251 82.929428249 49.277193857 67.613282303 82.913827278 47.56784833 
68.199195891 82.902484172 45.934393423 68.867961719 82.895956062 44.380600108 69.671420167 82.900401649 42.918217572 
70.602912541 82.905133599 41.531375541 71.684501231 82.868397893 40.253810771 72.948464045 82.731310369 39.146751066 
74.374614994 82.514986217 38.075876368 76.338082206 81.979941997 37.0687633 78.478539559 82.472109983 36.90036939 
80.170025933 82.736798371 36.88937412 81.772988985 82.832267855 37.089548008 83.339758458 82.853513373 37.41988745 
84.874001936 82.83437709 37.826524616 86.401503419 82.811235472 38.265904221 87.92267997 82.801217206 38.761941266 
89.455258299 82.821793448 39.291418584 90.989748952 82.874221447 39.885626043 92.563674316 83.027326926 40.42362873 
94.096978197 83.2769652 41.071373723 95.588760449 83.576211104 41.802211273 96.985135646 83.855312449 42.734484228 
98.318311807 84.15324856 43.792483565 99.227317481 84.225165728 45.149233226 100.07633345 84.196764992 46.521587941 
100.71641807 83.794490504 47.804300436 101.34874761 84.527748614 53.015148211 101.52016628 84.310454872 51.459763476 
101.052634 84.564459123 54.618226506 100.55633734 84.577128602 56.155174659 99.729256986 84.653087543 57.56908887 
98.865946376 84.812778516 58.703286491 98.063345407 84.929886494 59.377176649 97.67322265 84.131037865 59.89243754 
97.024444608 83.112346585 60.583661296 96.190600807 82.007137836 61.431405084 95.259836264 80.858586355 62.30306188 
93.45012372 80.589805567 64.261807366 94.373659516 79.602925112 63.127287884 92.425475018 81.546568604 65.552800424 
91.207657416 82.106197538 67.010606661 89.895715478 82.532777092 68.159459919 88.465727422 83.001627596 69.082271111 
87.028332636 83.467183907 69.726890958 85.669044846 83.791359574 70.077239225 97.313973098 80.933569769 60.620110145 
98.269002716 82.172955564 59.852047453 96.338597833 79.770175889 61.434277667 95.390339739 78.555492578 62.199946191 
93.544464147 78.262076335 63.766855737 94.430059014 77.284615317 62.772772145 92.709919434 79.120986513 64.952522612 
91.851548389 79.858053323 66.242976485 90.776212374 80.382771208 67.535342892 89.626597192 80.797168269 68.781611982 
88.135020772 81.383630427 69.590142623 86.726908764 81.987393854 70.187229844 85.292637751 82.580532613 70.399021217 
101.41302186 83.697338123 49.913703495 101.36630121 82.78278695 48.635042997 99.34092008 71.156469251 52.868874508 
98.697637794 70.833147733 51.605107268 97.98312897 70.543347781 50.361862409 97.181174945 70.317472344 49.164443613 
96.289126782 70.172536545 48.027124514 95.345189132 70.078709618 46.916932463 94.321475833 70.043926866 45.855344729 
93.24979752 70.037504583 44.827778987 92.093897481 70.066040997 43.854272068 90.850681164 70.135095571 42.950704451 
89.482977216 70.252591134 42.19289279 88.055431956 70.347138741 41.541179635 86.658637833 70.444034072 40.909233493 
85.360942112 70.570430986 40.254382334 84.306740577 70.868292113 39.521539017 82.421130633 70.589504671 39.062793208 
83.559442123 71.507954747 38.683805205 81.147887448 69.71146977 39.524867534 79.728453876 68.995340284 39.963994178 
78.183634005 68.592211796 40.559454398 76.638205411 68.211426957 41.220519389 75.365685638 68.37258788 42.178100279 
74.262009514 68.707629509 43.316103123 73.377129108 69.076470667 44.602533131 73.574221204 68.514296704 46.761334136 
72.696171937 69.3963721 45.97277001 73.198982342 69.027413082 48.013487426 72.308370976 69.827549367 47.299277303 
72.158182272 70.326174295 48.520056005 72.171620922 70.724559933 49.632138995 72.537276996 70.894046737 50.738147306 
73.00774125 70.937040452 52.025312016 73.436314265 70.940168639 53.418728772 73.925113772 70.972481186 54.874497022 
74.475431181 71.027055638 56.339845576 75.140836669 71.091589187 57.783561912 75.98530215 71.14019557 59.149968779 
76.900687348 71.156757799 60.501289597 77.857543765 71.195457469 61.82864988 78.872453791 71.279046249 63.092705581 
80.055279334 71.538029957 64.235741324 81.31574466 71.939265794 65.434725496 87.237590783 71.288099664 66.051388617 
85.584278566 71.496326691 66.161520702 88.904524949 71.20802355 65.82689347 90.497868966 71.22742085 65.378926499 
92.034464948 71.241847895 64.778448009 93.512562035 71.271873702 64.043395595 94.937883129 71.329240055 63.227670931 
96.129360588 71.385580378 62.220062354 97.225273727 71.578130526 61.187589253 98.150740343 72.095016989 60.132921064 
98.896181058 72.796882215 59.049748901 99.770710885 73.545663094 58.131430126 100.57901877 74.275963599 57.162475103 
101.20907778 73.786802126 55.511794894 101.30882505 74.864568577 56.124016079 100.95843899 73.149231455 54.522793366 
100.67766355 72.605157513 53.351091793 83.875495512 71.941000738 66.254041715 82.35877299 72.692469826 66.61498081 
83.401147416 82.148859589 70.691302645 84.13035887 83.181037641 70.422766243 81.395028819 82.015423204 70.568116164 
82.48219165 81.018588219 70.710629069 80.402585081 82.932596465 70.27443536 79.465633779 83.594102203 69.755433936 
78.340450471 83.81199764 69.245612113 76.991163995 83.890885638 68.668402866 75.83110257 83.706027962 67.714935022 
74.611350885 83.504625237 66.653626283 73.596036084 83.195151286 65.401582615 72.579685144 82.910239881 64.094558085 
71.661347267 82.590916045 62.689426174 70.965651878 82.196105029 61.085026279 70.577821648 81.775046081 59.419840599 
70.374726496 81.430163333 57.590425881 69.993118713 81.423240262 55.734569237 69.335931351 81.426606516 54.113381142 
68.562570544 81.384617512 52.545440366 67.750065244 81.318572399 51.056225076 67.628025405 81.292124715 49.265133096 
67.595998814 81.273577896 47.509831749 68.091300309 81.264670601 45.899207187 68.589744478 81.290493388 44.292731728 
69.314992243 81.31169168 42.805504489 70.149978994 81.350012637 41.366664084 71.146894762 81.350228405 40.055666051 
72.306236583 81.250004289 38.851389063 73.517482823 80.990459711 37.739065272 74.957641308 80.359477258 36.81921744 
80.550832802 81.238091229 36.447510712 79.002542125 80.938579254 36.329676515 82.038058526 81.354134938 36.769709305 
83.549554883 81.381276277 37.112390254 85.047845716 81.340796682 37.527679265 86.54358707 81.275949514 38.008427955 
88.074884879 81.249424501 38.494953119 89.654113178 81.262101179 38.97079209 91.245117165 81.328505045 39.448553252 
92.954141213 81.463830399 39.943497566 94.637721847 81.793004778 40.596756999 96.118994706 82.093809196 41.41399387 
97.520233679 82.353746678 42.424397361 98.795212096 82.61873163 43.495907115 99.713162142 82.787670293 44.89050498 
100.46273808 82.920629177 46.153762298 100.81681454 82.916276207 47.154088292 101.21546147 82.014771081 47.521562563 
101.9320825 81.55505933 49.350171018 101.62292686 80.733663315 48.064243471 102.04166088 82.396846216 50.605473719 
102.02900229 83.01052837 51.895407082 101.86354072 83.122503944 53.275866863 101.53146476 83.121554404 54.812549411 
100.85288767 83.056273489 56.39701654 99.856735148 83.119866063 57.953115728 98.761459055 83.559149913 59.217997314 
77.49578858 80.284141607 36.139399512 76.183601358 79.234634416 36.110659827 84.634272954 81.319002517 70.622614013 
83.727959005 80.094436351 70.751758358 81.397346373 79.949273818 70.685377999 82.624599166 78.952230717 70.647955768 
80.368428927 81.062892985 70.597474719 79.548208772 82.051839558 70.278258912 79.015499951 82.787885784 69.97563265 
78.081531836 82.670095512 69.736127727 76.810966194 82.491998925 69.225258128 75.686767452 82.219108085 68.282419762 
74.497355017 81.920421334 67.224616262 73.449346089 81.621598888 65.978600871 72.41748565 81.325450891 64.637827231 
71.660612408 80.998840759 63.135511407 71.016461328 80.56783549 61.557038654 70.665654583 80.068358016 59.858168366 
70.503407289 79.368346076 57.777870302 70.065923521 79.775418132 55.685636386 69.524882674 79.873492202 53.983137004 
68.706667938 79.810480766 52.46093168 67.877027439 79.674740955 50.914192614 67.655468673 79.634158621 49.220393264 
67.599361145 79.619154329 47.487214506 67.958176713 79.611576786 45.857248795 68.394929243 79.634790961 44.24631894 
68.980549315 79.682816048 42.711837105 69.723597616 79.764519947 41.244692597 70.600492424 79.828596509 39.887950541 
71.640894799 79.764542572 38.646394039 72.723774164 79.489902966 37.525647396 74.028622794 78.846300883 36.668177672 
75.197468991 78.028446499 36.119497136 77.239847617 78.042536383 35.704597491 76.210827857 77.051284659 35.791882194 
78.354144295 78.938201017 35.845278367 79.618038002 79.507819797 36.025283542 80.969942834 79.797491267 36.220519715 
82.340091543 79.880852718 36.579563632 83.743926071 79.915454123 36.915450745 85.154394464 79.827565914 37.361215599 
86.611599453 79.713791747 37.829970087 88.132024086 79.667397054 38.298848483 89.67246168 79.635499576 38.801985888 
91.29651187 79.626787079 39.315041335 93.230641181 79.462149016 39.801159411 95.124544432 80.141954239 40.487930046 
96.600655415 80.486172305 41.376389297 97.92936256 80.747946279 42.453558675 99.200816388 80.992664704 43.589887798 
100.10011369 81.283008804 44.934020039 100.85019348 81.623578989 46.280707839 101.06228716 80.179245229 46.716416112 
101.95738638 79.34202242 48.728317323 101.23935067 78.688062449 47.319268554 102.36960363 80.206736936 50.19241206 
102.55049612 81.292446131 51.34046954 102.29410166 82.009563099 52.177163721 102.21294154 81.77429203 53.265122694 
101.92811062 81.590362184 54.800133687 101.14334521 81.399292958 56.425878027 99.754806343 81.162422378 58.42475872 
100.21253564 72.166751354 52.078958199 99.569922398 71.82745751 50.819316116 98.767862834 71.582602099 49.613554442 
97.915955164 71.35551368 48.456152527 96.964952025 71.235597551 47.363984743 96.000204174 71.174001112 46.276120689 
94.943065716 71.202700386 45.245559941 93.841275064 71.243767141 44.226015757 92.678290247 71.305489775 43.219199546 
91.390907245 71.466412852 42.330076487 90.013129437 71.627586953 41.523040445 88.567363396 71.712428321 40.829917431 
87.152933987 71.737747933 40.205729622 85.885767594 71.689845902 39.624162505 84.954645745 71.631857851 39.209879057 
84.648651018 72.324576779 38.521479585 82.811606698 72.299160264 37.783611966 84.057687537 73.353734559 37.674562813 
81.595909117 71.322429163 38.083857469 80.282678289 70.519746196 38.50146696 78.891477824 69.795528493 38.824180692 
77.355202151 69.380041665 39.379508318 75.815289362 69.120497253 40.157469292 74.500896987 69.232703818 41.164809107 
73.318560787 69.527673506 42.34532682 72.232205185 69.905753715 43.671794498 71.591881351 70.292606845 45.220724314 
71.262715876 70.704249433 46.780771996 71.229756108 71.192302572 48.163315438 71.400941985 71.59771821 49.501954834 
71.823673007 71.920672617 50.771886362 72.331800423 72.100125633 52.119655654 72.839979538 72.222468954 53.53186735 
73.351036585 72.313143572 54.996558083 73.843419485 72.389753111 56.49755646 74.452697444 72.454090834 57.987844016 
75.263775219 72.470993348 59.392074078 76.145891477 72.474150342 60.772487681 77.038702798 72.461340793 62.13618933 
77.963357661 72.471416652 63.47496494 78.996057677 72.624880753 64.716076526 80.030618985 72.956410285 65.944233942 
81.035845299 73.485111235 67.113410213 83.263924791 73.568850877 67.660369798 81.971452774 74.255650504 68.137013875 
84.617627358 73.030898434 67.233401331 86.100629421 72.791182766 66.944717741 87.623152028 72.697508514 66.682820931 
89.17989743 72.704683155 66.301438514 90.66442967 72.777338974 65.660372524 92.111156034 72.795874116 64.95999724 
93.486723993 72.839402918 64.167095358 94.81577649 72.966772632 63.285406299 96.015649399 72.879023163 62.305452462 
96.979791045 72.916724433 61.427523175 97.80436408 73.413589601 60.548944415 98.631494429 74.104966219 59.665694826 
99.522678661 74.861978339 58.769417326 100.43922099 75.603662913 57.801853545 101.23914968 76.215784834 56.601063869 
101.99844185 75.20767536 55.098942074 102.01779473 76.568567922 55.328174636 101.71908122 74.28605897 54.853714163 
101.67684663 73.998966441 53.946044799 101.584383 73.562559491 52.728784237 78.444707665 81.481072584 70.040768878 
77.038708293 81.060595923 69.670640932 75.933781585 80.66147743 68.662355634 74.770073527 80.34067277 67.573293236 
73.702610853 80.035814476 66.328486312 72.620036842 79.719580331 65.039211324 71.867077944 79.400044329 63.588372865 
71.210246669 78.997956715 62.052228243 71.022823997 78.462444521 60.537287916 71.018624643 77.672820884 59.029521981 
69.763829073 78.402252358 53.767710303 70.266331014 78.286980467 55.29037569 68.976655679 78.296859072 52.341832383 
68.326674723 78.161232834 50.805735822 67.91694434 78.05368118 49.182992571 67.662411622 77.975218439 47.470407834 
68.003027879 77.949044871 45.859041352 68.380880679 77.959600328 44.253635413 68.82958834 78.017219666 42.691192327 
69.423432833 78.127359036 41.176706241 70.250474567 78.261583578 39.856425389 71.192371425 78.242549543 38.616643679 
72.272713267 77.914447532 37.612338918 73.391509642 77.451391243 36.744656749 74.51202589 76.811543548 36.386155976 
75.474448619 75.983037203 36.155634626 77.201907317 76.023509933 35.78516917 76.361947926 75.035018907 36.037252434 
78.121265016 76.962123421 35.804636439 79.094369618 77.751996051 35.882601036 80.107168261 78.315361817 35.906908091 
81.264288485 78.460756863 36.119950328 82.587189018 78.432020932 36.438955735 83.873407499 78.533828376 36.772206181 
85.13458836 78.35428901 37.199710655 86.534081761 78.149505951 37.705832983 88.002403789 78.04060206 38.368464863 
89.502169238 78.030441201 38.972389795 90.986913269 78.012125481 39.423140721 92.345578865 77.814052501 39.840501334 
96.875453989 78.966330783 41.701152621 95.539476243 78.691405841 40.90205211 98.139528674 79.15595967 42.769516463 
99.382337093 79.35987722 43.944226134 100.30330032 79.730550382 45.31981507 70.704250307 77.856802975 56.701434808 
71.251011519 76.722761978 57.669246494 100.38601789 78.163869962 45.863887213 101.37096759 77.174120124 47.964387313 
100.502759 76.582735383 46.475904887 102.10712539 77.807110917 49.557525592 102.75580391 78.658996711 51.536708629 
102.57669964 80.45787433 52.685879713 101.08035599 73.251778123 51.351112991 100.40871616 72.888882508 50.030169078 
99.517984107 72.655767282 48.859033495 98.607867404 72.414384925 47.734652283 97.643820369 72.268711383 46.706003692 
96.702665528 72.241099806 45.639372847 95.658431141 72.303422806 44.615544985 94.530832837 72.39643982 43.606661882 
93.322405474 72.544241268 42.622888864 92.027926698 72.797022168 41.726023207 90.549047362 73.086074476 40.866830812 
88.971004235 73.171720561 40.157009785 87.440935796 73.084018908 39.434067831 85.943334287 72.873513943 38.832145885 
85.640186918 74.587446882 37.93312365 83.015702412 74.37813155 37.052331525 84.085720717 75.635226377 37.079725481 
81.931894144 73.225907394 37.024978795 80.746103624 72.16610686 37.191983796 79.480427741 71.385519179 37.567512707 
78.11167218 70.756735341 37.879140244 76.584537287 70.434333885 38.373233876 75.002480042 70.151767559 39.109506251 
73.685111694 70.23101649 40.121308304 72.412493902 70.511796505 41.285293295 70.953221235 71.212004463 42.58432819 
70.432840589 71.473894466 44.646843608 70.213579882 71.804138404 46.390181448 70.214951839 72.183558747 47.925595992 
70.43847708 72.560445725 49.401706192 70.91874875 72.907965392 50.805811674 71.481421688 73.169874407 52.204439689 
72.083437243 73.396530183 53.608281024 72.562172477 73.527623602 55.113664808 72.978153 73.636009038 56.636341258 
73.53646572 73.758461636 58.246633589 74.374351377 73.657509714 59.75910637 75.204295087 73.573663821 61.162121161 
76.007483594 73.47247263 62.576685762 76.885279503 73.477046917 63.937021252 77.827848019 73.580406622 65.239186509 
78.815566781 73.852684946 66.462259099 79.79921846 74.339678009 67.617455014 80.744635309 75.059160158 68.597236373 
82.911129977 75.163414998 68.97124074 81.663005331 75.945457207 69.467102219 84.130928618 74.46704334 68.515623435 
85.249112387 74.017870598 68.018220092 86.486797891 73.915139904 67.767770788 87.908644472 74.069926396 67.319961299 
89.40485926 74.233794239 66.715821568 90.81878814 74.354928468 65.879690108 92.131471865 74.280333767 64.961190978 
93.313402729 74.279125655 64.076981498 94.644924208 74.77557418 63.017905007 95.989840556 74.246638876 62.10518537 
96.792493848 73.904036604 61.522699483 97.327282737 74.543480916 60.953743058 98.192307435 75.337435206 60.291085641 
99.090325251 76.183666209 59.398531992 99.992736667 76.975712425 58.334725896 100.95610257 77.674064448 57.083184484 
101.8186939 78.1001444 55.628420135 102.49087206 76.670107761 53.704800772 102.5006641 78.388968646 53.876273097 
102.22183778 75.163564867 53.735594793 98.530390306 79.791112622 59.809942852 97.407835512 78.627786583 60.689769383 
96.396265017 77.490218926 61.447984815 95.492019362 76.265365583 62.183208613 93.689206105 76.136768598 63.502064022 
92.728035956 76.958363261 64.259292979 91.866689888 77.66681457 65.444510143 91.121743597 78.406937215 66.601320189 
90.200027379 78.750284355 67.833620476 88.967003922 79.031370295 69.171769263 87.466952068 79.784874063 70.021180487 
86.015539633 80.563723338 70.486304307 85.03252819 79.219392339 70.547356917 83.937110849 78.026949746 70.461883698 
81.461632695 77.888904446 70.409452876 82.754360322 76.955512397 70.081838731 80.13920773 78.924093573 70.494241208 
79.152438866 80.238330046 70.347376173 101.07638673 74.186945488 49.287054047 101.77089435 74.530202811 50.705294326 
100.08848966 73.882429703 48.121731179 99.13454113 73.541168175 47.03413982 98.215092017 73.294149003 46.137745154 
97.399052422 73.341930883 45.125640879 96.391786601 73.4678165 44.111143948 95.257225528 73.583041443 43.103033358 
94.069401037 73.79301675 42.149017454 92.776985725 74.160061183 41.213286237 91.230189143 74.883554083 40.255543075 
89.272001795 74.749027325 39.507730147 87.612766449 74.686055109 38.748272212 82.729630511 76.791872849 36.622391535 
83.839089384 77.416522705 36.841991861 84.848945783 76.962403699 37.238495725 81.880902353 75.358213852 36.547425714 
80.943115206 74.1973009 36.48884001 79.884046015 73.178728897 36.62854665 78.758977776 72.337757872 36.83978233 
77.524027525 71.795783106 37.122356686 75.908040172 71.963435073 37.385537522 74.311760061 71.45964534 38.264059333 
73.106600625 71.438419986 39.266988974 71.923867492 71.651022604 40.19981048 70.954271593 72.270924353 41.036464875 
69.275986522 73.192181231 46.146280362 69.471756385 73.033655682 44.459238272 69.250282122 73.420054341 47.738176409 
69.502477619 73.689286576 49.347162533 70.017885496 74.002095382 50.819266533 70.599412613 74.259610692 52.265910935 
71.271844474 74.537664446 53.650952822 71.756029754 74.727133311 55.101522399 72.093824087 74.925094911 56.651188584 
72.328044084 75.248716986 58.576310486 74.221557315 74.57196242 61.662863574 73.399459192 74.762552624 60.248333849 
74.990230311 74.474221776 63.051981852 75.835393165 74.511749681 64.403557411 76.686340626 74.570254805 65.736722158 
77.690158691 74.859966224 66.935715857 78.657563671 75.21770577 68.106403563 79.584024582 75.914283617 68.973987418 
80.329447771 76.833945095 69.819187752 69.740677258 73.04959994 42.768600569 70.174690614 73.485882625 41.271611059 
94.322730446 78.130985869 40.278073909 93.416902735 77.112180337 40.266484266 102.38113673 80.078919824 54.390239745 
101.51468535 79.723658013 56.041894324 100.47305414 79.278418915 57.651425122 99.358967319 78.386646074 58.973058499 
98.355136361 77.442453882 60.010842995 97.368609003 76.43232394 60.825706609 96.590264503 75.39171725 61.582160263 
77.750529496 79.540341868 69.949025207 76.367152772 79.083781224 68.964209932 75.17513199 78.747195253 67.85633508 
74.125769207 78.470878584 66.569959442 73.153160842 78.201295233 65.269419759 72.400007087 77.957023081 63.858459217 
71.791253904 77.606059996 62.48357661 71.627336911 77.236652365 61.1285488 71.763888605 76.427884983 59.932973465 
71.319271512 76.117721276 56.347812215 70.83972938 77.006309162 56.017572335 70.53279878 77.059337042 54.992762127 
70.048064529 77.01350233 53.655263467 69.285044548 76.831021865 52.31160617 68.588954502 76.613750244 50.828303818 
68.150273982 76.445371026 49.237911647 67.884222748 76.293629124 47.513045514 68.204341553 76.276151441 45.899969461 
68.545728932 76.272298728 44.296500312 68.965790669 76.369217724 42.7456038 69.498959042 76.511078307 41.273685768 
70.265388132 76.68089531 40.012406846 71.113480227 76.663867573 38.832400397 72.10283708 76.51559934 37.909932139 
73.02888344 76.198487093 37.092953616 74.01208408 75.805634052 36.67191327 74.797686105 75.049567694 36.524649701 
75.596284268 74.123642682 36.496592642 78.097024639 75.070621317 35.989054605 77.28006607 74.104114723 36.067296014 
78.958990185 76.010545309 35.983867853 79.788011326 76.824022861 35.999332077 80.397958802 77.451656733 36.013638837 
81.29108477 77.22506542 36.232130446 86.432776112 78.215891122 70.175578224 85.138610266 77.069799051 69.97016749 
83.982753385 76.05682602 69.676820821 84.971846267 75.359521662 69.028560389 85.616631302 74.795317008 68.517076746 
86.629529273 75.005854249 68.508082239 88.077499238 75.438906083 68.104759065 89.579326225 75.747835264 67.230416667 
90.977527659 76.128321126 65.975209049 92.171247157 75.691734932 64.761654097 93.033570326 75.374119839 64.093113032 
86.25823692 76.523271283 37.775539403 87.825879652 76.411949141 38.478602318 89.354392976 76.435896053 39.168763921 
90.828919074 76.533847834 39.65394938 91.911350423 76.786856035 39.955843321 92.6161317 76.010287468 40.331638404 
94.430052353 76.45717626 40.733149856 93.692374525 75.360127493 40.914690991 94.826031435 77.350906235 40.77017194 
95.693854293 77.44708726 41.318020462 96.872768156 77.521037189 42.099335162 98.074504665 77.606216862 43.151891548 
99.33567019 77.756775646 44.463220401 99.15457049 75.883741103 45.007144712 100.42376758 75.161102266 47.342349362 
99.421556113 74.690273177 46.288480184 101.36810577 75.645880071 48.639750656 102.08743098 76.115323181 50.143981248 
90.585693869 77.25407318 66.812999871 89.712891188 77.203301905 67.798756264 87.947659631 77.155248933 69.035993102 
78.737153899 77.844742256 69.865721201 71.052740397 75.908226421 55.019967384 70.553582779 75.732775425 53.651530573 
69.841794005 75.476611232 52.302878805 69.181809779 75.212214628 50.852316524 68.670290352 74.966787763 49.318310588 
68.398173596 74.747748363 47.617154985 68.584894658 74.683407263 45.980261499 68.872685661 74.654975706 44.362953988 
69.209591309 74.718494217 42.776385364 69.739581539 74.951044356 41.324396516 70.41293755 75.169467573 40.136836781 
71.152671647 75.256815882 39.027420097 74.097570425 74.306172209 36.904252509 73.653461043 75.062177209 36.888874626 
79.943218466 75.099813576 36.183908766 79.015887024 74.147451309 36.2503323 80.743742242 76.130768973 36.177484466 
77.04146949 77.53157795 68.90950495 75.845818103 77.23836886 67.768659497 74.795861442 76.987836415 66.513208807 
73.873205814 76.768312663 65.227756835 73.15180002 76.6461785 63.814988482 72.556519027 76.498836627 62.562144838 
72.175250683 76.407972744 61.577133133 72.617760112 75.705509686 60.965258549 73.302542677 75.508708312 62.189541504 
74.000235983 75.478849437 63.516912863 74.789150957 75.538922837 64.87543625 75.668209276 75.679635532 66.184077777 
76.666942988 75.92131701 67.412166353 77.676858544 76.228711672 68.493075438 78.629406897 76.601752271 69.237549272 
95.423590569 76.219473125 41.507723393 96.588350731 76.106978667 42.370100419 97.806777375 76.040734198 43.476641844 
78.099790399 73.278738976 36.392117828 77.334980669 72.684320009 36.56331626 76.479902587 73.21121081 36.529073653 
72.640898937 72.670907742 38.657220626 73.649778846 72.750104215 37.763567681 71.69969511 72.720290195 39.484244327 
71.095071699 72.9382952 40.221493276 70.715671947 73.867702713 40.196747199 94.822501245 74.989420504 41.774055818 
98.61808759 74.153023604 45.716300667 98.118540869 74.463152376 44.771291354 97.102501991 74.668070077 43.720098996 
86.147947533 76.038699762 69.309172736 95.988215808 74.802010622 42.689186577 72.299130697 73.934760591 38.368843101 
73.187693927 74.004266836 37.542617109 71.393217045 73.91558466 39.185922404 74.195633446 67.525835694 47.682936984 
73.792237341 68.112696075 48.987736763 84.679269406 83.938041631 70.129841789 102.3191696 74.825611261 52.171210413 
102.67258447 76.509615684 51.809117766 72.95697152 75.114559043 37.40256792 72.10608234 75.200200012 38.162588965 
74.766491818 73.215222601 36.991834773 
POLYGONS 1065 4256
OFFSETS vtktypeint64
0 4 8 12 16 20 24 28 32 
36 40 44 48 52 56 60 64 68 
72 76 80 84 88 92 96 100 104 
108 112 116 120 124 128 132 136 140 
144 148 152 156 160 164 168 172 176 
180 184 188 192 196 200 204 208 212 
216 220 224 228 232 236 240 244 248 
252 256 260 264 268 272 276 280 284 
288 292 296 300 304 308 312 316 320 
324 328 332 336 340 344 348 352 356 
360 364 368 372 376 380 384 388 392 
396 400 404 408 412 416 420 424 428 
432 436 440 444 448 452 456 460 464 
468 472 476 480 484 488 492 496 500 
504 508 512 516 520 524 528 532 536 
540 544 548 552 556 560 564 568 572 
576 580 584 588 592 596 600 604 608 
612 616 620 624 628 632 636 640 644 
648 652 656 660 664 668 672 676 680 
684 688 692 696 700 704 708 712 716 
720 724 728 732 736 740 744 748 752 
756 760 764 768 772 776 780 784 788 
792 796 800 804 808 812 816 820 824 
828 832 836 840 844 848 852 856 860 
864 868 872 876 880 884 888 892 896 
900 904 908 912 916 920 924 928 932 
936 940 944 948 952 956 960 964 968 
972 976 980 984 988 992 996 1000 1004 
1008 1012 1016 1020 1024 1028 1032 1036 1040 
1044 1048 1052 1056 1060 1064 1068 1072 1076 
1080 1084 1088 1092 1096 1100 1104 1108 1112 
1116 1120 1124 1128 1132 1136 1140 1144 1148 
1152 1156 1160 1164 1168 1172 1176 1180 1184 
1188 1192 1196 1200 1204 1208 1212 1216 1220 
1224 1228 1232 1236 1240 1244 1248 1252 1256 
1260 1264 1268 1272 1276 1280 1284 1288 1292 
1296 1300 1304 1308 1312 1316 1320 1324 1328 
1332 1336 1340 1344 1348 1352 1356 1360 1364 
1368 1372 1376 1380 1384 1388 1392 1396 1400 
1404 1408 1412 1416 1420 1424 1428 1432 1436 
1440 1444 1448 1452 1456 1460 1464 1468 1472 
1476 1480 1484 1488 1492 1496 1500 1504 1508 
1512 1516 1520 1524 1528 1532 1536 1540 1544 
1548 1552 1556 1560 1564 1568 1572 1576 1580 
1584 1588 1592 1596 1600 1604 1608 1612 1616 
1620 1624 1628 1632 1636 1640 1644 1648 1652 
1656 1660 1664 1668 1672 1676 1680 1684 1688 
1692 1696 1700 1704 1708 1712 1716 1720 1724 
1728 1732 1736 1740 1744 1748 1752 1756 1760 
1764 1768 1772 1776 1780 1784 1788 1792 1796 
1800 1804 1808 1812 1816 1820 1824 1828 1832 
1836 1840 1844 1848 1852 1856 1860 1864 1868 
1872 1876 1880 1884 1888 1892 1896 1900 1904 
1908 1912 1916 1920 1924 1928 1932 1936 1940 
1944 1948 1952 1956 1960 1964 1968 1972 1976 
1980 1984 1988 1992 1996 2000 2004 2008 2012 
2016 2020 2024 2028 2032 2036 2040 2044 2048 
2052 2056 2060 2064 2068 2072 2076 2080 2084 
2088 2092 2096 2100 2104 2108 2112 2116 2120 
2124 2128 2132 2136 2140 2144 2148 2152 2156 
2160 2164 2168 2172 2176 2180 2184 2188 2192 
2196 2200 2204 2208 2212 2216 2220 2224 2228 
2232 2236 2240 2244 2248 2252 2256 2260 2264 
2268 2272 2276 2280 2284 2288 2292 2296 2300 
2304 2308 2312 2316 2320 2324 2328 2332 2336 
2340 2344 2348 2352 2356 2360 2364 2368 2372 
2376 2380 2384 2388 2392 2396 2400 2404 2408 
2412 2416 2420 2424 2428 2432 2436 2440 2444 
2448 2452 2456 2460 2464 2468 2472 2476 2480 
2484 2488 2492 2496 2500 2504 2508 2512 2516 
2520 2524 2528 2532 2536 2540 2544 2548 2552 
2556 2560 2564 2568 2572 2576 2580 2584 2588 
2592 2596 2600 2604 2608 2612 2616 2620 2624 
2628 2632 2636 2640 2644 2648 2652 2656 2660 
2664 2668 2672 2676 2680 2684 2688 2692 2696 
2700 2704 2708 2712 2716 2720 2724 2728 2732 
2736 2740 2744 2748 2752 2756 2760 2764 2768 
2772 2776 2780 2784 2788 2792 2796 2800 2804 
2808 2812 2816 2820 2824 2828 2832 2836 2840 
2844 2848 2852 2856 2860 2864 2868 2872 2876 
2880 2884 2888 2892 2896 2900 2904 2908 2912 
2916 2920 2924 2928 2932 2936 2940 2944 2948 
2952 2956 2960 2964 2968 2972 2976 2980 2984 
2988 2992 2996 3000 3004 3008 3012 3016 3020 
3024 3028 3032 3036 3040 3044 3048 3052 3056 
3060 3064 3068 3072 3076 3080 3084 3088 3092 
3096 3100 3104 3108 3112 3116 3120 3124 3128 
3132 3136 3140 3144 3148 3152 3156 3160 3164 
3168 3172 3176 3180 3184 3188 3192 3196 3200 
3204 3208 3212 3216 3220 3224 3228 3232 3236 
3240 3244 3248 3252 3256 3260 3264 3268 3272 
3276 3280 3284 3288 3292 3296 3300 3304 3308 
3312 3316 3320 3324 3328 3332 3336 3340 3344 
3348 3352 3356 3360 3364 3368 3372 3376 3380 
3384 3388 3392 3396 3400 3404 3408 3412 3416 
3420 3424 3428 3432 3436 3440 3444 3448 3452 
3456 3460 3464 3468 3472 3476 3480 3484 3488 
3492 3496 3500 3504 3508 3512 3516 3520 3524 
3528 3532 3536 3540 3544 3548 3552 3556 3560 
3564 3568 3572 3576 3580 3584 3588 3592 3596 
3600 3604 3608 3612 3616 3620 3624 3628 3632 
3636 3640 3644 3648 3652 3656 3660 3664 3668 
3672 3676 3680 3684 3688 3692 3696 3700 3704 
3708 3712 3716 3720 3724 3728 3732 3736 3740 
3744 3748 3752 3756 3760 3764 3768 3772 3776 
3780 3784 3788 3792 3796 3800 3804 3808 3812 
3816 3820 3824 3828 3832 3836 3840 3844 3848 
3852 3856 3860 3864 3868 3872 3876 3880 3884 
3888 3892 3896 3900 3904 3908 3912 3916 3920 
3924 3928 3932 3936 3940 3944 3948 3952 3956 
3960 3964 3968 3972 3976 3980 3984 3988 3992 
3996 4000 4004 4008 4012 4016 4020 4024 4028 
4032 4036 4040 4044 4048 4052 4056 4060 4064 
4068 4072 4076 4080 4084 4088 4092 4096 4100 
4104 4108 4112 4116 4120 4124 4128 4132 4136 
4140 4144 4148 4152 4156 4160 4164 4168 4172 
4176 4180 4184 4188 4192 4196 4200 4204 4208 
4212 4216 4220 4224 4228 4232 4236 4240 4244 
4248 4252 4256 
CONNECTIVITY vtktypeint64
0 1 2 3 1 4 5 2 4 
6 7 5 6 8 9 7 8 10 
11 9 10 12 13 11 12 14 15 
13 14 16 17 15 16 18 19 17 
18 20 21 19 20 22 23 21 22 
24 25 23 24 26 27 25 26 28 
29 27 28 30 31 29 30 32 33 
31 32 34 35 33 34 36 37 35 
36 38 39 37 38 40 41 39 40 
42 43 41 42 44 45 43 44 46 
47 45 46 48 49 47 48 50 51 
49 50 52 53 51 52 54 55 53 
54 56 57 55 56 58 59 57 58 
60 61 59 60 62 63 61 62 64 
65 63 64 66 67 65 66 68 69 
67 68 70 71 69 70 72 73 71 
72 74 75 73 74 76 77 75 76 
78 79 77 78 80 81 79 80 82 
83 81 82 0 3 83 84 85 86 
87 85 88 89 86 88 90 91 89 
90 92 93 91 92 94 95 93 94 
96 97 95 96 98 99 97 98 100 
101 99 100 102 103 101 102 104 105 
103 104 106 107 105 106 108 109 107 
108 110 111 109 110 112 113 111 112 
114 115 113 114 116 117 115 116 118 
119 117 118 120 121 119 120 122 123 
121 122 124 125 123 124 126 127 125 
126 128 129 127 128 130 131 129 130 
132 133 131 132 134 135 133 134 136 
137 135 136 138 139 137 138 140 141 
139 140 142 143 141 142 144 145 143 
144 146 147 145 146 148 149 147 148 
150 151 149 150 152 153 151 152 154 
155 153 154 156 157 155 156 158 159 
157 158 160 161 159 160 162 163 161 
162 164 165 163 164 166 167 165 166 
168 169 167 168 170 171 169 170 172 
173 171 172 174 175 173 174 176 177 
175 176 178 179 177 178 180 181 179 
180 182 183 181 182 184 185 183 184 
186 187 185 186 188 189 187 188 190 
191 189 190 192 193 191 192 194 195 
193 194 196 197 195 196 198 199 197 
198 84 87 199 2 5 200 201 5 
7 202 200 7 9 203 202 9 11 
204 203 11 13 205 204 13 15 206 
205 15 17 207 206 17 19 208 207 
19 21 209 208 21 23 210 209 23 
25 211 210 25 27 212 211 27 29 
213 212 29 31 214 213 31 33 215 
214 33 35 216 215 35 37 217 216 
37 39 218 217 39 41 219 218 41 
43 220 219 43 45 221 220 45 47 
222 221 47 49 223 222 49 51 224 
223 51 53 225 224 53 55 226 225 
55 57 227 226 57 59 228 227 59 
61 229 228 61 63 230 229 63 65 
231 230 65 67 232 231 67 69 233 
232 69 71 234 233 71 73 235 234 
73 75 236 235 75 77 237 236 77 
79 238 237 79 81 239 238 81 83 
240 239 83 3 241 240 3 2 201 
241 86 89 242 243 89 91 244 242 
91 93 245 244 93 95 246 245 95 
97 247 246 97 99 248 247 99 101 
249 248 101 103 250 249 103 105 251 
250 105 107 252 251 107 109 253 252 
109 111 254 253 111 113 255 254 113 
115 256 255 115 117 257 256 117 119 
258 257 119 121 259 258 121 123 260 
259 123 125 261 260 125 127 262 261 
127 129 263 262 129 131 264 263 131 
133 265 264 135 137 266 267 137 139 
268 266 139 141 269 268 141 143 270 
269 143 145 271 270 145 147 272 271 
147 149 273 272 149 151 274 273 151 
153 275 274 153 155 276 275 155 157 
277 276 157 159 278 277 159 161 279 
278 161 163 280 279 163 165 281 280 
165 167 282 281 167 169 283 282 169 
171 284 283 171 173 285 284 173 175 
286 285 175 177 287 286 177 179 288 
287 179 181 289 288 181 183 290 289 
183 185 291 290 185 187 292 291 187 
189 293 292 189 191 294 293 191 193 
295 294 193 195 296 295 195 197 297 
296 197 199 298 297 199 87 299 298 
87 86 243 299 133 135 267 300 265 
133 300 301 203 204 302 303 204 205 
304 302 205 206 305 304 206 207 306 
305 207 208 307 306 208 209 308 307 
209 210 309 308 210 211 310 309 211 
212 311 310 212 213 312 311 213 214 
313 312 214 215 314 313 215 216 315 
314 216 217 316 315 217 218 317 316 
218 219 318 317 219 220 319 318 220 
221 320 319 221 222 321 320 222 223 
322 321 224 225 323 324 225 226 325 
323 226 227 326 325 227 228 327 326 
228 229 328 327 229 230 329 328 230 
231 330 329 231 232 331 330 232 233 
332 331 233 234 333 332 234 235 334 
333 235 236 335 334 236 237 336 335 
237 238 337 336 238 239 338 337 239 
240 339 338 240 241 340 339 241 201 
341 340 201 200 342 341 223 224 324 
343 322 223 343 344 301 300 345 346 
300 267 266 345 266 268 347 345 268 
269 348 347 269 270 349 348 270 271 
350 349 271 272 351 350 272 273 352 
351 273 274 353 352 275 276 354 355 
276 277 356 354 277 278 357 356 278 
279 358 357 279 280 359 358 280 281 
360 359 281 282 361 360 282 283 362 
361 283 284 363 362 284 285 364 363 
285 286 365 364 286 287 366 365 287 
288 367 366 288 289 368 367 289 290 
369 368 290 291 370 369 291 292 371 
370 292 293 372 371 293 294 373 372 
294 295 374 373 295 296 375 374 296 
297 376 375 297 298 377 376 298 299 
378 377 299 243 379 378 243 242 380 
379 242 244 381 380 244 245 382 381 
245 246 383 382 246 247 384 383 247 
248 385 384 248 249 386 385 249 250 
387 386 250 251 388 387 251 252 389 
388 252 253 390 389 253 254 391 390 
254 255 392 391 255 256 393 392 256 
257 394 393 257 258 395 394 258 259 
396 395 259 260 397 396 260 261 398 
397 261 262 399 398 262 263 400 399 
263 264 401 400 264 265 402 401 265 
301 403 402 301 346 404 403 346 405 
406 404 346 345 347 405 274 275 355 
407 353 274 407 408 344 343 409 410 
343 324 411 409 324 323 412 411 323 
325 413 412 325 326 414 413 326 327 
415 414 327 328 416 415 328 329 417 
416 329 330 418 417 330 331 419 418 
331 332 420 419 332 333 421 420 333 
334 422 421 334 335 423 422 335 336 
424 423 337 338 425 426 338 339 427 
425 339 340 428 427 340 341 429 428 
341 342 430 429 303 302 431 432 302 
304 433 431 304 305 434 433 305 306 
435 434 306 307 436 435 307 308 437 
436 308 309 438 437 309 310 439 438 
310 311 440 439 311 312 441 440 312 
313 442 441 313 314 443 442 314 315 
444 443 315 316 445 444 316 317 446 
445 317 318 447 446 318 319 448 447 
319 320 449 448 320 321 450 449 321 
322 451 450 322 344 452 451 344 410 
453 452 410 454 455 453 410 409 456 
454 457 303 432 458 459 457 458 460 
336 337 426 461 424 336 461 462 347 
348 463 405 348 349 464 463 349 350 
465 464 350 351 466 465 351 352 467 
466 352 353 468 467 353 408 469 468 
408 470 471 469 408 407 472 470 407 
355 473 472 355 354 474 473 354 356 
475 474 356 357 476 475 357 358 477 
476 358 359 478 477 359 360 479 478 
360 361 480 479 361 362 481 480 362 
363 482 481 363 364 483 482 364 365 
484 483 365 366 485 484 366 367 486 
485 367 368 487 486 368 369 488 487 
369 370 489 488 370 371 490 489 371 
372 491 490 372 373 492 491 373 374 
493 492 374 375 494 493 375 376 495 
494 376 377 496 495 377 378 497 496 
378 379 498 497 379 380 499 498 380 
381 500 499 381 382 501 500 382 383 
502 501 383 384 503 502 384 385 504 
503 385 386 505 504 386 387 506 505 
387 388 507 506 388 389 508 507 389 
390 509 508 390 391 510 509 391 392 
511 510 392 393 512 511 393 394 513 
512 395 396 514 515 396 397 516 514 
397 398 517 516 398 399 518 517 399 
400 519 518 400 401 520 519 401 402 
521 520 402 403 522 521 403 404 523 
522 404 406 524 523 406 525 526 524 
406 405 527 525 405 463 528 527 463 
464 529 528 464 465 530 529 465 466 
531 530 466 467 532 531 522 523 533 
534 523 524 535 533 524 526 536 535 
526 537 538 536 526 525 539 537 525 
527 540 539 527 528 541 540 528 529 
542 541 529 530 543 542 530 531 544 
543 531 532 545 544 394 395 515 546 
513 394 546 547 409 411 548 456 411 
412 549 548 412 413 550 549 413 414 
551 550 414 415 552 551 415 416 553 
552 416 417 554 553 417 418 555 554 
418 419 556 555 419 420 557 556 420 
421 558 557 421 422 559 558 422 423 
560 559 423 424 561 560 424 462 562 
561 462 563 564 562 462 461 565 563 
461 426 566 565 426 425 567 566 425 
427 568 567 427 428 569 568 428 429 
570 569 429 430 571 570 430 572 573 
571 572 574 575 573 574 459 576 575 
459 460 577 576 460 458 578 577 458 
432 579 578 432 431 580 579 431 433 
581 580 433 434 582 581 434 435 583 
582 435 436 584 583 436 437 585 584 
437 438 586 585 438 439 587 586 439 
440 588 587 440 441 589 588 442 443 
590 591 443 444 592 590 444 445 593 
592 445 446 594 593 446 447 595 594 
447 448 596 595 448 449 597 596 449 
450 598 597 450 451 599 598 451 452 
600 599 452 453 601 600 453 455 602 
601 455 603 604 602 455 454 605 603 
454 456 606 605 441 442 591 607 589 
441 607 608 469 471 609 610 471 611 
612 609 471 470 613 611 470 472 614 
613 472 473 615 614 473 474 616 615 
474 475 617 616 475 476 618 617 476 
477 619 618 477 478 620 619 478 479 
621 620 479 480 622 621 480 481 623 
622 481 482 624 623 482 483 625 624 
483 484 626 625 484 485 627 626 485 
486 628 627 486 487 629 628 487 488 
630 629 488 489 631 630 489 490 632 
631 490 491 633 632 491 492 634 633 
492 493 635 634 493 494 636 635 494 
495 637 636 495 496 638 637 497 498 
639 640 498 499 641 639 499 500 642 
641 500 501 643 642 501 502 644 643 
502 503 645 644 503 504 646 645 504 
505 647 646 505 506 648 647 506 507 
649 648 507 508 650 649 508 509 651 
650 509 510 652 651 510 511 653 652 
511 512 654 653 512 513 655 654 513 
547 656 655 547 657 658 656 547 546 
659 657 546 515 660 659 515 514 661 
660 514 516 662 661 516 517 663 662 
517 518 664 663 518 519 665 664 519 
520 521 665 496 497 640 666 638 496 
666 667 610 609 668 545 609 612 669 
668 612 670 671 669 612 611 672 670 
611 613 673 672 613 614 674 673 614 
615 675 674 615 616 676 675 616 617 
677 676 617 618 678 677 618 619 679 
678 619 620 680 679 620 621 681 680 
621 622 682 681 622 623 683 682 623 
624 684 683 624 625 685 684 625 626 
686 685 626 627 687 686 627 628 688 
687 628 629 689 688 629 630 690 689 
630 631 691 690 631 632 692 691 632 
633 693 692 633 634 694 693 634 635 
695 694 635 636 696 695 636 637 697 
696 637 638 698 697 638 667 699 698 
667 700 701 699 667 666 702 700 666 
640 703 702 640 639 704 703 639 641 
705 704 641 642 706 705 642 643 707 
706 643 644 708 707 644 645 709 708 
645 646 710 709 646 647 711 710 647 
648 712 711 648 649 713 712 649 650 
714 713 650 651 715 714 651 652 716 
715 652 653 717 716 653 654 718 717 
654 655 656 718 656 658 719 718 658 
720 721 719 658 657 722 720 657 659 
723 722 659 660 724 723 660 661 725 
724 661 662 726 725 662 663 727 726 
663 664 728 727 664 665 534 728 665 
521 522 534 456 548 729 606 548 549 
730 729 549 550 731 730 550 551 732 
731 551 552 733 732 552 553 734 733 
553 554 735 734 554 555 736 735 555 
556 737 736 556 557 738 737 557 558 
739 738 558 559 740 739 559 560 741 
740 560 561 742 741 561 562 743 742 
562 564 744 743 564 745 746 744 564 
563 747 745 563 565 748 747 565 566 
749 748 566 567 750 749 567 568 751 
750 568 569 752 751 569 570 753 752 
570 571 754 753 571 573 755 754 573 
575 756 755 575 576 757 756 576 577 
758 757 577 578 759 758 578 579 760 
759 579 580 761 760 580 581 762 761 
581 582 763 762 582 583 764 763 583 
584 765 764 584 585 766 765 585 586 
767 766 586 587 768 767 587 588 769 
768 588 589 770 769 589 608 771 770 
608 772 773 771 608 607 774 772 607 
591 775 774 591 590 776 775 590 592 
777 776 592 593 778 777 593 594 779 
778 594 595 780 779 595 596 781 780 
596 597 782 781 597 598 783 782 598 
599 784 783 599 600 785 784 600 601 
786 785 601 602 787 786 602 604 788 
787 604 789 790 788 604 603 791 789 
603 605 792 791 605 606 793 792 674 
675 794 673 675 676 795 794 676 677 
796 795 677 678 797 796 678 679 798 
797 679 680 799 798 680 681 800 799 
681 682 801 800 682 683 802 801 683 
684 803 802 685 686 804 805 686 687 
806 804 687 688 807 806 688 689 808 
807 689 690 809 808 690 691 810 809 
691 692 811 810 692 693 812 811 693 
694 813 812 694 695 814 813 695 696 
815 814 696 697 816 815 697 698 817 
816 698 699 818 817 699 701 819 818 
701 820 821 819 701 700 822 820 700 
702 823 822 702 703 824 823 703 704 
825 824 704 705 826 825 705 706 827 
826 706 707 828 827 707 708 829 828 
708 709 830 829 709 710 831 830 710 
711 832 831 711 712 833 832 713 714 
834 835 714 715 836 834 715 716 837 
836 716 717 838 837 717 718 719 838 
684 685 805 839 803 684 839 840 719 
721 841 838 721 842 843 841 721 720 
844 842 720 722 845 844 722 723 846 
845 723 724 725 846 606 729 847 793 
729 730 848 847 730 731 849 848 731 
732 850 849 732 733 851 850 733 734 
852 851 734 735 853 852 735 736 854 
853 736 737 855 854 737 738 856 855 
738 739 857 856 739 740 858 857 740 
741 859 858 741 742 860 859 744 746 
861 860 746 862 863 861 746 745 864 
862 745 747 865 864 747 748 866 865 
748 749 867 866 749 750 868 867 750 
751 869 868 751 752 870 869 752 753 
871 870 753 754 872 871 754 755 873 
872 755 756 874 873 756 757 875 874 
757 758 876 875 758 759 877 876 759 
760 878 877 760 761 879 878 761 762 
880 879 762 763 881 880 763 764 882 
881 764 765 883 882 765 766 884 883 
766 767 885 884 767 768 886 885 768 
769 887 886 769 770 888 887 770 771 
889 888 771 773 890 889 773 891 892 
890 773 772 893 891 772 774 894 893 
774 775 895 894 775 776 896 895 776 
777 897 896 777 778 898 897 778 779 
899 898 779 780 900 899 780 781 901 
900 781 782 902 901 782 783 903 902 
783 784 904 903 784 785 905 904 785 
786 906 905 786 787 907 906 787 788 
908 907 788 790 909 908 790 910 911 
909 791 792 912 789 534 533 913 728 
533 535 914 913 535 536 915 914 536 
538 916 915 538 917 901 916 538 537 
918 917 537 539 919 918 539 540 920 
919 540 541 921 920 541 542 922 921 
542 543 923 922 543 544 924 923 544 
545 668 924 668 669 925 924 669 671 
926 925 671 927 928 926 671 670 929 
927 670 672 930 929 672 673 794 930 
847 848 931 932 848 849 933 931 849 
850 934 933 850 851 935 934 851 852 
936 935 852 853 937 936 853 854 938 
937 854 855 939 938 855 856 940 939 
856 857 941 940 857 858 942 941 858 
859 943 942 859 860 861 943 863 944 
945 946 863 862 947 944 862 864 948 
947 864 865 949 948 865 866 950 949 
866 867 951 950 867 868 952 951 868 
869 953 952 869 870 954 953 870 871 
955 954 871 872 956 955 873 874 957 
958 874 875 959 957 875 876 960 959 
876 877 961 960 877 878 962 961 878 
879 963 962 879 880 964 963 880 881 
965 964 881 882 966 965 883 884 967 
968 884 885 969 967 885 886 970 969 
886 887 971 970 887 888 972 971 888 
889 973 972 889 890 974 973 890 892 
975 974 892 928 927 975 882 883 968 
966 872 873 958 976 956 872 976 977 
712 713 835 978 833 712 978 979 725 
726 980 846 726 727 981 980 727 728 
982 981 728 913 983 982 913 914 984 
983 914 915 985 984 915 916 986 985 
916 901 902 986 794 795 987 930 795 
796 988 987 796 797 989 988 797 798 
990 989 798 799 991 990 799 800 992 
991 800 801 993 992 801 802 994 993 
802 803 995 994 803 840 966 995 966 
840 996 965 840 839 997 996 839 805 
998 997 805 804 999 998 804 806 1000 
999 806 807 1001 1000 807 808 1002 1001 
808 809 1003 1002 809 810 1004 1003 810 
811 1005 1004 811 812 1006 1005 812 813 
1007 1006 813 814 1008 1007 814 815 1009 
1008 815 816 1010 1009 816 817 1011 1010 
817 818 1012 1011 818 819 1013 1012 819 
821 1014 1013 821 820 1015 1016 820 822 
1017 1015 822 823 1018 1017 823 824 1019 
1018 824 825 1020 1019 825 826 944 1020 
826 827 945 944 827 828 946 945 902 
903 904 986 924 925 1021 923 925 926 
1022 1021 926 928 1023 1022 928 892 891 
1023 891 893 1024 1023 893 894 1025 1024 
894 895 1026 1025 895 896 1027 1026 896 
897 1028 1027 897 898 1029 1028 898 899 
1030 1029 899 900 1031 1030 900 901 917 
1031 828 829 1032 946 829 830 1033 1032 
830 831 1034 1033 831 832 1035 1034 832 
833 1036 1035 833 979 1037 1036 979 1038 
1039 1037 979 978 1040 1038 978 835 1041 
1040 835 834 1042 1041 834 836 1043 1042 
836 837 1044 1043 837 838 841 1044 904 
905 985 986 917 918 1030 1031 841 843 
1045 1044 843 1046 1047 1045 843 842 1048 
1046 842 844 1049 1048 845 846 980 911 
980 981 909 911 981 982 908 909 982 
983 907 908 984 985 905 906 906 907 
983 984 918 919 1029 1030 919 920 1050 
1029 920 921 1051 1050 921 922 1052 1051 
922 923 1021 1052 927 929 1053 975 929 
930 987 1053 965 996 1054 964 998 999 
1055 1054 999 1000 1056 1055 1000 1001 1057 
1056 1001 1002 1058 1057 1002 1003 1059 1058 
1003 1004 1060 1059 1004 1005 1061 1060 1005 
1006 1062 1061 1006 1007 1063 1062 1007 1008 
1064 1063 1008 1009 1065 1064 1012 1013 1066 
1067 1015 1017 1068 1069 1017 1018 1070 1068 
1018 1019 1020 1070 1020 944 947 1070 987 
988 1071 1053 988 989 1072 1071 989 990 
1073 1072 990 991 1074 1073 991 992 1075 
1074 992 993 1076 1075 993 994 1077 1076 
994 995 1078 1077 995 966 968 1078 947 
948 1068 1070 968 967 1079 1078 967 969 
1080 1079 969 970 1081 1080 970 971 1082 
1081 971 972 1083 1082 972 973 1084 1083 
973 974 1085 1084 974 975 1053 1085 948 
949 1069 1068 1040 1041 1086 1038 1041 1042 
1087 1086 1042 1043 1088 1087 1043 1044 1045 
1088 949 950 1089 1069 950 951 1090 1089 
951 952 1091 1090 953 954 1092 1093 954 
955 1094 1092 955 956 1095 1094 956 977 
1096 1095 977 1063 1064 1096 977 976 1062 
1063 976 958 1061 1062 958 957 1060 1061 
957 959 1059 1060 959 960 1058 1059 960 
961 1057 1058 1032 1033 943 861 1033 1034 
942 943 1034 1035 941 942 1035 1036 1037 
941 1037 1039 940 941 789 912 910 790 
932 931 1048 1049 931 933 1046 1048 940 
1039 1097 939 1039 1038 1086 1097 961 962 
1056 1057 933 934 1047 1046 1045 1047 1098 
1099 1047 934 935 1098 935 936 1099 1098 
962 963 1055 1056 936 937 1100 1099 1023 
1024 1101 1022 1024 1025 1026 1101 1026 1027 
1052 1101 1027 1028 1051 1052 1028 1029 1050 
1051 937 938 1102 1100 939 1097 1102 938 
1086 1087 1102 1097 1021 1022 1101 1052 1053 
1071 1084 1085 1071 1072 1083 1084 1089 1090 
1091 1016 1093 1092 1103 1104 1092 1094 1105 
1103 1094 1095 1096 1105 1064 1065 1105 1096 
1072 1073 1082 1083 1073 1074 1081 1082 1074 
1075 1080 1081 1079 1080 1075 1076 1076 1077 
1078 1079 342 1106 572 430 1106 1107 574 
572 1107 457 459 574 1106 342 200 202 
1107 1106 202 203 457 1107 203 303 467 
468 1108 532 468 469 610 1108 1108 610 
545 532 743 744 860 742 861 863 946 
1032 792 793 1109 912 793 847 932 1109 
1109 932 1049 1110 912 1109 1110 910 910 
1110 845 911 1110 1049 844 845 1016 1015 
1069 1089 1016 1091 1014 821 1067 1111 1011 
1012 1111 1112 1010 1011 1112 1065 1009 1010 
1065 1112 1103 1105 1102 1087 1088 1100 1100 
1088 1045 1099 1054 1055 963 964 1054 996 
997 998 1104 1066 1113 1093 1066 1013 1014 
1113 1113 1014 1091 952 1093 1113 952 953 
1104 1103 1112 1111 1111 1067 1066 1104 
CELL_DATA 1064
FIELD FieldData 6
Stress_X 1 1064 double
0.015888415277 0.0090264966711 0.0045439819805 0.0023914140183 -0.001171824988 0.0031965291128 -5.9352100834e-06 -0.00026704202173 0.00097408139845 
0.0023951667827 0.0035996448714 0.0037839573342 0.0049446444027 0.0056539969519 0.0064503871836 0.0069212424569 0.0069275712594 0.0064937141724 
0.0055879973806 0.0046620829962 0.0046221544035 0.0053553166799 0.0061337091029 0.0065248887986 0.0068554375321 0.0050530582666 0.0022624800913 
0.00090138998348 0.00021269333956 -2.6779156542e-05 -0.00067225261591 -0.0015353173949 -0.0015935017727 -0.0014176567784 -0.00097782444209 6.4614861913e-05 
0.0014296683948 0.0037216555793 0.0071830647066 0.010977942497 0.013385428116 0.014384235255 0.0068481741473 0.0040929499082 0.0019522396615 
0.00055737717776 -0.000633792195 -0.0010553096654 -0.00072836410254 -0.00029913260369 0.0001576996583 0.0010531092994 0.002895347774 0.0062094782479 
0.0079369237646 0.0080247409642 0.0071507683024 0.0062940260395 0.0064473845996 0.0073351929896 0.0080961529166 0.0087177120149 0.0077246790752 
0.0059416834265 0.0039666271769 0.0020637917332 0.00043140735943 -0.0004979276564 0.0012236397015 0.0040160906501 0.0077546411194 0.011742549017 
0.015179338865 0.018820699304 0.02182880044 0.023751052096 0.018536584452 0.012042643502 0.0060675679706 0.0014183747116 -0.0051814955659 
-0.0038368105888 -0.0038895178586 -0.0035957654472 -0.0027974431869 -0.0021161334589 0.001131152967 0.0034170423169 0.0039198007435 0.0040632709861 
0.0041393018328 0.0039918744005 0.0047656870447 0.0063428790309 0.008484814316 0.011348931119 0.013077232055 0.014939651825 0.014345380478 
0.010798318312 0.007046089042 0.0052501233295 0.0039831581526 0.0027322024107 0.0016344573814 0.0041644088924 0.0051650526002 0.0059385923669 
0.0077070128173 0.0098134558648 0.011455733329 0.011476862244 0.012157588266 0.012870853767 0.013475367799 0.013453932479 0.012110152282 
0.010128649883 0.0083794053644 0.0063785142265 0.0049566030502 0.0041201151907 0.003093714593 0.003080728231 0.0021284245886 0.002312118886 
0.0035522461403 0.0042728199624 0.0050135059282 0.0062693734653 0.007304626517 0.0079277539626 0.0094160912558 0.011040822603 0.012149578892 
0.012046039104 0.011694432236 0.012248241343 0.0139835421 0.016035329551 0.016015525907 0.011266780086 0.014378700405 0.013518376276 
0.012988181785 0.012917313725 0.012258723378 0.011196511798 0.010647275485 0.010267429054 0.010382789187 0.010598686524 0.0078112250194 
0.0061208419502 0.005184202455 0.004155096598 0.0027546023484 0.0021597344894 0.001818463672 0.0010799847078 0.00092020339798 0.0016484085936 
0.0044574849308 0.0076132030226 0.0083375629038 0.010272232816 0.012197554111 0.015981480479 0.018993899226 0.019343504682 0.019259169698 
0.01870562695 0.01820175536 0.018763648346 0.017968788743 0.013148952276 0.010182860307 0.0088055795059 0.0088654663414 0.00845688954 
0.01003653463 0.0099468939006 0.0084434542805 0.0073385718279 0.0050846529193 0.0020453184843 0.00245184917 0.002562238602 0.0024250051938 
0.0028358134441 0.0042737070471 0.0053687929176 0.0066366582178 0.0091654034331 0.011687172577 0.014248829335 0.015967812389 0.016725806519 
0.015955206007 0.0096082035452 0.0083662811667 0.0022403236944 0.0023138816468 0.0020915442146 0.0035470230505 0.0055895526893 0.0083639221266 
0.011824772693 0.013778934255 0.013755429536 0.013754906133 0.014718103223 0.015276223421 0.015630256385 0.015218781307 0.013465328142 
0.010448063724 0.0075590373017 0.0050044041127 0.003103686031 0.0026429374702 0.0023776600137 0.0018530681264 0.0023319395259 0.0032226871699 
0.0043482528999 0.0061395308003 0.0079881865531 0.0098107922822 0.011857879348 0.013809883967 0.01492651552 0.014875748195 0.013929130509 
0.012480295263 0.01272368338 0.014292065986 0.017040811479 0.020672630519 0.01638524048 0.0040100961924 0.0028536522295 0.010077796876 
0.0092175547034 0.011981770396 0.01478483621 0.016836671159 0.018197031692 0.017939273268 0.016807980835 0.015581356362 0.014637349173 
0.012635362335 0.010802961886 0.0099124554545 0.0094534549862 0.010269850492 0.010391506366 0.0090002873912 0.006908363197 0.0050509120338 
0.0037422978785 0.0025816138368 0.0023342298809 0.0021796135698 0.002486257581 0.0031412886456 0.0041507720016 0.0057462756522 0.0078471386805 
0.010231876746 0.012642387301 0.015419073403 0.017078544945 0.017350375652 0.017893470824 0.018556352705 0.018997054547 0.019359115511 
0.018813403323 0.016806423664 0.013982174918 0.012674218044 0.012043990195 0.011279455386 0.010789742693 0.0096996398643 0.0076975612901 
0.0059882192872 0.0041184634902 0.0026105130091 0.0022845179774 0.0025638716761 0.0024981149472 0.0025900045875 0.0033936514519 0.0048560975119 
0.0060978187248 0.0072682341561 0.0095252627507 0.011004604399 0.010392698459 0.010715665296 0.015061720274 0.012385452166 0.0035829644185 
0.0029856071342 0.0021545875352 0.0015424195444 0.0020904585253 0.0032960113604 0.0049648010172 0.0070900251158 0.0095881475136 0.011944950558 
0.014107849449 0.016086721793 0.01707633771 0.017045723274 0.015508576296 0.01067750901 0.010986668989 0.012392366305 0.015970151871 
0.016817485914 0.0024419648107 0.0021507528145 0.0034418408759 0.0056493999436 0.0083178924397 0.011281990446 0.014668263495 0.017159689218 
0.01663229242 0.016128214076 0.015929270536 0.016346331686 0.016927262768 0.016914339736 0.015421129763 0.013104108162 0.010325949639 
0.007453430444 0.0043656989001 0.0024099994916 0.0018966896459 0.0036314290483 0.0042032883503 0.0032725019846 0.0029908793513 0.0035686772317 
0.011800202541 0.014245858416 0.01175831724 0.012995930389 0.013506313786 0.013525721617 0.013039215468 0.011577822268 0.010742583312 
0.009901153855 0.010383823887 0.011053933762 0.011973743327 0.011517909355 0.01081133727 0.0098729236051 0.0090338736773 0.0094454595819 
0.010714994743 0.0083826258779 0.0059240539558 0.0052858348936 0.0038897988852 0.0021754284389 0.0019277631072 0.0023472006433 0.0026487431023 
0.0029731248505 0.0038724837359 0.0055710892193 0.0074793039821 0.0094594610855 0.011492116377 0.014227147214 0.015638446435 0.016706129536 
0.01811174117 0.019923236221 0.022467048839 0.023838901892 0.023255394772 0.020226217806 0.01663932763 0.014065607451 0.012960692868 
0.011757609434 0.010797199793 0.0096584390849 0.0081428950652 0.0063070822507 0.0045526633039 0.0033349676523 0.0023351262789 0.0025221356191 
0.0030823682901 0.0037048719823 0.0051869614981 0.0062436112203 0.0082574654371 0.009641581215 0.0096292104572 0.009815575555 0.0093442993239 
0.0089180190116 0.0091805560514 0.010114152916 0.01074638404 0.010993272066 0.010643731803 0.0078367041424 0.0082511696965 0.0088546797633 
0.0076791620813 0.0091427741572 0.0089772427455 0.008457005024 0.0089922193438 0.010440244339 0.010935070924 0.010720528662 0.0022622107062 
0.002484360477 0.0023070159368 0.0015748410951 0.0014231937239 0.0021326448768 0.0034687763546 0.0054562943988 0.0080273691565 0.010616735555 
0.012784934603 0.014909694903 0.016828011721 0.017920777202 0.018810046837 0.01871118322 0.017243430018 0.015674177557 0.013464218006 
0.011460259557 0.01005113218 0.0088822357357 0.0085835168138 0.010642612353 0.011640443467 0.010864822194 0.0084005687386 0.0058313370682 
0.0042641549371 0.0032848217525 0.002365272725 0.001583811827 0.0017214744585 0.0029441686347 0.0052656633779 0.0087990649045 0.013336872682 
0.017940856516 0.01990137063 0.019088063389 0.017487559468 0.01767282933 0.018414882943 0.017969084904 0.017121452838 0.015252233483 
0.012699292041 0.010023914278 0.007517748978 0.004543771036 0.0040859724395 0.0048368931748 0.0051198340952 0.0038819953334 0.0033938293345 
0.0026335294824 0.017483824864 0.017093656585 0.0094886822626 0.0088111031801 0.0093088028952 0.01011641603 0.010545600206 0.010874934494 
0.010643211193 0.0099085494876 0.009036725387 0.0077030532993 0.0071569504216 0.0070623937063 0.0059124426916 0.0047261985019 0.0050425869413 
0.0043805125169 0.0021732691675 0.0019673095085 0.0026561508421 0.002946889028 0.0029747968074 0.0038022885565 0.0048899338581 0.0066614886746 
0.0082300798967 0.010035159066 0.012011567131 0.013187666424 0.017861323431 0.020487241447 0.023523256183 0.025360396132 0.024759156629 
0.022185418755 0.019229415804 0.017294125631 0.015164056793 0.01324198395 0.01108210627 0.0092336172238 0.0074839396402 0.0060624815524 
0.0045326175168 0.0036555402912 0.0031523860525 0.0027709433343 0.002360265702 0.002196541056 0.0020706683863 0.0025317850523 0.0034955807496 
0.0044445204549 0.0059565338306 0.0072773681022 0.015496644191 0.012774314731 0.0096968999133 0.0088819460943 0.0075835320167 0.0080348756164 
0.0084907785058 0.009244135581 0.0098826866597 0.0097125144675 0.0093541098759 0.0084036439657 0.0072611225769 0.0057776640169 0.00507040089 
0.0047955648042 0.0037062384654 0.0036373964977 0.004831252154 0.004767016042 0.0025923550129 0.0017301877961 0.002232325729 0.0029626206961 
0.0029408666305 0.0031049584504 0.0041389227845 0.005434201099 0.0067416843958 0.0079040061682 0.0091505497694 0.0097713554278 0.01079426147 
0.011208718643 0.012964691035 0.014781459235 0.017401793972 0.020063454285 0.022988053039 0.024757616222 0.024850120768 0.023998828605 
0.022766863927 0.021017594263 0.018307996914 0.014880221337 0.011670110747 0.0090739903972 0.0072130439803 0.005678770598 0.0044864038937 
0.003647958627 0.003540857695 0.0031266962178 0.0025512892753 0.001973767532 0.0010242944118 0.0027233590372 0.0027673596051 0.0036215926521 
0.0048546204343 0.0062536108308 0.0074199242517 0.0016513729934 0.001375641441 0.0017007288989 0.0026005532127 0.004116482567 0.0062741874717 
0.0089048417285 0.01146271918 0.013951423578 0.01614934206 0.017576105893 0.018921203911 0.020061207935 0.019984103739 0.018587650731 
0.017645310611 0.016664300114 0.014451204799 0.012336551212 0.01065681316 0.0093221431598 0.008671425283 0.0079214805737 0.0077535016462 
0.0083357198164 0.0079117100686 0.0068150251172 0.0052011506632 0.0036076484248 0.002743475372 0.0018664576346 0.0015238899505 0.0019808665384 
0.0031979209743 0.0054601398297 0.0089232902974 0.014198599383 0.019385635853 0.020590903237 0.01867903769 0.017064245418 0.014950341545 
0.013330917805 0.016479726881 0.019544286653 0.020271973684 0.020140495151 0.020303526893 0.01862725243 0.016640847549 0.014104701579 
0.01188385766 0.008902663365 0.0064468886703 0.0057025980204 0.0051737562753 0.004578883294 0.0044293338433 0.0033921946306 0.0012782331323 
0.0027738832869 0.0021814713255 0.0085192918777 0.0088889710605 0.0081627881154 0.0070549878292 0.0058805048466 0.0046843299642 0.004034859594 
0.0043321205303 0.0038545515854 0.0041034277529 0.004522387404 0.002454806352 0.0020070199389 0.0024296527263 0.0027919041459 0.0024011610076 
0.0025858648587 0.0031943491194 0.0040036537685 0.0047832517885 0.0059278896078 0.0070653730072 0.0086830547079 0.0092134382576 0.010504316539 
0.011414600536 0.012256659567 0.013287505135 0.014877270907 0.016839919612 0.019091490656 0.021419787779 0.023408589885 0.024291787297 
0.02464674972 0.023813389242 0.021836912259 0.019348131493 0.012141370215 0.0092636244372 0.0070630740374 0.0054680765606 0.0043632616289 
0.0048418082297 0.0053428551182 0.0040701855905 0.0038521322422 0.0028329940978 0.0022314023226 0.0020773138385 0.0021175530273 0.0015332913026 
0.0016035442241 0.0022216245998 0.0032295659184 0.0047911955044 0.0068669184111 0.009279044345 0.011909086257 0.015208306722 0.017644099891 
0.018919814378 0.019896637648 0.020996158943 0.02099279128 0.019380575046 0.018873145804 0.015577842481 0.013273135759 0.011684908532 
0.010353074409 0.008987233974 0.0079602785408 0.0066016661003 0.0057574091479 0.0052221924998 0.0052844779566 0.0049909232184 0.0042293821461 
0.0030765396077 0.0020564293955 0.0015575648285 0.0017592088552 0.0023459915537 0.0042973593809 0.0060749482363 0.008699523285 0.013225814328 
0.017777763307 0.018105061725 0.016135735437 0.014160072431 0.012517581694 0.010855915956 0.0098661156371 0.012271957472 0.015060554259 
0.018102960661 0.021191215143 0.021674020216 0.01993268542 0.018219780177 0.015782902017 0.012550955638 0.0091944346204 0.0077562560327 
0.006440478377 0.0053872675635 0.0050014480948 0.0043646357954 0.0045327572152 0.0038556316867 0.0034918207675 0.0020424788818 0.0062127010897 
0.0068620732054 0.0067756781355 0.0052785431035 0.0068424548954 0.0059409462847 0.0076577141881 0.0082118296996 0.0081309862435 0.007826381363 
0.009016033262 0.010120193474 0.010253792629 0.0088201817125 0.0076097464189 0.00638268888 0.0067038750276 0.0070380112156 0.0081197600812 
0.0019347032066 0.002824248746 0.0038657269906 0.00527956523 0.0071443696506 0.0092405630276 0.011828379706 0.015662562102 0.018876604736 
0.020636728033 0.022151229903 0.023067295551 0.022039890289 0.020098412409 0.017546238378 0.014879691415 0.012494249269 0.010980000719 
0.010177051648 0.0093577876687 0.0076973196119 0.0060653565452 0.0048270942643 0.0039822752587 0.0034952301066 0.0032203888986 0.002473494038 
0.0016307511833 0.0015692962334 0.0026005685795 0.0040855864063 0.0050350530073 0.0063212760724 0.011220029555 0.013912814669 0.014726423658 
0.012758024037 0.011318783276 0.010325169191 0.009063443169 0.0077453758568 0.0071212914772 0.0080459434539 0.0032218508422 0.0032371259294 
0.016326475888 0.018448740244 0.0027286706027 0.00334835588 0.0046005011536 0.0055654435419 0.0061171669513 0.0054027908482 0.0059816939756 
0.0078876037151 0.0078006666154 0.0074241016991 0.0061162691563 0.0052439114079 0.0047610374168 0.0043442463502 0.0042467112653 0.0047223703004 
0.0054251304828 0.0060830125585 0.0061931558885 0.0056745982729 0.0056268079206 0.0045944210142 0.0029177546967 0.0022118682973 0.0023457286879 
0.0022816399578 0.0022100438364 0.0024065719917 0.002824191004 0.0035143098794 0.0043493453413 0.0054005221464 0.0068532144651 0.0079885572195 
0.0091802319512 0.01001317706 0.010098370723 0.011544165201 0.012723984197 0.013991995715 0.01513864845 0.016354966909 0.018070716411 
0.020308515057 0.022032758221 0.0061371130869 0.0086278459057 0.0066600423306 0.0084277614951 0.0082943281159 0.011077363044 0.013645979576 
0.015088028274 0.016259916127 0.017364688218 0.016176756471 0.013732546009 0.012278450653 0.0095360791311 0.022831154987 0.022774437442 
0.022218121216 0.020898109302 0.020211169496 0.01970644109 0.018879501149 0.018290109932 0.015845986083 0.01271766983 0.0095026493073 
0.0069825644605 0.005257407669 0.0061565968208 0.0080046281219 0.0051718833856 0.0050954264589 0.0038841615897 0.0027513315435 0.0030626365915 
0.0036965487525 0.00418692315 0.0048782648519 0.0057636117563 0.0051773637533 0.0083025181666 0.0082457819954 0.0087943440303 0.009565860033 
0.0072299409658 0.0060306270607 0.0067355092615 0.0056355302222 0.0052103558555 0.0036141513847 0.0024797313381 0.0015485791955 0.001575888251 
0.0021544015035 0.0023352263961 0.0027645779774 0.0035746747162 0.0043821414001 0.0052598821931 0.0083977738395 0.012586128898 0.014248908497 
0.015646809712 0.016697289422 0.0065905000083 0.0057113114744 0.0054403138347 0.0053508891724 0.0054356190376 0.0055884965695 0.0059376065619 
0.0064247157425 0.0073648681864 0.014324815013 0.0090015446767 0.010634728707 0.010877104476 0.0097519326955 0.0087859528139 0.0082491859794 
0.0075339549221 0.0067435172386 0.012332163751 0.01564870216 0.012660571374 0.0097451256588 0.0071310279891 0.010771367699 0.0095998458564 
0.0089479750022 0.0061231255531 0.0047560431994 0.003818216268 0.0034056717996 0.0036909577902 0.0031399722211 0.002726882929 0.002664523432 
0.002476013964 0.0019129556604 0.0014715411235 0.022285226732 0.023177342489 0.022860391065 0.021131534129 0.021245649084 0.0026480136439 
0.002374349162 0.0034847890493 0.018846230581 0.017195938155 0.002112924587 0.0045169070363 0.0063296728767 0.0056511913426 0.0071225846186 
0.0036281163339 0.0087622469291 0.0091143809259 0.012255462818 0.011368934996 0.011485952884 0.011078231968 0.011275079101 0.015002178028 
0.013561364263 0.010542421602 0.0064582354389 0.0065050763078 0.0097933290526 0.0062400326133 0.0049503752962 0.004103901796 0.0045182323083 
0.0066898339428 0.0070875594392 0.0075930785388 0.0077695553191 0.007453228347 0.012596471235 0.0083376532421 0.0057530538179 0.009136242792 
0.005672053434 0.0034040210303 0.010614507832 0.010105657391 0.010008096695 0.019519804046 0.020738679916 0.0015197048197 0.0012689741561 
0.0016322374577 0.0020703920163 0.003069838509 0.0022011271212 0.010856288485 0.0099752834067 0.0085570430383 0.0078402264044 0.0062925000675 
0.0055596265011 0.010375821963 0.007796050515 0.0051745614037 0.0058647864498 0.0072036897764 0.0084604360163 0.0082920761779 0.0077330125496 
0.0067998855375 0.0077540674247 
Stress_Y 1 1064 double
0.022022424266 0.010549589992 0.00011354345042 0.0010073124431 -0.0039648422971 0.0014950423501 -0.005112120416 -0.0054502659477 -0.0033993076067 
-0.0016667328309 -0.00061268650461 -0.00090042909142 0.00022680482653 0.00091606786009 0.0021402847487 0.0034772451036 0.0039964951575 0.0046713524498 
0.0015867209295 -4.6815421229e-05 0.0005157822161 0.0012343205744 0.0033760392107 0.0054157879204 0.0069008879364 0.0053853401914 0.00092380534625 
-0.0021036698017 -0.003517561825 -0.0038284175098 -0.0044155712239 -0.0044849845581 -0.0040370388888 -0.0040843929164 -0.0041700284928 -0.0047604539432 
-0.0059383446351 -0.0058705299161 -0.0034726976883 0.0017770099221 0.0090186381713 0.014772254974 0.0028614059556 0.0019952554721 0.0021722428501 
0.0031763436273 0.001625599456 -0.00014622323215 -0.00082610308891 -0.0013971866574 -0.00087078660727 0.00090653402731 0.0046491483226 0.0080141136423 
0.0089756203815 0.0074186585844 0.0068157971837 0.0071891713887 0.0089331557974 0.011457520537 0.012976584025 0.012756014243 0.010470642708 
0.0082317814231 0.0047390866093 -0.0010844385251 -0.0037816204131 -0.0053299297579 -0.0035871930886 0.001749603427 0.0069815153256 0.0092177866027 
0.0086384452879 0.0093164080754 0.010670666583 0.014161630534 0.013234003447 0.0039671664126 -0.0011561728315 -0.0010740741855 0.0015967132058 
0.0060646426864 0.0057866959833 0.0057386159897 0.0057054022327 0.0065145632252 0.0067549408413 0.0071935136802 0.0075446041301 0.0075677460991 
0.0078711854294 0.0072397538461 0.0068960008211 0.007559648715 0.0087951952592 0.0097589427605 0.0091860583052 0.01026801113 0.0095751928166 
0.0060007800348 0.01298105903 0.0054711503908 0.0013555224286 0.00061223469675 -0.0018775791395 -0.0028739501722 -0.0041978172958 -0.002518231282 
0.00040268691373 0.0021827612072 0.0028596194461 0.0020996532403 0.0027561017778 0.0038537092041 0.0049327728339 0.005916567985 0.0054695666768 
0.003389807418 0.0018675654428 0.0013754010433 0.0019479048206 0.0037030281965 0.0048152860254 0.0056357267313 0.0042342850938 0.00061145296786 
-0.0018819719553 -0.003190680407 -0.0036126042251 -0.003074567765 -0.0025346460752 -0.0026345811784 -0.0022979569621 -0.0023001965601 -0.002816248918 
-0.0042143468745 -0.0046063121408 -0.0031801608857 0.001944268588 0.0094176558778 0.016021348536 0.017507994547 0.0019462940982 0.0027958445717 
0.0033784359694 0.0029273249675 0.00095061404863 -0.00082005758304 -0.00083577731857 0.00013105817197 0.0025170191657 0.0071876458824 0.0086489496753 
0.0089004281908 0.0078434078023 0.0064325882122 0.0062816455029 0.0078822756186 0.0091623086482 0.0094659421593 0.010099175386 0.01024017483 
0.010498016141 0.0086220894009 0.0029091110919 -0.002852645237 -0.00010176662181 0.0056584123522 0.010037525557 0.0096828779206 0.0080026760697 
0.0069048847072 0.0066334330477 0.0095131685957 0.0096093975008 0.0047842287458 0.00085701310309 -0.00017006073904 0.0017468911828 0.0056487233378 
0.0099788708612 0.01048360765 0.0093912146986 0.010086933151 0.01065870095 0.0092125507072 0.010098226368 0.0090170446783 0.0079137468711 
0.00693113124 0.0067715877667 0.0072408872657 0.0077975434251 0.0087582683191 0.0086130080745 0.0094528179616 0.0086309267208 0.0063167712651 
0.0037562167272 -0.0020972187631 -0.00034737479291 0.0018995940918 0.0011694439454 -0.00049881153973 -0.00064297323115 -0.00013827646035 0.0017469994491 
0.003775924677 0.004457697738 0.0033480941784 0.0028777827974 0.0038605250884 0.0046119741164 0.0052485354245 0.0049948259257 0.0044158548117 
0.003787523834 0.0033859810792 0.0035453815944 0.0034860956948 0.0030137680005 0.0027113375254 0.00068841362372 -0.0009457662818 -0.0016422850313 
-0.0016387187643 -0.00065180828096 1.3529331227e-05 0.00020293514535 0.00039884369471 0.00058682786766 0.00049664598191 -2.5448360248e-05 2.498311369e-05 
3.5507080611e-05 0.002879349282 0.0061032194644 0.0081357536837 0.010679388419 0.0089450990781 0.0039571635425 0.0032153960783 0.0010137651116 
-0.0012684813701 0.002304446185 0.0069637326524 0.0097278561443 0.009712504223 0.0076144314371 0.0061341272667 0.0057969852351 0.0066306958906 
0.0046920180321 0.0028364625759 0.0021014008671 0.0024374239147 0.0064011039212 0.011136194691 0.012328466401 0.01105418615 0.0099149132147 
0.01038700901 0.010481783189 0.010212286375 0.0082543306053 0.0073912083171 0.0068069030531 0.0064072613604 0.0065870592371 0.0065579963848 
0.0065974346362 0.0065400949679 0.0070242872462 0.0069905696437 0.0057050576434 0.0043977871537 0.0034576845355 0.0040011270903 0.0049276123755 
0.0047946749255 0.0031291071791 0.00090615008958 0.0010025080992 0.0027525359765 0.0049317823723 0.0079223457724 0.0090452358127 0.0084731262177 
0.0075826575048 0.0064643071964 0.0062858616002 0.006860927213 0.0073422128335 0.0075158113614 0.0080218818039 0.0090981703252 0.010066485032 
0.0099756009877 0.0066458764486 0.004133653827 0.0032556552906 0.0034633325413 0.0027199953329 0.0069773634896 0.0051125963219 0.0042919469997 
0.0034084969666 0.0022821917664 0.00076545850607 -7.0242458605e-05 -0.00032500934321 -1.9724009235e-06 0.00086649070727 0.001854876522 0.0021742710378 
0.002383362269 0.002794082975 0.0028141420335 0.0031257001683 0.0029122973792 0.0026145332959 0.0031649922021 0.0023597367108 0.0036082474981 
0.0052635599859 0.0033422044944 0.0018488895148 0.0010883082869 0.0010077165207 0.0015081056627 0.002843465656 0.0046782363206 0.0053040268831 
0.0038369535469 0.0031062795315 0.0036067317706 0.0047213817015 0.0051409997977 0.0050688949414 0.0049372152425 0.0051425192505 0.0050647798926 
0.0051038735546 0.0037946708035 0.0024524400942 0.0026622561272 0.0040319906548 0.0041761854663 0.0040205908008 0.0038135477807 0.004089885857 
0.0023287120275 0.0031836135313 0.0071475924924 0.010119216517 0.0092567335814 0.0072279456072 0.0057941125706 0.0053317165002 0.005341715645 
0.0049390536733 0.0051465029828 0.0054789357819 0.0058350623585 0.0048557925038 0.0043007112108 0.0038756211288 0.0036360607482 0.0066047497094 
0.011814421043 0.012700257823 0.011564850807 0.010867777281 0.010885928757 0.01104189828 0.0100805033 0.0080114724115 0.0070197894238 
0.0064723459072 0.0061389696784 0.0059515354224 0.0055517768487 0.0051081092097 0.0048054219224 0.005325615406 0.0051686549559 0.0049752616324 
0.0047321338207 0.0047849793918 0.0059407050721 0.0070070330985 0.0072470353916 0.0058221407235 0.0042009968311 0.0041748462245 0.0058177933097 
0.0071515189484 0.0082295555621 0.0082180211321 0.0075705596246 0.0067657846957 0.0063794441521 0.0061943596229 0.0055070528761 0.0057725026272 
0.0064397272654 0.0076093827374 0.0094644287601 0.010498575866 0.0094793410972 0.00745900115 0.0054402486421 0.0044606253505 0.0037352254149 
0.0041240751743 0.0073176329024 0.0094516864046 0.0088352700695 0.0070639592595 0.0053966674022 0.0075290082023 0.0056227273308 0.004493124783 
0.0030849617906 0.0034224025439 0.0054963026196 0.0076010739431 0.0088385995477 0.0084494752809 0.0063587250188 0.0049618235789 0.0057185678743 
0.0058333040215 0.003187650349 0.0023134788498 0.0014912781771 0.00092878082069 0.00078181887511 0.0011093798093 0.0019251238555 0.0028054839931 
0.0033695229795 0.0040024905466 0.0044167721644 0.0044911853038 0.0052277906798 0.0056712441146 0.0057112113573 0.0060572479852 0.0047745783813 
0.0036951387301 0.0030176036526 0.0016930152196 -0.00018280127551 0.00092018325813 0.0021435520612 0.0037987255491 0.0048173656687 0.0047572120093 
0.0049020717852 0.0047761783935 0.004662909545 0.0038301118184 0.0025585235562 0.0017051529139 0.0016590871383 0.0023563839495 0.0040615061298 
0.0057911551557 0.005653174594 0.0042336829938 0.0028744775336 0.0050334217958 0.00559200719 0.0051925270818 0.0053378473967 0.005603434518 
0.0056415274739 0.0054221008904 0.004763698671 0.0029124249704 0.0031314278021 0.0041402424686 0.0040875785053 0.0039448128082 0.0035131291952 
0.0035029002465 0.0037669085432 0.0026662033051 0.0047615156509 0.0046313055791 0.0049168197438 0.0051022390835 0.0054321070202 0.0057237925939 
0.0055038621649 0.0052909520455 0.0053114960901 0.0052396832034 0.0070054344833 0.010330120102 0.012520088814 0.011995363981 0.011689455248 
0.012145379558 0.011411740445 0.010016021319 0.0081057678908 0.0070022102445 0.0062254774384 0.0059231310152 0.005161805544 0.004753221292 
0.0039582974277 0.0036322711967 0.0036560448352 0.0039421478286 0.0053164684214 0.0060913227499 0.007402043324 0.0087563665584 0.0091995196417 
0.0084567610174 0.007601630874 0.0080966986716 0.0086637465283 0.0088146710768 0.0080914758146 0.0074599003419 0.006697202567 0.0064953519031 
0.0062793688849 0.0062468326651 0.006042660214 0.0056155878119 0.0050682346337 0.0044031506404 0.0040747770108 0.0045425649732 0.0055318884552 
0.0073237819597 0.0091974744573 0.010495663621 0.0046409233473 0.0038628801703 0.0044413921423 0.0045409505256 0.0045481747948 0.0048615359701 
0.0049426760525 0.0052299713716 0.0054506431334 0.005467963405 0.0057565961033 0.0060661556199 0.0063413586468 0.006323356647 0.0074799396098 
0.0095852538943 0.011083466001 0.011508695781 0.011532220058 0.012333218008 0.011844583787 0.0098816799 0.0081063350663 0.0071840775199 
0.0062426184304 0.0053984252736 0.0048002013937 0.0040846723132 0.0033311231527 0.0028171981685 0.0026693672407 0.0026622652076 0.0032315235585 
0.0031944040675 0.0042849532329 0.0051767588593 0.0061374055222 0.0071649234742 0.0086120618507 0.01001554355 0.010783464648 0.010967541486 
0.011193967424 0.011430751532 0.01098671183 0.0093602826819 0.0076669440605 0.0068753701635 0.0064722159877 0.0063498863019 0.0063540316187 
0.0061900215223 0.006147401873 0.0056947409175 0.0049052815884 0.0038778053131 0.0024418754037 0.0038234600797 0.0035058178473 0.0047304751351 
0.0073236259632 0.0094720423222 0.0095614446327 0.0029494601768 0.0026120138355 0.0022615622729 0.0018722604727 0.0017530313926 0.0020821904764 
0.0026838385966 0.0034084387589 0.0045991563238 0.0056884894148 0.0060527529567 0.0066846092232 0.0074216309004 0.0076772589236 0.0074313874356 
0.0077616646886 0.0084302490577 0.0067110368982 0.0051704850048 0.0041164862923 0.0026125935838 0.0013903633226 0.00026852419251 0.00042228773236 
0.0016031800769 0.0028793571983 0.0044156946242 0.0055089760572 0.0054795015603 0.0056618629023 0.0052765710279 0.0047898362391 0.0040251212195 
0.0030987584032 0.0028825909831 0.0033032977954 0.0049981158227 0.0064626494423 0.0056518753991 0.0040458245203 0.0033484662417 0.0026074040215 
0.0026724922936 0.0027796656359 0.0044431667775 0.0059523857199 0.0060848221183 0.0060669877566 0.0053266580217 0.0054062763229 0.0053417771123 
0.0052893189713 0.0048480690457 0.0037727793679 0.0045006307773 0.0054815444164 0.0051561403088 0.0049613723531 0.0036439439282 0.0021056609694 
0.0032014031895 0.0032384197693 0.0052204569802 0.0051981885917 0.0053301728331 0.0059444732033 0.0063118473627 0.0064337812364 0.0068794684485 
0.0086946263909 0.010060373694 0.010450094938 0.01202983316 0.011486535892 0.0098551185802 0.008519818075 0.0072337184101 0.0059927338734 
0.0054145334288 0.0045499829575 0.0036950036883 0.0028540669009 0.0025132053997 0.0021247593686 0.0020276152063 0.0021518557332 0.0027200272307 
0.0026482243557 0.0035021293443 0.0046753273346 0.0057153124362 0.0067091560923 0.0080427676439 0.0094023514539 0.010851207189 0.012029705569 
0.013301420957 0.013829389587 0.013607477769 0.012191401795 0.0067985528149 0.0065503679216 0.0062761991285 0.006293260958 0.006356485188 
0.010866408236 0.0099649326876 0.0063053788617 0.0060279024765 0.0050695706159 0.0036070824135 0.0023297788575 0.0029196187388 0.0028169902507 
0.0027318927459 0.0027668499388 0.0026832304429 0.0027606766671 0.0030867501628 0.0034739496186 0.0039892611094 0.0055298334919 0.0071091903374 
0.0081821866333 0.0094254883006 0.010246403515 0.010193301365 0.010489095934 0.010377411731 0.0087452270091 0.0070186681114 0.0053210821934 
0.0038931723684 0.0022428089287 0.00088699167827 -4.4620865083e-05 0.00010599965753 0.00080616172636 0.0020555644296 0.0041518504731 0.0058704046533 
0.0065007675439 0.0063964785077 0.0062247258611 0.0061631193385 0.0056046219543 0.0054155844264 0.0049932012334 0.0047058258206 0.0052135349251 
0.0061573958956 0.005009431392 0.0037510127295 0.0032065154519 0.0031008545775 0.0029189416673 0.0033114280086 0.0026917818468 0.0029138657264 
0.0042892070487 0.0066972505301 0.0074689462781 0.0066501800902 0.005714239087 0.0047622057609 0.0045285173692 0.0043440973386 0.0044796732254 
0.0044977059588 0.0055059376173 0.0067301699892 0.006515677087 0.0062608579174 0.0045371064916 0.0031535502058 0.0031844133046 0.0091677093878 
0.0072093904018 0.0054855230264 0.0037539910991 0.0029905219562 0.0022190874442 0.0035142439883 0.0057919034734 0.0076521169394 0.0091359131038 
0.0074440278113 0.0053857136518 0.0047617135569 0.0041600465775 0.0044767530635 0.0043218815699 0.0050325347111 0.0049458998255 0.0050384378992 
0.0029339545872 0.0034385158215 0.0036918823607 0.0038165508304 0.0041260975413 0.0043375501409 0.0046010138467 0.0059933182783 0.0079388208687 
0.010456470773 0.012778529897 0.013383960351 0.012502835132 0.0099389906973 0.0088349245489 0.0079356068745 0.0067250397988 0.0051866327412 
0.0036729199346 0.0023972755298 0.00090165896108 9.8476295534e-05 0.00028771502548 0.0005958112306 0.0043451418169 0.0062127653509 0.0071550807916 
0.007293835748 0.0074206097052 0.00779590616 0.0078198714182 0.0077945757657 0.0073220324703 0.0058338576928 0.0054743746296 0.0047114901245 
0.0035498735961 0.0032624960877 0.0032868813723 0.0035653242376 0.0038248039782 0.0044066896662 0.0060658464208 0.0025742368307 0.0013200682588 
0.0085576297715 0.010113368742 0.002964475425 0.0038422171492 0.0069543188438 0.0084111941978 0.0088419904932 0.0068116770126 0.0052394587547 
0.004253574647 0.0048520285636 0.0050597935915 0.0054679503664 0.0059660989791 0.0062644216232 0.0067576211877 0.0076970593072 0.0088211176917 
0.0090085603297 0.0089374780655 0.0086466772482 0.0094938678667 0.010732041672 0.011376354843 0.011078755371 0.0099487733096 0.008851592429 
0.0073374006897 0.0062462487258 0.0054442472756 0.0042249849066 0.0032019929495 0.0025287847966 0.0020372015424 0.0019845219795 0.0015570061514 
0.0014268710511 0.0021791381296 0.0023262912873 0.0032007454429 0.0041304845363 0.0051178978756 0.0059801675379 0.0069068232551 0.008120267652 
0.0095126507804 0.010771469213 0.0042595746927 0.0050555877388 0.0035861136857 0.0036033489741 0.0032387522515 0.0029899480287 0.0034605185501 
0.0039297910407 0.0057077454403 0.0084937745705 0.0078092333861 0.0055470434017 0.0039289859124 0.0032438111957 0.012193605304 0.013708448969 
0.014776662923 0.014451269992 0.013395038433 0.011632273905 0.0093612009659 0.008099026978 0.0076034762897 0.0067335404456 0.0063788667321 
0.0064590312541 0.0064492374659 0.0058525432833 0.0026013581082 0.0065258801915 0.0060055749491 0.0054551451467 0.0042118807323 0.0021592136472 
0.0035474041943 0.0057333884761 0.0073018460535 0.0078715700656 0.0080247139558 0.004391413182 0.0062290574424 0.0082577122375 0.0089980941266 
0.0055902968161 0.0049709244631 0.0050171669573 0.009139450267 0.010911191814 0.010543483309 0.0098492046818 0.0087393075228 0.0076261656359 
0.0067399237305 0.0052649960853 0.0038286077324 0.0027827527374 0.0020955207292 0.0016470471164 0.0011233226396 0.004898826126 0.0057479171082 
0.006515275687 0.0075562712736 0.0049835839309 0.0049836672843 0.0054401252419 0.0056642764248 0.0061665964313 0.0068316785619 0.0073455041274 
0.0080184238032 0.0075506442226 0.0067685702816 0.0063496329822 0.0055246427655 0.0046834209934 0.003923906479 0.0035626532044 0.0035775285214 
0.0036201453768 0.0045445058495 0.0059078084305 0.007274383679 0.0067976131104 0.0065253837965 0.0066152643412 0.0047529330477 0.0033204483334 
0.002859524684 0.00054480938707 0.00058622553479 0.00062843866181 0.00095527368831 0.0015055071563 0.0022608852014 0.0033537170384 0.0048458119854 
0.0065762284212 0.0075684292242 0.0081545775756 0.013403861783 0.014900445938 0.014570873231 0.013212341815 0.011142782867 0.002977036871 
0.0034903702326 0.0045040245168 0.0078984294087 0.0074195796624 0.0088134929538 0.0049015856348 0.0057456050999 0.0048618149012 0.0050492119044 
0.0096068447456 0.0051530431956 0.0027467492037 0.003836866701 0.0051389923319 0.0080943768844 0.008846999146 0.0053211124614 0.0060807829723 
0.0064345868304 0.0049927984364 0.0041639772244 0.0042431293987 0.0031208102591 0.0012020963477 0.00093683437444 0.0009064268088 0.0012222252553 
0.0043594501913 0.0046585346572 0.0050679887645 0.005895848386 0.0069540236145 0.0047019366175 0.0041088503785 0.0045225219801 0.0051127695478 
0.0037745449226 0.0029436978512 0.0051807388663 0.0049999970943 0.0047440938652 0.0092134540901 0.011388389394 0.00292824395 0.0026344971266 
0.0025189907756 0.002598047955 0.0020989172626 0.0025132903829 0.0039355810732 0.0028363796882 0.00070862844586 0.0017320202896 0.001523102168 
0.0012664330425 0.0061609344557 0.0060248943046 0.0099695716053 0.010064965114 0.0012000462739 0.0018284412799 0.0018041555304 0.0013958283234 
0.0015708861174 0.0010442634812 
Stress_Z 1 1064 double
0.015712892637 0.017089197412 0.014594069682 0.011429920793 0.008592591621 0.0050245686434 -0.0023609583732 -5.8373749198e-05 0.0013923409861 
0.0022576956544 0.0022367581259 0.0018490845105 0.0015237129992 0.0010079583153 0.0008295479347 0.00092134031001 0.0010158461519 0.0012985734502 
0.00082912761718 0.0020232114475 0.002201403724 0.0045198863372 0.0076033212245 0.010861650109 0.014350687154 0.012884926982 0.0073127876967 
0.0034318428952 0.0010175715433 -0.00049612601288 -0.001834780327 -0.0020683009643 -0.0017939326353 -0.0017212731764 -0.0014167362824 -0.0014967689058 
-0.0016571842134 -0.0012238222407 -0.00024396082154 0.002294377191 0.0062026614323 0.0091448500752 -0.0002168025967 -0.0018554116832 -0.0025870613754 
-0.0025517637841 -0.0038129189052 -0.0053429044783 -0.0063546625897 -0.0070533035323 -0.0065768244676 -0.0051661622711 -0.0024438067339 0.00040147197433 
0.0032121797558 0.0050529357977 0.0078882146627 0.011189325713 0.01614320837 0.021599087864 0.024229887873 0.021762710065 0.015192707069 
0.0086203534156 0.0038656417746 0.0016289469786 2.0133384169e-06 -0.0020970660262 -0.0017461447278 0.00080494355643 0.0032463448588 0.0040892902762 
0.0040504448116 0.0046399254352 0.0051243202761 0.0095048965886 0.010167210363 0.0039962576702 0.0043401056901 0.0062735630199 0.0069728409871 
0.0033377348445 0.0023710194509 0.0025389094371 0.0036441634875 0.0050639999099 0.0046362751164 0.0063473409973 0.0094340192154 0.012714641169 
0.014735068195 0.014893203974 0.014320603572 0.013720158488 0.012248248793 0.010381402448 0.0077469362877 0.0061485297047 0.004489779938 
0.0023644622415 0.012411705218 0.013957710005 0.014483435079 0.016204051673 0.014801574871 0.0161833819 0.014756578952 0.012972950004 
0.010455944575 0.0076760407537 0.0059067211114 0.0041978154331 0.003712418722 0.0032827414107 0.0027517199051 0.0028923358768 0.0032008318231 
0.0040087513626 0.0048791342415 0.0053668674082 0.0062818527222 0.0086711905897 0.011714261025 0.014006356709 0.014316975139 0.012723633088 
0.011393955909 0.010525972582 0.0098429825157 0.0093334997073 0.0082752862945 0.006688981317 0.0056267082691 0.0046642944217 0.0042007798329 
0.0038368648384 0.0035085089039 0.0029008171987 0.0031925924122 0.0041324310005 0.0048773554154 0.0075893639587 0.0034246616997 0.0035754363053 
0.003798075486 0.0044536399655 0.0044748154469 0.0044596330263 0.0049324533902 0.0055439551361 0.0068384199403 0.0091345505789 0.0097779696807 
0.01117693074 0.012217937037 0.01276128646 0.014561071061 0.017117628828 0.018645849079 0.019006244838 0.019902488217 0.019981244579 
0.018242402002 0.015505341813 0.012341867201 0.0094135859981 0.0094621162862 0.0087247211486 0.0063217072748 0.0026849173009 0.0012125490466 
0.0010289135389 0.0015520022716 0.0052193445154 0.00524073001 0.0045637637377 0.0047534056939 0.0045272968709 0.0039207539521 0.004655580502 
0.0076964166947 0.010296131484 0.01274902001 0.016459427774 0.017990365624 0.017444103956 0.018303433433 0.017561748624 0.015924768522 
0.014400815591 0.013434044085 0.012719276361 0.011481017806 0.010156523436 0.0082928892225 0.006618747022 0.0049178586341 0.00444291858 
0.0042503895238 0.0099721197039 0.010362994857 0.018559562042 0.020321603864 0.019054422155 0.017735805362 0.015131661668 0.011736970395 
0.0084878187627 0.0057462146506 0.0034009283409 0.0021479637362 0.002039342653 0.0016379330773 0.0017213529209 0.0019896288868 0.0027369218878 
0.0040147607215 0.0054816026241 0.0074974223971 0.010264622048 0.013411407359 0.014853772707 0.013199896552 0.012495343573 0.012286241166 
0.011917504482 0.011109771207 0.0093031553552 0.0070672915317 0.0050234496593 0.0032182526775 0.0019712094218 0.0014196216362 0.0020134339575 
0.0019502404612 0.0027080471627 0.004583615344 0.0086268922314 0.01444738172 0.016497854143 0.016242006794 0.016074042767 0.0089576086029 
0.0084373112768 0.008341608569 0.0080737732351 0.0065751327202 0.0050165913999 0.0028135096654 0.0018778247759 0.0026915590279 0.0043389676139 
0.0033077953849 0.0036860438995 0.00460407231 0.0054435529746 0.0081378016621 0.01132344082 0.01350686606 0.015383306891 0.016726499423 
0.018343629315 0.019321158528 0.018890714273 0.017448425293 0.016650402918 0.015630004928 0.013951944187 0.012980748899 0.012120827101 
0.010755226947 0.008938585408 0.0074602896348 0.0059760566801 0.0039204754867 0.0028973915614 0.0022562735248 0.0021681732032 0.0023284337949 
0.0028818368446 0.0035125105642 0.0037590200081 0.0048810411245 0.0064961565658 0.0076133827679 0.0094485310838 0.011430616491 0.012235794216 
0.012335094623 0.012647053227 0.014072081074 0.016038898379 0.017727125436 0.018342712894 0.018839424476 0.018929762766 0.017440287396 
0.015024308115 0.012441775762 0.011415078305 0.0098605966195 0.0068817888387 0.0078433398157 0.0055157667957 0.0034812251106 0.016544187441 
0.01608011499 0.015614891425 0.014413242228 0.014022611082 0.014289319515 0.014442329295 0.01399444323 0.012591984123 0.0099353091791 
0.0070981625468 0.0048212725669 0.0030625017826 0.0027501371223 0.0030605478678 0.0039206948131 0.0070314179175 0.0090001728386 0.012907146476 
0.014909218997 0.017928427085 0.018569894135 0.018981186673 0.018370563164 0.016307730228 0.013064227067 0.010150039569 0.008003118448 
0.0050185974687 0.0027865932789 0.0019870172255 0.0019755579997 0.0019925378729 0.0021281074733 0.0027777289506 0.0046334583312 0.0068462714553 
0.0090921260417 0.010640958324 0.013620085083 0.015591237694 0.017618710175 0.016599258408 0.016272481531 0.015738919377 0.013066604733 
0.0026559033431 0.0030369316228 0.0066346633248 0.0066499258392 0.0052262921818 0.0036749171559 0.0024878142867 0.0022271971684 0.0027070075739 
0.0027313546743 0.003486946458 0.0036095627584 0.0035612082575 0.0032630544156 0.0040598078631 0.0054575735703 0.0073817647062 0.01141129341 
0.015497298911 0.015486636199 0.01552090887 0.017025670037 0.018449438736 0.019122539088 0.018493821844 0.017282955348 0.016664141789 
0.015732772648 0.014236391522 0.013185167685 0.011922015809 0.01035232842 0.0087598999962 0.0077594704926 0.0059044440277 0.0036447667517 
0.0025057713501 0.0020120074041 0.0022960316855 0.0025349801872 0.0033189982641 0.0042490903288 0.0049081812613 0.0058090183884 0.0070063411258 
0.0078672459349 0.0091645987704 0.010249231011 0.011049948633 0.011290677823 0.011597598903 0.01253969036 0.01614667289 0.016853392124 
0.017173949629 0.016509924084 0.015899982303 0.014926688746 0.013215390965 0.011587429792 0.0096752047539 0.0077739693224 0.0060791848227 
0.0048418180086 0.0047589140013 0.0052124853246 0.0049500092864 0.0039879581891 0.0025577552151 0.010134003125 0.0085661988705 0.0073187281378 
0.0050710779615 0.0047692786902 0.0040173842572 0.0035679582506 0.0036174529232 0.00426497031 0.0038566414732 0.0029523090925 0.014758383855 
0.012805221602 0.015982501209 0.015644041821 0.015299686231 0.015044074506 0.015222834423 0.015557039529 0.015469400212 0.014219911769 
0.011639045551 0.0088924271986 0.0064005888999 0.0043996931054 0.0039834491909 0.0044246823527 0.0043345806189 0.0035808028188 0.0032320192549 
0.0034398168791 0.0047350693494 0.0060776392929 0.0073597221635 0.011085333303 0.012689151801 0.01278865803 0.012342575006 0.011762297712 
0.012008677237 0.012828435749 0.013977020048 0.014681613073 0.014706145041 0.014752101153 0.015026653185 0.015103408135 0.014172907919 
0.012120181695 0.0095493951812 0.0068443990313 0.0039992197417 0.0022197747603 0.0025328318588 0.0024646541569 0.0036485993769 0.0058978563175 
0.0081433486193 0.0095978714526 0.011139686219 0.012665208429 0.015570093878 0.018044350669 0.015798034146 0.012379897758 0.01402547583 
0.0144929206 0.0022341609001 0.0026911196765 0.0022792792879 0.0021955857519 0.0026366703678 0.0031361246947 0.0034181869123 0.0032981024124 
0.003468245035 0.0044452697039 0.0062221158296 0.0085668414831 0.012133057229 0.014240608551 0.014456319623 0.014907280914 0.016698937863 
0.019040452316 0.019845128059 0.019165651873 0.018054768443 0.017154719681 0.016261244193 0.014886602759 0.013309327886 0.011950498447 
0.010185568593 0.0086034210399 0.0074203368276 0.0059634628706 0.0022827263456 0.0020446567796 0.0021321317181 0.0024641021155 0.0032081010286 
0.0040604998358 0.0048349718563 0.0061906808987 0.0068947346881 0.0075135724619 0.007994171232 0.0087948236614 0.0095985382795 0.010257235728 
0.010543087497 0.011111330241 0.01144488994 0.011245317757 0.012706164271 0.014042662457 0.014368041418 0.015147631057 0.015973567963 
0.01571133174 0.014257853851 0.013799296692 0.0029596188106 0.0035003041849 0.002261593705 0.0022615462076 0.0021170524415 0.0022362172604 
0.0023604652379 0.0027718143538 0.0029726910871 0.0029916318599 0.0035620266572 0.0048607131466 0.0067007741891 0.0089144203812 0.011699506082 
0.013424402103 0.012724039145 0.013202773407 0.015787119046 0.019385293126 0.020789895207 0.019170232117 0.017895182595 0.017305711284 
0.016208576038 0.014225248247 0.012900988571 0.011524253525 0.009826506488 0.0078978771344 0.006337353494 0.0048058968969 0.0037529324181 
0.0026574658696 0.0027305127587 0.0024088325445 0.0022740890272 0.0021769825835 0.002395471558 0.0026882998645 0.0032623233274 0.0042022028938 
0.0054302117787 0.0063514346257 0.0063355835155 0.0063598244451 0.0071962275542 0.0082530109212 0.0090411128476 0.0095038544387 0.0099360002205 
0.010489351116 0.010348051786 0.0099926637486 0.011105943471 0.01197979413 0.013273447752 0.014256935567 0.014385744929 0.014508544467 
0.014261770993 0.013280996121 0.01150855422 0.014723521657 0.015108029358 0.015158052556 0.014883050695 0.014851524495 0.015135719441 
0.015134812333 0.014410753734 0.013017965481 0.010902089998 0.0082851769403 0.0063563417643 0.0053076194599 0.0050005228259 0.004741655197 
0.0044775255956 0.0040549500845 0.0035122607369 0.0032219572458 0.0035909120925 0.0041945907287 0.0057770875283 0.0083403075114 0.010627505369 
0.011803327128 0.011450681835 0.010858009569 0.011030764319 0.011538983323 0.012634676881 0.013394503854 0.013561978005 0.013223363087 
0.012399462052 0.012253800407 0.012927541509 0.013657984324 0.012739419006 0.010295535438 0.0076852734201 0.0057264291681 0.0039315633476 
0.0033824669663 0.0025676062796 0.0031144267414 0.0036471688654 0.0036194855347 0.0041788280942 0.0048808986321 0.006933002267 0.0088522210717 
0.0099425818771 0.01066465117 0.011896553449 0.014120867476 0.01449390687 0.0131175071 0.01096312236 0.010031209327 0.0092038614675 
0.011215925217 0.012271143496 0.0023937229998 0.0030071993824 0.0037023804616 0.0051574376412 0.0068818484433 0.0087346900254 0.010723694228 
0.01248850394 0.012415418401 0.012693562545 0.018816914409 0.020322805271 0.019189117476 0.017893414944 0.016517009586 0.014706314541 
0.013046492822 0.011756547727 0.010532690212 0.0088587701321 0.0072034653276 0.0055783181451 0.0047139264643 0.0035402632784 0.0031923076604 
0.0027150185779 0.0024828908499 0.0023414930329 0.0022061001509 0.0021647473332 0.0022858798038 0.0025003487244 0.0029204650782 0.0035914168693 
0.0047361091711 0.0053429575637 0.0053964396939 0.0049049300142 0.0074123209342 0.0085108233616 0.0089739682153 0.0091956797987 0.0096025764942 
0.015130410902 0.014363828115 0.0094377938658 0.0093398578465 0.0098736621439 0.011057600379 0.012513360009 0.012862965465 0.013020684011 
0.013586484827 0.013906071894 0.013667391613 0.013588830829 0.013804206625 0.013846155256 0.013403976336 0.013012376614 0.011959700845 
0.0094273248687 0.0075678145513 0.0062347622588 0.0053738011047 0.0050307665952 0.004039873369 0.0037626635749 0.0033362512477 0.0031380292494 
0.0032631140202 0.0038458011113 0.0057038720697 0.0074011078104 0.0090196486562 0.0092677716166 0.0091853942722 0.010011720471 0.01101815328 
0.012043475173 0.013243010268 0.014225515537 0.014504799619 0.013815351762 0.012979365885 0.011532188393 0.011188222095 0.011380547658 
0.011531320401 0.0099171986803 0.0079436767846 0.0062745315954 0.0051400405355 0.0040759271942 0.0037477412261 0.0033016258385 0.0029479453806 
0.0034497159068 0.0052326591685 0.0058701913804 0.0052536767907 0.005535997916 0.0063540553674 0.0071155736223 0.0078961709514 0.0090784421191 
0.010258054361 0.010951192118 0.011411424726 0.01107010711 0.011567893438 0.011331612244 0.011649575084 0.0092022670433 0.011808204465 
0.0092563088983 0.0075299651362 0.0047356327996 0.0049780877307 0.0023237916175 0.0021450829227 0.0024372590706 0.0024294271134 0.0029407909606 
0.0032353389543 0.0031735852826 0.0028370986693 0.0022847910877 0.0024329277221 0.002533744555 0.0025205386337 0.002236260334 0.0024607486557 
0.011651689187 0.011946118437 0.011964748614 0.012118158862 0.012425574474 0.012416796759 0.012012734078 0.011942931451 0.011312828399 
0.0097089726478 0.0080812638626 0.0071121258661 0.0056759305298 0.0030009895563 0.0027927635238 0.0030529473443 0.0030076571275 0.0028869619127 
0.0029355646111 0.0036408265587 0.0047370423563 0.0062388004735 0.0072329146788 0.0072833127342 0.010367924348 0.011538752355 0.01282671839 
0.014313618653 0.015862381086 0.017191626132 0.017147660255 0.015495017171 0.012993992306 0.010071964003 0.0099675850943 0.0094818593934 
0.0077583026141 0.0064801541157 0.0053867162205 0.0045296070166 0.0037288961466 0.0033526362386 0.010812748224 0.0090889846906 0.0084185544401 
0.0073257996701 0.005164086353 0.012992789969 0.013076103292 0.014260080643 0.012806058861 0.0108497357 0.0079271821305 0.0072197224945 
0.0069237928838 0.0027634825092 0.00377165596 0.0048084678128 0.0063102277927 0.0079253418371 0.0093008652329 0.010541889817 0.011734895408 
0.012375275604 0.013472659513 0.014453023672 0.015891486779 0.016495410353 0.019078820944 0.019772663713 0.018268190324 0.016543747857 
0.014626371674 0.013150423765 0.012064037845 0.011061729863 0.0099979415536 0.0087941540405 0.0074084275402 0.0062820818275 0.0050012967549 
0.0044018677436 0.0041125044227 0.0032070628367 0.0025304937735 0.0024354241323 0.0021645294037 0.0020775855519 0.0021399734542 0.0023085868452 
0.0026836106554 0.0031285153236 0.0080517511815 0.002959930338 0.0021704146639 0.0032061184756 0.0031885982025 0.0033716328908 0.0036764065735 
0.0035926483106 0.0048134149984 0.0059873145074 0.0046019004658 0.0040672300383 0.0049027409405 0.0054027675651 0.0037781596184 0.0041264793836 
0.0047778487206 0.0047162841074 0.0044931238517 0.0048700482585 0.0062897186726 0.0066961627454 0.007656740956 0.0083881616592 0.008832343854 
0.0091639310122 0.0092306155711 0.0093700047582 0.0026483598631 0.0094226486981 0.0098052751273 0.0097130248323 0.0099720768631 0.012283332646 
0.012891883962 0.013279216364 0.012508783489 0.010240335949 0.011199952103 0.0014578483533 0.0014047827572 0.0021795923822 0.0036953082308 
0.0029131248593 0.0028848885559 0.0026979541872 0.017214601859 0.019907480106 0.019827319309 0.01728251949 0.014654728584 0.012970301323 
0.012154174037 0.011179892346 0.01046439819 0.0098174745217 0.0088604800403 0.0077079781331 0.003878678428 0.0021767299622 0.0021112870891 
0.0022105339449 0.0023868791759 0.0036391760223 0.004471144639 0.0057714926079 0.0071458653547 0.0087048346177 0.010154940188 0.011150451377 
0.011722379364 0.011709273793 0.0023684345651 0.010217111558 0.0096223698929 0.0088847316802 0.0076361293904 0.0062806485221 0.0052463370375 
0.0042746555991 0.0036113101523 0.0024811343756 0.0073894690722 0.0083823921159 0.0091640306637 0.0095055960119 0.0026242220774 0.0026288784575 
0.0027690308634 0.005319325719 0.0060398206115 0.0067119291052 0.0075970161706 0.0081858821213 0.0090954825282 0.010093853809 0.010940168984 
0.011777012609 0.012906896882 0.01463037543 0.0048835063353 0.0061059026048 0.0072256368585 0.0060702296905 0.0083418767899 0.0098302317783 
0.010271077976 0.010430010036 0.0097336564213 0.0077545111999 0.017077518627 0.010632592253 0.010395063087 0.010995280929 0.011236512102 
0.019576404244 0.011065381579 0.0028127867263 0.0033776958007 0.0046042185277 0.0041059455834 0.0028808887582 0.010673059151 0.010334094986 
0.0089320801198 0.0043968288228 0.0039696595632 0.0048007895239 0.0024537655991 0.0050212787464 0.0059179239906 0.006829042919 0.0072280270979 
0.0059114936739 0.007200227119 0.0084575181827 0.0098329065368 0.011099738069 0.014028916135 0.013723704033 0.014028121717 0.015579881147 
0.016088079661 0.016277221963 0.0023693700787 0.0023893879261 0.0022685918957 0.0050130737945 0.0037069120444 0.0098931444809 0.01089350041 
0.010405924171 0.010192161426 0.012135027908 0.01134413667 0.0023929004092 0.0027504006866 0.0043814168312 0.0057216165587 0.0065016662702 
0.0063112024218 0.0096472799778 0.010004083626 0.01973519288 0.017388451844 0.0041043465026 0.0036536555272 0.0029976745136 0.0044031688012 
0.005465881899 0.0044266432524 
Stress_XY 1 1064 double
0.0050593637861 0.00075248430949 0.00047747502686 -0.0011751138372 -0.0017454208573 0.00052892894018 -1.1164182979e-05 -0.00093219307018 -0.00016226949811 
9.9131801107e-05 6.3345387389e-06 -0.0010062387446 -0.0017087622546 -0.0018329041777 -0.0019970252179 -0.0017817395274 -0.0017793712905 -0.0019511333667 
-0.00039312362787 -0.0010132784955 -0.0005276214215 -0.00057825417025 -0.0014250208624 -0.0024150817189 -0.0027571192477 -0.0021335266065 -0.00043220029329 
0.00093858438777 0.0012762130937 0.00095088593662 0.00088647881057 0.001313886838 0.0017094971845 0.0023915686179 0.0034211359452 0.0045379200019 
0.0051739639603 0.0046914797276 0.0035296436399 0.0024606143124 0.0020540801343 0.00375988218 -0.0020985528827 -0.0022320318967 -0.002088587964 
-0.0026282323524 -0.0023888268042 -0.0010365158087 -0.00082029437181 -0.00074869918171 -0.00021487141203 0.0006909671356 0.0025191167369 0.0033655567095 
0.003380284179 0.0030099852011 0.0029247598723 0.0024991100654 0.0023204658646 0.0028017987497 0.0032284092158 0.0032067548018 0.002881327644 
0.0020769003313 0.00040218984941 -0.0011815790785 -0.0019104534294 -0.0019727912731 -0.0021622590721 -0.0025633762125 -0.0041502332315 -0.0038848011754 
-0.0021967394277 -0.00034451801912 0.0023159582634 0.0034239480738 0.00074242049595 0.0021710575093 0.0017075245269 0.0031242938712 0.003648557933 
0.0066696139984 0.0054322201759 0.0034809953067 0.0021644723602 0.0021868594922 0.0010853077983 -0.00057336548343 -0.0010848500533 -0.001264940016 
-0.00094929756597 -0.00046366112656 -0.0001432558638 0.00027344853152 -0.00057475292124 -0.0019291773206 -0.0032491213642 -0.0043069683015 -0.0045854900964 
-0.004055749625 -0.0016941567883 -0.00090868683765 -0.00061035627732 0.00030958917341 0.00092766730813 0.002492482774 0.0025218685623 0.0020599765703 
0.0021066966001 0.0016615104396 0.0001379797759 -0.0012062946334 -0.0014578760602 -0.00177611853 -0.0017432026798 -0.0015687890118 -0.00086176709738 
-0.00045374565525 -0.0010882378556 -0.0014430491719 -0.0018014166271 -0.0021328828298 -0.001727727009 -0.00073641265044 -0.0010921987705 -0.0015616785968 
-0.0015451877844 -0.0015502300812 -0.0016896693269 -0.0016991631128 -0.0010101870866 5.4177111451e-05 0.0013023350621 0.0027891327627 0.0044680694118 
0.0060378280468 0.00695314724 0.0071578440256 0.0064606964588 0.0053838696331 0.0038854691666 9.4595270639e-05 -0.0049325968139 -0.004456075374 
-0.0039385855198 -0.0028191101737 -0.0011856080964 8.3485989308e-05 0.00083589449059 0.0022296078969 0.0038588528987 0.004918249324 0.0051462915726 
0.0039535239339 0.0030283196829 0.0024223567452 0.0016088023549 0.00030458418769 -0.0010012434795 -0.0014130099444 -0.00043234336772 0.0014377696207 
0.0029645073228 0.0032978332601 0.0026298079174 -0.00059405603679 -0.0014687139774 -0.0033067860641 -0.0049694231711 -0.0047718891874 -0.0034770797938 
-0.0017024845583 0.00049964844948 0.0033933061641 0.0052027413622 0.0047811870463 0.0035692274105 0.0028023328632 0.0026442019735 0.0029912581667 
0.0029139865655 0.0014877588255 0.00018654254382 -0.00089979614131 -0.0012641536305 -0.0017645045882 -0.0018177409656 -0.0013542420929 -0.00059367640642 
2.6336409064e-05 0.00038896981278 0.00052595470333 0.00021783396369 -0.00097325548995 -0.0024741298985 -0.0039133722894 -0.0055637648329 -0.0060212211683 
-0.0056501664221 -4.3349773478e-05 0.00062370375963 -0.00032351750997 0.0013248424511 0.0021350847092 0.0025209395681 0.0022245140281 0.0015085862251 
0.00042833766202 -0.0008080342086 -0.001318546827 -0.0013351012021 -0.0011154117528 -0.0010243391152 -0.00079546519555 -0.00030684092781 -5.4981308494e-05 
-0.00014260763419 -0.00051999744028 -0.0010616193758 -0.0014213572722 -0.0012388060568 -0.00012918427819 -0.0011007076828 -0.0016467886744 -0.0018772330368 
-0.0018785654102 -0.0016765730688 -0.0013025468215 -0.00038750376552 0.00078718748409 0.0020590170752 0.0033919757698 0.0047417823225 0.0058097443543 
0.0062201870605 0.006086345762 0.0045672105625 0.0021753243636 -0.00081873760791 -0.0033224790823 0.00034179675276 -0.00025025047944 -0.00062122131931 
-0.00086225924315 -0.0021537540015 -0.0040238182992 -0.005032973364 -0.0050408979878 -0.0038536202628 -0.0021375555079 -0.00051257980522 0.0043993806466 
0.0044321860187 0.0036002646666 0.0025779451244 0.0023324000649 0.0027162567712 0.0028679193929 0.0023168495391 0.0011866601417 -0.00031180030783 
-0.0011513483478 -0.0013499081833 -0.0011291335104 -0.00066957616946 -0.0003301196557 0.00014808312699 0.00037333671935 0.00039804191329 0.00022838835139 
-0.00033291059663 -0.0013849784154 -0.002757290611 -0.0042880666442 -0.0053892577998 -0.0059781507589 -0.0057867662981 -0.0052443826571 -0.0044338731095 
-0.0032410754357 -0.0013240016997 0.00062556087505 0.0023661802988 0.0039298133925 0.0053921802901 0.0055258050561 0.0045850649476 0.0034331001807 
0.0022408785298 0.0014433648903 0.00086997263134 -3.1150117138e-05 -0.00068005727371 -0.00079439661931 -0.00020254698757 0.00076115608681 0.0017883749679 
0.002500907518 0.0026027369313 0.0017123036087 0.00049972010311 -0.00020346032397 -0.0014487268636 0.0028914371505 0.00042129211943 0.00031663072878 
0.00048410883755 -0.00026245362824 -0.001042750082 -0.0015063278843 -0.001704904018 -0.0016720601125 -0.0014915233478 -0.0011646577623 -0.00056828785455 
0.0002940238046 0.001426576986 0.0024708474521 0.0036228387617 0.0044019841589 0.0042200498283 0.0028740616981 0.001492696465 -0.00075316068251 
-0.0043569914997 -0.00044852917199 0.00097709684633 0.0019094020827 0.0023045230191 0.0021108833607 0.0010766686173 -0.00046412655502 -0.0015164932702 
-0.0012476568809 -0.00041766889626 8.9593791927e-05 0.00020517209487 9.1627094662e-05 0.00018362197443 0.0002997131669 8.7591834017e-05 -0.00019770397921 
-0.00034885469358 -0.00064310629386 -0.00091074977536 -0.00085753417807 -0.00072651414666 -0.00033536049887 -4.3206273403e-05 -0.0016852694098 -0.0026762753259 
0.0046164444648 0.0042459452525 -0.0024080222938 -0.003744347021 -0.0043144240044 -0.0036626162473 -0.002337143058 -0.0010366537608 -0.00031039939495 
-5.6653090724e-05 0.00054148258641 0.002017413266 0.0031188777648 0.0032199751586 0.0029160019476 0.0025603596587 0.0022081946954 0.0025490128901 
0.0032836324535 0.0027352918405 0.0014200618025 -0.00016679233522 -0.0013785250485 -0.0014304809738 -0.00085474940715 -0.00023421720834 8.9634224423e-05 
0.00047547151917 0.00069342635106 0.0007946867845 0.00075204571476 0.00036076005199 -0.00045875529759 -0.0016065362142 -0.0030987788923 -0.0045173862018 
-0.0052375835367 -0.0053766979836 -0.0052535748109 -0.0048341453075 -0.0037882595789 -0.0019103307277 0.00051522336435 0.0029960020911 0.0048092468642 
0.0056251990609 0.0051994184032 0.0037889929954 0.0023500553798 0.0013086936669 0.00083188927965 0.00041959216469 -0.00040824056487 -0.00061552529223 
-0.00033574755071 0.00032163292053 0.0012171585113 0.0021020548884 0.0022451225668 0.0019318717532 0.0012818421237 0.00095045217313 0.00097293325234 
0.00023174044327 -0.00097032764461 -0.0017667777138 -0.002264861716 -0.0024488891941 -0.0018951621605 0.0011249987874 0.0012847457547 0.0013259907719 
0.0018788294401 0.0014570930507 0.00099173432682 0.00058177910978 -0.00024964736076 -0.00090009410633 -0.0012537688017 -0.0010648343014 -0.00013796141138 
0.00021362520056 -0.00010277735419 -0.00050694536185 -0.00088057026733 -0.0010456104064 -0.0010555638 -0.00098103249911 -0.00084470346337 -0.00072334002471 
-0.00042772083543 0.00035228219349 0.0012652208097 0.0022647089791 0.0033519337885 0.0040080607869 0.0043282140978 0.0042860168032 0.0040952493437 
0.0038120036479 0.0030106005725 0.001879649004 0.0012150378898 -0.00044734525727 -0.0028040325269 -0.0038405132946 -0.0038054997567 -0.0034605916589 
-0.0030121866148 -0.0024929167703 -0.0018689282006 -0.00075106852455 0.00018874126545 0.00075480859959 0.00090713298414 0.00059625686845 -0.00037724000867 
-0.0017217190471 -0.0019435385475 -0.00099810247775 0.00021103105973 0.0015105621424 0.0012838323601 0.00072203500895 0.00032616502722 0.00016229625908 
0.00017172937805 0.00041387570673 0.00040526100202 0.00030011509079 -0.00017525431758 -0.00046938212472 -2.7763326216e-05 0.00031860990566 -0.00033121494926 
-0.00028808566276 0.001595748472 0.001244486426 -0.00039803201798 -0.00010320426372 -6.1591163103e-05 0.00035455694888 0.00077981728828 0.0013982591918 
0.0022454143036 0.0025668384042 0.0024672006257 0.0022753891535 0.0026632673107 0.003198328428 0.0027071991935 0.0010037281318 -0.00072435371112 
-0.0014048641315 -0.001611854881 -0.0010504326783 -0.00018809396715 0.00049151980784 0.00088289438281 0.001075891545 0.0010967178969 0.0011413414031 
0.00085120735457 0.00026603983133 -0.000787642668 -0.0019910200499 -0.0045687784441 -0.0048750056885 -0.0051106628962 -0.0048231803812 -0.0037191405427 
-0.0018374607898 0.00065674900543 0.003310119966 0.0053621134721 0.0055072265677 0.0043668430299 0.0027581662871 0.0015362654813 0.00081438198686 
0.00053750153165 0.00035545561695 0.00031027305522 0.00026845885441 0.00011551957869 -3.222463647e-06 -0.00023756745213 -0.00032081565587 -0.00015797787637 
9.4061615528e-05 0.00065465492662 0.0013173137559 -0.0038095186464 -0.0026856944896 -0.00051419116789 -3.2231102978e-06 0.00034353788942 0.00014774790907 
6.1945407651e-05 4.3857231503e-05 0.00032794720028 0.00095860287547 0.0017280547181 0.0020773864817 0.0019824856427 0.0018619543407 0.0022562767845 
0.0018618793692 0.00079908192856 -0.00023717929434 -0.001363117015 -0.0020128295291 -0.0017926724395 -0.0010836306028 -0.00028536518221 0.00047513688332 
0.0010346063646 0.001160285552 0.0012480496662 0.0013098903 0.0011384504614 0.00060884165578 -0.00010810870299 -0.00096247519832 -0.0014894168125 
-0.0015514664119 -0.0025374065153 -0.0033410594333 -0.004008713644 -0.0044406661764 -0.0044961897656 -0.0039747827686 -0.0028109804261 -0.0010396697326 
0.0013461228227 0.0037105001975 0.0050236862153 0.0048997374251 0.0035315882415 0.0021285151597 0.0012758163502 0.0007908178959 0.00045474065701 
0.00037253223127 0.00038825618685 0.00037497541052 0.00016600145318 1.2976842299e-05 0.00019050786796 -4.0505798097e-05 -0.00015838450054 -4.0365735913e-05 
-0.00036251262645 0.00046163360821 0.0011462590192 -0.0003177652834 -0.00045549680362 -0.00052028149366 -0.00047420625924 -0.00034472081461 -0.00014540192205 
-3.6477609683e-05 -0.00015793008788 -0.00017910804308 0.00026065442944 0.00099881528877 0.0021527684294 0.0035761210602 0.0045185233466 0.0047009275295 
0.0044699893333 0.0038864815142 0.0037508481182 0.003541168524 0.0031071822159 0.0024978208821 0.0016921248753 0.0011776468018 5.4355400607e-06 
-0.0013375908602 -0.0023945248686 -0.0030931828078 -0.0031553423032 -0.002857117448 -0.0025620847009 -0.0020404395182 -0.0012752223993 -0.00053684401792 
-0.00037049365346 -0.00075588433538 -0.0014519342221 -0.0025746973697 -0.0033131141681 -0.0025013973936 -0.00096900825156 0.00022916321177 0.00083511148114 
0.0011312277056 0.0016708353069 0.0027409342583 0.0030031742062 0.0023265588097 0.0013799986336 0.00045480852714 0.00043338775868 0.00079174683196 
0.0013564646943 0.0020564456936 0.0017006774433 0.00097540236311 0.00065446400549 0.00092611997388 0.00089940341422 0.00033280235948 0.00010671807831 
-0.0002316479513 -0.00037722144043 0.00023135135416 0.00066251977114 0.0012185326777 0.0012506225612 0.0011182582239 0.00092584075173 0.00079259765334 
0.00019710870401 -0.00077911501285 -0.0016384015325 -0.0020879001822 -0.002078583464 -0.0013160763774 -0.00019009056268 0.0003344452125 0.00077910954133 
0.00092371070059 0.00096957187634 0.00097799918149 0.00086381461006 0.00061545753852 0.00014344973897 -0.00017420729273 -0.00062523630913 -0.00058010488283 
-0.00042402252438 -0.0010941367364 -0.0020626722835 -0.0026753700804 -0.0031586936675 -0.0033951026853 -0.0032552902121 -0.0026277436409 -0.0014137871331 
0.00027213475551 0.0018573091365 0.0029969874304 0.0038219629787 0.0028767636977 0.0018481786828 0.0011472688057 0.00073027791223 0.00049106206279 
-0.0014291229891 -0.0022821465973 0.00052114599384 0.00066715892171 0.00040772851207 0.00013043844956 0.0001711074583 8.0788879131e-05 -0.00037985036033 
-0.00030272372533 -0.00017633341486 2.3091384719e-05 0.00028585249675 0.00056026427774 0.00069485115819 0.0005432216567 0.00023322056222 5.0775190175e-05 
0.00055005174363 0.0019520949572 0.003525773529 0.0046072872356 0.003828545101 0.0021608062088 0.0029276204295 0.0030135761481 0.002897427883 
0.0024552398827 0.0021040027495 0.0016130880686 0.00096056575421 0.00013731444778 -0.00092874694383 -0.0018836557865 -0.0025197553914 -0.0026197456755 
-0.0024637214374 -0.002395257121 -0.0022539338097 -0.0019492805004 -0.0014456276549 -0.0016731561627 -0.0020238999277 -0.002906347625 -0.0041349176317 
-0.0046441778541 -0.0033240544144 -0.0016627010191 -0.00045457549277 0.00036039412953 0.00076866667951 0.00082881638082 0.0013776062988 0.002045846777 
0.0029423758388 0.0040931282565 0.0036820992827 0.0022191186436 0.0010472788708 0.00091015786165 0.0017453205073 0.0023851159494 0.0025356966071 
0.0022268989123 0.0016008740058 0.0010946713155 0.0010976974154 0.00074365001637 0.00035410889541 -0.00046320864931 -0.00019576672639 0.00052624428645 
0.001004994032 0.0013156676432 0.0019979306962 0.0024400942493 0.0021577971056 0.0025038800668 0.0022987578996 0.00182055193 0.00076028594049 
-0.0003267491702 -0.00022406567587 -0.00056057842448 4.4182190322e-05 0.00059386360226 0.00065349368379 0.00059571105521 0.00037428466021 0.00026746749063 
-0.00010387127259 0.00018703316164 0.00048181880265 0.00077020557364 0.0010124974651 0.0011365029495 0.0010122098029 0.00055159913609 6.604968803e-05 
0.0005016226205 0.0016147056594 0.0030354254413 0.0035454616882 -0.0001573421323 0.00061714957701 0.001498661004 0.0020679177251 0.0022363765165 
0.0019878933672 0.0015632556751 0.0011817234335 0.00083734223153 0.00019932894793 -0.00041658565169 -0.0017761897761 -0.0018153216224 -0.0018605953082 
-0.0019755961839 -0.0021891174838 -0.0023241778836 -0.0021210096311 -0.0020449750591 -0.0025365557522 -0.0045964089222 -0.0048075998202 -0.0038387086242 
-0.0023113309871 -0.001100931433 -0.0001381127513 0.00044253218221 0.00057379179634 0.00072142796125 -0.0036261796486 -0.001247585169 -0.00089902960462 
0.0035350227263 0.0038216921967 -0.00015551284014 -0.00038381753257 -3.7946272641e-05 0.00013626090367 0.00089279649546 0.001683810493 0.0023960932158 
0.0029211025685 0.00066115346272 0.00067366758594 0.00039655092405 1.1380006072e-05 -0.00030505325412 -0.00057888630545 -0.0013417957816 -0.0021850361954 
-0.0027736204211 -0.0026820832863 -0.0025127772242 -0.001865608152 -0.0017567030154 -0.0022039895412 -0.0024711315054 -0.0016311056679 -0.00057438219665 
0.000192698295 0.00041385026998 0.00035623446456 0.00034719399991 0.00039697534521 0.00045126417535 0.00037229250302 0.00020729118842 3.0167038858e-05 
-0.00017843612295 -0.00015923105821 5.074371802e-05 0.00010666430171 -0.000604959263 -0.0013435484143 -0.0019876922015 -0.0021508696955 -0.001853454276 
-0.0016344749602 -0.001029362902 0.0023707363289 0.00029532593908 0.00036815062049 0.00089982902864 0.00099994626362 0.0014120023698 0.0021476177499 
0.0026831263676 0.0037958165631 0.0046170577407 0.0034698145464 0.0017840351211 0.00140313257 0.002162391087 -7.4359115388e-05 0.00085362262325 
0.0017551294295 0.0025068500545 0.0027814952191 0.0025251801126 0.0018993078265 0.0029131795745 0.00263066357 0.0020671396051 0.0015902981395 
0.00105976942 0.00075657205889 0.0022158499341 0.0018987643998 0.00097833306063 0.001047368627 0.00072911113966 0.00030187421362 -0.00033181076287 
-0.00036840257235 0.00017599607236 0.00042974346434 0.0018026874168 0.00097031774931 0.0026844660752 0.0033464089502 0.0028140896466 0.0021462040022 
0.00098917912692 0.0006175483577 0.00066112121567 -0.0021833786741 -0.0022689958569 -0.0025667746086 -0.0019333482487 -0.0010546059348 -0.00041984696873 
-0.00026049578446 -0.0003176893515 -0.00014702399494 0.00012685927504 0.00026097951923 0.00025548809208 0.00034403946484 -9.8926648207e-06 -0.00059699453413 
-0.0013937340118 -0.00057113700313 0.00036542737507 -0.00029861554503 -0.0010916548781 -0.0015837346436 -0.0019268598408 -0.0023460425436 -0.0029943103436 
-0.0032801057678 -0.0035656890832 0.00028740154812 -0.004217684269 -0.0042431224138 -0.0035674688406 -0.0024717573542 -0.0014958867105 -0.00057466194266 
0.00010124665278 0.00039677927271 0.0010069091804 0.0019796560518 0.0016459010076 0.0014044415439 0.0012271592859 0.0014701908221 0.0016665541334 
0.0012559229508 0.0004891603603 0.00014864628611 -0.00019302060537 -0.00033438173705 -8.1965583377e-05 -0.00020202546148 -0.00058539531892 -0.00097053911304 
-0.0010262648575 -0.0011385502294 -0.00147885771 0.0018687376287 0.0020778866019 0.002203903161 0.0018011527136 0.00071623898111 -0.00057486543665 
8.868175064e-05 0.00050612783525 0.0004018456093 0.0014295745641 -0.0020082462579 0.00085032935021 0.0013247038005 0.0010875224834 0.0012881522998 
-0.0024628059473 0.001377030625 0.0020236957353 0.0028479110915 0.0029034435283 0.0033962167799 0.0032765155192 0.0013553476892 0.00096443737857 
0.0014364308445 0.0014680563472 6.8153996835e-05 -0.00065755657852 0.0011763306102 0.00010052663856 0.00010727479821 -4.1133363993e-05 6.9038258516e-05 
-0.0015559218591 -0.0022800143342 -0.0030069076456 -0.0033711229917 -0.0034094019793 -0.0049047800712 -0.0041038068011 -0.0033009720501 -0.0029414966702 
-0.0022695278749 -0.0018259563949 -0.0011733643478 -0.00072804454248 -0.0010654116049 0.00478946371 0.0011465279385 -0.00033763921238 -0.00033534911927 
-0.00040507904487 -0.00076909066411 -0.00054833508329 -0.00022826610075 0.00058188644471 0.00056262518046 0.0004032884317 0.00023771601263 0.0001975952182 
0.00015796966909 0.0015428331681 0.0014751667622 -0.0022537684999 -0.0021880771965 0.00037985653034 0.00054721179185 0.00075982837006 0.00055864680326 
0.00024209720141 0.00030048197368 
Stress_YZ 1 1064 double
0.0040669357404 0.0059144375846 0.00096376129659 0.0033360151574 0.0023087291047 0.002950445516 0.0057002487592 0.0050343964249 0.0040072058327 
0.0030734182801 0.0025426812936 0.0019044326618 0.0017472994514 0.0018320247764 0.0015919411089 0.001239020261 0.00091052567586 0.00097389315488 
0.00071453454439 0.0012485893676 0.00112217688 -1.6061017959e-05 -0.0011494383216 -0.0015031746589 -0.0013099084608 -0.00068493996514 -0.0011267095106 
-0.0024408735335 -0.0035675235558 -0.0041694212705 -0.0040865307674 -0.0031815785915 -0.0023094869684 -0.0018567388179 -0.001595679787 -0.0019655511715 
-0.0028328932822 -0.0033033266664 -0.0027192453854 -0.00072427460691 0.0018956583226 0.0033882781863 0.00074821762973 0.0014482460683 0.0016641897382 
0.0014457685174 0.0018318694783 0.0026665367186 0.0031998539343 0.0036244669463 0.0037993977312 0.0038211965002 0.004455904942 0.0044118543155 
0.0045350445434 0.0046118516475 0.0050562149845 0.0040099890903 0.0024164246861 0.0012488642242 0.00023907805735 -0.0010833502747 -0.0020750334952 
-0.0029014335014 -0.0032660395373 -0.0041237687692 -0.0053305332549 -0.0057230675593 -0.0040520415641 -0.0020183364395 -0.00030320417136 0.00025116605684 
0.00031766889151 0.00062313355738 0.0014511931222 0.0027574929409 0.0020128330216 0.00184409949 0.00091986375628 0.0012604929507 0.00035156059312 
0.0024731024168 0.0023217578419 0.00078241800657 -0.00071145338006 -0.0021852643695 -0.0034087779932 -0.0028874045238 -0.003130420344 -0.0044450098649 
-0.0049373549409 -0.0042341467924 -0.0029771022964 -0.0028375517577 -0.0017271290999 -0.00057404791005 -0.00018364876451 -0.00020127231255 -0.00030199953471 
0.00023777695606 0.0034421035089 0.0047028050758 0.0052694785409 0.0060032987967 0.0066721686162 0.0064138700254 0.00421511475 0.0030948924832 
0.0022373923566 0.001090982696 -6.3483734266e-05 -0.00066403631354 -0.00081730913371 -0.00092198955826 -0.00080900994362 -0.00062838563463 -0.0006849016645 
-0.00062455428997 3.4773089283e-05 0.00055798055837 0.00074696348747 0.0006505093188 -7.5212003139e-05 -0.0016619106755 -0.0027199967299 -0.0026993907522 
-0.0026447866112 -0.0028393659741 -0.0030005162116 -0.0024682108779 -0.001090537291 4.118992365e-06 0.00080190389417 0.0012778780656 0.0012121476466 
0.00057159352582 9.6000951544e-07 -0.0002711705165 -5.2773561038e-05 0.00032517136424 -0.00031422378379 0.00014733718126 0.00027420412516 0.00033360213274 
0.00030578795122 0.00069776369492 0.0018153241836 0.0031474928837 0.0039042653516 0.0042689428665 0.0042736730538 0.0041095372289 0.0045670708641 
0.0044507170096 0.0043526594527 0.0044708414935 0.0045515252277 0.0041473363526 0.0025616378989 -5.612737732e-05 -0.003098145593 -0.0051504354924 
-0.0056519182399 -0.0048802648671 -0.003835228039 -0.0021084479522 -0.00048471233458 0.0012506532948 0.0011916294461 0.00025001470931 -0.00053331011441 
-0.0012616625754 -0.0019119239878 -0.0015588396927 0.00077214487828 0.0030260062777 0.0032745699864 0.0027747664135 0.0029366537929 0.0035744574852 
0.0035573646892 0.002135199029 0.000182026939 -0.0016269055195 -0.002718052594 -0.0039203190245 -0.0047185854055 -0.0050004795194 -0.0045074927621 
-0.0036790654995 -0.0030590232927 -0.0024423445575 -0.0015809702454 -0.00030490357312 0.00042582894093 0.00068421289325 0.00067596742883 0.00029170574271 
0.00020091202168 -0.0023808761034 -0.00279567088 0.0061938683502 0.0057063368149 0.0051326714456 0.0042972234078 0.0030177866574 0.0020509890746 
0.00089121743804 -0.00019415511633 -0.00081989262253 -0.0011279123137 -0.00081685185432 -0.0003325487196 5.6055241657e-06 -2.5215658752e-06 -4.2407456931e-05 
0.00019793130923 0.00083383027231 0.0013736097608 0.0012715919875 6.9115121732e-05 -0.0013530736323 -0.0015798327513 -0.001757285092 -0.0019280668348 
-0.0019247853197 -0.001592587796 -0.00082341930829 8.257610898e-05 0.00066528114257 0.00092273409246 0.00077287678141 0.00038461669465 2.9783672289e-05 
-0.00043145511881 -0.0010292395018 -0.0016120882938 -0.00070904160384 0.0011973291403 0.0031020941678 -0.00088886590675 -0.00015546783106 -0.00096719030989 
-0.0010493907612 0.000159932315 0.00038987622247 -0.00010542364907 -0.0002896237711 -0.00060445669806 -0.0010754105169 -0.0014924636343 0.00019972711743 
0.001928601414 0.0028982381336 0.0029141602572 0.0030589369126 0.002979431767 0.0026336135343 0.0021455714013 0.0010540225776 -0.00043300466496 
-0.0022396859713 -0.0039539970458 -0.0049911881797 -0.0045382478274 -0.0040619750507 -0.0036335019395 -0.0031368709169 -0.0025546930265 -0.0017645230982 
-0.00074730132474 0.00023946272267 0.00081801938359 0.00093763892073 0.00050971424207 0.00011897143122 -0.00025854408159 -0.00043745274888 -0.00039890679182 
-0.00013213219063 0.00053904321976 0.0017015312333 0.0026988461614 0.0035472372547 0.0043521937914 0.0047276732512 0.0046769962646 0.0043142945506 
0.0037498464808 0.0033591033425 0.0033849156462 0.0029937718064 0.0014195938129 -0.00052916927962 -0.0027095484547 -0.0049756933004 -0.0059022437781 
-0.0055153327994 -0.0044871335849 -0.0030055497773 -0.0011131039355 -1.8043197997e-05 0.00064936612034 -0.0012191281421 -0.0019818702713 0.001208796748 
0.00012840250565 -0.00044803341734 -0.00054985075258 -0.00060778460465 -0.00074540323112 -0.00089775864035 -0.00097855273634 -0.00076023017755 -0.00032885422115 
-1.7261463654e-05 0.00011136863759 -2.2009699023e-05 -0.00054891308537 -0.001092450344 -0.0019260115223 -0.0016885962104 0.00013952901645 0.0015693804016 
0.0036681806669 0.0046015148982 0.0042206686921 0.0038352371193 0.0033454657532 0.0026897815987 0.0017195686232 0.00067780935206 -0.00017696600116 
-0.00076936295955 -0.00097936810926 -0.00055746710859 7.531808933e-06 0.00027058497653 0.00021947269852 0.0002228039375 0.00044958342914 0.00092200079234 
0.0014580627903 0.001240240992 0.00079397170339 0.00090359913884 0.0028457653243 0.003185227979 0.0017881585518 0.0050550275482 0.0048983842134 
-0.0013729848433 -0.001405803836 -9.5863484603e-05 -0.00067569123348 -0.00080767006148 -0.00076604203787 -0.00095734343631 -0.0013420748292 -0.001473338576 
-0.0013930038549 -0.0019468219252 -0.001367709483 -0.00013503966329 0.0011302732164 0.0020196163096 0.0026094280183 0.0027875406668 0.0029203097802 
0.0035384057555 0.003128756769 0.002361691324 0.00088281079661 -0.0014247716172 -0.0032743967604 -0.0038905516267 -0.0040430552326 -0.0041343001649 
-0.0036612567492 -0.0033742447849 -0.0029907887802 -0.0021308078431 -0.0010449853726 1.0383367226e-05 0.00081256323028 0.0010837627342 0.00059525301913 
0.00011156104301 -0.00018278775678 -0.00039869701141 -0.00050559866941 -0.00027550771483 0.0002604603942 0.0012084367918 0.0023907239083 0.0034357155673 
0.0041123959236 0.0044853468426 0.0043189227581 0.0035805017687 0.0028119229246 0.0024402069394 0.0022988687269 0.00059175700881 -0.0012838323601 
-0.0029703488108 -0.0042265802622 -0.0050387606025 -0.0049216602929 -0.0039519625716 -0.0022792476229 -0.0009074100526 -6.9743553468e-05 6.0345675593e-05 
0.00011735716544 -0.00014635680418 -0.001029059873 -0.0011111170752 -0.00083484203788 -0.00063859141665 -0.00050071487203 0.00023966851586 0.00064068881329 
0.00069389556302 0.00025504198857 0.00011638824799 -0.00011223130423 -0.00059540406801 -0.00064748286968 -0.0003742534318 -0.00040001762682 0.001714852755 
0.0018084476469 0.00083825789625 0.00022090687708 2.5192774046e-05 1.8778186131e-05 -8.791124128e-05 -0.00037988222903 -0.00077215064084 -0.0011661708122 
-0.001303033554 -0.0011985837482 -0.0012526797364 -0.001495298231 -0.0018674087478 -0.0021591668483 -0.0022246555891 -0.0022413283587 -0.0020164835732 
-0.0019312138902 -0.0017127180472 -0.0004732774978 0.0013828544179 0.0023206830956 0.0032377170864 0.0045122383162 0.0047782785259 0.004508825019 
0.004355056677 0.0042649172246 0.0041709975339 0.0038941879757 0.0031413084362 0.0024159292225 0.0020007907879 0.0015503505711 0.00095143774524 
0.000402770238 0.00015458965208 -6.4185980591e-05 -0.00023874767066 0.00039284056402 0.00053208315512 0.00045013800263 0.00051045930013 0.00072930607712 
0.0010740072466 0.0013768761419 0.0012702423846 0.0008072576602 0.0017781128408 0.0036589412484 0.0039901942946 0.0036567195784 0.0026105358265 
0.0015420011478 3.1379262509e-05 -6.8350636866e-05 -0.00079964456381 -0.00052968063392 -0.0010490028653 -0.0011981768766 -0.00088736886391 -0.00019020005129 
0.00072556751547 0.0016027105739 0.0022726345342 0.0026156916283 0.0026871028822 0.0031718185637 0.0033851526678 0.0027783834375 0.0017457277281 
-0.00039827014552 -0.0021830934566 -0.0029327233788 -0.0031658106018 -0.0034763256554 -0.0037042284384 -0.0035300485324 -0.0030270027928 -0.0022798094433 
-0.0013066728134 -0.00034473501728 0.00050035200547 0.0010053896112 0.00029741585604 0.00010210812616 -1.0446155102e-05 -0.00020573264919 -0.00016826034698 
0.00024034055241 0.0012330157915 0.002555033192 0.0033848136663 0.0035492458846 0.0033504012972 0.0031750758644 0.0027674585581 0.0023159645498 
0.0019309745403 0.0017245308263 0.0015510852681 0.0013424805366 0.0012195369927 0.00065770593937 -0.00021417667449 -0.0013316972181 -0.0029027767014 
-0.0037294626236 -0.0037419016007 -0.00351434201 0.00065218418604 0.00092623522505 -0.00032496030326 -4.6763008868e-05 0.00039857320371 -0.00011321170314 
-0.00056908110855 -0.00076585891657 -0.00043061445467 0.00010258682596 0.00077823142055 0.0015108474763 0.0021055920515 0.002437988529 0.0026814283337 
0.0022951639257 0.0020566007588 0.0018913886743 0.0014306529192 0.00035549269523 -0.00099948013667 -0.0019223911222 -0.0026174818631 -0.0029918763321 
-0.00313439616 -0.002793856198 -0.0026270640083 -0.0021518764552 -0.0013742155861 -0.00046062591719 0.00029596572858 0.00080061494373 0.00075872131856 
0.00036840164103 0.00039963712334 0.00043327847379 0.00036141980672 0.00027326337295 8.4938998043e-05 -0.00025205558632 -0.00039164317423 6.5628519224e-05 
0.0012439655839 0.0021379461978 0.0022944353987 0.0022162946407 0.0018037855625 0.0019210685277 0.002090920927 0.0020333623979 0.001736961538 
0.0015806386946 0.0014596089022 0.0012068888173 0.0010222966084 0.00069436547346 5.9390556999e-05 -0.00056072801817 -0.0013197012013 -0.0023028310388 
-0.0025249775499 -0.0018164718058 -0.0017021039966 0.00086644798284 0.00034220929956 2.2292644644e-05 -5.9034500737e-05 -0.00011637611897 -0.00029730435926 
-0.00069748808164 -0.0012804864673 -0.0018487313064 -0.0022820106242 -0.002554578241 -0.0027454916853 -0.0029086910654 -0.0030790320598 -0.0029618500266 
-0.0027600820176 -0.0025373350363 -0.0022414524574 -0.0020295709837 -0.001830517198 -0.0011695997091 0.00020330214466 0.0016453597927 0.002138099866 
0.0025282369461 0.0031907772645 0.0035958553199 0.0036688537803 0.0036550757941 0.0038738953881 0.0040432009846 0.0035514228512 0.0026296176948 
0.0013240746921 1.7021662643e-05 -0.0007520954241 -0.00084793620044 -0.00036918689148 0.00023654491815 0.00055417016847 0.00050813239068 0.00049947126536 
0.00069016625639 0.0002046013833 0.0001528707362 0.00053278543055 0.00076511205407 0.00089661084348 0.0010978851933 0.0015063100727 0.001446825685 
0.0013249230105 0.0010928452248 0.00066069985041 0.0017835558392 0.0030206597876 0.0034406355117 0.0031644490082 0.0024941314477 0.003277738113 
0.0021517714486 0.0012792008929 -0.00022886053193 0.00026802439243 0.00084734376287 0.0013391589746 0.0018444237066 0.0019217393128 0.0016360989539 
0.0014303468633 0.0011119609699 0.0006026258925 0.00070898298873 6.6290100222e-05 -0.00087703863392 -0.0018730571028 -0.002212457126 -0.0019571003504 
-0.0019317088882 -0.0018985342467 -0.0014995206147 -0.00084024429088 -0.00030221918132 0.00017498653324 0.00019520209753 0.00030347917345 0.00021623415523 
0.00010092627053 0.0001268901251 0.00021454805392 0.00027894441155 0.00024077959824 9.8601347418e-05 -0.00022777175764 -0.00069586239988 -0.0008520532283 
-0.00051420618547 9.6296942502e-05 0.00098953209817 0.0012037068373 0.0011508107418 0.0012469600188 0.0014572896762 0.0016215338837 0.0015806334559 
0.0010476922616 0.00052591483109 0.0011775910389 0.00070613244316 0.00082972081145 0.00082851713523 0.00037398617133 -2.5244811695e-05 0.00057893502526 
-2.2871616238e-05 -0.00045613778639 -0.00052246858831 -0.00043642916717 -0.00045045526349 -0.00068498606561 -0.0011941828998 -0.0020344548393 -0.0032090507448 
-0.0038403025828 -0.0038602454588 -0.0037970624398 -0.0035464831162 -0.0031118246261 -0.002264225157 -0.0022156909108 -0.002018624451 -0.0017550277989 
-0.0013703235891 -0.00083253422054 3.0038418117e-05 0.00085210817633 0.0010765753686 0.0013963785022 0.0020713289268 0.0024770109449 0.0027452160139 
0.0030830046162 0.0035841772333 0.0040161400102 0.0035726116039 0.0024059393909 0.00073874474037 -0.0010134028271 -0.0021277749911 -0.0020973202772 
-0.0012144197244 -2.2507278118e-05 0.00067080493318 0.00091091502691 0.0010377952131 0.0011225681519 0.0012104975758 0.00083069800166 0.0005969092017 
0.00043518425082 0.00064125045901 0.0013702820288 0.0018212278374 0.00188457279 0.0017831842415 0.0012615952874 0.00096849654801 0.00074594293255 
0.00068902201019 0.0012730741873 0.0018292848254 0.0016266443999 0.0018559208838 0.0015112458495 0.0013043584768 0.002359097125 -0.00058333011111 
0.00027802030672 0.0010255138623 0.0008106562309 0.00031640354428 0.00023347001115 0.00021769385785 0.00011613171228 -2.630941708e-05 0.00016898622562 
0.00015215325402 -1.4582889889e-05 -8.8810098532e-05 0.00032026250847 0.00085664220387 0.0013435758883 0.00093070307048 0.00037236421485 -2.2521422579e-05 
-0.0004768986546 -0.00079712382285 -0.00075553456554 -0.00058382912539 -0.00051094370428 -0.00063023727853 -0.0010094105965 -0.0018358207308 -0.0032104188576 
-0.0044351187535 -0.0039815823548 -0.0039316569455 -0.0032784624491 -0.0013431865955 -0.0014327025274 -0.0016134134494 -0.0016305138124 -0.0014641924063 
-0.0010123900138 -0.00053092470625 -0.00016069966659 0.00012820395932 0.00030772163882 0.00059755437542 0.0013616561191 0.0018262648955 0.0023645064794 
0.0032487856224 0.003915455658 0.0038079852238 0.0023786844686 0.00058210914722 -0.00073464046 -0.0024051633663 -0.0015346541768 -0.00039265700616 
0.00049646623665 0.00097218761221 0.001165221096 0.0013693863293 0.0014682408655 0.0015027510235 -0.0020034294575 0.00097399414517 0.00055485655321 
0.00026303326013 -4.0034297854e-05 -0.0010864100186 -0.0015287254937 -0.00062487414107 -0.00059905881062 0.00014626569464 0.00049298768863 0.00036905100569 
0.00045323066297 0.00039704382652 0.00066987134051 0.0012146631489 0.0014447876019 0.0014445629204 0.001109750825 0.00052642013179 -0.00017704737547 
-0.00060833996395 -0.00073169445386 0.00016321266594 0.00070135341957 0.0012797865784 0.001389994286 0.0011451356113 0.00016679537657 -0.00051413371693 
-0.00071594159817 -0.0010419612518 -0.0013482439099 -0.0011639692821 -0.00080019840971 -0.00046588521218 -0.00014751167328 7.2025155532e-05 0.00013600244711 
0.00016465320368 0.00016864600184 9.6712174127e-05 -5.5920125305e-05 -4.6484921768e-05 6.3188308559e-06 5.236495781e-05 -5.6047883845e-05 -0.00033439893741 
-0.00073244154919 -0.0011234288104 0.00066466868157 0.0006089428789 0.001196677913 0.0013301307335 0.0013862190535 0.0010242620483 0.00081871094881 
0.00094044202706 0.001372972969 0.0019701796118 0.0024945496116 0.0016327493358 0.0010762969032 0.00070294254692 -0.0015111642424 -0.0017637712881 
-0.0016378532164 -0.0013166678837 -0.00069124455331 -0.0012620508205 -0.00176414405 -0.00045456894441 -7.2464921686e-05 0.00040514639113 0.00071227073204 
0.0008925073198 0.0011028024601 0.00077920494368 0.00025347838528 0.00053962465608 1.4142119653e-05 0.00022639769304 0.00050206395099 -6.5397420258e-05 
0.00015420884301 0.00045338572818 0.00043859059224 0.0004016830062 0.00035806716187 0.0005975504173 0.00071832002141 0.0010895004962 0.00089648127323 
0.00095672230236 0.001353995176 0.00084316142602 0.001029557432 0.002229409758 0.002523957286 0.0020345028024 0.0012227447005 0.00036698317854 
-0.00060078670504 -0.00081508856965 -0.00075592787471 -0.00059148186119 -0.00034081778722 -5.6795677665e-05 0.00010948431736 -0.00045292681898 -0.0003933145781 
-0.00026813824661 -0.0007735027466 0.00096411403501 0.0012903223978 0.0012323632836 0.0010539208306 0.00065123219974 -8.9171582658e-05 -0.00090213795193 
-0.0014560158597 -0.0017058303347 -0.00097214430571 -0.0020730113611 -0.0013959276257 -0.00037038468872 0.00050961656962 0.00096215942176 0.0012084225891 
0.0014037868241 0.0014562518336 -0.0010804980993 -0.00069789105328 -0.00041171879275 8.2392416516e-06 0.00032141254633 -0.0010139587102 -0.00084385054652 
-0.00047078673379 -1.6219422605e-06 9.5752555353e-05 0.00027693685843 0.00016931981372 -0.00020958832465 -0.00025341860601 -7.7969700214e-05 0.00019002870249 
0.00062963837991 0.0014414036414 0.0026093169581 -0.0028957943432 -0.0031103864312 -0.0035092271864 -0.0025631883182 -0.0034261916298 0.0021558967419 
-9.8677031929e-05 -0.00042573115206 -0.0023922591936 -0.0011618026765 0.0034406906925 -0.00046167179244 -0.0002048156166 -0.00043916300638 -0.00038496177876 
0.0035791327246 -0.00047296503908 0.0012903029565 0.0010829063831 0.0015292940661 0.002105232561 0.0019248512108 -0.00075339473551 -0.001389514422 
-0.00099660514388 0.00097395747434 0.0014361281646 0.0012898003915 -0.0003820648999 0.00025000947062 0.00014091726916 0.0001211281924 4.665509914e-05 
0.0011112624779 0.00073582003824 -1.7505471988e-05 -0.00081759266322 -0.0014424553374 0.0057442821562 0.0057278978638 0.005447531119 0.0052463337779 
0.0059706787579 0.0058947387151 -0.00080920406617 -0.00087291456293 -0.00057453365298 -0.0031662301626 -0.0020497548394 0.0014679166488 0.00027943198802 
0.00069068663288 0.0015330936294 0.0011376560433 0.00084568437887 -0.00041628198233 -6.5670326876e-05 0.00014236723655 0.00028723009746 0.00018647059915 
0.00019261366106 -0.0004250559723 -0.0001420116605 0.0025524834637 0.0016243561404 0.0002132266527 -5.1018207159e-05 -0.00034438932198 3.8552152546e-05 
0.00028567027766 0.00036561206798 
Stress_XZ 1 1064 double
-0.0045009390451 -0.0054090810008 -0.0048601422459 -0.001903267228 -0.0028252124321 -0.0009619629127 0.0018150990363 0.0022020393517 0.0025570022408 
0.0027931102086 0.0028648215812 0.0027319665533 0.0020810558926 0.001697972999 0.0012802253477 0.0010166218271 0.00039382666 -0.00031329589547 
-0.0005139100831 -0.002482522279 -0.0027156211436 -0.002744610887 -0.0025491935667 -0.0024046965409 -0.0012489308137 -8.2380174717e-05 0.0012953878613 
0.0017648222856 0.0018076699926 0.0015209490666 0.0013337810524 0.00090119568631 0.0004654993536 0.00042283479706 0.00066584581509 0.0008282334893 
0.0012674435275 0.00095618254272 6.6328590037e-05 -0.0012207757682 -0.002350035822 -0.0038780099712 0.0017537005479 0.0023736588191 0.0029901161324 
0.0028263097629 0.0023453321774 0.0017880544765 0.0013312798692 0.0012051676167 0.0014206686756 0.0016243342543 0.0016246748855 0.0023384036031 
0.0032524326816 0.0042518079281 0.0048817861825 0.0051627042703 0.0043925503269 0.0023222218733 -0.00092976534506 -0.0037600561045 -0.0048941653222 
-0.0045922943391 -0.0037730296608 -0.0035446614493 -0.0028910662513 -0.0027438609395 -0.002875050297 -0.003054354107 -0.003051451873 -0.0029435167089 
-0.0026359613985 -0.0013882158091 0.00084392284043 0.0044210623018 0.0055055329576 0.0050961892121 0.003857112024 0.0020425419789 0.0015665011015 
0.001284872531 0.00057317712344 0.00040143181104 0.0011390863219 0.0028810859658 0.0047340863384 0.003504535649 0.0025149430148 0.0020513471682 
0.00092703901464 -0.00082653394202 -0.0024162686896 -0.004095794633 -0.0054792007431 -0.0057512903586 -0.0051553086378 -0.0035124344286 -0.0012841398129 
0.00062029348919 -0.0091000432149 -0.0078095598146 -0.0057658399455 -0.0040182899684 -0.0013172341278 0.0009824152803 0.0023123428691 0.0039154980332 
0.0050099971704 0.0048708207905 0.0036986395717 0.0026808781549 0.0020198377315 0.0014752538409 0.00022596446797 -0.0014487315202 -0.0030209072866 
-0.0043150424026 -0.0042920736596 -0.0042853285559 -0.004645826295 -0.0051313186996 -0.0047407578677 -0.0029406598769 -0.00050939357607 0.0017610942014 
0.0023924957495 0.0025244699791 0.0028026779182 0.0031061740592 0.0031856615096 0.0030427433085 0.0025514727458 0.0016328014899 0.00011231510871 
-0.0013377865544 -0.0023024126422 -0.0026405476965 -0.0037681700196 -0.0056303921156 -0.0083563253284 -0.0099979396909 -0.00086468015797 -0.00024233816657 
0.00077917904127 0.0019831396639 0.0027172446717 0.0031809131615 0.0034439682495 0.003709256649 0.0042959586717 0.004959830083 0.0057836035267 
0.0057528801262 0.0051515926607 0.0049465065822 0.0044993618503 0.0032231369987 0.0015072473325 -2.7114390832e-05 -0.0018068331992 -0.0042225816287 
-0.0060956981033 -0.006229752209 -0.0060133966617 -0.0045183841139 -0.0053063416854 -0.0056841252372 -0.0048394962214 -0.0031108832918 -0.0013863279019 
3.471972741e-05 0.0016441601329 0.0029173530638 0.0036588322837 0.005227307789 0.0049960650504 0.0042763934471 0.0039305952378 0.0038550395984 
0.0045415773056 0.0055913212709 0.0062855710275 0.0058960611932 0.0041991630569 0.0022751421202 1.9838244043e-05 -0.001718384563 -0.0031909055542 
-0.004525066819 -0.0055691665038 -0.0064617898315 -0.0076862429269 -0.0083847707137 -0.0085848942399 -0.0076134982519 -0.0057026827708 -0.0034365323372 
-0.00197939598 -0.0048373755999 -0.0064645125531 -0.0023477622308 0.0011615019757 0.0039524650201 0.0063136401586 0.0078064841218 0.0083406120539 
0.0077235624194 0.0060205128975 0.0044352039695 0.0035194410011 0.0026378352195 0.0012051950907 -0.00072850368451 -0.0027412958443 -0.0044322917238 
-0.0052849734202 -0.0053849196993 -0.0053566489369 -0.0053984816186 -0.0044804294594 0.0006076109712 0.0024453613441 0.0036041208077 0.0045622428879 
0.005548208952 0.0064134257846 0.0068752472289 0.0066974950023 0.0058943331242 0.0043449685909 0.0020518733654 -0.00071635865606 -0.0036288551055 
-0.0053192009218 -0.0065574622713 -0.00834654551 -0.010971366428 -0.01230124291 -0.011534473859 -0.0013212942285 -0.0021666483954 -0.0071779163554 
-0.0068848468363 -0.0072378604673 -0.006883060094 -0.0056968191639 -0.0044206352904 -0.0027529296931 -0.00089132192079 0.00083229609299 0.0030967667699 
0.0045292624272 0.0053948261775 0.0059285969473 0.0068399244919 0.0077342484146 0.0081567289308 0.0084004402161 0.0081142773852 0.0073339105584 
0.0057775578462 0.0038467443082 0.001406759955 -0.00059549545404 -0.0024038434494 -0.0041939746588 -0.0056512625888 -0.0067601548508 -0.0079196235165 
-0.0085130687803 -0.0086369486526 -0.0080263130367 -0.0068177632056 -0.005152833648 -0.0035646897741 -0.0020984392613 -0.00047968464787 0.0012710045557 
0.0031054466963 0.0045835552737 0.0054012015462 0.00589942839 0.0064002755098 0.0069727161899 0.0073942826129 0.0078095714562 0.0072224843316 
0.0062765399925 0.0054467613809 0.0042443196289 0.0025559084024 0.0010967119597 -0.00043217444909 -0.0024389354512 -0.0046855984256 -0.0065711215138 
-0.0074503421783 -0.0079201776534 -0.0079905744642 -0.0077208001167 -0.0065645887516 -0.0071107372642 0.0024953121319 0.0014514836948 -0.00079413189087 
5.8164783695e-05 0.001204963075 0.0026019818615 0.0038219236303 0.0050877723843 0.0064632920548 0.0076965321787 0.008501065895 0.008508503437 
0.0074565396644 0.0054781474173 0.0028403627221 -0.00039108961937 -0.0032272373792 -0.0077364994213 -0.009290532209 -0.010495105758 -0.0097788386047 
-0.0095851961523 -0.00092226243578 0.0019966245163 0.0047655589879 0.0074062147178 0.0094335703179 0.010260326788 0.0094758849591 0.0076733133756 
0.0060085412115 0.0047503490932 0.0033983909525 0.001806918066 -8.6124106019e-05 -0.0021551800892 -0.0040380237624 -0.0054123001173 -0.005953386426 
-0.005581272766 -0.0053995968774 -0.0045217778534 -0.0025407804642 -0.0016328955535 -0.0013317435514 -0.00048837374197 -0.0030236730818 -0.0040253433399 
-0.0060665062629 -0.0042139934376 -0.0061708935536 -0.0052234013565 -0.0042363344692 -0.0030680478085 -0.0017245371128 -0.0005488153547 0.00022302937577 
0.00039866057341 0.0013453415595 0.0019522038056 0.0029812513385 0.00442292355 0.0055692414753 0.0064760479145 0.0076153934933 0.0084481434897 
0.0085336482152 0.0079405158758 0.007312592119 0.0067583941855 0.0055234674364 0.0040557612665 0.0020597500261 0.00019994008471 -0.001519836369 
-0.0033431155607 -0.0050560059026 -0.0064639491029 -0.0075274235569 -0.0080241300166 -0.008141647093 -0.0078062629327 -0.006786451675 -0.0053612445481 
-0.0039351559244 -0.0024046387989 -0.00053592870245 0.001741940272 0.0039635058492 0.0056530064903 0.0065415874124 0.0072142560966 0.007722677663 
0.0082353530452 0.0082975234836 0.0078229987994 0.0070684449747 0.0061054765247 0.0050932625309 0.003854920622 0.00040965582593 -0.00090656167595 
-0.0026948140003 -0.0046587707475 -0.0062737604603 -0.0075176092796 -0.0082907043397 -0.0082796066999 -0.0075118886307 -0.0064665079117 -0.0054313656874 
-0.0054397177882 -0.0049104704522 -0.0045714904554 -0.0041144979186 -0.0032374360599 -0.0022133446764 -0.0074794352986 -0.0066448524594 -0.0055687143467 
-0.0042505874299 -0.0044525223784 -0.0042315782048 -0.0039421059191 -0.0037960202899 -0.0036539640278 -0.0031586561818 -0.0024002094287 0.0015933269169 
0.0026545056608 0.00045813797624 0.001512053539 0.0027669651899 0.0040871594101 0.0054864059202 0.0071034212597 0.0086671914905 0.009647032246 
0.0096686333418 0.0086389081553 0.0067498679273 0.0041018882766 0.0011395214824 -0.0011419091607 -0.0018582565244 -0.001418211963 -0.0034834987018 
-0.0051767365076 -0.0065762819722 -0.0074030188844 -0.0077537083998 -0.0064122658223 -0.0058618267067 -0.0055801365525 -0.0052269808948 -0.0046387710609 
-0.0041033225134 -0.0033611916006 -0.0024148907978 -0.00053378369194 0.0019375076517 0.0045814928599 0.0071474970318 0.0096165938303 0.011423285119 
0.011110793799 0.0090023111552 0.0072317593731 0.0058520305902 0.0018440349959 9.0051813459e-05 -0.0020554845687 -0.0041937087663 -0.005737870466 
-0.0064523806795 -0.0061619314365 -0.0057673552074 -0.005220151972 -0.0040386104956 -0.0032056644559 -0.0026518774685 -0.0014647530625 -0.0011617724085 
-0.00057937583188 0.0034663155675 0.0045202462934 -0.00036005646689 -0.00019539134519 0.00046619170462 0.0012108162045 0.0020895043854 0.0031310496852 
0.0042396239005 0.0053093628958 0.0062302276492 0.0069458405487 0.0070180585608 0.006593386177 0.0061380160041 0.0059347418137 0.0060377363116 
0.0052881375886 0.0041398475878 0.0023651304655 0.00059280917048 -0.00097841047682 -0.002545905998 -0.0041699176654 -0.0055374619551 -0.0065462603234 
-0.0070654139854 -0.00712529663 -0.006839890033 -0.0059407930821 -0.0030415260699 -0.0016330942744 0.00030433686334 0.002762154676 0.0049088904634 
0.006316547282 0.0072036529891 0.0080384565517 0.0087658008561 0.0088808061555 0.0083994707093 0.0073912679218 0.0064038382843 0.0054496615194 
0.0045057986863 0.0036575426348 0.0030061285943 0.0023333930876 0.0015352629125 0.00070963107282 -0.00010629615281 -0.0015037592966 -0.0030489661731 
-0.0048276153393 -0.0064944229089 -0.0077659003437 -0.0040471400134 -0.0040432061069 -0.0010753865354 -0.00074854493141 -0.00036853909842 3.2068524888e-05 
0.00042324027163 0.0010685875313 0.001843377715 0.0026619315613 0.0036686095409 0.004576403182 0.0051827952266 0.0053927553818 0.0051585859619 
0.0048687183298 0.0046470277011 0.0048395940103 0.0051087555476 0.0047068390995 0.0041592535563 0.002524607582 0.00082346459385 -0.0005765883252 
-0.0018166890368 -0.0030459801201 -0.0042424742132 -0.0051447967999 -0.0056793410331 -0.005646828562 -0.0052630533464 -0.0044747805223 -0.0035210144706 
-0.0024813620839 -0.0024539928418 -0.0021462105215 -0.0013786847703 -9.9897551991e-05 0.0016944373492 0.0037197221536 0.005447126925 0.0066013615578 
0.0074088647962 0.0079506672919 0.0084773069248 0.0083044832572 0.0078846588731 0.0069403662346 0.0059176455252 0.0049644447863 0.0040813172236 
0.003403438488 0.0030563534237 0.0027042913716 0.0017791731516 0.00066801958019 0.00010820275202 -0.00052343605785 -0.00189672946 -0.0036249211989 
-0.0052617271431 -0.0069256960414 -0.0077860634774 0.00040844385512 0.0015057132114 0.0027744690888 0.0041033811867 0.0055166496895 0.0071479897015 
0.0088210329413 0.010128770024 0.010551667772 0.0097470264882 0.0079827234149 0.0055589210242 0.003041398013 0.0010787210194 0.00019064790104 
0.00045194843551 0.001270236331 -0.00059701339342 -0.0023721309844 -0.0037701562978 -0.0049943141639 -0.0061107212678 -0.0064601358026 -0.005232967902 
-0.0042439787649 -0.0037487545051 -0.0036970500369 -0.0036051208153 -0.0033169065136 -0.0029339676257 -0.0021875533275 -0.00062806735514 0.0018327769358 
0.0044244960882 0.0068275071681 0.0091468170285 0.01124613639 0.011384365149 0.0093521000817 0.0075158504769 0.006068143528 0.0044172159396 
0.0027037737891 0.0026656750124 0.0025292153005 0.0013809932861 -0.00048030586913 -0.0027047712356 -0.0048915925436 -0.0063234288245 -0.0071260319091 
-0.0069847106934 -0.0064083100297 -0.0062330397777 -0.0056645669974 -0.0046441759914 -0.0039036301896 -0.0030252733268 -0.0025302101858 -0.0015860450221 
-0.001009649015 -0.00040581761277 0.0012543789344 0.0021702796221 0.0030970610678 0.0038485059049 0.0042139133438 0.004297062289 0.0043306881562 
0.0044273161329 0.0043256934732 0.0044428519905 0.0042073214427 0.0038675544783 0.0025826275814 0.0010508220876 -0.00013956798648 -0.0011692242697 
-0.002186949132 -0.003078365 -0.0037869911175 -0.0042738644406 -0.0044495197944 -0.0042761988007 -0.0040490510873 -0.0034363267478 -0.0027326163836 
-0.0020855180919 -0.0017197048292 -0.0012666706461 -0.00067609042162 0.00012237596093 0.0013160257367 0.0028302974533 0.0043431310914 0.0057468353771 
0.0068438611925 0.0072179720737 0.0072477036156 0.0073370914906 0.0075942873955 0.0067561473697 0.0057557490654 0.0047584204003 0.0038294282276 
0.0050682253204 0.0048782858066 0.0035932417959 0.0033732068259 0.0024223024957 0.001093286206 -1.7829437638e-05 -0.00060122233117 0.00043425374315 
0.0014683401678 0.0026623874437 0.0039038264658 0.0052447780035 0.0068020657636 0.0084221921861 0.0099776908755 0.010987277143 0.010663276538 
0.0089714946225 0.0069275433198 0.0047758412547 0.0030474115629 0.0031439659651 0.0035114760976 0.0017269611126 1.8450075004e-05 -0.0015145050129 
-0.0027173953131 -0.0037861473393 -0.0048026177101 -0.0048769423738 -0.0037754895166 -0.0027260472998 -0.002223883057 -0.0024170731194 -0.0024904138409 
-0.0023689079098 -0.002172856126 -0.0016200967366 -0.00027865156881 0.0021040083375 0.0047457669862 0.0071731111966 0.0087316036224 0.010095764883 
0.010158864781 0.0083905356005 0.0066353003494 0.0052961762995 0.0040311953053 0.002649895614 0.0012962119654 0.0011184313335 0.00093013542937 
0.00067980762105 0.00023929718009 -0.0011339839548 -0.0035413550213 -0.0055208886042 -0.0066255903803 -0.0070359134115 -0.0068916548043 -0.0065279225819 
-0.006307116244 -0.0057648839429 -0.0053345588967 -0.0049353446811 -0.0044507794082 -0.0036720526405 -0.0026065430138 -0.0010763005121 -0.0069683576003 
-0.0066602127627 -0.0057020876557 -0.0045058634132 -0.0050522414967 -0.0034919544123 -0.0033123565372 -0.0032993871719 -0.0032628236804 -0.0028340031859 
-0.0029749518726 -0.0026707821526 -0.0019858593587 -0.0014040132519 -0.00078308570664 -0.00015161343617 9.6652060165e-05 0.00030532939127 0.00071108521661 
0.0015723954421 0.0026872702874 0.003818240948 0.005000139121 0.006392268464 0.0078051192686 0.0092780087143 0.010662882589 0.010900130495 
0.0093201836571 0.0077592660673 0.0061803758144 0.0049146669917 0.0036956097465 0.0027001807466 0.0016597775975 0.00041957641952 -0.00091046333546 
-0.0021341103129 -0.0028577337507 -0.0035284270998 -0.0036727858242 -0.0029933669139 -0.002370912116 -0.0013075520983 -0.0013574592303 -0.0013699440751 
-0.0010839621536 -0.00051290547708 0.00069512473419 0.002854058519 0.0052047646604 0.0067484863102 0.0086223529652 0.0082475347444 0.0068038632162 
0.0053738383576 0.0043338299729 0.0035017593764 0.0024811641779 0.0013996551279 0.0005880453391 0.00783420261 -0.0014612795785 -0.0018603136996 
0.0082397330552 0.0073666027747 -0.0020215841942 -0.0035754048731 -0.0051139458083 -0.0063276514411 -0.006206903141 -0.005536547862 -0.005427045282 
-0.0059542963281 0.0015015696408 0.0025455465075 0.0031524135265 0.0034148364794 0.0036767916754 0.0039972551167 0.0042748544365 0.0047121318057 
0.0050900648348 0.0057323481888 0.0058339848183 0.0052072079852 0.0050675994717 0.00413989136 0.0036837691441 0.0026494069025 0.0012738005025 
1.2549567145e-05 -0.00085504446179 -0.0016280873679 -0.0024449445773 -0.0032030413859 -0.0037931103725 -0.0041293841787 -0.0041629155166 -0.0039539523423 
-0.003771426389 -0.0031384024769 -0.0024659049232 -0.0014496387448 -0.00097331189318 -0.00035399370245 0.0002191291278 0.00089203135576 0.0019961104263 
0.0032338793389 0.0044006309472 -0.0060314065777 -0.0020891693421 -0.0013619626407 -0.00066079146927 0.00026351850829 -0.00024629340624 -0.00038013185258 
-0.00080412672833 -0.00077428773511 -0.001541396603 -0.0032252534293 -0.0047537470236 -0.0058087301441 -0.0059796576388 0.0055528939702 0.0064653311856 
0.0069254525006 0.0068400572054 0.0065901931375 0.0069452333264 0.0079174917191 0.0082900710404 0.0080965384841 0.0078477077186 0.0068768276833 
0.0057162391022 0.0046134097502 -0.0057705352083 -0.0044624139555 0.0044594332576 0.0042891250923 0.0032217712142 0.0022766040638 -0.0018048818456 
-0.0031886261422 -0.0043908059597 -0.0054233833216 -0.0055480990559 -0.0056253541261 -0.0033729393035 -0.0028997228947 -0.0025373413227 -0.0023383155931 
-0.0024390434846 0.00067922845483 0.00099939422216 0.0050811073743 0.0041008372791 0.003285786137 0.002225887496 0.0010002037743 3.5096967622e-05 
-0.00045645225327 -0.0010359680746 -0.0019189718878 -0.0028167483397 -0.0034930410329 -0.0038939856458 -0.0035298976582 -0.00012290447194 0.00041544029955 
0.00088345288532 0.0017228361685 0.0019005661597 0.0024820710532 0.0027477601543 0.0031771571375 0.0038471231237 0.0047079361975 0.0054455501959 
0.0057543544099 0.0067730317824 0.0011137020774 0.0073153101839 0.006764809601 0.005553459283 0.0042952871881 0.0034909711685 0.0028744977899 
0.0022847161163 0.0014995743986 0.00040754044312 0.0080758659169 0.0078373067081 0.0070515288971 0.0057891807519 -0.00058293523034 -0.0016618836671 
-0.0021259989589 -0.0032081680838 -0.0028874215204 -0.0026726403739 -0.0025191707537 -0.0029062600806 -0.002226339886 -0.0012743858388 -0.00071426242357 
-0.00046727692825 -0.00034848871292 5.4706008086e-05 0.0058965520002 0.0068781087175 0.0073094074614 0.0073674893938 0.00883251708 -0.0018533356488 
0.0019950002898 0.0029630679637 0.010160364211 0.0087561318651 0.00091896305094 0.0039560319856 0.0052931918763 0.0049483701587 0.0060165319592 
0.0021687557455 0.0071062403731 -0.00099392759148 -0.0011172656668 -0.0016608744627 -0.0017240183661 -0.0024088930804 0.0083430381492 0.0096517773345 
0.0083845900372 -0.0018032119842 0.0018808288733 0.0024439769331 -0.0014086790616 -0.0032210291829 -0.0031822833698 -0.0029516839422 -0.003379495116 
0.002835970372 0.0034983416554 0.0044963066466 0.0055919308215 0.0063560418785 -0.0087114823982 -0.006853137631 -0.0051809870638 -0.0096998913214 
-0.0071786902845 -0.0046739317477 -0.0012431170326 -0.0005483260029 -0.0013735004468 0.001824341598 0.004842040129 -0.00033189510577 0.00053835229483 
0.00081661948934 -0.00074340298306 -0.001144931186 0.0007791701355 -0.00074780610157 -0.0018061032752 -0.004045068752 -0.0038664089516 -0.0040238080546 
-0.0036473653745 0.0074550053105 0.0062616774812 0.0036715674214 0.0049144285731 -0.0032409329433 -0.0030079607386 -0.0024554945994 -0.0031833515968 
-0.0035273453686 -0.0036411960609 
POINT_DATA 1114
FIELD FieldData 31
Circ_Strain_Pt 1 1114 double
0.94436204061 0.96975952108 0.97891380056 0.95714596977 1.0037972188 0.99714778596 1.0202539095 1.0094951228 1.0085436282 
0.99466477553 0.97752218679 0.96648407351 0.94842050285 0.92938213944 0.92707611325 0.90348036222 0.92786777029 0.9142517484 
0.95758073738 0.95499901292 1.011007433 1.0022081752 1.0615538747 1.0450745892 1.0762835921 1.046708687 1.0544878365 
1.0429204631 1.0524590808 1.0437989688 1.031543028 1.0100358129 1.0293333625 1.0053966311 1.0370791896 1.0170281891 
1.0291150259 1.02402589 1.0228477276 1.0297229423 1.0251416021 1.0290168068 1.0386772169 1.0296435429 1.0463116461 
1.0343094138 1.0485890643 1.0386359055 1.040328383 1.0385701369 1.0125387403 1.0153546822 0.98324640204 0.98709169486 
0.9569209315 0.95110461815 0.93904437679 0.93123665378 0.93331055988 0.93225200175 0.94199604654 0.94243732143 0.9632605445 
0.95539536334 0.97356568118 0.96538081297 0.98231341892 0.97128266759 0.99312097466 0.9813340286 1.0043758072 0.98006596823 
0.99943827205 0.99014500005 1.0209515989 0.99512445004 1.0175782343 0.98064374144 0.99430170757 0.97914508796 0.97226940217 
0.97582701828 0.95739605738 0.95886355205 0.95987565427 0.95933133293 0.95061931724 0.95187861757 0.96384714825 0.95513720819 
0.9830741455 0.97703822656 0.99828624528 1.0010319493 1.0099650448 1.0303187609 1.0147946526 1.0256865652 1.0199856013 
1.0218505534 1.0263464749 1.0238736388 1.0202270916 1.0181724546 1.0109324831 1.0077824656 0.99969891053 0.99798296958 
0.97999861994 0.98351404704 0.96932105941 0.96968224588 0.96786079427 0.96953245913 0.96698732378 0.97119195565 0.96409767923 
0.96352952105 0.96143375082 0.94556702965 0.96577874784 0.95273184697 0.96891314071 0.96423659913 0.97513765184 0.97836679514 
1.002000841 0.99693867198 1.0245810631 1.015739169 1.0445966569 1.0333126809 1.0631517631 1.0401199229 1.0613837889 
1.0465559117 1.0466471917 1.0341492047 1.0108587884 1.0121041 0.98112478479 0.98860368708 0.9601507925 0.97016805391 
0.95758936503 0.95850566301 0.96169512423 0.95110430244 0.97278944466 0.95990299943 0.96481023685 0.96805603233 0.93735605383 
0.96084977244 0.95309610811 0.97237220193 0.97511589708 0.98348838672 0.99172632651 0.99369855814 1.0020438637 1.0027015978 
1.0072588621 1.0087128672 0.99597081232 0.99961612581 0.98280049018 0.98607131272 0.96666551926 0.96858532624 0.95606020423 
0.9562261289 0.94846260786 0.94845310067 0.95662317005 0.96725856392 0.96793803059 0.98179216919 0.98614073624 0.99620626258 
1.0029833365 1.0115556402 1.0187037442 1.027623327 1.0173551099 1.0313135432 1.0120116464 1.02575057 1.0149417937 
1.0262064568 1.0175022761 1.0270414061 1.0190227889 1.0274985879 1.0178387102 1.0221591061 1.0139033153 1.0062963326 
0.99057509599 0.97909200926 0.98625262286 0.97091836198 1.0000136103 0.99906849251 0.96077254985 0.91112518558 0.89080815269 
0.90575642617 0.93952371471 0.98112711389 1.0114558456 1.0201201233 1.0273045761 1.0173411166 1.0005530352 0.98917407015 
0.99314311547 1.010344267 1.0235900493 1.024161305 1.0278245877 1.0310670349 1.0337842275 1.0376255352 1.0216246714 
0.99116785836 0.95687086515 0.93787752434 0.93374429346 0.9381481694 0.94581769288 0.95436468395 0.96639166664 0.96497146446 
0.96817588551 0.97287040334 0.97058686377 0.95044622356 0.96269642712 0.96752065012 0.96714685387 0.95885345361 0.93759304709 
0.93100496417 0.95425755255 0.98378602531 1.0160099351 1.0347274668 1.0319681775 1.0198297055 1.0184374872 1.0003201679 
0.98645880395 0.97918356299 0.97266100801 0.96553180173 0.96326647304 0.95505759216 0.95245595693 0.95132014159 0.96283028123 
0.97933371437 0.99262598891 1.0033898145 1.014682826 1.019903476 1.0382109522 1.0393215558 1.0195253085 0.99929930364 
0.98004106308 0.96723446804 0.95837679285 0.96801949259 0.98589850071 0.98287002777 0.984098137 0.98377716054 0.98758871044 
0.99920875394 1.0078403865 1.0003871754 0.98445859614 0.96795105493 0.95719138479 0.95174002708 0.96749951422 0.98500889903 
0.99213071904 1.0044743226 1.0344540566 1.0424539899 1.0378370569 1.0321099777 1.031772392 1.0360736279 1.0234632151 
1.0044845995 0.9683256235 0.94089975169 1.0328894366 1.0077916383 0.96145234809 0.9924337965 0.92481903523 0.89643643587 
0.89840537166 0.92274961927 0.96072895213 0.99025691209 0.99806615525 1.0083109398 0.99670528386 0.99079769924 0.98526326558 
0.97599425351 0.98630006422 1.001875847 1.009744308 1.0173544595 1.0223498322 1.0262430087 1.0373510212 0.99990526567 
1.026745064 0.96378704702 0.9430133434 0.93902320666 0.93720314423 0.94039152583 0.95122176773 0.96141732875 0.95751816528 
0.95611766769 0.95572318448 0.94747168719 0.94507271325 0.9499757085 0.95317164321 0.95940944805 0.95656186726 0.96620327905 
0.97870251477 1.0441239687 1.0436117393 1.025646887 1.008937728 1.0187634399 1.0045643277 0.99208712566 0.98108605006 
0.9749558632 0.98093807625 0.99730326111 0.9836837466 0.9891107321 0.98533138539 0.98953663293 0.99470444762 0.99904195387 
0.99217773062 0.97637147955 0.95656137355 0.95046006492 0.95605647295 0.97138529012 0.97791480515 0.97603754818 0.99215445291 
1.0132763078 1.033334674 1.045640649 1.0393389535 1.0344683533 1.0268474605 1.0074603737 0.97833466099 0.94202512462 
0.91484800102 0.90905053814 0.92368966861 0.95209039174 0.98299733959 1.0195485968 1.0345673703 1.0301508431 1.0190278704 
1.0026332194 0.99012614844 0.98153922005 0.9777341702 0.97625995984 0.97276385949 0.96406776765 0.94924736109 0.94553590274 
0.95196580982 0.96311276005 0.97914771833 0.9934208003 1.0040387874 1.0042264715 1.0019827047 0.99592804207 0.98644388812 
1.0168731151 0.98283093756 0.99752948275 1.01107281 1.0407725668 1.0390733792 1.013390326 0.98136530728 0.95482852778 
0.94755779189 0.94770539057 0.95418933868 0.95207785827 0.96005129425 0.95723685518 0.95553616417 0.95648623817 0.94749956174 
0.93780933484 0.94079364769 0.94885503798 0.94714031172 0.95208829654 0.95766141344 0.96306557951 0.97350110101 0.95126003939 
0.97863723313 0.92439165339 0.90420689452 0.90482604473 0.92530398049 0.95194088533 0.9737733388 0.98649714137 0.99162099568 
0.98552714742 0.98849208099 0.9757010725 0.96814557109 0.96955699796 0.98156021396 0.99517902589 1.0049258122 1.0063134426 
1.0067541282 1.0258287595 1.0275741562 1.02227521 1.0324268327 1.0211257463 1.0221438626 0.99852954543 0.98774278774 
0.98848375205 0.98278328528 0.95537611449 0.95257996912 1.0069166619 0.99874213814 0.99140055603 0.98716894711 0.99103446403 
0.99974885312 1.0161603649 1.0245044905 1.0319118687 1.0111186711 0.99552463958 0.99218848512 0.98487571476 0.98068326259 
0.98904443977 0.99106252391 0.975008575 0.95589307212 0.9494649129 0.95328418325 0.9623308381 0.97857221208 0.98866129637 
0.99658762402 1.0192372363 1.0461228812 1.052133886 1.049242475 1.0420884367 1.0303343125 1.0110094926 0.97987447954 
0.93859158059 0.90732159238 0.89324591104 0.90825704208 0.93169228554 0.96185339551 0.98898084176 1.0153452967 1.0242905747 
1.0225570944 1.0067662186 0.99095992871 0.97717543108 0.96973150508 0.97035624915 0.97406543333 0.97909420256 0.97493775711 
0.97107246679 0.95787903262 0.94720031583 0.9696313029 0.98181605272 0.98817226555 0.99522647893 0.99807753543 0.99041470617 
0.97337691318 0.96288749527 0.96128669751 0.99013553838 0.95509269216 1.0081199602 1.0138611716 1.0020382351 0.99149152719 
0.99456607876 0.99967444101 0.94315260711 0.95639317103 0.9295746183 0.93869799042 0.96935718705 0.93150248554 0.98819350907 
1.0008409631 1.0017375036 0.99161831574 0.98709884825 0.98701652757 1.0093778259 0.95617958253 0.96939936748 1.0039667167 
0.98322991657 0.96685642971 0.95189242948 0.95668098711 0.96530160886 0.96779482047 0.96556631141 0.9630903495 0.96642415072 
0.97381276179 0.96196179768 0.94987755463 0.95022345482 0.95295315386 0.9624897143 0.96249199719 0.96769363337 0.97232412588 
0.95846424404 0.95798478963 0.96957351387 0.97942492459 0.98414314996 0.98188648213 0.9847491213 0.98626282096 0.98191632576 
0.98065612609 0.9786753748 0.97817663942 0.97295948704 0.95464386721 0.93497828986 0.91845651896 0.91092111637 0.91981569196 
0.93808951645 0.96127073228 0.97677574477 0.98504718118 0.99519246926 0.97741971556 0.99765785982 0.96769744799 0.96860905426 
0.96974854245 0.97921280414 0.98738808919 0.98650230117 0.98689408149 0.98787742681 0.999022441 0.99935701288 0.99841970996 
1.0205399881 1.0030022431 1.0261476899 1.0237570531 1.0108535484 1.0203909395 1.0283891002 1.0243410013 1.0434437289 
1.0517551496 1.0239588892 1.0122312047 0.99847335303 0.978182033 0.97335812649 0.9810677568 0.99211610189 0.9972619323 
0.97820321759 0.95760419956 0.94497031314 0.95002371892 0.97134235749 0.98989826617 0.98901398663 0.98732270375 1.0160345854 
1.0414635472 1.0485300224 1.0504568402 1.0453615499 1.0373751639 1.0232538817 0.99239610089 0.9460376299 0.90220524012 
0.90999702148 0.90038830675 0.92904029996 0.95121715262 0.98125983581 1.0060122897 1.0171853516 1.0135182517 1.0007418026 
0.97846984456 0.96191215607 0.95903131222 0.96623863657 0.97978298534 0.98457418122 0.98632555923 0.97999827782 0.98726865941 
0.9809739001 0.99671496028 0.96116724445 0.95556506729 0.96363608148 0.97516396873 0.9816239906 0.97711270017 0.97617050113 
0.88856713774 0.88587336989 1.0163743694 1.0531331633 1.0620409193 1.0530082928 1.052360396 1.0343973873 1.0102233774 
1.0005465342 0.98729609068 0.97674514449 0.96953426134 0.99221403764 1.0087271399 1.0015354139 0.98457763173 0.96307612516 
0.96622826064 0.98150760697 0.98244403549 0.98698761753 0.99550769577 1.0059636474 1.021816198 1.0372992117 1.0471931981 
1.0528694281 1.0474847432 1.0347229484 1.0048410142 0.97312985207 0.91964460588 0.9046895219 0.90274532824 0.90494558719 
0.90289246649 0.90575796696 0.91799589577 0.93608666506 0.95767987852 0.97939046091 1.0003600009 1.0064410733 1.0082757805 
1.0014351692 0.97645121722 0.95887432175 0.94804624264 0.9563418463 0.96870197182 0.98422513452 0.99402303339 1.00239766 
1.0026761701 1.0039794297 0.98962182183 0.97346738911 0.9630538428 0.96825237076 0.97650414092 0.9790302754 0.9638603215 
1.0094491276 0.98242543447 0.96182851068 0.95802796856 0.96431107207 0.97073048838 0.97185501341 0.97170098903 0.97488690061 
0.98067743826 0.97836759385 0.97009246053 0.96284704852 0.95889437241 0.95732620239 0.96455096828 0.96935600524 0.97224796003 
0.971731907 0.97430899677 0.98033993675 0.98098330756 0.98061304595 0.99307430587 1.0007282156 1.0015977383 0.99436469468 
0.98599693286 0.97938998497 0.97906956306 0.98101854482 0.97815085711 0.97007884871 0.95530232176 0.94072197727 0.92900553199 
0.92651339469 0.93780324733 0.95616618898 0.97045006674 0.98284239967 0.99562358564 1.023584945 1.046180143 1.0563502584 
1.0355208106 1.0126569197 0.9953760085 0.97903691223 0.96764993751 0.96720057022 0.96620473134 0.96429961772 0.96205546459 
0.96311978849 0.96443801394 0.9616258672 0.97599084048 0.98164143406 0.98794383375 1.0089094773 0.99621229471 1.017589209 
1.0229291366 1.0180645616 1.020302923 0.9806969095 0.98280318541 0.98848670366 1.0054701707 1.0211554891 1.0040590004 
0.98632519643 0.97593289908 0.96898372945 0.99212780767 0.98822149435 0.99104672048 0.99421367705 1.0022042303 1.014253435 
1.0385707531 1.0557627514 1.056526769 1.0502368399 1.0298672427 0.99942199246 0.95798951849 0.93101764417 0.93585617008 
0.92410244793 0.92686344554 0.94617112497 0.91488877002 0.92027604888 0.92997182497 0.94196081908 0.95762083043 0.97101283693 
0.98386634887 0.99568039964 0.99840378572 1.0017039334 0.99668727415 0.98667279057 0.94992054269 0.95331546001 0.96114826387 
0.9796509094 0.99693594069 0.98145925974 0.9730661866 0.98683269955 1.006761038 0.9905560058 1.0116966772 1.0032911538 
0.98402263963 0.99986109606 0.98093411765 0.96905738782 0.95954991676 0.96128915587 0.96512650487 0.97131608723 0.97955029841 
0.98933415029 0.98961263366 0.98490242453 0.97627296367 0.96818784851 0.96522408465 0.97662117 0.96974199827 0.97799245214 
0.97439723624 0.97635216842 0.98068091001 0.98407707825 0.98441877093 0.98810348181 0.99755804442 1.0104235315 1.0191566476 
1.0070374467 0.99678785201 0.98958850373 0.98696769651 0.98849162806 0.9880851884 0.98520499014 0.97784446595 0.96490229953 
0.94036870797 0.94050086424 0.94630744823 0.9565115646 0.97069605278 0.98310346667 1.0014245463 1.0303543317 1.0480800381 
1.063919613 1.0723335524 1.0549973829 1.0306133087 1.010831374 0.99572342536 0.98350066405 0.98050869735 0.9762121578 
0.9642640218 0.93730330017 0.94222181943 0.94756569025 0.94202324358 0.949046304 0.95022640227 0.96215654187 0.97443856787 
0.98669161667 1.0061370578 0.99869640219 1.0131226035 0.94131624415 0.92790444143 0.91844329947 0.92858172706 0.95369521518 
0.97229355824 0.98437318173 0.99107331693 0.98992845871 0.98522380208 0.99565263116 1.0081472433 1.0219227741 1.0608436535 
1.0717069892 1.07119232 1.0703886768 1.031989321 0.99618517892 1.0075321968 0.97363152554 0.95876603663 0.96017444684 
0.96297886586 0.97229507571 0.98078103722 0.98587056305 0.98683921708 0.99253690681 0.98362922973 0.98034205734 0.95638299683 
0.96497733 0.97352614517 0.96485290496 0.96606803215 0.97253238511 0.97775823006 0.98266102203 0.98470677839 0.99352140954 
1.0069172049 1.0178022298 1.0222601219 1.0098690838 1.026729882 0.99403560176 0.9869153087 0.98697434378 0.99579695943 
0.99883953232 0.98970160986 0.97799578927 0.96188223399 0.95969262045 0.95411391549 0.97065036325 0.97662903198 0.9868319302 
0.99641003375 1.0110652701 1.0422579298 1.0668148683 1.0333430812 1.0375879596 0.96462143153 0.97568208799 0.98210671091 
0.97702749885 0.96850908782 0.95445768531 0.93900887486 0.92484024635 0.92571488581 1.0220281823 1.0018958237 0.98256401047 
1.0018860832 1.0198319816 1.0182599341 1.0102136362 0.98997676435 0.97424620959 0.9798811415 0.98825200738 0.99322757094 
0.99554425275 0.99618053425 0.9952039984 0.99276031934 0.99874951224 1.0186017647 1.038434058 1.05324322 1.0556920753 
1.047800652 1.0320808736 0.99882651673 0.96691271521 0.94522052833 0.9471819862 0.96008907518 0.94948065052 0.95847698924 
0.94108529914 0.93038847576 0.93277137804 0.94055009 1.0060406159 1.0386427848 1.0551738941 1.0486087142 1.0377278156 
1.0256519716 0.99298501626 0.99772150025 0.99744003328 0.97588995932 0.96219039514 0.98741039642 0.98806200897 0.99280946785 
0.99320525888 0.99010076394 0.98326294278 0.96587260599 0.98187873925 0.96429249837 0.95833285475 0.95520889823 0.96035777248 
0.968592645 0.9635034714 0.97777764998 0.96676991421 1.0017881532 1.0133767157 0.99566813329 0.99801291245 1.0042314893 
1.0275448343 0.99521918996 1.0003720083 0.99804110983 0.99352784078 0.98782503652 0.99325470985 1.0128578013 1.0340662103 
1.0455024848 1.0484910813 1.0306569304 1.0156100449 0.96374983945 0.94745810828 0.9572679097 0.96109651765 0.94885402275 
0.99601171052 0.99565873338 1.001578382 1.0107305504 1.0074626044 0.99295129094 0.98162191211 0.97668094988 0.98279907836 
0.98955666019 0.99539176557 0.99145105499 0.99405927068 1.0145773223 1.0386907336 0.96481784733 0.96281770878 0.95965970793 
0.96985288226 0.9754835971 0.97038786615 1.0040109204 0.99330183285 1.019339817 1.0269486264 1.0371543213 0.97647355518 
0.95933376433 0.95706231883 0.9659409525 1.0143127582 0.9702486067 1.0101950713 0.98923596253 1.0260159648 0.9872584531 
0.99563606413 1.0042248925 1.0187568728 1.0150324036 0.96485702224 0.98859015684 0.98321017407 
Circumferential 3 1114 double
0.79358564266 -0.098704155666 -0.60039929832 0.68525854698 -0.10456992218 -0.7173956823 0.64441752524 -0.10376320717 -0.74991944892 
0.79095036529 -0.042612288592 -0.60736057163 0.45373711772 -0.13330052976 -0.86369045155 0.45738539554 -0.15936607994 -0.8625158899 
0.20679685355 -0.1547474061 -0.9555842885 0.21477221696 -0.22703515801 -0.94305348754 -6.5806296421e-05 -0.15092806195 -0.98372081087 
0.0047503129604 -0.25278999135 -0.96565152139 -0.15054955479 -0.126857535 -0.9794528459 -0.10430076932 -0.22750475351 -0.96736814031 
-0.24344611856 -0.110691781 -0.963484949 -0.21479123163 -0.16982378841 -0.95994482865 -0.3469497324 -0.13648253549 -0.92558559048 
-0.31225018302 -0.14752564286 -0.9377772803 -0.41282112405 -0.12852259355 -0.90105265456 -0.40352443847 -0.13360475328 -0.90309573466 
-0.49101108567 -0.10001326185 -0.8617664647 -0.51114398177 -0.11532568841 -0.85012176181 -0.60563701766 -0.067688275804 -0.79023984287 
-0.62652854781 -0.10713874094 -0.76890322389 -0.71969176811 -0.042783790605 -0.68610435937 -0.76010534567 -0.08718608106 -0.64118590747 
-0.86293086955 -0.039591131241 -0.49892790242 -0.8731284791 -0.064270897985 -0.4799873271 -0.93783703088 -0.00012524002745 -0.33895000727 
-0.94512177884 -0.04768283846 -0.31824471409 -0.98249520049 0.026355956815 -0.16546781308 -0.98863698513 -0.024543020086 -0.13898958337 
-0.99674760255 0.060460043468 -0.032463121234 -0.99838038695 0.030015494566 0.0017821385036 -0.99516737608 0.07370370481 0.049628229006 
-0.98899869291 0.10179991693 0.086626228438 -0.97442453813 0.077694405187 0.18889142064 -0.95886468052 0.13158154182 0.2373493415 
-0.95769592064 0.089507849031 0.27346618045 -0.91727204599 0.15930587145 0.36087844658 -0.95038546498 0.054504207529 0.29917490345 
-0.88996757666 0.19553218229 0.40608278672 -0.92711942679 -0.023624151049 0.36508222238 -0.86390908336 0.19616977619 0.45912603731 
-0.79900233201 0.0099293851687 0.58937629224 -0.77757882507 0.18096399361 0.5935085977 -0.67223957432 0.031516663876 0.73142685869 
-0.6635728242 0.19016844352 0.71501227563 -0.51242198099 0.046586266775 0.84658956957 -0.49525915448 0.17906576239 0.83736205414 
-0.31519746894 0.061885800759 0.94025159734 -0.26865774109 0.13514268073 0.94589201778 -0.097774170297 0.087238529845 0.99019705668 
0.019103247276 0.076093329335 0.9933932468 0.16326945097 0.10916842994 0.97179120239 0.24516502926 0.079950768514 0.96245653532 
0.33873375492 0.13204745963 0.92661374237 0.3969576925 0.099509697586 0.90899038672 0.45602860457 0.14569332061 0.87573830426 
0.50526957428 0.11205182982 0.85390807584 0.53950926485 0.14800138751 0.82774932071 0.57645172506 0.12597741688 0.80625230249 
0.60915867323 0.14344517777 0.77957687244 0.64208436045 0.13891648888 0.75363233746 0.69413249976 0.14099675933 0.7036495905 
0.72736292752 0.12541133478 0.6717185832 0.79013412534 0.12655718638 0.59124853818 0.81681833299 0.10600002292 0.56068218332 
0.87409995314 0.10133491917 0.46600230745 0.89078405273 0.086904233828 0.44229737596 0.93441817727 0.072210967236 0.34635521994 
0.93977047485 0.060787203589 0.33371610384 0.96397032432 0.059285638462 0.25862747708 0.97009492172 0.039317604438 0.23731751415 
0.98443780026 0.039322391048 0.16607638125 0.99173085719 0.025589128795 0.11528991762 0.99586607048 0.022009629519 0.072045751114 
0.9986893115 0.010605535239 0.032678432351 0.99787455998 -0.011468489329 -0.024615221937 0.99639255649 -0.0024169615165 -0.0577558512 
0.98685437628 -0.038961677849 -0.13834487754 0.98330168197 -0.023018664243 -0.17223509417 0.95640182002 -0.046121380879 -0.27467967659 
0.95034313002 -0.028488093503 -0.28515201107 0.89722752021 -0.052193643657 -0.42872731941 0.8826162885 -0.032014455215 -0.4590246765 
0.97207656075 -0.061768886805 -0.22638852592 0.98708426783 -0.018908468057 -0.06351440386 0.99281049416 -0.029452190456 -0.02931437051 
0.98510561643 -0.065802089947 -0.15475395977 0.99728984241 0.0069794301153 0.067669749432 0.99600254483 0.001647023419 0.081229429538 
0.99353432269 -0.016476366538 0.10672261671 0.9907090983 -0.0088754464001 0.129932408 0.98685045755 -0.023679032121 0.15426477217 
0.98316545307 -0.0035370041466 0.17815067259 0.97758950948 -0.016578171109 0.20927790407 0.9728536315 0.019596476388 0.23018155417 
0.95317758275 0.0052763626568 0.29394186334 0.95049648842 0.030009409466 0.30366313301 0.91943381676 0.02778529066 0.38520746707 
0.92152067952 0.040342404879 0.38142406035 0.87201413981 0.050074153286 0.48451738188 0.88146926593 0.048360671699 0.46825123856 
0.77947913581 0.081059160597 0.60938951564 0.82537852424 0.081483973856 0.55190559876 0.69982602153 0.11051585747 0.7042721385 
0.7734423772 0.11761859374 0.62155459789 0.6508097456 0.13554261466 0.74672991888 0.73342855573 0.13508220619 0.66428177104 
0.62520568252 0.1510242836 0.7653913254 0.65926278352 0.16998918083 0.72865086125 0.55302362448 0.18372837493 0.80660278095 
0.55710111092 0.19056556634 0.80372453898 0.43693357144 0.22893187916 0.8693223228 0.42896564048 0.17901972112 0.883844649 
0.34724626487 0.21421774218 0.91085469419 0.32872331397 0.18795711986 0.92324436582 0.25328595176 0.21048756438 0.94141861948 
0.2531023617 0.20956686773 0.94234396148 0.13730232061 0.20558909692 0.96348887942 0.15986223194 0.21897235527 0.96198771012 
-0.07876393759 0.16282014773 0.97403196491 -0.06019411355 0.17869830691 0.96896040093 -0.26229749775 0.14742526994 0.94448391015 
-0.27016236194 0.14523198936 0.94166120761 -0.41920563664 0.14605704071 0.89466885307 -0.44919856977 0.12493328824 0.88344005851 
-0.51576127488 0.14849643867 0.8408247402 -0.5533629514 0.12480368618 0.81871098344 -0.58321527101 0.1526979679 0.79635382583 
-0.6236009047 0.13715093962 0.76877560982 -0.63276728134 0.15651624118 0.75805517945 -0.65237190746 0.16113342592 0.73986662324 
-0.66950058545 0.15218695644 0.7263564183 -0.66733266542 0.16841107988 0.72517574638 -0.72955678263 0.13432133226 0.66499827173 
-0.72211230496 0.15479752461 0.67102706897 -0.80365942189 0.10862962183 0.58391058033 -0.78081915268 0.13756244408 0.60905429535 
-0.87976035167 0.090423517387 0.45081922588 -0.83980007574 0.1180101503 0.52223547885 -0.93266413011 0.071116801293 0.35122079821 
-0.89422272523 0.096143128794 0.43300119561 -0.95200433137 0.050217628287 0.30008273607 -0.93279372687 0.082758476314 0.34480585957 
-0.96764730852 0.040501597169 0.24431274915 -0.95883764352 0.064009661881 0.270140799 -0.98170619703 0.030999036026 0.18316285507 
-0.97836953184 0.040615984086 0.19947019556 -0.99284009541 0.0019475505445 0.097287923288 -0.99171449618 0.022019717564 0.096286789107 
-0.99818920995 0.010235960507 0.028739016016 -0.98625522983 -0.032260745862 -0.054815548979 -0.99763178635 0.05665017129 -0.022119200067 
-0.93199320476 -0.1407105802 -0.31711089313 -0.90285022422 -0.071086968155 -0.2929069896 -0.85441807801 -0.18143395967 -0.46832173073 
-0.80740272444 -0.19999733934 -0.55475548801 -0.78757138883 -0.20038543773 -0.58220801031 -0.78874273437 -0.18669668797 -0.58504686483 
-0.76387531623 -0.18637440973 -0.61714190518 -0.77380661521 -0.17057058183 -0.60962435085 -0.74798577108 -0.17258384812 -0.64062845005 
-0.7616435254 -0.15226798022 -0.6298025379 -0.73636588813 -0.16059878603 -0.65697992411 -0.68481405074 -0.16113756218 -0.70559778573 
-0.6770840375 -0.15720056586 -0.71583456926 -0.59753695994 -0.16490880879 -0.77965841013 -0.59969049596 -0.15661761142 -0.78067135259 
-0.49380448623 -0.16064998816 -0.85098693828 -0.51086823537 -0.15040449594 -0.84386651224 -0.42647546561 -0.16086425378 -0.88875851364 
-0.4585070571 -0.14760588785 -0.87558926416 -0.37370331997 -0.16181766858 -0.91319325482 -0.42597415965 -0.14294487352 -0.89293358862 
-0.32816732256 -0.14434536341 -0.93246292831 -0.37826306908 -0.12614856066 -0.91562679272 -0.24276018982 -0.13162209414 -0.95386748928 
-0.30107755925 -0.11170249334 -0.94224719732 -0.070288938991 -0.12926899914 -0.97993387124 -0.11920503096 -0.12189903162 -0.9751780937 
0.090564500349 -0.11880923095 -0.98089231042 0.063838234645 -0.13162278808 -0.98209578008 0.24183234326 -0.101660828 -0.96113474754 
0.21903333342 -0.13086244227 -0.9634849408 0.3813789641 -0.13059762806 -0.90480607612 0.35725196777 -0.12607809624 -0.91822170408 
0.51503659262 -0.16831169109 -0.84019121774 0.49519216343 -0.1181937279 -0.86003496012 0.58012160035 -0.13627820702 -0.79974444451 
0.57339989501 -0.12649021564 -0.80594436553 0.64625750838 -0.11058563676 -0.75266891867 0.64017378406 -0.12412354972 -0.75606080262 
0.71534989066 -0.10273181687 -0.68694487203 0.71473221191 -0.10981885936 -0.68612164196 0.78120688385 -0.09864404481 -0.6104757585 
0.79012358622 -0.10305205889 -0.59738655982 0.84377259326 -0.098387382964 -0.52307594591 0.86307489705 -0.10024001403 -0.48883893598 
0.90767125002 -0.082961121193 -0.38446493679 0.93068196122 -0.084448287597 -0.31977949667 0.52367310231 -0.088920192005 -0.83916906096 
0.70587217872 -0.0059539657399 -0.70337857912 0.24262986472 -0.20951423571 -0.94076055806 0.011586628613 -0.22945131786 -0.97112500323 
-0.10680664528 -0.1763744129 -0.97782312028 -0.23111417951 -0.1703021211 -0.95686771905 -0.35100919597 -0.15627511924 -0.92230285483 
-0.42205873637 -0.12532750513 -0.89653212263 -0.51039679091 -0.10447617154 -0.85142485645 -0.62150642197 -0.08583512551 -0.77433441343 
-0.74624622158 -0.087686555552 -0.65529345243 -0.85708767075 -0.080304279588 -0.50427656423 -0.93556624853 -0.065163037187 -0.34010683013 
-0.98064921978 -0.032789441713 -0.17977130515 -0.99764823732 0.017473786147 -0.024893937509 -0.99073497013 0.08800595393 0.087683579384 
-0.9603458995 0.12004756909 0.24487548246 -0.90765923477 0.13248420461 0.39612121635 -0.85820993584 0.17522096 0.48225298662 
-0.785506676 0.18985945908 0.5856452413 -0.7033487639 0.19720468039 0.67943174099 -0.61502283551 0.18818954857 0.76065697576 
-0.45326743867 0.14168584468 0.87269077709 -0.15497331375 0.044182930916 0.97784629652 0.14236273943 0.031185111112 0.98697967141 
0.30908602644 0.047158724461 0.94870276812 0.42505689311 0.073212527354 0.89976038016 0.51277651283 0.095510211328 0.85070589689 
0.58700553571 0.11552426972 0.79971300471 0.64631322136 0.12823131955 0.7514872816 0.71653512668 0.11848713243 0.68633428442 
0.80517150617 0.10320356798 0.5788439543 0.88108551202 0.078012948926 0.46115793268 0.93248309018 0.055634595023 0.3547663219 
0.96823168969 0.032173920778 0.24397732871 0.99196123951 0.013147119754 0.11171494635 0.99930150797 0.0072026501286 0.021647715843 
0.99603335342 0.02603172655 -0.066680260457 0.98224605998 0.036589585577 -0.18013125338 0.95586000121 0.13266611355 -0.24835108414 
0.89366570797 0.1505504293 -0.39793295173 0.81256968984 0.062122831004 -0.57721981427 0.99351443696 -0.060723578386 0.074550976577 
0.99230886346 -0.081762559749 -0.037142534068 0.98566308886 -0.040829371945 0.15867401595 0.97391742393 -0.025809302756 0.22113556663 
0.96453374573 -0.0035106893791 0.26344959712 0.95229722117 0.0081589461618 0.30438022547 0.93368615086 0.022075178654 0.35431495923 
0.9116185695 0.043779333837 0.40831895933 0.88333377121 0.072854459782 0.45978139118 0.85618753836 0.10615464317 0.49867444571 
0.81099663855 0.15460670489 0.56127102228 0.72555804856 0.181397015 0.65237016161 0.59174921981 0.19444259166 0.77708588044 
0.42136236638 0.17385432125 0.88332728042 0.30854818828 0.17745004739 0.93298298359 0.2362335691 0.20088056958 0.94968025609 
0.13600723619 0.21585744935 0.96488666658 -0.035421623349 0.18727263369 0.97728841699 -0.23854729296 0.1539343586 0.9494548712 
-0.42014210211 0.11380712543 0.89655964705 -0.54392294252 0.093574080194 0.82890171854 -0.64965256595 0.089545956389 0.75216450906 
-0.69884572165 0.12168581921 0.70286968479 -0.69634899442 0.15106937489 0.70148066888 -0.72745029234 0.16490370556 0.66581110077 
-0.70311471662 0.16860578989 0.68961372843 -0.76945403815 0.16006604647 0.61425691583 -0.81848398421 0.15511475931 0.55077837496 
-0.86977653416 0.14095793232 0.46224671294 -0.9303412459 0.12238294809 0.33385332404 -0.9706788442 0.083292612604 0.2194664265 
-0.98920166674 0.034913259331 0.093092732613 -0.97819602895 -0.070790699648 -0.11530867619 -0.94066274514 -0.13885496439 -0.2921471744 
-0.85650719866 -0.21251289887 -0.45929734885 -0.80219087673 -0.21896533137 -0.55282188687 -0.75988463771 -0.2123467973 -0.61285614654 
-0.73746545478 -0.2007354819 -0.64328311514 -0.71751228077 -0.16178113266 -0.67701713544 -0.68163494269 -0.14420502031 -0.71604570903 
-0.60909094322 -0.15005775816 -0.77502212949 -0.51733504738 -0.15976897378 -0.83827012479 -0.45593383732 -0.15131625674 -0.87495844843 
-0.41631139515 -0.1366638917 -0.89874176236 -0.40128736869 -0.10766322275 -0.90895020664 -0.35701098685 -0.10531122798 -0.92197962894 
-0.30614071262 -0.05104061536 -0.94202949684 -0.17179652343 -0.028594512109 -0.94005721595 0.20694810599 -0.12130992784 -0.95564836047 
0.35662111622 -0.12594437181 -0.92211478266 0.45555919698 -0.11193757497 -0.88142318592 0.5434498972 -0.11035662057 -0.82938840116 
0.61707289638 -0.10813939112 -0.7766507667 0.68738501608 -0.11246461998 -0.71528942639 0.77107855798 -0.10791146078 -0.61794891899 
0.85311185204 -0.10076409812 -0.50876668363 0.92311426412 -0.10576057436 -0.3488828569 0.97385524434 -0.09618865026 -0.18960043843 
-0.69322321492 0.16662925759 0.70076655091 -0.68569059733 0.1547561514 0.71112512301 -0.18054192931 -0.13734133676 -0.97187799444 
-0.094341824327 -0.17931379135 -0.97801034464 -0.2879137092 -0.11868469599 -0.94787035886 -0.39184656742 -0.11462173878 -0.91232703696 
-0.45300394365 -0.11064759841 -0.88303889366 -0.51149101724 -0.11129634482 -0.85065084647 -0.59844233915 -0.095788618874 -0.79393044808 
-0.71962398915 -0.094423848945 -0.68467167961 -0.82899922226 -0.082614981932 -0.54716958069 -0.91595495352 -0.067624762007 -0.39000330304 
-0.96537494312 -0.015681280776 -0.24878383594 -0.99407743864 0.031907344489 -0.070626898815 -0.99194877323 0.089680778189 0.066552221863 
-0.97111690872 0.13172559625 0.19072669662 -0.93034697587 0.12880432882 0.34216173985 -0.87930560641 0.14200783855 0.45139568048 
-0.81312488717 0.14948845425 0.55637077717 -0.7270721533 0.1526732804 0.66530353696 -0.64327596066 0.15060984041 0.7488972229 
-0.49187624057 0.10575890567 0.85838803069 -0.29092224154 0.060893754042 0.94190308784 0.31914764982 0.023174092584 0.94572842062 
0.19813526688 0.013920407331 0.97602813739 0.4293868239 0.037754374573 0.90130047145 0.5310010916 0.045636382624 0.84422433442 
0.61863589644 0.070506297294 0.78118749859 0.67166204916 0.093794332604 0.73438386711 0.7415409069 0.10381195287 0.66023243128 
0.81532709649 0.096527952333 0.56585586392 0.87912734784 0.073996747067 0.46810056494 0.92184301216 0.060121256217 0.38105190299 
0.95576006642 0.0642414272 0.28421444286 0.98324824138 0.036568630219 0.1721216168 0.99366732194 0.06803831423 0.053408707973 
0.98055578368 0.16013315395 -0.077916512804 0.92509612809 0.21310161519 -0.27379427733 0.89830557661 0.26528022949 -0.32020392622 
0.81591347462 0.19162788385 -0.52601717867 0.74236112325 0.02037299902 -0.66561418294 0.63718096792 -0.048618541511 -0.76110654792 
0.51643132758 -0.092042631063 -0.84213383678 0.080842846904 -0.00286380407 0.99164069931 -0.14971367642 0.033128321963 0.98399842993 
-0.70128044853 0.15821601771 0.69458981851 -0.67523397199 0.14253264856 0.72352181925 -0.70822151129 0.15746453407 0.68769503435 
-0.74613806087 0.1611253601 0.64356656311 -0.7953569103 0.17474916177 0.57394119178 -0.86035051046 0.16870052941 0.46587112754 
-0.93206553078 0.13307136389 0.31695592719 -0.97515154176 0.074872743692 0.17259342492 -0.99593629147 -0.0043338073372 0.028174619562 
-0.86704759147 -0.2139826751 -0.44523839757 -0.93022235322 -0.13990733142 -0.31602665554 -0.80821061128 -0.22633269511 -0.53803082614 
-0.75633029469 -0.23372058254 -0.61057310361 -0.7039441265 -0.20949343409 -0.67450989909 -0.66561145232 -0.176919211 -0.72414655084 
-0.63855418649 -0.1539920252 -0.7524117546 -0.55457461868 -0.15624086479 -0.80966932994 -0.4342700492 -0.1712851036 -0.88083163731 
-0.36991105733 -0.16824765901 -0.91210319259 -0.38584029657 -0.15675932019 -0.9084645312 -0.40967791651 -0.15855362612 -0.89826427644 
-0.41932461568 -0.12713206538 -0.897263598 -0.42977517788 -0.067526465083 -0.89886895032 -0.16328369651 -0.076704795354 -0.93509076127 
0.18409899242 -0.11373886149 -0.97400549179 0.31464835013 -0.11102730587 -0.93640360883 0.43678897551 -0.10898243963 -0.89139688207 
0.52542217556 -0.10351852375 -0.8432914402 0.61249814372 -0.10517162358 -0.78005786515 0.70034233511 -0.11394980762 -0.70099785486 
0.7843222254 -0.12550336123 -0.60039950773 0.86243886355 -0.137733613 -0.4826856864 0.92310753475 -0.1303300625 -0.3396505223 
0.9742523986 -0.1193017607 -0.16535382517 0.99065215491 -0.11196398184 -0.016960222406 0.98835195393 -0.082361583701 0.10229794757 
0.97622232739 -0.053932526447 0.20248286674 0.96309556909 -0.040366176754 0.26368696169 0.95434773312 -0.0067777722042 0.29829484446 
0.94918702888 0.0061414330924 0.31423773881 0.9394678963 0.024446460935 0.34069178153 0.92745876905 0.053017035751 0.36943343406 
0.91951493174 0.096668599153 0.37894147545 0.89746600676 0.14030059455 0.41199331409 0.85841867465 0.20176697336 0.46850054886 
0.77671419638 0.21654525148 0.57917959058 0.66835603872 0.21601930564 0.70457476815 0.50042824345 0.19456938219 0.83529712298 
0.34720238826 0.17496851162 0.91592558699 0.22320860079 0.17856316159 0.95730116485 0.13080682547 0.19952958225 0.97038806785 
-0.058471198069 0.17548119359 0.97384281005 -0.2401009555 0.14315906437 0.95365208801 -0.39371232216 0.10465403793 0.90974069734 
-0.54289324419 0.083224598178 0.82598728588 -0.67025003433 0.068547107766 0.73793135837 -0.71256038856 0.08390022648 0.69391480445 
-0.74755046062 0.10844931865 0.65510701037 -0.70647321996 0.13972534276 0.69318070448 -0.68039382922 0.1233893416 0.72174677173 
-0.64313812611 0.10490284068 0.75832888646 -0.6470389324 0.098456695713 0.75528426294 -0.96835379294 -0.094854412995 -0.19918683158 
-0.99260221009 -0.049681467026 -0.060629610572 0.064856818885 -0.0020558530257 0.99662168622 -0.046680383295 0.027698797604 0.99590321075 
0.19158373323 -0.0088025977438 0.97967338233 0.31513940638 -0.037304570126 0.94591759142 0.41957464305 -0.03116062767 0.90623263625 
0.51996874606 -0.0103681642 0.84959285039 0.60843881222 0.013925136288 0.78930956023 0.6817731231 0.039601437724 0.72881667365 
0.73374716969 0.064383982079 0.67371338928 0.80966044818 0.069660951653 0.57904607143 0.86612530848 0.059097030533 0.49284991023 
0.91061504398 0.052555517853 0.40927124578 0.94633566707 0.051494368355 0.31287003119 0.9692834744 0.075918127613 0.22547976142 
0.97848895098 0.12963639558 0.14099991382 0.97248407856 0.21532562061 0.072404703675 0.84888231988 0.31819772395 -0.41592104173 
0.88538802024 0.31492740778 -0.32696069178 0.81080213777 0.19329934111 -0.5283637759 0.71638826748 -0.01259235156 -0.68862702585 
0.5869007419 -0.10980452706 -0.79984288849 0.47071467669 -0.14768844319 -0.86693330972 -0.28441457864 -0.1291568441 -0.94841566275 
-0.22093377499 -0.16008340233 -0.96139786932 -0.35403881525 -0.11223182719 -0.9273713134 -0.42649545434 -0.10928228398 -0.89739569329 
-0.50357981792 -0.11914607855 -0.85469027588 -0.54511356222 -0.1109325107 -0.83066219692 -0.5931809965 -0.09774755461 -0.79758363623 
-0.66428130715 -0.086468681983 -0.73812599343 -0.77981505515 -0.060870919173 -0.61968633773 -0.88661021059 -0.042184975975 -0.45885433703 
-0.95413001467 0.0093388742821 -0.28875556361 -0.99528108369 0.027283807007 -0.060251710071 -0.9943870318 0.056317571586 0.071513519108 
-0.97562643969 0.08054665112 0.20020128249 -0.94768124303 0.090417273404 0.30339456938 -0.91077360618 0.097852829039 0.39626550432 
-0.86038978675 0.10301008771 0.49384301227 -0.79124470674 0.10257111616 0.59772893435 -0.70175840829 0.10049390251 0.70158897842 
-0.58926066213 0.066448757926 0.79662550429 -0.3929192369 0.024681646395 0.91275588437 -0.32160368539 0.067445962593 0.93657661216 
-0.30303768274 0.11055024742 0.94158877668 -0.066648997363 0.088521230957 0.99214563143 -0.22000026231 0.10823812614 0.95903743401 
0.077544869526 0.029868222604 0.99342501939 -0.069694375312 -0.24226923315 -0.96594786476 -0.14726484521 -0.23465241876 -0.95546962436 
-0.019053424868 -0.27782384482 -0.95672591567 -0.085229716374 -0.26709279025 -0.95613221574 0.94742134939 0.27738054497 -0.14358009614 
0.94742216352 0.2977466214 0.014885718748 -0.68295129882 0.10839404928 0.72222820796 -0.75757096702 0.11971596038 0.63298715102 
-0.83722318836 0.11795768933 0.52242536494 -0.91574781499 0.08670917389 0.37224969119 -0.96640274935 0.040986176702 0.22544207454 
-0.98621400164 -0.0038642222031 0.12399171921 -0.99718227719 -0.053197982684 0.033320796729 -0.98525442516 -0.073769736833 -0.12453860902 
-0.99132112091 -0.084792130914 -0.057132552731 -0.96167214903 -0.1020390572 -0.24198451215 -0.90687428878 -0.15649104331 -0.37926619499 
-0.8450485202 -0.20236419875 -0.49198631682 -0.77423561024 -0.22375392952 -0.58365192136 -0.70320506437 -0.23700313015 -0.66946537803 
-0.65989492516 -0.22128923485 -0.71595009908 -0.62044124574 -0.19249390387 -0.75719403144 -0.52734840884 -0.19309103765 -0.82208543466 
-0.3992110536 -0.20094631989 -0.88587708574 -0.28383297811 -0.1792090277 -0.93882065247 -0.29280729627 -0.16709717223 -0.94076816534 
-0.33820958139 -0.15935662755 -0.92687148877 -0.40333569228 -0.16198667492 -0.89963587341 -0.32956995224 -0.16230478063 -0.91782021928 
-0.20014966182 -0.15453061546 -0.95898480642 -0.0057444268416 -0.14300990755 -0.98048482492 0.18351430039 -0.12371457343 -0.97226732413 
0.31483191282 -0.10863352001 -0.93933871307 0.4239277372 -0.099211025433 -0.89962271508 0.51851530511 -0.09942615673 -0.84524276669 
0.61133480322 -0.10770205206 -0.77840758594 0.70330358742 -0.12868091047 -0.69305324694 0.78778523186 -0.15106873238 -0.58525201966 
0.86732122743 -0.17624874887 -0.46133731207 0.91881942461 -0.18374157044 -0.33593142731 0.9784029207 -0.15120425351 -0.098493114549 
0.98235438273 -0.1452932337 0.051027613555 0.97593963098 -0.11826998925 0.16287750279 0.96398997035 -0.071497862823 0.24827412695 
0.9571113148 -0.0431456891 0.28537585845 0.95225645464 -0.020924376627 0.30452712363 0.947885496 0.0096483604242 0.31747324838 
0.94642666002 0.042708127493 0.31861069892 0.94805262409 0.076562454382 0.30842435397 0.93296075453 0.13053802071 0.33097867527 
0.90768591967 0.16296816044 0.38256478483 0.86031294134 0.18245696647 0.4714832975 0.78092249945 0.19225701905 0.58483365276 
0.66300037903 0.18817806891 0.7217545558 0.52012355442 0.16698317553 0.82998842936 0.38736825834 0.15036133267 0.90633244008 
0.31298282469 0.16192536238 0.93216883263 -0.16340240175 0.12608074836 0.96942804761 0.017452293305 0.1571392614 0.98419881532 
-0.32371670717 0.10988275755 0.93406740818 -0.4666336818 0.097676729922 0.87304370382 -0.60508967594 0.081148938582 0.78041072129 
-0.70793631779 0.075142438668 0.69820477207 -0.73011730017 0.086711617695 0.67639389793 -0.73269555029 0.10421641495 0.6714611958 
-0.76104756928 0.11409867077 0.63745155676 -0.74204635507 0.12308623321 0.65646148239 -0.69179220272 0.10344677161 0.71127285491 
-0.60302296734 0.044982281228 0.79510504695 -0.69171601622 0.06145723517 0.71783844929 -0.5995308313 0.05417635331 0.79764953242 
-0.64222405207 0.070765141347 0.76030967911 -0.73686859333 0.063117995436 0.66200570116 -0.84036047868 0.031477051648 0.5257890103 
-0.91798833278 0.0077971330893 0.36640853369 -0.965739437 -0.017714276897 0.23410973433 -0.76524956582 0.10673487675 0.63412186212 
-0.75894985753 0.1201046454 0.63980330587 -0.77646196558 0.079305578327 0.62424998334 -0.73944755562 0.056495616326 0.66815906303 
-0.66994238806 0.014033507838 0.73979905424 -0.77651522726 0.040233895688 0.62864214863 -0.6175962252 -0.0057084850955 0.78607312163 
-0.61113215531 -0.033530625334 0.79023292244 -0.65202613574 -0.013284015357 0.75346231451 -0.71437803336 0.0232182264 0.69704747796 
-0.82113662107 -0.012067536912 0.54162553086 -0.92108084947 -0.054691612087 0.37523709169 -0.9710512903 -0.059978343836 0.20537915308 
0.18585757979 0.17695502052 0.96338585811 0.26623233338 0.15335026516 0.95147679404 0.17521320811 0.010930751514 0.98377570789 
0.28040956758 -0.0032825820885 0.95574572513 0.3879340366 -0.015511288283 0.91758075784 0.51400604882 -0.031480094339 0.85530343926 
0.61554533773 -0.034737856257 0.78355227334 0.69420832802 -0.018793926732 0.71842395897 0.75542817334 0.01042488122 0.65267392319 
0.80391081636 0.038723980188 0.59127469746 0.84775219381 0.053117416482 0.52584047652 0.89240453755 0.061749527593 0.44538261652 
0.93182294542 0.070553909107 0.35434328811 0.94748058914 0.09891424896 0.29947016538 0.95177071767 0.16489738449 0.25737623615 
0.95182217613 0.23018815136 0.18303089586 0.94456599561 0.29077974139 0.14691313585 0.94383605389 0.3214213692 0.025977702553 
0.93541851827 0.30826625694 0.14601955576 0.937605872 0.31685270469 -0.096944957298 0.91495415478 0.3158310852 -0.24241688808 
0.87159830436 0.26039067987 -0.40007756252 0.80773948196 0.12946504083 -0.55589920927 0.68323933728 -0.028589567873 -0.71683663423 
0.56147622754 -0.11664070682 -0.81129767758 0.44567610409 -0.16009100988 -0.87739549924 0.26518890521 -0.23908811984 -0.92731257872 
0.30310949347 -0.19834178299 -0.9275214697 0.10292233243 -0.26945001134 -0.94855879746 0.1284487592 -0.26966202 -0.94561739603 
-0.023984566425 -0.32084984587 -0.94103289511 -0.13442938897 -0.33099165966 -0.92923175185 -0.20114186122 -0.28569818406 -0.93144643949 
-0.2638026162 -0.23005619976 -0.9345118967 -0.31957470966 -0.17283638508 -0.92905694104 -0.37853715423 -0.1406156812 -0.91415203016 
-0.42445945343 -0.13774190649 -0.89429107195 -0.48200824284 -0.1244254749 -0.86649131415 -0.52276448418 -0.10930310819 -0.84483951121 
-0.55666058278 -0.058118537078 -0.82656320532 -0.6051698382 0.0034951363173 -0.79274480631 -0.6888133125 0.049982290057 -0.72216322155 
-0.81309191892 0.050610716184 -0.57387140644 -0.91177849962 0.0081041582762 -0.39693064103 -0.99130921868 0.029899736123 0.12011033909 
-0.99691305912 0.0090414323943 0.00510595041 -0.9684541891 0.035650783428 0.24352111473 -0.93712607458 0.022156385565 0.3448996796 
-0.91393563619 0.016502636832 0.40297033006 -0.87522259121 0.011231736702 0.47905119456 -0.82652251492 -0.0067736108243 0.56162146167 
-0.75416449016 -0.022668905192 0.65144409125 -0.68015332016 -0.024823319872 0.72743025496 -0.5974563874 -0.00083734574448 0.80019936435 
-0.49527989492 0.05232892177 0.85729586743 -0.48648173154 0.10794667626 0.85989332676 -0.48451581898 0.15301529334 0.85423641542 
-0.20666541506 0.12884783243 0.96324642486 -0.3805554758 0.12701649334 0.90534371764 -0.0391158344 0.10573816702 0.98933600023 
0.058486959042 0.093952621443 0.98988700055 -0.98856962936 -0.028077955499 -0.11655555884 -0.96311726377 -0.022403103942 -0.25276953939 
-0.99364711671 -0.084101859304 0.061153647738 -0.98749087728 -0.071498939959 0.073808015057 -0.99256333809 -0.077855220222 -0.054907628017 
-0.99305114434 -0.092469980787 -0.0056104507193 -0.97853276348 -0.093485936349 -0.17484347379 -0.953828887 -0.10467612159 -0.25787552896 
-0.91525235649 -0.12834801911 -0.35829254625 -0.85606577698 -0.16058394859 -0.48553564152 -0.7748336634 -0.20260922363 -0.58664871612 
-0.68536917923 -0.24737307592 -0.68346337535 -0.62136696009 -0.23744101345 -0.74284112021 -0.55341555632 -0.21951715586 -0.80198106965 
-0.4440352116 -0.20421337325 -0.86556137395 -0.31702498838 -0.19707504288 -0.9234471682 -0.21242323926 -0.18132814801 -0.95815771585 
-0.21490295627 -0.16313302303 -0.96263374438 -0.29278109291 -0.14832555175 -0.94149194624 -0.37172069971 -0.15331638776 -0.91376334053 
-0.36395597636 -0.14794574493 -0.91829823839 -0.29875897878 -0.13722818444 -0.94250062285 -0.062184604311 -0.13228113105 -0.97547994932 
0.13123226752 -0.11188902502 -0.98388279881 0.24900756821 -0.098044190585 -0.95813469121 0.3506525728 -0.090213810756 -0.93037234446 
0.43757894802 -0.084962716152 -0.89118835163 0.53353952064 -0.090029869155 -0.83665245776 0.62764360717 -0.10895958434 -0.76651308683 
0.71910391099 -0.13441435888 -0.67298387274 0.81306117183 -0.17729143357 -0.54479241432 0.90068426343 -0.20120487943 -0.34874379363 
0.98306349229 -0.12795449188 0.11134263889 0.97512276185 -0.17212426431 0.011654960152 0.97417201503 -0.099445751489 0.18968589776 
0.96326594776 -0.065042023218 0.2576843051 0.95418005144 -0.034857784537 0.29568044067 0.95149335208 0.0078993891454 0.30651284778 
0.95504814254 0.038198664386 0.29364458512 0.95937612771 0.05749343363 0.27487887104 0.96199659252 0.099434362914 0.25263852015 
0.93995928296 0.13365107877 0.30617975224 0.90233237184 0.14918490331 0.39776082361 0.84708526379 0.14683923375 0.50423462918 
0.75417676804 0.13639395617 0.62769978198 0.64694304573 0.12103303848 0.74995435406 0.50973197417 0.11642295527 0.84223414627 
0.39403680725 0.11895670348 0.90993579898 0.33612291415 0.13138964724 0.9297194267 0.34342689891 0.1322865237 0.92815860295 
0.25714142899 0.15308908988 0.95077786557 0.35599095053 0.13506840973 0.92227025117 0.080827581497 0.13552137094 0.97932607708 
-0.0048951493334 0.14879160766 0.98150370559 -0.16637068884 0.12155438179 0.97125190189 -0.33956240464 0.10166954947 0.92931718468 
-0.48663052409 0.1043275977 0.86262469306 -0.60732144328 0.098334216386 0.78167041259 -0.70281826587 0.094011354375 0.70371887539 
0.96940375291 -0.19337847419 -0.10961911534 0.95308580121 -0.13561957628 -0.25281989394 -0.97768775842 -0.082722632794 0.15827643084 
-0.99160874288 -0.1031076159 0.052304374936 -0.9906341963 -0.092265155007 -0.068356178396 -0.99188814704 -0.099390623763 0.031891196011 
-0.98911993664 -0.076860258608 -0.12114708884 -0.97387217088 -0.08365391822 -0.1809346839 -0.95451607426 -0.099492386532 -0.26607333328 
-0.93124934726 -0.10766810937 -0.33166036666 -0.8822106715 -0.12522879295 -0.43506274554 -0.79395928714 -0.15529194366 -0.55962774183 
-0.69782304606 -0.1849258131 -0.69026036765 -0.62262940838 -0.18690033171 -0.75419077176 -0.54034077702 -0.18410888032 -0.81789486701 
-0.43759183814 -0.16204979808 -0.87773722362 -0.31889426064 -0.1485137632 -0.93134134926 -0.19325882419 -0.14145644515 -0.96724629742 
-0.13902002852 -0.11952119263 -0.98265489793 -0.28827080633 -0.14292554219 -0.94327445433 -0.38651846161 -0.17339786308 -0.9044151085 
-0.35399930046 -0.18161798447 -0.91403877936 -0.272987716 -0.17691916041 -0.94175593888 -0.12585781335 -0.12769039761 -0.97613126296 
0.026681632989 -0.10126066553 -0.99015514971 0.16698624846 -0.10534200517 -0.9735714495 0.28433810732 -0.098955998615 -0.95159689304 
0.36809080745 -0.07734875922 -0.92444473122 0.47363407584 -0.072971113723 -0.87254709507 0.58612722113 -0.077933853616 -0.80425034883 
0.68388863672 -0.10111775415 -0.71140411764 0.7690880195 -0.12158670651 -0.61414906371 0.88385795125 -0.12371015718 -0.42834293158 
0.94338928978 -0.13659158366 -0.23043331778 0.97974306545 -0.15318970682 -0.030466412422 0.97318101438 -0.032426337616 -0.19597798368 
0.98207053894 -0.15865220082 0.0089996638923 0.98361309327 -0.1260435215 0.046640915958 0.98268590504 -0.10510671221 0.13841701955 
0.96963184277 -0.07308795981 0.21680126843 0.95765096232 -0.038944436327 0.28458657322 0.95104407406 -0.023763244301 0.30692222995 
0.94771385496 0.0060756627405 0.31832727443 0.95211247129 0.03035020337 0.3028748688 0.95972916566 0.051223822308 0.27452217589 
0.97162939591 0.057734951105 0.22829759739 0.95832103414 0.091686456949 0.2581548653 0.91184652755 0.10794251334 0.37984730625 
0.85321707119 0.099345435146 0.50854842201 0.77815170282 0.096274160294 0.61108376937 0.69513826502 0.094374721931 0.71045049389 
0.57600810255 0.11032214013 0.7985727689 0.44503791515 0.12073587804 0.88490426948 0.42249173916 0.10281321637 0.89805410102 
0.35286778237 0.10772386406 0.92873771781 0.4516674689 0.086536464387 0.88537024043 0.21134920871 0.13095135486 0.95941704472 
0.12321588467 0.1586805871 0.9782255311 -0.058198106536 0.13046998835 0.98219384575 -0.16867006799 0.12394184799 0.96860553861 
-0.3294268981 0.1080837185 0.93155488794 -0.49475396675 0.099961667577 0.8563244486 -0.64458903671 0.10995743041 0.75065234669 
0.18377866745 0.055281385188 0.97479427717 0.32769737072 -0.0034797187024 0.94122333527 0.4534950653 -0.035603884186 0.88538766402 
0.55236102376 -0.059727786852 0.82998023787 0.63387025812 -0.056817530657 0.76675662 0.70854469926 -0.049811812048 0.70235849224 
0.76181657411 -0.027816694555 0.64469375795 0.81165096048 -0.0055616630189 0.58048487166 0.86069780404 0.020556438224 0.50784393851 
0.90015004278 0.040778619496 0.42983663279 0.92611919788 0.071264882753 0.36731783512 0.93912753311 0.11656002212 0.32076379309 
0.93575323639 0.18590433656 0.29644430446 0.93166307628 0.24671119123 0.25618562433 0.93040820397 0.28678737085 0.21694592922 
0.93286170112 0.25703667645 0.24566304885 0.94908488062 0.24342438267 0.19185652878 0.92946699994 0.19126516332 0.31429679497 
0.94393455867 0.32293942569 0.0088532542537 0.93795237885 0.32657604315 -0.081858596533 0.93090386218 0.28339195273 -0.22385477024 
0.86869050811 0.17278912313 -0.42268675905 0.78718860865 0.061507175491 -0.60410678715 0.6664285675 -0.040184452587 -0.73258750892 
0.5331313467 -0.11935994136 -0.82844832058 0.39443788464 -0.17206948215 -0.90055265715 0.23061210262 -0.22030589502 -0.93693756626 
0.084837387429 -0.27767185777 -0.9500730352 -0.029804529762 -0.3209983472 -0.94021001512 -0.13386632893 -0.33048199833 -0.93174451989 
-0.20556103901 -0.31942011475 -0.92199804377 -0.2719736102 -0.27479311966 -0.9204919781 -0.32027772003 -0.2072879202 -0.92257628147 
-0.34228942401 -0.15880052608 -0.92557702523 -0.36946597708 -0.11729483621 -0.92115036901 -0.43452098471 -0.099518568701 -0.89483889646 
-0.49726440448 -0.070929862769 -0.86218003758 -0.53623137734 0.0006104179233 -0.84021315 -0.59986239963 0.068786281874 -0.79619570484 
-0.69870922182 0.073555736169 -0.706887931 -0.79055304025 0.058097538139 -0.60118143648 -0.87060957515 0.039831800317 -0.48275630845 
-0.9366286815 -0.02403352886 -0.33597110272 -0.9876018984 -0.076953857889 -0.097903042705 -0.97663536175 -0.096611967517 -0.17336818881 
-0.99615594568 -0.045063099823 -0.027047565716 -0.99287049462 -0.037943015787 0.08165959397 -0.97738184122 -0.021095485803 0.19383797449 
-0.93868800766 -0.02756790172 0.33399452032 -0.89397067272 -0.025153493765 0.44424442802 -0.86484275883 -0.035416335952 0.49973181065 
-0.837319204 -0.053136779639 0.54162298584 -0.78710556898 -0.060165441447 0.61362948926 -0.73792757423 -0.042798223185 0.67076086091 
-0.68858562058 -0.017353750946 0.72316011992 -0.66615187941 0.035351279957 0.74099206013 -0.65815499077 0.098969187764 0.74474203451 
-0.60265135418 0.086565478102 0.78710033526 -0.55723348105 0.080145019123 0.82427370396 -0.49570844653 0.086267633394 0.85943587275 
-0.25828635511 0.12312368123 0.95643279237 -0.39372357458 0.092884211804 0.90986568734 -0.22169492187 0.14607417963 0.95712363165 
-0.064854542719 0.11926581607 0.9818113405 0.11013185568 0.068340421522 0.98806059255 -0.94968921189 -0.09115507919 -0.27556507882 
-0.8510625115 -0.12927520511 -0.50237903741 -0.7524896267 -0.14343071306 -0.62710385042 -0.66269380965 -0.14875577119 -0.73325384234 
-0.58385439659 -0.14801650236 -0.79251804388 -0.50058605932 -0.14816077009 -0.85160768356 -0.37079334155 -0.13662671972 -0.90935709212 
-0.25191339553 -0.11798822673 -0.95976772004 -0.19840446839 -0.075217601594 -0.97483532316 -0.17083273766 -0.03021864418 -0.98412435579 
-0.36345761858 -0.17054193901 -0.91471595765 -0.25211452347 -0.12588871086 -0.95517359975 -0.36515975769 -0.18741593697 -0.91058502811 
-0.27842073212 -0.18681944148 -0.93738028918 -0.10606441782 -0.14355567133 -0.96871986477 0.062323292517 -0.10913905758 -0.98941789134 
0.17186468326 -0.10635989012 -0.97403532399 0.27690518227 -0.10040286594 -0.95273468351 0.3772022856 -0.084913886696 -0.91662691616 
0.48940988317 -0.073720890077 -0.86320268769 0.59972856568 -0.078871406138 -0.78641537547 0.70971083563 -0.087485665153 -0.68676013377 
0.80241929049 -0.083340558219 -0.56603462724 0.87299108519 -0.064089889633 -0.46823512379 0.89182441972 -0.018312106731 -0.40283750931 
0.9531088221 0.020413216204 -0.26088363357 0.99028938089 0.04761065028 -0.064473763405 0.97829719008 0.087851137946 -0.10829699961 
0.98492330827 -0.0023993690486 -0.034379524762 0.98052879219 -0.068247126137 0.091237404052 0.97607985743 -0.075863776796 0.18012807679 
0.9691518794 -0.062408595184 0.23375530417 0.9582206913 -0.04797747682 0.27655204979 0.94910852756 -0.033688555703 0.31293174718 
0.94087500359 -0.0035118040275 0.33627533791 0.93281274407 0.03462480991 0.35795055537 0.93925807669 0.045364308972 0.33829542116 
0.95389477995 0.04682018259 0.29328947334 0.96943649534 0.02702469482 0.23957413128 0.96737716825 0.010975348107 0.24755417608 
0.81561657168 0.048568450769 0.57552184262 0.87708697769 0.047045236362 0.46819086545 0.72859323162 0.054676140983 0.67368237781 
0.62059360799 0.060952226415 0.78040826275 0.50922793716 0.077566516082 0.85140727064 -0.17613302738 -0.085032799499 -0.97979226926 
-0.19553068795 -0.028914214242 -0.97965686645 0.5571459316 0.065241359278 0.82395671328 0.42880185167 0.093320086508 0.89540517504 
0.53007772959 0.080627550046 0.84241226166 0.34043745313 0.10010033129 0.93107308044 0.15597398524 0.11305816235 0.97770135634 
-0.083830815651 0.12938810595 0.97736704237 0.2811904569 0.016442839165 0.94972615846 0.40513671655 -0.017474637052 0.91315880217 
0.49103063171 -0.01608071951 0.86689634041 0.5677390273 -0.011432708962 0.82206141505 0.63640433553 -0.020066933506 0.76639826698 
0.70564966458 -0.023911699187 0.70628956798 0.7616168613 -0.021791719239 0.64434830614 0.8158884744 -0.012144348775 0.57526550596 
0.86561576927 -0.0013047721324 0.49919492659 0.91091444519 0.0075948792664 0.40847416054 0.93242232405 0.045533239431 0.35646698473 
0.93537714469 0.10480729436 0.3374843289 0.92436380163 0.1650144305 0.34149070723 0.92282538534 0.2099593068 0.32229359547 
0.93007960602 0.12643950187 0.34248547785 0.9538360593 0.1323283833 0.26107450571 0.94112159212 0.060774036184 0.33205283749 
0.95912356836 0.1733711475 0.21429780149 0.96073185204 0.24135341102 0.067111394258 0.9474036342 0.27125965884 -0.12716026041 
0.93586881369 0.27321516555 -0.2103176015 0.89893039475 0.21614278644 -0.3557332729 0.83009608321 0.14845442118 -0.51790542764 
0.71048348988 0.059785905222 -0.68326324122 0.57204514576 -0.025318487754 -0.80923692736 0.35602649886 -0.11898132608 -0.9228191506 
0.15593764662 -0.18570031397 -0.96114540541 0.0070288333801 -0.24409120282 -0.96585846113 -0.095547246654 -0.30154280653 -0.94327293416 
-0.18329030199 -0.32901407126 -0.92495691579 -0.2442584767 -0.32616836505 -0.91152222704 -0.29409145343 -0.29293914428 -0.90761255001 
-0.33190835747 -0.22145294052 -0.91502437288 -0.33029529183 -0.15202249737 -0.9299443237 -0.3297340851 -0.090456071283 -0.93901019807 
-0.39064362607 -0.056012981651 -0.91782524004 -0.45931503256 -0.012985198579 -0.88573183909 -0.51312708367 0.049947296234 -0.85431413461 
-0.57033355085 0.10935754022 -0.81331225215 -0.65932889215 0.11543370797 -0.73755968077 -0.74868240744 0.091986571367 -0.65026646406 
-0.83980243265 0.031777661027 -0.53162843523 -0.91270794495 -0.048093429881 -0.38359909866 -0.95038508454 -0.069740469451 -0.2840707815 
-0.98473192261 -0.093064288426 -0.092050686974 -0.98391397608 -0.1109692593 -0.11877564401 -0.99289289011 -0.11341957736 0.013433028102 
-0.97764925349 -0.12705436205 0.11942454346 -0.96049524679 -0.13093344444 0.23671592503 -0.92244196652 -0.12020334517 0.35311117967 
-0.87733830765 -0.094892048612 0.46586219515 -0.81397356863 -0.049659129414 0.57451810554 -0.7981634291 -0.02049628334 0.59798873085 
-0.79762195746 -0.024387132365 0.60122789536 -0.79271002221 -0.030165265544 0.60860512086 -0.76525698829 -0.025525699664 0.64239053196 
-0.74432432468 -0.011850107635 0.66598003405 -0.72683754915 0.0019951492583 0.67956289085 -0.704307857 0.013917361562 0.70560559872 
-0.69885730103 0.045024745959 0.71011829907 -0.65714490855 0.067969733503 0.74657589098 -0.56330016652 0.096682207188 0.81690171879 
-0.40173812431 0.10747679583 0.8974378935 -0.1881017676 0.10133750387 0.95848937271 -0.1516006632 0.1124308667 0.96383407165 
-0.076158762675 0.1021322774 0.97646719479 -0.73933045143 0.1214607995 0.66085661215 -0.7717166842 0.086643311227 0.62846489876 
-0.79721778365 0.061903181923 0.60045675743 -0.78984184125 0.00026780130866 0.61287959556 -0.75362219405 0.00071791347929 0.65569169559 
-0.69552764009 -0.025336586143 0.71714371628 -0.64535883407 -0.0826280615 0.75720074396 -0.63853200104 -0.14176436597 0.75494217434 
-0.70122450666 -0.13997476617 0.6892195167 -0.79476019126 -0.09946042009 0.58340397774 -0.90870829192 -0.071675473277 0.36972459885 
-0.96732508608 -0.082839100412 0.22581800919 -0.97038603921 -0.093962282921 0.18581609964 -0.99060365362 -0.095507609515 0.075861150739 
-0.98749860522 -0.087855132197 -0.091975315836 -0.98934433033 -0.10748831221 -0.011675898221 -0.98531102173 -0.095505000806 -0.10988005278 
-0.94706227136 -0.091896805828 -0.25912597547 0.42026408412 0.052753977723 0.90273701831 0.297792117 0.06747180261 0.94412234229 
0.52282230548 0.013837540656 0.84760378401 0.61336518784 -0.0010622804916 0.78816188463 0.67763251922 -0.021536927483 0.73058193423 
0.73348055054 -0.02731648948 0.67784533302 0.78099185257 -0.024897653922 0.62026922887 0.8267851505 -0.025502184139 0.56000028825 
0.86351223715 -0.022860846692 0.50165340183 0.90740027996 -0.0093105677024 0.41462525618 0.94804799399 0.016952892224 0.31692160003 
0.92825922809 0.079340238836 0.36243756456 0.922842902 0.10745563661 0.36910707608 0.96369236066 0.057732691326 0.25550966953 
0.95322103377 0.036039962864 0.29680199877 0.94530508415 0.067750842048 0.31699561216 0.9622244463 0.068857378405 0.25649829235 
0.97789016448 0.11142348517 0.16979926117 0.97383987958 0.16561723286 0.078413444907 0.96523876062 0.22613053984 -0.043008730042 
0.94775416917 0.22129111973 -0.21054172723 0.91468399623 0.1831665921 -0.32986116935 0.82755418934 0.10167312513 -0.54135625082 
0.72117638107 0.04004158209 -0.6757984767 0.61905253495 -0.0058841925191 -0.77873239442 0.54193156239 -0.017173338347 -0.82422311216 
0.059065007971 -0.14721461497 -0.9823768618 0.16389201351 -0.10519462079 -0.97603152637 -0.034775550105 -0.21226137696 -0.97168141353 
-0.16003567779 -0.25455518946 -0.94810739463 -0.26850970841 -0.28426372625 -0.91774094269 -0.3395850899 -0.27558848508 -0.89780033715 
-0.34326571261 -0.20938308907 -0.91442899767 -0.30900326656 -0.13835685544 -0.9390199138 -0.27216503673 -0.07106235801 -0.95920662054 
-0.30218975114 -0.012042965006 -0.95196297512 -0.49165518066 0.066068921918 -0.86644934862 -0.41606641254 0.033482114796 -0.90598039907 
-0.55833256603 0.095066338235 -0.82263500277 -0.62936145203 0.10333481838 -0.76636298891 -0.71181810035 0.090651152424 -0.69592246718 
-0.79123553539 0.050861207268 -0.59926712807 -0.86558900224 0.0083263209399 -0.49371419693 -0.93855818949 -0.078347960649 -0.32099107389 
-0.97115535196 -0.10262121995 -0.18965427841 0.31459071154 -0.071874517195 -0.93912601951 0.4172920955 -0.052121136116 -0.89440063729 
0.94121485986 0.013280083594 0.33267324553 0.95638190552 0.0052756722769 0.28922815613 -0.3583137723 0.077012242452 0.92508948483 
-0.51241023789 0.09298848938 0.84385880421 -0.62766610227 0.10886933855 0.76913617006 -0.68288843435 0.095082533522 0.72178686027 
-0.73516199067 0.070548741559 0.67215761078 -0.77926281886 0.01923425558 0.62460124255 -0.77542452669 -0.043522569661 0.62864654829 
-0.93044376273 -0.094517554631 -0.34129520249 -0.82990931706 -0.097807088747 -0.51230060872 -0.70784574415 -0.097993429837 -0.69446768866 
-0.61918689709 -0.083978572058 -0.7753319627 -0.53354499795 -0.069951555952 -0.84068556023 -0.44026332857 -0.055622633873 -0.89038344722 
-0.35137992835 -0.033287934652 -0.93434780013 -0.28584635012 -0.0023906251258 -0.95530612908 -0.25289137542 0.014195354686 -0.96623312873 
-0.22279299675 -0.063810872906 -0.9713815212 -0.24024464177 -0.093525362042 -0.96395451698 -0.3034647975 -0.13342940705 -0.93939422293 
-0.37367600279 -0.16532117094 -0.91161234425 -0.4011368765 -0.16277933084 -0.90039980186 -0.37970141996 -0.15776129524 -0.90533567007 
-0.23561320364 -0.13220961118 -0.95329798941 -0.051607279307 -0.10409219569 -0.98498050223 0.12633660327 -0.095024879717 -0.98019581874 
0.2331855679 -0.089896332019 -0.96607296356 0.30936173216 -0.092342519665 -0.94343481519 0.41631845724 -0.077398364408 -0.89894735848 
0.52353565883 -0.059832597441 -0.8384292231 0.63627161866 -0.041694979015 -0.76416598392 0.72725951441 -0.024864962686 -0.66940518648 
0.81971614912 -0.0023595059325 -0.56555133732 0.8916699387 0.020038674536 -0.42570283927 0.93548722488 0.065395681192 -0.28142120815 
0.94020402703 0.087686554235 -0.29314138116 0.98943641967 0.089864148686 0.03810998703 0.98274122358 0.11029658682 -0.11628392239 
0.98816192871 0.067257107361 0.085598177891 0.98563635017 0.040115699079 0.10687799368 0.9816562771 0.000548631058 0.17225626729 
0.9764695915 0.028798472426 0.20217566101 -0.94402841272 -0.10631264318 0.29969117596 -0.97442821226 -0.12028608536 0.16026157876 
-0.98925497009 -0.12131344597 0.068744568688 -0.98256549163 -0.11951479598 0.099554256449 -0.97694376059 -0.12697594299 0.1331175594 
-0.9660372189 -0.13657711539 0.21501009507 -0.8908041974 -0.15118158266 0.42153390805 -0.77771502726 -0.18451251542 0.59509341423 
-0.69774738799 -0.10026278288 0.70732109561 -0.7330405337 -0.015053318544 0.67841584758 -0.76976224635 -0.01164269617 0.63741669551 
0.92919484238 0.075163230034 0.36132920021 0.92660916077 0.068742788882 0.36913867776 0.94220005071 0.056787060266 0.32821496311 
0.96092478994 0.026721002557 0.27092979407 0.96686014507 0.011507618884 0.25334397937 0.94648966062 0.021672384288 0.30971406084 
0.90450082764 0.026771369748 0.4237935815 0.92731942641 -0.018716412445 0.36868533133 0.91538650006 0.0091263559618 0.38870375651 
0.87259241356 0.024076083905 0.477052482 0.81662087698 0.034783045687 0.57437700424 0.75006018517 0.041767382072 0.65587951299 
0.65612487283 0.055275026456 0.74703967452 0.67057074709 0.046382958324 0.73577888162 0.55591655127 0.052473399882 0.82727705412 
0.61459908991 0.039855907095 0.7846369899 0.46881125253 0.075969571305 0.87818294827 0.32054122316 0.084851104233 0.9379125513 
-0.68332700675 -0.14444280582 0.71207769658 -0.75888020781 -0.16316390713 0.6237825022 -0.87936631463 -0.15014752333 0.42283593424 
-0.90542261108 -0.066167070587 -0.37601040271 -0.32524234184 -0.13835711255 -0.93154210566 -0.40105390782 -0.20255734691 -0.89319583396 
-0.37531531159 -0.22899587773 -0.89691588551 -0.32866566155 -0.23157098664 -0.91176858585 -0.21896167679 -0.19220040072 -0.94843129291 
-0.049628343412 -0.14936020595 -0.98082179038 0.094600613103 -0.11230113554 -0.98603869804 0.20543327855 -0.098987756446 -0.97101164708 
0.32483780232 -0.081288625215 -0.93684381615 0.47803378205 -0.059705379665 -0.87198096477 0.59543482191 -0.042803204588 -0.78991312718 
0.68742555799 -0.026899119973 -0.72352605529 0.89039457106 0.057774453858 -0.43332221477 0.90183369344 0.045062216823 -0.42416099805 
0.97964546707 0.075735593043 0.15711675273 0.98364091951 0.11313725595 0.030285901275 0.97758138722 0.051586490908 0.20144074565 
-0.81586211022 -0.036926312321 -0.56697348844 -0.71425464294 -0.024045098166 -0.6886138157 -0.62046950079 -0.011246972831 -0.78008308368 
-0.5397757209 -0.00030458565676 -0.83850480889 -0.46890646511 0.0064883468033 -0.88174209139 -0.39065501758 0.023356054897 -0.91723013077 
-0.33041756517 0.022174353106 -0.94323230668 -0.38149563592 0.03028723259 -0.92198158963 -0.46080250947 0.063788503299 -0.88223478239 
-0.52485430442 0.076052962213 -0.84430648348 -0.59328645227 0.073996834305 -0.79544359549 -0.67519850788 0.060426035219 -0.72930759943 
-0.76318566638 0.01584487315 -0.63596254057 -0.86156458864 -0.032832969613 -0.48954030671 -0.92549441767 -0.082288782253 -0.34817679711 
0.86072055015 0.026662468279 0.49947836653 0.81234861137 0.026464568576 0.58181040287 0.75749905288 0.036719953035 0.64861668462 
0.97494730967 0.15410751239 -0.082727840938 0.96711494619 0.19488608617 -0.14441347975 0.95373514584 0.12947295923 -0.23900974251 
0.74812732856 0.035516404082 -0.65258889729 0.82482786488 0.076585544393 -0.54598937614 0.66559331749 0.010540146328 -0.74323886354 
0.5771172893 -0.016675581283 -0.80650601284 0.53682728461 -0.035289076255 -0.83185036878 0.87515945129 -0.014467860473 0.47571238786 
0.65553888357 0.023572293623 0.7516803638 0.69869376182 0.029177452746 0.71423674677 0.76807101534 0.013657664051 0.6363600085 
-0.93901682524 -0.15889904003 0.28045887104 0.82293397734 0.001705062389 0.56704131652 0.72781355506 0.0066437125781 -0.67018316044 
0.81351875491 0.031704878889 -0.56805030032 0.64368831953 -0.01670868796 -0.7609677808 0.33654710705 -0.15370192453 -0.9239512813 
0.10917282295 -0.19257946916 -0.96705749461 -0.9817944771 -0.038552216258 0.15309721703 0.13823641154 0.091393042527 0.98266582342 
0.089017689477 0.10000894725 0.98490348684 0.84743344773 0.028409023748 -0.50860913646 0.7715422835 0.0010388421798 -0.61223317132 
0.87932919158 0.0829754987 -0.43555637669 
Curv_Gaussian 1 1114 double
3.789728558 3.4331480966 -0.030647605349 -0.01796017523 3.9729482928 -0.031345389645 4.2502460463 -0.031890468954 4.017144902 
-0.024360096024 3.7036395776 -0.0029023667552 4.0503657185 -0.021359786877 4.5605137418 -0.0084153199954 4.5149007545 -0.0029031314404 
4.2786695259 -0.0064683946446 4.1381017483 -0.0062076249818 4.0765176257 -0.019959552556 4.5307972889 -0.016991785663 4.6639755981 
-0.0082471034905 5.0125843445 -0.013684802262 5.0135367748 -0.01097282336 5.0320841858 -0.009748362575 5.4588946766 -0.026275286604 
5.7798475949 -0.012196783911 5.8751608936 -0.01530203663 6.0162685564 -0.071449057786 6.029984918 -0.040643642442 5.9977974253 
-0.054088945309 5.7530342814 -0.057773408605 5.1732666562 -0.0386882999 4.1994399787 -0.041725721211 4.227094326 -0.017795855489 
4.0623783758 -0.010408770415 3.7717084452 -0.010490850427 3.517496057 -0.0060398843205 3.518461368 -0.0046153402155 3.6038740797 
-0.009168695367 3.8525885563 -0.009159654213 4.075591149 -0.003179476132 4.1972272434 -0.0053661912617 4.2333171023 -0.006186339704 
3.9922046814 -0.007119297899 3.9039915098 -0.0033776142642 3.6516651519 -0.010737227024 3.2300478774 -0.0011207243381 3.1187120351 
-0.014586548451 3.5379693141 -0.02976667286 5.1808988467 5.2228070414 -0.010879609951 -0.01235165604 5.1929189615 -0.0094730228124 
4.9542997475 -0.0068372620768 4.9110114402 -0.0037406119234 5.0396235997 -0.0014642299059 5.017883519 -0.0012332867508 5.0190710961 
-0.0018735933642 5.0700135432 -0.0040799329773 5.4121702703 -0.012118794231 5.7101022116 -0.016534705312 5.8704335198 -0.0056966609962 
6.4803254033 -0.0083488015569 7.0940789091 -0.01318533781 7.5748393661 -0.019881093538 6.6739768342 -0.010657140424 6.1154315723 
-0.0042567511694 5.8608106242 -0.010621125043 6.164352631 -0.0041478646807 5.9584798145 -0.0027199164972 5.5136518851 -0.0060939619781 
5.1217413144 -0.0085544202903 5.0746299712 -0.0077884771784 5.214215862 -0.0012992203911 5.3511517126 -0.00082251895828 5.200694009 
-0.0046175938737 4.8773557857 -0.0093292593515 4.5348273597 -0.011965971069 4.5049098644 -0.014654010782 4.9273039891 -0.010963540757 
5.3289151213 -0.0085938450438 5.6390723227 -0.0070915034499 5.4207514715 -0.012012690673 5.1590540819 -0.019872905735 4.8530671935 
-0.018250235294 5.0724983575 -0.012022690225 5.3689930755 -0.0061808332349 5.6030613511 -0.0035878424638 5.5405349385 -0.0016608036664 
5.2395762415 0.00037756530785 4.7828755904 -0.0076125215978 4.3502944566 -0.011711770804 3.9557024574 -0.0082025899499 3.7464494203 
-0.0048333971686 3.6636882577 -0.0016924497317 4.5817197568 -0.0047512584025 5.2130111563 -0.0066322158932 5.2181660367 -0.015804786917 
5.4346124562 -0.016332192377 5.8253907989 -0.0092155313365 5.4380353465 -0.0076923868613 4.8532299646 -0.0064113477507 4.2836009737 
-0.0035910378678 3.8609049339 -0.0017821469464 3.8515720642 -0.0053590132153 3.9962563798 -0.00594800711 4.2976186867 -0.0035951578476 
4.7168564974 -0.0079441517646 -0.0066677163653 -0.028957934384 -0.018415686034 -0.0050528011083 -0.0010986559812 0.0016098576414 -0.0031736800953 
-0.00027201205934 0.0031857558652 0.01055490797 0.0040759843428 2.5363863391e-05 -0.0030808773079 -0.0059524578155 -0.0049487962024 -0.0077238032321 
-0.006870921819 -0.0048478604478 -0.0042887883922 -0.011948134233 -0.011073009295 -0.0074923784842 -0.0089102199917 -0.0014468438648 -0.0042708811869 
-0.0051444461238 -0.0029136017873 -0.0035947823526 -0.0032605781697 -0.0022119300017 -0.003694903134 -0.0063669008383 -0.0055029112385 -0.0040994651225 
-0.006114668383 -0.007942206242 -0.0038772386801 -0.016636312896 -0.0061297772107 -0.018730726431 -0.056060731637 -0.047343277136 -0.0028791413845 
-0.0031955181525 -0.0020090088596 -0.0025421698311 -0.0035019656024 -0.0028899264047 -0.0038338101947 -0.0041813997651 -0.0057148585637 -0.0082051853986 
-0.0094799540235 -0.0053305290924 0.0004070105525 -0.00027474490013 0.0010979479717 -0.00048403633841 -0.00033647599431 0.0012733402807 -0.00010242152447 
-0.0025142801841 -0.0020762716134 -0.00078082860178 6.9816815183e-05 0.00064671404991 -0.0021761270886 -0.0014737916426 -0.0050189825535 -0.0065605014561 
-0.0062173481058 0.00064483226336 -0.00034658054245 0.00096407210277 0.0020196310994 -0.011965368345 -0.0027660589316 -0.0026766881203 -0.0025323785567 
-0.0037945826841 -0.00079344238715 -0.0027109300874 -0.0049736881777 -0.0030488971666 -0.002617264431 -0.0029430311064 0.0045394933729 0.00019283117986 
0.0060191591948 0.013440194276 0.0054135926987 0.0033558834906 0.00081219668533 0.00074861036631 0.0017752514376 0.0037586211075 0.0010606047003 
-0.0027965206777 -0.0020448694407 -0.004347857957 -0.00073484113868 0.00064952847837 0.0057445383172 -0.0038064312982 0.0084867259845 0.006979141864 
0.0021098575669 0.0010195328833 0.0080462483659 0.0045096334208 0.0025378919865 -0.0022286693075 -0.0045720017531 -0.0033840182553 -0.0021480215923 
-0.0040890537512 -0.0018764749833 -0.00031222776761 -0.00027614518533 0.00094428272258 0.0012988745167 0.0068850697122 0.0056323619623 -0.004437942155 
-0.0046613721459 -0.0076245059297 -0.00783543655 -0.0050075742231 -0.0030013517473 -0.0045550184303 -0.0029121439327 -0.0038014870343 -0.0041153408849 
-0.0054443706449 -0.0065813969785 -0.007198402413 -0.012461307005 0.0050137525368 0.011347910473 -0.040934060933 -0.043365554745 -0.027690105148 
-0.014151640688 0.00033590959678 -0.0095900761562 -0.0016374116987 -0.00071306982933 -0.00085106396981 0.0010155890439 0.00076835941215 0.00077886201177 
0.0015925643532 0.0071388773945 0.012038351755 -0.0027065431759 0.005931931812 -0.00013155268707 0.0026275647424 -0.00049326162538 -0.0014303011155 
-0.0044160511108 -0.0053881392803 -0.0026696622904 0.00055431208416 -0.0016608466563 -0.00090063798978 0.0069921942662 0.022427863336 0.015842472042 
0.001619761336 0.002080897567 0.0010835203176 -0.0012542024854 -0.0020088186497 -0.0025638189557 -0.0022011268695 -0.0013826841359 2.0180994725e-05 
-0.0018951991754 -0.0048522196634 -0.0045209440344 -0.0034462386204 -0.0015682352667 0.00029378402113 -0.0010431224079 -0.0018445589906 -0.0015247825544 
-0.0042353597954 -0.0053012127656 -0.0058711546753 -0.0055615098604 -0.0043719649982 0.0023851282911 0.0042842281736 0.00052822209584 0.0031583113257 
-0.00042681275333 0.0013242421487 0.0084985952483 0.0055669991372 0.0047523141555 -0.00022491932418 -0.0046596048395 -0.0017739415498 -0.0014507419151 
-0.0010501043341 -0.00094324393345 0.012025532037 0.012772382407 -0.010136342148 -0.0092026741043 -0.012751642072 -0.012589722337 -0.012477897741 
-0.011822544157 -0.0090376730856 -0.005703396292 -0.0072785664394 -0.0042798671303 -0.0057067006492 -0.0067467304225 -0.0072359671643 -0.0085465878283 
-0.009922701497 -0.0050269045078 -0.00055740768279 -0.002970996952 0.0058715572624 0.0059614750336 -0.0019946182839 -0.0086744946377 -0.0020567779897 
-0.0034104480512 -0.0012803619048 0.001655112215 -0.00029348454901 -0.001287250882 -0.0010947507296 -0.0085380709818 -0.016495026476 -0.015845586366 
-0.009953449262 -0.0043486331686 8.7874498931e-05 0.0020180309734 0.0047936529404 0.0057018255361 0.0089196709968 0.014787909652 0.012873895599 
0.022038915344 0.021612229479 -0.0026705851144 -0.010702830342 -0.0066796132772 -0.0014422782102 -0.0010942422131 -0.010503248583 -0.010155580341 
-0.010912372581 -0.0084987901844 -0.0074681821825 -0.0016985931393 -0.0025600968453 0.0045540175032 0.01103134326 0.015376709207 0.013859308596 
0.0085458188582 0.0055706339126 0.011955216099 0.0033469447653 0.013954389228 0.0068597648422 0.0021851193813 0.0017792750499 -0.00019581128198 
-0.0011653522738 0.00029289784159 0.00029582681681 -0.0051994379454 -0.0059601185858 -0.0044513143919 -0.0025092774541 -0.00090535585343 -0.0013031995558 
-0.0016286611487 -0.0018426761787 0.0031724303593 0.0011398674232 -0.0015538745954 -0.00024421996244 -0.00019964168587 -0.0017214029702 -0.0043143100529 
-0.0085370062075 -0.000479062181 -0.010635333623 0.00051811249849 0.0035976339701 0.00029322388932 -0.00032183134827 -0.00017260740935 -0.0009620204801 
-0.0012783078849 -0.00061410943513 -0.00040784032984 -0.00082256913694 0.0016201862119 0.0084558597011 0.010759348794 0.0058447644972 0.007917346872 
0.003529343714 0.0019451182591 0.0057975407032 -4.2843201668e-05 0.0074203057799 0.0095632163443 0.0042062704404 0.00061588117589 8.573571951e-05 
-0.0019939400161 -0.00068854748083 -0.00051779090865 -0.0015592420272 -0.0050601115956 -0.0002538617501 0.0041074305186 0.0065595607239 0.0072334594071 
0.012914913795 0.013017302167 0.0016868066515 0.0025386641393 -0.0013386372965 -0.0038246324752 -0.0020412444367 0.010207807098 -0.0015650043821 
0.0031522906467 0.0055551691373 0.0064661447298 0.0056694814231 0.0064586226002 0.009768366974 0.0039719384476 0.00061673040979 -0.0042800964261 
-0.0046050311452 -0.0062252621951 -0.0067962750605 -0.0067871264743 -0.0046862090778 -0.0060498004947 -0.0055322585771 -0.0040953494517 -0.0036710971571 
-0.0013215020419 -0.0014329122885 -0.0033276995103 -0.0015406727998 9.5191749679e-05 0.00045674184313 0.0014791530826 0.0054481066963 0.010044235685 
0.0096200480813 0.010926992595 0.0017302641035 0.00093538877023 -0.0034998976989 -0.016031318271 -0.0095498702806 -0.014799996734 -0.0075838136111 
-0.006647229209 -0.0084308462358 -0.0061714682189 -0.0039619583875 -0.0030452160143 -0.0044070685649 -0.010370292879 -0.0088549414742 -0.0027153003174 
-0.0024409640962 -0.012703477131 -0.028038122029 -0.019230558114 -0.0097581041652 -0.0023766195924 -0.0054003543142 0.0023055043945 0.0043004234991 
0.011598257107 0.012422243225 0.017891111558 0.017673794605 0.016795590029 0.0081642391617 -0.011323600842 -0.0039227830071 0.0034063952891 
0.0090128173368 0.015775442531 0.0013918704436 0.0012460214864 -0.0099644763907 -0.0056965910079 0.0057949292704 0.0079622617316 0.0046877973494 
0.0037678103096 -0.0032737909024 -0.0016302173898 0.00049962561011 0.011495730675 0.014136204844 0.013382065205 0.0062342438888 0.00058846273407 
0.0088257948078 0.0096350416348 0.0026289723701 -0.00056752219102 -0.0017376740255 -0.0025718592464 -0.00020497444962 0.0052449973329 0.0048778401626 
-0.00074674652946 -0.00099114776446 0.0010622646271 0.00089355021036 -0.00054362528279 -0.00088073336928 -0.00041719639429 0.00042087049734 0.0017531101237 
-0.00037208547438 0.0034210892573 0.00020100366685 0.00034516278489 -7.1707613649e-05 0.00028236617407 -0.0002037961831 -0.00086995570431 -0.0032270328012 
0.00023991948842 0.004137971272 0.0067598856992 0.0096025904937 0.010820493323 0.0077270452405 0.0056304133389 0.0037911747533 0.0039361974042 
0.0054537024724 0.0027664614965 0.001987737408 0.0038486260777 0.0017560243363 0.0045632779204 -0.00036017253744 0.0021349699924 0.0044548163895 
0.0035930623529 -0.0040063011624 0.006371970535 0.0029994312955 0.0046750031634 0.0025449827598 0.0044210361921 0.0063513002984 0.0050070458756 
0.013170175662 0.01985500565 0.013462679245 0.0073815175962 0.0085952395118 0.0090168552404 0.0033506478604 0.0046502353873 0.0066935360411 
-0.0026994301105 -0.0077485714552 -0.0042633140374 0.0014555155261 0.0086283911891 0.0033672094111 -0.0017588970087 0.00056483429246 0.0018077767025 
-0.00074881417292 -0.00016106321362 0.0039080608681 0.0081472013046 0.016885364475 0.011898878599 0.018135030701 0.018624098862 0.011284943834 
0.012344308638 0.0019671583887 0.00078876408397 5.7711252071e-05 -0.00039964633633 -0.00052763287595 -0.00045481231452 -0.0033377476679 -0.0039980039529 
-0.0023374610888 0.0099019684164 0.015345624929 0.0098073522908 0.0099349271517 0.011525654322 0.010349376586 0.0079638889868 0.0021823134574 
0.0023961039473 -0.00025947920295 0.0097346702569 0.015343793091 0.0032004672068 0.0021564878295 0.0048569957292 0.0063802844104 0.0019861971095 
0.0016671536718 0.0027232191162 0.0027446154524 0.00069115290302 -0.00044703386415 -0.0019310448186 -0.0020943945938 -0.0015132375084 -0.0010595329776 
-0.00039665638396 -0.00034382770459 -0.00074513542742 -0.00065364809756 -0.00037150591557 7.6860260556e-05 0.0030078674797 0.010985250375 0.004486501572 
0.0022795111014 0.0027426175394 0.0069716182725 0.0047432862328 0.0010581564789 0.002393621025 0.0032876329718 0.0035595129056 0.0063904014591 
0.0041920586389 -0.0010671865026 -0.002075987892 -0.00084580393316 -2.3429087409e-05 -0.0027653694532 -0.0012550020436 -0.0033940258918 -0.0071878660159 
-0.0027534616937 0.0015104166253 -0.0026735577454 -0.0086360528826 -0.0095929527312 -0.0047895280392 0.002608306625 0.00046466684183 0.0047827808029 
-0.0047229943319 -0.0067268121563 -0.0094579137359 -0.011515819337 -0.0081293955351 0.00046656162526 0.0059483189836 0.0058773144461 0.0030320507433 
-0.00095282427972 -0.0053504416494 -0.0068437778597 0.0046882703306 0.0064918648959 0.0064720949872 0.019994605308 0.0092721275591 0.018915891591 
0.013483690206 0.013664528419 0.014699094127 0.016789098584 0.0083211201973 0.00096940515515 0.0052645076862 0.011460548891 0.014651336932 
0.015444159957 0.0098286918787 0.00257597578 -0.0034465205317 -0.004132005501 -0.0032279777373 -0.0093059872486 -0.0022609470276 0.0036727808918 
0.00091684786114 0.0011979187142 0.0091368624222 0.014678423407 0.013564366254 0.013889122627 0.013385478223 0.011883322647 0.0087618412642 
0.0085581413311 0.0066769782225 0.0071126178672 0.0066839250776 0.0092349420497 0.0073968918477 0.0055926328522 0.004861591437 0.0036471517065 
0.0017961046401 -0.00059495033519 -0.0004938111221 -0.00057514325742 -0.00066716378197 -0.00076609695475 0.0042557751215 0.0088490741364 0.0057736822202 
0.0090181168759 0.0044480064623 -0.0065423271736 -0.0030022744141 -0.00051316804381 0.0041885328404 0.00717918694 0.00049796952273 0.0019035790415 
0.0086904828487 0.010888729081 0.0062284252536 0.005071817666 0.0036332132821 0.0032780270801 0.0026837439854 0.0021218587821 0.00088068950025 
-0.00046362177738 0.00056263075722 -3.8432631734e-05 -0.0017774619252 -0.00079519879787 0.00093883623952 0.0011817187911 0.0024172869925 0.0033337692232 
0.014419632937 0.013534851551 0.0050205039482 0.0058157054765 0.012538497819 0.016320404628 0.012999691379 0.01358449133 0.015695726658 
0.011041840571 0.0049099512155 0.0035664945918 0.0021632012364 -0.00097320086302 -0.0018105618146 0.00012005133204 0.00053394475018 -0.00065163527571 
-0.0040626384152 -0.0016727049758 0.00036044555699 -0.0024507496516 -0.0012188879545 -6.1982338178e-06 0.0032022593847 0.0083368047285 0.0038838964141 
0.0027437636623 0.0083806400326 0.0035225581333 -0.0012483983205 -0.0084706444076 -0.0087392382141 -0.009390180094 -0.014757146022 -0.010800132538 
-0.0039007882894 -0.00094711526956 -0.0023675824113 -0.0035921673765 -0.0031672740809 0.0050996356359 0.0029681282525 0.00086457973314 0.0010120529565 
0.0019173611287 0.012139159946 0.0013987030974 0.021107406505 -0.00037167522211 -0.0014976643912 -0.00092911738987 -0.0010036878163 -0.0033791647077 
0.0043973168789 -0.00076451799286 -0.0042995964959 0.0075659160085 0.02671938533 0.020435257878 0.0077137557181 0.0087627181662 0.0065992679846 
0.011066801972 0.010284821429 0.0080201911278 0.010047242341 0.016515672873 0.022567384871 0.004475846523 0.0036509322474 0.0039570425781 
0.0040645461591 0.0029408019904 0.0012545725588 -0.00021168651855 0.0010875131171 -0.004090436712 -0.0056617181844 -0.0016535100516 -6.785460789e-05 
0.00054301471975 -0.0002777424168 0.0037538414897 0.0035182905357 0.010262271132 0.013274717544 0.0081438410714 0.0091570268426 0.011688676863 
0.013708103297 0.01603076365 0.017277030503 0.0046507388788 0.010464725559 0.0023957001636 0.0055922340288 0.0051440546135 0.0012908348593 
-0.0006027532516 -0.0022590500975 -0.003477897894 -0.0015060255499 -0.00079905476193 -0.0025291721645 0.00031350197534 0.00021452331615 0.0021794861802 
0.006855274693 0.0097399744161 0.012135928386 0.013483929286 0.016885066118 0.015978592393 0.0037619536287 -0.0022443713853 0.012580539971 
0.0064084662683 -8.8388389949e-05 -0.0013138790592 -0.0012689069761 -0.00032882838896 -4.2985869094e-05 0.018314740966 0.018459356347 0.0149299119 
0.0096295009913 0.006536984731 0.0091732758248 0.012466515213 0.0076506339452 0.002876427273 -0.0051427550146 -0.0060507864287 -0.0072543741917 
-0.0054587682655 0.0039579318406 0.012160578695 0.016938118224 0.017099520749 0.007082705949 0.0017408639126 0.0014381713116 0.0023946258962 
0.0017812562482 0.0024263617618 0.0045473025922 0.0066636957809 0.0076002188887 0.0067988659695 0.014257303477 0.0053087409899 0.013773408609 
0.0026146419709 0.00089706063485 0.0020457872149 0.00027116715871 0.015261830179 0.0075847740872 0.0085509364311 0.0034688572287 0.0014343964035 
4.6642229301e-05 0.0031955982437 -0.011139704697 -0.004637064715 -0.004905018523 -0.001352425258 0.001057874261 0.0014758061177 -0.0031973027485 
-0.002831822162 -0.0020511266633 0.0037829046616 0.016220757871 0.010632278612 0.0043074059348 0.0050956123237 0.0022373224734 0.001362852135 
0.001410925543 0.008428797439 0.0053010966584 0.0044332829945 0.0064819942521 0.011718788214 -0.0024793474255 0.0026383908552 0.0071469042722 
0.020801451127 -0.0069375063298 -0.0054643514709 0.0011108758225 0.0083726669494 0.015145912155 0.014186125678 0.0040501377896 0.0036854866648 
0.0084879097332 0.0077774261862 0.0056491690056 0.0050846633723 0.013463373532 0.0074325665807 0.004446575603 0.0075270617991 0.0019318958765 
0.022835303359 0.015721951087 0.011750329521 0.010385256455 0.0061284770375 0.0085149029523 0.01112821911 0.0017307309976 -0.00034838946926 
0.0025725892709 0.0047387055119 0.0064115130726 0.011801616821 0.017331922834 0.019315836131 0.011425061226 0.0054134935869 0.0086040843335 
0.012716719045 0.013544066739 0.015775864807 0.016179371521 0.016782121587 0.01235120701 0.014946454885 0.012227137477 0.0062791094715 
0.0041259661356 0.0051764086124 0.00665120184 0.012837929725 0.0037681552428 0.014965357101 0.016798175351 0.011419129611 -0.016375305242 
-0.0048945916674 0.0090102359327 0.02464608317 0.015659968018 0.0068160011247 0.0060602176691 0.019472557756 
Curv_Mean 1 1114 double
0.049091277625 -0.093047236853 0.02264556363 0.071657507991 -0.13900240324 -0.015212448642 -0.1452388315 0.018658979794 -0.10614457412 
0.047031686369 -0.048208051843 0.13155207572 -0.091214572713 0.071617492119 0.09919779401 0.0025949750217 0.049096054762 0.0099790998285 
-0.053393845683 -0.016296168817 -0.070265918467 0.020986792021 -0.11847679179 0.0051082803139 -0.13344699008 0.021496063862 0.0063072431909 
-0.046960345488 -0.17995992719 0.018767768618 -0.037458500382 0.052376314728 -0.099511854883 0.082089010306 -0.14560321474 0.052725501093 
-0.03841151419 0.10992542021 -0.10423051797 0.16990933494 -0.37879641611 0.19302284444 -0.074384151174 0.19776643991 -0.033353841724 
0.16818678405 -0.068241486559 0.12785314592 -0.083289230593 0.092123218923 -0.010037172008 0.0028784498321 0.0046980274814 -0.018009774965 
-0.12283328062 0.0034135317795 -0.10078433213 0.048172629947 0.01105691853 0.0066800019761 -0.10350389194 0.02503715537 -0.10524858846 
0.0031545490306 -0.041601839174 -0.0038111390394 -0.041511925143 -0.038173961728 -0.097470629544 0.013559068927 -0.0054781374982 0.00027381366222 
-0.055446012067 0.0043397379129 -0.074575409644 0.045021044101 -0.054197409043 0.0081550384509 -0.033956551189 0.011486223601 -0.060241590088 
-0.01546990786 -0.092974105751 -0.0073812351223 0.056719754222 -0.13065702464 0.021537708226 -0.013833160554 -0.21961715183 0.048548787862 
-0.022453529529 0.034964399094 0.059306026093 0.011812263129 0.039504526816 -0.010135191814 -0.026986666681 -0.014365696048 -0.051214305956 
-0.013210647358 -0.0035739335942 -0.0026508329529 -0.22404835136 0.0043866885901 -0.36941532058 0.010955047945 -0.33494913268 0.073852838628 
0.0073348535571 0.045482078536 0.13061527374 0.018646816423 0.031123805027 0.048003621061 0.02616030644 0.081709742723 -0.18160654247 
0.080661436163 -0.3892723791 0.044034708488 -0.0073793767256 -0.051117831527 0.15712855599 -0.068573881758 0.18353159267 -0.010499929561 
0.029884988862 0.0003898750934 -0.038713118022 0.009598981242 -0.04664049298 0.011806490033 0.033696239692 0.0013397363205 -0.027167865413 
0.01816781715 -0.17002794484 0.0076518671823 -0.24434646779 0.024649008001 -0.20565533853 0.040717822104 -0.0034524000439 0.037392303194 
-0.14508500139 0.059443062015 -0.31704195571 0.093357721515 -0.035334558704 0.072023572502 0.078907973423 0.05604308704 0.022160951156 
-0.057589660304 0.05111466973 0.0039374451084 0.09431995077 0.064826148549 0.13572883794 0.036686491314 0.14455235408 0.03862227846 
0.12692926398 0.071849560484 0.016280696387 0.051234584695 -0.064559883469 0.038022683737 -0.098451777157 0.023770037203 -0.1533770208 
0.022191009673 -0.20866589954 0.012880053735 -0.12004235188 0.023710093496 -0.099884341551 0.017865968821 -0.22923026623 0.0011405740444 
-0.2117155283 0.00090268128673 -0.073029342198 0.021110196508 -0.075301244245 0.0099193344232 -0.10853822172 -0.020305245368 -0.025659354073 
-0.012886546126 0.013243265622 -0.010630296215 -0.071571504941 0.0091380480356 0.002202261776 0.0028616241844 0.23730434684 -0.039100338255 
0.19897732211 -0.03160585145 -0.048479503223 0.056954872235 -0.038452870206 -0.010682020865 -0.024993975204 -0.074854089318 -0.0010156516102 
-0.030795882495 -0.066599049957 -0.1095131902 -0.075352166199 -0.061008193212 -0.014731409463 -0.022582054814 0.0095724262844 0.037779802141 
-0.015805505559 -0.0021621535538 0.026962610708 0.036755676515 0.056462281147 0.042804780491 -0.03107593003 -0.088548286425 -0.069601376314 
-0.012171986709 -0.017008704013 -0.0061986962956 0.0027167971578 0.0068417647081 -0.032241183172 -0.011918286772 -0.0094612963546 -0.0033567791845 
-0.018940356891 -0.0021972510578 0.071308087035 0.048055066794 0.12790587878 0.15352121131 0.10921017787 0.072811645895 -0.0090163099831 
-0.021185083196 -0.011835374885 0.002134912686 0.039284391735 0.034727776212 0.021084790241 0.02513924572 0.043987182229 0.028688426911 
-0.0095027894122 -0.025327473146 -0.06004840312 -0.052200426848 -0.026500903514 -0.020188794144 -0.048558672442 -0.085583858351 -0.065435639229 
-0.029842882149 -0.034888060114 -0.034140090498 0.013096274336 0.029559180703 0.0009757875723 0.00056065279366 -0.0046539187118 -0.0099170432441 
-0.030573591675 -0.042895941563 -0.01779021014 -0.047203210454 -0.066394594045 -0.031859591431 -0.025311049168 0.027399333167 0.071542782246 
0.037291066933 0.043792109307 0.010159581064 -0.010513573547 -0.018216698432 -0.028721457798 -0.029829764998 -0.065470194255 -0.061400332257 
-0.092287691559 -0.1127026312 -0.07422174029 -0.062669025521 -0.041351594426 -0.039272374321 -0.045562727486 -0.060240415645 -0.050059752649 
-0.030710247931 -0.045829131596 -0.036727043067 -0.00081725943047 -0.02175665102 -0.088409043808 -0.014836748061 -0.1073412493 -0.092277932135 
-0.065778748309 -0.051215141113 -0.093339099369 -0.084817627957 -0.091796842533 -0.026754956424 -0.023693130739 -0.0144894617 -0.00057902487311 
-0.016033458513 -0.01369192769 -0.024359762137 -0.033068868599 -0.038608637059 -0.049096207849 -0.10548814361 -0.10130544623 -0.0031647097617 
-0.018404509267 0.025758451601 0.023501789334 0.022271429605 0.016391696597 -0.0070451441963 -0.036216059782 -0.020435474197 0.0023065360196 
0.00014291676212 -0.0060528057615 0.051965447033 0.056813675135 0.13897948422 0.071771442275 0.064984908091 0.025658052332 0.048213088917 
-0.0010064790648 -0.032638790531 -0.024225446286 -0.018027241393 -0.029443843418 -0.038168743505 -0.06340856503 -0.066774860287 -0.06832070025 
-0.069736868893 -0.091791361517 -0.11445098239 -0.0074113706596 -0.071219678123 -0.023344194405 -0.055373764433 -0.012444276833 0.018129031719 
0.0032183233766 -0.029200338811 -0.064555124134 -0.036757193534 0.0038919205434 -0.0073014706582 -0.054623212018 -0.13519778506 -0.12186392807 
-0.063804561469 -0.05511954941 -0.040231056329 -0.026659054089 -0.017736625824 -0.018541559942 -0.027665055445 -0.037349285211 -0.051454726378 
-0.041924479418 -0.011085748195 0.0026706041862 0.0010899347677 -0.0039245656681 0.039767436247 0.038476027298 0.029287811972 0.042614255189 
0.041539421285 0.031347450062 0.0046004555891 -0.018238852004 -0.038343840364 -0.072416495115 -0.057133422588 -0.03319949915 -0.069333528849 
-0.053013791221 -0.06143451253 -0.09764817524 -0.07822183203 -0.075093091837 -0.045891458769 -0.017610717172 -0.0029369973489 0.0026888364452 
-0.0028116812785 0.0055119195728 -0.11537542934 -0.11776373905 0.050854575637 0.0053328837113 0.045153451111 0.074672511857 0.063619507758 
0.046860014196 0.04008692079 0.057805784848 0.03546025133 -0.017666728882 0.042226994635 0.010324168956 0.0047141946398 0.01431629808 
0.017302887837 -0.013922491529 -0.027946867359 0.079390092691 -0.12991177234 -0.10530547912 -0.014491679697 0.0043834297693 -0.032000188537 
-0.024400401126 -0.022264084313 -0.042457685834 -0.018176980983 0.008396116542 0.0033877414529 -0.0088260702978 -0.00067400629913 0.046307402966 
0.014619398936 -0.013946020946 -0.025334136603 -0.055681136535 -0.071415174533 -0.086601714485 -0.10423225136 -0.13197901248 -0.13104142254 
-0.15746322727 -0.17147788622 -0.10675603978 -0.093571313867 -0.056965631565 -0.091697993047 -0.009243395271 0.0095105764993 0.043956091448 
0.014345066941 0.028220841845 -0.016821866661 -0.039765228305 -0.014784042358 -0.066292451265 -0.10715538479 -0.12546696869 -0.11852624207 
-0.092973754609 -0.077441196791 -0.11050493301 -0.066913265403 -0.1257307484 -0.103428926 -0.063266974246 -0.047722310795 -0.030163724509 
-0.011759376156 -0.011588323329 -0.061293248967 -0.060116727312 -0.01010485772 0.0071718616577 0.011114739593 0.0052045332258 -0.016908337366 
-0.062319661811 -0.062036122198 -0.066594992971 -0.042228236825 -0.017686552892 -0.033198950442 -0.039089170671 -0.032949599637 -0.016813350889 
0.013441524958 -0.044117196604 0.0031812778384 -0.055425500565 -0.057916912929 -0.014607249901 0.0024343444068 0.011301591788 0.013105961792 
0.019176979959 0.042799009922 0.011865295121 -0.0085377472314 -0.041631420956 -0.08755507275 -0.10610376572 -0.081674494397 -0.086453361274 
-0.058849308124 -0.066998501329 -0.087186453002 -0.054097208218 -0.087258373526 -0.097449967901 -0.069025816538 -0.048429974745 -0.023546994819 
-0.0031726444654 0.028573919277 0.032931768997 -0.0015201015691 0.0039876393359 -0.028421380739 -0.071633167353 -0.085969731165 -0.085491384042 
-0.11278848293 -0.11383249908 -0.0075515453021 -0.048484448649 0.0061765132244 0.0093035423382 0.01658822851 0.12158545388 -0.051122036855 
-0.082896438762 -0.098207195427 -0.091901001401 -0.083853981295 -0.086074403213 -0.099029629107 -0.067857524045 -0.027590328642 -0.021977413257 
-0.0083056236675 0.0054194466185 0.013634569745 0.01374221373 0.044220717622 0.049787474643 0.032781809431 0.03560628607 -0.0077127363762 
0.0049068752729 -0.011696253755 -0.020409955603 -0.036665479326 -0.045194154778 -0.038949351591 -0.052412209741 -0.10693978296 -0.15947627392 
-0.086683209102 -0.1192211964 -0.06798560992 -0.049869584379 -0.013005475351 -0.022886999792 -0.026403996027 -0.0066771061502 -0.022203266617 
-0.0042871908175 0.015757341796 0.048739992654 0.068582952688 0.053484047346 0.05520647171 0.060738587289 0.071069237131 0.097816248622 
0.12174127407 0.11476013316 0.059460893415 0.055261050751 0.0067074865301 -0.035621936107 -0.012152457835 -0.075074661145 -0.11294282055 
-0.142943869 -0.13904769639 -0.15987805995 -0.16157224618 -0.1528386842 -0.096440097052 -0.049481180504 -0.067485298941 -0.077051183217 
-0.12242477703 -0.16068510489 -0.053940204143 -0.059362666271 0.0066336983172 -0.019552637064 -0.077522072107 -0.089746623639 -0.072732918371 
-0.066027995168 -0.035047750115 -0.05501883649 -0.074916151236 -0.11783954127 -0.11869600382 -0.12858469669 -0.10057123447 -0.089547275616 
-0.11384182921 -0.10113634476 -0.065225813255 0.01506859565 0.031157771118 -0.020721571167 -0.051027272944 -0.086907158218 -0.075638465038 
-0.042901954074 -0.033500919193 -0.045749604064 -0.046292912704 -0.036559324244 -0.039059149224 -0.044301081337 -0.056005334317 -0.068663072575 
-0.040262244375 -0.065897273005 -0.033006319456 -0.025967760729 -0.037572149707 -0.0081547319991 0.0088514766864 -0.030446888522 -0.041203501369 
-0.061027013627 -0.071343706181 -0.08874764665 -0.10295298456 -0.10445741236 -0.089322864024 -0.078252137347 -0.06139995498 -0.07187955046 
-0.073129812967 -0.074743872412 -0.060504176029 -0.079925005327 -0.066620226805 -0.072256465698 -0.042710062498 -0.059255539172 -0.070565290987 
-0.072140665312 -0.027754333841 -0.08234673022 -0.061054223417 -0.070987444227 -0.059726563868 -0.070606712496 -0.079175308225 -0.071662087697 
-0.10844453542 -0.14039873445 -0.11824506126 -0.096498956326 -0.10258238052 -0.10509972549 -0.078099540508 -0.080399337232 -0.095293552204 
-0.063937993489 -0.013182931192 0.012101299932 -0.042722549241 -0.10031032689 -0.080550532344 -0.053910252903 -0.048017506431 -0.049219480746 
-0.043838631609 -0.046284202775 -0.066550346222 -0.08750483601 -0.12779106255 -0.10465914792 -0.14167615089 -0.14205636968 -0.10768817031 
-0.11168438371 -0.055546728361 -0.041969297767 -0.02058864073 -0.0087126771021 -0.015365848239 -0.0015229105489 -0.034879230158 -0.03595470001 
-0.020504442146 -0.10715238143 -0.13110890557 -0.1080447669 -0.10468158991 -0.10850510882 -0.10523790708 -0.096048984093 -0.057605824952 
-0.051359991731 -0.025984550892 -0.096464204628 -0.12130817377 -0.078616282284 -0.072083052504 -0.079357433676 -0.080848411622 -0.050964747617 
-0.059456850766 -0.057862979608 -0.056774217334 -0.038512158271 -0.022322069436 -0.0028458231257 0.022412839562 0.011292694181 -0.029253639446 
-0.023494604503 -0.01810714468 -0.0062052765723 0.0085337042561 -0.014101381095 -0.036297598108 -0.06994096798 -0.12326844158 -0.099525184969 
-0.049456910188 -0.053673958669 -0.087921578987 -0.087917113677 -0.073652102054 -0.066413081803 -0.064355272043 -0.067095741695 -0.085587590649 
-0.074158811421 -0.03857066912 -0.0068135374623 0.032009883922 0.06072807258 0.054205104523 0.077115177508 0.059544293457 0.041940918142 
0.081663521361 0.095413553492 0.082071504002 0.042107767719 0.021713268785 -0.012824648003 -0.071494460563 -0.043828053545 -0.074259602656 
-0.0014118541144 0.014424603995 -0.0062928905092 -0.041124703331 -0.017717629426 -0.06277180119 -0.098210881099 -0.082331097266 -0.061951763625 
-0.031130711939 -0.0049804631517 0.018164303809 -0.083655845339 -0.093463001337 -0.092196706126 -0.16344209371 -0.10562267617 -0.17920765367 
-0.12375147885 -0.11698779401 -0.11553205462 -0.13364007619 -0.086336569189 -0.043035432822 -0.073005645299 -0.11404769254 -0.12809885593 
-0.13343172093 -0.11999398415 -0.073473529353 0.014056253387 0.015803957887 -0.037485736844 0.00057672817839 -0.04406850866 -0.077354898902 
-0.047181017127 -0.040167778925 -0.089286342516 -0.12394242912 -0.12180395105 -0.12389417205 -0.11816436518 -0.1093130435 -0.096888667311 
-0.096156889369 -0.082551864832 -0.089597053064 -0.072163666443 -0.085511040106 -0.092247623103 -0.086638909479 -0.088457935941 -0.080451468028 
-0.075477207272 -0.055206911634 -0.0091857641994 0.03120780995 0.0053668542065 -0.016388145198 -0.065433899366 -0.085514910435 -0.07848554695 
-0.094329150842 -0.065166268067 -0.027931016803 -0.025251339411 -0.031887218586 -0.064968896998 -0.094798616763 -0.037316852661 -0.080322379569 
-0.098566075272 -0.1051085602 -0.079912631018 -0.07163583777 -0.061776682876 -0.058953340125 -0.053575986446 -0.04951429297 -0.039068692491 
-0.030626929388 -0.042029431738 -0.039496351964 -0.00843581084 -0.040235354818 -0.053669552839 -0.066798080639 -0.057400859963 -0.075577347212 
-0.13885136625 -0.13351027395 -0.076163761459 -0.076937516917 -0.10881053905 -0.12775653491 -0.11647477123 -0.12076443683 -0.12956887682 
-0.11019109491 -0.079246660353 -0.064073803203 -0.043912211506 -0.028822855415 -0.0032126502723 0.030244378447 0.014233778411 -0.0073068689166 
0.01878382806 0.032883744055 0.033904031211 -0.011146003354 -0.027011167535 -0.039745796074 -0.061335086436 -0.10159923394 -0.065155818706 
-0.05671035915 -0.099690638704 -0.071032406163 -0.074473554671 -0.068868828686 -0.035940009837 -0.011550712372 -0.033180023372 0.0023223032736 
0.0010203036745 0.023007676336 -0.00065437079069 -0.0075952460733 -0.027091186995 -0.088629547904 -0.064012347651 -0.042663949574 -0.039444957333 
-0.062395770251 -0.1158826234 -0.077807651448 -0.1483097431 -0.025891210183 -0.012522317877 0.023621086398 0.02510265603 0.025886201589 
0.11115918601 0.015439666755 0.0069069200392 -0.067994103149 -0.16840142234 -0.14244668063 -0.091475267075 -0.08792439331 -0.092637058105 
-0.11813062596 -0.1164336018 -0.090017757021 -0.096943602002 -0.14055315647 -0.16003740572 -0.07578383833 -0.064675686756 -0.064598319192 
-0.064416754323 -0.055106623129 -0.040149241806 -0.028667034121 -0.044113141306 -0.060379962204 -0.066510923688 -0.070979715713 -0.0099613465473 
-0.021072839774 -0.0068135595619 -0.068889266872 -0.064708558979 -0.10908656976 -0.12802579231 -0.094254795066 -0.097626986791 -0.10924021548 
-0.11929428492 -0.12955826864 -0.1325297473 -0.091157714801 -0.10788879594 -0.088204135022 -0.085799211839 -0.062332300475 -0.037360704688 
0.012044870431 0.02563327171 -0.0010222101812 -0.025772712902 0.0011659023656 -0.005732685203 -0.0079108869441 -0.023866216063 -0.050141878412 
-0.0839616125 -0.10425453807 -0.10324858198 -0.12914855197 -0.13125560293 -0.1277293972 -0.075039964246 -0.048922802436 -0.11366706152 
-0.071202513471 -0.029644691043 -0.021233894439 -0.015781861307 0.00051420365247 -0.041118114248 -0.13189875317 -0.14077797501 -0.1364081141 
-0.11145228214 -0.09807911729 -0.10989543075 -0.12578752236 -0.082555743652 -0.10838783942 -0.022854182621 0.0023356997529 0.0015359753837 
-0.020840108071 -0.071227127579 -0.11443995935 -0.13060613254 -0.12870858947 -0.085958761333 -0.055827858727 -0.052780116567 -0.058897166299 
-0.052003794989 -0.054595635835 -0.071489169699 -0.087899424476 -0.092759123387 -0.08908523662 -0.12110748537 -0.078824859902 -0.11798508225 
-0.049708108294 -0.028083662362 -0.04104552855 -0.021286758826 -0.12183244669 -0.099973670587 -0.10075847612 -0.065757728606 -0.055657999382 
-0.04563203441 -0.059575451483 -0.044935087927 0.020066088317 0.043495940149 0.027177192923 -0.036792087171 -0.023718810517 -0.0060464319279 
-0.0071669279258 -0.010485986431 -0.078796843194 -0.12706430949 -0.12630589043 -0.071422733108 -0.063911726161 -0.051781572879 -0.055552591108 
-0.050981884393 -0.097985005583 -0.085857232532 -0.076935153683 -0.094828445267 -0.10038313234 -0.011232794649 -0.055967879601 -0.092350541586 
-0.14936266364 -0.0056785726538 -0.023079528379 -0.062746706956 -0.10024990851 -0.12638166576 -0.12360535196 -0.080520041842 -0.06637355558 
-0.087970639938 -0.090280105107 -0.076502960501 -0.072443782515 -0.11691022238 -0.092475222013 -0.071323868233 -0.086400797448 -0.042859771824 
-0.15636820238 -0.13754426335 -0.12719262512 -0.12613140573 -0.097997480603 -0.11127686034 -0.12281569822 -0.051649242296 -0.039367156352 
-0.053748206333 -0.071171313045 -0.083256672882 -0.12205013992 -0.13604359662 -0.14421360331 -0.1088433566 -0.083862347571 -0.099957768874 
-0.1143205578 -0.12263079777 -0.12719875673 -0.12737735831 -0.12890024563 -0.11360396417 -0.12460381626 -0.11329578311 -0.087258290883 
-0.06992474288 -0.075371929033 -0.086026547028 -0.12309598541 -0.068813808422 -0.12034373543 -0.12760391635 -0.10835374675 -0.066707563783 
-0.057306456314 -0.095097641715 -0.16016698753 -0.12550638012 -0.087817175601 -0.081017876366 -0.14062047169 
Displacement_Root 3 1114 double
-0.0012168884277 -0.15603637695 0.24750518799 -0.0012168884277 -0.15603637695 0.24750518799 -0.0012168884277 -0.15603637695 0.24750518799 
-0.0012168884277 -0.15603637695 0.24750518799 -0.0012168884277 -0.15603637695 0.24750518799 -0.0012168884277 -0.15603637695 0.24750518799 
-0.0012168884277 -0.15603637695 0.24750518799 -0.0012168884277 -0.15603637695 0.24750518799 -0.0012168884277 -0.15603637695 0.24750518799 
-0.0012168884277 -0.15603637695 0.24750518799 -0.0012168884277 -0.15603637695 0.24750518799 -0.0012168884277 -0.15603637695 0.24750518799 
-0.0012168884277 -0.15603637695 0.24750518799 -0.0012168884277 -0.15603637695 0.24750518799 -0.0012168884277 -0.15603637695 0.24750518799 
-0.0012168884277 -0.15603637695 0.24750518799 -0.0012168884277 -0.15603637695 0.24750518799 -0.0012168884277 -0.15603637695 0.24750518799 
-0.0012168884277 -0.15603637695 0.24750518799 -0.0012168884277 -0.15603637695 0.24750518799 -0.0012168884277 -0.15603637695 0.24750518799 
-0.0012168884277 -0.15603637695 0.24750518799 -0.0012168884277 -0.15603637695 0.24750518799 -0.0012168884277 -0.15603637695 0.24750518799 
-0.0012168884277 -0.15603637695 0.24750518799 -0.0012168884277 -0.15603637695 0.24750518799 -0.0012168884277 -0.15603637695 0.24750518799 
-0.0012168884277 -0.15603637695 0.24750518799 -0.0012168884277 -0.15603637695 0.24750518799 -0.0012168884277 -0.15603637695 0.24750518799 
-0.0012168884277 -0.15603637695 0.24750518799 -0.0012168884277 -0.15603637695 0.24750518799 -0.0012168884277 -0.15603637695 0.24750518799 
-0.0012168884277 -0.15603637695 0.24750518799 -0.0012168884277 -0.15603637695 0.24750518799 -0.0012168884277 -0.15603637695 0.24750518799 
-0.0012168884277 -0.15603637695 0.24750518799 -0.0012168884277 -0.15603637695 0.24750518799 -0.0012168884277 -0.15603637695 0.24750518799 
-0.0012168884277 -0.15603637695 0.24750518799 -0.0012168884277 -0.15603637695 0.24750518799 -0.0012168884277 -0.15603637695 0.24750518799 
-0.0012168884277 -0.15603637695 0.24750518799 -0.0012168884277 -0.15603637695 0.24750518799 -0.0012168884277 -0.15603637695 0.24750518799 
-0.0012168884277 -0.15603637695 0.24750518799 -0.0012168884277 -0.15603637695 0.24750518799 -0.0012168884277 -0.15603637695 0.24750518799 
-0.0012168884277 -0.15603637695 0.24750518799 -0.0012168884277 -0.15603637695 0.24750518799 -0.0012168884277 -0.15603637695 0.24750518799 
-0.0012168884277 -0.15603637695 0.24750518799 -0.0012168884277 -0.15603637695 0.24750518799 -0.0012168884277 -0.15603637695 0.24750518799 
-0.0012168884277 -0.15603637695 0.24750518799 -0.0012168884277 -0.15603637695 0.24750518799 -0.0012168884277 -0.15603637695 0.24750518799 
-0.0012168884277 -0.15603637695 0.24750518799 -0.0012168884277 -0.15603637695 0.24750518799 -0.0012168884277 -0.15603637695 0.24750518799 
-0.0012168884277 -0.15603637695 0.24750518799 -0.0012168884277 -0.15603637695 0.24750518799 -0.0012168884277 -0.15603637695 0.24750518799 
-0.0012168884277 -0.15603637695 0.24750518799 -0.0012168884277 -0.15603637695 0.24750518799 -0.0012168884277 -0.15603637695 0.24750518799 
-0.0012168884277 -0.15603637695 0.24750518799 -0.0012168884277 -0.15603637695 0.24750518799 -0.0012168884277 -0.15603637695 0.24750518799 
-0.0012168884277 -0.15603637695 0.24750518799 -0.0012168884277 -0.15603637695 0.24750518799 -0.0012168884277 -0.15603637695 0.24750518799 
-0.0012168884277 -0.15603637695 0.24750518799 -0.0012168884277 -0.15603637695 0.24750518799 -0.0012168884277 -0.15603637695 0.24750518799 
-0.0012168884277 -0.15603637695 0.24750518799 -0.0012168884277 -0.15603637695 0.24750518799 -0.0012168884277 -0.15603637695 0.24750518799 
-0.0012168884277 -0.15603637695 0.24750518799 -0.0012168884277 -0.15603637695 0.24750518799 -0.0012168884277 -0.15603637695 0.24750518799 
-0.0012168884277 -0.15603637695 0.24750518799 -0.0012168884277 -0.15603637695 0.24750518799 -0.0012168884277 -0.15603637695 0.24750518799 
-0.0012168884277 -0.15603637695 0.24750518799 -0.0012168884277 -0.15603637695 0.24750518799 -0.0012168884277 -0.15603637695 0.24750518799 
-0.0012168884277 -0.15603637695 0.24750518799 -0.0012168884277 -0.15603637695 0.24750518799 -0.0012168884277 -0.15603637695 0.24750518799 
-0.0012168884277 -0.15603637695 0.24750518799 -0.0012168884277 -0.15603637695 0.24750518799 -0.0012168884277 -0.15603637695 0.24750518799 
-0.0012168884277 -0.15603637695 0.24750518799 -0.0012168884277 -0.15603637695 0.24750518799 -0.0012168884277 -0.15603637695 0.24750518799 
-0.0012168884277 -0.15603637695 0.24750518799 -0.0012168884277 -0.15603637695 0.24750518799 -0.0012168884277 -0.15603637695 0.24750518799 
-0.0012168884277 -0.15603637695 0.24750518799 -0.0012168884277 -0.15603637695 0.24750518799 -0.0012168884277 -0.15603637695 0.24750518799 
-0.0012168884277 -0.15603637695 0.24750518799 -0.0012168884277 -0.15603637695 0.24750518799 -0.0012168884277 -0.15603637695 0.24750518799 
-0.0012168884277 -0.15603637695 0.24750518799 -0.0012168884277 -0.15603637695 0.24750518799 -0.0012168884277 -0.15603637695 0.24750518799 
-0.0012168884277 -0.15603637695 0.24750518799 -0.0012168884277 -0.15603637695 0.24750518799 -0.0012168884277 -0.15603637695 0.24750518799 
-0.0012168884277 -0.15603637695 0.24750518799 -0.0012168884277 -0.15603637695 0.24750518799 -0.0012168884277 -0.15603637695 0.24750518799 
-0.0012168884277 -0.15603637695 0.24750518799 -0.0012168884277 -0.15603637695 0.24750518799 -0.0012168884277 -0.15603637695 0.24750518799 
-0.0012168884277 -0.15603637695 0.24750518799 -0.0012168884277 -0.15603637695 0.24750518799 -0.0012168884277 -0.15603637695 0.24750518799 
-0.0012168884277 -0.15603637695 0.24750518799 -0.0012168884277 -0.15603637695 0.24750518799 -0.0012168884277 -0.15603637695 0.24750518799 
-0.0012168884277 -0.15603637695 0.24750518799 -0.0012168884277 -0.15603637695 0.24750518799 -0.0012168884277 -0.15603637695 0.24750518799 
-0.0012168884277 -0.15603637695 0.24750518799 -0.0012168884277 -0.15603637695 0.24750518799 -0.0012168884277 -0.15603637695 0.24750518799 
-0.0012168884277 -0.15603637695 0.24750518799 -0.0012168884277 -0.15603637695 0.24750518799 -0.0012168884277 -0.15603637695 0.24750518799 
-0.0012168884277 -0.15603637695 0.24750518799 -0.0012168884277 -0.15603637695 0.24750518799 -0.0012168884277 -0.15603637695 0.24750518799 
-0.0012168884277 -0.15603637695 0.24750518799 -0.0012168884277 -0.15603637695 0.24750518799 -0.0012168884277 -0.15603637695 0.24750518799 
-0.0012168884277 -0.15603637695 0.24750518799 -0.0012168884277 -0.15603637695 0.24750518799 -0.0012168884277 -0.15603637695 0.24750518799 
-0.0012168884277 -0.15603637695 0.24750518799 -0.0012168884277 -0.15603637695 0.24750518799 -0.0012168884277 -0.15603637695 0.24750518799 
-0.0012168884277 -0.15603637695 0.24750518799 -0.0012168884277 -0.15603637695 0.24750518799 -0.0012168884277 -0.15603637695 0.24750518799 
-0.0012168884277 -0.15603637695 0.24750518799 -0.0012168884277 -0.15603637695 0.24750518799 -0.0012168884277 -0.15603637695 0.24750518799 
-0.0012168884277 -0.15603637695 0.24750518799 -0.0012168884277 -0.15603637695 0.24750518799 -0.0012168884277 -0.15603637695 0.24750518799 
-0.0012168884277 -0.15603637695 0.24750518799 -0.0012168884277 -0.15603637695 0.24750518799 -0.0012168884277 -0.15603637695 0.24750518799 
-0.0012168884277 -0.15603637695 0.24750518799 -0.0012168884277 -0.15603637695 0.24750518799 -0.0012168884277 -0.15603637695 0.24750518799 
-0.0012168884277 -0.15603637695 0.24750518799 -0.0012168884277 -0.15603637695 0.24750518799 -0.0012168884277 -0.15603637695 0.24750518799 
-0.0012168884277 -0.15603637695 0.24750518799 -0.0012168884277 -0.15603637695 0.24750518799 -0.0012168884277 -0.15603637695 0.24750518799 
-0.0012168884277 -0.15603637695 0.24750518799 -0.0012168884277 -0.15603637695 0.24750518799 -0.0012168884277 -0.15603637695 0.24750518799 
-0.0012168884277 -0.15603637695 0.24750518799 -0.0012168884277 -0.15603637695 0.24750518799 -0.0012168884277 -0.15603637695 0.24750518799 
-0.0012168884277 -0.15603637695 0.24750518799 -0.0012168884277 -0.15603637695 0.24750518799 -0.0012168884277 -0.15603637695 0.24750518799 
-0.0012168884277 -0.15603637695 0.24750518799 -0.0012168884277 -0.15603637695 0.24750518799 -0.0012168884277 -0.15603637695 0.24750518799 
-0.0012168884277 -0.15603637695 0.24750518799 -0.0012168884277 -0.15603637695 0.24750518799 -0.0012168884277 -0.15603637695 0.24750518799 
-0.0012168884277 -0.15603637695 0.24750518799 -0.0012168884277 -0.15603637695 0.24750518799 -0.0012168884277 -0.15603637695 0.24750518799 
-0.0012168884277 -0.15603637695 0.24750518799 -0.0012168884277 -0.15603637695 0.24750518799 -0.0012168884277 -0.15603637695 0.24750518799 
-0.0012168884277 -0.15603637695 0.24750518799 -0.0012168884277 -0.15603637695 0.24750518799 -0.0012168884277 -0.15603637695 0.24750518799 
-0.0012168884277 -0.15603637695 0.24750518799 -0.0012168884277 -0.15603637695 0.24750518799 -0.0012168884277 -0.15603637695 0.24750518799 
-0.0012168884277 -0.15603637695 0.24750518799 -0.0012168884277 -0.15603637695 0.24750518799 -0.0012168884277 -0.15603637695 0.24750518799 
-0.0012168884277 -0.15603637695 0.24750518799 -0.0012168884277 -0.15603637695 0.24750518799 -0.0012168884277 -0.15603637695 0.24750518799 
-0.0012168884277 -0.15603637695 0.24750518799 -0.0012168884277 -0.15603637695 0.24750518799 -0.0012168884277 -0.15603637695 0.24750518799 
-0.0012168884277 -0.15603637695 0.24750518799 -0.0012168884277 -0.15603637695 0.24750518799 -0.0012168884277 -0.15603637695 0.24750518799 
-0.0012168884277 -0.15603637695 0.24750518799 -0.0012168884277 -0.15603637695 0.24750518799 -0.0012168884277 -0.15603637695 0.24750518799 
-0.0012168884277 -0.15603637695 0.24750518799 -0.0012168884277 -0.15603637695 0.24750518799 -0.0012168884277 -0.15603637695 0.24750518799 
-0.0012168884277 -0.15603637695 0.24750518799 -0.0012168884277 -0.15603637695 0.24750518799 -0.0012168884277 -0.15603637695 0.24750518799 
-0.0012168884277 -0.15603637695 0.24750518799 -0.0012168884277 -0.15603637695 0.24750518799 -0.0012168884277 -0.15603637695 0.24750518799 
-0.0012168884277 -0.15603637695 0.24750518799 -0.0012168884277 -0.15603637695 0.24750518799 -0.0012168884277 -0.15603637695 0.24750518799 
-0.0012168884277 -0.15603637695 0.24750518799 -0.0012168884277 -0.15603637695 0.24750518799 -0.0012168884277 -0.15603637695 0.24750518799 
-0.0012168884277 -0.15603637695 0.24750518799 -0.0012168884277 -0.15603637695 0.24750518799 -0.0012168884277 -0.15603637695 0.24750518799 
-0.0012168884277 -0.15603637695 0.24750518799 -0.0012168884277 -0.15603637695 0.24750518799 -0.0012168884277 -0.15603637695 0.24750518799 
-0.0012168884277 -0.15603637695 0.24750518799 -0.0012168884277 -0.15603637695 0.24750518799 -0.0012168884277 -0.15603637695 0.24750518799 
-0.0012168884277 -0.15603637695 0.24750518799 -0.0012168884277 -0.15603637695 0.24750518799 -0.0012168884277 -0.15603637695 0.24750518799 
-0.0012168884277 -0.15603637695 0.24750518799 -0.0012168884277 -0.15603637695 0.24750518799 -0.0012168884277 -0.15603637695 0.24750518799 
-0.0012168884277 -0.15603637695 0.24750518799 -0.0012168884277 -0.15603637695 0.24750518799 -0.0012168884277 -0.15603637695 0.24750518799 
-0.0012168884277 -0.15603637695 0.24750518799 -0.0012168884277 -0.15603637695 0.24750518799 -0.0012168884277 -0.15603637695 0.24750518799 
-0.0012168884277 -0.15603637695 0.24750518799 -0.0012168884277 -0.15603637695 0.24750518799 -0.0012168884277 -0.15603637695 0.24750518799 
-0.0012168884277 -0.15603637695 0.24750518799 -0.0012168884277 -0.15603637695 0.24750518799 -0.0012168884277 -0.15603637695 0.24750518799 
-0.0012168884277 -0.15603637695 0.24750518799 -0.0012168884277 -0.15603637695 0.24750518799 -0.0012168884277 -0.15603637695 0.24750518799 
-0.0012168884277 -0.15603637695 0.24750518799 -0.0012168884277 -0.15603637695 0.24750518799 -0.0012168884277 -0.15603637695 0.24750518799 
-0.0012168884277 -0.15603637695 0.24750518799 -0.0012168884277 -0.15603637695 0.24750518799 -0.0012168884277 -0.15603637695 0.24750518799 
-0.0012168884277 -0.15603637695 0.24750518799 -0.0012168884277 -0.15603637695 0.24750518799 -0.0012168884277 -0.15603637695 0.24750518799 
-0.0012168884277 -0.15603637695 0.24750518799 -0.0012168884277 -0.15603637695 0.24750518799 -0.0012168884277 -0.15603637695 0.24750518799 
-0.0012168884277 -0.15603637695 0.24750518799 -0.0012168884277 -0.15603637695 0.24750518799 -0.0012168884277 -0.15603637695 0.24750518799 
-0.0012168884277 -0.15603637695 0.24750518799 -0.0012168884277 -0.15603637695 0.24750518799 -0.0012168884277 -0.15603637695 0.24750518799 
-0.0012168884277 -0.15603637695 0.24750518799 -0.0012168884277 -0.15603637695 0.24750518799 -0.0012168884277 -0.15603637695 0.24750518799 
-0.0012168884277 -0.15603637695 0.24750518799 -0.0012168884277 -0.15603637695 0.24750518799 -0.0012168884277 -0.15603637695 0.24750518799 
-0.0012168884277 -0.15603637695 0.24750518799 -0.0012168884277 -0.15603637695 0.24750518799 -0.0012168884277 -0.15603637695 0.24750518799 
-0.0012168884277 -0.15603637695 0.24750518799 -0.0012168884277 -0.15603637695 0.24750518799 -0.0012168884277 -0.15603637695 0.24750518799 
-0.0012168884277 -0.15603637695 0.24750518799 -0.0012168884277 -0.15603637695 0.24750518799 -0.0012168884277 -0.15603637695 0.24750518799 
-0.0012168884277 -0.15603637695 0.24750518799 -0.0012168884277 -0.15603637695 0.24750518799 -0.0012168884277 -0.15603637695 0.24750518799 
-0.0012168884277 -0.15603637695 0.24750518799 -0.0012168884277 -0.15603637695 0.24750518799 -0.0012168884277 -0.15603637695 0.24750518799 
-0.0012168884277 -0.15603637695 0.24750518799 -0.0012168884277 -0.15603637695 0.24750518799 -0.0012168884277 -0.15603637695 0.24750518799 
-0.0012168884277 -0.15603637695 0.24750518799 -0.0012168884277 -0.15603637695 0.24750518799 -0.0012168884277 -0.15603637695 0.24750518799 
-0.0012168884277 -0.15603637695 0.24750518799 -0.0012168884277 -0.15603637695 0.24750518799 -0.0012168884277 -0.15603637695 0.24750518799 
-0.0012168884277 -0.15603637695 0.24750518799 -0.0012168884277 -0.15603637695 0.24750518799 -0.0012168884277 -0.15603637695 0.24750518799 
-0.0012168884277 -0.15603637695 0.24750518799 -0.0012168884277 -0.15603637695 0.24750518799 -0.0012168884277 -0.15603637695 0.24750518799 
-0.0012168884277 -0.15603637695 0.24750518799 -0.0012168884277 -0.15603637695 0.24750518799 -0.0012168884277 -0.15603637695 0.24750518799 
-0.0012168884277 -0.15603637695 0.24750518799 -0.0012168884277 -0.15603637695 0.24750518799 -0.0012168884277 -0.15603637695 0.24750518799 
-0.0012168884277 -0.15603637695 0.24750518799 -0.0012168884277 -0.15603637695 0.24750518799 -0.0012168884277 -0.15603637695 0.24750518799 
-0.0012168884277 -0.15603637695 0.24750518799 -0.0012168884277 -0.15603637695 0.24750518799 -0.0012168884277 -0.15603637695 0.24750518799 
-0.0012168884277 -0.15603637695 0.24750518799 -0.0012168884277 -0.15603637695 0.24750518799 -0.0012168884277 -0.15603637695 0.24750518799 
-0.0012168884277 -0.15603637695 0.24750518799 -0.0012168884277 -0.15603637695 0.24750518799 -0.0012168884277 -0.15603637695 0.24750518799 
-0.0012168884277 -0.15603637695 0.24750518799 -0.0012168884277 -0.15603637695 0.24750518799 -0.0012168884277 -0.15603637695 0.24750518799 
-0.0012168884277 -0.15603637695 0.24750518799 -0.0012168884277 -0.15603637695 0.24750518799 -0.0012168884277 -0.15603637695 0.24750518799 
-0.0012168884277 -0.15603637695 0.24750518799 -0.0012168884277 -0.15603637695 0.24750518799 -0.0012168884277 -0.15603637695 0.24750518799 
-0.0012168884277 -0.15603637695 0.24750518799 -0.0012168884277 -0.15603637695 0.24750518799 -0.0012168884277 -0.15603637695 0.24750518799 
-0.0012168884277 -0.15603637695 0.24750518799 -0.0012168884277 -0.15603637695 0.24750518799 -0.0012168884277 -0.15603637695 0.24750518799 
-0.0012168884277 -0.15603637695 0.24750518799 -0.0012168884277 -0.15603637695 0.24750518799 -0.0012168884277 -0.15603637695 0.24750518799 
-0.0012168884277 -0.15603637695 0.24750518799 -0.0012168884277 -0.15603637695 0.24750518799 -0.0012168884277 -0.15603637695 0.24750518799 
-0.0012168884277 -0.15603637695 0.24750518799 -0.0012168884277 -0.15603637695 0.24750518799 -0.0012168884277 -0.15603637695 0.24750518799 
-0.0012168884277 -0.15603637695 0.24750518799 -0.0012168884277 -0.15603637695 0.24750518799 -0.0012168884277 -0.15603637695 0.24750518799 
-0.0012168884277 -0.15603637695 0.24750518799 -0.0012168884277 -0.15603637695 0.24750518799 -0.0012168884277 -0.15603637695 0.24750518799 
-0.0012168884277 -0.15603637695 0.24750518799 -0.0012168884277 -0.15603637695 0.24750518799 -0.0012168884277 -0.15603637695 0.24750518799 
-0.0012168884277 -0.15603637695 0.24750518799 -0.0012168884277 -0.15603637695 0.24750518799 -0.0012168884277 -0.15603637695 0.24750518799 
-0.0012168884277 -0.15603637695 0.24750518799 -0.0012168884277 -0.15603637695 0.24750518799 -0.0012168884277 -0.15603637695 0.24750518799 
-0.0012168884277 -0.15603637695 0.24750518799 -0.0012168884277 -0.15603637695 0.24750518799 -0.0012168884277 -0.15603637695 0.24750518799 
-0.0012168884277 -0.15603637695 0.24750518799 -0.0012168884277 -0.15603637695 0.24750518799 -0.0012168884277 -0.15603637695 0.24750518799 
-0.0012168884277 -0.15603637695 0.24750518799 -0.0012168884277 -0.15603637695 0.24750518799 -0.0012168884277 -0.15603637695 0.24750518799 
-0.0012168884277 -0.15603637695 0.24750518799 -0.0012168884277 -0.15603637695 0.24750518799 -0.0012168884277 -0.15603637695 0.24750518799 
-0.0012168884277 -0.15603637695 0.24750518799 -0.0012168884277 -0.15603637695 0.24750518799 -0.0012168884277 -0.15603637695 0.24750518799 
-0.0012168884277 -0.15603637695 0.24750518799 -0.0012168884277 -0.15603637695 0.24750518799 -0.0012168884277 -0.15603637695 0.24750518799 
-0.0012168884277 -0.15603637695 0.24750518799 -0.0012168884277 -0.15603637695 0.24750518799 -0.0012168884277 -0.15603637695 0.24750518799 
-0.0012168884277 -0.15603637695 0.24750518799 -0.0012168884277 -0.15603637695 0.24750518799 -0.0012168884277 -0.15603637695 0.24750518799 
-0.0012168884277 -0.15603637695 0.24750518799 -0.0012168884277 -0.15603637695 0.24750518799 -0.0012168884277 -0.15603637695 0.24750518799 
-0.0012168884277 -0.15603637695 0.24750518799 -0.0012168884277 -0.15603637695 0.24750518799 -0.0012168884277 -0.15603637695 0.24750518799 
-0.0012168884277 -0.15603637695 0.24750518799 -0.0012168884277 -0.15603637695 0.24750518799 -0.0012168884277 -0.15603637695 0.24750518799 
-0.0012168884277 -0.15603637695 0.24750518799 -0.0012168884277 -0.15603637695 0.24750518799 -0.0012168884277 -0.15603637695 0.24750518799 
-0.0012168884277 -0.15603637695 0.24750518799 -0.0012168884277 -0.15603637695 0.24750518799 -0.0012168884277 -0.15603637695 0.24750518799 
-0.0012168884277 -0.15603637695 0.24750518799 -0.0012168884277 -0.15603637695 0.24750518799 -0.0012168884277 -0.15603637695 0.24750518799 
-0.0012168884277 -0.15603637695 0.24750518799 -0.0012168884277 -0.15603637695 0.24750518799 -0.0012168884277 -0.15603637695 0.24750518799 
-0.0012168884277 -0.15603637695 0.24750518799 -0.0012168884277 -0.15603637695 0.24750518799 -0.0012168884277 -0.15603637695 0.24750518799 
-0.0012168884277 -0.15603637695 0.24750518799 -0.0012168884277 -0.15603637695 0.24750518799 -0.0012168884277 -0.15603637695 0.24750518799 
-0.0012168884277 -0.15603637695 0.24750518799 -0.0012168884277 -0.15603637695 0.24750518799 -0.0012168884277 -0.15603637695 0.24750518799 
-0.0012168884277 -0.15603637695 0.24750518799 -0.0012168884277 -0.15603637695 0.24750518799 -0.0012168884277 -0.15603637695 0.24750518799 
-0.0012168884277 -0.15603637695 0.24750518799 -0.0012168884277 -0.15603637695 0.24750518799 -0.0012168884277 -0.15603637695 0.24750518799 
-0.0012168884277 -0.15603637695 0.24750518799 -0.0012168884277 -0.15603637695 0.24750518799 -0.0012168884277 -0.15603637695 0.24750518799 
-0.0012168884277 -0.15603637695 0.24750518799 -0.0012168884277 -0.15603637695 0.24750518799 -0.0012168884277 -0.15603637695 0.24750518799 
-0.0012168884277 -0.15603637695 0.24750518799 -0.0012168884277 -0.15603637695 0.24750518799 -0.0012168884277 -0.15603637695 0.24750518799 
-0.0012168884277 -0.15603637695 0.24750518799 -0.0012168884277 -0.15603637695 0.24750518799 -0.0012168884277 -0.15603637695 0.24750518799 
-0.0012168884277 -0.15603637695 0.24750518799 -0.0012168884277 -0.15603637695 0.24750518799 -0.0012168884277 -0.15603637695 0.24750518799 
-0.0012168884277 -0.15603637695 0.24750518799 -0.0012168884277 -0.15603637695 0.24750518799 -0.0012168884277 -0.15603637695 0.24750518799 
-0.0012168884277 -0.15603637695 0.24750518799 -0.0012168884277 -0.15603637695 0.24750518799 -0.0012168884277 -0.15603637695 0.24750518799 
-0.0012168884277 -0.15603637695 0.24750518799 -0.0012168884277 -0.15603637695 0.24750518799 -0.0012168884277 -0.15603637695 0.24750518799 
-0.0012168884277 -0.15603637695 0.24750518799 -0.0012168884277 -0.15603637695 0.24750518799 -0.0012168884277 -0.15603637695 0.24750518799 
-0.0012168884277 -0.15603637695 0.24750518799 -0.0012168884277 -0.15603637695 0.24750518799 -0.0012168884277 -0.15603637695 0.24750518799 
-0.0012168884277 -0.15603637695 0.24750518799 -0.0012168884277 -0.15603637695 0.24750518799 -0.0012168884277 -0.15603637695 0.24750518799 
-0.0012168884277 -0.15603637695 0.24750518799 -0.0012168884277 -0.15603637695 0.24750518799 -0.0012168884277 -0.15603637695 0.24750518799 
-0.0012168884277 -0.15603637695 0.24750518799 -0.0012168884277 -0.15603637695 0.24750518799 -0.0012168884277 -0.15603637695 0.24750518799 
-0.0012168884277 -0.15603637695 0.24750518799 -0.0012168884277 -0.15603637695 0.24750518799 -0.0012168884277 -0.15603637695 0.24750518799 
-0.0012168884277 -0.15603637695 0.24750518799 -0.0012168884277 -0.15603637695 0.24750518799 -0.0012168884277 -0.15603637695 0.24750518799 
-0.0012168884277 -0.15603637695 0.24750518799 -0.0012168884277 -0.15603637695 0.24750518799 -0.0012168884277 -0.15603637695 0.24750518799 
-0.0012168884277 -0.15603637695 0.24750518799 -0.0012168884277 -0.15603637695 0.24750518799 -0.0012168884277 -0.15603637695 0.24750518799 
-0.0012168884277 -0.15603637695 0.24750518799 -0.0012168884277 -0.15603637695 0.24750518799 -0.0012168884277 -0.15603637695 0.24750518799 
-0.0012168884277 -0.15603637695 0.24750518799 -0.0012168884277 -0.15603637695 0.24750518799 -0.0012168884277 -0.15603637695 0.24750518799 
-0.0012168884277 -0.15603637695 0.24750518799 -0.0012168884277 -0.15603637695 0.24750518799 -0.0012168884277 -0.15603637695 0.24750518799 
-0.0012168884277 -0.15603637695 0.24750518799 -0.0012168884277 -0.15603637695 0.24750518799 -0.0012168884277 -0.15603637695 0.24750518799 
-0.0012168884277 -0.15603637695 0.24750518799 -0.0012168884277 -0.15603637695 0.24750518799 -0.0012168884277 -0.15603637695 0.24750518799 
-0.0012168884277 -0.15603637695 0.24750518799 -0.0012168884277 -0.15603637695 0.24750518799 -0.0012168884277 -0.15603637695 0.24750518799 
-0.0012168884277 -0.15603637695 0.24750518799 -0.0012168884277 -0.15603637695 0.24750518799 -0.0012168884277 -0.15603637695 0.24750518799 
-0.0012168884277 -0.15603637695 0.24750518799 -0.0012168884277 -0.15603637695 0.24750518799 -0.0012168884277 -0.15603637695 0.24750518799 
-0.0012168884277 -0.15603637695 0.24750518799 -0.0012168884277 -0.15603637695 0.24750518799 -0.0012168884277 -0.15603637695 0.24750518799 
-0.0012168884277 -0.15603637695 0.24750518799 -0.0012168884277 -0.15603637695 0.24750518799 -0.0012168884277 -0.15603637695 0.24750518799 
-0.0012168884277 -0.15603637695 0.24750518799 -0.0012168884277 -0.15603637695 0.24750518799 -0.0012168884277 -0.15603637695 0.24750518799 
-0.0012168884277 -0.15603637695 0.24750518799 -0.0012168884277 -0.15603637695 0.24750518799 -0.0012168884277 -0.15603637695 0.24750518799 
-0.0012168884277 -0.15603637695 0.24750518799 -0.0012168884277 -0.15603637695 0.24750518799 -0.0012168884277 -0.15603637695 0.24750518799 
-0.0012168884277 -0.15603637695 0.24750518799 -0.0012168884277 -0.15603637695 0.24750518799 -0.0012168884277 -0.15603637695 0.24750518799 
-0.0012168884277 -0.15603637695 0.24750518799 -0.0012168884277 -0.15603637695 0.24750518799 -0.0012168884277 -0.15603637695 0.24750518799 
-0.0012168884277 -0.15603637695 0.24750518799 -0.0012168884277 -0.15603637695 0.24750518799 -0.0012168884277 -0.15603637695 0.24750518799 
-0.0012168884277 -0.15603637695 0.24750518799 -0.0012168884277 -0.15603637695 0.24750518799 -0.0012168884277 -0.15603637695 0.24750518799 
-0.0012168884277 -0.15603637695 0.24750518799 -0.0012168884277 -0.15603637695 0.24750518799 -0.0012168884277 -0.15603637695 0.24750518799 
-0.0012168884277 -0.15603637695 0.24750518799 -0.0012168884277 -0.15603637695 0.24750518799 -0.0012168884277 -0.15603637695 0.24750518799 
-0.0012168884277 -0.15603637695 0.24750518799 -0.0012168884277 -0.15603637695 0.24750518799 -0.0012168884277 -0.15603637695 0.24750518799 
-0.0012168884277 -0.15603637695 0.24750518799 -0.0012168884277 -0.15603637695 0.24750518799 -0.0012168884277 -0.15603637695 0.24750518799 
-0.0012168884277 -0.15603637695 0.24750518799 -0.0012168884277 -0.15603637695 0.24750518799 -0.0012168884277 -0.15603637695 0.24750518799 
-0.0012168884277 -0.15603637695 0.24750518799 -0.0012168884277 -0.15603637695 0.24750518799 -0.0012168884277 -0.15603637695 0.24750518799 
-0.0012168884277 -0.15603637695 0.24750518799 -0.0012168884277 -0.15603637695 0.24750518799 -0.0012168884277 -0.15603637695 0.24750518799 
-0.0012168884277 -0.15603637695 0.24750518799 -0.0012168884277 -0.15603637695 0.24750518799 -0.0012168884277 -0.15603637695 0.24750518799 
-0.0012168884277 -0.15603637695 0.24750518799 -0.0012168884277 -0.15603637695 0.24750518799 -0.0012168884277 -0.15603637695 0.24750518799 
-0.0012168884277 -0.15603637695 0.24750518799 -0.0012168884277 -0.15603637695 0.24750518799 -0.0012168884277 -0.15603637695 0.24750518799 
-0.0012168884277 -0.15603637695 0.24750518799 -0.0012168884277 -0.15603637695 0.24750518799 -0.0012168884277 -0.15603637695 0.24750518799 
-0.0012168884277 -0.15603637695 0.24750518799 -0.0012168884277 -0.15603637695 0.24750518799 -0.0012168884277 -0.15603637695 0.24750518799 
-0.0012168884277 -0.15603637695 0.24750518799 -0.0012168884277 -0.15603637695 0.24750518799 -0.0012168884277 -0.15603637695 0.24750518799 
-0.0012168884277 -0.15603637695 0.24750518799 -0.0012168884277 -0.15603637695 0.24750518799 -0.0012168884277 -0.15603637695 0.24750518799 
-0.0012168884277 -0.15603637695 0.24750518799 -0.0012168884277 -0.15603637695 0.24750518799 -0.0012168884277 -0.15603637695 0.24750518799 
-0.0012168884277 -0.15603637695 0.24750518799 -0.0012168884277 -0.15603637695 0.24750518799 -0.0012168884277 -0.15603637695 0.24750518799 
-0.0012168884277 -0.15603637695 0.24750518799 -0.0012168884277 -0.15603637695 0.24750518799 -0.0012168884277 -0.15603637695 0.24750518799 
-0.0012168884277 -0.15603637695 0.24750518799 -0.0012168884277 -0.15603637695 0.24750518799 -0.0012168884277 -0.15603637695 0.24750518799 
-0.0012168884277 -0.15603637695 0.24750518799 -0.0012168884277 -0.15603637695 0.24750518799 -0.0012168884277 -0.15603637695 0.24750518799 
-0.0012168884277 -0.15603637695 0.24750518799 -0.0012168884277 -0.15603637695 0.24750518799 -0.0012168884277 -0.15603637695 0.24750518799 
-0.0012168884277 -0.15603637695 0.24750518799 -0.0012168884277 -0.15603637695 0.24750518799 -0.0012168884277 -0.15603637695 0.24750518799 
-0.0012168884277 -0.15603637695 0.24750518799 -0.0012168884277 -0.15603637695 0.24750518799 -0.0012168884277 -0.15603637695 0.24750518799 
-0.0012168884277 -0.15603637695 0.24750518799 -0.0012168884277 -0.15603637695 0.24750518799 -0.0012168884277 -0.15603637695 0.24750518799 
-0.0012168884277 -0.15603637695 0.24750518799 -0.0012168884277 -0.15603637695 0.24750518799 -0.0012168884277 -0.15603637695 0.24750518799 
-0.0012168884277 -0.15603637695 0.24750518799 -0.0012168884277 -0.15603637695 0.24750518799 -0.0012168884277 -0.15603637695 0.24750518799 
-0.0012168884277 -0.15603637695 0.24750518799 -0.0012168884277 -0.15603637695 0.24750518799 -0.0012168884277 -0.15603637695 0.24750518799 
-0.0012168884277 -0.15603637695 0.24750518799 -0.0012168884277 -0.15603637695 0.24750518799 -0.0012168884277 -0.15603637695 0.24750518799 
-0.0012168884277 -0.15603637695 0.24750518799 -0.0012168884277 -0.15603637695 0.24750518799 -0.0012168884277 -0.15603637695 0.24750518799 
-0.0012168884277 -0.15603637695 0.24750518799 -0.0012168884277 -0.15603637695 0.24750518799 -0.0012168884277 -0.15603637695 0.24750518799 
-0.0012168884277 -0.15603637695 0.24750518799 -0.0012168884277 -0.15603637695 0.24750518799 -0.0012168884277 -0.15603637695 0.24750518799 
-0.0012168884277 -0.15603637695 0.24750518799 -0.0012168884277 -0.15603637695 0.24750518799 -0.0012168884277 -0.15603637695 0.24750518799 
-0.0012168884277 -0.15603637695 0.24750518799 -0.0012168884277 -0.15603637695 0.24750518799 -0.0012168884277 -0.15603637695 0.24750518799 
-0.0012168884277 -0.15603637695 0.24750518799 -0.0012168884277 -0.15603637695 0.24750518799 -0.0012168884277 -0.15603637695 0.24750518799 
-0.0012168884277 -0.15603637695 0.24750518799 -0.0012168884277 -0.15603637695 0.24750518799 -0.0012168884277 -0.15603637695 0.24750518799 
-0.0012168884277 -0.15603637695 0.24750518799 -0.0012168884277 -0.15603637695 0.24750518799 -0.0012168884277 -0.15603637695 0.24750518799 
-0.0012168884277 -0.15603637695 0.24750518799 -0.0012168884277 -0.15603637695 0.24750518799 -0.0012168884277 -0.15603637695 0.24750518799 
-0.0012168884277 -0.15603637695 0.24750518799 -0.0012168884277 -0.15603637695 0.24750518799 -0.0012168884277 -0.15603637695 0.24750518799 
-0.0012168884277 -0.15603637695 0.24750518799 -0.0012168884277 -0.15603637695 0.24750518799 -0.0012168884277 -0.15603637695 0.24750518799 
-0.0012168884277 -0.15603637695 0.24750518799 -0.0012168884277 -0.15603637695 0.24750518799 -0.0012168884277 -0.15603637695 0.24750518799 
-0.0012168884277 -0.15603637695 0.24750518799 -0.0012168884277 -0.15603637695 0.24750518799 -0.0012168884277 -0.15603637695 0.24750518799 
-0.0012168884277 -0.15603637695 0.24750518799 -0.0012168884277 -0.15603637695 0.24750518799 -0.0012168884277 -0.15603637695 0.24750518799 
-0.0012168884277 -0.15603637695 0.24750518799 -0.0012168884277 -0.15603637695 0.24750518799 -0.0012168884277 -0.15603637695 0.24750518799 
-0.0012168884277 -0.15603637695 0.24750518799 -0.0012168884277 -0.15603637695 0.24750518799 -0.0012168884277 -0.15603637695 0.24750518799 
-0.0012168884277 -0.15603637695 0.24750518799 -0.0012168884277 -0.15603637695 0.24750518799 -0.0012168884277 -0.15603637695 0.24750518799 
-0.0012168884277 -0.15603637695 0.24750518799 -0.0012168884277 -0.15603637695 0.24750518799 -0.0012168884277 -0.15603637695 0.24750518799 
-0.0012168884277 -0.15603637695 0.24750518799 -0.0012168884277 -0.15603637695 0.24750518799 -0.0012168884277 -0.15603637695 0.24750518799 
-0.0012168884277 -0.15603637695 0.24750518799 -0.0012168884277 -0.15603637695 0.24750518799 -0.0012168884277 -0.15603637695 0.24750518799 
-0.0012168884277 -0.15603637695 0.24750518799 -0.0012168884277 -0.15603637695 0.24750518799 -0.0012168884277 -0.15603637695 0.24750518799 
-0.0012168884277 -0.15603637695 0.24750518799 -0.0012168884277 -0.15603637695 0.24750518799 -0.0012168884277 -0.15603637695 0.24750518799 
-0.0012168884277 -0.15603637695 0.24750518799 -0.0012168884277 -0.15603637695 0.24750518799 -0.0012168884277 -0.15603637695 0.24750518799 
-0.0012168884277 -0.15603637695 0.24750518799 -0.0012168884277 -0.15603637695 0.24750518799 -0.0012168884277 -0.15603637695 0.24750518799 
-0.0012168884277 -0.15603637695 0.24750518799 -0.0012168884277 -0.15603637695 0.24750518799 -0.0012168884277 -0.15603637695 0.24750518799 
-0.0012168884277 -0.15603637695 0.24750518799 -0.0012168884277 -0.15603637695 0.24750518799 -0.0012168884277 -0.15603637695 0.24750518799 
-0.0012168884277 -0.15603637695 0.24750518799 -0.0012168884277 -0.15603637695 0.24750518799 -0.0012168884277 -0.15603637695 0.24750518799 
-0.0012168884277 -0.15603637695 0.24750518799 -0.0012168884277 -0.15603637695 0.24750518799 -0.0012168884277 -0.15603637695 0.24750518799 
-0.0012168884277 -0.15603637695 0.24750518799 -0.0012168884277 -0.15603637695 0.24750518799 -0.0012168884277 -0.15603637695 0.24750518799 
-0.0012168884277 -0.15603637695 0.24750518799 -0.0012168884277 -0.15603637695 0.24750518799 -0.0012168884277 -0.15603637695 0.24750518799 
-0.0012168884277 -0.15603637695 0.24750518799 -0.0012168884277 -0.15603637695 0.24750518799 -0.0012168884277 -0.15603637695 0.24750518799 
-0.0012168884277 -0.15603637695 0.24750518799 -0.0012168884277 -0.15603637695 0.24750518799 -0.0012168884277 -0.15603637695 0.24750518799 
-0.0012168884277 -0.15603637695 0.24750518799 -0.0012168884277 -0.15603637695 0.24750518799 -0.0012168884277 -0.15603637695 0.24750518799 
-0.0012168884277 -0.15603637695 0.24750518799 -0.0012168884277 -0.15603637695 0.24750518799 -0.0012168884277 -0.15603637695 0.24750518799 
-0.0012168884277 -0.15603637695 0.24750518799 -0.0012168884277 -0.15603637695 0.24750518799 -0.0012168884277 -0.15603637695 0.24750518799 
-0.0012168884277 -0.15603637695 0.24750518799 -0.0012168884277 -0.15603637695 0.24750518799 -0.0012168884277 -0.15603637695 0.24750518799 
-0.0012168884277 -0.15603637695 0.24750518799 -0.0012168884277 -0.15603637695 0.24750518799 -0.0012168884277 -0.15603637695 0.24750518799 
-0.0012168884277 -0.15603637695 0.24750518799 -0.0012168884277 -0.15603637695 0.24750518799 -0.0012168884277 -0.15603637695 0.24750518799 
-0.0012168884277 -0.15603637695 0.24750518799 -0.0012168884277 -0.15603637695 0.24750518799 -0.0012168884277 -0.15603637695 0.24750518799 
-0.0012168884277 -0.15603637695 0.24750518799 -0.0012168884277 -0.15603637695 0.24750518799 -0.0012168884277 -0.15603637695 0.24750518799 
-0.0012168884277 -0.15603637695 0.24750518799 -0.0012168884277 -0.15603637695 0.24750518799 -0.0012168884277 -0.15603637695 0.24750518799 
-0.0012168884277 -0.15603637695 0.24750518799 -0.0012168884277 -0.15603637695 0.24750518799 -0.0012168884277 -0.15603637695 0.24750518799 
-0.0012168884277 -0.15603637695 0.24750518799 -0.0012168884277 -0.15603637695 0.24750518799 -0.0012168884277 -0.15603637695 0.24750518799 
-0.0012168884277 -0.15603637695 0.24750518799 -0.0012168884277 -0.15603637695 0.24750518799 -0.0012168884277 -0.15603637695 0.24750518799 
-0.0012168884277 -0.15603637695 0.24750518799 -0.0012168884277 -0.15603637695 0.24750518799 -0.0012168884277 -0.15603637695 0.24750518799 
-0.0012168884277 -0.15603637695 0.24750518799 -0.0012168884277 -0.15603637695 0.24750518799 -0.0012168884277 -0.15603637695 0.24750518799 
-0.0012168884277 -0.15603637695 0.24750518799 -0.0012168884277 -0.15603637695 0.24750518799 -0.0012168884277 -0.15603637695 0.24750518799 
-0.0012168884277 -0.15603637695 0.24750518799 -0.0012168884277 -0.15603637695 0.24750518799 -0.0012168884277 -0.15603637695 0.24750518799 
-0.0012168884277 -0.15603637695 0.24750518799 -0.0012168884277 -0.15603637695 0.24750518799 -0.0012168884277 -0.15603637695 0.24750518799 
-0.0012168884277 -0.15603637695 0.24750518799 -0.0012168884277 -0.15603637695 0.24750518799 -0.0012168884277 -0.15603637695 0.24750518799 
-0.0012168884277 -0.15603637695 0.24750518799 -0.0012168884277 -0.15603637695 0.24750518799 -0.0012168884277 -0.15603637695 0.24750518799 
-0.0012168884277 -0.15603637695 0.24750518799 -0.0012168884277 -0.15603637695 0.24750518799 -0.0012168884277 -0.15603637695 0.24750518799 
-0.0012168884277 -0.15603637695 0.24750518799 -0.0012168884277 -0.15603637695 0.24750518799 -0.0012168884277 -0.15603637695 0.24750518799 
-0.0012168884277 -0.15603637695 0.24750518799 -0.0012168884277 -0.15603637695 0.24750518799 -0.0012168884277 -0.15603637695 0.24750518799 
-0.0012168884277 -0.15603637695 0.24750518799 -0.0012168884277 -0.15603637695 0.24750518799 -0.0012168884277 -0.15603637695 0.24750518799 
-0.0012168884277 -0.15603637695 0.24750518799 -0.0012168884277 -0.15603637695 0.24750518799 -0.0012168884277 -0.15603637695 0.24750518799 
-0.0012168884277 -0.15603637695 0.24750518799 -0.0012168884277 -0.15603637695 0.24750518799 -0.0012168884277 -0.15603637695 0.24750518799 
-0.0012168884277 -0.15603637695 0.24750518799 -0.0012168884277 -0.15603637695 0.24750518799 -0.0012168884277 -0.15603637695 0.24750518799 
-0.0012168884277 -0.15603637695 0.24750518799 -0.0012168884277 -0.15603637695 0.24750518799 -0.0012168884277 -0.15603637695 0.24750518799 
-0.0012168884277 -0.15603637695 0.24750518799 -0.0012168884277 -0.15603637695 0.24750518799 -0.0012168884277 -0.15603637695 0.24750518799 
-0.0012168884277 -0.15603637695 0.24750518799 -0.0012168884277 -0.15603637695 0.24750518799 -0.0012168884277 -0.15603637695 0.24750518799 
-0.0012168884277 -0.15603637695 0.24750518799 -0.0012168884277 -0.15603637695 0.24750518799 -0.0012168884277 -0.15603637695 0.24750518799 
-0.0012168884277 -0.15603637695 0.24750518799 -0.0012168884277 -0.15603637695 0.24750518799 -0.0012168884277 -0.15603637695 0.24750518799 
-0.0012168884277 -0.15603637695 0.24750518799 -0.0012168884277 -0.15603637695 0.24750518799 -0.0012168884277 -0.15603637695 0.24750518799 
-0.0012168884277 -0.15603637695 0.24750518799 -0.0012168884277 -0.15603637695 0.24750518799 -0.0012168884277 -0.15603637695 0.24750518799 
-0.0012168884277 -0.15603637695 0.24750518799 -0.0012168884277 -0.15603637695 0.24750518799 -0.0012168884277 -0.15603637695 0.24750518799 
-0.0012168884277 -0.15603637695 0.24750518799 -0.0012168884277 -0.15603637695 0.24750518799 -0.0012168884277 -0.15603637695 0.24750518799 
-0.0012168884277 -0.15603637695 0.24750518799 -0.0012168884277 -0.15603637695 0.24750518799 -0.0012168884277 -0.15603637695 0.24750518799 
-0.0012168884277 -0.15603637695 0.24750518799 -0.0012168884277 -0.15603637695 0.24750518799 -0.0012168884277 -0.15603637695 0.24750518799 
-0.0012168884277 -0.15603637695 0.24750518799 -0.0012168884277 -0.15603637695 0.24750518799 -0.0012168884277 -0.15603637695 0.24750518799 
-0.0012168884277 -0.15603637695 0.24750518799 -0.0012168884277 -0.15603637695 0.24750518799 -0.0012168884277 -0.15603637695 0.24750518799 
-0.0012168884277 -0.15603637695 0.24750518799 -0.0012168884277 -0.15603637695 0.24750518799 -0.0012168884277 -0.15603637695 0.24750518799 
-0.0012168884277 -0.15603637695 0.24750518799 -0.0012168884277 -0.15603637695 0.24750518799 -0.0012168884277 -0.15603637695 0.24750518799 
-0.0012168884277 -0.15603637695 0.24750518799 -0.0012168884277 -0.15603637695 0.24750518799 -0.0012168884277 -0.15603637695 0.24750518799 
-0.0012168884277 -0.15603637695 0.24750518799 -0.0012168884277 -0.15603637695 0.24750518799 -0.0012168884277 -0.15603637695 0.24750518799 
-0.0012168884277 -0.15603637695 0.24750518799 -0.0012168884277 -0.15603637695 0.24750518799 -0.0012168884277 -0.15603637695 0.24750518799 
-0.0012168884277 -0.15603637695 0.24750518799 -0.0012168884277 -0.15603637695 0.24750518799 -0.0012168884277 -0.15603637695 0.24750518799 
-0.0012168884277 -0.15603637695 0.24750518799 -0.0012168884277 -0.15603637695 0.24750518799 -0.0012168884277 -0.15603637695 0.24750518799 
-0.0012168884277 -0.15603637695 0.24750518799 -0.0012168884277 -0.15603637695 0.24750518799 -0.0012168884277 -0.15603637695 0.24750518799 
-0.0012168884277 -0.15603637695 0.24750518799 -0.0012168884277 -0.15603637695 0.24750518799 -0.0012168884277 -0.15603637695 0.24750518799 
-0.0012168884277 -0.15603637695 0.24750518799 -0.0012168884277 -0.15603637695 0.24750518799 -0.0012168884277 -0.15603637695 0.24750518799 
-0.0012168884277 -0.15603637695 0.24750518799 -0.0012168884277 -0.15603637695 0.24750518799 -0.0012168884277 -0.15603637695 0.24750518799 
-0.0012168884277 -0.15603637695 0.24750518799 -0.0012168884277 -0.15603637695 0.24750518799 -0.0012168884277 -0.15603637695 0.24750518799 
-0.0012168884277 -0.15603637695 0.24750518799 -0.0012168884277 -0.15603637695 0.24750518799 -0.0012168884277 -0.15603637695 0.24750518799 
-0.0012168884277 -0.15603637695 0.24750518799 -0.0012168884277 -0.15603637695 0.24750518799 -0.0012168884277 -0.15603637695 0.24750518799 
-0.0012168884277 -0.15603637695 0.24750518799 -0.0012168884277 -0.15603637695 0.24750518799 -0.0012168884277 -0.15603637695 0.24750518799 
-0.0012168884277 -0.15603637695 0.24750518799 -0.0012168884277 -0.15603637695 0.24750518799 -0.0012168884277 -0.15603637695 0.24750518799 
-0.0012168884277 -0.15603637695 0.24750518799 -0.0012168884277 -0.15603637695 0.24750518799 -0.0012168884277 -0.15603637695 0.24750518799 
-0.0012168884277 -0.15603637695 0.24750518799 -0.0012168884277 -0.15603637695 0.24750518799 -0.0012168884277 -0.15603637695 0.24750518799 
-0.0012168884277 -0.15603637695 0.24750518799 -0.0012168884277 -0.15603637695 0.24750518799 -0.0012168884277 -0.15603637695 0.24750518799 
-0.0012168884277 -0.15603637695 0.24750518799 -0.0012168884277 -0.15603637695 0.24750518799 -0.0012168884277 -0.15603637695 0.24750518799 
-0.0012168884277 -0.15603637695 0.24750518799 -0.0012168884277 -0.15603637695 0.24750518799 -0.0012168884277 -0.15603637695 0.24750518799 
-0.0012168884277 -0.15603637695 0.24750518799 -0.0012168884277 -0.15603637695 0.24750518799 -0.0012168884277 -0.15603637695 0.24750518799 
-0.0012168884277 -0.15603637695 0.24750518799 -0.0012168884277 -0.15603637695 0.24750518799 -0.0012168884277 -0.15603637695 0.24750518799 
-0.0012168884277 -0.15603637695 0.24750518799 -0.0012168884277 -0.15603637695 0.24750518799 -0.0012168884277 -0.15603637695 0.24750518799 
-0.0012168884277 -0.15603637695 0.24750518799 -0.0012168884277 -0.15603637695 0.24750518799 -0.0012168884277 -0.15603637695 0.24750518799 
-0.0012168884277 -0.15603637695 0.24750518799 -0.0012168884277 -0.15603637695 0.24750518799 -0.0012168884277 -0.15603637695 0.24750518799 
-0.0012168884277 -0.15603637695 0.24750518799 -0.0012168884277 -0.15603637695 0.24750518799 -0.0012168884277 -0.15603637695 0.24750518799 
-0.0012168884277 -0.15603637695 0.24750518799 -0.0012168884277 -0.15603637695 0.24750518799 -0.0012168884277 -0.15603637695 0.24750518799 
-0.0012168884277 -0.15603637695 0.24750518799 -0.0012168884277 -0.15603637695 0.24750518799 -0.0012168884277 -0.15603637695 0.24750518799 
-0.0012168884277 -0.15603637695 0.24750518799 -0.0012168884277 -0.15603637695 0.24750518799 -0.0012168884277 -0.15603637695 0.24750518799 
-0.0012168884277 -0.15603637695 0.24750518799 -0.0012168884277 -0.15603637695 0.24750518799 -0.0012168884277 -0.15603637695 0.24750518799 
-0.0012168884277 -0.15603637695 0.24750518799 -0.0012168884277 -0.15603637695 0.24750518799 -0.0012168884277 -0.15603637695 0.24750518799 
-0.0012168884277 -0.15603637695 0.24750518799 -0.0012168884277 -0.15603637695 0.24750518799 -0.0012168884277 -0.15603637695 0.24750518799 
-0.0012168884277 -0.15603637695 0.24750518799 -0.0012168884277 -0.15603637695 0.24750518799 -0.0012168884277 -0.15603637695 0.24750518799 
-0.0012168884277 -0.15603637695 0.24750518799 -0.0012168884277 -0.15603637695 0.24750518799 -0.0012168884277 -0.15603637695 0.24750518799 
-0.0012168884277 -0.15603637695 0.24750518799 -0.0012168884277 -0.15603637695 0.24750518799 -0.0012168884277 -0.15603637695 0.24750518799 
-0.0012168884277 -0.15603637695 0.24750518799 -0.0012168884277 -0.15603637695 0.24750518799 -0.0012168884277 -0.15603637695 0.24750518799 
-0.0012168884277 -0.15603637695 0.24750518799 -0.0012168884277 -0.15603637695 0.24750518799 -0.0012168884277 -0.15603637695 0.24750518799 
-0.0012168884277 -0.15603637695 0.24750518799 -0.0012168884277 -0.15603637695 0.24750518799 -0.0012168884277 -0.15603637695 0.24750518799 
-0.0012168884277 -0.15603637695 0.24750518799 -0.0012168884277 -0.15603637695 0.24750518799 -0.0012168884277 -0.15603637695 0.24750518799 
-0.0012168884277 -0.15603637695 0.24750518799 -0.0012168884277 -0.15603637695 0.24750518799 -0.0012168884277 -0.15603637695 0.24750518799 
-0.0012168884277 -0.15603637695 0.24750518799 -0.0012168884277 -0.15603637695 0.24750518799 -0.0012168884277 -0.15603637695 0.24750518799 
-0.0012168884277 -0.15603637695 0.24750518799 -0.0012168884277 -0.15603637695 0.24750518799 -0.0012168884277 -0.15603637695 0.24750518799 
-0.0012168884277 -0.15603637695 0.24750518799 -0.0012168884277 -0.15603637695 0.24750518799 -0.0012168884277 -0.15603637695 0.24750518799 
-0.0012168884277 -0.15603637695 0.24750518799 -0.0012168884277 -0.15603637695 0.24750518799 -0.0012168884277 -0.15603637695 0.24750518799 
-0.0012168884277 -0.15603637695 0.24750518799 -0.0012168884277 -0.15603637695 0.24750518799 -0.0012168884277 -0.15603637695 0.24750518799 
-0.0012168884277 -0.15603637695 0.24750518799 -0.0012168884277 -0.15603637695 0.24750518799 -0.0012168884277 -0.15603637695 0.24750518799 
-0.0012168884277 -0.15603637695 0.24750518799 -0.0012168884277 -0.15603637695 0.24750518799 -0.0012168884277 -0.15603637695 0.24750518799 
-0.0012168884277 -0.15603637695 0.24750518799 -0.0012168884277 -0.15603637695 0.24750518799 -0.0012168884277 -0.15603637695 0.24750518799 
-0.0012168884277 -0.15603637695 0.24750518799 -0.0012168884277 -0.15603637695 0.24750518799 -0.0012168884277 -0.15603637695 0.24750518799 
-0.0012168884277 -0.15603637695 0.24750518799 -0.0012168884277 -0.15603637695 0.24750518799 -0.0012168884277 -0.15603637695 0.24750518799 
-0.0012168884277 -0.15603637695 0.24750518799 -0.0012168884277 -0.15603637695 0.24750518799 -0.0012168884277 -0.15603637695 0.24750518799 
-0.0012168884277 -0.15603637695 0.24750518799 -0.0012168884277 -0.15603637695 0.24750518799 -0.0012168884277 -0.15603637695 0.24750518799 
-0.0012168884277 -0.15603637695 0.24750518799 -0.0012168884277 -0.15603637695 0.24750518799 -0.0012168884277 -0.15603637695 0.24750518799 
-0.0012168884277 -0.15603637695 0.24750518799 -0.0012168884277 -0.15603637695 0.24750518799 -0.0012168884277 -0.15603637695 0.24750518799 
-0.0012168884277 -0.15603637695 0.24750518799 -0.0012168884277 -0.15603637695 0.24750518799 -0.0012168884277 -0.15603637695 0.24750518799 
-0.0012168884277 -0.15603637695 0.24750518799 -0.0012168884277 -0.15603637695 0.24750518799 -0.0012168884277 -0.15603637695 0.24750518799 
-0.0012168884277 -0.15603637695 0.24750518799 -0.0012168884277 -0.15603637695 0.24750518799 -0.0012168884277 -0.15603637695 0.24750518799 
-0.0012168884277 -0.15603637695 0.24750518799 -0.0012168884277 -0.15603637695 0.24750518799 -0.0012168884277 -0.15603637695 0.24750518799 
-0.0012168884277 -0.15603637695 0.24750518799 -0.0012168884277 -0.15603637695 0.24750518799 -0.0012168884277 -0.15603637695 0.24750518799 
-0.0012168884277 -0.15603637695 0.24750518799 -0.0012168884277 -0.15603637695 0.24750518799 -0.0012168884277 -0.15603637695 0.24750518799 
-0.0012168884277 -0.15603637695 0.24750518799 -0.0012168884277 -0.15603637695 0.24750518799 -0.0012168884277 -0.15603637695 0.24750518799 
-0.0012168884277 -0.15603637695 0.24750518799 -0.0012168884277 -0.15603637695 0.24750518799 -0.0012168884277 -0.15603637695 0.24750518799 
-0.0012168884277 -0.15603637695 0.24750518799 -0.0012168884277 -0.15603637695 0.24750518799 -0.0012168884277 -0.15603637695 0.24750518799 
-0.0012168884277 -0.15603637695 0.24750518799 -0.0012168884277 -0.15603637695 0.24750518799 -0.0012168884277 -0.15603637695 0.24750518799 
-0.0012168884277 -0.15603637695 0.24750518799 -0.0012168884277 -0.15603637695 0.24750518799 -0.0012168884277 -0.15603637695 0.24750518799 
-0.0012168884277 -0.15603637695 0.24750518799 -0.0012168884277 -0.15603637695 0.24750518799 -0.0012168884277 -0.15603637695 0.24750518799 
-0.0012168884277 -0.15603637695 0.24750518799 -0.0012168884277 -0.15603637695 0.24750518799 -0.0012168884277 -0.15603637695 0.24750518799 
-0.0012168884277 -0.15603637695 0.24750518799 -0.0012168884277 -0.15603637695 0.24750518799 -0.0012168884277 -0.15603637695 0.24750518799 
-0.0012168884277 -0.15603637695 0.24750518799 -0.0012168884277 -0.15603637695 0.24750518799 -0.0012168884277 -0.15603637695 0.24750518799 
-0.0012168884277 -0.15603637695 0.24750518799 -0.0012168884277 -0.15603637695 0.24750518799 -0.0012168884277 -0.15603637695 0.24750518799 
-0.0012168884277 -0.15603637695 0.24750518799 -0.0012168884277 -0.15603637695 0.24750518799 -0.0012168884277 -0.15603637695 0.24750518799 
-0.0012168884277 -0.15603637695 0.24750518799 -0.0012168884277 -0.15603637695 0.24750518799 -0.0012168884277 -0.15603637695 0.24750518799 
-0.0012168884277 -0.15603637695 0.24750518799 -0.0012168884277 -0.15603637695 0.24750518799 -0.0012168884277 -0.15603637695 0.24750518799 
-0.0012168884277 -0.15603637695 0.24750518799 -0.0012168884277 -0.15603637695 0.24750518799 -0.0012168884277 -0.15603637695 0.24750518799 
-0.0012168884277 -0.15603637695 0.24750518799 -0.0012168884277 -0.15603637695 0.24750518799 -0.0012168884277 -0.15603637695 0.24750518799 
-0.0012168884277 -0.15603637695 0.24750518799 -0.0012168884277 -0.15603637695 0.24750518799 -0.0012168884277 -0.15603637695 0.24750518799 
-0.0012168884277 -0.15603637695 0.24750518799 -0.0012168884277 -0.15603637695 0.24750518799 -0.0012168884277 -0.15603637695 0.24750518799 
-0.0012168884277 -0.15603637695 0.24750518799 -0.0012168884277 -0.15603637695 0.24750518799 -0.0012168884277 -0.15603637695 0.24750518799 
-0.0012168884277 -0.15603637695 0.24750518799 -0.0012168884277 -0.15603637695 0.24750518799 -0.0012168884277 -0.15603637695 0.24750518799 
-0.0012168884277 -0.15603637695 0.24750518799 -0.0012168884277 -0.15603637695 0.24750518799 -0.0012168884277 -0.15603637695 0.24750518799 
-0.0012168884277 -0.15603637695 0.24750518799 -0.0012168884277 -0.15603637695 0.24750518799 -0.0012168884277 -0.15603637695 0.24750518799 
-0.0012168884277 -0.15603637695 0.24750518799 -0.0012168884277 -0.15603637695 0.24750518799 -0.0012168884277 -0.15603637695 0.24750518799 
-0.0012168884277 -0.15603637695 0.24750518799 -0.0012168884277 -0.15603637695 0.24750518799 -0.0012168884277 -0.15603637695 0.24750518799 
-0.0012168884277 -0.15603637695 0.24750518799 -0.0012168884277 -0.15603637695 0.24750518799 -0.0012168884277 -0.15603637695 0.24750518799 
-0.0012168884277 -0.15603637695 0.24750518799 -0.0012168884277 -0.15603637695 0.24750518799 -0.0012168884277 -0.15603637695 0.24750518799 
-0.0012168884277 -0.15603637695 0.24750518799 -0.0012168884277 -0.15603637695 0.24750518799 -0.0012168884277 -0.15603637695 0.24750518799 
-0.0012168884277 -0.15603637695 0.24750518799 -0.0012168884277 -0.15603637695 0.24750518799 -0.0012168884277 -0.15603637695 0.24750518799 
-0.0012168884277 -0.15603637695 0.24750518799 -0.0012168884277 -0.15603637695 0.24750518799 -0.0012168884277 -0.15603637695 0.24750518799 
-0.0012168884277 -0.15603637695 0.24750518799 -0.0012168884277 -0.15603637695 0.24750518799 -0.0012168884277 -0.15603637695 0.24750518799 
-0.0012168884277 -0.15603637695 0.24750518799 -0.0012168884277 -0.15603637695 0.24750518799 -0.0012168884277 -0.15603637695 0.24750518799 
-0.0012168884277 -0.15603637695 0.24750518799 -0.0012168884277 -0.15603637695 0.24750518799 -0.0012168884277 -0.15603637695 0.24750518799 
-0.0012168884277 -0.15603637695 0.24750518799 -0.0012168884277 -0.15603637695 0.24750518799 -0.0012168884277 -0.15603637695 0.24750518799 
-0.0012168884277 -0.15603637695 0.24750518799 -0.0012168884277 -0.15603637695 0.24750518799 -0.0012168884277 -0.15603637695 0.24750518799 
-0.0012168884277 -0.15603637695 0.24750518799 -0.0012168884277 -0.15603637695 0.24750518799 -0.0012168884277 -0.15603637695 0.24750518799 
-0.0012168884277 -0.15603637695 0.24750518799 -0.0012168884277 -0.15603637695 0.24750518799 -0.0012168884277 -0.15603637695 0.24750518799 
-0.0012168884277 -0.15603637695 0.24750518799 -0.0012168884277 -0.15603637695 0.24750518799 -0.0012168884277 -0.15603637695 0.24750518799 
-0.0012168884277 -0.15603637695 0.24750518799 -0.0012168884277 -0.15603637695 0.24750518799 -0.0012168884277 -0.15603637695 0.24750518799 
-0.0012168884277 -0.15603637695 0.24750518799 
Displacement_Total 3 1114 double
-0.073532104492 -0.16405487061 0.56466674805 -0.088608749834 -0.23675110693 0.53374070715 -0.078212992724 -0.32363730037 0.56271386755 
-0.066105334769 -0.26750075087 0.60038466139 -0.084459167442 -0.26908756646 0.52236645411 -0.081698947505 -0.37307775483 0.55475506 
-0.07258106559 -0.32024848425 0.558456501 -0.067933982035 -0.4367584861 0.57584415766 -0.043969746826 -0.38610552007 0.59657880491 
-0.036889553185 -0.51570294121 0.60086917223 -0.0013188965839 -0.43314568065 0.59292797658 0.010109548682 -0.5700963864 0.59949611212 
0.020356311415 -0.43152579557 0.56919261047 0.067720496013 -0.57939822451 0.56616181037 0.076178631455 -0.42099108519 0.48255621793 
0.1286887329 -0.55236306887 0.46877490216 0.1393361486 -0.42252246706 0.39226349734 0.17541751932 -0.54012969291 0.36841049848 
0.18836892456 -0.41403138008 0.32964086118 0.22656270659 -0.50413174065 0.28235696491 0.21824472514 -0.38635455438 0.30878289035 
0.27269519154 -0.47918449836 0.23846976129 0.26327896332 -0.36707858901 0.31346337831 0.29016858524 -0.45581301632 0.24732105072 
0.32865755101 -0.3556798662 0.36618963986 0.32899285252 -0.432166711 0.27058161447 0.37043900788 -0.31155107635 0.37686617404 
0.36835503222 -0.40894604302 0.27199676194 0.41992561126 -0.27847901862 0.36559463746 0.39928383663 -0.37253569233 0.26344324292 
0.45143355259 -0.24541940774 0.32796261925 0.43017031477 -0.33022099925 0.20964913339 0.48009856922 -0.22743820272 0.27878555044 
0.42694825809 -0.29811033096 0.16147460852 0.51256689926 -0.22284806006 0.22428207295 0.4313771766 -0.28091667567 0.12095341515 
0.50857706205 -0.2281014225 0.16170809404 0.43276091002 -0.28254237417 0.070901702406 0.50771510473 -0.24068071785 0.11088373346 
0.43322748991 -0.29753587499 0.034515135708 0.53337425226 -0.25344245002 0.081451876541 0.45862043158 -0.31460019521 0.021146851572 
0.54995365146 -0.23738995119 0.048939728602 0.45642776594 -0.33068260189 -0.010972460879 0.5650991233 -0.20145255716 0.0039257407277 
0.46620995921 -0.30842118323 -0.039884315661 0.57487246029 -0.15558879364 -0.041605062751 0.47324694066 -0.27006019328 -0.078010480017 
0.57318268111 -0.10838959796 -0.085223760739 0.46386462211 -0.22280662759 -0.12913889561 0.55251914735 -0.06992410036 -0.1281040203 
0.46162282508 -0.16175627514 -0.16765620779 0.5432528431 0.0020371760412 -0.10922843821 0.43217081414 -0.10697909367 -0.16839572708 
0.49404768517 0.047710676931 -0.063041313468 0.38827801747 -0.07500010245 -0.11625092172 0.4253367345 0.072526183034 0.019171709006 
0.31980729588 -0.048623515234 -0.025976361626 0.35191648839 0.079047543304 0.12100970079 0.24783775052 -0.05523949883 0.073700341702 
0.28234420871 0.066659485962 0.20923778434 0.16700756619 -0.038196021629 0.18377501137 0.20762975155 0.032716885397 0.30871128988 
0.091186839579 -0.061834003046 0.27464354574 0.15098559432 0.027293086873 0.38220313009 0.031716887468 -0.071294887677 0.36943442033 
0.10514248616 0.02119596769 0.45766708283 -0.01589147456 -0.076593596921 0.46464888339 0.06553914843 0.0055332123773 0.54075004208 
-0.050684060106 -0.073079313878 0.54177002971 0.028627019098 -0.0074809997752 0.61027579956 -0.07973565966 -0.077523009606 0.61908540799 
-0.013338529769 0.00079214366175 0.65530438658 -0.080379253638 -0.087116366353 0.6735808818 -0.027667831625 -0.0039136108457 0.70191460594 
-0.098933639286 -0.09597964171 0.71090243603 -0.057712090101 0.0031441323863 0.7234358503 -0.093748846105 -0.11475682862 0.7344656976 
-0.078625634801 -0.0028062439875 0.72069207944 -0.075681457354 -0.12845738893 0.74400809808 -0.075217018112 -0.034610357603 0.68658908222 
-0.072424831167 -0.15275094989 0.71885539963 -0.066656081396 -0.084939259807 0.62080397454 -0.078131411626 -0.20378223101 0.66738522485 
0.1236038208 -0.034477233887 -0.24098968506 0.076936812171 -0.0323381106 -0.23161297593 0.0747357337 -0.089281564317 -0.24773804636 
0.12395661262 -0.10371902725 -0.26878408881 0.036511998834 -0.029523266398 -0.21923024188 0.029966262293 -0.078112200006 -0.22521969829 
0.014234930741 -0.024743919251 -0.19810818269 -0.0063847500182 -0.071229198973 -0.20626713636 0.0056299574408 -0.029206025324 -0.19127066434 
-0.01773498256 -0.080846679116 -0.19334916717 0.0090570763326 -0.041801048762 -0.19700421979 -0.0079599950955 -0.10175731143 -0.18717865612 
0.026694876102 -0.072432952353 -0.22482109274 0.032501773542 -0.14365026736 -0.20240520041 0.04917709088 -0.10846997525 -0.25313206752 
0.063459848225 -0.19001307588 -0.22269928586 0.07821238303 -0.15163068057 -0.28033442514 0.078013214952 -0.24138635481 -0.24997768282 
0.13409537383 -0.18605929761 -0.30804294752 0.1300552208 -0.28756130712 -0.27299365109 0.19233692878 -0.21648707928 -0.33438188079 
0.17671447177 -0.32788746956 -0.29838724365 0.24783855699 -0.24280862213 -0.35848388014 0.21423310281 -0.36325384596 -0.32303595854 
0.29333979299 -0.27779759105 -0.39745160605 0.23863647054 -0.38598211946 -0.34828365409 0.314431771 -0.30694752743 -0.43263972238 
0.25145251932 -0.40339538776 -0.3788856082 0.31528993542 -0.33015800041 -0.46204428577 0.2316519593 -0.42653956846 -0.41083247256 
0.3457029128 -0.35632210596 -0.47646276314 0.2279858851 -0.44367113429 -0.42142323557 0.34589309286 -0.3792152311 -0.49746598735 
0.22939128116 -0.46740584111 -0.43979087303 0.3337388172 -0.40358502629 -0.52132743811 0.23733471702 -0.48380825442 -0.47012756564 
0.34631211111 -0.44499812126 -0.54066309757 0.23663337726 -0.51589843496 -0.50514543294 0.34558756751 -0.47674828575 -0.56106613006 
0.23387038036 -0.55886410074 -0.52584427879 0.33501776821 -0.50350249593 -0.57888607711 0.23179132214 -0.60676024458 -0.53429393904 
0.30559930923 -0.52866248578 -0.57930228029 0.22418805504 -0.62847963281 -0.52828970989 0.26697228506 -0.51921218065 -0.58966107769 
0.19414414996 -0.6284366377 -0.52649887076 0.21900828921 -0.48908569706 -0.60149458175 0.12221218339 -0.60947321432 -0.52838517979 
0.14465323824 -0.44745129771 -0.58947788343 0.030196100454 -0.55828899242 -0.524559073 0.082988311064 -0.39780994979 -0.56583716321 
0.0013918777141 -0.46483256156 -0.53017075849 0.030765434319 -0.34457376477 -0.53428517139 -0.033872280753 -0.41611567754 -0.50873498704 
0.027301549487 -0.32317173751 -0.47761151577 -0.032766571253 -0.39389623188 -0.45328152843 0.041784527415 -0.30271179096 -0.41543451798 
-0.020378622799 -0.36978495107 -0.39020511475 0.082234526232 -0.2836149255 -0.3452948248 0.023440833428 -0.36122441967 -0.30418833075 
0.12572404183 -0.28353360457 -0.29038967499 0.077611053118 -0.37104095078 -0.22067013086 0.16869171143 -0.29062741987 -0.23857048976 
0.13680480134 -0.38989301843 -0.1411744557 0.20274930726 -0.30673505239 -0.17745801131 0.18804952136 -0.4233663981 -0.076995934355 
0.2281130983 -0.3293632204 -0.1381543649 0.22117539931 -0.46539940797 -0.025763134697 0.24460010312 -0.3586491638 -0.12111856838 
0.24189410824 -0.47677118777 -0.0074167459756 0.26175843624 -0.36898000179 -0.11904656652 0.25129221198 -0.49779814573 0.0065529333624 
0.27483841798 -0.37479754044 -0.1154248276 0.25802273368 -0.51448673418 0.016933247229 0.26701097801 -0.37422493846 -0.091353308573 
0.25559776961 -0.5302475618 0.036393415675 0.26142052854 -0.37867121464 -0.085717931252 0.25285519737 -0.54078798242 0.039047482241 
0.2575525586 -0.38701464395 -0.094842640343 0.2464184777 -0.54397025558 0.032258619925 0.23195677871 -0.3564584416 -0.095338682589 
0.22417174575 -0.52682381581 0.028846082777 0.20527142417 -0.31800381756 -0.083651837816 0.19332543561 -0.49033866168 0.037376775765 
0.17686994913 -0.26710888645 -0.052776494161 0.14733745561 -0.42864027688 0.058214096067 0.16181373483 -0.20065714516 -0.024347834021 
0.13048815603 -0.34662166882 0.089295571639 0.15459457034 -0.12690415621 0.0018976954689 0.12762663344 -0.24975117021 0.11950688003 
0.19604741875 -0.030174988313 0.0054852989811 0.17065353584 -0.14346134877 0.11523089153 0.23227611009 0.054553503621 0.0080993379568 
0.20949711823 -0.045860258021 0.099195026148 0.2570971346 0.11307686596 0.0085874646134 0.23615099298 0.024493974551 0.083016515399 
0.26424969648 0.16542519074 -0.00039727705916 0.24376796898 0.073391390745 0.056481257919 0.25682440501 0.21267863013 -0.01719787053 
0.23991813217 0.10671943677 0.030712499685 0.23500111516 0.21672752639 -0.047036196862 0.22536946747 0.11170030991 -0.016247598159 
0.20933398477 0.20857300476 -0.080012532127 0.20815312139 0.11405451677 -0.067583249174 0.17945392964 0.17198334358 -0.10871497417 
0.18345229318 0.089845817558 -0.10087003735 0.15582517643 0.13294053546 -0.13307981157 0.16459721953 0.058356435371 -0.13022989992 
0.14978307044 0.086996344233 -0.1452417633 0.1600997849 0.013611528869 -0.16185756547 0.14120126069 0.053114353112 -0.16696730355 
0.15699798916 -0.021052264565 -0.1921588353 0.13003587117 0.031502949091 -0.19842165319 0.15649457176 -0.045099671265 -0.22279803388 
0.12555033766 0.00033002660776 -0.22132986482 0.14401541939 -0.076004932474 -0.24908809478 -0.080278985238 -0.48081249255 0.55191591489 
-0.071116237443 -0.44307128864 0.57009461604 -0.068937264815 -0.53804669084 0.56288180677 -0.0034719301452 -0.64634329822 0.6044252931 
0.066568731529 -0.69234322218 0.60714627362 0.13298823921 -0.71091023615 0.55947879035 0.20350006648 -0.70598675743 0.44411606438 
0.2519125206 -0.6635372723 0.33011174716 0.29843683284 -0.61207608386 0.23747553482 0.32394202063 -0.5614609304 0.17638794832 
0.33435156361 -0.52207094427 0.17485228737 0.33826902304 -0.50046767414 0.18752444417 0.36327344305 -0.4948367787 0.17784304861 
0.39091379445 -0.44153598095 0.15898674688 0.40159591998 -0.39939375346 0.10607374504 0.40080898405 -0.35135067716 0.054478764961 
0.38124354785 -0.33922959311 0.024579892985 0.36592959085 -0.33017535483 -0.0046302409255 0.36808259828 -0.36351175953 -0.021490658227 
0.37786735451 -0.39365986533 -0.024468577178 0.38645141634 -0.41335420683 -0.035111939676 0.39762800866 -0.40576486282 -0.060803106436 
0.39886737601 -0.37020221902 -0.099033399909 0.36429984044 -0.34204849266 -0.16971399872 0.34895979236 -0.25172694107 -0.20792375351 
0.31253080074 -0.22639511451 -0.21244518045 0.26505728886 -0.20382825886 -0.15941634728 0.19748210801 -0.18229026788 -0.067924061529 
0.12134626999 -0.16418254768 0.038773302548 0.039282055341 -0.15346844055 0.14670868517 -0.036839471877 -0.15877758329 0.25092441644 
-0.093967842878 -0.14857293979 0.355078411 -0.14021351224 -0.14580001707 0.45040654881 -0.17204327145 -0.1514794277 0.53568968485 
-0.17664862937 -0.16105162204 0.60182505112 -0.18006938427 -0.18050268847 0.65177812137 -0.18372546704 -0.20295308608 0.68340091483 
-0.13955714281 -0.23998478237 0.69443720363 -0.10045406252 -0.27383005969 0.69936697134 -0.078329743351 -0.30356327329 0.68668613219 
-0.06921497606 -0.33643471731 0.6553481243 -0.067975393331 -0.38962951635 0.61310693575 -0.0050830428775 -0.1814283125 -0.1800388753 
0.050421495226 -0.19945988069 -0.20694873077 -0.038797190835 -0.18159525409 -0.15051680117 -0.07085551556 -0.18992731592 -0.12757026852 
-0.08343440718 -0.20478689957 -0.1121298851 -0.036423350287 -0.25689501573 -0.11972913409 -0.001092542374 -0.30724881965 -0.12904456139 
0.02343349279 -0.36172582527 -0.15109153057 0.080981272853 -0.41130914917 -0.17780303881 0.11116048252 -0.45759588642 -0.2198744334 
0.12535663997 -0.48678579541 -0.25994780066 0.1324007692 -0.50628980577 -0.29071553937 0.1459552042 -0.51413157943 -0.33095779635 
0.12484308073 -0.50930620063 -0.35437986133 0.10514394827 -0.51676119212 -0.36934796919 0.085174926948 -0.53548233285 -0.3904595584 
0.10003847183 -0.56464728121 -0.43001929902 0.12037972937 -0.60542514224 -0.46522265994 0.11923021445 -0.65975328455 -0.48060105916 
0.12260059468 -0.72285227706 -0.47785652917 0.11767479342 -0.75073191104 -0.47627362826 0.094622120133 -0.76156351714 -0.47142567354 
0.040323125929 -0.73654371553 -0.45892600258 -0.029430037421 -0.70648746272 -0.44182806576 -0.093767287166 -0.49428823935 -0.47215622895 
-0.057966931633 -0.51677934188 -0.49493556368 -0.080564985612 -0.47154502751 -0.40907855295 -0.047984042626 -0.44870706164 -0.33793262131 
0.025348579585 -0.44913148737 -0.25607007885 0.087578461464 -0.44964687586 -0.15487066054 0.14690001698 -0.46271842027 -0.053714632743 
0.20465952656 -0.49700387536 0.0212734019 0.24007297642 -0.56904831578 0.096767720289 0.23265044175 -0.60441046273 0.095965282077 
0.25168850177 -0.63235255091 0.10071241475 0.2648466475 -0.6662077971 0.10300012244 0.28100912514 -0.69192839565 0.11169556363 
0.28959856361 -0.71167950692 0.10906643301 0.28506980112 -0.72902924094 0.10549623607 0.24864502345 -0.70860372284 0.10851127675 
0.21403857764 -0.66441869504 0.13080998998 0.17621974911 -0.58624984506 0.15998859823 0.14449284637 -0.48786076831 0.19032994668 
0.12186103866 -0.3818317539 0.21675399804 0.15767620827 -0.27277381952 0.21647623557 0.18454361414 -0.17423190175 0.20534409394 
0.22013136951 -0.092345222638 0.17786688124 0.23168887629 -0.033069046165 0.13779455812 0.22110934918 0.0076127923971 0.079513800365 
0.2060555989 0.0062073057396 0.025901971647 0.1911725084 -0.0076516080148 -0.027122088095 0.1756300122 -0.026086126331 -0.064023655923 
0.17277203823 -0.050585527001 -0.098210340244 0.18090075815 -0.098896129565 -0.12686101317 0.18749366732 -0.14238434548 -0.16338253387 
0.18969518129 -0.17905202799 -0.20217582977 0.15353395781 -0.20103893265 -0.21947250796 0.10815888881 -0.2106963149 -0.23101941909 
-0.072051224654 -0.59518294039 -0.46972975454 -0.083498648826 -0.71093084387 -0.41512265613 0.15893133201 -0.79579560186 0.56910031662 
0.099562447805 -0.76143580289 0.57378104289 0.23556061012 -0.81000963227 0.50736941908 0.32185677107 -0.79485669941 0.40311326026 
0.37191287523 -0.75005364807 0.26974435029 0.39522607085 -0.69345116035 0.17423467479 0.39593580192 -0.6279008111 0.1082043212 
0.38239131848 -0.5802996705 0.1013236863 0.36389203465 -0.5593019845 0.11406561381 0.3681338759 -0.55276584072 0.10832314269 
0.38169269766 -0.50783034609 0.082181698623 0.38066915501 -0.454984904 0.02620777965 0.37803269724 -0.40570451469 -0.018804947405 
0.35521467667 -0.37667629947 -0.04278823403 0.32917047784 -0.38884523323 -0.072985283727 0.32829328461 -0.40990637975 -0.059359122794 
0.32617483215 -0.44507861648 -0.057326824538 0.32543156395 -0.47431408945 -0.055434635816 0.33910410105 -0.48841563525 -0.063470850233 
0.3311625981 -0.46303736099 -0.085817751774 0.2923351877 -0.45223846492 -0.12829392885 0.17936837164 -0.33058135717 -0.22636933119 
0.20957805026 -0.35793625009 -0.2321056103 0.13531743335 -0.30774050133 -0.17341896018 0.072271431466 -0.28582318853 -0.094997814394 
-0.00065435642878 -0.2711455247 0.010005584975 -0.078664058632 -0.25586459844 0.11664728157 -0.14868927752 -0.22716516343 0.22852944752 
-0.20186245086 -0.21522512964 0.33284152928 -0.24844535041 -0.21890485344 0.42719789949 -0.27927711798 -0.22901967057 0.51360195444 
-0.2726853163 -0.23076702851 0.56470770922 -0.25955493418 -0.26310708924 0.59760625592 -0.23262583083 -0.29048107539 0.61297033301 
-0.19314220507 -0.35532014135 0.60171760072 -0.13126295788 -0.38612132942 0.62010636844 -0.11472611402 -0.38738675141 0.62947610888 
-0.098423852913 -0.41162850786 0.61250486969 -0.099052887259 -0.4564113076 0.57587711102 -0.087662267343 -0.51879809911 0.55164526268 
-0.076827056365 -0.56358511869 0.54029554391 0.22571858959 -0.40162098918 -0.20866052695 0.21624879472 -0.46799666755 -0.1714523947 
-0.088349533263 -0.58141028377 -0.4232237789 -0.09257185062 -0.70169177728 -0.37087795893 -0.066352349234 -0.5603960495 -0.35758294192 
-0.016908002766 -0.53079324026 -0.28405813257 0.059880035271 -0.5212752114 -0.17402127223 0.12970405688 -0.5124208945 -0.073966135291 
0.18578198775 -0.5159299609 0.012876180448 0.22349693412 -0.54653281893 0.084279346333 0.25386771152 -0.595854966 0.14586505747 
0.27965876624 -0.73267153386 0.14332100729 0.24561903897 -0.69676231838 0.13952202529 0.29606657405 -0.77740004508 0.14568724704 
0.31584487855 -0.8174373358 0.15073497221 0.3181638314 -0.84962373831 0.15942206442 0.31366579354 -0.86863334224 0.16493327231 
0.292124079 -0.84849572095 0.17760978032 0.25643236498 -0.79887862185 0.2010257582 0.2134459025 -0.71829082273 0.23181651267 
0.16579530479 -0.62526244228 0.26848051102 0.11981885488 -0.52109159273 0.30027685878 0.13479206005 -0.407457057 0.30315432752 
0.16329951806 -0.31053935386 0.29194196666 0.19404382686 -0.23349165838 0.26940009766 0.20301896856 -0.17237400669 0.2182579379 
0.19794700067 -0.13256164537 0.15868017482 0.18066810286 -0.13477861484 0.091162432507 0.16730821909 -0.14674633787 0.03039689684 
0.17333319635 -0.17166164904 -0.011271816407 0.17720633055 -0.19150744407 -0.043989847441 0.19401764991 -0.23945175415 -0.069898279669 
0.19272118351 -0.29082256262 -0.0876108313 0.18894520383 -0.33694196365 -0.10943771837 0.13327076418 -0.36915844201 -0.10330295813 
0.071478220276 -0.36856923748 -0.11080655136 -0.010484793632 -0.35174209147 -0.087947800748 -0.073708523028 -0.32296727914 -0.060198051678 
-0.13109811099 -0.30846744967 -0.025128129264 -0.15727058871 -0.31801937432 0.0079370925774 -0.16445462253 -0.33599759631 0.03301553558 
-0.14181854679 -0.37400808117 0.039393389204 -0.097565282443 -0.43082444502 0.026555355862 -0.058049667501 -0.4946782501 -0.0020004502438 
-0.029938339961 -0.55145750186 -0.062696624266 -0.0012067700468 -0.59416529488 -0.12133525884 0.023178020567 -0.61502947232 -0.18462503062 
0.025618460223 -0.61287477826 -0.23208497251 0.022977113184 -0.60392425182 -0.27167818067 0.0080178105402 -0.60176974168 -0.28510033804 
-0.011982268031 -0.58724063417 -0.29993104634 -0.05649222583 -0.59280155731 -0.30971150648 -0.023467747582 -0.61406099363 -0.38510417807 
0.0025086321727 -0.68141060186 -0.40392159662 0.020539145086 -0.75292036951 -0.41904805324 0.047240317861 -0.84344769651 -0.4234086362 
0.032761394815 -0.8783176262 -0.41591925661 0.011872501846 -0.89637508933 -0.41033073475 -0.018594890629 -0.85213967453 -0.39897703782 
-0.074685007675 -0.84917599047 -0.36870914877 -0.11273220886 -0.86279186633 -0.34593021196 -0.076035138865 -0.83815547111 -0.32160090093 
-0.021403642442 -0.66896015379 -0.28715948231 -0.0072749645103 -0.81885757801 -0.2673025571 0.23972301656 -0.66450722419 0.15199891481 
0.26607939447 -0.66613304653 0.18024706335 0.12525330908 -0.44620536717 -0.23737203909 0.12260957978 -0.46524009965 -0.19376831653 
0.11514095423 -0.41377411133 -0.24668147288 0.078513979443 -0.39970190362 -0.23540152437 0.04493192747 -0.38354478725 -0.19332431841 
-0.018372057952 -0.35464911639 -0.1076600596 -0.084812935953 -0.33484986348 -0.0093386756211 -0.15655520137 -0.31690782033 0.095922710857 
-0.23522833776 -0.28666025954 0.19212991847 -0.28207649245 -0.27629387735 0.29350853961 -0.33547319938 -0.28186357056 0.38997778751 
-0.35322427539 -0.27569518869 0.47755699471 -0.35670299352 -0.30013072746 0.52827653097 -0.33796995402 -0.33047793367 0.55558857345 
-0.30385719264 -0.35961102666 0.56019334954 -0.26954459509 -0.38944298135 0.54538386363 -0.14686633658 -0.42475322057 0.56234409328 
-0.16418394101 -0.43681398918 0.55640679402 -0.14226204194 -0.42301564812 0.5495470593 -0.14209487981 -0.48101502808 0.52279359392 
-0.13171873998 -0.55270773522 0.49657693631 -0.12345559211 -0.60462776736 0.48906520351 0.28387629466 -0.87807518186 0.49190268315 
0.19548850231 -0.83676913066 0.51777211169 0.3753184512 -0.89383649441 0.42513822988 0.45828938699 -0.88151555314 0.33067934976 
0.52041436949 -0.83411246937 0.19758716811 0.52438141164 -0.77088860997 0.098317864471 0.49602903073 -0.70190963826 0.042135848907 
0.4517447372 -0.64266347381 0.032573098656 0.39812577139 -0.6041337769 0.056910327004 0.38151288169 -0.59228707492 0.070642975292 
0.37040488178 -0.55842932769 0.047485342409 0.37437257439 -0.49087633299 -0.026133546605 0.37327741457 -0.44077754418 -0.078236421744 
0.3475821181 -0.40821080783 -0.08892802234 0.31481073989 -0.41213330692 -0.094820361584 0.29670963501 -0.45203753186 -0.07695468996 
0.29066294781 -0.5019126141 -0.064480055375 0.29093903973 -0.54290220144 -0.062902980408 0.28756796315 -0.55725107906 -0.07323179256 
0.27956288826 -0.5504263793 -0.089760931985 0.24772551378 -0.5487787294 -0.10462691937 0.17139896705 -0.53657666708 -0.13817192417 
0.097683105394 -0.53231165139 -0.15976739367 0.058434372216 -0.45651961314 -0.20241581552 0.036849231884 -0.51945508975 -0.16110306028 
0.055191032219 -0.43675873195 -0.23260841738 0.056372843776 -0.7359346444 0.53048316023 0.14533571811 -0.79093380413 0.48517155366 
0.03345466301 -0.71934757015 0.48977026796 0.090513679864 -0.7557784751 0.47563395677 -0.20283651115 -0.42579725821 0.54166072335 
-0.25079333978 -0.45542092631 0.52011701455 0.053155822738 -0.61003405915 -0.19527592897 0.14151035045 -0.57738750389 -0.093848285583 
0.20709292672 -0.55473507811 -0.0071829469243 0.24071461575 -0.55471553098 0.065417732019 0.26653350987 -0.58284230643 0.12512503469 
0.28079863611 -0.6334061875 0.16019232004 0.30807798553 -0.69642567396 0.19579457578 0.27823295353 -0.74123118381 0.19894449707 
0.31316654636 -0.75813841763 0.20990499711 0.24758721744 -0.73141942756 0.18646102991 0.24434118726 -0.75167324126 0.17283170619 
0.25510504844 -0.79975984288 0.1644565274 0.27800998324 -0.8461779679 0.17894543426 0.30386048022 -0.89293845223 0.19121351874 
0.32403849985 -0.9222015793 0.20161552622 0.32716011804 -0.94399563168 0.21145577604 0.30514962821 -0.92417079997 0.22021095013 
0.28136508313 -0.88872329521 0.25427941308 0.23955383556 -0.82399955567 0.2948154532 0.19907791932 -0.7433220123 0.33453104534 
0.16569951163 -0.64300578623 0.3615249936 0.14461713616 -0.53577701337 0.36670674945 0.14367690509 -0.45024931827 0.36001585252 
0.16282019457 -0.37393182265 0.33870822195 0.1657654498 -0.33002998677 0.29911653477 0.15725938064 -0.30083005167 0.24329404428 
0.14373754874 -0.30324776153 0.16999427323 0.13566113014 -0.30525932373 0.10747165077 0.14554261841 -0.31970464445 0.059630020701 
0.15975340882 -0.34925091442 0.022847082079 0.17924323108 -0.40412631704 0.0052653616726 0.18154028337 -0.45930755997 0.010459526302 
0.17514288091 -0.51832012634 0.037866238002 0.072399639349 -0.61189692228 0.10502331174 -0.0093706211331 -0.55317995369 0.083671783816 
-0.082515826244 -0.50833857115 0.080674153896 -0.1467080828 -0.47797924987 0.10118395484 -0.20295852325 -0.45224972576 0.1359551074 
-0.23471584431 -0.45103287695 0.17076856791 -0.25636821298 -0.45798271093 0.2041383607 -0.23125579346 -0.50820290818 0.20774402315 
-0.20067058149 -0.56391064738 0.18818704609 -0.15883841688 -0.62567135219 0.14686309741 -0.13153926377 -0.67737796973 0.061946153534 
-0.11153296119 -0.70742624205 -0.024308664304 -0.098220505189 -0.71795637171 -0.096316248156 -0.099794048125 -0.70823134315 -0.1506092568 
-0.10078167807 -0.69494667043 -0.19796682291 -0.10226523387 -0.64595700487 -0.21373073377 -0.11510103974 -0.62455539548 -0.22615185229 
-0.15931904033 -0.6218786597 -0.21620853272 -0.056275199106 -0.75199940208 -0.33628343114 -0.091348762838 -0.67969536559 -0.31090480346 
-0.039245228158 -0.83610206906 -0.34415339166 -0.037658027442 -0.93365793875 -0.33494106131 -0.052213618239 -0.98721856434 -0.34341945997 
-0.066520357432 -0.99895694022 -0.35589771362 -0.070993576558 -0.94667416139 -0.3611118138 -0.10342307859 -0.97640546279 -0.33222886848 
-0.12370624158 -0.98858952141 -0.30274565847 -0.10820098115 -0.97116883742 -0.27387764894 -0.032419067873 -0.93246401898 -0.23747023357 
0.099994203963 -0.79310773448 -0.20111610009 0.072574035496 -0.87855736689 -0.19447544553 0.13039441541 -0.71575638057 -0.17253065245 
0.18704314628 -0.64922032047 -0.1053183749 0.25695984939 -0.62650227328 -0.013332129525 0.30558284819 -0.61369150748 0.06550956056 
0.32110173914 -0.61094373109 0.1179364641 0.325491529 -0.62768525386 0.15516192107 -0.12674835123 -1.0513933543 -0.23393722727 
-0.17777741391 -1.0838296267 -0.25373630105 -0.065039890169 -1.0018483426 -0.21686699914 0.035231213482 -0.93862009125 -0.18831076024 
0.17095838259 -0.8190931749 -0.15375775931 0.15463027965 -0.86116588521 -0.16470876156 0.20075964034 -0.75467759093 -0.1379967832 
0.23464478318 -0.70325564203 -0.10820361205 0.28416284056 -0.66894344557 -0.039282436522 0.34009490411 -0.65463422586 0.047023912816 
0.37633215377 -0.6672045394 0.10717567125 0.39720414465 -0.67793163171 0.1535650207 0.37178542575 -0.69399278565 0.17141761042 
-0.1467646418 -0.64216151688 -0.24525355324 -0.2096595336 -0.6166906858 -0.18337142318 0.047087178862 -0.42762766709 -0.25261274366 
0.017154459863 -0.41425024422 -0.2287636811 -0.016295486549 -0.40683495937 -0.18907718358 -0.064997352564 -0.40193033358 -0.11573953878 
-0.12587428159 -0.37270003617 -0.031743397728 -0.19490208701 -0.35186314074 0.066389514431 -0.26206797923 -0.33140013635 0.15602249551 
-0.31955117059 -0.32656708074 0.25469340743 -0.36418326771 -0.32682698403 0.34971377098 -0.37150165563 -0.33859498768 0.4236802904 
-0.38613274478 -0.36810902635 0.4854517785 -0.37239643747 -0.38754809158 0.50683309163 -0.35028575674 -0.42096139813 0.52479117129 
-0.31440227484 -0.4578266086 0.51458310186 -0.29251105337 -0.48545481098 0.49344396587 -0.25764966866 -0.50179943246 0.48040440582 
-0.28946440723 -0.52368860864 0.45705883535 -0.22413152557 -0.47083196395 0.49902659813 -0.19924295168 -0.45936640282 0.50190880817 
-0.18662039802 -0.47220930115 0.4875770072 -0.18393394506 -0.46985166879 0.47002414238 -0.18914898021 -0.52619473662 0.44465301145 
-0.17577384058 -0.57809555068 0.44060845347 -0.15541022584 -0.62632146051 0.44248390255 -0.081290402165 -0.64007246597 0.4926067581 
-0.11642950292 -0.63943468058 0.45005417325 -0.021030874014 -0.68184563303 0.49364748584 -0.05986036908 -0.66870772688 0.45583960532 
0.012382285239 -0.7070512361 0.45051894868 0.092044617635 -0.74797416493 0.44020270658 0.1798147273 -0.80766968737 0.43423707498 
0.2749960223 -0.87005105219 0.42815718692 0.38597821517 -0.92032398332 0.39766191948 0.49615107309 -0.93796073039 0.32865021896 
0.59373324323 -0.93275249673 0.24200761104 0.62908879992 -0.90076668879 0.1356398337 0.62120049448 -0.83378646707 0.05038074166 
0.57454774528 -0.76336535256 0.0017567044376 0.5025959582 -0.69944935194 -0.001201193936 0.41517557386 -0.63703877469 0.043146205514 
0.3704542576 -0.62138825293 0.087568501002 0.3313555004 -0.61192230815 0.12356771023 0.36938044767 -0.47880284055 -0.067539780851 
0.37405707198 -0.51883083288 -0.01337564499 0.33403180604 -0.46026216581 -0.10515089464 0.31006119334 -0.45887624759 -0.1104096777 
0.2798048079 -0.49583549643 -0.10382351856 0.26069882266 -0.55165140363 -0.092458074847 0.25022067624 -0.60612872635 -0.08681242595 
0.23652582566 -0.63662036281 -0.092082341502 0.21003062612 -0.64790386359 -0.097909363857 0.16201763663 -0.65530484689 -0.10252369709 
0.10818421152 -0.64398573656 -0.12121315719 0.045098708065 -0.61939894779 -0.12310373574 -0.013616214595 -0.5962401112 -0.12432343922 
-0.0065858626974 -0.49656042882 -0.15919906722 -0.046855840767 -0.56789350315 -0.1340972393 -0.004010754404 -0.46522039763 -0.18963040435 
-0.0086454242861 -0.43353649759 -0.22698897443 0.36174506235 -0.57163273315 0.057687326414 0.31705117095 -0.6390528791 0.16223202017 
0.37809837902 -0.77660938251 0.20078465899 0.33786373298 -0.70446596289 0.18883868936 0.32063385667 -0.81673448752 0.22912632992 
0.38646200132 -0.82655873676 0.2153365557 0.28049046555 -0.80879420043 0.21910647922 0.26278218128 -0.80274300293 0.20544989226 
0.25147762524 -0.81487492199 0.20200575975 0.24022649126 -0.83214589123 0.21296665734 0.25811798825 -0.87009437985 0.24054638807 
0.27502148986 -0.90117603195 0.27466535099 0.29754900702 -0.93767853033 0.27402077978 0.30561552889 -0.96570788466 0.27045515776 
0.29627922606 -0.95204858816 0.26865168911 0.28085175651 -0.92285675431 0.29600282318 0.2567160811 -0.88389596545 0.34236117525 
0.22689937263 -0.83726589539 0.3829123199 0.18217032423 -0.74933502258 0.40171468112 0.13260878564 -0.65931209093 0.40792630901 
0.12837875126 -0.58532299982 0.39386278564 0.13072737476 -0.51978862322 0.38391068054 0.12838339501 -0.48434770942 0.35630205148 
0.11264022258 -0.46701646999 0.31278354139 0.098470230584 -0.46993086808 0.24435869119 0.089009373659 -0.46803147794 0.18654799218 
0.10003989464 -0.4765978776 0.14265403434 0.12083667652 -0.49735951285 0.10484890344 0.15597058421 -0.53556451937 0.086083500789 
0.17501775371 -0.59091857236 0.096219990754 0.16804169479 -0.65943557643 0.12720310075 0.086359716867 -0.72679739636 0.19293291547 
-0.16112571607 -0.6336911867 0.24150292147 -0.097774646862 -0.68083874472 0.23923170375 -0.21844677086 -0.60536335138 0.25957974538 
-0.27795841632 -0.58214757361 0.28576667817 -0.30624244508 -0.57942893232 0.31950854243 -0.32069618595 -0.59220417907 0.34795163183 
-0.29597543641 -0.6423140632 0.34771601778 -0.27519093983 -0.69046532584 0.3235162372 -0.24571037671 -0.74007861161 0.28026547546 
-0.22787745704 -0.79005336833 0.18902154256 -0.21264724994 -0.81325846155 0.081349127383 -0.20592529878 -0.80356517935 -0.019098328928 
-0.20408927559 -0.78148246568 -0.091119660882 -0.19929837888 -0.75106358072 -0.15048724568 -0.20152484492 -0.69856302578 -0.16585066502 
-0.20669361019 -0.65680644286 -0.17562326656 -0.21069932289 -0.6447227176 -0.18084153842 -0.23724484682 -0.63482896512 -0.15062570509 
-0.22957093737 -0.61907338777 -0.14597995582 -0.26879054591 -0.61969951232 -0.12131138208 -0.17336717693 -0.66072825481 -0.20294767865 
-0.13081111228 -0.70086904388 -0.24716882913 -0.1042756089 -0.76944470573 -0.2610384071 -0.088537621462 -0.85134226984 -0.25728079921 
-0.10195979753 -0.95952943668 -0.24843166561 -0.1260953992 -1.0348690182 -0.26487248911 -0.12917809343 -1.0611976533 -0.30325578191 
-0.046343045634 -0.74739658408 0.25529705544 -0.0027999756841 -0.79938253066 0.27035666815 0.41710595616 -0.7635665018 0.1826236138 
0.44133146722 -0.81974650437 0.19934863042 0.35153417328 -0.86862543462 0.26041970761 0.40953369361 -0.85681481641 0.24085739892 
0.30412915683 -0.86533097293 0.25370335051 0.27340991308 -0.84360804565 0.25379006555 0.24921320534 -0.82504408975 0.24935232471 
0.23172601956 -0.83552777307 0.26812604478 0.21868713919 -0.85375568034 0.29775341892 0.2358601128 -0.88200157088 0.33931401622 
0.25430696212 -0.90896181823 0.37593465231 0.2718318522 -0.92064920285 0.35711169835 0.28793693752 -0.9300399976 0.33399767584 
0.29287117939 -0.9313735233 0.30526654343 0.29927260149 -0.92520026618 0.30706946199 0.30617107566 -0.91369088641 0.34180886367 
0.28066779913 -0.90127392702 0.37559888386 0.20982239759 -0.82816005288 0.41187274888 0.15374673586 -0.77142728906 0.41684595062 
0.12798613408 -0.71543028503 0.42859783855 0.10760794234 -0.65281263942 0.43666587229 0.073332578422 -0.62220219873 0.41308634715 
0.049776129509 -0.59868133534 0.37719471295 0.032688319768 -0.6005010974 0.33416347105 0.023714974823 -0.60061646287 0.27946287982 
0.034571624532 -0.60396342808 0.21474436899 0.062508318538 -0.61380411164 0.17155084698 0.11524115063 -0.63052806762 0.15235466387 
0.14779323603 -0.67503364131 0.15263072463 0.15879807608 -0.73469629903 0.17355305262 0.10435132612 -0.78475789271 0.21826366795 
0.0094741325233 -0.80901981673 0.26134706733 -0.094341797954 -0.81355447836 0.30278851199 -0.069833201894 -0.82023851533 0.29440831558 
-0.13310360546 -0.78457768845 0.31498802648 -0.17918711962 -0.7585185792 0.330534183 -0.23163306178 -0.72881156245 0.3454435106 
-0.2720236433 -0.70427548323 0.36553477374 -0.32298940727 -0.68231454819 0.3908125933 -0.34667512541 -0.68414803138 0.41989780846 
-0.36526105337 -0.69513809779 0.44887641378 -0.35418609579 -0.73739927138 0.44588575505 -0.33402183629 -0.77850688941 0.41568028018 
-0.30225261271 -0.82071717434 0.34853231881 -0.29966932713 -0.8561761766 0.25119258913 -0.27711364033 -0.85388589909 0.12711151077 
-0.26461367089 -0.83452321462 0.029380426466 -0.26016342927 -0.79697962124 -0.050762469595 -0.25380162768 -0.75695384432 -0.12282696548 
-0.2635479874 -0.71004198199 -0.12130718994 -0.26179697506 -0.66445190654 -0.12939447366 -0.280386249 -0.64180972469 -0.11635732467 
-0.29037442148 -0.59104914816 -0.11053822182 -0.28261940825 -0.61015240282 -0.119805002 -0.24370464188 -0.61490677419 -0.12596409429 
-0.18393201461 -0.64359245243 -0.15604418828 -0.14895857224 -0.69768893944 -0.19518513854 -0.1352722708 -0.73280898107 -0.17964391768 
-0.12175245655 -0.80565568866 -0.16925233725 -0.13860007813 -0.93019922303 -0.16355925506 -0.18600424422 -1.0483515454 -0.19806071311 
-0.022083661295 -0.42594628915 -0.24457732465 -0.043797046358 -0.43860862664 -0.23644968189 -0.065046816463 -0.44105273631 -0.19263099562 
-0.095465026005 -0.4295491105 -0.12867217392 -0.14843212793 -0.40617694146 -0.048681737694 -0.20410849158 -0.38336453812 0.031431136889 
-0.26367357161 -0.37351089584 0.12233283661 -0.3146533805 -0.37841358105 0.21784277235 -0.35827242001 -0.39606576753 0.30863641507 
-0.38604883288 -0.42085453304 0.37271655708 -0.39702527595 -0.45315809905 0.43281107803 -0.39218121594 -0.4799382793 0.48081915857 
-0.37202229566 -0.48696954675 0.48757994896 -0.34446288166 -0.49821254631 0.48395165949 -0.31953744637 -0.50855428312 0.47367495572 
-0.31797895344 -0.55524440188 0.44940481522 -0.28682756685 -0.57996162397 0.406951314 -0.30918901561 -0.63072497119 0.4315425725 
-0.25362061672 -0.54271273473 0.4313590684 -0.23883461395 -0.52562170196 0.45112479452 -0.22071234498 -0.50779741962 0.45090226869 
-0.22230420505 -0.50719495156 0.42515773153 -0.22372345979 -0.52509465069 0.40158484969 -0.22905215204 -0.56329945706 0.38048309985 
-0.22768229146 -0.59702634417 0.3792714973 -0.22376895659 -0.62360718808 0.39285746276 -0.16945807187 -0.63320517595 0.41193346474 
-0.099495654017 -0.65799862736 0.42078552515 -0.019543314543 -0.69690928845 0.41438374763 0.07642501894 -0.74635752857 0.40252697963 
0.18440631612 -0.80788485735 0.3827977553 0.30199196583 -0.87023782162 0.36391104567 0.43640121848 -0.91780864078 0.33388725864 
0.5441828122 -0.94186832101 0.26964340011 0.6509473075 -0.93790577314 0.19832189821 0.70583655601 -0.91092494997 0.11447311359 
0.67737017742 -0.86432603037 0.059682758153 0.60975321342 -0.79746819526 0.023316760546 0.52746114753 -0.71821795928 0.017184631756 
0.42497857858 -0.66725192081 0.072619953571 0.34468601429 -0.65708222804 0.14774574207 0.28203116846 -0.66554023011 0.22901759976 
0.26493690181 -0.70477109747 0.27536735548 0.33694095213 -0.65901551195 0.18234853141 0.29334334275 -0.72847097854 0.28706702072 
0.37594698732 -0.59681370608 0.082086230901 0.39321035998 -0.54411104803 0.010888352695 0.38129314147 -0.5164667391 -0.043056549117 
0.35463118487 -0.50140729352 -0.092414927941 0.31909265327 -0.51637090406 -0.11841204894 0.28734248739 -0.56319693128 -0.12275119013 
0.25489818863 -0.6214092467 -0.12417745294 0.23116296494 -0.6914161628 -0.11839454602 0.19994190777 -0.71310412551 -0.1111460653 
0.16978851049 -0.72144714102 -0.10767325005 0.11404611354 -0.73287411884 -0.10684847682 0.049260472775 -0.74556979166 -0.10769571712 
-0.013687789136 -0.72675044477 -0.11675931366 -0.06074883551 -0.70990769971 -0.10713411513 -0.089548545667 -0.65950050101 -0.096670538515 
-0.07241048662 -0.51280501228 -0.12539385421 -0.106688748 -0.58761890959 -0.090128021739 -0.04080527734 -0.4787203274 -0.16239231791 
-0.054242461254 -0.45569592751 -0.18576713433 -0.074921550677 -0.42059261041 -0.22651241854 0.24805255807 -0.865370555 0.28903937586 
0.2066615564 -0.87393633669 0.37248749805 0.2158029944 -0.88332196019 0.41969229972 0.22263504624 -0.88743948613 0.46156395825 
0.24740471662 -0.88879354891 0.43168564794 0.27167479191 -0.89305584356 0.39894229586 0.29389510248 -0.88653604799 0.35427718255 
0.31530174196 -0.87900892423 0.32296591204 0.35379484109 -0.88461987377 0.33135699137 0.40671471136 -0.8924525825 0.32763080696 
0.17594588283 -0.8208080162 0.41070051549 0.2503665583 -0.85642360566 0.39239083492 0.14948572528 -0.78466539819 0.42624399797 
0.10036066305 -0.75210872894 0.43300086576 0.063797476797 -0.71778687559 0.44316500109 0.026619042826 -0.6902795518 0.4416449964 
-0.008144282954 -0.69462930137 0.39752743919 -0.030042239199 -0.69608029987 0.34515168264 -0.02538207205 -0.69557050911 0.27671268972 
0.00064578483185 -0.69876998667 0.22104938576 0.063046556759 -0.70861216513 0.19873485657 0.10570846072 -0.73161607381 0.19045606692 
0.10725405052 -0.76506136525 0.20550103799 0.086174826959 -0.79129263834 0.22488496617 0.0033887740103 -0.79881513534 0.25730076128 
-0.0932942098 -0.7860892597 0.28540261912 -0.15101457056 -0.77728889116 0.31094176195 -0.15579695394 -0.73352855698 0.2955998481 
-0.15319642283 -0.80959613691 0.32487962365 -0.17474849348 -0.79867118275 0.33678903162 -0.20825975369 -0.79236852396 0.36543888139 
-0.25230537826 -0.77760547673 0.38830571638 -0.30506562326 -0.75986615794 0.41304305095 -0.35195680471 -0.73919766516 0.43432449553 
-0.36696455073 -0.74805536058 0.45909721594 -0.38122442835 -0.75164866711 0.48203827899 -0.37380359337 -0.78334512503 0.46046371447 
-0.36137002463 -0.81172074583 0.4348293 -0.33860231687 -0.84433965799 0.37765575084 -0.33093801397 -0.85875127284 0.31045922957 
-0.31146561776 -0.81165012896 0.037412077995 -0.30397720596 -0.84040496636 0.12131204378 -0.30434859256 -0.77120928357 -0.032488790403 
-0.29969439805 -0.72720277603 -0.10010020189 -0.29167110705 -0.67890189111 -0.10803113651 0.33014482759 -0.9048480657 0.37605387502 
0.4436488712 -0.90418658064 0.31646776445 -0.28188302429 -0.6445420667 -0.13026654501 -0.26072813599 -0.56953631304 -0.14086228682 
-0.24914264645 -0.60245118897 -0.1556122677 -0.26073969153 -0.55083289903 -0.1218152366 -0.22425038902 -0.57209141822 -0.11731802167 
-0.17736496526 -0.6696373495 -0.13205184071 -0.094393211261 -0.43286281436 -0.23624160387 -0.10571119273 -0.44792685663 -0.23351696126 
-0.11812989686 -0.4526718448 -0.18595459851 -0.12981299457 -0.45621992019 -0.13961392719 -0.16157153486 -0.44277554306 -0.073760752641 
-0.20218017268 -0.43195158212 -0.0024117768712 -0.24887259607 -0.43159543759 0.082954624152 -0.29482341241 -0.4460721202 0.16978049729 
-0.33965585865 -0.48273067613 0.25273144865 -0.37194372134 -0.53083322403 0.31932928492 -0.39436712467 -0.57782434582 0.38707128368 
-0.39667950321 -0.58993425328 0.44046613104 -0.38059323038 -0.57664096242 0.4556563278 -0.35157672783 -0.57578653417 0.46168921056 
-0.35887236979 -0.6875637747 0.43616839182 -0.3066905139 -0.68943569756 0.38360386514 -0.34237423696 -0.72864233798 0.41506089523 
-0.28393139496 -0.64804929058 0.36967698203 -0.25380299365 -0.59852443703 0.37638459401 -0.24071617754 -0.57236829533 0.40173289574 
-0.23254818005 -0.5653492611 0.41025825993 -0.23571453392 -0.56493537365 0.37730423418 -0.24055511328 -0.56898176385 0.34862808767 
-0.24751126531 -0.60229806859 0.33150074144 -0.26206106846 -0.6270803613 0.33134095396 -0.27401325313 -0.66779378388 0.34771400506 
-0.2056693979 -0.668667552 0.3875941562 -0.12985829119 -0.68187010011 0.40783548158 -0.039340959541 -0.70119381049 0.40616064667 
0.06304280882 -0.74071630059 0.39502769037 0.1730849654 -0.79707747763 0.37368381213 0.28659619818 -0.85409356586 0.3464464881 
0.40400795592 -0.9113678073 0.31090040825 0.53645094867 -0.9342960673 0.27342212683 0.64889735252 -0.93175320714 0.22832044451 
0.68737434683 -0.90035855089 0.15168333273 0.67372187455 -0.84575037071 0.089516852505 0.61527513117 -0.78620069965 0.060701748917 
0.51104162449 -0.72395613301 0.079780055373 0.40173147721 -0.6818240874 0.14669582758 0.30212603006 -0.6767009465 0.2343080537 
0.23805448513 -0.71733355624 0.32087602441 0.22446898517 -0.76138837893 0.3647727613 0.26159624236 -0.79865773665 0.36153795673 
0.34890325762 -0.75253655205 0.2658044589 0.30778893245 -0.82882273929 0.3315669922 0.38410316136 -0.67861190357 0.18279891938 
0.38946228905 -0.61486998721 0.10984234549 0.40118807149 -0.56794831812 0.041856249505 0.38209827149 -0.54704038228 -0.022089796284 
0.35109709962 -0.54067182255 -0.081237439481 0.31295785792 -0.56272016233 -0.12080090857 0.28598683172 -0.60319427911 -0.12353756148 
0.25625415847 -0.66558229686 -0.13684243737 0.20661424802 -0.75915239406 -0.14298567456 0.16150027378 -0.77037487243 -0.12965582278 
0.13459055703 -0.7684065177 -0.12103329021 0.090980147421 -0.79951365927 -0.12146093381 0.010151541559 -0.83171744246 -0.12444437687 
-0.065380131892 -0.85104799544 -0.12364432954 -0.11829793139 -0.83141726488 -0.11435650641 -0.14329363291 -0.78785759472 -0.087789218746 
-0.14142103972 -0.69910558291 -0.075147773355 -0.142682186 -0.53440697758 -0.10816511741 -0.16035153868 -0.62045536162 -0.081074725921 
-0.10792726737 -0.47821886911 -0.15164784349 -0.18467451082 -1.0594192931 -0.18679950473 -0.093098064165 -1.0106752305 -0.17830802457 
0.01493906565 -0.96508563303 -0.16699424856 0.12258233114 -0.86163164648 -0.15034634189 0.22634171669 -0.76968902705 -0.13685857128 
0.25241931837 -0.74099480093 -0.13065010743 0.27390581071 -0.69744175797 -0.10248827695 0.3029981469 -0.67096306666 -0.072922143614 
0.35591970054 -0.66129627118 -0.010041398694 0.42042614786 -0.66202692002 0.062495941818 0.45343923684 -0.70408209934 0.11829368982 
0.4507492672 -0.73515932981 0.15953431599 0.46461610975 -0.78593349507 0.17720350706 0.44691523784 -0.82065854462 0.20901628522 
0.34395036195 -0.89269714048 0.30691621904 0.38204544263 -0.83111627851 0.27415462737 0.30318023839 -0.89816490602 0.33303886436 
0.26411611943 -0.8879196716 0.3232582041 -0.16435736552 -0.49419967704 -0.2101293418 -0.15783858675 -0.46950873718 -0.20188734889 
-0.15737453394 -0.50190905571 -0.19484331675 -0.1628798972 -0.4934523895 -0.15060012541 -0.17395050127 -0.49113906677 -0.092273850139 
-0.19590485646 -0.50174728537 -0.033587767247 -0.23633038918 -0.51020738679 0.042842080921 -0.27774931817 -0.52992328498 0.12363888732 
-0.32087281076 -0.58078549196 0.20092423936 -0.35469888142 -0.64848534192 0.27674940228 -0.36445303184 -0.72370781815 0.34615886939 
-0.38513128075 -0.70647804913 0.42460247326 -0.38010797206 -0.69436936305 0.44876348497 -0.3223670586 -0.75780664703 0.40590185817 
-0.36028099009 -0.74716786243 0.43682752326 -0.36837731823 -0.74554896513 0.4479779912 -0.27813739555 -0.74342056493 0.36103881903 
-0.25865050286 -0.68748132071 0.34590020846 -0.25131586085 -0.65231143709 0.34964426175 -0.24225258435 -0.6251963865 0.36163188856 
-0.23426758182 -0.61248313597 0.37162546638 -0.23274350325 -0.61917425287 0.33516139389 -0.24359899872 -0.60481900931 0.31479312325 
-0.25989324963 -0.6240928002 0.3037830886 -0.27133455247 -0.6495759776 0.2962624406 -0.26819595685 -0.67543024961 0.31195612121 
-0.11848764346 -0.70293868795 0.4157858583 -0.17843384707 -0.69471093805 0.38488234172 -0.052861431403 -0.71113558523 0.4186120073 
0.035647884702 -0.74358487963 0.40427464083 0.14258939674 -0.79878868046 0.37799445689 0.25009523717 -0.84861568833 0.34657448534 
0.36038465829 -0.88785244423 0.31721101467 0.47101208567 -0.91167100636 0.2883583066 0.56555821465 -0.92261606838 0.26347557067 
0.59748439132 -0.87174110846 0.22900992721 0.57109334656 -0.79041409923 0.1403181288 0.61604593695 -0.8354215932 0.15829140577 
0.47916053243 -0.73766911871 0.16899669763 0.37929457562 -0.72063447185 0.23367505528 0.26810149571 -0.710900198 0.32186723093 
0.21736558331 -0.77719465122 0.38082823107 0.17676966978 -0.83242723878 0.44038637622 0.22160084927 -0.85293335322 0.41523496686 
0.26899140878 -0.89347601098 0.38172118136 -0.23355593787 -0.69765157844 0.3451303518 -0.22509792865 -0.69893402709 0.30455315662 
-0.32367098197 -0.86295771007 0.20366713386 -0.33804953587 -0.83789090328 0.24725144574 -0.13867586562 -0.71636364196 -0.10192892351 
-0.14617071141 -0.830327895 -0.10368235619 -0.15119194773 -0.93211129618 -0.11710976357 -0.13919146337 -0.96138051575 -0.13768730058 
-0.09253598038 -0.95409675126 -0.14751013521 0.0023810155477 -0.9036699067 -0.14788605311 0.091261023732 -0.85595604206 -0.13896268019 
0.20748204508 -0.89975984175 0.42021158305 0.18781136153 -0.89589746679 0.4739787759 0.18689993248 -0.8835736082 0.50274218595 
0.2226812786 -0.8628796065 0.47292606914 0.26714372486 -0.84136523709 0.42110744318 0.30674001282 -0.83882713083 0.36300934979 
0.35538409335 -0.8401838673 0.30550786674 0.41272455933 -0.85713811403 0.29241455901 0.49557508908 -0.85652932596 0.26676461957 
0.44777978915 -0.91136326742 0.31708180414 0.35426010603 -0.9041281836 0.35777183532 0.28980950444 -0.88977556936 0.3751163301 
0.22025336795 -0.86204942492 0.39522727261 0.16198734496 -0.81652995864 0.41856302067 0.10192504357 -0.77412896343 0.43918099846 
0.052648062831 -0.74729764757 0.45095841987 -0.0070499957898 -0.72521495825 0.4542793597 -0.049351789732 -0.72766648813 0.41589656559 
-0.08231088363 -0.72628807414 0.37524092615 -0.080394595422 -0.72057059074 0.31696453763 -0.064690512206 -0.72199833461 0.26682922255 
-0.0093780567596 -0.72902502347 0.23087540074 0.027638627728 -0.74115571852 0.20931117758 0.033750575231 -0.75923464296 0.22014456574 
0.024530555251 -0.76937071089 0.23215546546 -0.036094833738 -0.76824880198 0.25462514472 -0.10693578857 -0.73838915025 0.27056851178 
-0.14861992088 -0.70628463764 0.28766294227 -0.19473994959 -0.73275879757 0.31420051206 -0.1944668707 -0.70179601327 0.31210809306 
-0.21266704027 -0.76190887446 0.33065640167 -0.22154569536 -0.78890769373 0.34678294592 -0.23298869723 -0.78822774533 0.3602544336 
-0.26899103273 -0.77808794627 0.37824228165 0.47881008216 -0.73033612778 0.14100347612 0.44724242633 -0.75173198812 0.17973954928 
0.41784279269 -0.75323592111 0.21531013233 0.4135947408 -0.68738711991 0.16225714839 0.41037190764 -0.63566044975 0.11950540182 
0.42807768493 -0.60561256831 0.075839736047 0.39949182013 -0.60918591445 0.0096893468152 0.3572738604 -0.59119460651 -0.038747154522 
0.33941438832 -0.61742403621 -0.093483026176 0.28586623726 -0.6631396931 -0.12542997447 0.26242372981 -0.70092716166 -0.14188769346 
-0.37456272276 -0.73967331904 0.46230737965 -0.37283184351 -0.77268813697 0.44733152477 -0.37193604065 -0.79074828012 0.41050165691 
-0.35120032491 -0.81788665512 0.36234061612 -0.33939329573 -0.83597795754 0.32155101216 -0.33740411304 -0.79136747602 0.28261624865 
-0.32457445014 -0.79649037213 0.19404004784 -0.32949892503 -0.74172922923 0.22967348391 -0.32637217715 -0.82532254896 0.17095264933 
-0.31589285547 -0.79986271503 0.11219137654 -0.30522282618 -0.76335436306 0.038977052001 -0.29529909351 -0.72372599097 -0.024000887167 
-0.27844501891 -0.683497598 -0.094313569101 -0.24210914091 -0.61852870962 -0.10907120403 -0.20732261392 -0.54984406898 -0.17924006539 
-0.20473697703 -0.54884455275 -0.13879290862 -0.21304184504 -0.52666550514 -0.18110824064 -0.21779433303 -0.49723588794 -0.16334214619 
0.35035177673 -0.63820680703 -0.049834078783 0.37071343182 -0.62409113196 -0.0075277340362 0.42035903266 -0.66272280803 0.066637895574 
0.22242815783 -0.92550271629 0.43124076314 0.37611153028 -0.90225879528 0.32801408426 0.29122694691 -0.8910084666 0.34793568728 
0.20400216094 -0.84016095916 0.3755234499 0.11192644015 -0.78825259963 0.40433221519 0.027165696834 -0.74415572284 0.43174817798 
-0.038155298488 -0.72306225853 0.4469646976 -0.089332798822 -0.72713882452 0.43546034839 -0.14258820904 -0.72450869992 0.39601599117 
-0.17043738163 -0.72284346616 0.33993125854 -0.16143194445 -0.72419591002 0.29043790466 -0.10986316122 -0.72810611794 0.25497344688 
-0.071167432549 -0.72944563776 0.22831080576 -0.11643834492 -0.70870337788 0.26817247497 -0.068364118949 -0.74367075184 0.25274619915 
-0.23136928658 -0.73916193482 0.32912526784 -0.22303300603 -0.69109532445 0.32745174861 -0.24974399613 -0.77124972118 0.34685131572 
0.18072524405 -0.89775263603 0.48228027932 0.19354803262 -0.85651901376 0.49386457037 0.24211695316 -0.82369911004 0.45485030584 
0.29861231262 -0.79651112535 0.3859693194 0.37297128226 -0.80482582636 0.32181294757 0.4329374724 -0.81776898911 0.27280287124 
0.46655829758 -0.83097177874 0.25874681568 0.53675762258 -0.82897617547 0.21639163064 0.50380245024 -0.79472238716 0.20686031613 
0.42632729642 -0.76132957099 0.25298253031 0.3353688404 -0.74865734937 0.32060137381 0.25002494752 -0.76540025981 0.40008860092 
0.19198168245 -0.82261838441 0.46386263194 0.16883211156 -0.87324045364 0.47366843645 0.19179911907 -0.89683635497 0.4537458458 
-0.30987592799 -0.74650563826 0.12976956767 -0.29382355781 -0.69710459587 0.054603846537 -0.26895764206 -0.66347554204 -0.023050640013 
-0.22459498713 -0.66779107166 0.33464823196 -0.22613352949 -0.64998064505 0.34329911942 -0.20920220614 -0.67096690791 0.3120773916 
-0.22363797633 -0.66074719168 0.28349515941 -0.20643944998 -0.64855453163 0.28863043866 -0.2329721093 -0.67187394916 0.2724922394 
-0.23144557193 -0.68393916482 0.28297669416 -0.19276788531 -0.69943125298 0.27197129444 -0.31169221061 -0.67470079417 0.15905728379 
-0.19819378219 -0.53043948721 -0.09941080883 -0.21996254785 -0.5520335872 -0.059668676944 -0.25620879785 -0.58437849771 0.011492730958 
0.44379804182 -0.68647928262 0.1144948789 -0.2818012111 -0.61976701397 0.082263602493 -0.15163581894 -0.68772441853 0.25826691064 
-0.13531401939 -0.68707837065 0.26579489887 -0.16553260326 -0.69692611448 0.24833260479 -0.069216172418 -0.59426063495 0.53678096447 
-0.010350802856 -0.66402426546 0.54912463134 0.32129437485 -0.65390088211 0.17335328722 -0.13938461821 -0.43839725322 -0.19118324212 
-0.18830022501 -0.4919379983 -0.14199709687 -0.060507632917 -0.73947423754 0.24381523145 -0.06386051617 -0.73588166878 0.2363657175 
-0.18945486011 -0.66102449109 0.2934909632 
Displacement_Wall 3 1114 double
-0.072315216064 -0.0080184936523 0.31716156006 -0.087391861406 -0.080714729973 0.28623551916 -0.076996104296 -0.16760092342 0.31520867956 
-0.064888446342 -0.11146437392 0.3528794734 -0.083242279014 -0.11305118951 0.27486126612 -0.080482059078 -0.21704137788 0.30724987202 
-0.071364177162 -0.1642121073 0.31095131301 -0.066717093607 -0.28072210914 0.32833896967 -0.042752858398 -0.23006914311 0.34907361692 
-0.035672664757 -0.35966656425 0.35336398424 -0.00010200815615 -0.2771093037 0.34542278859 0.01132643711 -0.41406000945 0.35199092413 
0.021573199843 -0.27548941862 0.32168742248 0.068937384441 -0.42336184756 0.31865662238 0.077395519883 -0.26495470824 0.23505102994 
0.12990562133 -0.39632669192 0.22126971417 0.14055303703 -0.2664860901 0.14475830935 0.17663440775 -0.38409331596 0.12090531049 
0.18958581298 -0.25799500313 0.082135673193 0.22777959501 -0.3480953637 0.034851776927 0.21946161357 -0.23031817743 0.061277702363 
0.27391207997 -0.32314812141 -0.0090354266933 0.26449585175 -0.21104221206 0.065958190319 0.29138547367 -0.29977663936 -0.00018413727084 
0.32987443943 -0.19964348925 0.11868445187 0.33020974095 -0.27613033405 0.02307642648 0.37165589631 -0.15551469939 0.12936098605 
0.36957192065 -0.25290966606 0.024491573953 0.42114249969 -0.12244264166 0.11808944947 0.40050072505 -0.21649931538 0.015938054932 
0.45265044102 -0.089383030788 0.080457431264 0.4313872032 -0.1741846223 -0.037856054595 0.48131545765 -0.071401825762 0.031280362451 
0.42816514652 -0.14207395401 -0.08603057947 0.51378378768 -0.066811683104 -0.02322311504 0.43259406503 -0.12488029871 -0.12655177284 
0.50979395048 -0.072065045545 -0.085797093948 0.43397779845 -0.12650599722 -0.17660348558 0.50893199316 -0.0846443409 -0.13662145452 
0.43444437834 -0.14149949803 -0.21299005228 0.53459114069 -0.097406073063 -0.16605331145 0.45983732001 -0.15856381826 -0.22635833642 
0.55117053989 -0.081353574237 -0.19856545939 0.45764465437 -0.17464622494 -0.25847764887 0.56631601172 -0.045416180205 -0.24357944726 
0.46742684764 -0.15238480627 -0.28738950365 0.57608934872 0.00044758331013 -0.28911025074 0.47446382908 -0.11402381632 -0.32551566801 
0.57439956954 0.04764677899 -0.33272894873 0.46508151053 -0.06677025064 -0.3766440836 0.55373603577 0.086112276594 -0.37560920829 
0.4628397135 -0.0057198981825 -0.41516139578 0.54446973153 0.15807355299 -0.3567336262 0.43338770257 0.04905728328 -0.41590091507 
0.49526457359 0.20374705388 -0.31054650146 0.3894949059 0.081036274503 -0.36375610971 0.42655362293 0.22856255999 -0.22833347898 
0.32102418431 0.10741286172 -0.27348154961 0.35313337682 0.23508392026 -0.1264954872 0.24905463894 0.10079687812 -0.17380484629 
0.28356109713 0.22269586291 -0.038267403646 0.16822445462 0.11784035532 -0.063730176615 0.20884663998 0.18875326235 0.061206101893 
0.092403728006 0.094202373907 0.02713835775 0.15220248275 0.18332946383 0.1346979421 0.032933775895 0.084741489276 0.12192923234 
0.10635937459 0.17723234464 0.21016189484 -0.014674586132 0.079442780032 0.21714369541 0.066756036857 0.16156958933 0.29324485409 
-0.049467171678 0.082957063075 0.29426484172 0.029843907526 0.14855537718 0.36277061157 -0.078518771233 0.078513367348 0.37158022 
-0.012121641342 0.15682852061 0.40779919859 -0.07916236521 0.0689200106 0.42607569381 -0.026450943197 0.15212276611 0.45440941795 
-0.097716750858 0.060056735243 0.46339724804 -0.056495201673 0.15918050934 0.47593066231 -0.092531957677 0.04127954833 0.48696050961 
-0.077408746373 0.15323013297 0.47318689145 -0.074464568927 0.027578988018 0.49650291009 -0.074000129685 0.12142601935 0.43908389423 
-0.071207942739 0.0032854270615 0.47135021164 -0.065439192968 0.071097117146 0.37329878655 -0.076914523199 -0.047745854052 0.41988003687 
0.12482070923 0.12155914307 -0.48849487305 0.078153700598 0.12369826635 -0.47911816392 0.075952622128 0.066754812637 -0.49524323435 
0.12517350104 0.052317349706 -0.5162892768 0.037728887262 0.12651311056 -0.46673542987 0.031183150721 0.077924176947 -0.47272488628 
0.015451819169 0.1312924577 -0.44561337067 -0.0051678615905 0.08480717798 -0.45377232435 0.0068468458685 0.12683035163 -0.43877585233 
-0.016518094132 0.075189697837 -0.44085435516 0.01027396476 0.11423532819 -0.44450940778 -0.0067431066677 0.054279065522 -0.43468384411 
0.027911764529 0.0836034246 -0.47232628073 0.03371866197 0.012386109595 -0.44991038839 0.050393979308 0.047566401702 -0.50063725551 
0.064676736652 -0.033976698931 -0.47020447385 0.079429271458 0.004405696381 -0.52783961313 0.07923010338 -0.085349977852 -0.49748287081 
0.13531226225 -0.030022920658 -0.55554813551 0.13127210922 -0.13152493016 -0.52049883907 0.19355381721 -0.060450702322 -0.58188706877 
0.17793136019 -0.17185109261 -0.54589243164 0.24905544542 -0.086772245173 -0.60598906813 0.21544999124 -0.20721746901 -0.57054114653 
0.29455668141 -0.12176121409 -0.64495679404 0.23985335896 -0.22994574251 -0.59578884208 0.31564865943 -0.15091115048 -0.68014491037 
0.25266940774 -0.2473590108 -0.62639079618 0.31650682384 -0.17412162346 -0.70954947375 0.23286884773 -0.27050319151 -0.65833766055 
0.34691980123 -0.200285729 -0.72396795113 0.22920277352 -0.28763475734 -0.66892842356 0.34710998128 -0.22317885415 -0.74497117534 
0.23060816959 -0.31136946416 -0.68729606102 0.33495570563 -0.24754864933 -0.76883262609 0.23855160544 -0.32777187747 -0.71763275362 
0.34752899954 -0.28896174431 -0.78816828556 0.23785026568 -0.35986205801 -0.75265062093 0.34680445594 -0.3207119088 -0.80857131805 
0.23508726879 -0.40282772378 -0.77334946677 0.33623465663 -0.34746611897 -0.8263912651 0.23300821057 -0.45072386762 -0.78179912703 
0.30681619765 -0.37262610882 -0.82680746828 0.22540494347 -0.47244325586 -0.77579489788 0.26818917349 -0.3631758037 -0.83716626568 
0.19536103839 -0.47240026075 -0.77400405875 0.22022517763 -0.33304932011 -0.84899976974 0.12342907182 -0.45343683737 -0.77589036778 
0.14587012667 -0.29141492075 -0.83698307142 0.031412988881 -0.40225261546 -0.77206426099 0.084205199492 -0.24177357284 -0.8133423512 
0.0026087661418 -0.30879618461 -0.77767594647 0.031982322747 -0.18853738782 -0.78179035938 -0.032655392325 -0.26007930059 -0.75624017503 
0.028518437915 -0.16713536056 -0.72511670376 -0.031549682826 -0.23785985492 -0.70078671642 0.043001415843 -0.14667541401 -0.66293970597 
-0.019161734372 -0.21374857412 -0.63771030274 0.08345141466 -0.12757854855 -0.59280001279 0.024657721855 -0.20518804271 -0.55169351874 
0.12694093026 -0.12749722762 -0.53789486298 0.078827941546 -0.21500457383 -0.46817531885 0.16990859986 -0.13459104292 -0.48607567775 
0.13802168977 -0.23385664147 -0.38867964369 0.20396619568 -0.15069867544 -0.42496319929 0.18926640979 -0.26733002115 -0.32450112234 
0.22932998673 -0.17332684345 -0.38565955289 0.22239228774 -0.30936303102 -0.27326832269 0.24581699154 -0.20261278684 -0.36862375637 
0.24311099667 -0.32073481081 -0.25492193396 0.26297532467 -0.21294362484 -0.36655175451 0.2525091004 -0.34176176877 -0.24095225463 
0.27605530641 -0.21876116349 -0.36293001559 0.25923962211 -0.35845035722 -0.23057194076 0.26822786644 -0.2181885615 -0.33885849656 
0.25681465804 -0.37421118485 -0.21111177231 0.26263741697 -0.22263483768 -0.33322311924 0.2540720858 -0.38475160546 -0.20845770575 
0.25876944703 -0.23097826699 -0.34234782833 0.24763536613 -0.38793387863 -0.21524656806 0.23317366714 -0.20042206464 -0.34284387058 
0.22538863418 -0.37078743886 -0.21865910521 0.2064883126 -0.16196744061 -0.3311570258 0.19454232404 -0.33430228473 -0.21012841222 
0.17808683756 -0.1110725095 -0.30028168215 0.14855434404 -0.27260389992 -0.18929109192 0.16303062326 -0.044620768205 -0.27185302201 
0.13170504445 -0.19058529187 -0.15820961635 0.15581145876 0.029132220747 -0.24560749252 0.12884352187 -0.093714793256 -0.12799830795 
0.19726430718 0.12586138864 -0.24201988901 0.17187042426 0.012575028182 -0.13227429646 0.23349299852 0.21058988057 -0.23940585003 
0.21071400665 0.11017611893 -0.14831016184 0.25831402303 0.26911324291 -0.23891772337 0.23736788141 0.1805303515 -0.16448867259 
0.26546658491 0.32146156769 -0.24790246505 0.24498485741 0.2294277677 -0.19102393007 0.25804129343 0.36871500709 -0.26470305852 
0.2411350206 0.26275581372 -0.2167926883 0.23621800359 0.37276390334 -0.29454138485 0.2265863559 0.26773668686 -0.26375278615 
0.21055087319 0.36460938172 -0.32751772012 0.20937000981 0.27009089372 -0.31508843716 0.18067081807 0.32801972053 -0.35622016216 
0.18466918161 0.24588219451 -0.34837522534 0.15704206486 0.28897691242 -0.38058499956 0.16581410796 0.21439281232 -0.37773508791 
0.15099995886 0.24303272119 -0.39274695129 0.16131667333 0.16964790582 -0.40936275346 0.14241814911 0.20915073007 -0.41447249154 
0.15821487758 0.13498411239 -0.43966402329 0.13125275959 0.18753932604 -0.44592684118 0.15771146019 0.11093670569 -0.47030322187 
0.12676722608 0.15636640356 -0.46883505281 0.14523230781 0.080031444479 -0.49659328277 -0.07906209681 -0.3247761156 0.3044107269 
-0.069899349016 -0.28703491169 0.32258942805 -0.067720376387 -0.38201031389 0.31537661878 -0.0022550417175 -0.49030692127 0.35692010511 
0.067785619956 -0.53630684523 0.35964108564 0.13420512764 -0.55487385919 0.31197360236 0.20471695491 -0.54995038048 0.19661087639 
0.25312940903 -0.50750089535 0.082606559168 0.29965372127 -0.4560397069 -0.01002965317 0.32515890906 -0.40542455345 -0.071117239672 
0.33556845204 -0.36603456732 -0.072652900615 0.33948591147 -0.34443129718 -0.059980743816 0.36449033148 -0.33880040175 -0.069662139381 
0.39213068288 -0.28549960399 -0.08851844111 0.40281280841 -0.2433573765 -0.14143144295 0.40202587248 -0.1953143002 -0.19302642303 
0.38246043628 -0.18319321615 -0.222925295 0.36714647928 -0.17413897788 -0.25213542891 0.36929948671 -0.20747538258 -0.26899584621 
0.37908424294 -0.23762348838 -0.27197376517 0.38766830476 -0.25731782988 -0.28261712766 0.39884489709 -0.24972848586 -0.30830829442 
0.40008426443 -0.21416584206 -0.3465385879 0.36551672887 -0.18601211571 -0.4172191867 0.35017668079 -0.095690564113 -0.4554289415 
0.31374768917 -0.07035873756 -0.45995036844 0.26627417728 -0.047791881902 -0.40692153527 0.19869899644 -0.026253890928 -0.31542924952 
0.12256315842 -0.0081461707238 -0.20873188544 0.040498943768 0.0025679364034 -0.10079650282 -0.03562258345 -0.0027412063379 0.0034192284519 
-0.09275095445 0.0074634371663 0.10757322301 -0.13899662381 0.010236359878 0.20290136082 -0.17082638302 0.0045569492496 0.28818449686 
-0.17543174094 -0.0050152450902 0.35431986313 -0.17885249584 -0.024466311513 0.40427293338 -0.18250857861 -0.046916709127 0.43589572684 
-0.13834025438 -0.083948405419 0.44693201564 -0.099237174092 -0.11779368274 0.45186178335 -0.077112854924 -0.14752689633 0.4391809442 
-0.067998087633 -0.18039834036 0.40784293631 -0.066758504903 -0.23359313939 0.36560174776 -0.0038661544497 -0.025391935544 -0.42754406329 
0.051638383654 -0.04342350374 -0.45445391876 -0.037580302408 -0.025558877132 -0.39802198916 -0.069638627132 -0.033890938967 -0.37507545651 
-0.082217518753 -0.048750522615 -0.35963507309 -0.035206461859 -0.10085863877 -0.36723432208 0.00012434605372 -0.1512124427 -0.37654974938 
0.024650381218 -0.20568944832 -0.39859671856 0.082198161281 -0.25527277222 -0.4253082268 0.11237737095 -0.30155950946 -0.46737962139 
0.1265735284 -0.33074941845 -0.50745298865 0.13361765763 -0.35025342881 -0.53822072735 0.14717209263 -0.35809520247 -0.57846298434 
0.12605996916 -0.35326982368 -0.60188504932 0.1063608367 -0.36072481517 -0.61685315718 0.086391815376 -0.3794459559 -0.63796474639 
0.10125536025 -0.40861090426 -0.677524487 0.1215966178 -0.44938876529 -0.71272784793 0.12044710288 -0.5037169076 -0.72810624715 
0.12381748311 -0.56681590011 -0.72536171716 0.11889168185 -0.59469553408 -0.72377881625 0.095839008561 -0.60552714018 -0.71893086153 
0.041540014357 -0.58050733857 -0.70643119057 -0.028213148993 -0.55045108577 -0.68933325375 -0.092550398738 -0.3382518624 -0.71966141694 
-0.056750043205 -0.36074296492 -0.74244075167 -0.079348097184 -0.31550865056 -0.65658374094 -0.046767154198 -0.29267068469 -0.5854378093 
0.026565468012 -0.29309511042 -0.50357526684 0.088795349892 -0.29361049891 -0.40237584853 0.14811690541 -0.30668204332 -0.30121982073 
0.20587641499 -0.3409674984 -0.22623178609 0.24128986485 -0.41301193883 -0.1507374677 0.23386733017 -0.44837408578 -0.15153990591 
0.2529053902 -0.47631617395 -0.14679277323 0.26606353592 -0.51017142014 -0.14450506555 0.28222601357 -0.5358920187 -0.13580962436 
0.29081545204 -0.55564312996 -0.13843875498 0.28628668955 -0.57299286399 -0.14200895192 0.24986191188 -0.55256734589 -0.13899391124 
0.21525546607 -0.50838231809 -0.116695198 0.17743663754 -0.43021346811 -0.087516589756 0.1457097348 -0.33182439136 -0.057175241304 
0.12307792709 -0.22579537695 -0.03075118995 0.1588930967 -0.11673744257 -0.03102895242 0.18576050256 -0.018195524795 -0.042161094046 
0.22134825793 0.063691154315 -0.069638306749 0.23290576472 0.12296733079 -0.10971062987 0.22232623761 0.16364916935 -0.16799138762 
0.20727248732 0.16224368269 -0.22160321634 0.19238939683 0.14838476894 -0.27462727608 0.17684690062 0.12995025062 -0.31152884391 
0.17398892666 0.10545084995 -0.34571552823 0.18211764658 0.057140247388 -0.37436620116 0.18871055574 0.013652031469 -0.41088772186 
0.19091206972 -0.023015651032 -0.44968101776 0.15475084623 -0.045002555695 -0.46697769595 0.10937577724 -0.054659937951 -0.47852460708 
-0.070834336227 -0.43914656344 -0.71723494253 -0.082281760398 -0.55489446691 -0.66262784412 0.16014822044 -0.63975922491 0.32159512864 
0.10077933623 -0.60539942593 0.3262758549 0.23677749855 -0.65397325532 0.25986423109 0.32307365949 -0.63882032245 0.15560807227 
0.37312976366 -0.59401727112 0.022239162303 0.39644295928 -0.53741478339 -0.073270513199 0.39715269035 -0.47186443414 -0.13930086678 
0.3836082069 -0.42426329355 -0.14618150169 0.36510892308 -0.40326560755 -0.13343957418 0.36935076433 -0.39672946376 -0.13918204529 
0.38290958609 -0.35179396914 -0.16532348936 0.38188604343 -0.29894852705 -0.22129740834 0.37924958567 -0.24966813773 -0.26631013539 
0.3564315651 -0.22063992252 -0.29029342202 0.33038736627 -0.23280885628 -0.32049047172 0.32951017304 -0.25387000279 -0.30686431078 
0.32739172058 -0.28904223953 -0.30483201253 0.32664845238 -0.3182777125 -0.3029398238 0.34032098947 -0.3323792583 -0.31097603822 
0.33237948653 -0.30700098404 -0.33332293976 0.29355207613 -0.29620208797 -0.37579911684 0.18058526006 -0.17454498022 -0.47387451918 
0.21079493869 -0.20189987314 -0.47961079829 0.13653432178 -0.15170412438 -0.42092414816 0.073488319893 -0.12978681158 -0.34250300238 
0.00056253199896 -0.11510914775 -0.23749960301 -0.077447170204 -0.09982822149 -0.13085790642 -0.14747238909 -0.071128786478 -0.018975740467 
-0.20064556243 -0.059188752684 0.085336341288 -0.24722846198 -0.062868476488 0.1796927115 -0.27806022955 -0.072983293619 0.26609676645 
-0.27146842787 -0.07473065156 0.31720252124 -0.25833804575 -0.10707071229 0.35010106793 -0.23140894241 -0.13444469844 0.36546514503 
-0.19192531664 -0.1992837644 0.35421241273 -0.13004606945 -0.23008495246 0.37260118045 -0.11350922559 -0.23135037446 0.38197092089 
-0.097206964485 -0.25559213091 0.3649996817 -0.097835998831 -0.30037493065 0.32837192303 -0.086445378916 -0.36276172215 0.30414007469 
-0.075610167937 -0.40754874174 0.29279035592 0.22693547802 -0.24558461222 -0.45616571494 0.21746568314 -0.3119602906 -0.41895758269 
-0.087132644835 -0.42537390681 -0.67072896689 -0.091354962193 -0.54565540033 -0.61838314692 -0.065135460806 -0.40435967255 -0.60508812991 
-0.015691114339 -0.37475686331 -0.53156332056 0.061096923699 -0.36523883445 -0.42152646022 0.1309209453 -0.35638451755 -0.32147132328 
0.18699887618 -0.35989358395 -0.23462900754 0.22471382255 -0.39049644198 -0.16322584166 0.25508459995 -0.43981858904 -0.10164013052 
0.28087565467 -0.57663515691 -0.1041841807 0.2468359274 -0.54072594142 -0.1079831627 0.29728346248 -0.62136366813 -0.10181794095 
0.31706176698 -0.66140095884 -0.096770215783 0.31938071983 -0.69358736135 -0.088083123568 0.31488268197 -0.71259696528 -0.082571915674 
0.29334096743 -0.692459344 -0.069895407669 0.25764925341 -0.6428422449 -0.046479429786 0.21466279093 -0.56225444578 -0.015688675314 
0.16701219322 -0.46922606533 0.020975323036 0.12103574331 -0.36505521577 0.052771670796 0.13600894847 -0.25142068005 0.055649139536 
0.16451640648 -0.1545029769 0.044436778668 0.19526071529 -0.077455281423 0.021894909672 0.20423585698 -0.016337629741 -0.029247250083 
0.1991638891 0.023474731587 -0.088825013167 0.18188499129 0.021257762116 -0.15634275548 0.16852510752 0.0092900390821 -0.21710829115 
0.17455008478 -0.015625272087 -0.2587770044 0.17842321898 -0.035471067115 -0.29149503543 0.19523453834 -0.083415377196 -0.31740346766 
0.19393807193 -0.13478618567 -0.33511601929 0.19016209226 -0.1809055867 -0.35694290636 0.13448765261 -0.21312206506 -0.35080814611 
0.072695108704 -0.21253286052 -0.35831173935 -0.0092679052043 -0.19570571452 -0.33545298874 -0.0724916346 -0.16693090218 -0.30770323967 
-0.12988122256 -0.15243107271 -0.27263331725 -0.15605370028 -0.16198299737 -0.23956809541 -0.1632377341 -0.17996121936 -0.21448965241 
-0.14060165836 -0.21797170421 -0.20811179878 -0.096348394015 -0.27478806807 -0.22094983213 -0.056832779073 -0.33864187315 -0.24950563823 
-0.028721451533 -0.3954211249 -0.31020181225 1.011838089e-05 -0.43812891793 -0.36884044683 0.024394908995 -0.45899309537 -0.43213021861 
0.026835348651 -0.4568384013 -0.4795901605 0.024194001612 -0.44788787487 -0.51918336866 0.0092346989679 -0.44573336473 -0.53260552603 
-0.010765379603 -0.43120425722 -0.54743623433 -0.055275337402 -0.43676518036 -0.55721669447 -0.022250859155 -0.45802461668 -0.63260936606 
0.0037255206004 -0.52537422491 -0.65142678461 0.021756033514 -0.59688399256 -0.66655324123 0.048457206289 -0.68741131956 -0.67091382419 
0.033978283243 -0.72228124925 -0.66342444459 0.013089390274 -0.74033871237 -0.65783592274 -0.017378002201 -0.69610329757 -0.64648222581 
-0.073468119248 -0.69313961352 -0.61621433676 -0.11151532043 -0.70675548937 -0.59343539994 -0.074818250437 -0.68211909416 -0.56910608892 
-0.020186754014 -0.51292377684 -0.5346646703 -0.0060580760826 -0.66282120105 -0.51480774509 0.24093990498 -0.50847084724 -0.095506273174 
0.2672962829 -0.51009666957 -0.067258124643 0.1264701975 -0.29016899022 -0.48487722707 0.12382646821 -0.3092037227 -0.44127350452 
0.11635784266 -0.25773773438 -0.49418666086 0.07973086787 -0.24366552666 -0.48290671235 0.046148815898 -0.22750841029 -0.4408295064 
-0.017155169524 -0.19861273943 -0.35516524758 -0.083596047526 -0.17881348653 -0.25684386361 -0.15533831294 -0.16087144338 -0.15158247713 
-0.23401144933 -0.13062388259 -0.055375269514 -0.28085960402 -0.1202575004 0.046003351621 -0.33425631095 -0.1258271936 0.14247259953 
-0.35200738696 -0.11965881173 0.23005180673 -0.35548610509 -0.1440943505 0.28077134298 -0.33675306559 -0.17444155671 0.30808338547 
-0.30264030422 -0.20357464971 0.31268816155 -0.26832770666 -0.2334066044 0.29787867564 -0.14564944815 -0.26871684362 0.31483890529 
-0.16296705258 -0.28077761222 0.30890160604 -0.14104515351 -0.26697927117 0.30204187131 -0.14087799139 -0.32497865113 0.27528840593 
-0.13050185155 -0.39667135826 0.24907174832 -0.12223870368 -0.4485913904 0.24156001553 0.28509318309 -0.72203880491 0.24439749516 
0.19670539074 -0.68073275371 0.2702669237 0.37653533963 -0.73780011746 0.17763304189 0.45950627542 -0.72547917619 0.083174161768 
0.52163125791 -0.67807609242 -0.049918019877 0.52559830007 -0.61485223302 -0.14918732352 0.49724591916 -0.54587326131 -0.20536933908 
0.45296162562 -0.48662709686 -0.21493208933 0.39934265982 -0.44809739994 -0.19059486098 0.38272977012 -0.43625069797 -0.1768622127 
0.37162177021 -0.40239295073 -0.20001984558 0.37558946282 -0.33483995604 -0.27363873459 0.37449430299 -0.28474116723 -0.32574160973 
0.34879900653 -0.25217443087 -0.33643321033 0.31602762832 -0.25609692997 -0.34232554957 0.29792652344 -0.29600115491 -0.32445987795 
0.29187983624 -0.34587623715 -0.31198524336 0.29215592816 -0.38686582448 -0.3104081684 0.28878485158 -0.4012147021 -0.32073698055 
0.28077977669 -0.39439000235 -0.33726611997 0.24894240221 -0.39274235245 -0.35213210735 0.17261585548 -0.38054029012 -0.38567711215 
0.098899993822 -0.37627527444 -0.40727258166 0.059651260644 -0.30048323619 -0.44992100351 0.038066120311 -0.36341871279 -0.40860824827 
0.056407920647 -0.280722355 -0.48011360537 0.057589732203 -0.57989826745 0.28297797224 0.14655260654 -0.63489742718 0.23766636567 
0.034671551438 -0.5633111932 0.24226507997 0.091730568292 -0.59974209814 0.22812876878 -0.20161962272 -0.26976088126 0.29415553536 
-0.24957645136 -0.29938454935 0.27261182656 0.054372711166 -0.45399768219 -0.44278111696 0.14272723888 -0.42135112694 -0.34135347357 
0.20830981514 -0.39869870116 -0.25468813491 0.24193150417 -0.39867915403 -0.18208745597 0.2677503983 -0.42680592948 -0.1223801533 
0.28201552453 -0.47736981055 -0.087312867947 0.30929487395 -0.54038929701 -0.051710612213 0.27944984196 -0.58519480686 -0.048560690923 
0.31438343479 -0.60210204067 -0.037600190878 0.24880410587 -0.57538305061 -0.061044158077 0.24555807569 -0.59563686431 -0.0746734818 
0.25632193686 -0.64372346593 -0.083048660589 0.27922687167 -0.69014159095 -0.06855975373 0.30507736865 -0.73690207528 -0.056291669246 
0.32525538828 -0.76616520234 -0.045889661769 0.32837700646 -0.78795925473 -0.036049411949 0.30636651663 -0.76813442301 -0.027294237853 
0.28258197156 -0.73268691825 0.0067742250892 0.24077072399 -0.66796317872 0.047310265209 0.20029480774 -0.58728563535 0.087025857347 
0.16691640006 -0.48696940927 0.11401980561 0.14583402459 -0.37974063642 0.11920156146 0.14489379352 -0.29421294131 0.11251066453 
0.164037083 -0.2178954457 0.091203033966 0.16698233822 -0.17399360982 0.051611346783 0.15847626907 -0.14479367472 -0.0042111437093 
0.14495443717 -0.14721138458 -0.077510914761 0.13687801857 -0.14922294677 -0.14003353722 0.14675950684 -0.1636682675 -0.18787516729 
0.16097029724 -0.19321453747 -0.22465810591 0.1804601195 -0.24808994009 -0.24223982632 0.18275717179 -0.30327118301 -0.23704566169 
0.17635976934 -0.36228374939 -0.20963894999 0.073616527777 -0.45586054533 -0.14248187625 -0.0081537327054 -0.39714357673 -0.16383340417 
-0.081298937817 -0.35230219419 -0.16683103409 -0.14549119437 -0.32194287292 -0.14632123314 -0.20174163482 -0.29621334881 -0.11155008059 
-0.23349895588 -0.29499649999 -0.076736620074 -0.25515132455 -0.30194633397 -0.04336682729 -0.23003890503 -0.35216653122 -0.039761164841 
-0.19945369307 -0.40787427042 -0.059318141896 -0.15762152845 -0.46963497524 -0.10064209058 -0.13032237534 -0.52134159278 -0.18555903445 
-0.11031607276 -0.5513898651 -0.27181385229 -0.097003616762 -0.56191999476 -0.34382143614 -0.098577159697 -0.5521949662 -0.39811444478 
-0.099564789645 -0.53891029348 -0.44547201089 -0.10104834544 -0.48992062792 -0.46123592176 -0.11388415131 -0.46851901853 -0.47365704028 
-0.1581021519 -0.46584228274 -0.46371372071 -0.055058310678 -0.59596302513 -0.58378861913 -0.090131874411 -0.52365898864 -0.55840999144 
-0.038028339731 -0.6800656921 -0.59165857965 -0.036441139014 -0.7776215618 -0.5824462493 -0.050996729812 -0.83118218738 -0.59092464796 
-0.065303469004 -0.84292056326 -0.60340290161 -0.06977668813 -0.79063778444 -0.60861700179 -0.10220619016 -0.82036908584 -0.57973405647 
-0.12248935316 -0.83255314445 -0.55025084646 -0.10698409272 -0.81513246047 -0.52138283693 -0.031202179445 -0.77642764202 -0.48497542156 
0.10121109239 -0.63707135753 -0.44862128808 0.073790923924 -0.72252098993 -0.44198063352 0.13161130384 -0.55972000362 -0.42003584044 
0.1882600347 -0.49318394352 -0.35282356289 0.25817673782 -0.47046589632 -0.26083731751 0.30679973662 -0.45765513053 -0.18199562743 
0.32231862757 -0.45490735413 -0.12956872389 0.32670841743 -0.4716488769 -0.09234326692 -0.1255314628 -0.89535697734 -0.48144241526 
-0.17656052548 -0.92779324971 -0.50124148904 -0.063823001742 -0.84581196564 -0.46437218713 0.03644810191 -0.78258371429 -0.43581594823 
0.17217527102 -0.66305679795 -0.4012629473 0.15584716808 -0.70512950825 -0.41221394955 0.20197652877 -0.59864121398 -0.38550197119 
0.2358616716 -0.54721926508 -0.35570880003 0.28537972899 -0.51290706861 -0.28678762451 0.34131179253 -0.49859784891 -0.20048127517 
0.3775490422 -0.51116816244 -0.14032951674 0.39842103307 -0.52189525475 -0.093940167284 0.37300231417 -0.5379564087 -0.076087577571 
-0.14554775338 -0.48612513992 -0.49275874123 -0.20844264517 -0.46065430884 -0.43087661117 0.048304067289 -0.27159129013 -0.50011793165 
0.018371348291 -0.25821386726 -0.47626886909 -0.015078598121 -0.25079858241 -0.43658237157 -0.063780464137 -0.24589395662 -0.36324472677 
-0.12465739316 -0.21666365922 -0.27924858572 -0.19368519858 -0.19582676379 -0.18111567356 -0.2608510908 -0.1753637594 -0.091482692475 
-0.31833428216 -0.17053070379 0.0071882194407 -0.36296637928 -0.17079060708 0.10220858299 -0.3702847672 -0.18255861073 0.17617510241 
-0.38491585635 -0.21207264939 0.23794659051 -0.37117954904 -0.23151171463 0.25932790364 -0.34906886831 -0.26492502117 0.2772859833 
-0.31318538642 -0.30179023164 0.26707791387 -0.29129416494 -0.32941843403 0.24593877788 -0.25643278024 -0.3457630555 0.23289921783 
-0.2882475188 -0.36765223169 0.20955364736 -0.22291463714 -0.31479558699 0.25152141014 -0.19802606326 -0.30333002587 0.25440362019 
-0.18540350959 -0.3161729242 0.24007181921 -0.18271705664 -0.31381529184 0.2225189544 -0.18793209178 -0.37015835967 0.19714782346 
-0.17455695215 -0.42205917373 0.19310326548 -0.15419333741 -0.47028508356 0.19497871456 -0.080073513737 -0.48403608901 0.24510157011 
-0.1152126145 -0.48339830362 0.20254898526 -0.019813985587 -0.52580925608 0.24614229785 -0.058643480653 -0.51267134993 0.20833441733 
0.013599173667 -0.55101485915 0.20301376069 0.093261506062 -0.59193778797 0.1926975186 0.18103161572 -0.65163331041 0.18673188699 
0.27621291073 -0.71401467524 0.18065199893 0.3871951036 -0.76428760637 0.1501567315 0.49736796151 -0.78192435344 0.081145030973 
0.59495013166 -0.77671611977 -0.0054975769461 0.63030568834 -0.74473031184 -0.11186535429 0.62241738291 -0.67775009012 -0.19712444633 
0.57576463371 -0.6073289756 -0.24574848355 0.50381284663 -0.54341297499 -0.24870638192 0.41639246228 -0.48100239773 -0.20435898247 
0.37167114603 -0.46535187598 -0.15993668699 0.33257238883 -0.45588593119 -0.12393747776 0.37059733609 -0.3227664636 -0.31504496884 
0.37527396041 -0.36279445593 -0.26088083298 0.33524869446 -0.30422578885 -0.35265608263 0.31127808177 -0.30283987064 -0.35791486568 
0.28102169632 -0.33979911948 -0.35132870655 0.26191571109 -0.39561502667 -0.33996326284 0.25143756467 -0.4500923494 -0.33431761394 
0.23774271409 -0.48058398585 -0.33958752949 0.21124751454 -0.49186748664 -0.34541455184 0.16323452505 -0.49926846993 -0.35002888508 
0.10940109995 -0.48794935961 -0.36871834518 0.046315596493 -0.46336257083 -0.37060892373 -0.012399326167 -0.44020373425 -0.37182862721 
-0.0053689742696 -0.34052405186 -0.40670425521 -0.04563895234 -0.4118571262 -0.38160242729 -0.0027938659763 -0.30918402067 -0.43713559234 
-0.0074285358583 -0.27750012064 -0.47449416242 0.36296195078 -0.4155963562 -0.18981786157 0.31826805937 -0.48301650214 -0.085273167815 
0.37931526745 -0.62057300555 -0.046720528997 0.3390806214 -0.54842958594 -0.058666498631 0.3218507451 -0.66069811056 -0.018378858073 
0.38767888975 -0.67052235981 -0.032168632293 0.28170735397 -0.65275782348 -0.028398708764 0.26399906971 -0.64670662597 -0.042055295725 
0.25269451366 -0.65883854504 -0.045499428234 0.24144337969 -0.67610951428 -0.034538530645 0.25933487668 -0.71405800289 -0.0069587999214 
0.27623837829 -0.74513965499 0.027160163003 0.29876589545 -0.78164215337 0.026515591787 0.30683241732 -0.80967150771 0.022949969775 
0.29749611449 -0.7960122112 0.02114650112 0.28206864493 -0.76682037735 0.048497635191 0.25793296953 -0.7278595885 0.09485598726 
0.22811626106 -0.68122951844 0.13540713191 0.18338721266 -0.59329864563 0.15420949313 0.13382567407 -0.50327571398 0.16042112102 
0.12959563969 -0.42928662287 0.14635759765 0.13194426318 -0.36375224627 0.13640549255 0.12960028344 -0.32831133246 0.10879686349 
0.113857111 -0.31098009304 0.065278353399 0.099687119011 -0.31389449113 -0.0031464967968 0.090226262087 -0.31199510099 -0.060957195808 
0.10125678306 -0.32056150065 -0.10485115365 0.12205356495 -0.3413231359 -0.14265628455 0.15718747264 -0.37952814242 -0.1614216872 
0.17623464214 -0.43488219541 -0.15128519723 0.16925858322 -0.50339919948 -0.12030208724 0.087576605295 -0.5707610194 -0.054572272522 
-0.15990882764 -0.47765480974 -0.00600226652 -0.096557758434 -0.52480236777 -0.0082734842358 -0.21722988243 -0.44932697442 0.012074557388 
-0.27674152789 -0.42611119666 0.038261490178 -0.30502555665 -0.42339255537 0.072003354446 -0.31947929752 -0.43616780212 0.10044644384 
-0.29475854798 -0.48627768624 0.1002108298 -0.2739740514 -0.53442894889 0.07601104921 -0.24449348829 -0.58404223466 0.032760287473 
-0.22666056861 -0.63401699138 -0.058483645429 -0.21143036151 -0.6572220846 -0.16615606061 -0.20470841035 -0.6475288024 -0.26660351692 
-0.20287238717 -0.62544608873 -0.33862484887 -0.19808149045 -0.59502720377 -0.39799243367 -0.20030795649 -0.54252664882 -0.413355853 
-0.20547672176 -0.5007700659 -0.42312845454 -0.20948243446 -0.48868634065 -0.42834672641 -0.2360279584 -0.47879258817 -0.39813089308 
-0.22835404894 -0.46303701082 -0.39348514381 -0.26757365748 -0.46366313537 -0.36881657007 -0.1721502885 -0.50469187785 -0.45045286664 
-0.12959422386 -0.54483266693 -0.49467401712 -0.10305872047 -0.61340832878 -0.50854359508 -0.087320733034 -0.69530589289 -0.5047859872 
-0.1007429091 -0.80349305973 -0.49593685359 -0.12487851077 -0.87883264127 -0.51237767709 -0.127961205 -0.90516127634 -0.5507609699 
-0.045126157206 -0.59136020712 0.0077918674539 -0.0015830872564 -0.64334615371 0.022851480163 0.41832284458 -0.60753012485 -0.064881574188 
0.44254835565 -0.66371012742 -0.048156557568 0.3527510617 -0.71258905767 0.012914519625 0.41075058204 -0.70077843946 -0.0066477890705 
0.30534604526 -0.70929459598 0.0061981625259 0.27462680151 -0.6875716687 0.0062848775596 0.25043009376 -0.6690077128 0.0018471367172 
0.23294290799 -0.67949139612 0.02062085679 0.21990402762 -0.69771930338 0.050248230928 0.23707700123 -0.72596519393 0.091808828231 
0.25552385055 -0.75292544128 0.12842946433 0.27304874063 -0.76461282589 0.10960651036 0.28915382595 -0.77400362064 0.086492487854 
0.29408806782 -0.77533714634 0.057761355443 0.30048948992 -0.76916388923 0.059564274002 0.30738796409 -0.75765450946 0.094303675684 
0.28188468756 -0.74523755007 0.12809369587 0.21103928602 -0.67212367593 0.16436756089 0.15496362428 -0.61539091211 0.16934076263 
0.1292030225 -0.55939390807 0.18109265056 0.10882483076 -0.49677626247 0.1891606843 0.07454946685 -0.46616582178 0.16558115916 
0.050993017937 -0.44264495839 0.12968952496 0.033905208196 -0.44446472044 0.086658283058 0.02493186325 -0.44458008592 0.031957691828 
0.03578851296 -0.44792705112 -0.032760818997 0.063725206965 -0.45776773468 -0.075954341011 0.11645803906 -0.47449169067 -0.095150524114 
0.14901012446 -0.51899726436 -0.094874463357 0.16001496451 -0.57865992207 -0.073952135368 0.10556821455 -0.62872151576 -0.029241520034 
0.010691020951 -0.65298343978 0.013841879344 -0.093124909526 -0.65751810141 0.055283324003 -0.068616313467 -0.66420213837 0.046903127591 
-0.13188671704 -0.6285413115 0.067482838493 -0.1779702312 -0.60248220225 0.083028995011 -0.23041617335 -0.5727751855 0.097938322616 
-0.27080675487 -0.54823910627 0.11802958575 -0.32177251884 -0.52627817124 0.14330740532 -0.34545823698 -0.52811165443 0.17239262047 
-0.36404416494 -0.53910172083 0.20137122579 -0.35296920736 -0.58136289443 0.19838056706 -0.33280494786 -0.62247051246 0.16817509219 
-0.30103572429 -0.66468079739 0.10102713082 -0.29845243871 -0.70013979964 0.003687401142 -0.2758967519 -0.69784952214 -0.12039367722 
-0.26339678246 -0.67848683766 -0.21812476152 -0.25894654085 -0.64094324429 -0.29826765758 -0.25258473925 -0.60091746736 -0.37033215346 
-0.26233109897 -0.55400560504 -0.36881237793 -0.26058008663 -0.50841552958 -0.37689966165 -0.27916936058 -0.48577334774 -0.36386251266 
-0.28915753305 -0.43501277121 -0.35804340981 -0.28140251982 -0.45411602586 -0.36731018999 -0.24248775346 -0.45887039723 -0.37346928227 
-0.18271512618 -0.48755607548 -0.40354937627 -0.14774168381 -0.54165256248 -0.44269032653 -0.13405538238 -0.57677260412 -0.42714910567 
-0.12053556812 -0.64961931171 -0.41675752523 -0.13738318971 -0.77416284608 -0.41106444305 -0.18478735579 -0.89231516844 -0.44556590109 
-0.020866772868 -0.2699099122 -0.49208251264 -0.042580157931 -0.28257224969 -0.48395486988 -0.063829928035 -0.28501635936 -0.44013618361 
-0.094248137577 -0.27351273355 -0.37617736191 -0.14721523951 -0.25014056451 -0.29618692568 -0.20289160315 -0.22732816117 -0.2160740511 
-0.26245668318 -0.21747451889 -0.12517235138 -0.31343649207 -0.22237720409 -0.029662415635 -0.35705553158 -0.24002939058 0.061131227082 
-0.38483194445 -0.26481815609 0.12521136909 -0.39580838753 -0.2971217221 0.18530589004 -0.39096432751 -0.32390190234 0.23331397058 
-0.37080540723 -0.3309331698 0.24007476097 -0.34324599323 -0.34217616936 0.23644647151 -0.31832055795 -0.35251790616 0.22616976773 
-0.31676206502 -0.39920802493 0.20189962723 -0.28561067842 -0.42392524701 0.15944612601 -0.30797212718 -0.47468859424 0.18403738451 
-0.25240372829 -0.38667635777 0.18385388041 -0.23761772552 -0.36958532501 0.20361960653 -0.21949545655 -0.35176104267 0.2033970807 
-0.22108731662 -0.35115857461 0.17765254354 -0.22250657136 -0.36905827374 0.15407966171 -0.22783526361 -0.40726308011 0.13297791186 
-0.22646540303 -0.44098996722 0.13176630931 -0.22255206816 -0.46757081113 0.14535227478 -0.16824118344 -0.47716879899 0.16442827675 
-0.098278765589 -0.50196225041 0.17328033716 -0.018326426115 -0.5408729115 0.16687855964 0.077641907368 -0.59032115162 0.15502179164 
0.18562320455 -0.65184848039 0.13529256731 0.30320885425 -0.71420144467 0.11640585768 0.43761810691 -0.76177226383 0.086382070647 
0.54539970063 -0.78583194406 0.022138212119 0.65216419592 -0.78186939619 -0.049183289781 0.70705344444 -0.75488857302 -0.13303207439 
0.67858706584 -0.70828965341 -0.18782242984 0.61097010185 -0.6414318183 -0.22418842744 0.52867803596 -0.56218158233 -0.23032055623 
0.42619546701 -0.51121554385 -0.17488523442 0.34590290272 -0.50104585109 -0.099759445918 0.28324805689 -0.50950385316 -0.018487588232 
0.26615379024 -0.54873472052 0.027862167494 0.33815784055 -0.502979135 -0.065156656574 0.29456023117 -0.57243460158 0.039561832736 
0.37716387575 -0.44077732913 -0.16541895709 0.39442724841 -0.38807467108 -0.23661683529 0.3825100299 -0.36043036215 -0.29056173711 
0.3558480733 -0.34537091657 -0.33992011593 0.3203095417 -0.36033452711 -0.36591723693 0.28855937582 -0.40716055433 -0.37025637811 
0.25611507705 -0.46537286975 -0.37168264093 0.23237985337 -0.53537978584 -0.36589973401 0.2011587962 -0.55706774856 -0.35865125329 
0.17100539892 -0.56541076406 -0.35517843804 0.11526300197 -0.57683774189 -0.35435366481 0.050477361203 -0.5895334147 -0.35520090511 
-0.012470900708 -0.57071406782 -0.36426450165 -0.059531947083 -0.55387132276 -0.35463930312 -0.08833165724 -0.50346412406 -0.3441757265 
-0.071193598193 -0.35676863533 -0.37289904219 -0.10547185958 -0.43158253264 -0.33763320973 -0.039588388912 -0.32268395045 -0.4098975059 
-0.053025572826 -0.29965955055 -0.43327232232 -0.073704662249 -0.26455623345 -0.47401760653 0.2492694465 -0.70933417804 0.041534187874 
0.20787844483 -0.71789995974 0.12498231006 0.21701988283 -0.72728558324 0.17218711174 0.22385193466 -0.73140310918 0.21405877026 
0.24862160505 -0.73275717195 0.18418045996 0.27289168034 -0.7370194666 0.15143710787 0.2951119909 -0.73049967104 0.10677199456 
0.31651863039 -0.72297254728 0.075460724052 0.35501172952 -0.72858349681 0.083851803384 0.40793159979 -0.73641620554 0.080125618967 
0.17716277126 -0.66477163925 0.1631953275 0.25158344672 -0.70038722871 0.14488564693 0.15070261371 -0.62862902123 0.17873880998 
0.10157755148 -0.59607235198 0.18549567778 0.065014365225 -0.56175049864 0.19565981311 0.027835931253 -0.53424317484 0.19413980841 
-0.0069273945262 -0.53859292442 0.15002225121 -0.028825350772 -0.54004392292 0.097646494653 -0.024165183623 -0.53953413216 0.029207501733 
0.0018626732596 -0.54273360972 -0.026455802226 0.064263445186 -0.55257578818 -0.04877033142 0.10692534915 -0.57557969686 -0.057049121064 
0.10847093895 -0.6090249883 -0.042004149993 0.087391715387 -0.63525626138 -0.022620221814 0.004605662438 -0.64277875839 0.0097955732938 
-0.092077321372 -0.63005288275 0.037897431134 -0.14979768213 -0.62125251421 0.063436573959 -0.15458006552 -0.57749218002 0.048094660108 
-0.1519795344 -0.65355975996 0.077374435663 -0.17353160505 -0.6426348058 0.089283843628 -0.20704286527 -0.636332147 0.1179336934 
-0.25108848983 -0.62156909977 0.1408005284 -0.30384873483 -0.60382978099 0.16553786296 -0.35073991628 -0.5831612882 0.18681930754 
-0.3657476623 -0.59201898362 0.21159202795 -0.38000753992 -0.59561229015 0.234533091 -0.37258670495 -0.62730874808 0.21295852648 
-0.36015313621 -0.65568436888 0.18732411202 -0.33738542845 -0.68830328104 0.13015056285 -0.32972112555 -0.70271489589 0.062954041579 
-0.31024872933 -0.655613752 -0.21009310999 -0.30276031753 -0.6843685894 -0.12619314421 -0.30313170413 -0.61517290662 -0.27999397839 
-0.29847750963 -0.57116639908 -0.34760538988 -0.29045421862 -0.52286551416 -0.3555363245 0.33136171602 -0.74881168875 0.12854868704 
0.44486575963 -0.74815020369 0.068962576463 -0.28066613587 -0.48850568975 -0.377771733 -0.25951124756 -0.41349993609 -0.38836747481 
-0.24792575802 -0.44641481202 -0.40311745568 -0.2595228031 -0.39479652207 -0.36932042459 -0.22303350059 -0.41605504127 -0.36482320966 
-0.17614807684 -0.51360097255 -0.3795570287 -0.093176322834 -0.27682643741 -0.48374679186 -0.1044943043 -0.29189047967 -0.48102214924 
-0.11691300844 -0.29663546784 -0.4334597865 -0.12859610614 -0.30018354324 -0.38711911518 -0.16035464643 -0.28673916611 -0.32126594063 
-0.20096328425 -0.27591520517 -0.24991696486 -0.24765570764 -0.27555906064 -0.16455056384 -0.29360652398 -0.29003574325 -0.077724690695 
-0.33843897022 -0.32669429918 0.0052262606605 -0.37072683291 -0.37479684708 0.071824096934 -0.39315023624 -0.42178796887 0.1395660957 
-0.39546261478 -0.43389787632 0.19296094305 -0.37937634195 -0.42060458547 0.20815113981 -0.3503598394 -0.41975015722 0.21418402258 
-0.35765548136 -0.53152739775 0.18866320383 -0.30547362548 -0.5333993206 0.13609867715 -0.34115734854 -0.57260596102 0.16755570725 
-0.28271450653 -0.49201291362 0.12217179404 -0.25258610522 -0.44248806007 0.12887940602 -0.23949928911 -0.41633191838 0.15422770775 
-0.23133129162 -0.40931288415 0.16275307194 -0.23449764549 -0.40889899669 0.1297990462 -0.23933822486 -0.4129453869 0.10112289968 
-0.24629437689 -0.44626169164 0.083995553456 -0.26084418003 -0.47104398435 0.083835765971 -0.27279636471 -0.51175740693 0.10020881707 
-0.20445250947 -0.51263117505 0.14008896821 -0.12864140276 -0.52583372316 0.16033029359 -0.038124071113 -0.54515743354 0.15865545869 
0.064259697248 -0.58467992364 0.14752250238 0.17430185383 -0.64104110068 0.12617862414 0.28781308661 -0.69805718891 0.098941300108 
0.40522484435 -0.75533143034 0.063395220258 0.5376678371 -0.77825969035 0.025916938838 0.65011424095 -0.77571683019 -0.019184743475 
0.68859123526 -0.74432217394 -0.095821855255 0.67493876298 -0.68971399375 -0.15798833548 0.6164920196 -0.6301643227 -0.18680343907 
0.51225851291 -0.56791975606 -0.16772513262 0.40294836564 -0.52578771045 -0.10080936041 0.30334291849 -0.52066456955 -0.013197134286 
0.23927137356 -0.56129717928 0.073370836423 0.2256858736 -0.60535200197 0.11726757332 0.26281313079 -0.64262135969 0.11403276875 
0.35012014605 -0.5965001751 0.018299270914 0.30900582088 -0.67278636234 0.084061804212 0.38532004979 -0.52257552662 -0.064706268609 
0.39067917748 -0.45883361025 -0.1376628425 0.40240495992 -0.41191194116 -0.20564893848 0.38331515991 -0.39100400533 -0.26959498427 
0.35231398805 -0.38463544559 -0.32874262747 0.31417474635 -0.40668378538 -0.36830609656 0.28720372015 -0.44715790216 -0.37104274947 
0.2574710469 -0.50954591991 -0.38434762535 0.20783113645 -0.60311601711 -0.39049086255 0.16271716221 -0.61433849547 -0.37716101077 
0.13580744545 -0.61237014074 -0.36853847819 0.092197035849 -0.64347728232 -0.3689661218 0.011368429986 -0.67568106551 -0.37194956485 
-0.064163243464 -0.69501161849 -0.37114951753 -0.11708104296 -0.67538088793 -0.3618616944 -0.14207674448 -0.63182121777 -0.33529440673 
-0.14020415129 -0.54306920595 -0.32265296134 -0.14146529758 -0.37837060063 -0.3556703054 -0.15913465025 -0.46441898466 -0.32857991391 
-0.10671037894 -0.32218249216 -0.39915303148 -0.18345762239 -0.9033829161 -0.43430469272 -0.091881175737 -0.85463885359 -0.42581321256 
0.016155954078 -0.80904925608 -0.41449943655 0.12379921956 -0.70559526953 -0.39785152988 0.22755860512 -0.6136526501 -0.38436375926 
0.2536362068 -0.58495842398 -0.37815529542 0.27512269914 -0.54140538102 -0.34999346494 0.30421503533 -0.51492668971 -0.3204273316 
0.35713658897 -0.50525989422 -0.25754658668 0.42164303629 -0.50599054307 -0.18500924617 0.45465612527 -0.54804572239 -0.12921149817 
0.45196615563 -0.57912295286 -0.087970871994 0.46583299818 -0.62989711811 -0.070301680926 0.44813212627 -0.66462216767 -0.038488902773 
0.34516725037 -0.73666076353 0.059411031052 0.38326233105 -0.67507990156 0.026649439382 0.30439712682 -0.74212852906 0.085533676369 
0.26533300786 -0.73188329465 0.075753016111 -0.16314047709 -0.33816330009 -0.45763452979 -0.15662169832 -0.31347236023 -0.44939253688 
-0.15615764551 -0.34587267875 -0.44234850474 -0.16166300878 -0.33741601255 -0.3981053134 -0.17273361284 -0.33510268982 -0.33977903813 
-0.19468796803 -0.34571090842 -0.28109295523 -0.23511350075 -0.35417100984 -0.20466310707 -0.27653242975 -0.37388690803 -0.12386630067 
-0.31965592233 -0.42474911501 -0.046580948628 -0.35348199299 -0.49244896496 0.029244214294 -0.36323614341 -0.56767144119 0.0986536814 
-0.38391439232 -0.55044167218 0.17709728527 -0.37889108363 -0.5383329861 0.20125829698 -0.32115017017 -0.60177027007 0.15839667019 
-0.35906410167 -0.59113148548 0.18932233527 -0.3671604298 -0.58951258818 0.20047280322 -0.27692050712 -0.58738418797 0.11353363104 
-0.25743361443 -0.53144494376 0.098395020469 -0.25009897242 -0.49627506014 0.10213907376 -0.24103569593 -0.46916000955 0.11412670057 
-0.23305069339 -0.45644675902 0.12412027839 -0.23152661483 -0.46313787592 0.087656205903 -0.2423821103 -0.44878263236 0.06728793526 
-0.2586763612 -0.46805642325 0.056277900615 -0.27011766404 -0.49353960064 0.048757252611 -0.26697906842 -0.51939387266 0.064450933226 
-0.11727075503 -0.546902311 0.16828067031 -0.17721695865 -0.53867456109 0.13737715373 -0.051644542975 -0.55509920828 0.17110681931 
0.03686477313 -0.58754850268 0.15676945284 0.14380628517 -0.64275230351 0.13048926891 0.2513121256 -0.69257931138 0.099069297355 
0.36160154671 -0.73181606728 0.069705826677 0.4722289741 -0.75563462941 0.040853118611 0.56677510307 -0.76657969143 0.015970382678 
0.59870127974 -0.7157047315 -0.018495260775 0.57231023499 -0.63437772227 -0.10718705919 0.61726282538 -0.67938521625 -0.089213782214 
0.48037742086 -0.58163274176 -0.078508490363 0.38051146405 -0.5645980949 -0.01383013271 0.26931838414 -0.55486382104 0.074362042939 
0.21858247173 -0.62115827426 0.13332304308 0.1779865582 -0.67639086183 0.19288118823 0.2228177377 -0.69689697626 0.16772977888 
0.27020829721 -0.73743963403 0.13421599337 -0.23233904944 -0.54161520149 0.097625163811 -0.22388104022 -0.54289765014 0.057047968632 
-0.32245409354 -0.70692133312 -0.043838054129 -0.33683264745 -0.68185452632 -0.0002537422497 -0.1374589772 -0.56032726501 -0.34943411149 
-0.14495382298 -0.67429151805 -0.35118754418 -0.1499750593 -0.77607491923 -0.36461495156 -0.13797457494 -0.8053441388 -0.38519248857 
-0.091319091952 -0.79806037431 -0.3950153232 0.0035979039754 -0.74763352975 -0.3953912411 0.09247791216 -0.69991966511 -0.38646786818 
0.20869893351 -0.74372346479 0.17270639506 0.18902824996 -0.73986108984 0.22647358791 0.18811682091 -0.72753723124 0.25523699796 
0.22389816703 -0.70684322955 0.22542088115 0.26836061329 -0.68532886013 0.17360225519 0.30795690125 -0.68279075387 0.11550416181 
0.35660098178 -0.68414749034 0.058002678755 0.41394144776 -0.70110173708 0.044909371026 0.49679197751 -0.70049294901 0.019259431583 
0.44899667758 -0.75532689047 0.069576616153 0.35547699446 -0.74809180664 0.11026664733 0.29102639287 -0.7337391924 0.12761114211 
0.22147025638 -0.70601304797 0.14772208462 0.16320423339 -0.66049358168 0.17105783268 0.10314193199 -0.61809258647 0.19167581047 
0.053864951258 -0.59126127061 0.20345323188 -0.0058331073621 -0.5691785813 0.20677417172 -0.048134901304 -0.57163011118 0.1683913776 
-0.081093995202 -0.57025169719 0.12773573816 -0.079177706995 -0.56453421378 0.069459349644 -0.063473623778 -0.56596195765 0.01932403456 
-0.0081611683318 -0.57298864652 -0.016629787245 0.028855516155 -0.58511934156 -0.038194010413 0.034967463658 -0.603198266 -0.027360622248 
0.025747443679 -0.61333433394 -0.01534972253 -0.03487794531 -0.61221242502 0.007119956728 -0.10571890015 -0.5823527733 0.023063323791 
-0.14740303245 -0.55024826068 0.040157754278 -0.19352306116 -0.57672242062 0.066695324069 -0.19324998227 -0.54575963632 0.064602905067 
-0.21145015184 -0.6058724975 0.083151213687 -0.22032880693 -0.63287131678 0.099277757935 -0.2317718088 -0.63219136837 0.11274924561 
-0.2677741443 -0.62205156932 0.13073709366 0.48002697059 -0.57429975083 -0.10650171187 0.44845931476 -0.59569561117 -0.067765638704 
0.41905968112 -0.59719954416 -0.032195055655 0.41481162923 -0.53135074295 -0.085248039595 0.41158879606 -0.4796240728 -0.12799978617 
0.42929457335 -0.44957619136 -0.17166545194 0.40070870856 -0.4531495375 -0.23781584117 0.35849074883 -0.43515822955 -0.28625234251 
0.34063127675 -0.46138765925 -0.34098821416 0.28708312569 -0.50710331615 -0.37293516246 0.26364061824 -0.5448907847 -0.38939288145 
-0.37334583434 -0.58363694208 0.21480219166 -0.37161495508 -0.61665176002 0.19982633678 -0.37071915223 -0.63471190317 0.16299646892 
-0.34998343648 -0.66185027817 0.11483542814 -0.3381764073 -0.67994158059 0.074045824168 -0.33618722462 -0.63533109906 0.035111060662 
-0.32335756171 -0.64045399518 -0.05346514015 -0.3282820366 -0.58569285228 -0.01783170408 -0.32515528872 -0.66928617201 -0.076552538658 
-0.31467596705 -0.64382633808 -0.13531381144 -0.30400593775 -0.60731798611 -0.20852813599 -0.29408220508 -0.56768961402 -0.27150607516 
-0.27722813048 -0.52746122104 -0.34181875709 -0.24089225248 -0.46249233267 -0.35657639202 -0.2061057255 -0.39380769203 -0.42674525338 
-0.2035200886 -0.3928081758 -0.38629809661 -0.21182495661 -0.37062912819 -0.42861342863 -0.2165774446 -0.34119951099 -0.41084733418 
0.35156866516 -0.48217043008 -0.29733926677 0.37193032025 -0.468054755 -0.25503292202 0.42157592108 -0.50668643107 -0.18086729241 
0.22364504626 -0.76946633933 0.18373557515 0.37732841871 -0.74622241833 0.080508896274 0.29244383533 -0.73497208965 0.10043049929 
0.20521904937 -0.68412458221 0.12801826191 0.11314332858 -0.63221622267 0.1568270272 0.028382585262 -0.58811934589 0.18424298999 
-0.03693841006 -0.56702588157 0.19945950961 -0.088115910395 -0.57110244756 0.1879551604 -0.14137132061 -0.56847232296 0.14851080318 
-0.1692204932 -0.5668070892 0.092426070549 -0.16021505603 -0.56815953307 0.042932716674 -0.10864627279 -0.57206974099 0.0074682588951 
-0.069950544121 -0.57340926081 -0.019194382223 -0.11522145649 -0.55266700093 0.020667286978 -0.067147230521 -0.58763437489 0.0052410111651 
-0.23015239816 -0.58312555787 0.081620079853 -0.2218161176 -0.5350589475 0.079946560622 -0.2485271077 -0.61521334423 0.099346127729 
0.18194213248 -0.74171625908 0.23477509133 0.19476492105 -0.70048263681 0.24635938239 0.24333384159 -0.66766273309 0.20734511786 
0.29982920105 -0.6404747484 0.13846413141 0.37418817069 -0.6487894494 0.074307759579 0.43415436083 -0.66173261215 0.025297683251 
0.46777518601 -0.67493540179 0.011241627687 0.53797451101 -0.67293979851 -0.031113557348 0.50501933867 -0.63868601021 -0.040644871854 
0.42754418484 -0.60529319404 0.0054773423195 0.33658572883 -0.59262097242 0.073096185822 0.25124183595 -0.60936388286 0.15258341293 
0.19319857088 -0.66658200746 0.21635744395 0.17004899998 -0.71720407668 0.22616324846 0.1930160075 -0.74079997802 0.20624065781 
-0.30865903957 -0.5904692613 -0.11773562032 -0.29260666938 -0.54106821891 -0.19290134145 -0.26774075363 -0.50743916509 -0.270555828 
-0.2233780987 -0.51175469471 0.087143043973 -0.22491664107 -0.4939442681 0.095793931433 -0.20798531772 -0.51493053096 0.064572203612 
-0.2224210879 -0.50471081473 0.035989971422 -0.20522256156 -0.49251815468 0.041125250674 -0.23175522088 -0.51583757221 0.024987051411 
-0.2302286835 -0.52790278787 0.035471506168 -0.19155099688 -0.54339487603 0.024466106453 -0.31047532218 -0.51866441721 -0.088447904198 
-0.19697689376 -0.37440311026 -0.34691599682 -0.21874565943 -0.39599721024 -0.30717386493 -0.25499190942 -0.42834212076 -0.23601245703 
0.44501493025 -0.53044290567 -0.13301030909 -0.28058432267 -0.46373063702 -0.1652415855 -0.15041893051 -0.53168804158 0.010761722648 
-0.13409713097 -0.53104199369 0.018289710884 -0.16431571483 -0.54088973753 0.00082741680396 -0.06799928399 -0.438224258 0.28927577648 
-0.0091339144282 -0.5079878885 0.30161944335 0.32251126328 -0.49786450515 -0.074151900764 -0.13816772978 -0.28236087626 -0.43868843011 
-0.18708333659 -0.33590162134 -0.38950228486 -0.059290744489 -0.58343786059 -0.0036899565414 -0.062643627743 -0.57984529183 -0.011139470485 
-0.18823797168 -0.50498811413 0.045985775209 
I1_Pt 1 1114 double
1.7933472184 1.8285676121 1.8306746384 1.8052357162 1.846249241 1.8603783099 1.8593691777 1.87488261 1.8540554937 
1.84871144 1.8210154678 1.7951585843 1.7747637965 1.7483379253 1.7519848384 1.7167354265 1.7739460432 1.7456624256 
1.8193603189 1.8085377017 1.8655078299 1.8663329645 1.9153382431 1.9226564272 1.9598467888 1.9314860388 1.916142676 
1.9068464644 1.9098312783 1.9134383773 1.8994260498 1.8830271934 1.9178567281 1.8862951256 1.9531413848 1.9055712873 
1.957238419 1.9099098486 1.9587405354 1.9195055999 1.9734615583 1.9261661462 1.9606802286 1.9117432512 1.9479086003 
1.9025939219 1.9348025918 1.8994914388 1.9185839722 1.8960533432 1.8939348339 1.8755621756 1.850691422 1.8372898309 
1.8293364962 1.7955275511 1.8058289328 1.7853950727 1.7895858994 1.7944279826 1.8148783687 1.8242751477 1.8559782764 
1.8496471779 1.8484784587 1.8681134502 1.8500286367 1.872151901 1.88062818 1.8916342732 1.9252610466 1.8882996498 
1.9038427054 1.888582235 1.9256766354 1.8821557009 1.904504475 1.8477050611 1.8552443898 1.8143394041 1.81895941 
1.8042173069 1.8037884917 1.8012198616 2.0099293998 1.9567580204 2.066820906 2.0599223315 1.9246865632 2.0795828086 
1.9539582703 2.1094716878 1.9960236705 2.1362404622 2.0493481277 2.1684716976 2.0775693575 2.1730468931 2.1104675002 
2.1754018494 2.1530355375 2.1791378098 2.1781793107 2.1754037104 2.1837337006 2.1566160399 2.163158502 2.1222278935 
2.1178770127 2.0797531869 2.0974627856 2.0390188483 2.0987755389 2.0218297444 2.051878489 2.0058989375 2.0207748093 
1.9955358584 2.0011338474 1.996475568 1.9941717694 2.0351926768 2.0593515 2.0737582028 2.1456143673 2.1049054303 
2.1528458285 2.1385979442 2.1576944768 2.1634329117 2.161069806 2.1755342884 2.1633497996 2.1695110536 2.1649146817 
2.1568069473 2.164491413 2.1430649708 2.122742367 2.1280724478 2.0892979573 2.1111112195 2.0678693893 2.1195050831 
2.0975167883 2.1270830592 2.1414617724 2.1358576382 2.1787596695 2.1573590081 2.1881284895 2.1853813786 2.1689803998 
2.2242396706 2.2003013862 2.22921776 2.237782444 2.2329785475 2.2630724649 2.2429768785 2.2610896137 2.2598246377 
2.2373198312 2.2780526834 2.2408037652 2.2739291633 2.2311977308 2.2557350796 2.2009745109 2.2232939173 2.1796743934 
2.194824225 2.1612698238 2.1682415469 2.1322610947 2.1612920979 2.113838932 2.1639734131 2.1185339955 2.1656054161 
2.1513648106 2.1671058567 2.2074098051 2.1707449991 2.2106112186 2.1666838466 2.1982100168 2.1490299964 2.1350592954 
2.1401379409 2.0870904414 2.1355198045 2.081832394 2.142497775 2.0827685775 2.1409538329 2.0900060037 2.1254218135 
2.0575176048 2.0935350751 1.890009451 1.8617184922 1.8971754994 1.8806740429 1.8147949919 1.7416527675 1.7155446924 
1.741999525 1.7960304702 1.8565879129 1.9016084267 1.9130789156 1.9195847908 1.9074686511 1.889108182 1.8821979382 
1.8821761338 1.8869819454 1.9055744727 1.8990691696 1.9039654284 1.9126727688 1.9205786137 1.9162802806 1.8631918404 
1.8253538698 1.7912278436 1.7837252451 1.790782121 1.8096663037 1.8408489089 1.8691185625 1.8810877225 1.8764175211 
1.8830913706 1.8859946231 1.8806807424 1.8598972139 1.8508683706 1.8598388403 1.8729495828 1.8633732782 2.0954880411 
2.0889445994 2.1117570414 2.143696061 2.180539192 2.2032208634 2.1999353953 2.1900636574 2.1869549369 2.1454823969 
2.0975953965 2.0531455237 2.008853152 1.9770348814 1.9572037855 1.9435204196 1.9604480108 1.9996895993 2.0549360151 
2.1065956855 2.1420592979 2.1613769713 2.1669786952 2.158746224 2.1583568837 2.1625618367 2.1422837057 2.1279101755 
2.1195465575 2.1148848259 2.1045144967 2.1137423242 2.117719805 2.1468592755 2.16055242 2.1664034896 2.1748575157 
2.1994335428 2.2271535504 2.2334991323 2.2145262013 2.1945221494 2.1826387794 2.1749397507 2.1812139395 2.1905067002 
2.2006669931 2.2070365264 2.2129998066 2.2168306909 2.2083935843 2.1928084679 2.184417131 2.1815630046 2.173942188 
2.1634294576 2.1322919569 2.1057231193 2.1604278861 2.1499429186 1.8451582321 1.9045683013 1.7874217673 1.7486812236 
1.7452732456 1.7868271514 1.8453172525 1.8943264927 1.9133793788 1.9360211201 1.9193642107 1.9042007811 1.8992182149 
1.8992578266 1.9074174894 1.915362711 1.9122442796 1.9147573307 1.9188349541 1.9235939892 1.9342228621 1.8578009761 
1.8952526618 1.8275805438 1.8199308129 1.8271930278 1.8422977564 1.8634677716 1.8770540651 1.8874920347 1.8865366813 
1.8879978492 1.8932255761 1.9024315351 1.941636673 1.974001835 2.0030951041 2.0103684497 1.9841779275 1.9585018044 
1.942866853 1.9318204021 1.9489325496 2.1510304275 2.130517662 2.1433850847 2.136534133 2.1264610667 2.115288722 
2.1037036692 2.0982299489 2.101103135 2.0751857239 2.0787979536 2.0878379555 2.1045715503 2.1238152471 2.142949386 
2.1384746041 2.1347213863 2.133549026 2.1481965861 2.1633726965 2.1730296425 2.185874904 2.2045805523 2.2367706394 
2.2662764892 2.2595525648 2.2486767744 2.233670589 2.2231935105 2.2128744494 2.1903394539 2.1621882795 2.1265861157 
2.0984430248 2.0909887157 2.1026404935 2.123982901 2.1418237286 2.1731687722 2.1841533399 2.1756096003 2.1643847361 
2.1291475676 2.0963884336 2.0662584287 2.0358783861 2.0102387831 1.9871405611 1.9628843993 1.9480925894 1.952606828 
2.0004194861 2.0532440371 2.1039153133 2.1434459848 2.1682510603 2.1728448992 2.1710715624 2.1271468017 2.0881611899 
2.1202620952 2.0523739843 2.0879986146 2.11114558 1.9615682288 1.9783985643 1.933437473 1.9025952387 1.8767737799 
1.8694727213 1.8755120442 1.8928063644 1.8957293488 1.902460075 1.9033553903 1.9064480842 1.898821672 1.9020481211 
1.9131624199 1.9299808881 2.0558916313 2.0355644437 2.0582903263 2.0493172578 2.0251930668 2.0038405511 1.8562055045 
1.908987723 1.8132032478 1.7876831329 1.7841962826 1.8144736141 1.8532305617 1.8899313976 1.937942764 1.9577004491 
1.9687718813 1.945591464 1.9190160395 1.9094316196 1.917524872 1.9190886561 1.9159326848 1.9090254929 1.8972828608 
1.8908282516 1.9097541436 1.9225914757 1.9251132313 1.9617596977 1.9514758093 1.9756105908 1.9396606708 1.9675456577 
1.9881550575 1.996896949 1.9896442843 1.9543128257 2.1146241396 2.1059407793 2.0995994665 2.0948848208 2.0950093132 
2.1026215907 2.1134614066 2.1229889306 2.1184242794 2.1065094642 2.0781768003 2.0704910361 2.0628456209 2.0619030943 
2.0666277475 2.0653020022 2.060000461 2.0579290173 2.0844939938 2.1120726363 2.1400118967 2.1728784738 2.2076171698 
2.2304641278 2.259261033 2.2841173989 2.2825487811 2.2670781455 2.2403566509 2.2135791785 2.185387592 2.1506526226 
2.1099251797 2.0482299318 2.0553118724 2.0582227322 2.0763466893 2.1030182561 2.1232716523 2.1419285323 2.1527969639 
2.1418634376 2.1031694176 2.0685549714 2.038453935 2.0149746576 2.0022309779 1.987529773 1.9790635043 1.9630754514 
1.95560174 2.0216374844 1.9811256655 2.0555034056 2.081416251 2.1125846672 2.1396383026 2.1525964735 2.1227530412 
2.0779149674 2.0271030475 1.9876022495 2.0113845728 1.9483490436 2.0521623246 2.0727686608 2.0739025849 2.0762551447 
2.0903260736 2.1008768879 1.9522971122 2.004987206 1.9079328727 1.9056120053 1.9347199167 1.8673287403 1.9746280121 
2.0035011969 2.0188800151 2.0215039578 2.0384290141 2.0586626371 2.0968659838 1.9499205328 1.9532146108 1.9518520245 
1.9275231237 1.9097113788 1.8985681057 1.916301337 1.9372722311 1.9398624535 1.9327796823 1.9256599181 1.9126547439 
1.9178732319 1.9127155954 1.9173425891 1.9326902314 1.9414012934 1.9678254258 1.9419871947 1.9908949349 2.0190337528 
2.035058991 2.0422504403 2.040431756 2.0457415968 2.0443297612 1.9847806638 2.0491984005 1.9825793243 2.032189718 
2.018944198 2.0065454645 1.9909697535 1.9642816081 1.9227261797 1.8866934202 1.8555986507 1.8266288103 1.8266463859 
1.8561505402 1.907282877 1.956507169 2.0131787351 2.0375566907 1.9421166064 1.980170418 1.9137455102 1.903908219 
1.8953133205 1.8954482798 1.8914015297 1.8819166502 1.8753966845 1.8767567817 1.9021590684 1.9006602144 1.8936799858 
1.9556835118 1.916960129 1.9753054178 1.9728422978 2.0130842916 2.0633631176 2.1071566034 2.1147966831 2.1163710764 
2.1046393903 2.1109481915 2.1025038876 2.0844277569 2.0599695446 2.0456942943 2.039965628 2.0411460279 2.0367991469 
2.0168649471 2.0044953722 2.0137831128 2.0445332146 2.1099018903 2.1490553559 2.17544879 2.198536294 2.2341892952 
2.2499859932 2.2544935493 2.2525138087 2.2407373285 2.2183687165 2.1812011287 2.1288917305 2.0631005556 1.9992709977 
2.0393803947 2.0214750912 2.0629208348 2.0866277234 2.1228559164 2.1483751793 2.1451679549 2.1200565954 2.0789391049 
2.0281476612 1.9925448601 1.9849103654 1.9858320893 1.9950454473 1.9906644777 1.9851680922 1.9723248446 1.9783189898 
1.9627128499 1.9764894968 1.9510959077 1.9580333291 1.9781184608 1.993445011 2.0115727727 2.034617138 2.0752440243 
1.9884079904 1.9520077413 2.0789187575 2.0847114584 2.0961138203 2.064612863 2.108371743 2.1072222747 2.0945943482 
2.0812126425 2.0601445962 2.0345721637 2.0082335958 2.0032063958 1.9966043662 1.9810999138 1.9693491551 1.973631391 
2.0182512416 2.1047210319 2.1319701097 2.1479959109 2.1625905961 2.1730825481 2.182713114 2.1970209205 2.2041664782 
2.2050384728 2.1879394177 2.1574066396 2.1077067207 2.060454431 1.9770001534 1.9291594399 1.9248076846 1.8837640686 
1.9599497493 1.9840635639 2.0094349039 2.035396472 2.0608421497 2.0768240966 2.0932112934 2.0951685239 2.0902399704 
2.0723175629 2.0088138802 1.9855170027 1.9607810266 1.9587322956 1.9638673876 1.976564533 1.9843563286 1.9769469596 
1.9647395487 1.9664691769 1.9550794188 1.9487494095 1.9468007366 1.9448160954 1.9493130876 1.9520114099 1.9432539745 
1.9605129874 1.9361006454 1.9192283081 1.9302527325 1.9412440036 1.9492964408 1.9426782696 1.9296246541 1.9179512397 
1.9065257966 1.8916761029 1.8819118853 1.8936662477 1.909872035 1.9255309087 1.9111835168 1.9225767057 1.8891990301 
1.9699582728 1.9801948559 1.998146417 2.015752032 2.0282619525 2.0458362601 2.0604134661 2.0663370482 2.0391325914 
2.0223908518 2.016926218 2.0140729613 2.0209113045 2.0112058701 1.9990075127 1.9697233074 1.9449404402 1.925266362 
1.9218679451 1.9524919194 2.0122962863 2.0446905591 2.0621479411 2.0785127092 2.0682533328 2.0594475737 2.0518034362 
2.058121558 2.0215471225 1.9915800179 1.9493174095 1.9076340506 1.8975748109 1.8937874 1.8890201365 1.8751312776 
1.8696647192 1.8659366411 1.8570302002 1.8620536659 1.8762350938 1.8875706906 1.9358637614 1.9055693924 1.9473292283 
1.9644511182 1.9651519086 2.0827728222 2.0254242205 1.9951840993 1.972289429 1.9767826416 1.9840055297 1.982695784 
1.981200995 2.0019069739 2.0171016815 2.0870742705 2.0688853487 2.0975469869 2.0848462736 2.0970468052 2.1119056819 
2.1293477324 2.1406534237 2.1353183762 2.1225529182 2.0927522242 2.049402813 1.9902927844 1.9412812839 1.9180243006 
1.8740127914 1.8755635756 1.8761019636 1.8901981275 1.9299166766 1.960772971 1.9790211713 1.9942266719 2.0132858031 
2.0206828187 2.0273431764 2.0195220666 2.01616701 1.9991255079 1.9688604795 1.916099999 1.9329281919 1.9290667754 
1.9512323772 1.9685928387 2.0475889041 2.0301418781 1.9474682476 1.9551521713 1.93405864 1.960744289 1.949653453 
1.9425565052 1.9414156362 1.9191190987 1.916610984 1.9161767303 1.920542789 1.9250540261 1.9302872882 1.9272490572 
1.9151539162 1.8817699987 1.8691837192 1.8728312095 1.8736891285 1.8841479419 1.8962045915 1.8992944009 1.9295022536 
1.9128974592 1.9444934918 1.9721286213 1.9788699113 1.9845412651 1.9953324332 2.0133834434 2.0235898885 2.0105294726 
2.002616232 2.0024576881 2.0176846529 2.0311034464 2.0425544581 2.0473461983 2.0441032147 2.0363514424 2.02284595 
2.0048141208 2.0150752537 2.024383339 2.0409152948 2.0767074136 2.0778428308 2.0663387678 2.0441297679 2.0241212816 
2.0265535229 2.0209600715 2.0386069444 2.0242992957 2.000770785 1.9712454647 1.9463236567 1.9402205011 1.9200159643 
1.899768569 1.8588646713 1.8592652049 1.8623993679 1.8423723239 1.8372590903 1.8400577067 1.8525299458 1.8724753518 
1.9001578208 1.9276001629 1.9287316797 1.9484532053 1.8932931265 1.8718063567 1.8387516766 1.8534326667 1.8884183545 
1.9155579909 1.9410820722 1.9723458172 1.983841293 1.9921093162 2.0217591763 2.0514203249 2.0367263862 2.0385889044 
2.0574495913 2.0249357559 2.0891999093 2.0739525369 1.9306251715 1.9453751108 1.9013672709 1.8920516355 1.8946043052 
1.8935350799 1.8935659602 1.8919405836 1.8839501382 1.8754080204 1.8897921756 1.8867838402 1.8911365823 1.9343667263 
1.9655281332 1.9594424543 1.9052142612 1.8986792279 1.9175598489 1.9441149366 1.9608256474 1.9557276755 1.973546824 
1.9878490456 1.9963860552 1.9907662081 1.9829948343 1.9887948604 1.9863048113 1.9982164344 2.0170310406 2.0490891429 
2.0695414615 2.0773378434 2.0789734449 2.0685439597 2.0576268731 2.0536916132 2.0674365072 2.0597284609 2.0541044801 
2.031708514 2.0153614158 2.0048925769 2.0253588506 2.0012151469 2.0027627639 1.9384739455 1.9149120745 1.9202307011 
1.9030037995 1.8843834445 1.8586052707 1.8389842172 1.8337913295 1.8309607497 2.063201288 2.0254928213 1.9839784529 
1.9791686439 1.992885872 2.0035214994 2.0147717719 2.0205546505 2.0435303428 2.0573427214 2.0672182842 2.0771629696 
2.0778071944 2.0603629914 2.0421021874 2.0344427222 2.0299101173 2.0475480476 2.0660817119 2.0789794689 2.0802188572 
2.0704269338 2.0450488753 1.9943961561 1.9406195687 1.8989749615 1.876724478 1.8997377974 1.8800489707 1.8987289164 
1.892332194 1.9031344545 1.9297525493 1.9299841198 2.0025693014 2.0076791064 2.0109319317 2.0089171996 2.0088584797 
1.9887893366 1.9599110965 1.9632001788 1.9556949491 1.9144209888 1.8922233902 1.960283067 1.9472546629 1.9310185912 
1.9252104588 1.9263006799 1.8892653638 1.8847421086 1.8797642652 1.9084798021 1.8984364856 1.8916128981 1.8977047683 
1.9173056102 1.8852176009 1.9071935325 1.8901240847 1.9472001044 1.9559031972 1.9612956203 1.9790320165 1.9888627838 
2.0189357597 2.0826847896 2.0639699791 2.0453340807 2.0234129714 1.9996287548 1.9886827906 1.9982960964 2.0189999637 
2.0281965124 2.031194167 1.9989617747 1.9765214668 1.8983705506 1.8800833613 1.8923349025 1.8955482449 1.9048359638 
1.9887495919 1.9805852278 1.9965316855 2.0280365607 2.0494400901 2.0582290022 2.0613445406 2.068628917 2.0715419458 
2.0683120355 2.0536887426 2.0229250508 1.9893899802 1.9914560131 1.9962153246 1.8772804017 1.8717316009 1.8725488311 
1.9202212461 1.937995652 1.9220803976 1.9544689706 1.9437598482 1.9771287223 1.9891059598 2.0019728927 1.8730113537 
1.883062887 1.8755460268 1.8749755307 1.979107769 1.8727294871 1.9593127991 1.9296498708 1.9827056872 1.9488579195 
1.9450064025 2.1051484918 1.9598645422 1.9480740574 1.9049559967 1.9389008376 1.9282136805 
IAS 1 1114 double
0 0 0 0 0 0 0 0 0 
0 0 0 0 0 0 0 0 0 
0 0 0 0 0 0 0 0 0 
0 0 0 0 0 0 0 0 0 
0 0 0 0 0 0 0 0 0 
0 0 0 0 0 0 0 0 0 
0 0 0 0 0 0 0 0 0 
0 0 0 0 0 0 0 0 0 
0 0 0 0 0 0 0 0 0.32755940185 
0.37673244617 0.83372257104 0.80254588229 0 0 0 0 0 0 
0 0 0 0 0 0 0 0 0 
0 0 0 0 0 0 0 0 0 
0 0 0 0 0 0 0 0 0 
0 0 0 0 0 0 0 0 0 
0 0 0 0 0 0 0 0 0 
0 0 0 0 0 0 0 0 0 
0 0 0 0 0 0 0 0 0 
0 0 0 0 0 0 0 0 0 
0 0 0 0 0 0 0 0 0 
0 0 0 0 0 0 0 0 0 
0 0 0 0 0 0 0 0 0 
0 0 0 0 0 0.27988748432 0.31868372145 0.84449779884 0.88133860667 
0.57984967559 0.54000354987 0 0 0 0 0 0 0 
0 0 0 0 0 0 0 0 0 
0 0 0 0 0 0 0 0 0 
0 0 0 0 0 0 0 0 0 
0 0 0 0 0 0.47670195137 0.76166709793 0.0053127446635 0 
0 0 0 0 0 0 0 0 0 
0 0 0 0 0 0 0 0 0 
0 0 0 0 0 0 0 0 0 
0 0 0 0 0 0 0 0 0 
0 0 0 0 0 0 0 0 0 
0 0 0 0 0 0 0 0 0.35770613159 
0.92198963493 0.49517221571 0 0 0 0 0 0 0 
0 0 0 0 0 0 0 0 0 
0 0 0 0 0 0 0 0 0 
0 0 0 0 0 0 0 0 0 
0 0 0 0 0 0.46308131328 0.77865949758 0.056545912367 0 
0 0 0 0 0 0 0 0 0 
0 0 0 0 0 0 0 0 0 
0 0 0 0 0 0 0 0 0 
0 0 0 0 0 0 0.37340774694 0.94414606877 0.45585463877 
0 0 0 0 0 0 0 0 0 
0 0 0 0 0 0 0 0 0 
0 0 0 0 0 0 0 0 0 
0 0 0 0 0 0 0 0 0 
0 0 0 0 0 0 0 0 0 
0 0 0.52159097096 0 0.79072761137 0.10880313871 0 0 0 
0 0 0 0 0 0 0 0 0 
0 0 0 0 0 0 0 0 0 
0 0 0 0 0 0 0 0 0 
0 0 0 0 0 0 0 0 0 
0 0 0 0 0 0 0 0 0 
0 0 0 0 0 0 0 0 0 
0 0 0 0 0 0 0 0 0.35681208106 
0.94275017229 0.35347943363 0 0 0 0 0 0 0 
0 0 0 0 0 0 0 0 0 
0 0 0 0 0 0 0 0 0 
0 0 0 0 0 0 0 0 0 
0 0 0 0 0 0 0 0 0 
0 0 0 0 0 0 0 0 0 
0 0 0 0 0 0 0 0 0 
0 0 0 0 0 0 0 0 0 
0.50427113156 0.80836684708 0.16699383459 0 0 0 0 0 0 
0 0 0 0 0 0 0 0 0 
0 0 0 0 0 0 0 0 0 
0 0 0 0 0 0 0 0 0 
0 0 0 0 0 0 0 0 0 
0 0 0 0 0 0 0 0 0 
0 0 0 0 0 0 0 0 0 
0 0 0 0 0 0 0.31899731159 0.85125048055 0.61407210548 
0 0 0 0 0 0 0 0 0 
0 0 0 0 0 0 0 0 0 
0 0 0 0 0 0 0 0 0 
0 0.18182188362 0 0 0 0 0 0 0 
0 0 0 0 0 0 0 0 0 
0 0 0 0 0 0 0 0 0 
0 0 0 0.24578503044 0.74535516339 0.77172429306 0.40928692653 0 0.1274938114 
0 0 0 0 0 0 0 0 0 
0 0 0 0 0 0 0 0 0 
0 0 0 0 0 0 0 0 0 
0 0 0 0 0 0 0 0 0 
0 0 0 0 0 0 0 0 0 
0 0 0 0.54314227475 0.80491676657 0.2043686296 0 0 0 
0 0 0 0 0 0 0 0 0 
0 0 0 0 0 0 0 0 0 
0 0 0 0 0 0 0 0 0 
0 0 0 0 0 0 0 0 0 
0 0 0 0 0 0 0 0 0 
0 0 0 0 0 0 0 0 0 
0 0 0 0 0 0.17934219681 0.63755607253 0.93007572918 0.61911771528 
0.37836423659 0 0.15863644705 0 0 0 0 0 0 
0 0 0 0 0 0 0 0 0 
0 0 0 0 0 0 0 0 0 
0 0 0 0 0 0 0 0 0 
0 0 0 0 0 0 0 0 0 
0 0 0 0.040623260938 0.57410078941 0.84062175567 0.27588549808 0 0 
0 0 0 0 0 0 0 0 0 
0 0 0 0 0 0 0 0 0 
0 0 0 0 0 0 0 0 0 
0 0 0 0 0 0 0 0 0 
0 0 0 0 0 0 0 0 0 
0 0 0 0 0 0 0 0 0 
0 0 0 0 0 0 0 0 0 
0 0 0 0 0 0 0 0 0 
0 0 0 0 0 0 0.075885976699 0.54400133436 0.86389587769 
0.36694692418 0 0 0 0 0 0 0 0 
0 0 0 0 0 0 0 0 0 
0 0 0 0 0 0 0 0 0 
0 0 0 0 0 0 0 0 0 
0 0 0 0 0 0 0 0 0 
0 0 0 0 0 0 0 0 0 
0 0.1116023419 0.52770435655 0.90234288873 0.80581507398 0.61193820759 0.42707922595 0 0 
0 0 0 0 0 0 0 0 0 
0 0 0 0 0 0 0 0 0 
0 0 0 0 0 0 0 0 0 
0 0 0 0 0 0 0 0 0 
0 0 0 0 0 0 0 0 0 
0 0 0 0.06268747158 0.85810204688 0.94418749261 0 0 0 
0 0 0 0 0 0 0 0 0 
0 0 0 0 0 0 0 0 0 
0 0.031921481784 0.24411326154 0.40688405791 0.8270297802 0.027235326445 0 0 0 
0 0 0 0 0 0.42536339553 0.79532999486 0.054456021045 0 
0 0 0 0 0.79731551626 0.45295929481 0.74429733009 
J_Pt 1 1114 double
0.89436460609 0.91174121348 0.91212794541 0.90015491397 0.91829934505 0.92597338931 0.92329849202 0.93169974005 0.92108213349 
0.9187499913 0.9064026438 0.89300734039 0.88441307238 0.87127528405 0.87405210839 0.856495912 0.88562323916 0.87128325752 
0.90786113504 0.90222582247 0.92893956648 0.93007735716 0.95135373364 0.95689282862 0.97414396687 0.96156304821 0.95260819484 
0.94876395463 0.94970627509 0.95246597052 0.9458058334 0.93875958378 0.95560212579 0.94065959312 0.97383904113 0.95016347729 
0.97666102163 0.95210144263 0.97750338364 0.95652052753 0.98458056271 0.95969717828 0.97783319956 0.9523184684 0.97068633901 
0.94683437321 0.96331861766 0.94434482211 0.95454000859 0.94199212165 0.941852304 0.93174097474 0.9201104041 0.91313024982 
0.91039862564 0.89326187991 0.8993414835 0.88931564869 0.89145275892 0.89399461883 0.90454588754 0.90918781351 0.92460865042 
0.92172490857 0.91983316974 0.93079168665 0.92013403761 0.93262133613 0.93576232672 0.94261586494 0.95854554605 0.94149187115 
0.94900755841 0.94146172618 0.95950713837 0.93816738735 0.94866893839 0.92117955704 0.92441813407 0.90376850055 0.90664238629 
0.89827342037 0.89905961811 0.89755530662 1.0037318299 0.97778213903 1.0299177284 1.0267967781 0.96220156809 1.0362073703 
0.97676682525 1.0516981037 0.99775303215 1.06574913 1.0243899795 1.0826834697 1.0378522427 1.0844051365 1.0537598356 
1.0852368008 1.0747276016 1.0872798483 1.0869521942 1.0853734881 1.089336936 1.0759918416 1.0785944769 1.0591344162 
1.0559598786 1.0381953783 1.0456489068 1.0180932423 1.0461767231 1.0098826639 1.0240862934 1.0022070189 1.0089306314 
0.99692958295 0.99885026186 0.99683973743 0.99455208373 1.0150594896 1.0255609625 1.0333497034 1.0673939598 1.0482743937 
1.0733843232 1.0658205597 1.0770542887 1.0791357679 1.0793857915 1.0861751644 1.0812361314 1.083733104 1.0820869512 
1.077803412 1.081526582 1.0706267726 1.0594406539 1.0623337566 1.0412726711 1.052831584 1.028773499 1.0550366158 
1.0425369916 1.0573169884 1.0637562847 1.0604427797 1.0822037402 1.0717148654 1.0873156088 1.0859412056 1.0788112117 
1.1038237809 1.0930596067 1.1064342188 1.1102636769 1.108570301 1.1228620559 1.1141344529 1.1228269981 1.1225979955 
1.1126903848 1.131320756 1.1123588361 1.1278485017 1.10603347 1.1171280333 1.0902676191 1.0991962227 1.0789241516 
1.0841304325 1.0691909086 1.0707355885 1.0574256681 1.0700292505 1.0507906863 1.0736315158 1.0553583312 1.0771904686 
1.0725845019 1.0802304554 1.1002549391 1.0834324035 1.1016256406 1.0818839241 1.0952862485 1.0733844584 1.0649917162 
1.0688158127 1.0419164921 1.0663410008 1.0391511855 1.069571211 1.0395037342 1.0684874512 1.0430280024 1.0602728849 
1.0270805261 1.0440015686 0.9423759768 0.92874174564 0.94382389617 0.93471716712 0.90356308056 0.86865707592 0.85645212455 
0.86972975288 0.89647167726 0.9262194453 0.94847696902 0.9539354504 0.95685450835 0.95122990822 0.9426885866 0.93956258322 
0.93921289607 0.94085848852 0.94985824078 0.94626758334 0.94854895618 0.95273523727 0.95621490949 0.95324991153 0.92575518046 
0.90778705198 0.89159206715 0.88864917003 0.89234343586 0.90165056415 0.91775405684 0.9319946871 0.93796576328 0.93563443586 
0.93953243608 0.94103163747 0.93870953327 0.92909089752 0.92361900843 0.92748966895 0.93423042802 0.93004130707 1.041693756 
1.0381823418 1.0506719608 1.0679862426 1.0875755092 1.0994563444 1.0976864336 1.0922673742 1.0907540642 1.0700880333 
1.0464188466 1.0249134534 1.0034895041 0.98803556061 0.97835378826 0.97138651714 0.9792479909 0.99762284468 1.0235321232 
1.0486764454 1.06678368 1.077329544 1.0812893258 1.0777364275 1.0782806939 1.0803987261 1.0696563099 1.061693944 
1.0565104478 1.0532426796 1.0476641732 1.052733709 1.0559719116 1.0694640992 1.0755852956 1.0783094064 1.0826348428 
1.0949205457 1.108228872 1.1099728115 1.0989373191 1.0873584869 1.0801794231 1.0754033526 1.0794959836 1.0863234366 
1.0935903248 1.0994729015 1.1040858273 1.1063750457 1.1022065618 1.0944333744 1.0903372614 1.0890194247 1.0846449329 
1.0784647142 1.0613934898 1.0467361759 1.0790330926 1.0725289475 0.91815562199 0.94632647861 0.89128215649 0.87350448802 
0.8718051695 0.89228648881 0.92122158287 0.94583184927 0.95544750816 0.96672116074 0.95866931772 0.95113163941 0.94875436829 
0.949068985 0.95275256618 0.95628677108 0.95426627203 0.95518070196 0.95687501753 0.95855887324 0.96348818988 0.92551923135 
0.94358406673 0.91153497123 0.90811665211 0.91176023775 0.9191773762 0.92981038441 0.93674922156 0.94210843394 0.94169972703 
0.94263613079 0.94572815235 0.95059112227 0.97033298707 0.98623661723 1.000244592 1.0039736761 0.99104060334 0.9781395624 
0.96989108843 0.96209764617 0.97123105499 1.0741974859 1.0628466045 1.0702863502 1.0663631118 1.0610422348 1.055166484 
1.0492175978 1.0468371022 1.0490773088 1.0357184927 1.0379831831 1.0417887761 1.0499885435 1.0595320973 1.0687876857 
1.0660682442 1.0624787346 1.0595993043 1.0648078288 1.0712023234 1.0773229017 1.0851525225 1.0957754337 1.113238236 
1.1291421845 1.1264879035 1.1215560537 1.1141252679 1.1088555426 1.1035398208 1.0915326355 1.0761707549 1.0562896565 
1.0406421661 1.03649647 1.0432329 1.055920633 1.0669221815 1.0843304867 1.0903279553 1.0860255963 1.0801025887 
1.0625853674 1.0463335666 1.0314216065 1.0164819225 1.0040064195 0.99304852056 0.98110780617 0.97301375671 0.9744436342 
0.99642236195 1.0212247827 1.045718911 1.0667396576 1.080451714 1.0832503849 1.0826888391 1.0604649619 1.0410006117 
1.0585275243 1.0236389197 1.0428932953 1.0546883933 0.97837942507 0.98751571159 0.96506084999 0.95028710715 0.93777889047 
0.93425106588 0.93727498727 0.94581973072 0.94692614626 0.9503427933 0.95078320674 0.9526098147 0.94887169331 0.9504535476 
0.95595583145 0.96435267183 1.0263457015 1.0163470761 1.0274933808 1.0227656018 1.0108385565 1.0000732267 0.9238179497 
0.94816522218 0.904529908 0.89305420052 0.89137095595 0.90622960519 0.92539214476 0.94373380879 0.96835735735 0.97838897272 
0.98418331283 0.97248460198 0.95921804604 0.9544969093 0.95855647132 0.95886649573 0.9567485458 0.95280168525 0.94656505008 
0.94276176797 0.95164537117 0.95850446849 0.96022798255 0.97922419751 0.97430028431 0.98685866321 0.96357096424 0.97699907814 
0.98866989229 0.9927301755 0.99395074882 0.97652125889 1.0561336344 1.0516783354 1.0483934414 1.0460280105 1.0461880499 
1.0501762967 1.0559604063 1.0608415567 1.0588021603 1.0523600875 1.0379190261 1.0336059345 1.029809845 1.029507475 
1.0321339132 1.0316365538 1.0281782486 1.0259416649 1.0370320961 1.0494221763 1.0624721945 1.0799462564 1.0981515501 
1.1101201461 1.125073151 1.1379996593 1.1374891237 1.1301474736 1.11734432 1.104148202 1.0896733955 1.0709750822 
1.0484955251 1.0175463127 1.0191691926 1.0220812779 1.0325335352 1.0473568391 1.058794169 1.0693378563 1.074925329 
1.0696557213 1.0505686021 1.0332417767 1.0180474598 1.0061702499 0.99983107015 0.992808171 0.98892336794 0.98109590542 
0.9772481448 1.0047209203 0.98639713551 1.0205726261 1.0341812389 1.0513799613 1.066517892 1.0732849609 1.0583744775 
1.0364133117 1.0110598252 0.9914610097 1.0040399422 0.97192770817 1.0250280253 1.0356999847 1.0361482257 1.0372261209 
1.0441654202 1.0494314177 0.97443445078 1.0002161475 0.95284037522 0.95048587243 0.9648712468 0.93169733381 0.98553707856 
1.0006226263 1.0087099348 1.0102508305 1.0186717548 1.0286707486 1.0477392123 0.97314356164 0.97555898688 0.97522428374 
0.9633305597 0.95457051278 0.9490468879 0.95799081794 0.96843644214 0.96959762369 0.96596601569 0.9623847637 0.95600993856 
0.95858323041 0.95595193656 0.95835643971 0.96586190202 0.97014680785 0.98340669402 0.9704498272 0.99476535621 1.008691213 
1.0164750933 1.0199362621 1.0188695847 1.0213059359 1.0204716277 0.98906040585 1.0224750241 0.98671867812 1.0126773657 
1.0043966406 0.99673251432 0.98864528308 0.97559965675 0.95712135182 0.94146625195 0.92721758557 0.91248810233 0.91198844959 
0.9260870433 0.95129733235 0.97624956965 1.0054439263 1.0180761299 0.97090458257 0.98994695127 0.95667647203 0.95156351945 
0.94708879104 0.94672033553 0.94424685317 0.9393924626 0.93590795519 0.93645771368 0.94936081999 0.94861178876 0.94494506775 
0.97647076203 0.9568064807 0.98650976324 0.98530839826 1.0063549413 1.0312569321 1.053199725 1.0568287424 1.0579385714 
1.0520537455 1.0550706671 1.0506331647 1.0414057853 1.0288921007 1.0216566982 1.0188733511 1.0196446015 1.0175368853 
1.0074841465 1.0008466406 1.0048938164 1.0195179871 1.0506258948 1.0704493333 1.0835604278 1.0949628705 1.1132788177 
1.1217513476 1.1240532188 1.1230315872 1.1172678819 1.1065249606 1.0883928533 1.06187578 1.0279278139 0.99509868878 
1.0137339403 1.0048047093 1.0262201212 1.0390091689 1.0581326122 1.071715327 1.0709260427 1.0589229638 1.0386099117 
1.013287069 0.99539470357 0.99137295783 0.9918709667 0.99662088601 0.99475815628 0.99224680813 0.98565588147 0.98870025322 
0.9802841418 0.98787414552 0.97202286588 0.97475384521 0.98337888753 0.99006760617 0.999610722 1.0126385098 1.0342561671 
0.98881452924 0.97210184873 1.0391207325 1.0419689979 1.0476644563 1.0314924995 1.0539935544 1.0533119145 1.046791115 
1.0399930354 1.0293170646 1.0164437969 1.0032045476 1.000791839 0.99754316721 0.98977815916 0.98398064521 0.98626296526 
1.0081022954 1.0498714682 1.0629920933 1.0710357253 1.0785509014 1.083952466 1.089135287 1.0963129948 1.0999485936 
1.1006489265 1.0924516304 1.0774673714 1.0525030187 1.0284665075 0.98603476051 0.96259964777 0.96042663086 0.94029375731 
0.9769286226 0.98820387736 1.0007635107 1.0141405458 1.0276230567 1.0364261319 1.0453916562 1.0466759539 1.0443958596 
1.0354678384 1.003837037 0.99194717862 0.97947945365 0.97853190107 0.98119629122 0.98774277744 0.99183860892 0.98796901479 
0.98183795695 0.9825852584 0.97623666011 0.9720925561 0.96871233714 0.96702044209 0.96850608524 0.96993837686 0.96816263222 
0.97944330067 0.96770613264 0.95946410486 0.96503091402 0.97044256367 0.97432635791 0.97076400191 0.96414981595 0.95841314427 
0.95244061577 0.94494062588 0.940215543 0.94632429945 0.95446863544 0.96227875575 0.95490257229 0.96062363664 0.94367768372 
0.98459627097 0.98972883666 0.99869300355 1.0074420192 1.0135696101 1.0221252603 1.0291803581 1.0319418246 1.0177385989 
1.0085520159 1.0049889808 1.0025085178 1.0053659017 1.0004380516 0.99507158349 0.98224519077 0.9712501486 0.96155605372 
0.95831391354 0.97196933741 1.0010452269 1.0183661684 1.0285828075 1.0377266294 1.033508848 1.0292245286 1.024952922 
1.0288063857 1.0106376215 0.99567026759 0.97442547461 0.95337978383 0.94793846998 0.94585313506 0.94346961699 0.93667818938 
0.93409163425 0.93209276212 0.92757990436 0.92943020431 0.93633881182 0.941818055 0.96634386838 0.95073539179 0.97214534498 
0.98075942751 0.98129033091 1.0409451634 1.0122558913 0.99718053002 0.98576582594 0.98769709114 0.99098543727 0.9904459801 
0.98982537161 1.0000386652 1.0074895324 1.0421996804 1.0333133726 1.0472812088 1.041208071 1.047352804 1.0548467273 
1.0637564637 1.0695046453 1.0668411891 1.0605037762 1.0457667638 1.0239686543 0.99388986141 0.96904797687 0.95761435857 
0.93546037918 0.93682804744 0.93728105519 0.94384285663 0.96351229079 0.97881744862 0.98805404675 0.99595865581 1.0056150252 
1.0096653798 1.0132471525 1.0094175057 1.0078106658 0.99915152613 0.98385765274 0.9573317147 0.9657235945 0.96394266912 
0.97504815045 0.98371966648 1.0228264352 1.0138991347 0.97321905748 0.97663903513 0.96635519207 0.97938613021 0.97357714738 
0.96777853118 0.96980804804 0.95906614064 0.95804948994 0.95804139529 0.96012652555 0.96221438798 0.9645051064 0.96262082696 
0.95604426481 0.93895418771 0.93281164412 0.93528142901 0.93599780626 0.94133533075 0.94730779054 0.94907264831 0.96446788752 
0.95580627252 0.97178868631 0.98585466023 0.98925987799 0.99210509753 0.99746781276 1.0064726772 1.0113476245 1.0045144454 
1.0002417792 0.99966847127 1.0065028733 1.01246889 1.01750738 1.0198138329 1.018967363 1.0159412979 1.0097542648 
0.99979451289 1.0030703442 1.0066022158 1.0141460359 1.0324162616 1.0351480093 1.0314776542 1.021242358 1.0107360029 
1.0116236059 1.0080855758 1.0182637228 1.0116738596 1.0000764824 0.98521435513 0.97261193469 0.96942825917 0.95919932569 
0.94892555738 0.92853756885 0.92893046907 0.93058098487 0.92043548494 0.91758148263 0.91896320595 0.92474922453 0.93336857265 
0.94719362464 0.96194585019 0.96206344565 0.97260101933 0.94528832968 0.93456469246 0.91829825724 0.92557879363 0.94256989108 
0.95544531332 0.96839406815 0.98491163241 0.99111556673 0.99557827513 1.0106004747 1.0254448425 1.0178002239 1.0175676614 
1.0271420257 1.0100945331 1.0438677211 1.0367020297 0.9642009702 0.97128099934 0.95021696667 0.94582785637 0.94697688843 
0.94626077041 0.94583731935 0.94447206571 0.939903396 0.93541686422 0.9433794141 0.94236589597 0.94465332065 0.96681659289 
0.98231517432 0.97948619639 0.9522779443 0.94896340778 0.95840046515 0.97176400171 0.98025275937 0.97750165302 0.98627636656 
0.99321237546 0.99729515954 0.99416613201 0.99056855447 0.99327073884 0.99216163424 0.99756621279 1.0061347618 1.0221665323 
1.0326165167 1.036514634 1.0372821091 1.0311431629 1.023651217 1.0228880058 1.0276349968 1.0245578385 1.0239272703 
1.0140216478 1.0069491472 1.0010820597 1.0105298874 0.9992911424 0.99966687836 0.96844221442 0.95644303151 0.95524079942 
0.94734435925 0.93903875559 0.92732532182 0.91837452318 0.91611763502 0.91473279153 1.0312991745 1.0124000333 0.99159538342 
0.98896319295 0.99548112109 1.0007421073 1.0062693668 1.0090029834 1.0200613428 1.0273920343 1.0325743075 1.0375545797 
1.0378796815 1.0293341796 1.0204145363 1.0168410956 1.0146538612 1.0234118116 1.0324271327 1.0386345928 1.0390459707 
1.0341975443 1.0214288322 0.99594845299 0.96887459385 0.94792550551 0.93704157014 0.94871877418 0.93953495578 0.94874757156 
0.94557174247 0.9507577904 0.96385522583 0.96423579351 1.0006703648 1.0023393148 1.0035724223 1.0029809427 1.0034552563 
0.99348067779 0.97939578495 0.98089132012 0.97654501565 0.95560255268 0.94468334919 0.97990126632 0.97320400137 0.96476079314 
0.96165665663 0.96215486332 0.94322324879 0.94138285392 0.9378806767 0.95340446367 0.94844312643 0.94520712455 0.94844158274 
0.95828911237 0.94217208773 0.9530798612 0.94466369402 0.97284380919 0.9766600651 0.97928051762 0.98883371522 0.99385827455 
1.0086092618 1.0400826037 1.0309626366 1.0216380047 1.0107838809 0.9991488387 0.99373301324 0.9984845067 1.0084759823 
1.0126009636 1.013630014 0.99723205552 0.98594730953 0.94750554881 0.9382757963 0.94581411094 0.94728899136 0.95197087919 
0.99388345833 0.98978014409 0.99718494068 1.0123422916 1.0225959361 1.0268884183 1.0285161503 1.0310643518 1.0318359902 
1.0300144383 1.0234774747 1.0093421618 0.99399734948 0.9947882274 0.99658244444 0.93767850112 0.93497191239 0.93575627876 
0.95968580913 0.96869805285 0.96043132911 0.97567438553 0.9705032441 0.98688996876 0.99279229976 0.99890225193 0.93460509642 
0.94124618024 0.93745781963 0.93677812798 0.98867983447 0.93510442943 0.97746463686 0.96279009963 0.98906203878 0.97151089945 
0.96767933773 1.0516231911 0.9782934611 0.97239992601 0.95060351508 0.96735880885 0.96273725549 
Label 4 1114 double
1 1 1 1 1 1 1 1 1 
1 1 1 1 1 1 1 1 1 
1 1 1 1 1 1 1 1 1 
1 1 1 1 1 1 1 1 1 
1 1 1 1 1 1 1 1 1 
1 1 1 1 1 1 1 1 1 
1 1 1 1 1 1 1 1 1 
1 1 1 1 1 1 1 1 1 
1 1 1 1 1 1 1 1 1 
1 1 1 1 1 1 1 1 1 
1 1 1 1 1 1 1 1 1 
1 1 1 1 1 1 1 1 1 
1 1 1 1 1 1 1 1 1 
1 1 1 1 1 1 1 1 1 
1 1 1 1 1 1 1 1 1 
1 1 1 1 1 1 1 1 1 
1 1 1 1 1 1 1 1 1 
1 1 1 1 1 1 1 1 1 
1 1 1 1 1 1 1 1 1 
1 1 1 1 1 1 1 1 1 
1 1 1 1 1 1 1 1 1 
1 1 1 1 1 1 1 1 1 
1 1 1 1 1 1 1 1 1 
1 1 1 1 1 1 1 1 1 
1 1 1 1 1 1 1 1 1 
1 1 1 1 1 1 1 1 1 
1 1 1 1 1 1 1 1 1 
1 1 1 1 1 1 1 1 1 
1 1 1 1 1 1 1 1 1 
1 1 1 1 1 1 1 1 1 
1 1 1 1 1 1 1 1 1 
1 1 1 1 1 1 1 1 1 
1 1 1 1 1 1 1 1 1 
1 1 1 1 1 1 1 1 1 
1 1 1 1 1 1 1 1 1 
1 1 1 1 1 1 1 1 1 
1 1 1 1 1 1 1 1 1 
1 1 1 1 1 1 1 1 1 
1 1 1 1 1 1 1 1 1 
1 1 1 1 1 1 1 1 1 
1 1 1 1 1 1 1 1 1 
1 1 1 1 1 1 1 1 1 
1 1 1 1 1 1 1 1 1 
1 1 1 1 1 1 1 1 1 
1 1 1 1 1 1 1 1 1 
1 1 1 1 1 1 1 1 1 
1 1 1 1 1 1 1 1 1 
1 1 1 1 1 1 1 1 1 
1 1 1 1 1 1 1 1 1 
1 1 1 1 1 1 1 1 1 
1 1 1 1 1 1 1 1 1 
1 1 1 1 1 1 1 1 1 
1 1 1 1 1 1 1 1 1 
1 1 1 1 1 1 1 1 1 
1 1 1 1 1 1 1 1 1 
1 1 1 1 1 1 1 1 1 
1 1 1 1 1 1 1 1 1 
1 1 1 1 1 1 1 1 1 
1 1 1 1 1 1 1 1 1 
1 1 1 1 1 1 1 1 1 
1 1 1 1 1 1 1 1 1 
1 1 1 1 1 1 1 1 1 
1 1 1 1 1 1 1 1 1 
1 1 1 1 1 1 1 1 1 
1 1 1 1 1 1 1 1 1 
1 1 1 1 1 1 1 1 1 
1 1 1 1 1 1 1 1 1 
1 1 1 1 1 1 1 1 1 
1 1 1 1 1 1 1 1 1 
1 1 1 1 1 1 1 1 1 
1 1 1 1 1 1 1 1 1 
1 1 1 1 1 1 1 1 1 
1 1 1 1 1 1 1 1 1 
1 1 1 1 1 1 1 1 1 
1 1 1 1 1 1 1 1 1 
1 1 1 1 1 1 1 1 1 
1 1 1 1 1 1 1 1 1 
1 1 1 1 1 1 1 1 1 
1 1 1 1 1 1 1 1 1 
1 1 1 1 1 1 1 1 1 
1 1 1 1 1 1 1 1 1 
1 1 1 1 1 1 1 1 1 
1 1 1 1 1 1 1 1 1 
1 1 1 1 1 1 1 1 1 
1 1 1 1 1 1 1 1 1 
1 1 1 1 1 1 1 1 1 
1 1 1 1 1 1 1 1 1 
1 1 1 1 1 1 1 1 1 
1 1 1 1 1 1 1 1 1 
1 1 1 1 1 1 1 1 1 
1 1 1 1 1 1 1 1 1 
1 1 1 1 1 1 1 1 1 
1 1 1 1 1 1 1 1 1 
1 1 1 1 1 1 1 1 1 
1 1 1 1 1 1 1 1 1 
1 1 1 1 1 1 1 1 1 
1 1 1 1 1 1 1 1 1 
1 1 1 1 1 1 1 1 1 
1 1 1 1 1 1 1 1 1 
1 1 1 1 1 1 1 1 1 
1 1 1 1 1 1 1 1 1 
1 1 1 1 1 1 1 1 1 
1 1 1 1 1 1 1 1 1 
1 1 1 1 1 1 1 1 1 
1 1 1 1 1 1 1 1 1 
1 1 1 1 1 1 1 1 1 
1 1 1 1 1 1 1 1 1 
1 1 1 1 1 1 1 1 1 
1 1 1 1 1 1 1 1 1 
1 1 1 1 1 1 1 1 1 
1 1 1 1 1 1 1 1 1 
1 1 1 1 1 1 1 1 1 
1 1 1 1 1 1 1 1 1 
1 1 1 1 1 1 1 1 1 
1 1 1 1 1 1 1 1 1 
1 1 1 1 1 1 1 1 1 
1 1 1 1 1 1 1 1 1 
1 1 1 1 1 1 1 1 1 
1 1 1 1 1 1 1 1 1 
1 1 1 1 1 1 1 1 1 
1 1 1 1 1 1 1 1 1 
1 1 1 1 1 1 1 1 1 
1 1 1 1 1 1 1 1 1 
1 1 1 1 1 1 1 1 1 
1 1 1 1 1 1 1 1 1 
1 1 1 1 1 1 1 1 1 
1 1 1 1 1 1 1 1 1 
1 1 1 1 1 1 1 1 1 
1 1 1 1 1 1 1 1 1 
1 1 1 1 1 1 1 1 1 
1 1 1 1 1 1 1 1 1 
1 1 1 1 1 1 1 1 1 
1 1 1 1 1 1 1 1 1 
1 1 1 1 1 1 1 1 1 
1 1 1 1 1 1 1 1 1 
1 1 1 1 1 1 1 1 1 
1 1 1 1 1 1 1 1 1 
1 1 1 1 1 1 1 1 1 
1 1 1 1 1 1 1 1 1 
1 1 1 1 1 1 1 1 1 
1 1 1 1 1 1 1 1 1 
1 1 1 1 1 1 1 1 1 
1 1 1 1 1 1 1 1 1 
1 1 1 1 1 1 1 1 1 
1 1 1 1 1 1 1 1 1 
1 1 1 1 1 1 1 1 1 
1 1 1 1 1 1 1 1 1 
1 1 1 1 1 1 1 1 1 
1 1 1 1 1 1 1 1 1 
1 1 1 1 1 1 1 1 1 
1 1 1 1 1 1 1 1 1 
1 1 1 1 1 1 1 1 1 
1 1 1 1 1 1 1 1 1 
1 1 1 1 1 1 1 1 1 
1 1 1 1 1 1 1 1 1 
1 1 1 1 1 1 1 1 1 
1 1 1 1 1 1 1 1 1 
1 1 1 1 1 1 1 1 1 
1 1 1 1 1 1 1 1 1 
1 1 1 1 1 1 1 1 1 
1 1 1 1 1 1 1 1 1 
1 1 1 1 1 1 1 1 1 
1 1 1 1 1 1 1 1 1 
1 1 1 1 1 1 1 1 1 
1 1 1 1 1 1 1 1 1 
1 1 1 1 1 1 1 1 1 
1 1 1 1 1 1 1 1 1 
1 1 1 1 1 1 1 1 1 
1 1 1 1 1 1 1 1 1 
1 1 1 1 1 1 1 1 1 
1 1 1 1 1 1 1 1 1 
1 1 1 1 1 1 1 1 1 
1 1 1 1 1 1 1 1 1 
1 1 1 1 1 1 1 1 1 
1 1 1 1 1 1 1 1 1 
1 1 1 1 1 1 1 1 1 
1 1 1 1 1 1 1 1 1 
1 1 1 1 1 1 1 1 1 
1 1 1 1 1 1 1 1 1 
1 1 1 1 1 1 1 1 1 
1 1 1 1 1 1 1 1 1 
1 1 1 1 1 1 1 1 1 
1 1 1 1 1 1 1 1 1 
1 1 1 1 1 1 1 1 1 
1 1 1 1 1 1 1 1 1 
1 1 1 1 1 1 1 1 1 
1 1 1 1 1 1 1 1 1 
1 1 1 1 1 1 1 1 1 
1 1 1 1 1 1 1 1 1 
1 1 1 1 1 1 1 1 1 
1 1 1 1 1 1 1 1 1 
1 1 1 1 1 1 1 1 1 
1 1 1 1 1 1 1 1 1 
1 1 1 1 1 1 1 1 1 
1 1 1 1 1 1 1 1 1 
1 1 1 1 1 1 1 1 1 
1 1 1 1 1 1 1 1 1 
1 1 1 1 1 1 1 1 1 
1 1 1 1 1 1 1 1 1 
1 1 1 1 1 1 1 1 1 
1 1 1 1 1 1 1 1 1 
1 1 1 1 1 1 1 1 1 
1 1 1 1 1 1 1 1 1 
1 1 1 1 1 1 1 1 1 
1 1 1 1 1 1 1 1 1 
1 1 1 1 1 1 1 1 1 
1 1 1 1 1 1 1 1 1 
1 1 1 1 1 1 1 1 1 
1 1 1 1 1 1 1 1 1 
1 1 1 1 1 1 1 1 1 
1 1 1 1 1 1 1 1 1 
1 1 1 1 1 1 1 1 1 
1 1 1 1 1 1 1 1 1 
1 1 1 1 1 1 1 1 1 
1 1 1 1 1 1 1 1 1 
1 1 1 1 1 1 1 1 1 
1 1 1 1 1 1 1 1 1 
1 1 1 1 1 1 1 1 1 
1 1 1 1 1 1 1 1 1 
1 1 1 1 1 1 1 1 1 
1 1 1 1 1 1 1 1 1 
1 1 1 1 1 1 1 1 1 
1 1 1 1 1 1 1 1 1 
1 1 1 1 1 1 1 1 1 
1 1 1 1 1 1 1 1 1 
1 1 1 1 1 1 1 1 1 
1 1 1 1 1 1 1 1 1 
1 1 1 1 1 1 1 1 1 
1 1 1 1 1 1 1 1 1 
1 1 1 1 1 1 1 1 1 
1 1 1 1 1 1 1 1 1 
1 1 1 1 1 1 1 1 1 
1 1 1 1 1 1 1 1 1 
1 1 1 1 1 1 1 1 1 
1 1 1 1 1 1 1 1 1 
1 1 1 1 1 1 1 1 1 
1 1 1 1 1 1 1 1 1 
1 1 1 1 1 1 1 1 1 
1 1 1 1 1 1 1 1 1 
1 1 1 1 1 1 1 1 1 
1 1 1 1 1 1 1 1 1 
1 1 1 1 1 1 1 1 1 
1 1 1 1 1 1 1 1 1 
1 1 1 1 1 1 1 1 1 
1 1 1 1 1 1 1 1 1 
1 1 1 1 1 1 1 1 1 
1 1 1 1 1 1 1 1 1 
1 1 1 1 1 1 1 1 1 
1 1 1 1 1 1 1 1 1 
1 1 1 1 1 1 1 1 1 
1 1 1 1 1 1 1 1 1 
1 1 1 1 1 1 1 1 1 
1 1 1 1 1 1 1 1 1 
1 1 1 1 1 1 1 1 1 
1 1 1 1 1 1 1 1 1 
1 1 1 1 1 1 1 1 1 
1 1 1 1 1 1 1 1 1 
1 1 1 1 1 1 1 1 1 
1 1 1 1 1 1 1 1 1 
1 1 1 1 1 1 1 1 1 
1 1 1 1 1 1 1 1 1 
1 1 1 1 1 1 1 1 1 
1 1 1 1 1 1 1 1 1 
1 1 1 1 1 1 1 1 1 
1 1 1 1 1 1 1 1 1 
1 1 1 1 1 1 1 1 1 
1 1 1 1 1 1 1 1 1 
1 1 1 1 1 1 1 1 1 
1 1 1 1 1 1 1 1 1 
1 1 1 1 1 1 1 1 1 
1 1 1 1 1 1 1 1 1 
1 1 1 1 1 1 1 1 1 
1 1 1 1 1 1 1 1 1 
1 1 1 1 1 1 1 1 1 
1 1 1 1 1 1 1 1 1 
1 1 1 1 1 1 1 1 1 
1 1 1 1 1 1 1 1 1 
1 1 1 1 1 1 1 1 1 
1 1 1 1 1 1 1 1 1 
1 1 1 1 1 1 1 1 1 
1 1 1 1 1 1 1 1 1 
1 1 1 1 1 1 1 1 1 
1 1 1 1 1 1 1 1 1 
1 1 1 1 1 1 1 1 1 
1 1 1 1 1 1 1 1 1 
1 1 1 1 1 1 1 1 1 
1 1 1 1 1 1 1 1 1 
1 1 1 1 1 1 1 1 1 
1 1 1 1 1 1 1 1 1 
1 1 1 1 1 1 1 1 1 
1 1 1 1 1 1 1 1 1 
1 1 1 1 1 1 1 1 1 
1 1 1 1 1 1 1 1 1 
1 1 1 1 1 1 1 1 1 
1 1 1 1 1 1 1 1 1 
1 1 1 1 1 1 1 1 1 
1 1 1 1 1 1 1 1 1 
1 1 1 1 1 1 1 1 1 
1 1 1 1 1 1 1 1 1 
1 1 1 1 1 1 1 1 1 
1 1 1 1 1 1 1 1 1 
1 1 1 1 1 1 1 1 1 
1 1 1 1 1 1 1 1 1 
1 1 1 1 1 1 1 1 1 
1 1 1 1 1 1 1 1 1 
1 1 1 1 1 1 1 1 1 
1 1 1 1 1 1 1 1 1 
1 1 1 1 1 1 1 1 1 
1 1 1 1 1 1 1 1 1 
1 1 1 1 1 1 1 1 1 
1 1 1 1 1 1 1 1 1 
1 1 1 1 1 1 1 1 1 
1 1 1 1 1 1 1 1 1 
1 1 1 1 1 1 1 1 1 
1 1 1 1 1 1 1 1 1 
1 1 1 1 1 1 1 1 1 
1 1 1 1 1 1 1 1 1 
1 1 1 1 1 1 1 1 1 
1 1 1 1 1 1 1 1 1 
1 1 1 1 1 1 1 1 1 
1 1 1 1 1 1 1 1 1 
1 1 1 1 1 1 1 1 1 
1 1 1 1 1 1 1 1 1 
1 1 1 1 1 1 1 1 1 
1 1 1 1 1 1 1 1 1 
1 1 1 1 1 1 1 1 1 
1 1 1 1 1 1 1 1 1 
1 1 1 1 1 1 1 1 1 
1 1 1 1 1 1 1 1 1 
1 1 1 1 1 1 1 1 1 
1 1 1 1 1 1 1 1 1 
1 1 1 1 1 1 1 1 1 
1 1 1 1 1 1 1 1 1 
1 1 1 1 1 1 1 1 1 
1 1 1 1 1 1 1 1 1 
1 1 1 1 1 1 1 1 1 
1 1 1 1 1 1 1 1 1 
1 1 1 1 1 1 1 1 1 
1 1 1 1 1 1 1 1 1 
1 1 1 1 1 1 1 1 1 
1 1 1 1 1 1 1 1 1 
1 1 1 1 1 1 1 1 1 
1 1 1 1 1 1 1 1 1 
1 1 1 1 1 1 1 1 1 
1 1 1 1 1 1 1 1 1 
1 1 1 1 1 1 1 1 1 
1 1 1 1 1 1 1 1 1 
1 1 1 1 1 1 1 1 1 
1 1 1 1 1 1 1 1 1 
1 1 1 1 1 1 1 1 1 
1 1 1 1 1 1 1 1 1 
1 1 1 1 1 1 1 1 1 
1 1 1 1 1 1 1 1 1 
1 1 1 1 1 1 1 1 1 
1 1 1 1 1 1 1 1 1 
1 1 1 1 1 1 1 1 1 
1 1 1 1 1 1 1 1 1 
1 1 1 1 1 1 1 1 1 
1 1 1 1 1 1 1 1 1 
1 1 1 1 1 1 1 1 1 
1 1 1 1 1 1 1 1 1 
1 1 1 1 1 1 1 1 1 
1 1 1 1 1 1 1 1 1 
1 1 1 1 1 1 1 1 1 
1 1 1 1 1 1 1 1 1 
1 1 1 1 1 1 1 1 1 
1 1 1 1 1 1 1 1 1 
1 1 1 1 1 1 1 1 1 
1 1 1 1 1 1 1 1 1 
1 1 1 1 1 1 1 1 1 
1 1 1 1 1 1 1 1 1 
1 1 1 1 1 1 1 1 1 
1 1 1 1 1 1 1 1 1 
1 1 1 1 1 1 1 1 1 
1 1 1 1 1 1 1 1 1 
1 1 1 1 1 1 1 1 1 
1 1 1 1 1 1 1 1 1 
1 1 1 1 1 1 1 1 1 
1 1 1 1 1 1 1 1 1 
1 1 1 1 1 1 1 1 1 
1 1 1 1 1 1 1 1 1 
1 1 1 1 1 1 1 1 1 
1 1 1 1 1 1 1 1 1 
1 1 1 1 1 1 1 1 1 
1 1 1 1 1 1 1 1 1 
1 1 1 1 1 1 1 1 1 
1 1 1 1 1 1 1 1 1 
1 1 1 1 1 1 1 1 1 
1 1 1 1 1 1 1 1 1 
1 1 1 1 1 1 1 1 1 
1 1 1 1 1 1 1 1 1 
1 1 1 1 1 1 1 1 1 
1 1 1 1 1 1 1 1 1 
1 1 1 1 1 1 1 1 1 
1 1 1 1 1 1 1 1 1 
1 1 1 1 1 1 1 1 1 
1 1 1 1 1 1 1 1 1 
1 1 1 1 1 1 1 1 1 
1 1 1 1 1 1 1 1 1 
1 1 1 1 1 1 1 1 1 
1 1 1 1 1 1 1 1 1 
1 1 1 1 1 1 1 1 1 
1 1 1 1 1 1 1 1 1 
1 1 1 1 1 1 1 1 1 
1 1 1 1 1 1 1 1 1 
1 1 1 1 1 1 1 1 1 
1 1 1 1 1 1 1 1 1 
1 1 1 1 1 1 1 1 1 
1 1 1 1 1 1 1 1 1 
1 1 1 1 1 1 1 1 1 
1 1 1 1 1 1 1 1 1 
1 1 1 1 1 1 1 1 1 
1 1 1 1 1 1 1 1 1 
1 1 1 1 1 1 1 1 1 
1 1 1 1 1 1 1 1 1 
1 1 1 1 1 1 1 1 1 
1 1 1 1 1 1 1 1 1 
1 1 1 1 1 1 1 1 1 
1 1 1 1 1 1 1 1 1 
1 1 1 1 1 1 1 1 1 
1 1 1 1 1 1 1 1 1 
1 1 1 1 1 1 1 1 1 
1 1 1 1 1 1 1 1 1 
1 1 1 1 1 1 1 1 1 
1 1 1 1 1 1 1 1 1 
1 1 1 1 1 1 1 1 1 
1 1 1 1 1 1 1 1 1 
1 1 1 1 1 1 1 1 1 
1 1 1 1 1 1 1 1 1 
1 1 1 1 1 1 1 1 1 
1 1 1 1 1 1 1 1 1 
1 1 1 1 1 1 1 1 1 
1 1 1 1 1 1 1 1 1 
1 1 1 1 1 1 1 1 1 
1 1 1 1 1 1 1 1 1 
1 1 1 1 1 1 1 1 1 
1 1 1 1 1 1 1 1 1 
1 1 1 1 1 1 1 1 1 
1 1 1 1 1 1 1 1 1 
1 1 1 1 1 1 1 1 1 
1 1 1 1 1 1 1 1 1 
1 1 1 1 1 1 1 1 1 
1 1 1 1 1 1 1 1 1 
1 1 1 1 1 1 1 1 1 
1 1 1 1 1 1 1 1 1 
1 1 1 1 1 1 1 1 1 
1 1 1 1 1 1 1 1 1 
1 1 1 1 1 1 1 1 1 
1 1 1 1 1 1 1 1 1 
1 1 1 1 1 1 1 1 1 
1 1 1 1 1 1 1 1 1 
1 1 1 1 1 1 1 1 1 
1 1 1 1 1 1 1 1 1 
1 1 1 1 1 1 1 1 1 
1 1 1 1 1 1 1 1 1 
1 1 1 1 1 1 1 1 1 
1 1 1 1 1 1 1 1 1 
1 1 1 1 1 1 1 1 1 
1 1 1 1 1 1 1 1 1 
1 1 1 1 1 1 1 1 1 
1 1 1 1 1 1 1 1 1 
1 1 1 1 1 1 1 1 1 
1 1 1 1 1 1 1 1 1 
1 1 1 1 1 1 1 1 1 
1 1 1 1 1 1 1 1 1 
1 1 1 1 1 1 1 1 1 
1 1 1 1 1 1 1 1 1 
1 1 1 1 1 1 1 1 1 
1 1 1 1 1 1 1 1 1 
1 1 1 1 1 1 1 1 1 
1 1 1 1 1 1 1 1 1 
1 1 1 1 1 1 1 1 1 
1 1 1 1 1 1 1 1 1 
1 1 1 1 1 1 1 1 1 
1 1 1 1 1 1 1 1 1 
1 1 1 1 1 1 1 1 1 
1 1 1 1 1 1 1 1 1 
1 1 1 1 1 1 1 1 1 
1 1 1 1 1 1 1 1 1 
1 1 1 1 1 1 1 1 1 
1 1 1 1 1 1 1 1 1 
1 1 1 1 1 1 1 1 1 
1 1 1 1 1 1 1 1 1 
1 1 1 1 1 1 1 1 1 
1 1 1 1 1 1 1 1 1 
1 1 1 1 1 1 1 1 1 
1 1 1 1 1 1 1 1 1 
1 1 1 1 1 1 1 1 1 
1 1 1 1 1 1 1 1 1 
1 1 1 1 1 1 1 1 1 
1 1 1 1 1 1 1 1 1 
1 1 1 1 1 1 1 1 1 
1 1 1 1 1 1 1 1 1 
1 1 1 1 1 1 1 1 1 
1 1 1 1 1 1 1 1 1 
1 
Long_Strain_Pt 1 1114 double
0.83504615074 0.84616101385 0.83391101153 0.82272341953 0.82695682433 0.84572211848 0.81783622427 0.85054906983 0.81969121952 
0.8403806615 0.81803551417 0.81207265845 0.80678969457 0.80583296114 0.81443844942 0.80537649969 0.83799283319 0.82488970326 
0.85518266203 0.84480864593 0.85080620895 0.85570362353 0.84760701824 0.86927909626 0.87389607682 0.8784309558 0.85356634746 
0.86008692045 0.85308265972 0.86673437784 0.86349149989 0.86991425945 0.88031630818 0.87456467688 0.90833345751 0.88285260589 
0.91968386555 0.88152637758 0.92055113657 0.87701604417 0.92600000694 0.86735891966 0.91292697391 0.85349824944 0.89546958064 
0.84385349247 0.87934482079 0.84096635879 0.86728551957 0.8440893103 0.86054153644 0.84696261732 0.85428653487 0.84223540513 
0.86255634375 0.83779110063 0.85835455193 0.84617946498 0.84879784261 0.8539074076 0.86613034485 0.87160370751 0.88371603568 
0.88307576679 0.86630391196 0.89362358684 0.86162115152 0.89490545911 0.88452178627 0.90658629041 0.91747062015 0.90362024252 
0.90191462611 0.89057687975 0.90206609592 0.87384438313 0.88367953745 0.84554768986 0.85792805998 0.80792963986 0.84085105948 
0.79687509324 0.83329865729 0.80530093969 1.038094805 0.98952651231 1.107367301 1.099739359 0.95630198408 1.1147804612 
0.96768591731 1.1230989722 0.99500930284 1.1272861583 1.0363601628 1.1332052998 1.0607604316 1.1425356414 1.0885806836 
1.1480136316 1.1233509338 1.1473687997 1.1497476256 1.1385620676 1.1608686932 1.1206883904 1.1503742301 1.0915055964 
1.1260975034 1.0656428549 1.1175588234 1.040281552 1.1214772519 1.0210376862 1.0795501583 0.99915069122 1.0490559445 
0.99378495561 1.0257675361 1.0135621259 1.0060790541 1.0564687085 1.0702751541 1.0923205876 1.157580072 1.1150206718 
1.1451043958 1.1289225223 1.1302412267 1.1367208297 1.1139647511 1.1367080371 1.0969733839 1.1252727099 1.0994776916 
1.1036645821 1.1128071841 1.0989188046 1.1035306391 1.1006001829 1.098598523 1.1034812945 1.0999522896 1.1317661863 
1.1302186256 1.1524744632 1.1682588057 1.1697229368 1.2005539287 1.1792781544 1.2053534241 1.1961355024 1.1820785822 
1.2385422924 1.2119351845 1.239081428 1.2468872808 1.2373126705 1.2620763197 1.2395061514 1.2519995684 1.2469401237 
1.2218024246 1.256098785 1.2359334224 1.2617843043 1.2401435255 1.2585974776 1.2287278515 1.2468105208 1.218704486 
1.2326478833 1.2077478867 1.2157332657 1.1696473815 1.1863670723 1.1384257274 1.1686361063 1.1222249926 1.1511403858 
1.1394636214 1.1372042044 1.1842923214 1.1293686053 1.1869034923 1.1258805428 1.1765605054 1.1129944371 1.1141305131 
1.1039760544 1.066126229 1.0996240486 1.0587054657 1.105802767 1.0587059529 1.1098646117 1.0662559002 1.1118460954 
1.0556297286 1.10684729 0.88028163301 0.85439891958 0.88173291484 0.87716206914 0.84660311426 0.82055723928 0.81340236652 
0.82421719799 0.84226480381 0.86167711523 0.87885730613 0.88549133383 0.88873890914 0.8874898029 0.88670350086 0.88992042009 
0.88616896752 0.87506584162 0.87993791246 0.87045688605 0.87038326533 0.87334318017 0.87372967573 0.85917069081 0.83471765507 
0.83038341662 0.83004959839 0.84028719529 0.85076650868 0.86361549621 0.88585140505 0.90743077435 0.91005377322 0.90741487702 
0.90920773171 0.90235653908 0.89083006467 0.87346063252 0.82974521647 0.81909234378 0.83311143706 0.84228394719 1.1428850622 
1.1445989767 1.1397490246 1.1412575761 1.1436492681 1.1465659393 1.1451158153 1.1466829306 1.1437061005 1.1176769925 
1.0850398839 1.0492561509 1.0128370008 0.98890086719 0.97235999413 0.97060766521 0.98465767682 1.0284251637 1.0748834024 
1.1125634488 1.131997784 1.1394429043 1.1386977464 1.1337137336 1.1156536729 1.1186491553 1.1155063917 1.1186234766 
1.127520381 1.1373850201 1.139473459 1.1386567374 1.1248807044 1.1505661333 1.1632415189 1.165548582 1.1645142903 
1.1781043535 1.2043296141 1.2199701923 1.21631743 1.211775703 1.2099831627 1.2078584108 1.1988438981 1.185458068 
1.1768365435 1.1665833751 1.1623271259 1.1672264363 1.1651390825 1.1566016287 1.1470883033 1.1370421274 1.1401049823 
1.1465667306 1.1521629305 1.1518207913 1.1247728451 1.1367027152 0.87560483519 0.90737594575 0.84873011884 0.83327642393 
0.82736762123 0.85006522932 0.87325594096 0.89451715194 0.90756341072 0.92080911304 0.91764380824 0.91109622186 0.91226812354 
0.92127205655 0.91940736778 0.91181703985 0.9000898083 0.89340742371 0.88743216277 0.87894935742 0.87852607208 0.85368826691 
0.86008738378 0.85653845471 0.86855649344 0.879013889 0.89302718036 0.91149647486 0.91603347515 0.91898371626 0.92256452045 
0.92528632014 0.92560763532 0.93507294219 0.96558760897 0.97026652342 0.9933659213 1.0012227984 0.98525164511 0.95865443549 
0.94054908104 0.87841891293 0.89037990075 1.1205454393 1.113446072 1.1145489622 1.1172749693 1.1123208681 1.1112713008 
1.1137918788 1.1069281352 1.0925813551 1.0840130063 1.0806981698 1.09335369 1.1033994561 1.1170021492 1.1336984278 
1.1326327616 1.1422346607 1.1585007209 1.1833939838 1.1941571034 1.1899653469 1.1852313621 1.1836053846 1.1927036335 
1.2042358426 1.2021418622 1.1984436521 1.1895361637 1.1823427507 1.1776818854 1.172778048 1.1718359231 1.1696209395 
1.1645942143 1.1551310696 1.1533715162 1.1484260732 1.1336104113 1.1219222361 1.1154806212 1.1119977813 1.1124763398 
1.09490075 1.0779117124 1.0616807875 1.03867689 1.016721056 0.99843813484 0.98627994319 0.98970446271 0.99663512023 
1.0390561128 1.0822971385 1.1182288143 1.1412951897 1.153257756 1.1575592395 1.1588848982 1.1232995986 1.0929042241 
1.093980533 1.0601548458 1.0781013318 1.0821099294 0.9128568265 0.92925059115 0.91257112698 0.9125503944 0.91038979589 
0.91076175036 0.9166584219 0.9257915679 0.92931414954 0.92797622689 0.93353900596 0.94187826385 0.93598334141 0.94810533741 
0.96785671314 0.98374120589 1.0670921921 1.0487317712 1.073745149 1.0715739864 1.0457156959 1.0141190172 0.89513094563 
0.92247796825 0.87843087976 0.87227849038 0.87067328019 0.88210161703 0.89483659951 0.90616562119 0.93953416853 0.95269438665 
0.97269356073 0.95286463191 0.94058349018 0.93859652699 0.94249564006 0.93073961225 0.91205833711 0.89313200246 0.8766022451 
0.8648234751 0.87029708939 0.88331780551 0.89056818063 0.92078960789 0.91007962801 0.94462013023 0.93509446196 0.97246898195 
0.99291184955 1.0084194448 1.021505509 0.99787356762 1.092824221 1.0895540024 1.0887112917 1.0876641027 1.0860867682 
1.0864726219 1.0840587291 1.0809505567 1.0763102676 1.074953195 1.0659946408 1.0707484106 1.0737505204 1.0774192255 
1.0738721405 1.0677462554 1.0720768988 1.0851223086 1.119295268 1.1466196548 1.1691062515 1.1814118713 1.1950797865 
1.2012768894 1.2122287458 1.2262262796 1.2235628335 1.2137625381 1.1916879765 1.1728832906 1.1587586673 1.148902117 
1.141781117 1.1128616922 1.1308686578 1.1238014119 1.1220407792 1.1205691311 1.1123358871 1.1020195625 1.1017025137 
1.0913674156 1.0676952369 1.052354589 1.0410561067 1.0312267903 1.0199409333 1.0015735301 0.98806528921 0.97988533429 
0.97884972863 1.0554748709 1.026046078 1.0776036169 1.0917092982 1.1155972833 1.1341168941 1.1441447342 1.1227060289 
1.0946618718 1.0560832555 1.0200531621 1.0127826672 0.98645515732 1.0308323037 1.0416118009 1.05108912 1.0629317399 
1.0760125755 1.0836669184 1.0004424523 1.0363706242 0.97173480706 0.95649707206 0.95311812837 0.9255729611 0.97533263065 
0.98449393657 0.99340318446 1.0014415153 1.0289283128 1.0561080245 1.0741569974 0.98791631301 0.98003481265 0.94061832666 
0.9393522576 0.93919752418 0.94070890161 0.95223351182 0.96135295806 0.95852724175 0.95520739813 0.95389031971 0.93986957395 
0.93969114007 0.94730373549 0.96480356483 0.97984698122 0.98596522657 1.0025073602 0.97602455432 1.0142728724 1.028013827 
1.0403087245 1.0513455648 1.0519404348 1.0565417877 1.0521816483 0.98619176647 1.0567518764 0.98404645729 1.0436855012 
1.0328726108 1.0214724633 1.004149089 0.98090441028 0.9573444063 0.94157104801 0.92867507346 0.90984250359 0.89746601546 
0.90263018195 0.9242956131 0.95194848067 1.0058735422 1.0267394897 0.95776131507 0.97213728033 0.94045872354 0.92798763977 
0.91483200285 0.9012548959 0.88476224234 0.87837329675 0.87351797471 0.87851895325 0.88985950665 0.88781517166 0.88397364318 
0.91221369916 0.89518851572 0.92804791981 0.93540401156 0.98586761272 1.032854685 1.0687883763 1.0818068254 1.0627805615 
1.0434186648 1.0669186338 1.0667934525 1.0612819267 1.0572845155 1.0532656865 1.0406595918 1.0315762305 1.0209046327 
1.0193426089 1.027850528 1.0519416342 1.0777842764 1.1277454713 1.1492625205 1.1680075317 1.1838038008 1.1951827097 
1.1964083062 1.19735601 1.1953412957 1.1911715228 1.176495691 1.1517092336 1.1259783253 1.1037765282 1.0858979216 
1.1168483718 1.1109249508 1.1230459677 1.1257866386 1.1328075389 1.1326957975 1.1182110542 1.0967628287 1.0690268273 
1.0408255566 1.0222740069 1.0198893931 1.0142371295 1.0094345815 1.0005274821 0.99408739592 0.98854009822 0.98609570754 
0.97492317365 0.9730752154 0.98165581777 0.99350730638 1.0051907 1.0095124418 1.0212976915 1.0484685093 1.0893792652 
1.0911626322 1.0515570954 1.051718531 1.0214202141 1.0213368679 0.99408156915 1.0423497238 1.0565550937 1.0602317142 
1.0552825091 1.0448850842 1.0251431711 1.0029674779 0.98282244979 0.96595654104 0.96108887044 0.96927343146 0.99877666514 
1.0423739076 1.1093367178 1.1303711945 1.1369903871 1.1401894457 1.1404585295 1.1391538188 1.1446148749 1.1457871312 
1.1422454466 1.132179712 1.1169109487 1.0940296264 1.0758294097 1.0392903767 1.0037445086 1.0047203277 0.96182700059 
1.0447623241 1.0711448856 1.0867036169 1.0948282898 1.0992943876 1.0923769596 1.0864727314 1.0817077808 1.0749484323 
1.0651452553 1.0218627891 1.014067283 1.0010642995 0.99336762845 0.98794172089 0.98453485414 0.98324834715 0.9682520882 
0.95624610898 0.9584415628 0.95605546978 0.96451498886 0.97292219782 0.9654622672 0.96229587917 0.96448481776 0.97001917449 
0.94248271071 0.94762287524 0.95376071692 0.96885157613 0.97311781087 0.97343971766 0.96318089864 0.95006442303 0.93618064306 
0.92200344321 0.91101449544 0.90974035618 0.92851169136 0.94872848775 0.96606296707 0.94137916578 0.94575745109 0.91156911684 
0.99301693696 1.0028419542 1.0121646606 1.0253597394 1.0349285594 1.0448936536 1.0552680452 1.0591791122 1.0381406857 
1.029529655 1.0311540221 1.0290502369 1.0349414596 1.0259602433 1.0192006684 1.0032777961 0.99492682238 0.98674222418 
0.98778876987 1.0050054841 1.0467419801 1.0608505622 1.0650424396 1.0722180305 1.0399785108 1.0075139882 0.99064284082 
1.0157585207 1.0004059129 0.98844267586 0.96244814204 0.93319549546 0.92349540827 0.92198235849 0.92038481166 0.90855465722 
0.90200227331 0.89401377347 0.88616686359 0.87349942001 0.88150309246 0.88896859349 0.90338938971 0.89748050355 0.90705980525 
0.91454556037 0.92269369461 1.04000342 1.0179046359 0.98845046088 0.96358401204 0.95237899443 0.94424233307 0.95975660513 
0.97756250186 1.0122835081 1.0377823928 1.0838354999 1.071991874 1.088566445 1.0718397609 1.0769059096 1.0813427114 
1.0775174343 1.0730132235 1.0636755886 1.0540095498 1.0426598574 1.0274435319 1.0095212357 0.98913912552 0.96514715517 
0.93485319698 0.93674913552 0.91933961837 0.96113739347 0.99605549637 1.0200877515 1.0281912063 1.0289628677 1.0360568115 
1.0298249587 1.0245212422 1.0143349256 1.0079672302 0.99633912088 0.97537898524 0.95840288506 0.96805979384 0.96108480495 
0.96494087625 0.96535383573 1.0580140344 1.0493719298 0.95579606929 0.94206802034 0.9355721555 0.94320160981 0.9350921208 
0.94623115868 0.92465039463 0.92872705581 0.94130777722 0.95362536985 0.95674778047 0.95769511137 0.95716822718 0.94480781698 
0.92133466227 0.88875435067 0.88170622891 0.89428542481 0.90210564953 0.91495477379 0.91479866602 0.92539790624 0.94580710866 
0.93098500585 0.95865184015 0.9836118199 0.98931692221 0.99198473308 0.99742460691 1.0055694276 1.0031684808 0.98003158225 
0.98562407686 0.99734826652 1.0214629875 1.0387289827 1.049046237 1.0535599935 1.0509914253 1.0482532172 1.0474284986 
1.0583473549 1.0707111746 1.0741774928 1.0800056228 1.100596391 1.0882072162 1.0588837694 1.0098589157 0.96932339961 
0.95503636079 0.93485404637 0.97677640981 0.98572867881 0.97995361518 0.96645571233 0.95442894178 0.94860742291 0.93493205672 
0.93074321677 0.91748308277 0.91259977761 0.91029283985 0.89024718812 0.87567111323 0.88242963029 0.8869771407 0.8924853281 
0.90365594429 0.90694915516 0.91697407978 0.90803807092 0.94415223542 0.93664626458 0.9144876249 0.91857567847 0.92582776893 
0.93011051682 0.94720261359 0.96151778122 0.97116805118 0.98160932875 1.0094164655 1.0338474536 0.99539741581 0.96427575704 
0.9696856635 0.94008970465 1.0047149902 1.0212705113 0.91333640653 0.91291988708 0.91743602984 0.92966943156 0.93143729974 
0.92739613336 0.91808636461 0.90762873685 0.89390671402 0.88435847744 0.89421278972 0.89839984127 0.90562784431 0.97243118699 
0.99558848991 0.98141717462 0.93626722193 0.92667148459 0.93565194989 0.95416342837 0.96691057503 0.95565143413 0.96530656267 
0.96720393559 0.96414150565 0.95142272766 0.95752399331 0.94928158171 0.97529784592 0.996891675 1.0205540909 1.0473705588 
1.0634933645 1.0800306427 1.0932965261 1.1004830648 1.0947063786 1.0946191358 1.0936201527 1.0785356246 1.0616405071 
1.028821479 0.9974159291 0.95024454155 0.9406205608 0.95194875376 0.94916606874 0.96265514563 0.9304195298 0.92873347923 
0.91865703348 0.91017136787 0.89949390018 0.89553170664 0.90464800524 0.89574589749 1.0158935833 0.99985788797 0.98174582275 
0.9627819226 0.96081191944 0.97186942937 0.99029648217 1.0173761837 1.0585785156 1.0713011207 1.0714856362 1.0755505607 
1.0728028635 1.0534664938 1.0328142432 1.0202046984 1.0061798799 1.0067659432 1.0111051767 1.0134693858 1.0118630453 
1.008607485 0.99780603501 0.97997069434 0.95774092861 0.93804386183 0.91663285236 0.92425625516 0.92278283603 0.9272396999 
0.94186618768 0.96108575542 0.98604440841 0.980091557 0.97294537654 0.95371249376 0.94211762561 0.95045062234 0.96308003278 
0.95426047342 0.95835443368 0.95272389234 0.94976303569 0.92862022537 0.92343684317 0.96784761283 0.95377065274 0.93357923466 
0.92713262877 0.93039499559 0.89819050826 0.90780313424 0.88960448302 0.93388104268 0.93004407564 0.92883958945 0.93138241961 
0.94290070639 0.91331455662 0.91721320212 0.91387688774 0.93317134466 0.92748147576 0.95531013724 0.97115754113 0.97308109109 
0.9692846971 1.0790495158 1.0542359581 1.0375150025 1.0167898614 0.99128411351 0.97151689359 0.96512463745 0.97088634712 
0.97018181747 0.97061061867 0.95607250789 0.94780210075 0.91846011724 0.91735360593 0.92981092841 0.92519965929 0.94937454125 
0.97168176201 0.96881052168 0.98191237278 1.0043312485 1.0279741995 1.0514325766 1.0667216039 1.0821325157 1.0799598422 
1.0719417829 1.051232279 1.0226028012 0.98499609236 0.96315833672 0.94031352355 0.90359434964 0.90238987715 0.90670385484 
0.93758631955 0.94818261912 0.93554372614 0.93295419018 0.93200641332 0.9414309135 0.94569156994 0.95008795828 0.88887240908 
0.91816283988 0.91325347619 0.90470121708 0.95407404324 0.8966050127 0.93321803147 0.92369463481 0.94180316615 0.94721898476 
0.94120888142 1.0849439134 0.91264413767 0.91615068977 0.92525017407 0.93628028398 0.92722978328 
Longtudinal 3 1114 double
-0.066046267433 0.96695037835 -0.24626176391 -0.11871537076 0.96022165628 -0.25167567256 -0.27814730223 0.88466226861 -0.36446399429 
-0.266627364 0.85607958326 -0.41902333531 -0.12461087951 0.96763578608 -0.21794908325 -0.35278540735 0.86934116654 -0.33711360089 
-0.10967713631 0.9765208589 -0.18423290947 -0.41200399454 0.85745835782 -0.30180531356 -0.086995738335 0.98414405951 -0.15227251309 
-0.4334835743 0.87002643311 -0.22848083256 -0.070228657462 0.99054979686 -0.1171907981 -0.45015667792 0.8774197811 -0.15813249262 
-0.081420044822 0.9922870703 -0.093398990021 -0.36906256335 0.91880285724 -0.085749712349 -0.18132879422 0.97892062937 -0.072185466673 
-0.33302042946 0.94133426486 -0.036422484323 -0.21618039236 0.97526529205 -0.039754351182 -0.32645052002 0.94392698505 0.0061839474835 
-0.1983668093 0.97959016 -0.0014494105638 -0.31664450196 0.94562338488 0.06276125305 -0.15754250282 0.9865584136 0.035973549017 
-0.32262940811 0.9362005587 0.1305046201 -0.11579858136 0.99130098525 0.055744543604 -0.27385873576 0.94060434076 0.19822418051 
-0.073497110982 0.99315907321 0.056888368129 -0.18660847906 0.95923718439 0.20914850431 -0.05988787487 0.98401539993 0.15031420403 
-0.12881356792 0.96089693028 0.24255476303 0.017500060729 0.99848126803 0.048605132708 -0.063268168611 0.95453780057 0.28802032912 
0.059327139682 0.99733062967 0.035902137075 0.029743629499 0.94450660912 0.32316301147 0.071939169434 0.99663626533 -0.0058914541052 
0.12844013027 0.92558733638 0.34954378841 0.06104397907 0.99454819433 -0.077396150339 0.20639177842 0.92251997988 0.31022339561 
0.059567162013 0.99144831852 -0.11580371909 0.27906713627 0.90543607461 0.30468030461 0.00046134048652 0.97921118392 -0.17008406139 
0.32514623292 0.90007260261 0.2651416799 -0.12656023133 0.95660800052 -0.26194806835 0.29136255025 0.92351109775 0.15503658493 
-0.1428031152 0.9662377546 -0.21312211071 0.30714070579 0.92813576849 0.10176537474 -0.13641536573 0.97542553846 -0.17091487981 
0.36089950335 0.90609146721 0.082963787475 -0.14310477263 0.97960161708 -0.13959502972 0.42593685406 0.88172124008 0.058694921397 
-0.12908055658 0.98288728144 -0.11549283104 0.42810462074 0.88959782721 0.0064239871683 -0.010797272977 0.99590379408 -0.08921885082 
0.30253696086 0.94927763994 -0.07588423704 0.033370350047 0.99183922945 -0.12008167587 0.21059284887 0.96779133099 -0.13139188724 
-0.040872150949 0.98970278583 -0.11937664753 0.16855794503 0.96886841622 -0.17878516949 -0.063612862716 0.98796232834 -0.13428479078 
0.1415827087 0.96690882689 -0.20994349254 -0.034596691151 0.98723817061 -0.15236640348 0.086724256609 0.97259123961 -0.21466512916 
-0.081574982231 0.98962215675 -0.11824966867 0.047872538499 0.97370826961 -0.22023165851 -0.091755630294 0.98996004343 -0.10726189702 
0.034745368144 0.97477359911 -0.21936299887 -0.05850248094 0.98752370466 -0.14019147691 0.027025878092 0.97309307724 -0.22296580628 
-0.037274659205 0.98902707586 -0.13903062882 0.0085975897193 0.97485729266 -0.21373685157 -0.039437666431 0.99379660796 -0.10271129492 
0.024542320737 0.96816198703 -0.24570930545 -0.024482332238 0.99033555775 -0.13630901402 0.026850672053 0.96228499562 -0.2673221123 
-0.019848748491 0.99310254661 -0.11510092968 0.0055875068123 0.96215071172 -0.26830086484 -0.015143992782 0.99632564751 -0.082160911303 
-0.0027120893509 0.95796127403 -0.26728594817 0.0076534855297 0.99465805505 -0.098437273603 -0.014147266697 0.96284716592 -0.24488686147 
0.019991283044 0.99123955436 -0.1299638537 -0.01261462387 0.96942222648 -0.20406804253 0.0036614075436 0.98864426253 -0.14880334365 
-0.032797297361 0.95833143695 -0.19886901555 -0.030277252983 0.9833759285 -0.17533633346 -0.13499573625 0.90429379472 -0.32024733843 
0.035522820991 0.99235085721 -0.11822819202 0.014874089626 0.98376260174 -0.1717222801 0.031967817364 0.98827246785 -0.12617262911 
0.057493573179 0.99610232908 -0.059104696154 0.0052769923276 0.98007619431 -0.19284022486 0.011414826893 0.98222367286 -0.17993024075 
0.027809975896 0.99064078115 -0.11983198915 0.026695399895 0.98848134078 -0.1447340015 0.039783510678 0.99431593223 -0.097344728286 
0.034801903693 0.98490008359 -0.16088026243 0.042464229456 0.99192805291 -0.11931832263 0.036670967875 0.97074356573 -0.23658290753 
0.044843131204 0.98626348646 -0.15625969109 0.047231477796 0.96892651317 -0.24260026254 0.043410100049 0.98339733628 -0.17601961198 
0.059015390499 0.96779391675 -0.2441866874 0.035883638175 0.98530576553 -0.16690855652 0.078462877418 0.96577271324 -0.24682011621 
0.046563901816 0.98121154209 -0.18615458373 0.043762676505 0.97476306707 -0.21364848922 0.014616876966 0.98148098099 -0.1734015109 
-0.036181517416 0.97790762496 -0.14004864308 -0.087536113568 0.9899215457 -0.10445331537 -0.14173225135 0.98420006665 -0.040067510108 
-0.20613923889 0.973307511 -0.02598751712 -0.24844087252 0.9611862965 -0.0046764811636 -0.25917641389 0.96276680238 -0.037104796612 
-0.32608491915 0.94306974609 -0.00092955055198 -0.2469506545 0.96040853096 -0.12835296617 -0.28362228561 0.95027396218 -0.051387887645 
-0.21075572478 0.96636653971 -0.14520807987 -0.27596090384 0.94893701419 -0.099115100135 -0.18816501998 0.9680443517 -0.16471400069 
-0.28589928459 0.94120371443 -0.13806614957 -0.19886817818 0.96014258795 -0.18382736942 -0.34814625947 0.92459670394 -0.15264513048 
-0.34012057922 0.91574085658 -0.19323633286 -0.36445688575 0.9103928139 -0.192954581 -0.3277182948 0.91420156201 -0.22615926943 
-0.32645725628 0.9148863305 -0.22592076419 -0.23694766444 0.93439716841 -0.26091264955 -0.22858077826 0.94093671819 -0.24809115259 
-0.12685272441 0.95927574078 -0.24163566089 -0.17466469212 0.94872801128 -0.25992056878 -0.074372577851 0.9679022119 -0.23948923552 
-0.10445791313 0.95957636305 -0.25426399065 -0.057243614017 0.96712595734 -0.24765972953 -0.019042683855 0.9728359503 -0.22845372158 
-0.064940740876 0.96280864217 -0.26203170882 -0.01350559545 0.97075911389 -0.2378795612 -0.055395634928 0.96566273614 -0.25262825908 
0.032955613683 0.98075876395 -0.19005672928 -0.036287289802 0.97212730659 -0.23138608417 0.039369008624 0.98426325994 -0.17148936271 
-0.037455448283 0.9604328915 -0.27382039933 0.0074242285963 0.97465492473 -0.21713797426 -0.050557909821 0.93944743722 -0.33234619803 
-0.028053299931 0.95566957228 -0.28142453358 -0.08092791839 0.90501893097 -0.41415449992 -0.067538518982 0.90126042598 -0.4167203526 
-0.070555321099 0.90146087655 -0.42659385922 -0.072573686124 0.88050284196 -0.46351400448 -0.050248603116 0.89893865722 -0.43235861714 
-0.056802228274 0.88018064774 -0.45991422501 -0.044367657631 0.845222634 -0.5261975252 -0.026512466216 0.85783907815 -0.49761328196 
-0.0079016273446 0.83126604822 -0.55214880406 0.0017556715985 0.87568467688 -0.48055223602 0.059793222343 0.85790573017 -0.50878359987 
0.022393159473 0.88732726343 -0.46042223211 0.056777675883 0.88857910303 -0.45144655856 0.037615044649 0.90232706774 -0.42549175595 
0.042920748523 0.91780356449 -0.39391920978 0.04663307688 0.92321282695 -0.3807433091 0.035120467835 0.93637364592 -0.34732157891 
0.054281464242 0.93463725989 -0.34983862551 0.019494540114 0.95464742025 -0.29288930602 0.039359710878 0.94992599427 -0.30236472865 
-0.0024575537244 0.97264772347 -0.23223671726 0.0027911446841 0.96881839213 -0.23898835675 -0.039139927041 0.97983915723 -0.19100381224 
-0.008043036553 0.97612657772 -0.20843534998 -0.062733270927 0.98491772608 -0.16099743254 -0.011385714657 0.98186603166 -0.18589212045 
-0.065710908025 0.98666845433 -0.14867324658 0.0096296448226 0.98316181917 -0.1797837586 -0.049607559384 0.98664936937 -0.15359503613 
0.036808559981 0.98101012019 -0.18477993647 -0.022712750332 0.98568379917 -0.1649802207 0.072543722038 0.97704734695 -0.19176754522 
0.066155673956 0.97997210561 -0.17182743198 0.12019746676 0.97541622864 -0.18362395345 0.1325666929 0.97666325799 -0.1674319012 
0.16732753666 0.96858816165 -0.16389697955 0.14993887274 0.97860135557 -0.13848629397 0.19948548989 0.96652175973 -0.14425261106 
0.18414322624 0.97644764895 -0.095725617975 0.21715731404 0.96677228913 -0.11168403658 0.23223542977 0.97091788619 -0.041566437723 
0.21719435852 0.96941481855 -0.083594162582 0.24321893326 0.96920745381 -0.037666228183 0.19741896978 0.97750793926 -0.05438403526 
0.24386191163 0.96870934777 -0.044528154503 0.20197642686 0.97847157017 -0.017599303528 0.22341186407 0.97387685432 -0.0034138460375 
0.24648562259 0.96671189604 0.029237283728 0.2011961025 0.97898975204 0.028105438201 0.25922855478 0.96283817614 0.058981988666 
0.1740128974 0.98394901998 0.032631256374 0.20086586067 0.97717080638 0.049143119 0.16016339671 0.9856931225 0.048064882877 
0.17161447436 0.98321280888 0.05869827021 0.15987795395 0.98416651432 0.074594761383 0.15957486863 0.98375123344 0.081007002358 
0.10758451947 0.9873613703 -0.0021830606584 0.10932661375 0.98948148924 0.014544488181 -0.47381504303 0.77071873903 -0.39299376357 
-0.46622059528 0.72687882767 -0.48180280443 -0.49022414245 0.80660917331 -0.31396628333 -0.4680344328 0.85611758069 -0.2092449593 
-0.42121719382 0.89810615568 -0.11465463666 -0.40523992089 0.91094611019 -0.065217402371 -0.38268297425 0.92353300296 -0.010791064235 
-0.30551084759 0.94997836326 0.0087777658705 -0.26447931181 0.96061207785 0.04273295048 -0.20314167011 0.97157414654 0.060696309218 
-0.22206411578 0.96231367262 0.12943217753 -0.20998205524 0.95470027352 0.20172659063 -0.165821828 0.94334867289 0.27833253298 
-0.095011382512 0.93231757918 0.34520524661 0.0046783671968 0.90876583003 0.41006007808 0.11722247941 0.88672746986 0.44254914598 
0.21510179336 0.88247783867 0.41560940267 0.30450222255 0.85922245813 0.40946737444 0.3946262204 0.82607430249 0.40211606559 
0.46059452358 0.81251285515 0.35465974909 0.51485636775 0.80197249516 0.29993364956 0.54128282263 0.80502932289 0.23961356458 
0.55055307471 0.81503400314 0.16293270738 0.47244168046 0.87176715655 0.046175517594 0.31460062438 0.94393488339 -0.072271488098 
0.26668255247 0.95234731715 -0.13683206023 0.21778404934 0.95643332351 -0.17991587311 0.17898662356 0.95795670621 -0.21432449045 
0.14431170191 0.95722880283 -0.24437175145 0.10475280857 0.9608534184 -0.25447020884 0.079198913742 0.96465254647 -0.24773084872 
0.070847645822 0.96003715382 -0.26999860711 0.069890031314 0.95276486717 -0.29307502967 0.061925178461 0.94705024904 -0.3123968198 
0.053906922811 0.93830186186 -0.33991097733 0.028833539581 0.92362644315 -0.37517668154 0.0037885831024 0.89461736458 -0.44079763969 
-0.053155269262 0.86361501823 -0.4843164065 -0.12230861765 0.8451742268 -0.50225835095 -0.2474850227 0.76879555612 -0.56418317324 
-0.38589861749 0.64696620348 -0.61596311629 -0.47224277895 0.64549273623 -0.58791355121 0.059644273474 0.99756973591 0.01865837876 
0.086584705419 0.99397158983 0.040304557297 0.042351525369 0.99847266625 -0.00031056138378 0.046817774956 0.99125225044 -0.07882102723 
0.05239238861 0.98100654761 -0.1806860405 0.052345749172 0.9789888182 -0.18849042189 0.045864798013 0.98077402067 -0.1821455893 
0.030600235686 0.98320422827 -0.17243092345 -0.012750631351 0.99085943842 -0.13167172001 -0.11712940129 0.98381878068 -0.018304005992 
-0.24910263408 0.96220775626 0.091187328293 -0.33941888231 0.93055156733 0.11018291374 -0.43500361929 0.89202213614 0.1105754915 
-0.48784908124 0.86862648463 0.059853874239 -0.50436979274 0.86136230975 0.0043179758556 -0.50817755391 0.85813864376 -0.054734744887 
-0.49876030637 0.85775363935 -0.12174450253 -0.42144382052 0.8849600599 -0.17873477354 -0.33422550043 0.91348592903 -0.22859516587 
-0.31084854833 0.91284258836 -0.26251131003 -0.27884513417 0.91564584496 -0.28334622233 -0.21229415798 0.92904757261 -0.29312495496 
-0.10289919613 0.95143662811 -0.26780191189 -0.069244090366 0.95860468994 -0.27548723772 -0.030537259197 0.96175142424 -0.27135105345 
-0.024278717868 0.9650296867 -0.26090252405 -0.072288679319 0.93395371501 -0.34143292198 -0.11975048935 0.89146714502 -0.43206617079 
-0.15565053533 0.81575685991 -0.55212862253 -0.12955746819 0.75587732091 -0.6398418179 -0.094443313035 0.71261453147 -0.69336292218 
-0.044020552467 0.69553675489 -0.71506900701 0.026705731899 0.71275854544 -0.69881434895 0.07246084308 0.7969161736 -0.59521895896 
0.11747517244 0.79396208815 -0.59364188873 0.13342480412 0.83345565279 -0.52884188428 0.13975917261 0.86255384185 -0.47195255839 
0.16287717174 0.86399938216 -0.45463810893 0.14928827421 0.91310006916 -0.37567211675 0.16000232128 0.92494799409 -0.33918036028 
0.15271565769 0.93953912567 -0.30323063903 0.14631896484 0.95033700393 -0.27108278658 0.12290057564 0.9635433384 -0.23121408022 
0.09794389536 0.97514171986 -0.19368177789 0.16531109587 0.96156692103 -0.18764945424 0.16848871519 0.96245219024 -0.16559978272 
0.27506563666 0.94377183843 -0.13271971108 0.3321022124 0.93827675385 -0.086670849827 0.32003340639 0.94544661615 -0.052255043266 
0.27487171039 0.96017616659 -0.026204691247 0.24091768135 0.96979260561 0.0017584213865 0.26402287478 0.96139550812 0.049073655629 
0.27749310749 0.95592538441 0.088777220749 0.27783166931 0.95218873114 0.12017130945 0.23411532389 0.96338485839 0.11636065385 
0.17733433105 0.97837134193 0.1039530307 0.15051721314 0.98296870308 0.086880671575 0.1103462267 0.99127566825 0.065131766284 
-0.040579519393 0.96225388471 -0.26883412762 -0.071077918714 0.95818102819 -0.27714233037 -0.29320184164 0.94976519456 -0.083117647509 
-0.41036775522 0.89807835829 -0.12481422134 -0.23588714886 0.96984726296 -0.04894510184 -0.2233851893 0.97189277461 -0.028348552725 
-0.17613053788 0.97979141314 -0.036544993954 -0.14712119358 0.98556256993 -0.043979371631 -0.12223736933 0.99180300676 -0.02647591166 
-0.1679994616 0.98333937826 0.045532107309 -0.19370762153 0.96844464941 0.15119390253 -0.19327588262 0.93218762729 0.29988400215 
-0.11702887809 0.90601139218 0.40249702721 -0.005520365464 0.87589010808 0.47884277795 0.11091988448 0.86031292251 0.49522849789 
0.20972467381 0.85035203163 0.48156317412 0.28509879956 0.84188567458 0.45782160294 0.35354853728 0.83087249392 0.42774112246 
0.41840630194 0.81768284953 0.3912150371 0.47886961325 0.80798169016 0.33825370165 0.50607732796 0.81801086541 0.27055406453 
0.48089563357 0.85737054916 0.17459724021 0.380156366 0.91486779328 0.075493352766 0.35443464387 0.92282003408 -0.1436067359 
0.34736871701 0.93221201496 -0.085666137624 0.35430263808 0.90935679014 -0.20668698769 0.31726632916 0.90864409095 -0.25201854338 
0.2477871789 0.92527725231 -0.28194643761 0.18437938083 0.93716708159 -0.2892304847 0.13366036327 0.94362856391 -0.29701135109 
0.09387072482 0.94931343318 -0.2993507127 0.10227704311 0.93291678035 -0.34318723057 0.09746863887 0.91930204314 -0.37957956389 
0.066331902527 0.90005586171 -0.42817482728 0.051356863858 0.8657394397 -0.49110229512 -0.018792207978 0.76416090149 -0.62788239066 
-0.16058795909 0.59964127599 -0.77833656824 -0.32282814547 0.44543515336 -0.79037234309 -0.41249373751 0.47021734369 -0.7579934139 
-0.55304335226 0.32911646492 -0.75883638537 -0.61394828853 0.40338965885 -0.67623119545 -0.61638399558 0.5341497462 -0.56229337856 
-0.59141177927 0.66674498775 -0.4434485677 0.36993882493 0.92608368655 -0.032633585761 0.36741337085 0.92347360728 0.01531923859 
-0.064709682239 0.95633629405 -0.28397727409 -0.042665147646 0.97070522791 -0.2315893175 -0.091657535593 0.94414382194 -0.31161845221 
-0.15175929521 0.89974162902 -0.40536789965 -0.15849980843 0.85288230552 -0.48907610734 -0.15070823232 0.79595548924 -0.58009842304 
-0.11367885584 0.73315750867 -0.66345747991 -0.066503218203 0.7253636951 -0.68275737092 -0.024310025884 0.77027723397 -0.63380838359 
0.15264564743 0.74144781002 -0.65236197595 0.11609148856 0.73670021308 -0.66530133141 0.21735288317 0.73868728096 -0.63309056109 
0.28441685646 0.72207313455 -0.62841023907 0.28845098306 0.78065928389 -0.54695693554 0.27291766353 0.84414326408 -0.45620154279 
0.23882314653 0.88933562442 -0.38520137125 0.18607834631 0.9257027953 -0.31730716585 0.12273834494 0.95848906282 -0.25042047807 
0.088552149447 0.9621559158 -0.22082429624 -0.00055574961236 0.98505949017 -0.17027564916 -0.021277067427 0.98548216955 -0.16402392835 
0.028866236493 0.98211640543 -0.15393862183 0.13725458695 0.97527674222 -0.1401278137 0.18567461712 0.97342602941 -0.10958120648 
0.208879957 0.97353490273 -0.070529393155 0.2307324973 0.97180542599 -0.036523982919 0.2292063338 0.97301919094 -0.0059514295604 
0.24299776401 0.96839011175 0.034351640307 0.2424104827 0.96824159518 0.059238067027 0.22983898425 0.97042313344 0.072525276377 
0.21986536685 0.97189896884 0.083127250652 0.21056090438 0.97201285097 0.10110179048 0.18383088367 0.97346990572 0.13122887026 
0.14378486338 0.97996426492 0.13417977873 0.11200834081 0.98487731086 0.12977770692 0.07630388155 0.99182560169 0.086786485145 
0.048453958779 0.99802119953 0.035026199006 0.031580684124 0.99837435322 0.034632071673 0.013709830145 0.99662233169 -0.022006644355 
0.0082214743805 0.99785064084 -0.045499364731 -0.012503181204 0.99720424918 -0.037287762743 -0.0450129137 0.9967769582 -0.026984739541 
-0.11821927658 0.98548869507 0.038410493164 -0.19770478407 0.97155347053 0.097536449652 -0.29630662491 0.94427610561 0.13372579912 
-0.35769336871 0.92320254836 0.13179411844 -0.41319702207 0.9027646417 0.11277850214 -0.4769668589 0.87366898644 0.081223014029 
-0.4813614957 0.87464136722 0.017968546855 -0.46573191017 0.88266289803 -0.055621797144 -0.45763839203 0.88056351453 -0.11850870843 
-0.383461911 0.90186518358 -0.17511470838 -0.3262129956 0.91863535935 -0.22169960201 -0.33731883871 0.90708992814 -0.25108147289 
-0.28395019365 0.91670655854 -0.27120630196 -0.22307496952 0.93012785421 -0.28948825296 -0.17675550483 0.93719583779 -0.29260996568 
-0.11021942512 0.95248466232 -0.28347546579 -0.030237712748 0.97300142906 -0.22627515805 0.012915072109 0.98593778016 -0.15754974811 
-0.063808125492 0.97955294013 -0.18955929562 0.0078905815805 0.99084767513 -0.12057918226 0.058927678011 0.76655243282 -0.63565659784 
-0.013559158885 0.8481556865 -0.52090633141 0.58081688115 0.80897327554 -0.036789810576 0.5270492156 0.83838913899 -0.0069088874466 
0.58953912051 0.78892106781 -0.10799919571 0.60341346592 0.77529723037 -0.17208429639 0.57245414116 0.77985073526 -0.23840936085 
0.50256017051 0.80485690024 -0.29709817852 0.41964370267 0.83309218546 -0.33636713826 0.34545033966 0.85355638918 -0.3730763948 
0.26950934577 0.87694528881 -0.37827557965 0.18864635242 0.90233936646 -0.36471980794 0.18284000619 0.8792647672 -0.42632153471 
0.15748417728 0.87196269701 -0.46204170303 0.12059966436 0.85278679204 -0.50688007656 0.07030961223 0.80688006817 -0.58069704045 
0.0019778594296 0.73206022984 -0.67455900242 -0.082713713251 0.62952511361 -0.77170964521 -0.49569322541 0.2641664002 -0.82059950491 
-0.40700642364 0.24457110134 -0.8707196821 -0.55575086177 0.38509708603 -0.73221005061 -0.60221557959 0.4733680147 -0.64067559987 
-0.63382345375 0.54949286426 -0.54149132171 -0.67432312849 0.55818008534 -0.46348727611 -0.2444738666 0.96639568821 -0.059851363972 
-0.33729291617 0.93517863245 -0.076751950405 -0.18907396378 0.98050737908 -0.046265575337 -0.17007324492 0.9824802256 -0.037739201397 
-0.1710347859 0.98222556579 -0.035886895409 -0.16126033047 0.98585665823 -0.025339591602 -0.17073439809 0.98452052601 0.0054983798432 
-0.20592758523 0.97409533241 0.072009726016 -0.26939759106 0.92729920985 0.24535345973 -0.26255089552 0.86207177077 0.42525480795 
-0.16332457689 0.80835294458 0.55791881715 -0.010112309213 0.84448302581 0.53236549012 0.082740408786 0.85939189431 0.50116710232 
0.16582657881 0.87283457371 0.45602639948 0.21517010127 0.88493135152 0.41043419717 0.24816370929 0.90181934948 0.3486344171 
0.27894227783 0.91101719914 0.29571320504 0.29113576427 0.92348431225 0.22996566305 0.29639747272 0.93509711739 0.16247456743 
0.24104909433 0.9620398675 0.093137703383 0.16086870626 0.98242801684 0.033186947246 0.29033645817 0.95012306981 0.022402398627 
0.36443632318 0.92431224766 -0.0004148127675 0.57952962066 0.81282179441 -0.035369529944 0.40418195256 0.89801317355 -0.030246466879 
0.64592863788 0.7571377323 -0.075505817211 -0.5226219499 0.8277971255 -0.17025360588 -0.52172368796 0.83487285208 -0.1294433766 
-0.63369475452 0.74207054442 -0.20434062843 -0.61336219693 0.76373975964 -0.16288170174 -0.26539039596 0.46559452445 -0.84307325721 
-0.17765154758 0.59113613517 -0.77420317449 -0.11590147065 0.96000170468 -0.25401449078 -0.14576014639 0.91472561146 -0.36163313707 
-0.15761267688 0.87350168731 -0.45663630832 -0.13118821268 0.83313109371 -0.53104490004 -0.099918488561 0.82056429135 -0.55037857961 
-0.075862881671 0.8622541582 -0.48492369876 -0.063667822271 0.92305596424 -0.37438793742 -0.011802681296 0.91378804941 -0.39606089179 
-0.066417422654 0.95558563029 -0.28583773015 0.046535493931 0.85134571783 -0.5129476938 0.13243199256 0.76870871239 -0.62109076146 
0.20967118296 0.72492836318 -0.65539591115 0.24744919382 0.74448217462 -0.61703495219 0.27673966539 0.77626465579 -0.56603525042 
0.29287703546 0.80195238463 -0.51837928626 0.30134821735 0.83240294757 -0.46156824082 0.29124884108 0.86881268676 -0.39501239453 
0.22874526542 0.9067995495 -0.32563935877 0.069339140207 0.96845986985 -0.21349450005 -0.004593930702 0.98400409258 -0.17157869709 
-0.048425203007 0.98710600699 -0.15190769993 -0.066339421462 0.98672139035 -0.14773227328 -0.066003592383 0.98660233598 -0.14839105318 
-0.047424033627 0.98764905993 -0.14829276238 0.009944078735 0.98804302129 -0.134564777 0.11551580172 0.98688647688 -0.099767109785 
0.16470392881 0.98421204228 -0.057227020409 0.18156946773 0.98257229475 -0.022011710639 0.23040729443 0.97065506565 0.032577824135 
0.26401034289 0.96104799084 0.077016916263 0.27761362071 0.95403604262 0.10797575651 0.27614710188 0.95275950733 0.12421437297 
0.2658666925 0.95429694407 0.13399910967 0.26482682311 0.93374173422 0.22971679471 0.16469181607 0.97541994356 0.1416708919 
0.13035148504 0.97124821011 0.19356681099 0.090132448351 0.97620316354 0.18582746285 0.043152786826 0.99005131603 0.12382182422 
0.015402796637 0.99470767812 0.099070278559 -0.0050904209113 0.99624919547 0.084517217646 -0.035018459246 0.99628053884 0.074564203056 
-0.073098055487 0.99186269751 0.086784323576 -0.11535247134 0.98626156415 0.11104482396 -0.19529697208 0.96062253245 0.17088567564 
-0.2535480286 0.94588090927 0.19971636838 -0.30395831629 0.9322820898 0.19133280796 -0.35405940474 0.91803463682 0.17313988316 
-0.40914358042 0.90063008521 0.14001027493 -0.38967299222 0.91396610867 0.069700073949 -0.3961044337 0.91481515893 0.016296307807 
-0.37678122884 0.92368021203 -0.032845176334 -0.35376173721 0.91716679259 -0.17257066518 -0.39665249616 0.90669695551 -0.13720433253 
-0.28221546582 0.93400944055 -0.20043272664 -0.22250206559 0.94614721028 -0.22123684804 -0.1869985914 0.95159351955 -0.23676951425 
-0.14804379836 0.95604745586 -0.24975655093 -0.13106364007 0.95522689192 -0.26262864987 -0.068655641641 0.96993241906 -0.22555957947 
-0.017794101255 0.9789799722 -0.19456195618 0.037407786241 0.9881660938 -0.14482913054 0.04577257099 0.99355002977 -0.10082570993 
0.015916491388 0.9980953684 -0.044020860493 0.029813725571 0.9972673288 -0.057736900764 -0.053294923644 0.98803185857 -0.11013817972 
-0.11082176713 0.97261573734 -0.18783368572 -0.12170662505 0.95820705526 -0.23256116859 -0.12220850716 0.94113123848 -0.27489802793 
-0.11872238008 0.9261800007 -0.33009147508 -0.10497577351 0.92306043506 -0.35559541646 0.013592587464 0.98799648263 -0.15001933933 
0.0054656696805 0.98386570731 -0.17818106179 -0.0031272640686 0.9911985835 -0.13073734723 0.030045928329 0.99595596783 -0.056100725571 
0.087340182913 0.99049869017 0.059022746229 0.066693793054 0.99614740134 0.018071339125 0.043904734154 0.99716531153 0.042240638645 
0.0016352544172 0.99855675688 0.043696300092 -0.047262667356 0.99193235558 -0.031655123068 -0.093236549386 0.98416352358 -0.13266097007 
-0.11145235377 0.98315971464 -0.1429947517 -0.11791114669 0.97956721519 -0.15089635838 -0.11096389941 0.96547771312 -0.22584185585 
-0.37747696348 0.91962487131 -0.094690669747 -0.31509419188 0.9460104529 -0.064242543751 0.68026325987 0.72100256205 -0.12943788759 
0.68235859614 0.70051401294 -0.1996818769 0.66649832939 0.69278283172 -0.2691930857 0.6003940869 0.72404992369 -0.33512984845 
0.54093116224 0.74103943827 -0.39270332981 0.4794590648 0.75594396798 -0.44328174842 0.39173149101 0.79039602 -0.46541239651 
0.32303007992 0.80445080954 -0.49375472102 0.27792135024 0.80151772263 -0.52641630387 0.20260911253 0.82835618417 -0.52016780081 
0.14764066889 0.82087539228 -0.55066331327 0.094462535041 0.81289954479 -0.5709617433 0.028754372334 0.78851326118 -0.61377256809 
-0.049965066071 0.73358167991 -0.67021429583 -0.10669461195 0.70021973433 -0.70542617156 -0.20041252454 0.64743796225 -0.73209987797 
-0.13976854047 0.72926170216 -0.6608245537 -0.28098170386 0.59454857713 -0.74704551872 -0.37913130151 0.50643023294 -0.77211312279 
-0.46011482743 0.45352212372 -0.73975721734 -0.54433407869 0.4871201094 -0.67562327761 -0.61405325298 0.49285695665 -0.61235754196 
-0.6738220495 0.50158659484 -0.53617942399 -0.73192998127 0.49555822135 -0.46392668766 -0.67042101075 0.64110387416 -0.36092437933 
-0.73822901396 0.56389171551 -0.36402038096 -0.64961362945 0.70225421575 -0.27424595303 -0.72127988868 0.62526461619 -0.28175192215 
-0.70471908001 0.6716275753 -0.2113237997 -0.66799021655 0.7106952252 -0.15577367988 -0.60108716654 0.77435876183 -0.1063281062 
-0.51021255404 0.84451753073 -0.06093711045 -0.40354104802 0.90181545306 -0.027208890349 -0.34784605536 0.93352961104 -0.00076692023888 
-0.34647735874 0.93728057162 0.01995346602 -0.36806572445 0.92172191678 0.073416387381 -0.37489536356 0.9173471741 0.11395026826 
-0.39006551094 0.88693220029 0.19821205182 -0.4130271726 0.83897796588 0.313544085 -0.41984322015 0.77749413336 0.4544683807 
-0.391602221 0.68076904417 0.61402873111 -0.29694899877 0.65070375585 0.69138741222 0.085128778828 0.86333875231 0.49237052373 
0.008175421097 0.8055373436 0.57967730058 0.12196931081 0.92776009594 0.35028125216 0.091679941578 0.97312451196 0.19591466181 
0.065087872734 0.98794663323 0.11581382544 0.052922125778 0.98883019107 0.080658012446 0.0048446658626 0.997280029 0.018372124527 
-0.032637028155 0.99418542552 0.0036250626163 -0.056763767612 0.99700491316 -0.020712230446 -0.033591971446 0.99845095366 -0.025817717372 
0.12133887128 0.98263817288 -0.0065104248838 0.18599164425 0.97832556434 -0.022310672295 0.2354563805 0.96993494477 -0.042498496635 
0.3971398302 0.90478974207 -0.051218717847 0.18645491583 0.9722935949 -0.072642200334 0.5676334723 0.81651946354 -0.069862291423 
0.62409027467 0.76899094206 -0.11466283121 -0.10344991935 0.71958036676 0.6802076745 -0.2098082565 0.63928342873 0.73692563745 
-0.093105136041 0.97395912135 -0.19813724479 -0.089948683619 0.95300439458 -0.28698904864 -0.061950810946 0.96928173573 -0.23338049777 
-0.08655847392 0.98481312544 -0.11373447479 -0.044305814616 0.96257844546 -0.26678649969 0.025260938479 0.90112797219 -0.38207880083 
0.10059251583 0.83989381943 -0.48550971229 0.17776092148 0.79491480543 -0.57597409924 0.21781299402 0.79980718149 -0.55496368426 
0.25425510906 0.79808817768 -0.54500492368 0.27569968856 0.82240331436 -0.49452081087 0.28951260255 0.85152053286 -0.434320229 
0.22927319007 0.90552775236 -0.34164319978 0.14705872724 0.95146690818 -0.26005081269 0.075242468572 0.97456739464 -0.20400254386 
-0.022965128661 0.98049426869 -0.16093738805 -0.092742941968 0.9868693654 -0.12865049081 -0.087805148635 0.98743288139 -0.13058999051 
-0.077987059334 0.98745861871 -0.12604897793 -0.054476639458 0.98925752888 -0.1258785628 -0.010241017743 0.99002408468 -0.12311593064 
0.064829505976 0.99214959816 -0.10295945488 0.13690246965 0.98590382298 -0.057959671929 0.21311945117 0.97616633007 -0.013129501463 
0.24250825063 0.96914983348 0.028596020357 0.26672546288 0.96030155228 0.070689495033 0.30015056553 0.94629929029 0.11475513368 
0.32545450745 0.92863000357 0.17030797558 0.34623539576 0.90954991793 0.22694100485 0.30044774334 0.92257240795 0.2283239551 
0.10989327443 0.98075806737 0.15836958626 0.17188981328 0.9620714719 0.19391613969 0.07232533819 0.98579506567 0.14638763883 
0.034272758888 0.99136049105 0.1237244207 0.0020989071784 0.99350942357 0.1105038654 -0.029004718831 0.99546118777 0.063611291709 
-0.058463046436 0.9945873295 0.061838158158 -0.093525529102 0.98672166216 0.11856090153 -0.14237661509 0.97689223279 0.15667186463 
-0.20083968701 0.95900434857 0.19012274953 -0.24490320956 0.94788625476 0.20176799445 -0.26499639515 0.9485714756 0.17106125106 
-0.27124040787 0.95228448084 0.12702772888 -0.26170609925 0.96066069703 0.074449196458 -0.27181893593 0.96071701411 0.03150613079 
-0.29025212842 0.95610768711 0.00097184671241 -0.30434364539 0.9504836601 -0.025683328057 -0.27067901749 0.96125036675 -0.036469813415 
-0.27164291863 0.95862384195 -0.080589859038 -0.18803290624 0.97234796131 -0.076248704278 -0.29566056296 0.94881299848 -0.10681783126 
-0.31902594463 0.93633296945 -0.14042214052 -0.29130497074 0.94128399459 -0.16776369266 -0.24376934345 0.94774312295 -0.18582181595 
-0.13667195522 0.96897045705 -0.19060641623 -0.10096782702 0.97392292782 -0.20088656461 -0.085040577086 0.97224698712 -0.21468454905 
0.21383805861 0.95190104475 0.20789430791 0.17406424018 0.97379972709 0.14346503851 -0.099659334992 0.98548721575 -0.12604629242 
-0.10342460126 0.99373605773 -0.0083396828254 -0.087070063552 0.99349887809 -0.044053471209 -0.095521380929 0.9929630182 0.063689363481 
-0.055372395149 0.98092617226 -0.1731255294 -0.023996218287 0.95890316529 -0.27252539774 -0.0038535462595 0.94564647378 -0.31475971913 
0.036028798065 0.92251168182 -0.36789269079 0.076756468206 0.90321455008 -0.41232726649 0.069864834476 0.92518623528 -0.36547130658 
0.06813481595 0.94371529439 -0.32121403541 0.10638218577 0.94059417689 -0.31715131641 0.12299084471 0.94277724179 -0.29942852569 
0.053634015123 0.96213360397 -0.2187194175 -0.0039540091651 0.98202619612 -0.15943006377 -0.036053059555 0.98094200888 -0.1442708164 
-0.10393361454 0.98340433566 -0.10505030048 -0.10868000917 0.98641429572 -0.11227427121 -0.19942952293 0.97376100308 -0.10120721836 
-0.19407408138 0.9725826542 -0.11490692839 -0.16793850942 0.97361100903 -0.12686410929 -0.040942295637 0.98807738526 -0.11304366445 
0.042800028694 0.9940148652 -0.098782400061 0.071867109328 0.9928345836 -0.092236211288 0.12973801763 0.98693147912 -0.059915311349 
0.19500836231 0.97902320352 -0.0015146116254 0.23428072965 0.96968699808 0.050554559485 0.26590680053 0.95817705039 0.10208716059 
0.29018712302 0.94293102837 0.15374073061 0.3012971308 0.9300465096 0.20345623328 0.2136032547 0.96041639463 0.15035447473 
0.1628752631 0.96868956004 0.14814002807 0.16283406165 0.95702921159 0.18325589328 0.038134571662 0.99442537594 0.015619254587 
0.15727365572 0.96460339966 0.1982906623 0.11932258773 0.97886910321 0.15797399733 0.086592260192 0.98565716665 0.13972849797 
0.051455159958 0.99053666169 0.11215290104 0.015473183414 0.99618582788 0.084252108823 -0.004754331976 0.99553540692 0.091191807939 
-0.029130932741 0.99620978132 0.066189333301 -0.040554550826 0.99768243206 0.02525266072 -0.048390452491 0.99770089944 -0.015428602312 
-0.05548378364 0.9968782419 -0.012484605863 -0.10324318063 0.98517406344 0.023638334129 -0.13509373267 0.9828819419 0.058444433975 
-0.12992496056 0.98817559884 0.023401794892 -0.12766299018 0.9892980689 0.0090102279927 -0.13021393364 0.99038196935 -0.0026643268729 
-0.16925414242 0.9848909941 -0.01483142005 -0.21432141356 0.97528256327 -0.027680229149 -0.067447396893 0.98729618538 -0.087697130545 
-0.049618384381 0.99248637268 -0.097974998618 0.032231027037 0.99263944361 -0.113959552 -0.15108479428 0.97878746912 -0.10635896829 
-0.26989052791 0.95510683006 -0.12086395016 -0.25861754964 0.95414340325 -0.13525738333 -0.21386091506 0.9616901858 -0.15245177007 
-0.17351891747 0.96655994918 -0.17153910255 -0.11133447377 0.97501399255 -0.16941087877 -0.018178344658 0.98429487874 -0.15084032045 
0.64677816401 0.74322162791 -0.16341432787 0.63759456033 0.73652265981 -0.21939109185 0.61348815742 0.73331328371 -0.2827969649 
0.59526606378 0.72572014266 -0.34371235132 0.55433852401 0.72394954762 -0.40561694379 0.51023037065 0.72286359429 -0.46324331645 
0.45528439145 0.72943756888 -0.50689324507 0.39008692169 0.74479105051 -0.53609954267 0.29866806683 0.78813185351 -0.53741236342 
0.22026500754 0.81331791137 -0.53575189739 0.14512383507 0.83594080513 -0.52656216911 0.077239591363 0.84228718909 -0.5314601049 
0.027115149516 0.80519477322 -0.58999447666 -0.031963931918 0.77194537709 -0.62969957045 -0.077725680072 0.74574720911 -0.65672640581 
-0.081890820767 0.82242652298 -0.55415610166 -0.1177440241 0.85616298578 -0.47937015259 -0.078838516441 0.93756335784 -0.33519303433 
-0.2285862671 0.68681007535 -0.68451510395 -0.28426327831 0.65572943984 -0.69511452012 -0.35815353682 0.63296694555 -0.68450833732 
-0.4425512457 0.5981993076 -0.66385663897 -0.52960815033 0.56798035413 -0.62669206215 -0.6013514835 0.55094576367 -0.57494459039 
-0.66554291646 0.54494980989 -0.5041607391 -0.71299748432 0.5570179131 -0.41995736263 -0.69451958359 0.62905986709 -0.32421588007 
-0.70577180039 0.65468654341 -0.25068180892 -0.73189771742 0.64661213475 -0.19902735383 -0.72071170723 0.67737949895 -0.13684921878 
-0.70599117624 0.69995021066 -0.085338526015 -0.64679402231 0.75655302652 -0.034458556628 -0.55767715082 0.8252371669 0.0086153386827 
-0.5351449008 0.84218769856 0.053364365753 -0.54484567781 0.82917015094 0.11347646789 -0.54771133843 0.81236229908 0.1757430348 
-0.57089424407 0.76244422666 0.26013096577 -0.564598469 0.73338185901 0.35793161907 -0.58137525945 0.64550009954 0.49386377895 
-0.52789826382 0.61039072789 0.58649736955 -0.46172293227 0.58086146973 0.66486724879 -0.37869083254 0.57170308754 0.7240556574 
-0.27018692605 0.65087468161 0.70528312947 -0.12440165591 0.71019787916 0.68812882586 -0.19025883076 0.73379530278 0.64895266826 
-0.05385994234 0.702142372 0.7062343489 0.020361631191 0.76800969026 0.63612246877 0.070051817696 0.85325837694 0.49228128061 
0.084140246513 0.94093428386 0.31577299886 0.050461909955 0.98278200309 0.156707291 -0.043343677757 0.99051897105 0.0016861543183 
-0.12674972617 0.98669158906 -0.096429518866 -0.16490374677 0.97945023066 -0.11555387352 -0.1175979908 0.98944380413 -0.069184448999 
-0.063979601821 0.99262989688 -0.038215780369 0.037726144736 0.99189128945 -0.014837311347 0.15316927937 0.98761217352 0.0034829241733 
0.076482483041 0.98832483998 -0.058993360877 0.034272601178 0.99621835845 -0.075297680874 0.028300174238 0.9958877683 -0.082885276293 
0.15814598883 0.97901332608 -0.081463422893 0.030347055233 0.99508111534 -0.089427919861 0.3309675169 0.93621576018 -0.073448999454 
0.41446687989 0.89936751771 -0.084257673109 0.49239693739 0.85713337128 -0.11839727416 0.0056925940041 0.95050098512 -0.27260581976 
-0.015076250476 0.96903873783 -0.23115550237 -0.03801639906 0.98159052313 -0.18221957243 -0.051531802257 0.98666722427 -0.15359975551 
-0.055049935689 0.98496471902 -0.14361394879 -0.049010755233 0.98276588538 -0.14346307786 -0.059442510531 0.98656622035 -0.13037062354 
-0.090700085804 0.989359242 -0.099534159682 -0.20656517948 0.96936830592 -0.039754451305 -0.34669916738 0.93144353578 0.032771767892 
-0.26382735884 0.96150383968 -0.074590668495 -0.28437149288 0.95412870753 -0.050463509382 -0.26306313183 0.95967328478 -0.092175698413 
-0.2690893625 0.95203584185 -0.099793803776 -0.13016880203 0.97491041326 -0.10491281632 -0.012140214326 0.99374284272 -0.10899786189 
0.0075911645646 0.99420922944 -0.10509107768 0.044766697338 0.99256926912 -0.086578696258 0.12996449647 0.98518076496 -0.026942968161 
0.19409207625 0.97952067977 0.025810566039 0.20106529353 0.97746916278 0.056864139391 0.19503063188 0.97667643363 0.078775266382 
0.14813017938 0.98373194708 0.06357710244 0.086999538276 0.99017337744 0.036353245406 0.011441271566 0.99787796706 -0.014502479139 
-0.039347573923 0.99605153299 -0.047767025184 -0.048551726352 0.99341675291 -0.075874332465 -0.10044956466 0.98685650472 -0.12287249922 
0.0073225731095 0.99428763532 -0.022168386249 0.073409698869 0.97750745865 0.073831340507 0.060083067798 0.98891222089 0.10543603193 
0.039190735456 0.99376603331 0.10243846071 0.020520538298 0.994438654 0.10078958551 0.0032062252577 0.99522508669 0.097198036855 
-0.018493929923 0.99659414162 0.063884069587 -0.041241341168 0.99758502087 0.01137605217 -0.024884802717 0.99319718639 -0.068758844636 
-0.00016750053691 0.98617173814 -0.16010201938 0.01359694173 0.98343231068 -0.16208250288 0.037485283723 0.97928199031 -0.18005447692 
0.026213127369 0.98958548479 -0.12294426326 0.016801552241 0.98901802344 -0.11697910915 0.027225631522 0.99144160415 -0.10845969116 
0.012228267792 0.99569749371 -0.086795707629 0.0011111173408 0.99579311666 -0.09111853124 -0.27996875412 0.95444490158 -0.028955600319 
-0.42791200989 0.89952676794 0.059069555702 0.066908759481 0.98910256011 -0.12675083685 0.030129214709 0.99236493869 -0.11872971803 
0.078520802073 0.98312428472 -0.14747839604 0.024768017017 0.99276019887 -0.1166414899 -0.019641371581 0.99224274776 -0.11280752692 
-0.14024167227 0.97865382512 -0.14098527191 0.52183022549 0.83154935636 -0.16783424297 0.552462192 0.80031382368 -0.22795921784 
0.53026264506 0.79535105633 -0.28668187654 0.51233981359 0.78652748048 -0.34294936212 0.49899579361 0.76898940721 -0.39521432428 
0.47024813605 0.7615454494 -0.44423332959 0.42452847642 0.76921708389 -0.47573596145 0.3648260845 0.78394603912 -0.49958164543 
0.29825422778 0.80363856801 -0.51461619198 0.21355486124 0.84330835439 -0.48763336614 0.13173954619 0.87854065217 -0.45695207115 
0.073578290113 0.87561341755 -0.47558654302 0.018510549953 0.87623154037 -0.47654970839 -0.028094526703 0.86706138369 -0.48371610088 
-0.038879865602 0.96559150636 -0.24730566225 -0.072756080841 0.97134581777 -0.21882817394 -0.038266196636 0.99603160864 -0.07271903833 
-0.10862893727 0.95043707591 -0.28740219441 -0.18667766781 0.84084680511 -0.46824120593 -0.28777308237 0.73546459669 -0.60979535397 
-0.34253870955 0.7170254286 -0.60468574317 -0.39420405744 0.72473937691 -0.56118928377 -0.45175015721 0.7244685822 -0.51578503567 
-0.5202232112 0.70655679997 -0.47263872956 -0.5452182574 0.72538102742 -0.40418519124 -0.52279696548 0.7912166776 -0.30565243919 
-0.54087565418 0.80330375853 -0.24085420017 -0.57635562588 0.78795927121 -0.19540298327 -0.64985117776 0.73739655116 -0.16124668655 
-0.68634966421 0.71631480146 -0.11800242097 -0.69477931211 0.71447826535 -0.06848675849 -0.66766730955 0.73985661917 -0.021763770952 
-0.59457938127 0.80058205445 0.022364540794 -0.5602997195 0.82515763486 0.064104042472 -0.56476316986 0.81304343283 0.11987037468 
-0.62238209133 0.74941682065 0.21781790856 -0.6383612183 0.69191290203 0.3196935003 -0.63911460009 0.64018494075 0.42072883028 
-0.59826793591 0.62256412106 0.50323738773 -0.54401304751 0.60046088548 0.58116138492 -0.47620037606 0.60143698118 0.63596602472 
-0.40564730175 0.61011704939 0.67359168344 -0.31256623824 0.691716271 0.64599305957 -0.24168859184 0.74819605772 0.61440405458 
-0.13184950438 0.78487487175 0.60090105733 -0.1520597618 0.86008057673 0.47177155748 -0.07948371965 0.773762756 0.62759151897 
-0.025655553811 0.77478039493 0.62768217458 0.04037885111 0.79409861341 0.60514122487 0.072504642138 0.85479101226 0.50070110096 
0.081276420926 0.92289585669 0.351223652 0.042769937657 0.98328293564 0.14118336006 -0.018352502049 0.99081912324 -0.0040317784151 
-0.094417127665 0.99016511571 -0.086134221068 -0.11669890933 0.98744299728 -0.10353555205 -0.087379767598 0.99302277411 -0.066386429146 
-0.050623197255 0.99540273955 -0.041761457762 -0.03824113062 0.98421881786 -0.058289280419 -0.060690962042 0.99230289147 -0.084919773554 
-0.022634145575 0.99588991159 -0.086514097395 -0.00055395107223 0.99563273862 -0.091529787471 0.022640551844 0.99432838983 -0.10210058642 
0.01817483342 0.99376682536 -0.10885217917 0.025705213559 0.99420794623 -0.09828526785 0.0070516808592 0.99336042457 -0.11480871859 
0.18079855174 0.96909453428 -0.10052596617 0.053088622423 0.99057655401 -0.1231035148 0.02754852791 0.99335768706 -0.10347095565 
0.022043046284 0.99695482169 -0.073334638518 -0.075865349403 0.99118663427 -0.09804512783 -0.057344816103 0.99295726541 -0.072040258711 
0.10518110407 0.97735728209 0.1317362722 0.10128560457 0.97310073142 0.19348970685 0.080572941866 0.96410486731 0.25005734144 
0.035118098204 0.96202137627 0.21783180545 -0.033258463837 0.97716984713 0.10483310001 -0.085114539011 0.99545728097 -0.023178195739 
-0.098990576546 0.99133533399 -0.070404072645 -0.089618110889 0.9935209989 0.045930926791 -0.078783574979 0.98031411061 0.16438952438 
-0.100592088 0.98302446699 0.14585794981 -0.11152126962 0.94013085727 0.29730354367 -0.097686386044 0.99409948665 0.024785855541 
-0.060459624163 0.99029313873 -0.11553733716 0.28846996857 0.9367402355 -0.19182155551 0.23837824638 0.95484734735 -0.14939138632 
0.40794911101 0.86851554333 -0.26134886403 0.41506796048 0.84959855183 -0.32153730675 0.42271210981 0.8261626401 -0.36977536451 
0.40526641617 0.81862929746 -0.40564570032 0.37215746493 0.81651511901 -0.43691911271 0.34562760786 0.80803273308 -0.47420001422 
0.31136151548 0.80840156872 -0.49841552125 0.21890978202 0.86067079065 -0.45073914028 0.077948819136 0.95365337639 -0.28568829736 
0.016996477969 0.96591470503 -0.25451116986 -0.0099970071471 0.96498000534 -0.2563992203 -0.032651224705 0.99438986835 -0.098942418604 
-0.0217097051 0.99384662416 -0.05426087352 -0.0351026543 0.99347206094 -0.10792301674 -0.045942775814 0.99283117822 -0.08877479152 
-0.080252761623 0.97829058025 -0.18245359364 -0.14459349991 0.9387694336 -0.28810416205 -0.22390171959 0.86867096925 -0.42361736441 
-0.2997240068 0.80997394327 -0.49291801848 -0.31253716615 0.84401182847 -0.4227812042 -0.35784871849 0.84115167294 -0.39575597679 
-0.3665960066 0.85460426674 -0.35125126138 -0.36533982393 0.87724733594 -0.29622846345 -0.31397941598 0.91915147104 -0.22961446605 
-0.40383266202 0.89160666627 -0.14462801464 -0.30923987053 0.93304268021 -0.14111975052 -0.5266228503 0.8223638605 -0.14544467859 
-0.58039652003 0.79945239534 -0.11288793832 -0.59401021924 0.79355651304 -0.063962503915 -0.58310408966 0.80932614941 -0.028905745321 
-0.55622805538 0.8300862881 0.018377702784 -0.56064136992 0.8246938043 0.061846672342 -0.55407607973 0.82526955841 0.097162307873 
-0.6024090819 0.76963388843 0.18429716218 -0.65072813638 0.63212692416 0.41725092755 -0.66299253333 0.66579360287 0.32999188933 
-0.60470387897 0.63103189499 0.48339432729 -0.54440313212 0.64508648839 0.53136657996 -0.47667755565 0.66498237391 0.57455870401 
-0.39691313428 0.71143375029 0.57242236597 -0.32299568838 0.7452696745 0.58061254882 -0.225189914 0.83308644866 0.48528901557 
-0.16200383902 0.924717345 0.32215776725 -0.25051092158 0.94912638198 -0.15443496329 -0.15834532917 0.97575557468 -0.13103359534 
0.041582712972 0.98087933254 -0.16672624389 0.058018094513 0.9759079896 -0.20716896789 -0.14114626398 0.98039301474 -0.13683643161 
-0.046220260384 0.9871806763 -0.12527840048 0.031588757674 0.99288204434 -0.11445349351 0.030361058577 0.99427989179 -0.10169115091 
0.012972776604 0.99546646483 -0.090190424914 -0.04959131194 0.99403541281 -0.093212815895 -0.14167830936 0.98298717632 -0.10577760593 
-0.078328838224 0.99415835232 -0.063598292596 -0.076708575496 0.99368028356 -0.05497022003 -0.075156156952 0.99043918452 -0.057324339052 
-0.14860345484 0.98228833152 0.0054600134015 -0.21252410399 0.97315068102 0.051999096462 -0.25931341722 0.96127353475 0.062566146039 
-0.32414673831 0.93894859502 0.08689495449 -0.4048336463 0.90232713977 0.11407416458 -0.46328040086 0.87555219924 0.13418065711 
-0.44478320626 0.89295134741 0.043339771842 -0.38062515036 0.92417880823 0.0042542503318 -0.35298761271 0.93395934149 -0.021771241888 
-0.30766593503 0.94726667839 -0.049091702714 -0.24812777003 0.96293469218 -0.067211046244 -0.20058021081 0.97254324802 -0.080382607953 
-0.15605026325 0.97489462121 -0.081154622991 -0.11239583318 0.98405442493 -0.09833486039 -0.091638032165 0.9854273116 -0.097656001063 
-0.055198986499 0.99102181944 -0.10349646486 -0.038519962472 0.99128050975 -0.1045811739 -0.0056601489165 0.99592325614 -0.08821386679 
-0.0031775644045 0.99705803529 -0.07277128164 -0.0048794639365 0.99778425117 -0.057579460646 -0.012867424805 0.99857040554 -0.04907346371 
-0.027937087626 0.99794307177 -0.046110437984 -0.05032990862 0.99574115289 -0.055352393662 -0.09494835103 0.99034356426 -0.098687808577 
-0.13032649964 0.97771296169 -0.15264709768 -0.085500479285 0.9877047075 -0.12303270327 -0.1320794555 0.97437222236 -0.17675781469 
-0.060759433848 0.99231810612 -0.10072298254 -0.029009862829 0.99578335793 -0.07962814008 0.0026547364874 0.99319508745 -0.016872456161 
-0.016756109285 0.99468478012 -0.059980222795 -0.049336520381 0.9667338379 0.20095133034 -0.055629295922 0.93314270626 0.34579774821 
-0.08064301548 0.89039763028 0.43660454244 -0.042110648842 0.82355774007 0.55361137805 -0.018496638152 0.78612221518 0.61502452272 
0.022986848192 0.7942464611 0.6067215322 0.05596578336 0.89655809653 0.43610389049 0.083457496664 0.90553075123 0.39437525649 
0.082999950602 0.97047298738 0.21925783964 0.013426815115 0.994995368 0.035311525293 -0.062124966588 0.99541458901 -0.058351446078 
-0.039243877013 0.99355110872 -0.10501456381 -0.021771561811 0.99094049055 -0.13089394505 -0.0096381144456 0.98849259417 -0.14621324829 
0.02320803554 0.98067560619 -0.18636344128 0.042650539779 0.97682527333 -0.20675361503 0.052007523597 0.97096512583 -0.21599541272 
0.068600862098 0.97569350672 -0.20798693314 0.15320605091 0.92635949063 -0.32924039396 0.080067332554 0.97375308211 -0.21266389112 
0.085611895115 0.97469837866 -0.20592339161 0.098680052044 0.9749325915 -0.19931197029 0.11271747554 0.97506321932 -0.19065490829 
0.10110511117 0.98019648033 -0.16590632683 0.17145474793 0.95837148312 -0.21979029413 0.22289275175 0.945976539 -0.2138694596 
0.2960011005 0.90736486048 -0.28275258594 0.11165628014 0.98192300815 -0.14579896804 0.066074211662 0.99036164212 -0.11042413226 
0.078309508972 0.95705175247 0.27072401958 0.066951356052 0.93935191775 0.33065246934 0.021397492981 0.928303309 0.36809181574 
-0.1364305423 0.97571905089 0.15762183227 -0.45040129664 0.88841024966 0.020967251922 -0.44130793657 0.89559608788 -0.0045240845443 
-0.45407866206 0.88664638837 -0.034980075766 -0.44070988611 0.89131932493 -0.064783883228 -0.3856923874 0.91601964711 -0.091971660891 
-0.31583226249 0.93803906616 -0.1178979908 -0.23013065751 0.96358676979 -0.12887113785 -0.16820138787 0.97585411782 -0.13220398529 
-0.10420666733 0.9863320794 -0.11623987345 -0.057535572798 0.99216280148 -0.10318539246 -0.040571381643 0.99554699304 -0.083800720708 
-0.037924632103 0.99655870183 -0.072423511385 -0.12084511897 0.98382897777 -0.12073426771 -0.088511498937 0.99243764232 -0.079689741649 
-0.062208484533 0.99087034807 -0.10253401047 -0.10532884374 0.97655095097 -0.18299916232 -0.03733305114 0.99635763508 -0.074932022185 
-0.19669211109 0.94959423233 0.19900069329 -0.24224698926 0.93691533182 0.21149300615 -0.30400982794 0.91396834172 0.21792913678 
-0.35580653681 0.89416224864 0.22444483209 -0.41387559475 0.85696329692 0.21730397607 -0.4721389421 0.836120033 0.2192347619 
-0.49078861778 0.84332311682 0.193041888 -0.60024621599 0.74307274328 0.27506997573 -0.61590591958 0.68971078397 0.37258424589 
-0.56586852999 0.701415831 0.41319375262 -0.49747039806 0.73200001901 0.44089452999 -0.42495536244 0.76772744254 0.4536654632 
-0.33673691447 0.82583253577 0.43622652061 -0.27783963769 0.85644469224 0.41894829923 -0.21925652767 0.90228071831 0.36708160669 
0.10696013018 0.96396049116 -0.23046209382 0.14665488401 0.95265366586 -0.25130434548 0.15534686225 0.9579819536 -0.23190601115 
-0.17216844076 0.93776933075 -0.27303951464 -0.23109982244 0.89730936093 -0.35993240441 -0.19915470934 0.94101329962 -0.24746857819 
-0.24392067212 0.94121972156 -0.21525936068 -0.2387686689 0.93201208058 -0.23999509816 -0.23456760663 0.94463354732 -0.20297671298 
-0.21885838644 0.95452618086 -0.17291606042 -0.11458209694 0.98566528277 -0.11836006144 0.2228579191 0.8911249665 -0.38412289902 
0.35523514695 0.86996451703 -0.33774464059 0.32189087615 0.87810201489 -0.34973736612 0.27193266859 0.89087291853 -0.35319318728 
-0.016387229364 0.88956269258 0.44789861162 0.25509988621 0.88826461101 -0.37395640666 -0.11490446185 0.98393866691 -0.12263637368 
-0.12223337576 0.98258549964 -0.12630503612 -0.10945613323 0.98637238228 -0.11350049255 -0.56044028761 0.75481039767 -0.33450799425 
-0.49836172252 0.82669716042 -0.2290969394 -0.085873558397 0.9274727669 -0.3557112761 0.2368053791 0.95571448925 -0.11513515489 
0.032095675281 0.99263766519 -0.10655852348 -0.077010719483 0.9934425003 -0.078137085596 -0.056822243102 0.99510069526 -0.074175447489 
-0.18678796383 0.95505864727 -0.20335198433 
Motion 1 1114 double
0.87168919445 0.82696348596 0.9268790846 0.96466074248 0.78152498597 0.87944601943 0.7283352404 0.84158442837 0.68855336194 
0.7981337165 0.67517099142 0.75663189969 0.66746946291 0.73925033613 0.71847600052 0.78641946686 0.80054321489 0.85376333061 
0.91240667602 0.95291243481 1.0486825567 1.0712896817 1.1856640185 1.1755057526 1.2557621175 1.2434830544 1.3005917983 
1.26717077 1.2826238315 1.2517604691 1.2267937575 1.182079221 1.1489868738 1.1110783633 1.0670661122 1.0271304959 
0.98725950458 0.96023814474 0.914620194 0.90341853835 0.85056006413 0.84247733939 0.77767366503 0.77720664195 0.67789190606 
0.69254014905 0.56020836605 0.59095064224 0.43108498782 0.47042515956 0.30084548458 0.35118302187 0.21926131192 0.26934345372 
0.19676307902 0.21985216477 0.27614827285 0.2529980964 0.44628980843 0.39065621132 0.65564410945 0.57971872181 0.86561093645 
0.76573267195 1.0467628592 0.93069655816 1.1801592946 1.0551287432 1.2568757437 1.1242478437 1.2686477485 1.1247460516 
1.2151664773 1.1061448964 1.1345073443 1.0763616267 1.0595339864 1.043499965 1.0000854494 1.0334918801 0.95263980891 
1.015250256 0.91131081965 0.97819198715 0.63050202438 0.65374056006 0.59746988763 0.58445037159 0.67170584277 0.61046555796 
0.67434035686 0.61575151384 0.67419101111 0.62003658524 0.67159173661 0.62424440601 0.67905206879 0.62481502769 0.69209426117 
0.62518393188 0.71323086682 0.62648733802 0.71227032449 0.62010597081 0.6991763727 0.61395485939 0.6725865662 0.60427162012 
0.67610138833 0.61019634417 0.67915832757 0.61378492622 0.67927859275 0.61837766584 0.67466895417 0.61371376818 0.64898405189 
0.59337329607 0.61401903129 0.56582274206 0.59286496788 0.53963485943 0.56476932377 0.50597386663 0.53167507711 0.46395384199 
0.48953069088 0.43689539087 0.45991506253 0.411193671 0.4353064589 0.38628772993 0.3997945866 0.35573805386 0.37563762493 
0.34744881581 0.35880744898 0.33409820161 0.35588426559 0.32611536802 0.35060613818 0.32191709183 0.34192068094 0.33600688688 
0.36096520612 0.34346541559 0.38466164592 0.34805132121 0.38545564215 0.34972577523 0.37723810627 0.35011029007 0.35981936953 
0.34238571736 0.36231666083 0.32440458161 0.37130978066 0.31597739343 0.39576193916 0.33867594653 0.42238752416 0.37146464827 
0.45072676619 0.40856635587 0.47007777411 0.43753578261 0.47831900904 0.45440981287 0.46906193948 0.45743838837 0.44900924009 
0.42965229611 0.42531739972 0.39272630813 0.41195294364 0.37286782451 0.39017792953 0.35317242562 0.35003730303 0.32089689107 
0.32274447917 0.30086771537 0.30605208992 0.29238358259 0.30768883825 0.28865483163 0.3143050928 0.28719700805 0.32831848145 
0.30600007341 0.35117579101 0.33372764537 0.39891350459 0.3799467539 0.45266485141 0.42714346142 0.51253372319 0.46974663762 
0.57165916318 0.52744577611 0.95550330782 0.9985571439 0.92494025972 0.90521541609 0.83158545735 0.80219772139 0.81845112472 
0.89501238156 0.99438088223 1.0968729807 1.187729126 1.2466529549 1.2532606137 1.2379552745 1.1672180926 1.0661062154 
0.96997091203 0.89732239742 0.84270505628 0.80497894473 0.7568930738 0.69229509794 0.60850526492 0.49180371566 0.40500441033 
0.34299151567 0.30465668706 0.33923764309 0.4377353753 0.58615162173 0.73139548542 0.86702394154 0.96035811525 1.0060269199 
1.0137787387 1.0061803874 1.007766571 1.0143281384 1.0541254546 1.0605338061 1.0429011102 1.0203046685 0.54787670428 
0.52503282312 0.57049253772 0.58209417876 0.58415942891 0.58017270321 0.57528878277 0.57238869365 0.56701544065 0.56875045902 
0.5667809246 0.5748182786 0.58866123781 0.57932645232 0.57756095167 0.56877972517 0.53657860992 0.49796030764 0.46436508691 
0.44044899381 0.42254356313 0.40003736089 0.37165128144 0.34973302507 0.33201260767 0.33577976338 0.31296738568 0.29999561718 
0.31592897193 0.31771520751 0.32313379756 0.32642633551 0.32609695742 0.3287036876 0.30242263126 0.30318163653 0.30966924337 
0.33912800074 0.37949394981 0.41080804317 0.42718280747 0.42651553731 0.41328878834 0.39439984316 0.36350020021 0.34487337881 
0.32852902397 0.3143688496 0.28969460498 0.28318684085 0.2795294757 0.28660936145 0.30157397362 0.33912465826 0.37792344346 
0.42464002086 0.46523441136 0.50514262348 0.34003940445 0.3465716068 0.85292090591 0.90664743575 0.82895077769 0.84269134571 
0.90947599894 0.99716821761 1.0906124986 1.1750929539 1.2263746988 1.233983913 1.203683045 1.1152170126 1.0114536644 
0.90431677221 0.79843867043 0.76286550404 0.72814167026 0.69875208752 0.66513169063 0.62452326979 0.57504876359 0.4306895622 
0.46047121233 0.41429293005 0.44333878355 0.51036679229 0.62022398621 0.72685034491 0.80617657665 0.86219193239 0.88741632773 
0.88638832067 0.8998823955 0.91115348495 0.93613168404 1.0347020606 1.0494817193 1.0484440425 1.0350272027 1.0325658819 
1.012331719 0.50648715568 0.54061403416 0.32931858137 0.34766571734 0.31793120401 0.30615585373 0.29533096253 0.29288292123 
0.30534472583 0.3074553373 0.3109843044 0.29050317454 0.31302743204 0.28532240425 0.28078783665 0.31602555438 0.35669259054 
0.3970106424 0.41895550015 0.42404821384 0.43615775441 0.41465010028 0.40480862945 0.39144451008 0.37575694442 0.36291467344 
0.35142280948 0.32617864994 0.30412855115 0.2803632618 0.28180201453 0.29772990573 0.32755333389 0.36916560171 0.39785859793 
0.43978237614 0.47767730354 0.5024330447 0.52806908589 0.54582374302 0.55186313885 0.54840451558 0.55042504008 0.55555039835 
0.56018075056 0.56173800836 0.56102963493 0.56414675984 0.56934162824 0.57979367473 0.56900951439 0.55091809714 0.5078649502 
0.48243075871 0.45572779924 0.43687571585 0.42128777167 0.4034929391 0.38394040962 0.36855936738 0.36902200045 0.36891752081 
0.33133032548 0.36141821822 0.32108489146 0.30669659999 0.50811758136 0.51332839791 0.48962974962 0.48028312257 0.48048103856 
0.52384864356 0.58638551692 0.66061089108 0.73693525658 0.78169334212 0.78209480404 0.77860911908 0.76034008945 0.75498435245 
0.7549469306 0.74657761622 0.98163084117 0.94624082211 0.99627481667 0.99204535462 1.0060317214 1.0062750449 0.83735068053 
0.88324385021 0.81122557461 0.80755631137 0.85917585212 0.94256539744 1.0303249871 1.1104000945 1.1718883803 1.1862503508 
1.1341738204 1.0500134183 0.92495917458 0.82189854425 0.73209462254 0.67057367193 0.64088792173 0.62339657896 0.62980112998 
0.60624298484 0.58517889826 0.53606972821 0.47441945272 0.44126908328 0.38572088062 0.46341383184 0.9491548953 0.90854715418 
0.94397770809 0.91431253618 0.82975946306 0.67405035842 0.30055956786 0.27343072462 0.25957110851 0.26723864046 0.27495302346 
0.27762742702 0.26101736128 0.28469757008 0.24563983674 0.31402599059 0.30699955914 0.29558160642 0.28179803012 0.2699888547 
0.2933690081 0.32946993104 0.36882531533 0.41747512947 0.43812544824 0.46160375329 0.47489739952 0.47048954328 0.46523388034 
0.46095628277 0.44746994621 0.43231701699 0.39405338812 0.35677811962 0.32296701822 0.30625198317 0.31193629848 0.33595555758 
0.37310868414 0.4138944097 0.41533341205 0.44044058698 0.46201665478 0.48342391798 0.50159613217 0.5185112433 0.53410956766 
0.54932305361 0.5595381377 0.5676004393 0.57202218329 0.57291063371 0.56844108285 0.5721522517 0.57097082782 0.56451390607 
0.55351198365 0.47355874997 0.50751797194 0.4445429661 0.42601919519 0.41562573772 0.40733046673 0.39279035821 0.3925935033 
0.39297163935 0.37737987584 0.35438389027 0.32241716597 0.2954178194 0.30878645288 0.26453126412 0.22905283382 0.21484669695 
0.2174728545 0.22753067842 0.36142020234 0.39674545738 0.32013822386 0.2574567217 0.21895111862 0.15974706245 0.23841919689 
0.22947514021 0.19767684658 0.16052304961 0.14487952863 0.14242595109 0.18611636665 0.53137143075 0.52940125945 0.4627548805 
0.47080151925 0.49177816349 0.52810496973 0.58037993381 0.6423932838 0.67413173938 0.68244297503 0.6752204946 0.65474733791 
0.61602427029 0.61463096828 0.59285584643 0.56964739086 0.52935893485 0.57163946154 0.45011858557 0.7040981317 0.82650295037 
0.88462595183 0.92218373259 0.93419814311 0.93851463604 0.95013067662 0.9836565489 0.93229687569 0.96418767049 0.90875719681 
0.88002590823 0.84571750683 0.82890637715 0.81118592906 0.76933989964 0.74294448428 0.72234765915 0.74823022104 0.83281542968 
0.91905379685 0.99310098389 1.0660200936 1.0651032129 1.0244792074 0.83428962798 0.93002646557 0.73813105692 0.64142364929 
0.58375870529 0.55583570757 0.54326640395 0.55545266157 0.55634240621 0.52582782066 0.46379781398 0.39018215497 0.29990210799 
0.29370929455 0.2122166884 0.33257809812 0.35847061099 0.97711616556 0.91212338011 0.19218825154 0.22158324338 0.23210102527 
0.16775142935 0.27455660419 0.28887128304 0.29175220327 0.29937564343 0.28137394777 0.25949721676 0.26720716971 0.28296468472 
0.32760249688 0.38359753905 0.4496906995 0.50996106431 0.53858801025 0.55569944667 0.55406406491 0.54736975482 0.52956572674 
0.50058152268 0.45942306946 0.41110434547 0.35947432073 0.3301593903 0.33430011034 0.36884302201 0.4337503096 0.4706535841 
0.40715338054 0.43182560852 0.42131277943 0.43396107725 0.46269031141 0.49705969358 0.52405238187 0.55213947943 0.5822712563 
0.59210361746 0.59121807114 0.57349815812 0.56554081633 0.56388254735 0.55904931715 0.55307267465 0.54572223757 0.519453191 
0.48886757221 0.47344869898 0.50100465678 0.49036344941 0.46034241553 0.43399888793 0.41172203256 0.40479965012 0.40616820451 
0.45140166242 0.45569446787 0.14793100935 0.10463841284 0.16836579275 0.086926856488 0.2328916363 0.26426978898 0.28849949967 
0.29471814667 0.29571849129 0.27520885189 0.2522585668 0.22770560377 0.22041644797 0.28226660464 0.34716879416 0.42518085708 
0.4992608785 0.56964889656 0.59626712169 0.5970162978 0.58590796329 0.56202199162 0.52731379032 0.46779409365 0.41475976202 
0.36605331425 0.33974731465 0.35032155306 0.38593405431 0.44987642614 0.45575820583 0.41988774412 0.40121893614 0.3408063274 
0.40898221415 0.39300381682 0.37707620808 0.37908207187 0.38643771224 0.42165819333 0.45694270514 0.49752966051 0.53781780264 
0.57537227427 0.58214120417 0.58238126558 0.55577651958 0.54153926885 0.52931028896 0.52727973877 0.52335686225 0.4626453234 
0.38842414297 0.35205497191 0.42409531337 0.45816046629 0.46304216948 0.42901208929 0.39349627889 0.37289073413 0.37363176583 
0.38186567003 0.40003288826 0.42827159921 0.47954385306 0.52839581796 0.56804532559 0.57969536784 0.56463953895 0.52481735541 
0.49258608538 0.46505090506 0.45282829286 0.449696099 0.44652674526 0.44635376943 0.35322561179 0.3336402365 0.25269531537 
0.47198626853 0.59167193348 0.71324462642 0.7759242096 0.81991646969 0.82807406778 0.83602538289 0.84156077322 0.81227595695 
0.78308513754 0.74495929771 0.7171694902 0.69003537193 0.67200732938 0.63884352687 0.60118781591 0.58020861081 0.59924845772 
0.66577172316 0.76034740432 0.86449471294 0.92249325946 0.91591394908 0.87006374387 0.76708735703 0.74895399288 0.6257193722 
0.82499521066 0.78174364674 0.70583168933 0.62021110037 0.53538492664 0.48363387508 0.45348537539 0.43234226652 0.44941056108 
0.46022729401 0.41534173526 0.35012442705 0.27163951336 0.2100340822 0.19105793518 0.1564180594 0.16980478808 0.22435189251 
0.23254480718 0.25322050243 0.26761343185 0.27991602174 0.25230282134 0.2238764141 0.20692087235 0.19319694721 0.23407040609 
0.28146258883 0.33348360911 0.35950143411 0.54794842556 0.51989863455 0.55494886323 0.5484738501 0.51837748182 0.48210251512 
0.43509364738 0.38439942145 0.32872299815 0.29538062002 0.30654094893 0.33139823475 0.36548546617 0.36998460857 0.30995085651 
0.21845475025 0.22801452692 0.13787944945 0.29952890844 0.33455469925 0.34477128414 0.34087679543 0.33566458245 0.33767611683 
0.36790888788 0.40058380405 0.45151757537 0.50102203816 0.53551829083 0.54523497086 0.51405478844 0.54165867497 0.47927346307 
0.45378813943 0.45851659191 0.48519928616 0.33731864593 0.33619362871 0.2145644505 0.18854147008 0.25502665241 0.32354521498 
0.39342353394 0.27243531043 0.29795748595 0.34206529615 0.38732995643 0.42562042891 0.44645268821 0.42785672087 0.4043912956 
0.37677712962 0.34526599716 0.33813998298 0.34113494816 0.3237801407 0.32057928429 0.24103337034 0.19175982172 0.20936407409 
0.25105594363 0.3428936609 0.46249045801 0.56080988626 0.60378614879 0.65371300776 0.67027427128 0.6670663869 0.61657353897 
0.6172235551 0.60051835773 0.57335457735 0.54316082447 0.51417116619 0.48968956196 0.4570414009 0.42417067995 0.40127890157 
0.42338832922 0.52932536615 0.63751692069 0.7526418373 0.79986434475 0.77933766199 0.70260462417 0.59601818478 0.45548705162 
0.45133519457 0.31233829732 0.58595981025 0.65102051129 0.64652818468 0.5666519902 0.47340599118 0.38524303154 0.34481244782 
0.33615976467 0.28051516526 0.33512162898 0.37026209699 0.30823047693 0.24469999613 0.20427165295 0.18017551811 0.19670382177 
0.22825283009 0.15565999415 0.26794811903 0.13038685104 0.33132650022 0.26927672658 0.19158091459 0.16626977403 0.16428781167 
0.15821467299 0.16027918569 0.16557932328 0.14093788065 0.10938125422 0.096570266499 0.10829092812 0.07295537974 0.083852364119 
0.11159596655 0.17818265553 0.158987132 0.23619541261 0.15536518227 0.13527509344 0.20772363297 0.27763551892 0.30657641506 
0.30663360079 0.30101666044 0.30422177692 0.31008519551 0.32732203496 0.36725011756 0.32634107429 0.28757811429 0.23644525066 
0.2748577806 0.28833139347 0.17113427373 0.16400276914 0.22834807053 0.30933421706 0.39547021335 0.37426475315 0.47125692706 
0.49847596648 0.48703809898 0.42701071391 0.38613667453 0.39163636109 0.35259204321 0.33817309985 0.32644820194 0.32539325735 
0.30828574697 0.28882507314 0.28787164212 0.2696587993 0.51303081879 0.39993817197 0.6155304513 0.61840657798 0.60132377901 
0.50708512562 0.40840699605 0.31728012815 0.19407590854 0.36190697255 0.28037767604 0.55834656841 0.51333227061 0.34793331096 
0.31595625225 0.28522491146 0.24761022307 0.20862407324 0.18358126362 0.23679947822 0.23510724834 0.21883244106 0.1979115395 
0.18139762927 0.18718022724 0.21416299169 0.23629825239 0.26733113981 0.25924427183 0.3361374997 0.42349132658 0.44321309268 
0.45373192492 0.4408456219 0.42245965179 0.40319982999 0.37812230358 0.33415806795 0.29119735148 0.23581628531 0.20135173439 
0.18912131028 0.18614711109 0.22104333836 0.2286614171 0.18959599172 0.11059890982 0.10918158657 0.15265538971 0.13157468475 
0.19251434828 0.24967429943 0.28105324062 0.26320939688 0.11754994613 0.19713929576 0.32559856381 0.43222740513 0.52584506863 
0.48732581407 0.37118504918 0.29016746531 0.20863094748 0.225191809 0.24035508887 0.32194403275 0.375834916 0.42758243652 
0.46750087742 0.49792263287 0.44531618551 0.46466103066 0.38845895446 0.50772724595 0.48231597642 0.44591865274 0.39850386415 
0.34710863839 0.18939302646 0.10264720663 0.16121692538 0.066576013187 0.11100883799 0.15116066113 0.16669172087 0.18667937352 
0.17036653454 0.34320566446 0.32951903695 0.31404077669 0.30422241755 0.2999587187 0.29838958105 0.29349060197 0.26650915518 
0.22295882094 0.17077858 0.087869763771 0.069044914922 0.11464842714 0.098698001345 0.15334892118 0.15027751443 0.1925090417 
0.22949497771 0.22489173498 0.25109112707 0.29345525165 0.28506305865 0.27274319654 0.25055179672 0.3048056764 0.39688155215 
0.46023395516 0.45880637152 0.40630392025 0.32775617982 0.26488737723 0.20952315384 0.41130536553 0.35904141653 0.28112746435 
0.19092051577 0.25609838338 0.18707227699 0.3163242987 0.27607461427 0.34039536043 0.3269528544 0.22591235269 0.33161404728 
0.22532059377 0.2173388597 0.23093356288 0.33028503403 0.28681860764 0.15307285923 0.13207306441 0.18472063914 0.98058323162 
0.96768978579 0.24134681465 0.12532075243 0.14261833098 0.093500593529 0.085627387758 0.19371293215 
Normal 3 1114 float
-0.606662 -0.204127 -0.768305 -0.716988 -0.24069 -0.650222 -0.719653 -0.377757 -0.568437 
-0.569196 -0.383949 -0.719813 -0.864667 -0.211203 -0.421573 -0.8239 -0.398528 -0.3669 
-0.960507 -0.154659 -0.18257 -0.908771 -0.378913 -0.119889 -0.990551 -0.0970608 0.0153075 
-0.933725 -0.332738 0.0795221 -0.98474 -0.0571394 0.158745 -0.939615 -0.281661 0.16565 
-0.966866 -0.0498697 0.250028 -0.920411 -0.274999 0.255902 -0.922533 -0.108176 0.3622 
-0.893392 -0.285022 0.340941 -0.888995 -0.155513 0.428822 -0.862089 -0.273062 0.42405 
-0.845068 -0.17065 0.501424 -0.805722 -0.277372 0.520369 -0.776552 -0.152595 0.608363 
-0.726247 -0.270982 0.628004 -0.676957 -0.12683 0.718228 -0.6092 -0.236765 0.753369 
-0.494425 -0.0941945 0.860974 -0.456426 -0.218506 0.859548 -0.335104 -0.140484 0.928636 
-0.299618 -0.233333 0.923074 -0.16645 -0.0804568 0.978896 -0.131144 -0.221618 0.962709 
-0.0347424 -0.0386807 0.998008 -0.00791336 -0.23688 0.967678 0.0487433 -0.0113271 0.997575 
0.0576342 -0.235401 0.964476 0.19246 0.0398028 0.975388 0.197679 -0.239578 0.940115 
0.280663 0.0807884 0.956252 0.309305 -0.261801 0.905796 0.300032 0.141513 0.940748 
0.357345 -0.223761 0.894506 0.349504 0.236278 0.903033 0.432624 -0.114223 0.882932 
0.57104 0.258756 0.77003 0.584222 -0.0675814 0.79606 0.71683 0.230879 0.648428 
0.699904 -0.114421 0.688922 0.834723 0.202665 0.493982 0.8053 -0.199234 0.525624 
0.931484 0.165046 0.301304 0.899658 -0.269001 0.296601 0.99202 0.0705452 0.0917843 
0.965597 -0.226181 -0.00205233 0.977351 -0.0271462 -0.160818 0.949101 -0.192911 -0.225975 
0.935092 -0.0236129 -0.339078 0.90642 -0.166003 -0.377109 0.88639 -0.0196742 -0.45827 
0.858051 -0.143359 -0.48803 0.83938 -0.0366508 -0.540528 0.815013 -0.132693 -0.561427 
0.790178 -0.0323276 -0.611494 0.765082 -0.117771 -0.630259 0.712512 -0.0195076 -0.69897 
0.682467 -0.127604 -0.715307 0.600981 -0.0618401 -0.79015 0.570004 -0.143837 -0.803469 
0.474897 -0.0938417 -0.870193 0.450192 -0.170726 -0.87351 0.352246 -0.0983813 -0.929812 
0.338697 -0.191268 -0.919212 0.263851 -0.111278 -0.957935 0.239652 -0.212952 -0.945578 
0.169559 -0.114467 -0.977961 0.1177 -0.206541 -0.968273 0.0738376 -0.0924268 -0.991556 
0.0342608 -0.189499 -0.978104 -0.0257568 -0.0933229 -0.993664 -0.055781 -0.18408 -0.976694 
-0.141914 -0.113207 -0.980469 -0.171705 -0.166963 -0.968239 -0.278259 -0.133886 -0.947076 
-0.278777 -0.202475 -0.929122 -0.431323 -0.15667 -0.883288 -0.433217 -0.313782 -0.83276 
-0.233011 -0.139776 -0.962376 -0.0655521 -0.158123 -0.974411 -0.0296958 -0.0508377 -0.99148 
-0.155781 -0.0151469 -0.986468 0.0683405 -0.161332 -0.983961 0.0812451 -0.0856362 -0.992025 
0.104646 -0.120535 -0.986288 0.127799 -0.117128 -0.984034 0.150497 -0.11647 -0.980614 
0.175517 -0.159942 -0.969387 0.204749 -0.144732 -0.967898 0.228532 -0.227878 -0.946257 
0.290749 -0.165868 -0.939523 0.302103 -0.232379 -0.922563 0.383763 -0.177526 -0.903177 
0.380323 -0.225302 -0.894721 0.485302 -0.174582 -0.855382 0.467698 -0.202437 -0.859481 
0.614078 -0.143654 -0.766517 0.555487 -0.108428 -0.816929 0.70912 -0.0696362 -0.695503 
0.620396 0.0136269 -0.777841 0.745549 0.0643168 -0.661845 0.642238 0.168534 -0.744061 
0.750904 0.143591 -0.642502 0.683114 0.253705 -0.680055 0.792657 0.166306 -0.579105 
0.739956 0.310459 -0.588294 0.868843 0.140338 -0.473655 0.819271 0.323201 -0.463257 
0.913971 0.129489 -0.378908 0.85997 0.333169 -0.375701 0.940502 0.160984 -0.289432 
0.880951 0.34496 -0.315325 0.950682 0.225326 -0.183929 0.900763 0.364958 -0.232806 
0.931358 0.334462 0.01876 0.915737 0.36852 -0.0101922 0.910173 0.331759 0.203913 
0.900218 0.35836 0.20427 0.885365 0.274331 0.370575 0.857816 0.331592 0.38948 
0.845324 0.215813 0.48149 0.807586 0.292573 0.502711 0.807503 0.199256 0.553218 
0.772777 0.238444 0.585471 0.771585 0.205574 0.601617 0.755769 0.178817 0.62757 
0.739912 0.212511 0.637471 0.743905 0.183943 0.641656 0.676403 0.219252 0.697773 
0.688411 0.174546 0.70047 0.591896 0.228175 0.772051 0.623936 0.208876 0.752708 
0.456328 0.298059 0.828677 0.530277 0.300892 0.783255 0.351949 0.362391 0.861069 
0.433907 0.391759 0.808785 0.292699 0.418691 0.858398 0.338373 0.501113 0.791341 
0.236171 0.451338 0.859086 0.259658 0.554724 0.787436 0.175508 0.479944 0.858238 
0.186713 0.578217 0.791946 0.0841169 0.527629 0.841581 0.0922984 0.589409 0.795971 
0.0284355 0.537114 0.842494 -0.0623223 0.567668 0.806029 0.00921533 0.507593 0.861346 
-0.344662 0.484156 0.797435 -0.293003 0.414505 0.802187 -0.497483 0.440634 0.73531 
-0.589095 0.319125 0.741825 -0.608176 0.396332 0.686185 -0.614033 0.266357 0.741787 
-0.638656 0.341001 0.686261 -0.633072 0.208352 0.744007 -0.658704 0.296371 0.689262 
-0.647578 0.146165 0.747801 -0.672231 0.259587 0.69049 -0.721911 0.089069 0.680234 
-0.729613 0.226064 0.640841 -0.79448 0.0471274 0.598943 -0.793649 0.195168 0.570662 
-0.86427 0.0290542 0.496038 -0.853948 0.16874 0.487041 -0.902198 0.050651 0.423803 
-0.883623 0.165799 0.434995 -0.926984 0.0885116 0.363803 -0.898339 0.170154 0.40168 
-0.938071 0.141633 0.309355 -0.906686 0.238509 0.342571 -0.952062 0.179893 0.217952 
-0.922025 0.268891 0.263659 -0.972395 0.185698 0.0458535 -0.947593 0.275622 0.0822197 
-0.965892 0.198994 -0.112088 -0.949798 0.27407 -0.0977894 -0.937246 0.21847 -0.258349 
-0.932202 0.251979 -0.245923 -0.881673 0.206662 -0.401468 -0.89065 0.228417 -0.377423 
-0.820184 0.187216 -0.540284 -0.830834 0.222729 -0.508936 -0.780885 0.175452 -0.596425 
-0.769579 0.242848 -0.585228 -0.735193 0.163325 -0.655288 -0.718568 0.24296 -0.649152 
-0.671514 0.150176 -0.721809 -0.656713 0.213616 -0.719028 -0.598677 0.123676 -0.786459 
-0.574639 0.182391 -0.792388 -0.516524 0.083594 -0.849206 -0.47515 0.131143 -0.866396 
-0.384286 -0.0166562 -0.906775 -0.314509 0.0518873 -0.933474 -0.714934 -0.568413 -0.383394 
-0.572946 -0.575366 -0.569166 -0.856799 -0.492946 -0.109492 -0.893737 -0.43695 0.0925706 
-0.894278 -0.411484 0.172168 -0.87919 -0.382582 0.281107 -0.867367 -0.31422 0.383734 
-0.852393 -0.277863 0.440502 -0.808592 -0.272737 0.516641 -0.734235 -0.265406 0.617457 
-0.612339 -0.282038 0.734188 -0.462741 -0.294496 0.833843 -0.306765 -0.295879 0.90228 
-0.157817 -0.334516 0.926488 -0.0282673 -0.368456 0.927326 0.0485253 -0.388125 0.918222 
0.176401 -0.41786 0.888196 0.294255 -0.469994 0.831725 0.350232 -0.486918 0.7997 
0.443104 -0.485372 0.750239 0.524847 -0.494493 0.68799 0.600436 -0.505743 0.612289 
0.705324 -0.533387 0.452369 0.851097 -0.482215 0.153566 0.940961 -0.30756 -0.127139 
0.918185 -0.270474 -0.285771 0.880625 -0.253209 -0.396507 0.841036 -0.240123 -0.481623 
0.79855 -0.228865 -0.554209 0.757696 -0.213336 -0.615603 0.693157 -0.21023 -0.687994 
0.58573 -0.21789 -0.776209 0.46445 -0.247443 -0.846347 0.355118 -0.276553 -0.891041 
0.241375 -0.312175 -0.916449 0.108905 -0.337105 -0.930727 0.0224391 -0.35306 -0.930291 
-0.0496132 -0.393566 -0.907173 -0.151345 -0.373928 -0.901487 -0.161107 -0.41709 -0.875726 
-0.245615 -0.514983 -0.784362 -0.433965 -0.581331 -0.676946 0.0776866 0.0447246 -0.994015 
-0.0295619 0.0782818 -0.992755 0.159955 0.0157709 -0.986032 0.220569 -0.038941 -0.972415 
0.261872 -0.0937086 -0.959989 0.302547 -0.125623 -0.94292 0.353859 -0.12689 -0.924035 
0.40933 -0.103784 -0.90304 0.463502 -0.043462 -0.882208 0.489203 0.0831557 -0.85942 
0.525524 0.21621 -0.818338 0.578908 0.330301 -0.737499 0.67166 0.406847 -0.613155 
0.759898 0.455358 -0.452279 0.810611 0.463357 -0.355333 0.838185 0.452158 -0.304088 
0.867789 0.439532 -0.220679 0.906062 0.411758 -0.0454299 0.893743 0.396789 0.160772 
0.845006 0.400914 0.345015 0.783794 0.3972 0.470161 0.724051 0.359792 0.58394 
0.701911 0.288058 0.650478 0.713676 0.246192 0.655557 0.68402 0.24192 0.687565 
0.70885 0.220658 0.668715 0.629203 0.3172 0.704116 0.559683 0.411145 0.715172 
0.459616 0.543965 0.694898 0.332041 0.639498 0.68793 0.215219 0.689569 0.689485 
0.0900679 0.703119 0.698619 -0.132949 0.677091 0.707716 -0.311671 0.632176 0.701889 
-0.489891 0.581663 0.641817 -0.568561 0.556469 0.602553 -0.616253 0.531918 0.577222 
-0.643763 0.492506 0.57809 -0.669273 0.427012 0.606822 -0.706129 0.381036 0.593566 
-0.770197 0.328594 0.54126 -0.838574 0.274692 0.464625 -0.878974 0.212693 0.420267 
-0.903925 0.165229 0.393745 -0.909361 0.140891 0.386977 -0.914652 0.189068 0.336688 
-0.912273 0.259845 0.286787 -0.896283 0.29449 0.155613 -0.921166 0.259315 -0.232122 
-0.894999 0.22709 -0.376699 -0.853176 0.221607 -0.468984 -0.799782 0.223062 -0.553285 
-0.74327 0.234632 -0.622945 -0.677998 0.246632 -0.690058 -0.58538 0.228913 -0.770713 
-0.482283 0.206982 -0.8495 -0.329767 0.159047 -0.922897 -0.177162 0.12186 -0.973269 
0.718326 0.231354 0.655609 0.72586 0.212015 0.653849 -0.91183 -0.341685 0.218888 
-0.901967 -0.399866 0.161303 -0.903384 -0.284701 0.310417 -0.876191 -0.246812 0.407818 
-0.854449 -0.219614 0.467 -0.834554 -0.154897 0.523031 -0.779538 -0.145433 0.604912 
-0.660289 -0.192914 0.720193 -0.512275 -0.257539 0.813193 -0.350025 -0.324606 0.876277 
-0.224432 -0.391249 0.889778 -0.0787175 -0.447954 0.888628 0.0156832 -0.476615 0.877825 
0.103035 -0.491533 0.863416 0.233859 -0.50982 0.827463 0.315957 -0.534201 0.783271 
0.396902 -0.554151 0.729101 0.487064 -0.567437 0.662019 0.570733 -0.556496 0.602505 
0.721997 -0.493603 0.472832 0.850949 -0.405884 0.286171 0.890973 -0.3426 -0.292154 
0.906221 -0.373056 -0.179697 0.851847 -0.341649 -0.391681 0.80222 -0.334453 -0.486589 
0.75702 -0.310656 -0.570864 0.72345 -0.284309 -0.626106 0.657859 -0.281453 -0.69515 
0.566769 -0.291377 -0.766535 0.465308 -0.322821 -0.822325 0.377241 -0.347186 -0.857467 
0.28691 -0.385861 -0.875513 0.170982 -0.443348 -0.877049 0.0869668 -0.537601 -0.833553 
0.0589614 -0.695273 -0.710989 0.0033874 -0.731341 -0.657261 0.0377745 -0.770221 -0.607985 
-0.118527 -0.844895 -0.495768 -0.353144 -0.826493 -0.419867 -0.520287 -0.747261 -0.386245 
-0.643755 -0.682848 -0.32207 0.909508 -0.397016 -0.074929 0.910314 -0.372068 0.151704 
0.708145 0.255423 0.656283 0.73693 0.159043 0.655691 0.700887 0.263757 0.660723 
0.650034 0.356784 0.661959 0.58938 0.410566 0.687283 0.48437 0.498807 0.707339 
0.333094 0.601729 0.716564 0.182159 0.624838 0.750168 0.0216805 0.572924 0.811334 
-0.470333 0.632842 0.612297 -0.328927 0.632616 0.690337 -0.543734 0.6261 0.554954 
-0.599017 0.621194 0.504414 -0.644718 0.585482 0.489058 -0.682157 0.532971 0.496516 
-0.713647 0.480567 0.506802 -0.788318 0.376414 0.464719 -0.885596 0.238758 0.389577 
-0.924975 0.115634 0.353093 -0.921692 0.0532425 0.382321 -0.910748 0.0376106 0.40915 
-0.905887 0.0457398 0.418224 -0.901533 0.0570695 0.428161 -0.933989 0.0896093 0.156003 
-0.970024 0.122614 -0.197207 -0.925454 0.151732 -0.32858 -0.873607 0.177309 -0.44948 
-0.816299 0.214624 -0.534667 -0.748244 0.229232 -0.618189 -0.667522 0.230709 -0.704309 
-0.568878 0.215847 -0.788149 -0.452714 0.200932 -0.866275 -0.313757 0.185179 -0.9234 
-0.14516 0.161536 -0.971441 0.000271763 0.154789 -0.984837 0.112159 0.113023 -0.983946 
0.205674 0.0697285 -0.974002 0.264719 0.0416421 -0.962166 0.298657 0.01405 -0.952933 
0.313934 0.0118581 -0.948331 0.339469 0.0192716 -0.938942 0.366871 0.0475932 -0.928346 
0.364396 0.117995 -0.920902 0.380297 0.196453 -0.901381 0.410505 0.267683 -0.870297 
0.499279 0.328462 -0.793785 0.606513 0.379757 -0.691943 0.722368 0.42698 -0.532845 
0.807804 0.432596 -0.389055 0.867026 0.409494 -0.278765 0.879672 0.427145 -0.206105 
0.907803 0.397249 -0.0152485 0.902885 0.378193 0.170911 0.863695 0.371425 0.331258 
0.787607 0.360245 0.483517 0.712868 0.331246 0.616953 0.681183 0.296895 0.666241 
0.658473 0.249898 0.709725 0.706928 0.143645 0.691229 0.731777 0.086133 0.674609 
0.762413 0.175513 0.621801 0.761008 0.0490259 0.645845 -0.213435 0.588557 0.768868 
-0.0773569 0.442831 0.884781 0.882505 -0.459792 -0.0563786 0.825484 -0.546864 0.0579021 
0.826274 -0.527907 -0.16511 0.784402 -0.546097 -0.28088 0.754627 -0.536506 -0.370387 
0.728047 -0.500443 -0.456604 0.694723 -0.469462 -0.534933 0.666103 -0.432251 -0.603027 
0.634253 -0.397095 -0.658355 0.554352 -0.382888 -0.734383 0.472187 -0.39496 -0.784958 
0.387407 -0.447767 -0.804822 0.295501 -0.506368 -0.807728 0.230002 -0.576922 -0.780035 
0.195129 -0.659158 -0.723968 0.209947 -0.729373 -0.648456 0.125648 -0.893669 -0.423647 
0.158781 -0.885175 -0.43254 -0.0480813 -0.900331 -0.401213 -0.292495 -0.90519 -0.286011 
-0.484794 -0.840207 -0.23838 -0.593524 -0.778675 -0.185684 -0.92232 -0.22561 0.307985 
-0.911225 -0.307466 0.262021 -0.912977 -0.16719 0.369051 -0.886118 -0.145842 0.438836 
-0.8475 -0.116794 0.51554 -0.824169 -0.10905 0.555229 -0.787626 -0.12421 0.600822 
-0.715832 -0.189254 0.666218 -0.573077 -0.31428 0.751363 -0.400354 -0.420131 0.812325 
-0.248104 -0.540025 0.798947 -0.0660187 -0.515348 0.853031 0.0337076 -0.505393 0.861039 
0.133548 -0.502441 0.85356 0.222736 -0.490562 0.841586 0.305775 -0.4773 0.821723 
0.397036 -0.458591 0.790729 0.50058 -0.43433 0.741016 0.606556 -0.408184 0.672304 
0.729077 -0.34837 0.574736 0.869808 -0.288226 0.384325 0.887215 -0.297521 0.326949 
0.882636 -0.313974 0.324194 0.828039 -0.545057 0.104298 0.837433 -0.460161 0.25067 
0.750309 -0.655855 -0.0371612 -0.890858 -0.419183 0.171117 -0.853559 -0.44856 0.244785 
-0.801632 -0.556499 0.178663 -0.785609 -0.562794 0.233467 0.169472 -0.841155 -0.508225 
0.252581 -0.75297 -0.603617 0.71552 0.295883 0.632007 0.62802 0.356121 0.67934 
0.51814 0.411884 0.735761 0.368074 0.451611 0.799708 0.217761 0.463043 0.845281 
0.109697 0.427439 0.885731 0.0147725 0.327856 0.941418 -0.139434 0.311443 0.934106 
-0.0760765 0.246934 0.961121 -0.260342 0.438968 0.846452 -0.397151 0.561041 0.718478 
-0.499101 0.614801 0.604191 -0.581077 0.6056 0.536931 -0.658002 0.572241 0.488432 
-0.694654 0.541964 0.471014 -0.728173 0.494987 0.469068 -0.807083 0.399679 0.421326 
-0.891372 0.268051 0.337667 -0.95306 0.0891797 0.269021 -0.954549 0.0306725 0.291304 
-0.938356 0.00310557 0.341684 -0.911229 -0.00609479 0.409585 -0.930178 0.00879752 0.332625 
-0.970391 0.0122432 0.200261 -0.989805 0.0320063 0.0017536 -0.974259 0.0697479 -0.192581 
-0.931589 0.132965 -0.326783 -0.881077 0.181723 -0.435007 -0.812939 0.233729 -0.525083 
-0.734595 0.27159 -0.614129 -0.63999 0.293202 -0.703538 -0.526984 0.299283 -0.786467 
-0.399057 0.29924 -0.864495 -0.269017 0.313856 -0.905462 -0.0638199 0.21666 -0.969777 
0.0766679 0.173288 -0.976493 0.179687 0.138416 -0.971473 0.2557 0.112059 -0.958811 
0.288496 0.101402 -0.951944 0.305115 0.0971182 -0.947275 0.314124 0.115859 -0.94215 
0.308594 0.14732 -0.938918 0.287983 0.202816 -0.935647 0.289868 0.253455 -0.92196 
0.326423 0.29127 -0.89783 0.405428 0.307492 -0.858925 0.516074 0.313112 -0.790064 
0.645881 0.336353 -0.681481 0.761881 0.330583 -0.542225 0.845066 0.326742 -0.4147 
0.881896 0.306393 -0.348307 0.927207 0.328994 0.114723 0.931934 0.346203 -0.0715998 
0.908767 0.288753 0.282199 0.860006 0.249026 0.432655 0.773695 0.222518 0.577603 
0.692029 0.233408 0.677162 0.673743 0.239822 0.69663 0.677312 0.16791 0.71477 
0.646748 0.140252 0.748257 0.666855 0.0854506 0.737677 0.717726 0.0391096 0.691983 
0.796323 0.00309871 0.603136 0.719096 0.00435267 0.691824 0.798583 0.075135 0.593296 
0.761601 0.144574 0.627641 0.661045 0.198626 0.712564 0.51855 0.259333 0.804283 
0.357031 0.276107 0.877845 0.220947 0.293732 0.920988 0.642524 0.0852308 0.761105 
0.650441 0.10149 0.752488 0.629171 0.0778133 0.7724 0.666058 -0.0346173 0.74031 
0.732405 -0.1263 0.66546 0.629584 0.0599368 0.774223 0.779441 -0.121831 0.610727 
0.789938 -0.088266 0.606042 0.753583 -0.0342471 0.647108 0.697641 0.0257134 0.712616 
0.537004 0.0897507 0.817945 0.365134 0.141535 0.914624 0.192415 0.174083 0.957891 
0.91711 0.313646 -0.234104 0.917825 0.259461 -0.29897 0.731386 -0.667555 -0.122908 
0.696836 -0.682549 -0.207488 0.670286 -0.677685 -0.294709 0.639646 -0.648073 -0.406007 
0.597272 -0.625753 -0.494585 0.570592 -0.587051 -0.567359 0.54767 -0.54947 -0.625001 
0.513832 -0.538986 -0.662047 0.462796 -0.549752 -0.691617 0.402246 -0.54954 -0.731495 
0.333102 -0.545876 -0.768336 0.30109 -0.575516 -0.759685 0.302925 -0.622601 -0.720774 
0.297171 -0.675713 -0.672352 0.310629 -0.667654 -0.67363 0.256747 -0.703856 -0.66126 
0.319394 -0.624168 -0.710817 0.210557 -0.779341 -0.582385 0.171364 -0.858253 -0.480646 
0.0511546 -0.880072 -0.455683 -0.151536 -0.883514 -0.421271 -0.367118 -0.86652 -0.312027 
-0.467951 -0.856274 -0.20176 -0.538358 -0.830696 -0.121603 -0.744963 -0.655324 -0.0409229 
-0.598955 -0.796873 -0.0235754 -0.795062 -0.586177 0.0817399 -0.677617 -0.715707 0.1168 
-0.730421 -0.633125 0.237629 -0.765951 -0.552036 0.315863 -0.807642 -0.477577 0.330835 
-0.851758 -0.390372 0.340735 -0.878485 -0.300114 0.363275 -0.87514 -0.259095 0.40348 
-0.848813 -0.278086 0.446639 -0.816819 -0.267987 0.49537 -0.802859 -0.255428 0.531383 
-0.786929 -0.279371 0.544725 -0.741421 -0.357454 0.558912 -0.651598 -0.478174 0.584748 
-0.476011 -0.612185 0.622667 -0.284237 -0.697574 0.647911 0.0907096 -0.484698 0.86939 
0.0023089 -0.549672 0.832728 0.209416 -0.393128 0.89356 0.319925 -0.315262 0.890603 
0.385222 -0.246038 0.884494 0.463906 -0.205258 0.855798 0.554182 -0.15544 0.815605 
0.645822 -0.121648 0.746006 0.726562 -0.0770513 0.676721 0.798663 -0.0362161 0.597128 
0.836407 -0.15768 0.500633 0.829883 -0.203236 0.49915 0.833966 -0.179997 0.507312 
0.850098 -0.440676 0.245084 0.869535 -0.233067 0.404928 0.800934 -0.584182 0.0959922 
0.773185 -0.628079 0.0157303 -0.0714678 -0.615387 0.779841 -0.150193 -0.746125 0.641899 
0.0499452 0.132937 0.986889 0.0556013 0.229941 0.963669 -0.0660928 0.14967 0.982618 
-0.00985791 0.0588828 0.993413 -0.194302 0.291262 0.932693 -0.274122 0.370174 0.8749 
-0.371575 0.431332 0.804347 -0.495507 0.484262 0.715374 -0.596123 0.485342 0.622876 
-0.703619 0.449581 0.544271 -0.755207 0.409506 0.500983 -0.808517 0.356947 0.460331 
-0.873598 0.247589 0.388264 -0.93741 0.145678 0.290553 -0.970827 0.0946194 0.196274 
-0.972998 0.0617625 0.204711 -0.949476 -0.0355441 0.300946 -0.918987 -0.0619187 0.384266 
-0.921706 -0.067971 0.376835 -0.947151 -0.0542306 0.308517 -0.982182 -0.0268255 0.0666678 
-0.987153 0.0553335 -0.137587 -0.953089 0.113163 -0.258388 -0.916062 0.162846 -0.36065 
-0.866457 0.209173 -0.444487 -0.800403 0.250102 -0.536991 -0.71782 0.28754 -0.628232 
-0.607614 0.327801 -0.713962 -0.466319 0.344799 -0.807856 -0.283251 0.287013 -0.901663 
0.130236 0.149084 -0.977738 0.042558 0.170715 -0.976894 0.201691 0.123702 -0.969567 
0.263435 0.0995174 -0.958838 0.297768 0.0757723 -0.95131 0.305704 0.0629617 -0.949951 
0.290257 0.0746096 -0.953721 0.266745 0.103662 -0.957006 0.236521 0.147682 -0.95975 
0.276791 0.193254 -0.93859 0.360837 0.222891 -0.902439 0.473222 0.199927 -0.853113 
0.601032 0.188672 -0.763996 0.725572 0.187053 -0.657306 0.815767 0.207418 -0.523573 
0.879688 0.230817 -0.411882 0.898224 0.242627 -0.360408 0.911933 0.179437 -0.36193 
0.939454 0.170741 -0.281335 0.922968 0.0659271 -0.368267 0.951633 0.256591 -0.113926 
0.947444 0.292678 -0.0400666 0.937866 0.301596 0.122239 0.907609 0.268547 0.302782 
0.857451 0.215448 0.457298 0.78237 0.186925 0.584081 0.706631 0.18378 0.681604 
-0.0697446 0.199666 -0.973204 -0.222645 0.200908 -0.946842 0.152247 0.0743496 0.978157 
0.0551141 -0.0268222 0.994715 -0.0670338 -0.00926626 0.992569 0.0454068 -0.138847 0.986167 
-0.128207 0.0987481 0.985328 -0.193117 0.187187 0.954053 -0.284224 0.287647 0.909321 
-0.347892 0.285576 0.882883 -0.450645 0.274004 0.832873 -0.579921 0.227236 0.758149 
-0.714473 0.18466 0.672638 -0.7764 0.176018 0.597296 -0.837633 0.159109 0.516672 
-0.891957 0.11143 0.420524 -0.941155 0.0216727 0.317444 -0.97052 -0.0742373 0.202013 
-0.970299 -0.162493 0.154605 -0.937508 -0.139288 0.307767 -0.894848 -0.159083 0.41308 
-0.905184 -0.156986 0.382774 -0.934275 -0.146176 0.30032 -0.976254 -0.0954906 0.139426 
-0.991631 -0.0467631 -0.0223821 -0.977225 0.000543167 -0.168124 -0.951172 0.0570734 -0.289005 
-0.915522 0.124917 -0.374281 -0.851986 0.183849 -0.477429 -0.773418 0.232395 -0.586523 
-0.670608 0.257626 -0.681914 -0.575524 0.244445 -0.769183 -0.403716 0.171512 -0.884578 
-0.219252 0.0697486 -0.953067 -0.0160923 0.0610693 -0.992715 -0.193991 -0.0422856 -0.972751 
0.0259614 0.116254 -0.988222 0.0651028 0.147312 -0.980022 0.152212 0.131313 -0.977983 
0.224847 0.107022 -0.965959 0.286884 0.0825891 -0.954235 0.307878 0.0757125 -0.948218 
0.317544 0.0656606 -0.945715 0.303345 0.0140062 -0.951658 0.276351 -0.0351013 -0.959284 
0.231206 -0.057238 -0.970019 0.259602 -0.0641859 -0.956529 0.37907 -0.0102704 -0.914945 
0.507639 0.00615972 -0.856235 0.610972 0.0102541 -0.78141 0.711452 0.0176578 -0.699116 
0.79989 0.0436492 -0.582839 0.880609 0.0937381 -0.455668 0.900884 -0.013465 -0.424598 
0.934462 -0.0254191 -0.352199 0.888277 -0.0895505 -0.444546 0.961626 0.0645969 -0.22271 
0.97013 0.180379 -0.15114 0.962416 0.23797 0.0264719 0.954885 0.221487 0.139384 
0.9252 0.193828 0.305578 0.856544 0.153555 0.478696 0.757219 0.0985245 0.637708 
0.732137 -0.665652 -0.100104 0.678874 -0.690877 -0.239201 0.624636 -0.694626 -0.349472 
0.575558 -0.692506 -0.432964 0.53529 -0.682701 -0.493873 0.496827 -0.66967 -0.550572 
0.476014 -0.648343 -0.592597 0.447136 -0.628708 -0.634513 0.416108 -0.60201 -0.681132 
0.369918 -0.584878 -0.720662 0.340252 -0.564678 -0.751274 0.331034 -0.544946 -0.770226 
0.350019 -0.551876 -0.756762 0.357221 -0.57802 -0.732563 0.354306 -0.601149 -0.715279 
0.353626 -0.561252 -0.745528 0.298423 -0.534608 -0.783567 0.366354 -0.39434 -0.838166 
0.232556 -0.655769 -0.715689 0.184147 -0.70458 -0.680569 0.0712467 -0.750958 -0.654352 
-0.116951 -0.797509 -0.56562 -0.289986 -0.831246 -0.46451 -0.404312 -0.847385 -0.322974 
-0.490852 -0.843421 -0.194832 -0.561486 -0.820923 -0.087769 -0.636868 -0.760968 0.0269352 
-0.680337 -0.711555 0.148313 -0.685959 -0.677064 0.253945 -0.703141 -0.630475 0.324267 
-0.70153 -0.609333 0.366677 -0.736037 -0.549163 0.384551 -0.766035 -0.511923 0.384477 
-0.796668 -0.470091 0.376803 -0.782611 -0.490218 0.37549 -0.764213 -0.481564 0.42318 
-0.700863 -0.547283 0.44159 -0.662434 -0.616234 0.41302 -0.602999 -0.693038 0.393047 
-0.519781 -0.731906 0.434425 -0.425727 -0.761404 0.480778 -0.321748 -0.790075 0.514841 
-0.191634 -0.781083 0.5897 -0.0138729 -0.710555 0.699972 -0.0534654 -0.702909 0.705518 
0.0149838 -0.70518 0.705145 0.0884529 -0.629205 0.768483 0.179765 -0.533773 0.817136 
0.319311 -0.36395 0.867306 0.44296 -0.141533 0.879891 0.498498 -0.00200442 0.8642 
0.53596 0.0814119 0.837352 0.603918 0.121622 0.786475 0.665882 0.0888365 0.737929 
0.721243 0.0536107 0.689888 0.740937 0.00997587 0.668299 0.746195 -0.0215533 0.66314 
0.781649 -0.0867059 0.611189 0.820255 -0.0730096 0.562206 0.858304 -0.0449336 0.499561 
0.925872 -0.2333 0.281726 0.908775 -0.0493044 0.398819 0.879672 -0.372727 0.262227 
0.864122 -0.465821 0.113547 0.819047 -0.559568 -0.0526191 -0.285435 0.159065 0.933066 
-0.514829 0.105046 0.845039 -0.638879 0.0556435 0.753582 -0.742781 0.0149872 0.66772 
-0.795677 -0.043445 0.593294 -0.847817 -0.105233 0.514868 -0.89183 -0.176213 0.389663 
-0.927623 -0.247804 0.273528 -0.914294 -0.332655 0.210161 -0.893754 -0.414241 0.16679 
-0.887087 -0.233367 0.395793 -0.915277 -0.273857 0.276409 -0.88965 -0.212793 0.399712 
-0.93661 -0.138035 0.30639 -0.971727 -0.0792351 0.120285 -0.994975 -0.0260183 -0.0597864 
-0.979117 -0.00542799 -0.172174 -0.956623 0.016828 -0.27944 -0.916602 0.0469084 -0.380674 
-0.860162 0.0735902 -0.494122 -0.781895 0.0820489 -0.604387 -0.681195 0.0817266 -0.714538 
-0.560829 0.0593035 -0.806608 -0.463499 0.0182727 -0.875066 -0.401555 -0.0579582 -0.889971 
-0.254651 -0.117607 -0.947628 -0.0569074 -0.113388 -0.985286 -0.0910979 -0.172774 -0.967832 
-0.0320963 -0.0579002 -0.984081 0.0989062 0.00647269 -0.986401 0.182673 0.00765682 -0.979617 
0.234392 0.0040884 -0.970983 0.276807 -0.00246232 -0.959432 0.312983 0.00222429 -0.949251 
0.336859 -0.0326962 -0.940319 0.359781 -0.0610751 -0.930909 0.341575 -0.0967561 -0.933688 
0.296672 -0.142756 -0.943246 0.240268 -0.163533 -0.956046 0.244516 -0.183859 -0.95079 
0.574125 -0.16798 -0.799938 0.467706 -0.172775 -0.860976 0.672524 -0.150945 -0.715414 
0.780559 -0.121835 -0.61122 0.854294 -0.0766704 -0.504047 -0.928837 -0.30754 0.192247 
-0.866804 -0.461139 0.186691 0.821619 -0.149428 -0.543403 0.897213 -0.12189 -0.416796 
0.830353 -0.216725 -0.502379 0.935534 -0.0759244 -0.334 0.983858 -0.014669 -0.155416 
0.978699 0.117961 0.0674899 0.757981 -0.601162 -0.215743 0.706364 -0.625938 -0.325779 
0.661165 -0.640136 -0.384619 0.615906 -0.65592 -0.434594 0.563635 -0.665166 -0.485557 
0.515346 -0.66635 -0.537443 0.469903 -0.66553 -0.577684 0.432327 -0.645336 -0.628374 
0.395759 -0.606421 -0.687976 0.344897 -0.546584 -0.76185 0.328111 -0.508457 -0.795734 
0.342964 -0.498216 -0.795717 0.376774 -0.495289 -0.781729 0.384755 -0.498788 -0.774006 
0.364622 -0.270068 -0.888892 0.286899 -0.234998 -0.925631 0.337628 -0.150566 -0.92866 
0.268439 -0.373257 -0.881137 0.200316 -0.536634 -0.810074 0.0801152 -0.639178 -0.755977 
0.0341102 -0.675933 -0.729317 -0.102251 -0.703808 -0.690497 -0.252307 -0.733225 -0.615389 
-0.408415 -0.752688 -0.493795 -0.544295 -0.741795 -0.36389 -0.713706 -0.666135 -0.188146 
-0.753377 -0.644102 0.00110172 -0.755322 -0.629677 0.153 -0.711888 -0.636879 0.2748 
-0.690112 -0.626655 0.360152 -0.691224 -0.600029 0.400533 -0.704031 -0.57482 0.415556 
-0.733062 -0.548403 0.400157 -0.754946 -0.547678 0.357532 -0.755954 -0.570359 0.319162 
-0.689426 -0.641654 0.331663 -0.62055 -0.708535 0.328345 -0.60278 -0.728516 0.318173 
-0.587181 -0.746791 0.311615 -0.5221 -0.778764 0.343585 -0.45084 -0.792183 0.40583 
-0.342381 -0.79489 0.492487 -0.213422 -0.752992 0.61074 -0.156055 -0.689022 0.70018 
-0.00923168 -0.643485 0.759465 -0.0368642 -0.565576 0.818506 0.0843551 -0.647551 0.756405 
0.176845 -0.606992 0.766018 0.27085 -0.538233 0.795408 0.370119 -0.450082 0.802457 
0.468108 -0.353679 0.801256 0.572385 -0.205569 0.789679 0.598023 -0.00197081 0.795961 
0.593843 0.112689 0.794315 0.596867 0.162564 0.785516 0.634038 0.135241 0.760433 
0.659773 0.112813 0.741113 0.677296 0.0513771 0.729075 0.703647 0.00954934 0.704666 
0.71031 0.0477572 0.695754 0.749502 0.0591523 0.654512 0.822425 0.0391677 0.562377 
0.903564 0.0236839 0.401512 0.957947 -0.0674153 0.195112 0.970225 0.00427291 0.152102 
0.932713 -0.278344 0.105888 0.67004 0.0618095 0.738483 0.633748 0.0470037 0.771342 
0.603595 0.0746407 0.793646 0.607211 0.13304 0.782604 0.652467 0.0606281 0.750456 
0.717344 -0.0575971 0.692982 0.758782 -0.164779 0.627643 0.76659 -0.191907 0.611407 
0.705041 -0.189155 0.671602 0.595535 -0.161602 0.771595 0.371536 -0.0480146 0.90605 
0.22395 0.0305008 0.969711 0.19587 -0.130665 0.960289 0.0970376 -0.248099 0.959642 
-0.0652549 -0.268062 0.955192 0.0384642 -0.408716 0.899663 -0.0980935 -0.119869 0.982856 
-0.26284 0.0340551 0.948045 0.809717 -0.465284 -0.349879 0.870289 -0.398675 -0.243886 
0.719024 -0.529315 -0.440638 0.64475 -0.571974 -0.504155 0.572185 -0.60624 -0.547658 
0.523738 -0.611774 -0.591735 0.48322 -0.601058 -0.633545 0.436481 -0.595823 -0.6725 
0.395909 -0.58205 -0.709185 0.345606 -0.529445 -0.771678 0.300187 -0.364064 -0.880322 
0.3671 -0.331753 -0.867706 0.383813 -0.303424 -0.870712 0.259458 -0.0769944 -0.961103 
0.299698 -0.0532076 -0.952106 0.321771 -0.078985 -0.942646 0.265037 -0.145948 -0.950562 
0.192925 -0.231488 -0.951477 0.144446 -0.371518 -0.904038 0.0844875 -0.514635 -0.844221 
-0.0445396 -0.574883 -0.810466 -0.178813 -0.553691 -0.798647 -0.386575 -0.587632 -0.699652 
-0.524025 -0.58958 -0.592223 -0.635469 -0.572432 -0.5 -0.718142 -0.494876 -0.460319 
-0.874115 -0.467618 0.0184308 -0.894641 -0.412507 -0.107223 -0.831654 -0.519135 0.144421 
-0.778134 -0.552019 0.278823 -0.725692 -0.561599 0.386986 -0.715099 -0.543743 0.437806 
-0.740706 -0.537641 0.401077 -0.754979 -0.562409 0.330623 -0.767259 -0.583587 0.26094 
-0.704429 -0.666953 0.22975 -0.594157 -0.75402 0.278877 -0.645788 -0.71272 0.266709 
-0.567059 -0.768696 0.29562 -0.54255 -0.764389 0.344054 -0.494359 -0.768232 0.405469 
-0.424409 -0.745681 0.502334 -0.344066 -0.723902 0.591983 -0.212515 -0.60659 0.756593 
-0.118728 -0.458853 0.867606 -0.867843 -0.395775 -0.260354 -0.853245 -0.31513 -0.380105 
0.327793 -0.195513 -0.922189 0.282662 -0.238546 -0.928274 0.926175 0.0897393 0.350773 
0.848387 0.0569023 0.510036 0.775954 0.0420764 0.627323 0.727593 0.0560618 0.681082 
0.675665 0.0770817 0.731337 0.620863 0.130119 0.771338 0.623055 0.104435 0.77416 
-0.335556 -0.0655242 0.93317 -0.501093 -0.119031 0.832375 -0.677631 -0.155432 0.707876 
-0.745049 -0.218394 0.614458 -0.788665 -0.290969 0.521046 -0.82642 -0.334889 0.427101 
-0.848416 -0.397395 0.330452 -0.843047 -0.457512 0.250448 -0.80051 -0.560606 0.200293 
-0.843203 -0.484474 0.224801 -0.881148 -0.388581 0.257348 -0.86476 -0.362455 0.331498 
-0.845899 -0.331633 0.408165 -0.844816 -0.306451 0.432801 -0.861353 -0.275822 0.409874 
-0.919332 -0.244257 0.262362 -0.964991 -0.210794 0.073304 -0.967257 -0.180431 -0.107304 
-0.962921 -0.136917 -0.219706 -0.943788 -0.10618 -0.299154 -0.901228 -0.0806858 -0.410349 
-0.840127 -0.0677324 -0.519596 -0.764803 -0.063373 -0.633478 -0.66895 -0.0751407 -0.724028 
-0.562287 -0.0965333 -0.815405 -0.418445 -0.124718 -0.88577 -0.267168 -0.167589 -0.926972 
-0.259249 -0.268986 -0.911526 0.0528319 -0.16374 -0.978757 -0.0800708 -0.273473 -0.951926 
0.0939298 -0.111872 -0.983261 0.109859 -0.071631 -0.983539 0.174892 -0.0385302 -0.981931 
0.204858 -0.054439 -0.975529 0.317905 -0.27648 0.901177 0.197147 -0.392291 0.888618 
0.122986 -0.525679 0.83866 0.150913 -0.585373 0.78916 0.184765 -0.615652 0.760081 
0.253712 -0.594126 0.762323 0.442042 -0.454261 0.770407 0.626796 -0.270501 0.721669 
0.709644 -0.202524 0.668745 0.677481 -0.0113178 0.731476 0.631925 0.10457 0.765601 
0.367538 -0.114057 -0.921905 0.375348 -0.148224 -0.914167 0.33292 -0.175937 -0.924932 
0.270554 -0.215009 -0.936625 0.249778 -0.227977 -0.939987 0.297782 -0.307618 -0.897487 
0.411058 -0.305778 -0.857579 0.322023 -0.425996 -0.840395 0.378439 -0.247719 -0.884764 
0.467452 -0.248669 -0.841247 0.563688 -0.245412 -0.786585 0.644892 -0.238494 -0.721469 
0.739895 -0.200962 -0.634554 0.696467 -0.356564 -0.612452 0.771981 -0.388976 -0.493909 
0.706152 -0.462189 -0.528697 0.855394 -0.272019 -0.433446 0.926894 -0.1811 -0.30143 
0.724463 -0.237243 0.645117 0.641227 -0.310967 0.696185 0.446786 -0.362032 0.801708 
-0.332886 -0.332248 0.861667 -0.807534 -0.464311 0.349662 -0.78543 -0.423997 0.448777 
-0.785681 -0.427472 0.440398 -0.799698 -0.432195 0.401633 -0.845019 -0.426997 0.282945 
-0.900655 -0.387724 0.104001 -0.939977 -0.314543 -0.0552882 -0.944802 -0.251574 -0.175537 
-0.922674 -0.201894 -0.303261 -0.865281 -0.15581 -0.464048 -0.786428 -0.137609 -0.585405 
-0.719251 -0.136992 -0.678337 -0.406537 -0.240511 -0.868807 -0.41109 -0.168619 -0.893127 
0.168576 -0.156212 -0.9675 0.0587731 -0.248159 -0.956157 0.205664 -0.0977141 -0.972722 
-0.497415 -0.408874 0.74697 -0.601994 -0.449899 0.638522 -0.665186 -0.49511 0.536268 
-0.69249 -0.551639 0.444291 -0.70871 -0.583885 0.370649 -0.724067 -0.613978 0.290693 
-0.74307 -0.619492 0.245622 -0.67235 -0.692543 0.254099 -0.627275 -0.728387 0.272478 
-0.607305 -0.727815 0.308263 -0.589771 -0.713105 0.367532 -0.559481 -0.682469 0.455795 
-0.49713 -0.643183 0.571175 -0.370465 -0.601785 0.691309 -0.251714 -0.534635 0.797254 
0.475193 -0.339246 -0.803844 0.54664 -0.364467 -0.747927 0.612441 -0.359689 -0.697246 
-0.0117351 -0.373013 -0.91344 -0.0334442 -0.467606 -0.875645 -0.166157 -0.386062 -0.89595 
-0.572291 -0.429898 -0.684238 -0.460782 -0.426298 -0.760361 -0.66818 -0.41347 -0.60464 
-0.74179 -0.383283 -0.524777 -0.807466 -0.255357 -0.510776 0.406828 -0.490905 -0.763908 
0.646552 -0.525822 -0.548555 0.624486 -0.509505 -0.59041 0.553715 -0.504193 -0.656294 
0.321992 -0.498347 0.795892 0.487808 -0.508455 -0.70692 -0.642861 -0.259725 -0.701408 
-0.538346 -0.263051 -0.787192 -0.737594 -0.249297 -0.619322 -0.738876 -0.642867 -0.161392 
-0.826974 -0.548323 0.0204138 0.135824 0.311679 0.931854 0.920864 -0.350937 -0.0976929 
0.981835 -0.109782 -0.0777461 -0.497608 -0.160533 -0.838715 -0.604673 -0.148039 -0.762709 
-0.374521 -0.364984 -0.830574 
Radius 1 1114 double
0.15 0.15 0.85584108176 0.99218403359 0.15000075911 0.97473886452 0.14999996448 0.97560705024 0.14999901573 
0.86820679249 0.15000018109 0.72551052683 0.15000106001 0.69312003186 0.14999943096 0.71837606301 0.14999939493 0.70832816307 
0.15 0.71966453258 0.14999972429 0.76165067528 0.14999908507 0.82602534081 0.15 0.99919853122 0.15 
1.0814920483 0.15 1.139429402 0.15 1.0887070608 0.15 1.0827068773 0.14999995455 1.0991284047 
0.14999997566 1.1560749212 0.15000009461 1.279244873 0.15 1.4248085304 0.15 1.5298006055 0.15 
1.5153566332 0.15 1.4585946072 0.15 1.3054601286 0.15 1.0598796775 0.15 1.1381127214 
0.15 1.117477469 0.15 1.0211572256 0.15 0.9229790886 0.15 0.87801946839 0.15 
0.84701319253 0.15 0.87047165233 0.15 0.85790487 0.15 0.80548685385 0.15 0.77069616787 
0.15 0.78028763778 0.15 0.87323560322 0.15 1.0057434064 0.15 0.95662210979 0.15 
0.9533257778 0.15 1.0705025915 0.15 0.15 1.5351037051 1.5189697104 0.15 1.5271497918 
0.15 1.3347869756 0.15 1.2259793587 0.15 1.203852237 0.15 1.1833658073 0.15 
1.1979809955 0.15 1.2628884253 0.15 1.3462060626 0.15 1.4284862788 0.15 1.5364975822 
0.15 1.6480930802 0.15 1.7476060255 0.15 1.8287160922 0.15 1.6591604666 0.15 
1.5180086573 0.15 1.4034866402 0.15 1.3946671814 0.15 1.362258157 0.15 1.3120129678 
0.15 1.2292303557 0.15 1.1977797369 0.15 1.2403468277 0.15 1.3672663914 0.15 
1.2802763236 0.15 1.3061006229 0.15 1.2335403807 0.15 1.1971250011 0.15 1.3571017204 
0.15 1.464131859 0.15 1.5509302364 0.15 1.6224232904 0.15 1.6536683694 0.15 
1.5906957156 0.15 1.7321072592 0.15000009657 1.8448233626 0.1500005542 1.8025300097 0.15000043933 1.7315598648 
0.15 1.6576372 0.15 1.4659325031 0.15 1.3012074015 0.15 1.1374756269 0.15 
0.99642504277 0.15 0.85498169205 0.15 1.0730065275 0.15 1.2267617287 0.15 1.3492752974 
0.15 1.4232193307 0.15 1.4661119268 0.15 1.4992588147 0.15 1.5227737626 0.15 
1.3868481106 0.15 1.276167415 0.15 1.2770946546 0.15 1.2883594269 0.15 1.3040603136 
0.15 1.4153392604 1.2249526761 1.2023289054 1.2777253133 1.1234516763 0.88131677422 0.76858026367 0.72742898139 
0.72818654371 0.75813565542 0.82935098914 0.97916856658 1.2290351716 1.5222937705 1.5398129627 1.4519585241 1.3671575114 
1.31413232 1.3183498671 1.3930383732 1.6026180066 1.7823820206 1.8076401094 1.6892411176 1.5606957183 1.3617408255 
1.4771806435 1.4593560417 1.3701964265 1.2254185891 1.0928030487 1.006871992 1.0103291111 0.98554484146 0.94946732776 
0.95129894291 1.0143261563 1.165013752 1.4485256774 1.6482539201 1.7199924248 1.6587606001 1.3755881917 1.5063947648 
1.5474193654 1.4618982287 1.3582606464 1.2595141879 1.2983249237 1.396990051 1.4462908197 1.5076597555 1.5878051044 
1.6056799555 1.6998317563 1.775223815 1.8520801257 1.7061238749 1.518762052 1.3913101225 1.3509799845 1.2888893804 
1.2282632596 1.1829035115 1.1970868297 1.308595758 1.4454086729 1.5272882801 1.4827941609 1.5073748061 1.4467573511 
1.3995210866 1.4169116003 1.509610095 1.5928029046 1.6576561432 1.6774172846 1.8731479338 2.0152039816 2.1042429894 
2.0092260957 1.8524793892 1.6439091356 1.4710656179 1.3876098932 1.2458393284 1.1196405196 1.230683435 1.3085586665 
1.4475090291 1.5318260951 1.5368430196 1.5602126366 1.5726576581 1.4978957328 1.4500766146 1.4424630259 1.459321241 
1.4647395059 1.5357680103 1.6000878092 1.6197086834 1.6796081448 1.0616989306 1.2462184587 1.00167444 0.96641318045 
0.91565805266 0.96167981085 1.0608809498 1.2168883374 1.4878980589 1.8779931942 1.9483265745 1.8424715888 1.6379024998 
1.4709853118 1.4271067715 1.4500929637 1.5841619588 1.746821869 1.8781605692 1.736241924 1.6386689714 1.8213910182 
1.7516534539 1.8208253811 1.6697205322 1.5111163159 1.3662739343 1.2550154693 1.1932617922 1.1745770078 1.1580921035 
1.197965333 1.3026622913 1.4897859449 1.8892982651 1.9888750058 1.935569405 1.8293611957 1.5091852868 1.3752698119 
1.4235101078 1.7030473657 1.6304864517 1.7298916119 1.8210841114 1.7235105817 1.578219925 1.4751777236 1.4327787173 
1.5111857174 1.5745833714 1.6405814894 1.9242840778 1.7637819488 2.0633029894 2.1714039701 2.0724191621 1.9083233193 
1.5991110848 1.4976428369 1.5448374532 1.4187592595 1.3044794348 1.3097767086 1.3909561674 1.5209085433 1.5652526812 
1.5522216202 1.5811148983 1.6059193855 1.5784181236 1.5666784412 1.6089027174 1.5634231163 1.5083352142 1.6042467046 
1.6549411807 1.5887984112 1.4825118934 1.3210504315 1.2917189916 1.2308754719 1.4023964942 1.5195718468 1.5773635014 
1.6639959724 1.7065920892 1.6727407904 1.7103402476 1.7767642132 1.8758134469 1.8228858897 1.6597245183 1.4920766714 
1.4009277044 1.3185486682 1.219553708 1.2406078082 1.2645229545 1.2944599168 1.3447051051 1.544475565 1.7482119936 
2.0803603995 1.9654869917 1.6675365991 1.6712379231 1.9019334405 1.7717156677 1.9650687587 1.9922457602 1.9621056231 
1.8096935921 1.6412123506 1.4603937737 1.3534163998 1.2789060007 1.287542773 1.2961749997 1.3277710669 1.3897068243 
1.4989078428 1.645102446 1.8273229384 1.8957610869 1.6989209404 1.5118860856 1.3702338254 1.4287227056 1.3414298356 
1.434777798 1.2932125117 1.2344732509 1.1706846925 1.1599827902 1.2343584793 1.4007205356 1.650318515 2.0108010251 
2.2322064773 2.0706568057 1.8170025446 1.5961205 1.544154665 1.5526228607 1.631477062 1.7523716694 1.8605479572 
1.7316356799 1.5625583709 1.5341186619 1.5704429711 1.8838987605 1.6974807794 1.9593220704 1.6162156809 1.7050342516 
1.9069999993 1.9161779008 1.8938190201 1.6905228291 1.8390826776 1.6206162407 1.4872974631 1.5083099944 1.5679119658 
1.6525253861 1.794924549 1.7657895508 1.912946944 1.6746799042 1.6957374653 1.7940186904 1.8297459868 1.8761179521 
1.8309451663 1.7437611446 1.5035574073 1.5708546292 1.7861591276 1.6581660525 1.4694010098 1.4011636703 1.4407490688 
1.5553868114 1.5713098073 1.552031323 1.6297029147 1.6829855297 1.6490885463 1.6442768423 1.681702128 1.6471538009 
1.5708342242 1.6818935246 1.7094401006 1.6338420821 1.4701590328 1.2493847526 1.2006817801 1.2206379773 1.392381846 
1.5236178587 1.6243775313 1.6614006587 1.6827342089 1.63847006 1.6872638982 1.748417802 1.9034113317 1.9585898455 
1.8957842521 1.4735294865 1.5703270739 1.3709539858 1.2770305949 1.2608998265 1.2699202729 1.2979417104 1.3684233247 
1.5013060559 1.6576287394 1.7893954076 2.2139657193 1.9789834306 2.2341907609 2.1178891933 1.7881055034 1.5984361775 
1.6207185239 1.660146764 1.656425347 1.5549358026 1.7776742258 1.9068653781 2.157186785 2.0357630719 2.346236517 
2.4397468623 2.2444197716 1.9049357205 1.7502955007 1.6892322826 1.8060632341 1.737225066 1.8744971371 2.0279250938 
1.9787124391 1.9170265952 1.8252691677 1.6591137206 1.4832389537 1.3709424686 1.3362345995 1.3400561199 1.33648944 
1.3691705105 1.3983976643 1.3917951776 1.4902493756 1.5590935478 1.7094815503 1.5449828098 1.8062671046 1.8011299645 
1.7132502982 1.6006225302 1.4955636444 1.5033057089 1.5604002025 1.7050320457 1.8105650456 1.8277992448 1.9432716151 
2.0556998223 2.0397956506 1.8251896588 1.6073578753 1.4934585616 1.4259469998 1.3978128371 1.366358836 1.2909235374 
1.309131918 1.4910919922 1.8097368703 2.0473153893 2.2890061551 1.8785188489 2.0929526426 1.7082943793 1.6080508625 
1.619627461 1.6756535436 1.7523817084 1.7468692269 1.6820150237 1.6006924098 1.6362212623 1.5634654441 1.5705942057 
1.7569901992 1.6788001595 1.8753644414 1.9673483144 2.3164208017 2.360323211 1.9951545109 1.8661084101 1.9859988849 
2.0010007649 1.856540926 1.773556201 1.7134550364 1.6021638402 1.5934764098 1.562438549 1.5529514936 1.5050102657 
1.3757679387 1.5229611642 1.9444173484 1.8102016669 1.5390307567 1.4083587002 1.480047829 1.6221678777 1.620198251 
1.6778927203 1.7356079712 1.7471865309 1.7003054919 1.6909884003 1.7455794785 1.7048901677 1.6409666064 1.6625905351 
1.5667746964 1.6317441968 1.3890234142 1.2248872678 1.2233306818 1.2575163777 1.4114358835 1.4964994551 1.5089852152 
1.4998587584 1.5050709834 1.5408257222 1.6226558609 1.7252748489 1.8946404757 2.0164615831 1.9567423336 1.9510971623 
1.868319909 1.9037101443 1.8262378573 1.6937247503 1.6027816974 1.4540786453 1.3202655949 1.3341638506 1.370486515 
1.6915024013 1.7357614741 1.8889436245 1.9521822953 2.0047802588 1.8852576006 2.0218496256 1.8530929665 1.6932921459 
1.5899374392 1.4780857738 1.4562267071 1.4404021597 1.4609576616 1.4732719069 1.4486597189 1.5842496676 2.0288924687 
2.1475591691 1.8172369469 1.4490253167 1.5533979039 1.7079418798 1.7252820778 1.7596850779 1.8088845767 1.8166913212 
1.7339307122 1.6744704042 1.6285189945 1.6382298912 1.6273815537 1.7153159626 1.7824924248 1.7555514919 1.8214097316 
1.6548995595 1.5616074914 1.470629509 1.3626496194 1.2348918966 1.2196248085 1.2272091098 1.3042138367 1.357421921 
1.3864191933 1.3647455085 1.362054185 1.4919322676 1.6300884885 1.774630888 1.887815247 1.978782577 1.9256380074 
1.8993711102 1.8838422486 1.8313668685 1.8071866359 1.7760960503 1.7188938531 1.6077194424 1.5118381122 1.5230214887 
1.9880465782 1.938074811 1.9010372441 1.8193119082 1.6586026835 1.5041043187 1.3703754627 1.2972582039 1.2541417258 
1.2986915207 1.3226558983 1.3327433336 1.3202144956 1.3867287473 1.4628913173 1.3854379194 1.5158157303 1.3461697907 
1.7155382114 1.8034901162 1.8590544757 1.7383997888 1.6040314987 1.6103222695 1.6721081681 1.7596575546 1.9021678638 
2.0219162226 2.1125049403 2.0956333142 1.9148967414 1.7095996838 1.5551318822 1.5068356165 1.5484576934 1.5787889949 
1.4735506468 1.4017743808 1.5358068334 1.8428114841 2.012723793 2.1210204196 2.1989329348 2.158890736 2.1635177925 
2.1254401202 2.0306320725 1.8623838645 1.7206946957 1.678369598 1.6920323151 1.7233940801 1.7713492278 1.8492965263 
1.8469907725 1.8314572673 1.8257274049 1.6614426757 1.5869041883 1.6515821027 1.7674255235 1.7575234651 1.7686452961 
1.7815991796 1.8716570259 1.7142996846 1.4869975534 1.4697979967 1.4452412929 1.4943595469 1.5583967661 1.5181578557 
1.5390124276 1.89452425 2.1723152185 1.5055204409 1.8069748927 1.6223188802 1.704492097 1.7419405472 1.7849269923 
1.8274124736 1.8385162211 1.7832747881 1.7496393769 1.747966423 1.7573792552 1.7662894782 1.7707691492 1.78595862 
1.7634410807 1.7581583583 1.7047802347 1.7496762207 1.6625364087 1.5684467113 1.4814134876 1.3886782913 1.2951642334 
1.2866362424 1.2742782298 1.2635551547 1.2748001051 1.3368820935 1.2854472818 1.4287471687 1.3050413409 1.6020913201 
1.7895848043 1.887688873 2.1034503292 2.0941123398 1.7966371811 1.8542176736 1.8271209108 1.8274246422 1.6622102445 
1.671139365 1.8952812574 1.8624106308 1.8668439881 1.8589683337 1.6813304058 1.5157486598 1.3749499735 1.2545787356 
1.1052091173 1.1598655746 1.2417176581 1.272502018 1.2540339323 1.2890689843 1.2675149985 1.41888802 1.4290721968 
1.5342662943 1.6786254343 1.7374713169 1.7901652595 1.6846069599 1.6298924061 1.6759113854 1.731153526 1.7853327683 
1.9309808983 2.0480170374 2.1367069649 2.1051079444 1.972848657 1.8208867444 1.6509543217 1.6267855535 1.6897139834 
1.7898193828 1.6975633424 1.614415523 1.5449233152 1.7528287621 1.8937669755 1.9139473663 1.9421304478 2.0297183405 
2.0335211973 1.9672386345 2.0524847176 2.0219537304 1.9573303702 1.9004456474 1.8613725563 1.8806102025 1.8977712681 
1.8810365128 1.8904956541 1.9917403946 2.0144099486 2.0040073407 1.8487920833 1.6944215603 1.6237159297 1.6291558489 
1.7310270493 1.7310495983 1.7469687357 1.7529669524 1.6446015969 1.7728318793 1.9201110943 1.9639550019 2.0410047999 
2.2552476892 2.3973588097 2.4591033639 2.1994861044 1.9085385735 1.7568097569 1.7415570644 1.7700735585 1.7809198043 
1.8053435285 1.8448785629 1.8724047183 1.8229717347 1.8365776525 1.7765934707 1.8299068676 1.8218363503 1.6760773782 
1.5306141416 1.3993795597 1.2411349164 1.0487671535 1.0507472069 1.1349946901 1.2120362584 1.2240953749 1.4759395931 
1.3607917554 1.3609358233 1.5836515314 1.5998733812 1.6202736984 1.6503093103 1.6758877251 1.6365797609 1.5846651264 
1.6351355063 1.6967332033 1.7463865484 2.0038355163 1.966432238 2.0503848393 2.026702554 1.9325156624 1.7705938014 
1.5859629434 1.6275470891 1.8197305832 2.0651088757 1.7130096956 1.869387049 1.5892759717 1.6324747316 1.7734225593 
1.7550549321 1.7603332963 1.8323210618 1.8398023106 1.8400364464 1.7574139153 1.1594700311 1.1236191714 1.7584215225 
1.6649784869 1.5858014135 1.6228809348 1.6984153605 1.8334878666 2.056059794 1.4673290582 1.3745423946 1.4043566045 
1.4220563151 1.4253234815 1.4815299402 1.5813037011 1.8666733914 2.1189095068 1.9409076676 1.9576125921 1.7579900684 
1.5795782438 1.6552117515 1.7102822128 1.7275970208 1.7767430826 1.8356152741 1.8034972957 1.7630406398 1.7744105389 
1.7983607186 1.805314066 1.7812754341 1.7467495018 1.7268125269 1.6923720915 1.5957122119 1.7055020795 1.6022637202 
1.6776214329 1.6591826651 1.6020527331 1.5535540581 1.6725008142 1.7628028776 1.9010364908 1.9180341398 1.9329485597 
1.8524509008 1.8656430802 2.0057333225 2.3093514323 2.1020562048 2.0011203409 1.335540601 1.2895508076 1.2430517168 
1.2438206796 1.2191096164 1.1109901312 1.0207392264 1.0049465163 1.1061539367 1.1821898578 1.2639122845 1.4116236272 
1.6108740965 1.5934564559 1.8299355874 1.7339089221 1.8525817627 1.7992450398 2.2855513368 2.1153693197 1.8643532589 
1.5293415463 1.68601558 1.6031719856 1.6800299504 1.7663945892 1.8473548563 1.8584567067 1.7868916619 1.7482493249 
1.7437135423 1.7291558159 1.7786716169 1.8010225735 1.6289946998 1.6785953432 1.6841706712 1.617821097 1.6535083277 
1.4186740038 1.4849146367 1.4971519787 1.4940016309 1.5754980866 1.7238911639 1.8365043313 1.8878168937 1.7581384599 
1.6307144164 1.6162909909 1.6776050417 1.6746313476 1.6258645476 1.6616641789 1.0833054338 1.169274404 1.3579946254 
1.5914392739 1.6151789087 1.5654033313 1.641164363 1.6084830163 1.682481729 1.7255598204 1.718392973 1.0453920243 
1.6579447785 1.5440271072 1.3950611516 1.8079257315 1.2086969658 1.6851580972 1.6480907418 1.7214063059 1.5604588614 
1.523382896 1.701580778 1.7107892789 1.6654793182 1.7033702941 1.7516596896 1.5817267091 
STJ 1 1114 double
0 0 0 0 0 0 0 0 0 
0 0 0 0 0 0 0 0 0 
0 0 0 0 0 0 0 0 0 
0 0 0 0 0 0 0 0 0 
0 0 0 0 0 0 0 0 0 
0 0 0 0 0 0 0 0 0 
0 0 0 0 0 0 0 0 0 
0 0 0 0 0 0 0 0 0 
0 0 0 0 0 0 0 0 0 
0 0 0 1 1 0 0 1 0 
1 0 1 0 1 0 1 0 1 
0 1 0 1 0 1 0 1 0 
1 0 1 0 1 0 1 0 1 
0 1 0 1 0 1 0 1 0 
1 0 1 0 1 0 1 0 1 
0 1 0 1 0 1 0 1 0 
1 0 1 0 1 0 1 0 1 
0 1 0 0.99999990074 0 0.99999943037 0 0.99999953841 0 
1 0 1 0 1 0 1 0 1 
0 1 0 1 0 1 0 1 0 
1 0 1 0 1 0 1 0 1 
0 1 0 1 0 1 0 1 0 
1 0 0 0 0 0 0 0 0 
0 0 0 0 0 0 0 0 0 
0 0 0 0 0 0 0 0 0 
0 0 0 0 0 0 0 0 0 
0 0 0 0 0 0 0 0 0 
0 0 0 0 0 0 0 0 0 
0 0 0 0 0 0 0 0 0 
0 0 0 0 0 0 0 0 0 
0 0 0 0 0 0 0 0 0 
0 0 0 0 0 0 0 0 0 
0 0 0 0 0 0 0 0 0 
0 0 0 0 0 0 0 0 0 
0 0 0 0 0 0 0 0 0 
0 0 0 0 0 0 0 0 0 
0 0 0 0 0 0 0 0 0 
0 0 0 0 0 0 0 0 0 
0 0 0 0 0 0 0 0 0 
0 0 0 0 0 0 0 0 0 
0 0 0 0 0 0 0 0 0 
0 0 0 0 0 0 0 0 0 
0 0 0 0 0 0 0 0 0 
0 0 0 0 0 0 0 0 0 
0 0 0 0 0 0 0 0 0 
0 0 0 0 0 0 0 0 0 
0 0 0 0 0 0 0 0 0 
0 0 0 0 0 0 0 0 0 
0 0 0 0 0 0 0 0 0 
0 0 0 0 0 0 0 0 0 
0 0 0 0 0 0 0 0 0 
0 0 0 0 0 0 0 0 0 
0 0 0 0 0 0 0 0 0 
0 0 0 0 0 0 0 0 0 
0 0 0 0 0 0 0 0 0 
0 0 0 0 0 0 0 0 0 
0 0 0 0 0 0 0 0 0 
0 0 0 0 0 0 0 0 0 
0 0 0 0 0 0 0 0 0 
0 0 0 0 0 0 0 0 0 
0 0 0 0 0 0 0 0 0 
0 0 0 0 0 0 0 0 0 
0 0 0 0 0 0 0 0 0 
0 0 0 0 0 0 0 0 0 
0 0 0 0 0 0 0 0 0 
0 0 0 0 0 0 0 0 0 
0 0 0 0 0 0 0 0 0 
0 0 0 0 0 0 0 0 0 
0 0 0 0 0 0 0 0 0 
0 0 0 0 0 0 0 0 0 
0 0 0 0 0 0 0 0 0 
0 0 0 0 0 0 0 0 0 
0 0 0 0 0 0 0 0 0 
0 0 0 0 0 0 0 0 0 
0 0 0 0 0 0 0 0 0 
0 0 0 0 0 0 0 0 0 
0 0 0 0 0 0 0 0 0 
0 0 0 0 0 0 0 0 0 
0 0 0 0 0 0 0 0 0 
0 0 0 0 0 0 0 0 0 
0 0 0 0 0 0 0 0 0 
0 0 0 0 0 0 0 0 0 
0 0 0 0 0 0 0 0 0 
0 0 0 0 0 0 0 0 0 
0 0 0 0 0 0 0 0 0 
0 0 0 0 0 0 0 0 0 
0 0 0 0 0 0 0 0 0 
0 0 0 0 0 0 0 0 0 
0 0 0 0 0 0 0 0 0 
0 0 0 0 0 0 0 0 0 
0 0 0 0 0 0 0 0 0 
0 0 0 0 0 0 0 0 0 
0 0 0 0 0 0 0 0 0 
0 0 0 0 0 0 0 0 0 
0 0 0 0 0 0 0 0 0 
0 0 0 0 0 0 0 0 0 
0 0 0 0 0 0 0 0 0 
0 0 0 0 0 0 0 0 0 
0 0 0 0 0 0 0 0 0 
0 0 0 0 0 0 0 0 0 
0 0 0 0 0 0 0 0 0 
0 0 0 0 0 0 0 0 0 
0 0 0 0 0 0 0 0 0 
0 0 0 0 0 0 0 0 0 
0 0 0 0 0 0 0 0 0 
0 0 0 0 0 0 0 0 0 
0 0 0 0 0 0 0 0 0 
0 0 0 0 0 0 0 0 0 
0 0 0 0 0 0 0 0 0 
0 0 0 0 0 0 0 0 0 
0 0 0 0 0 0 0 0 0 
0 0 0 0 0 0 0 0 0 
0 0 0 0 0 0 0 0 0 
0 0 0 0 0 0 0 0 0 
0 0 0 0 0 0 0 0 0 
0 0 0 0 0 0 0 0 0 
0 0 0 0 0 0 0 0 0 
0 0 0 0 0 0 0 0 0 
0 0 0 0 0 0 0 0 0 
0 0 0 0 0 0 0 0 0 
0 0 0 0 0 0 0 0 0 
0 0 0 0 0 0 0 0 0 
0 0 0 0 0 0 0 0 0 
0 0 0 0 0 0 0 
Thickness 1 1114 double
3.0843743587 3.0843743587 1.7116811635 1.9843670672 3.0843725678 1.9494773495 3.0843744065 1.9512136642 3.0843761364 
1.736414245 3.084373816 1.4510218628 3.0843711819 1.3862395711 3.0843762115 1.4367523966 3.084376142 1.4166554335 
3.0843743587 1.4393290494 3.0843751466 1.5233006804 3.084376773 1.6520508744 3.0843743587 1.9983980624 3.0843743587 
2.1629846179 3.0843743587 2.2788584186 3.0843743587 2.1774147493 3.0843743587 2.1654141557 3.0843744295 2.198256635 
3.0843743994 2.3121498424 3.084374223 2.5584897461 3.0843743587 2.8496172107 3.0843743587 3.0596013582 3.0843743587 
3.0307136909 3.0843743587 2.9171902145 3.0843743587 2.6109210426 3.0843743587 2.1197588039 3.0843743587 2.2762257216 
3.0843743587 2.2349555237 3.0843743587 2.0423150016 3.0843743587 1.8459579354 3.0843743587 1.7560380027 3.0843743587 
1.6940265084 3.0843743587 1.7409430805 3.0843743587 1.7158088229 3.0843743587 1.6109739106 3.0843743587 1.5413928787 
3.0843743587 1.5605758955 3.0843743587 1.7464705097 3.0843743587 2.0114864178 3.0843743587 1.9132440229 3.0843743587 
1.9066514403 3.0843743587 2.1410042746 3.0843743587 3.0843743587 3.0702069954 3.0379384475 3.0843743587 3.0542995836 
3.0843743587 2.6695739511 3.0843743587 2.4519583687 3.0843743587 2.4077034968 3.0843743587 2.3667318307 3.0843743587 
2.3959624854 3.0843743587 2.5257760238 3.0843743587 2.6924116399 3.0843743587 2.8569722938 3.0843743587 3.0729942315 
3.0843743587 3.2961855706 3.0843743587 3.4952118205 3.0843743587 3.6574318639 3.0843743587 3.318321193 3.0843743587 
3.0360173706 3.0843743587 2.8069723377 3.0843743587 2.7893340362 3.0843743587 2.7245162533 3.0843743587 2.6240258918 
3.0843743587 2.4584606665 3.0843743587 2.3955595255 3.0843743587 2.4806938154 3.0843743587 2.7345327827 3.0843743587 
2.5605529739 3.0843743587 2.6122022099 3.0843743587 2.467081194 3.0843743587 2.3942500267 3.0843743587 2.7142041993 
3.0843743587 2.9282646523 3.0843743587 3.1018613394 3.0843743587 3.244847384 3.0843743587 3.3073375313 3.0843743587 
3.1813924158 3.0843743587 3.4642150101 3.0843742755 3.6896467253 3.084373881 3.6050600194 3.0843739521 3.4631197295 
3.0843743587 3.3152743608 3.0843743587 2.9318649104 3.0843743587 2.6024145738 3.0843743587 2.2749504809 3.0843743587 
1.9928497145 3.0843743587 1.7099636173 3.0843743587 2.1460136859 3.0843743587 2.4535240525 3.0843743587 2.6985500713 
3.0843743587 2.8464381602 3.0843743587 2.9322244522 3.0843743587 2.9985186295 3.0843743587 3.0455484035 3.0843743587 
2.7736960076 3.0843743587 2.5523340834 3.0843743587 2.5541886122 3.0843743587 2.5767184912 3.0843743587 2.6081213899 
3.0843743587 2.8306786214 2.4499055813 2.4046569098 2.5554502818 2.2469034537 1.7626335484 1.5371606861 1.454858888 
1.4563730973 1.5162713735 1.6587024579 1.9583373668 2.458070549 3.0445876955 3.079626032 2.9039166643 2.7343153321 
2.628263897 2.6366988285 2.7860765419 3.2052363307 3.5647650412 3.6152812188 3.3784828845 3.1213911136 2.7234816509 
2.9543619159 2.9187123231 2.7403928531 2.4508371371 2.1856054202 2.0137447524 2.0206583805 1.9710893555 1.898933756 
1.9025977918 2.0286530791 2.3300272663 2.8970512433 3.2965069392 3.4399850207 3.3175215157 2.7511755153 3.0127895297 
3.0948383602 2.9237964574 2.7165212929 2.5190283757 2.5966498475 2.7939801021 2.8925819155 3.0153192363 3.1756096242 
3.2113594594 3.3996632714 3.5504479564 3.7041607607 3.4122484967 3.0375244233 2.7826211832 2.7019603633 2.5777784961 
2.4565261502 2.3658067007 2.3941728981 2.6171915497 2.8908166086 3.0545765601 2.9655883218 3.0147496121 2.8935145109 
2.7990419605 2.8338237288 3.0192202575 3.1856058091 3.3153120193 3.3548341958 3.746296052 4.0304079602 4.2084860584 
4.0184525946 3.7049591094 3.2878178902 2.9421305197 2.7752194758 2.4916784762 2.2392809713 2.4613662283 2.6171168806 
2.8950179673 3.0636528326 3.0736866874 3.1204261835 3.1453157194 2.995790859 2.900152446 2.8849258361 2.9186426638 
2.9294791829 3.0715358051 3.2001746866 3.2394173668 3.3592152927 2.1233974762 2.492435933 2.0033487142 1.9328263875 
1.8313169765 1.9233592406 2.1217620574 2.4337766747 2.9757956495 3.7559863884 3.896653149 3.6849432554 3.2758056325 
2.9419707439 2.8542141737 2.9001858946 3.1683242924 3.4936444827 3.7563205436 3.4724844864 3.2773389428 3.6427821792 
3.5033069077 3.6416508859 3.3394412427 3.0222333079 2.7325478686 2.5100309385 2.3865232579 2.3491538517 2.3161838876 
2.3959312759 2.6053253426 2.9795728897 3.7785972563 3.9777503055 3.871138397 3.6587223038 3.0183705735 2.7505398211 
2.8470207498 3.4060949719 3.26097356 3.4597834734 3.6421683178 3.4470217679 3.1564400385 2.9503562076 2.8655579574 
3.0223707251 3.1491669559 3.2811634582 3.8485671556 3.5275635418 4.126605358 4.3428080383 4.1448385023 3.8166466997 
3.1982216225 2.9952849687 3.0896746382 2.837517546 2.608958596 2.6195528034 2.7819120044 3.0418176641 3.1305058186 
3.1044432242 3.162229319 3.2118379694 3.1568355834 3.1333561124 3.217805529 3.1268467134 3.0166708649 3.2084936559 
3.3098819196 3.1775958252 2.9650236235 2.6421014484 2.583438524 2.4617514092 2.8047929884 3.0391436936 3.1547272866 
3.3279927983 3.4131845349 3.3454808572 3.4206801027 3.5535284087 3.7516263493 3.6457717899 3.319449898 2.9841533435 
2.8018556019 2.6370975611 2.439108237 2.4812161966 2.5290455853 2.5889195083 2.6894102103 3.0889509242 3.4964234817 
4.1607206333 3.9309735788 3.3350729802 3.3424758463 3.8038660966 3.543431107 3.9301378257 3.9844921378 3.9242112463 
3.6193871842 3.2824247012 2.9207875473 2.7068327997 2.5578114895 2.5750847812 2.5923499664 2.6555422047 2.7794131408 
2.9978146857 3.290203892 3.6546459091 3.7915229803 3.397841445 3.023772409 2.7404674712 2.8574457443 2.6828589727 
2.8695555502 2.5864240235 2.468946179 2.3413695223 2.3199650004 2.4687163359 2.8014410711 3.30063703 4.0216012093 
4.4644134881 4.1413129336 3.6340048854 3.1922406879 3.0883093301 3.1052450561 3.2629531241 3.5047424997 3.7210957766 
3.4632709436 3.1251177418 3.0682378383 3.1408855997 3.7677965697 3.3949609411 3.9186434876 3.2324303942 3.4100680128 
3.8139992276 3.8323550019 3.7876380403 3.3810451165 3.6781653419 3.2412322303 2.9745946801 3.0166202116 3.1358243851 
3.3050510417 3.5898494526 3.5315794442 3.8258946681 3.3493594649 3.391474909 3.5880383402 3.6594927471 3.7522366286 
3.6618907554 3.4875221538 3.0071141046 3.1417083957 3.5723189637 3.316332337 2.9388014821 2.8023276645 2.8814985153 
3.1107732951 3.1426194719 3.1040636159 3.259406277 3.3659709501 3.2981776443 3.2885546445 3.3634051737 3.2943085512 
3.141669418 3.3637873768 3.4188811943 3.2676845129 2.9403183233 2.4987703673 2.4013645603 2.441276923 2.7847633523 
3.0472348592 3.2487542432 3.3228006248 3.3654682933 3.2769404954 3.3745287068 3.4968365582 3.8068225043 3.9171792591 
3.7915683168 2.9470586035 3.14065347 2.7419081155 2.5540613768 2.521799653 2.5398405457 2.5958834208 2.7368467442 
3.0026128184 3.3152572073 3.5787909846 4.4279314662 3.9579668692 4.4683805219 4.2357773865 3.5762103352 3.1968723028 
3.2414370478 3.320293528 3.3128496939 3.1098711598 3.5553477233 3.8137306678 4.3143735063 4.0715251716 4.6924738653 
4.8794939444 4.4888397491 3.8098722862 3.5005914669 3.3784645652 3.6121268317 3.4744502618 3.7489949266 4.0558501876 
3.9574248782 3.8340532357 3.6505383354 3.3182278854 2.9664784334 2.7418854691 2.6724693898 2.6801120745 2.6729789273 
2.7383412136 2.7967956893 2.7835900953 2.9804981784 3.1181861122 3.4189633116 3.0899658941 3.6125342092 3.6022599289 
3.4265013595 3.2012456158 2.9911281217 3.0066114696 3.1207998855 3.4100650115 3.6211290911 3.6555986504 3.8865425801 
4.1113988718 4.0795905116 3.6503789584 3.2147155929 2.9869163495 2.851893236 2.7956257859 2.7327179318 2.5818465897 
2.6182631963 2.9821838315 3.6194727996 4.0946306966 4.5780123102 3.7570367759 4.1859051176 3.4165894898 3.2161018725 
3.2392543309 3.3513060872 3.5047624168 3.4937374539 3.3640290754 3.2013838196 3.2724417194 3.1269303278 3.1411883818 
3.5139802578 3.3575999121 3.7507286208 3.9346958839 4.6328416034 4.7206459578 3.9903100053 3.7322175476 3.9719987698 
4.0020014868 3.7130820458 3.5471126512 3.4269105616 3.2043280303 3.1869528197 3.1248770979 3.1059026399 3.0100196625 
2.7515352858 3.045921907 3.8888342846 3.6204033572 3.078061968 2.8167175035 2.960096048 3.2443362505 3.2403966177 
3.3557863953 3.4712163538 3.4943729327 3.4006104298 3.3819765988 3.4911596454 3.4097806697 3.2819335943 3.3251815199 
3.1335492556 3.263488238 2.7780465211 2.4497741859 2.4466610085 2.5150323361 2.8228709722 2.9929989069 3.0179711088 
2.9997178286 3.0101419668 3.0816514444 3.245312125 3.4505506685 3.7892812258 4.0329230129 3.9134847994 3.9021941173 
3.7366399703 3.8074196263 3.6524760211 3.3874495007 3.2055633182 2.9081570676 2.6405312752 2.6683276369 2.7409731072 
3.3830047268 3.4715223088 3.7778881296 3.9043640881 4.0095598017 3.7705158675 4.0436993102 3.7061865567 3.3865842917 
3.1798748784 2.9561716707 2.9124539887 2.8808052262 2.9219157092 2.9465437 2.8973186834 3.1684987386 4.0577850595 
4.2951187217 3.6344738939 2.8980507814 3.1067953282 3.4158827595 3.4505631555 3.5193695405 3.6177684724 3.6333819496 
3.4678612784 3.3489408083 3.2570379889 3.2764597823 3.2547631073 3.4306321375 3.5649847887 3.5111023243 3.6428195261 
3.3097989923 3.1232154888 2.9412596481 2.7252991984 2.4697834658 2.439249334 2.4544180358 2.6084282687 2.7148444022 
2.7728382773 2.7294908904 2.7241080834 2.983864508 3.2601766685 3.5492609676 3.7756301304 3.9575650341 3.8512757741 
3.7987429188 3.7676841668 3.662734593 3.614374207 3.5521921753 3.4377876491 3.2154386158 3.0236760349 3.0460427249 
3.976092575 3.8761498998 3.8020754882 3.6386247131 3.3172057625 3.0082082102 2.740751432 2.5945173149 2.5082843951 
2.5973831444 2.6453121606 2.6654875836 2.640429823 2.7734578097 2.9257822495 2.7708768389 3.0316320187 2.6923401587 
3.4310765218 3.6069806256 3.7181082172 3.4767996639 3.2080639974 3.220645539 3.3442165006 3.5193141092 3.8043349731 
4.0438321066 4.2250098315 4.1912663743 3.8297932875 3.4191993676 3.1102637938 3.0136707687 3.0969154091 3.1575788258 
2.9471008733 2.8035488192 3.0716146147 3.6856233864 4.0254472674 4.2420401734 4.3978650905 4.3177818211 4.3270365853 
4.2508802404 4.0612641451 3.7247677124 3.4413893914 3.3567391961 3.3840645837 3.4467882265 3.5426990614 3.6985930175 
3.6939807145 3.6629140346 3.6514548237 3.3228857251 3.1738077249 3.3031637101 3.5348510219 3.5150467607 3.537290693 
3.5631987988 3.7433143735 3.4285990024 2.9739951516 2.9395960348 2.890482653 2.9887192191 3.1167936331 3.0363156715 
3.0780248552 3.7890485 4.344630537 3.0110413264 3.6139502621 3.2446371902 3.4089831941 3.4838806207 3.5698538536 
3.6548242971 3.6770317338 3.5665498477 3.4992794257 3.4959325328 3.5147578284 3.5325792315 3.5415392286 3.5719178591 
3.5268825397 3.5163168273 3.4095606281 3.4993527392 3.3250726635 3.1368925552 2.9628260091 2.7773555973 2.5903275783 
2.5732719611 2.5485564327 2.5271100607 2.5495996004 2.673763944 2.5708948313 2.8574953099 2.6100825875 3.2041831855 
3.5791703166 3.7753780447 4.2069006585 4.1882252642 3.5932735403 3.7084356927 3.6542418526 3.6548494133 3.3244198385 
3.3422788334 3.7905628998 3.7248220133 3.7336889192 3.717937538 3.3626618117 3.0314981427 2.7499009217 2.5091584713 
2.2104188635 2.3197306141 2.4834348282 2.5450040135 2.5080673204 2.5781384808 2.5350296081 2.83777504 2.8581434663 
3.0685322137 3.3572505263 3.474942181 3.5803305596 3.3692144939 3.2597855308 3.3518229245 3.4623067403 3.5706645914 
3.8619612876 4.0960340749 4.2734139297 4.2102160592 3.9456980372 3.6417742396 3.301908824 3.253571107 3.3794280901 
3.5796389014 3.3951266848 3.2288310461 3.0898468253 3.5056584092 3.787534521 3.8278941063 3.8842604865 4.0594365417 
4.0670430096 3.9344775141 4.1049698564 4.0439075192 3.9146607453 3.8008909995 3.7227446248 3.7612204049 3.7955419111 
3.7620727192 3.7809921671 3.9834810911 4.0288198971 4.0080146814 3.6975847835 3.3888434357 3.2474318595 3.2583116979 
3.4620540987 3.4620996096 3.4939372898 3.5059342105 3.2892035503 3.5456645591 3.8402222636 3.927909419 4.0820095998 
4.5104953784 4.7947178333 4.9182060119 4.398971533 3.8170765864 3.5136197893 3.4831150438 3.5401479003 3.561839241 
3.6106873683 3.6897566765 3.7448094985 3.6459428443 3.673155305 3.553187022 3.6598140085 3.6436717588 3.3521537837 
3.0612274493 2.7987591978 2.4822706892 2.0975351497 2.1014952383 2.2699892773 2.4240715798 2.4481903773 2.9518792256 
2.7215832428 2.7218715908 3.1673020628 3.1997457624 3.2405471983 3.3006191337 3.3517758116 3.2731597076 3.1693303888 
3.270271365 3.3934668912 3.4927740161 4.0076710189 3.9328642089 4.1007690949 4.0534045927 3.8650312928 3.5411871667 
3.1719257182 3.2550939316 3.6394609828 4.130217792 3.426019169 3.738774098 3.1785519814 3.2649500986 3.5468456767 
3.510110272 3.5206664377 3.6646426051 3.6796050686 3.6800729215 3.5148274621 2.318940401 2.2472393214 3.5168430449 
3.3299574804 3.171603613 3.2457621694 3.3968307211 3.6669751947 4.1121193062 2.9346579645 2.7490851089 2.8087138567 
2.8441131236 2.8506475319 2.9630597664 3.1626066362 3.7333464382 4.2378195765 3.8818162622 3.9152253335 3.5159801367 
3.1591564875 3.310423503 3.4205645474 3.4551942628 3.5534859991 3.671229865 3.6069937892 3.5260809732 3.5488212213 
3.5967214438 3.6106282262 3.5625514559 3.4935000037 3.4536258597 3.384744795 3.1914247494 3.4110038386 3.2045273824 
3.355243199 3.3183661296 3.2041057721 3.1071085408 3.3450017142 3.525605611 3.8020731921 3.8360690423 3.8658978928 
3.7049027999 3.7312860885 4.0114666257 4.6187021049 4.2041124095 4.0022406819 2.6710810556 2.5791015974 2.4861028265 
2.4876413499 2.4382198237 2.2219806094 2.0414776045 2.0098931356 2.2123082934 2.3643801054 2.5278247519 2.8232463514 
3.221747823 3.186913192 3.6598711749 3.4678175174 3.7051635254 3.5984905923 4.571102243 4.230737872 3.7287061691 
3.0586830069 3.3720315461 3.2063441114 3.3600600594 3.5327894372 3.6947100517 3.7169136114 3.5737835694 3.4964980796 
3.4874267607 3.4583124065 3.5573442234 3.6020461019 3.2579896773 3.3571916305 3.3683405303 3.23564166 3.3070164976 
2.8373473394 2.9698286177 2.9943030707 2.9880025821 3.1509960724 3.4477823278 3.6730086627 3.7756337874 3.5162766938 
3.2614280819 3.2325812812 3.3552099158 3.3492626953 3.2517296662 3.3233291368 2.1666100827 2.3385482345 2.7159888987 
3.1828786677 3.2303585508 3.1308067145 3.2823289253 3.2169657169 3.3649640391 3.4511201486 3.4367859522 2.0907842948 
3.3158887164 3.0880533385 2.7901221788 3.6158522566 2.4173940219 3.370316069 3.2961812404 3.4428128123 3.1209178025 
3.0467666566 3.4031615561 3.4215789925 3.3309593969 3.4067415881 3.5033203791 3.1634528604 
Total_Motion 1 1114 double
6.0221620875 6.0093606116 6.1114761226 6.0869437831 6.2140964798 6.1887911144 6.3903449195 6.3605980702 6.5780357387 
6.620736488 6.8428934621 6.8755203189 7.0656214845 7.1001345127 7.3859137968 7.3129290258 7.7584940067 7.5833075845 
8.2183964565 7.8764669612 8.8176299428 8.3160138739 9.5996055754 8.880163091 10.432549727 9.5032326931 11.027730418 
10.066724557 11.302051973 10.349461875 11.298475196 10.434561048 11.181606327 10.405808259 10.968987591 10.231286378 
10.659018742 9.9893505037 10.266537515 9.6544717467 9.8032372935 9.2954153663 9.3198676857 8.8183865141 8.8759506027 
8.3235550436 8.4001324664 7.8494989181 7.9001352954 7.3380705954 7.4406872484 6.9342686529 7.0393663586 6.5707841734 
6.6491485729 6.1859858938 6.3498133185 5.9265912317 6.2174828045 5.7942770835 6.3201880257 5.8687783479 6.5591924728 
6.1384963186 6.8440273488 6.401874177 7.0860949614 6.6356111172 7.1985687996 6.7462176548 7.0126562659 6.6540701624 
6.8924288665 6.5170074821 6.6702566514 6.3042565706 6.4731181875 6.1594210437 6.3095702538 6.1587029495 6.1542542261 
6.1253234153 6.0304370326 6.1160549057 9.3839756225 9.3408697468 8.7225459851 8.7925159631 9.2819742792 8.6285151158 
9.1771742097 8.4679549546 9.0440912384 8.3280409468 8.8861179714 8.2008579465 8.7773250586 8.0547982591 8.668708925 
7.921628972 8.5561411691 7.7959706307 8.4354829825 7.7243314691 8.3024964003 7.6731223534 8.1523815939 7.6234483555 
8.1253992185 7.6821393067 8.1667513557 7.7667973061 8.2680099 7.8505850118 8.4190125258 7.9294590637 8.4662053366 
7.989934069 8.4527245195 8.0324818992 8.4308428919 7.9192300997 8.2788871814 7.7593801918 8.0536837708 7.5731318984 
7.7733939958 7.3032127288 7.5800908163 7.0971898187 7.450225911 6.9623384775 7.4190598678 6.9764748251 7.4230529207 
7.1602739235 7.4455253822 7.2305358032 7.3995939391 7.1993935071 7.3200931879 7.1393072395 7.1920215562 6.9761764387 
6.9867263853 6.7005760596 6.7609675665 6.3618645368 6.5524128185 6.0242089821 6.3468109613 5.6796064855 6.1442241453 
5.4717692467 6.1904817058 5.4565551286 6.2977758194 5.5159322264 6.4978638273 5.7143408388 6.6675650513 5.8966499714 
6.8122835219 6.066661571 6.7734121597 6.1284287584 6.7589089846 6.1836119699 6.7827866079 6.2281413914 6.8949381235 
6.3353070396 7.0510525311 6.4956970567 7.3841648752 6.8045535735 7.731343007 7.165084099 8.1092357247 7.5859941605 
8.4548825335 7.9163335733 8.7739239639 8.176848177 8.7761370682 8.1897492245 8.6965107263 8.1644259228 8.5889581072 
8.1331834084 8.5384778135 8.135061684 8.6485578107 8.2317001048 8.8141886622 8.3807847229 9.0363300665 8.5474458181 
9.2178692978 8.6817567925 6.2843295813 6.1756439222 6.4031112482 6.7825580489 7.0768240275 7.2389179234 7.4037114029 
7.6297888087 7.8798057535 8.1212211014 8.4521145133 8.8692701768 9.2565258773 9.4952157379 9.5910851341 9.6073803332 
9.4817370393 9.3631501435 9.2459723759 8.959311052 8.596688208 8.168870155 7.6648779962 6.998132415 6.5139718598 
6.1393543927 5.8071254132 5.6172915722 5.5902531849 5.6823358016 5.9360394049 6.1958854701 6.4397187539 6.5534616102 
6.4698390967 6.3704859627 6.2189834851 6.1303390524 6.1799844847 6.2293464027 6.2067372014 6.1947261271 7.881120829 
7.9646076657 7.7467163171 7.589771637 7.411407625 7.2091245908 7.0550506915 6.9678868845 6.9924701593 7.0685140541 
7.1178301187 7.2092971615 7.3458744566 7.4516721688 7.5342985106 7.6012295937 7.6438422116 7.5693840544 7.4349504476 
7.2353269263 7.009348967 6.8094099901 6.6660634123 6.6080708342 7.1408537924 7.0426331391 7.1768885053 7.1731001303 
6.9858374309 6.7098717582 6.3508186832 5.923146022 5.3783176814 5.0085815177 4.9929690346 4.99787121 5.0731202164 
5.2016940719 5.294242514 5.3666418946 5.444755905 5.530411143 5.7060827066 5.9259288309 6.1679785431 6.5041821329 
6.9335103653 7.2861083257 7.5618466245 7.5666446832 7.5444920488 7.475943276 7.4538476265 7.5570691049 7.7232592887 
7.9006276604 7.9493900981 8.0118291747 6.9424606326 6.9030121145 7.3052311259 7.1703712779 7.4495104258 7.5638768776 
7.6980876497 7.8792864982 8.0338631284 8.2101609513 8.4459040473 8.6384920007 8.7736423883 8.8751671914 8.9045600987 
8.8444316209 8.8692654414 8.8145448792 8.6563898775 8.4076855073 8.083401733 7.7080167706 7.2810306983 6.0156308975 
6.2940564045 5.7678727105 5.6790721317 5.7067626628 5.8122208204 6.0987363103 6.3547551545 6.5779746249 6.7062852673 
6.6286647437 6.5561412419 6.4884537393 6.5305773382 6.4829843692 6.3701474391 6.2958767416 6.2613883407 6.3322009709 
6.3822348167 6.6530451683 6.9912184639 7.1906856596 7.245425331 7.4084115438 7.4523819177 7.2340616192 6.9416765561 
6.5929436291 6.2327378178 5.9278590943 4.6762987226 4.8455651547 4.640168869 4.6371529194 4.643762229 4.6857469986 
4.7495623305 4.8268294931 4.9129383784 5.1308132057 5.3129061696 5.5356141907 5.808009184 6.090347977 6.3913013108 
6.6827537431 6.7006375104 6.6832598317 6.6253505202 6.6146341389 6.7669668283 6.917340308 7.0686875783 7.0496936985 
7.1241861056 7.0606016853 7.0035483001 6.9113058484 6.820284538 6.6635207534 6.4467516509 6.3085517015 6.2383851585 
6.3945822949 6.5290816038 6.6502612547 6.7812914745 6.9199039477 7.0568386161 7.1431766848 7.157798496 7.2719462556 
7.2668664279 7.1645151359 6.9766033881 6.8091721545 6.6363003828 6.5777423154 6.4839669964 6.7501689691 7.1704647202 
7.7618773274 7.594463076 5.2407306405 5.8126065213 6.6622347006 6.9557502572 6.3957721829 6.1753384701 5.9968974976 
5.9739003172 6.0901566827 6.3300635658 6.6018013512 6.8124677685 6.9282034822 6.9486467574 6.8974995216 6.8398167548 
6.7724206445 6.7355514217 6.4793945049 6.6497747754 6.3264957931 6.293666569 6.3936601913 6.4740730835 7.5960509507 
7.461112846 7.7021951878 7.7771595586 7.8448068149 7.9356967532 8.0483145246 8.1582801083 8.2060687339 8.2261690263 
8.336777734 8.3908001378 8.3943656875 8.4316998223 8.4181392826 8.3993359137 8.3485473752 8.2404307972 8.0471331135 
7.7285523946 7.4831584129 7.2872145669 7.1189613345 6.8221112843 6.9309617573 6.6739557968 7.1132308988 7.3077775433 
6.9779560242 7.1233960511 6.6951685556 6.7717854481 7.7529303499 7.4782012833 7.2020347789 6.9176395428 6.6041149841 
6.3608262805 6.3149483957 5.8276438021 6.3943160742 5.2996949882 4.952460664 4.6909174946 4.5831060683 4.4865478301 
4.4144596611 4.3801575272 4.3767276128 4.4422115583 4.5095296615 4.6957346833 4.9400544715 5.0707732648 5.1522283822 
5.247525124 5.4244154081 5.6915334693 5.7212838479 5.7199120041 5.6910492451 5.7544753664 5.9322220039 6.0894134034 
6.2488714045 6.0108444493 6.1362455944 6.1430749442 6.1184139179 6.0704168299 5.976152606 5.8619730558 5.6757025014 
5.6097933164 5.6441418715 5.8344988535 6.0413728969 6.2510886782 6.4114232596 6.5636179854 6.6475405074 6.7409245785 
6.7614666587 6.9525036496 6.9378992872 6.8817334669 6.7194536142 6.6217941644 6.5334945062 6.5085127403 6.5772029577 
6.7353488351 7.0473530138 7.4108002533 7.8220688317 7.6207129422 7.9053154414 7.8528386371 7.5893017517 7.3260941732 
7.0834538869 6.8103619397 6.9113860151 6.5823583649 7.2108631483 7.4297678253 7.643589468 7.4632720335 7.8331404079 
7.9140765047 7.8649132578 7.7378761916 7.526921764 7.3005023046 7.0787478828 6.806699107 6.5801577154 6.4712450038 
6.3382655293 6.2880836752 6.3480887373 6.5049356874 6.7479834366 6.9701144384 7.1003071727 7.1808020387 7.1565131949 
7.0703026881 6.9992829676 6.9235269456 6.8647811312 6.849554358 6.7943002357 6.8071557238 6.6903831928 6.5526348852 
6.4757522225 6.3617030819 6.3478009105 6.3986135537 6.4903120791 6.5136490002 6.5752941705 6.740936791 6.7035931279 
6.8567655072 7.0227267789 7.3007650795 7.5770512944 7.748366547 7.853192593 7.8853131324 7.9280873297 8.0017561238 
8.0085393224 7.9844073107 7.9744656714 8.0051665388 8.2202075825 8.3839861868 8.4216136996 8.1970898032 8.1362980984 
8.1202351567 8.1046292969 8.036573567 7.9171383707 7.7788313365 7.6628522569 7.4669571248 7.2320765579 6.966083601 
6.6927802743 6.636284085 6.6341957288 6.534303835 8.4616425479 8.4855696938 6.9692331206 6.7196649467 6.5981020979 
7.1981967745 5.9709079786 5.5321957964 5.2378504497 4.9837890998 4.8531696967 4.6535314449 4.5012221482 4.3607549976 
4.2847332697 4.288573071 4.3780876921 4.5020328632 4.6560735514 4.6801633588 4.7239701733 4.7193002909 4.8654890515 
4.8417331829 4.8828823039 4.9430400091 4.9531904712 5.0437785686 5.2273998826 5.4296135436 5.6535095996 5.4913949861 
5.2565439137 5.328323378 5.293763217 5.3352655574 5.2716730697 5.1963575836 5.084640158 5.0661313929 5.2495970717 
5.4404023501 5.6496199291 5.7971968069 5.9551352909 6.1307551852 6.271106763 6.4036941308 6.4928101157 6.3157614114 
6.3533306599 6.1207235907 6.5691992308 6.6872573899 6.6878407715 6.6205501333 6.4829246778 6.4534947671 6.510605761 
5.2749295626 5.0348256046 7.3279746671 7.7681281657 7.5377291773 8.091131375 6.8139455411 6.1714066708 5.742217116 
5.6169143376 5.4174057104 5.1824335372 4.9239207124 4.664730818 4.4250908901 4.3573887766 4.3715060034 4.5070526492 
4.7334453518 4.6949380497 4.6395017521 4.5144269593 4.4068113662 4.4563439533 4.4983628545 4.5013352081 4.5145436475 
4.490582784 4.5282651424 4.6297421372 4.8745578281 5.1311502516 5.0476410139 4.7871996886 4.7209609442 4.7517209247 
4.7059693026 4.7094292111 4.6895091409 4.7651904094 4.8173781374 4.7807366926 4.724569468 4.7557291606 4.8710636928 
5.079662354 5.2761853941 5.4437566134 5.4984890909 5.5738714469 5.6848851994 5.9165665377 6.1445323662 5.9413922951 
5.9771090447 5.7746809087 6.1934876167 6.4241597243 6.544155558 6.4991232481 6.449683022 6.3941966181 6.4441322057 
6.4586317027 6.3855390311 6.4057892827 6.5494827629 6.7430381611 6.9453970177 7.1170408417 7.1862353258 7.1608578251 
7.1031517901 7.006956673 6.9072159579 6.8713478074 6.855269993 6.839948572 6.7197841026 6.6626416784 6.4069214907 
6.7356647939 6.6734514817 6.5272655377 6.4041299582 6.3175320526 6.2825662386 6.315710147 6.3835244756 6.4183069118 
6.4953766645 6.5990205187 6.7967237173 7.0527372918 7.3719320701 7.6380280611 7.6932694691 7.6617463167 7.6241279726 
7.5793263155 7.6355274777 7.6704619134 7.7183163927 7.8319666907 7.9657337305 8.2720368106 8.7511042443 8.6354295946 
8.7861475684 8.673631886 8.4991941967 8.2826380068 8.0927302883 8.0098808642 7.9594440987 7.9044990165 7.8681940619 
7.8315548426 7.6983948102 7.5335040514 7.1832988281 6.8191995057 6.5298069891 6.3644283569 6.2802621744 6.5118294309 
6.4428532821 6.3310359798 6.2366229157 6.0057786789 5.7012958852 5.3193336278 4.9637409004 4.6259368856 4.5466966561 
4.5182870225 4.6795459278 4.9266530205 4.7551200579 4.909251584 4.6287519571 4.4738905819 4.4966509726 4.5225880201 
4.5795771894 4.5961755393 4.5244913971 4.4506183155 4.4280641258 4.4988423259 4.6686818411 4.7943457973 4.7360011257 
4.8765126119 4.9750325325 5.267283201 4.6854331825 4.612566411 4.4538366176 4.4292850385 4.4474188161 4.490388511 
4.5587771191 4.6782544319 4.7967633775 4.9415682853 5.1808218737 5.3727405468 5.3976715467 5.4388329268 5.4644741798 
5.5665647335 5.7532238842 5.1076294713 5.3041561974 5.653288953 5.7273037766 5.7214483305 5.8096633697 5.9992217098 
6.2999160422 6.300604522 6.2969311936 6.4241323062 6.5534976496 6.7086605467 6.8572104528 6.9640180914 6.9755671278 
6.9350487877 6.8211032583 6.6699103116 6.5598433542 6.571233125 6.6143462278 5.930691589 5.9620120797 5.3256756192 
6.3439980976 6.5769426777 6.5756906553 6.49313747 6.2888625135 6.1052795069 6.068768689 6.0824969477 6.1338600414 
6.1622057768 6.192362701 6.1943701781 6.3088028391 6.5343628982 6.7734921899 6.9887390274 7.051047003 6.9901200533 
6.8610171387 6.9547622812 7.0383827558 7.1981511691 7.2877139692 7.4646460124 7.6987939423 8.0608902614 8.4352786392 
8.8721848669 8.6762626235 9.0355448499 8.9727125694 8.9115392895 8.6391679259 8.3325145038 8.056092089 7.9419223611 
7.8309493923 7.6577825836 7.6967200022 7.7216174625 7.5683960133 7.3464659564 7.0166889468 6.6490053545 6.3634247289 
6.2326800687 6.0732337244 6.110510715 6.195321549 6.7102693202 7.0593638645 7.2432408104 7.4049769548 7.5660389858 
7.629051631 7.7797366073 7.9093860399 7.9557286451 8.0020616378 7.9119883059 7.6675863953 8.1165460542 8.499558005 
8.3398450379 8.6800971419 7.7910947402 6.9030973596 6.1247969803 6.0881232022 6.1895679241 6.3605619005 6.5133646666 
6.5693003366 6.5763794039 6.5926182431 6.5646940744 6.4555734915 6.0760646118 5.9527255512 5.9148691058 4.7731389198 
4.6380057501 4.7872383846 5.4074635525 5.9631474227 6.2675631366 6.4306956918 6.3795704316 6.0597285979 5.8741111762 
5.8174486067 5.75776098 5.724150259 5.6430652787 5.7156127169 5.5849719162 5.6646320505 5.8574506914 6.0241295648 
6.1757002498 6.2000727498 6.1368439148 5.8229234678 6.4338672027 6.1722439768 6.6939689327 6.9154675763 7.1111849462 
7.4646718734 7.7672164582 8.0747424354 8.319145665 5.6861251177 5.4786044752 5.5052282143 5.6150315486 6.3052363828 
6.294735058 6.3910330405 6.719988457 6.984741079 7.1806465535 7.4559804913 6.8001891248 6.368116328 5.8612448646 
5.4182906954 5.068312996 4.9360444067 4.8706551381 4.9558682604 5.2019270251 5.5951715431 5.2978970491 5.2175266611 
5.0997842795 4.9133846168 4.7847897403 4.8064313131 4.7646230522 4.7598213508 4.7587412348 4.7262871013 4.6616070072 
4.518624517 4.4724010825 4.6027793247 4.7579012584 4.8673654302 5.1042658981 5.5540220059 5.378745512 5.7393326751 
4.9654666811 4.6543179124 4.5442064625 4.5886652529 8.3897370463 8.7435765153 9.0155853533 8.9849079398 8.9552213909 
8.9001450901 8.5610909461 8.1883171007 7.9110874483 7.7283881511 7.676352532 5.0084430252 5.1478861665 5.3273129252 
5.5373700202 5.5955481458 5.8103705794 5.7816890435 6.072931438 5.6031462117 5.5655698295 5.5406286942 5.5792415393 
5.5864850355 5.7916593397 5.9168614575 6.0778962357 5.7929931996 5.8152023019 7.9189463626 8.0844813727 8.4048219022 
7.6506484583 5.6027196323 5.5309939551 5.3592565317 5.1932163455 5.0687162663 5.0525192996 5.1040351112 5.1400619009 
5.1509591121 5.0033665176 4.811315881 4.7207214183 5.2725280156 4.9960643636 5.4581509075 5.8605363182 4.9952488791 
7.0483412361 6.4720832548 6.0550918841 5.76248278 5.4941999999 5.3089933895 5.2363606521 5.5839859 5.8185618234 
6.112335256 6.3726295749 6.6413050066 6.9828325202 7.4223217764 7.7773577246 5.8331597984 5.8548385477 5.7934904347 
6.1059124036 6.2261298101 5.8980617583 5.5439123975 5.5822854946 5.4631282781 5.4799885346 5.2347638599 6.1919732183 
6.2472245295 6.1950963573 6.1575022545 8.8552079968 6.1936085934 5.1843928529 5.2355087773 5.1268956042 6.4499251925 
6.7706252844 6.5773224885 6.0818152591 5.9062241596 4.9319083559 4.8295292059 5.6318072973 
VAJ 1 1114 double
1 1 0 0 0.99999881155 0 1.0000000427 0 1.0000013454 
0 0.99999967501 0 0.99999809768 0 1.0000010742 0 1.0000010751 0 
1 0 1.000000481 0 1.0000015243 0 1 0 1 
0 1 0 1 0 1 0 1.0000000581 0 
1.0000000321 0 0.99999988331 0 1 0 1 0 1 
0 1 0 1 0 1 0 1 0 
1 0 1 0 1 0 1 0 1 
0 1 0 1 0 1 0 1 0 
1 0 1 0 1 0 1 0 1 
0 1 0 0 0 0 0 0 0 
0 0 0 0 0 0 0 0 0 
0 0 0 0 0 0 0 0 0 
0 0 0 0 0 0 0 0 0 
0 0 0 0 0 0 0 0 0 
0 0 0 0 0 0 0 0 0 
0 0 0 0 0 0 0 0 0 
0 0 0 0 0 0 0 0 0 
0 0 0 0 0 0 0 0 0 
0 0 0 0 0 0 0 0 0 
0 0 0 0 0 0 0 0 0 
0 0 0 0 0 0 0 0 0 
0 0 0 0 0 0 0 0 0 
0 0 0 0 0 0 0 0 0 
0 0 0 0 0 0 0 0 0 
0 0 0 0 0 0 0 0 0 
0 0 0 0 0 0 0 0 0 
0 0 0 0 0 0 0 0 0 
0 0 0 0 0 0 0 0 0 
0 0 0 0 0 0 0 0 0 
0 0 0 0 0 0 0 0 0 
0 0 0 0 0 0 0 0 0 
0 0 0 0 0 0 0 0 0 
0 0 0 0 0 0 0 0 0 
0 0 0 0 0 0 0 0 0 
0 0 0 0 0 0 0 0 0 
0 0 0 0 0 0 0 0 0 
0 0 0 0 0 0 0 0 0 
0 0 0 0 0 0 0 0 0 
0 0 0 0 0 0 0 0 0 
0 0 0 0 0 0 0 0 0 
0 0 0 0 0 0 0 0 0 
0 0 0 0 0 0 0 0 0 
0 0 0 0 0 0 0 0 0 
0 0 0 0 0 0 0 0 0 
0 0 0 0 0 0 0 0 0 
0 0 0 0 0 0 0 0 0 
0 0 0 0 0 0 0 0 0 
0 0 0 0 0 0 0 0 0 
0 0 0 0 0 0 0 0 0 
0 0 0 0 0 0 0 0 0 
0 0 0 0 0 0 0 0 0 
0 0 0 0 0 0 0 0 0 
0 0 0 0 0 0 0 0 0 
0 0 0 0 0 0 0 0 0 
0 0 0 0 0 0 0 0 0 
0 0 0 0 0 0 0 0 0 
0 0 0 0 0 0 0 0 0 
0 0 0 0 0 0 0 0 0 
0 0 0 0 0 0 0 0 0 
0 0 0 0 0 0 0 0 0 
0 0 0 0 0 0 0 0 0 
0 0 0 0 0 0 0 0 0 
0 0 0 0 0 0 0 0 0 
0 0 0 0 0 0 0 0 0 
0 0 0 0 0 0 0 0 0 
0 0 0 0 0 0 0 0 0 
0 0 0 0 0 0 0 0 0 
0 0 0 0 0 0 0 0 0 
0 0 0 0 0 0 0 0 0 
0 0 0 0 0 0 0 0 0 
0 0 0 0 0 0 0 0 0 
0 0 0 0 0 0 0 0 0 
0 0 0 0 0 0 0 0 0 
0 0 0 0 0 0 0 0 0 
0 0 0 0 0 0 0 0 0 
0 0 0 0 0 0 0 0 0 
0 0 0 0 0 0 0 0 0 
0 0 0 0 0 0 0 0 0 
0 0 0 0 0 0 0 0 0 
0 0 0 0 0 0 0 0 0 
0 0 0 0 0 0 0 0 0 
0 0 0 0 0 0 0 0 0 
0 0 0 0 0 0 0 0 0 
0 0 0 0 0 0 0 0 0 
0 0 0 0 0 0 0 0 0 
0 0 0 0 0 0 0 0 0 
0 0 0 0 0 0 0 0 0 
0 0 0 0 0 0 0 0 0 
0 0 0 0 0 0 0 0 0 
0 0 0 0 0 0 0 0 0 
0 0 0 0 0 0 0 0 0 
0 0 0 0 0 0 0 0 0 
0 0 0 0 0 0 0 0 0 
0 0 0 0 0 0 0 0 0 
0 0 0 0 0 0 0 0 0 
0 0 0 0 0 0 0 0 0 
0 0 0 0 0 0 0 0 0 
0 0 0 0 0 0 0 0 0 
0 0 0 0 0 0 0 0 0 
0 0 0 0 0 0 0 0 0 
0 0 0 0 0 0 0 0 0 
0 0 0 0 0 0 0 0 0 
0 0 0 0 0 0 0 0 0 
0 0 0 0 0 0 0 0 0 
0 0 0 0 0 0 0 0 0 
0 0 0 0 0 0 0 0 0 
0 0 0 0 0 0 0 0 0 
0 0 0 0 0 0 0 0 0 
0 0 0 0 0 0 0 0 0 
0 0 0 0 0 0 0 0 0 
0 0 0 0 0 0 0 0 0 
0 0 0 0 0 0 0 0 0 
0 0 0 0 0 0 0 0 0 
0 0 0 0 0 0 0 0 0 
0 0 0 0 0 0 0 0 0 
0 0 0 0 0 0 0 0 0 
0 0 0 0 0 0 0 0 0 
0 0 0 0 0 0 0 0 0 
0 0 0 0 0 0 0 0 0 
0 0 0 0 0 0 0 0 0 
0 0 0 0 0 0 0 0 0 
0 0 0 0 0 0 0 0 0 
0 0 0 0 0 0 0 0 0 
0 0 0 0 0 0 0 
vtkValidPointMask 1 1114 char
1 1 1 1 1 1 1 1 1 
1 1 1 1 1 1 1 1 1 
1 1 1 1 1 1 1 1 1 
1 1 1 1 1 1 1 1 1 
1 1 1 1 1 1 1 1 1 
1 1 1 1 1 1 1 1 1 
1 1 1 1 1 1 1 1 1 
1 1 1 1 1 1 1 1 1 
1 1 1 1 1 1 1 1 1 
1 1 1 1 1 1 1 1 1 
1 1 1 1 1 1 1 1 1 
1 1 1 1 1 1 1 1 1 
1 1 1 1 1 1 1 1 1 
1 1 1 1 1 1 1 1 1 
1 1 1 1 1 1 1 1 1 
1 1 1 1 1 1 1 1 1 
1 1 1 1 1 1 1 1 1 
1 1 1 1 1 1 1 1 1 
1 1 1 1 1 1 1 1 1 
1 1 1 1 1 1 1 1 1 
1 1 1 1 1 1 1 1 1 
1 1 1 1 1 1 1 1 1 
1 1 1 1 1 1 1 1 1 
1 1 1 1 1 1 1 1 1 
1 1 1 1 1 1 1 1 1 
1 1 1 1 1 1 1 1 1 
1 1 1 1 1 1 1 1 1 
1 1 1 1 1 1 1 1 1 
1 1 1 1 1 1 1 1 1 
1 1 1 1 1 1 1 1 1 
1 1 1 1 1 1 1 1 1 
1 1 1 1 1 1 1 1 1 
1 1 1 1 1 1 1 1 1 
1 1 1 1 1 1 1 1 1 
1 1 1 1 1 1 1 1 1 
1 1 1 1 1 1 1 1 1 
1 1 1 1 1 1 1 1 1 
1 1 1 1 1 1 1 1 1 
1 1 1 1 1 1 1 1 1 
1 1 1 1 1 1 1 1 1 
1 1 1 1 1 1 1 1 1 
1 1 1 1 1 1 1 1 1 
1 1 1 1 1 1 1 1 1 
1 1 1 1 1 1 1 1 1 
1 1 1 1 1 1 1 1 1 
1 1 1 1 1 1 1 1 1 
1 1 1 1 1 1 1 1 1 
1 1 1 1 1 1 1 1 1 
1 1 1 1 1 1 1 1 1 
1 1 1 1 1 1 1 1 1 
1 1 1 1 1 1 1 1 1 
1 1 1 1 1 1 1 1 1 
1 1 1 1 1 1 1 1 1 
1 1 1 1 1 1 1 1 1 
1 1 1 1 1 1 1 1 1 
1 1 1 1 1 1 1 1 1 
1 1 1 1 1 1 1 1 1 
1 1 1 1 1 1 1 1 1 
1 1 1 1 1 1 1 1 1 
1 1 1 1 1 1 1 1 1 
1 1 1 1 1 1 1 1 1 
1 1 1 1 1 1 1 1 1 
1 1 1 1 1 1 1 1 1 
1 1 1 1 1 1 1 1 1 
1 1 1 1 1 1 1 1 1 
1 1 1 1 1 1 1 1 1 
1 1 1 1 1 1 1 1 1 
1 1 1 1 1 1 1 1 1 
1 1 1 1 1 1 1 1 1 
1 1 1 1 1 1 1 1 1 
1 1 1 1 1 1 1 1 1 
1 1 1 1 1 1 1 1 1 
1 1 1 1 1 1 1 1 1 
1 1 1 1 1 1 1 1 1 
1 1 1 1 1 1 1 1 1 
1 1 1 1 1 1 1 1 1 
1 1 1 1 1 1 1 1 1 
1 1 1 1 1 1 1 1 1 
1 1 1 1 1 1 1 1 1 
1 1 1 1 1 1 1 1 1 
1 1 1 1 1 1 1 1 1 
1 1 1 1 1 1 1 1 1 
1 1 1 1 1 1 1 1 1 
1 1 1 1 1 1 1 1 1 
1 1 1 1 1 1 1 1 1 
1 1 1 1 1 1 1 1 1 
1 1 1 1 1 1 1 1 1 
1 1 1 1 1 1 1 1 1 
1 1 1 1 1 1 1 1 1 
1 1 1 1 1 1 1 1 1 
1 1 1 1 1 1 1 1 1 
1 1 1 1 1 1 1 1 1 
1 1 1 1 1 1 1 1 1 
1 1 1 1 1 1 1 1 1 
1 1 1 1 1 1 1 1 1 
1 1 1 1 1 1 1 1 1 
1 1 1 1 1 1 1 1 1 
1 1 1 1 1 1 1 1 1 
1 1 1 1 1 1 1 1 1 
1 1 1 1 1 1 1 1 1 
1 1 1 1 1 1 1 1 1 
1 1 1 1 1 1 1 1 1 
1 1 1 1 1 1 1 1 1 
1 1 1 1 1 1 1 1 1 
1 1 1 1 1 1 1 1 1 
1 1 1 1 1 1 1 1 1 
1 1 1 1 1 1 1 1 1 
1 1 1 1 1 1 1 1 1 
1 1 1 1 1 1 1 1 1 
1 1 1 1 1 1 1 1 1 
1 1 1 1 1 1 1 1 1 
1 1 1 1 1 1 1 1 1 
1 1 1 1 1 1 1 1 1 
1 1 1 1 1 1 1 1 1 
1 1 1 1 1 1 1 1 1 
1 1 1 1 1 1 1 1 1 
1 1 1 1 1 1 1 1 1 
1 1 1 1 1 1 1 1 1 
1 1 1 1 1 1 1 1 1 
1 1 1 1 1 1 1 1 1 
1 1 1 1 1 1 1 1 1 
1 1 1 1 1 1 1 1 1 
1 1 1 1 1 1 1 1 1 
1 1 1 1 1 1 1 
Stress_X_Pt 1 1114 double
0.015136325266 0.012457455974 0.010806945269 0.014388739131 0.0067852393258 0.0064666727558 0.0034676979994 0.0040421693702 0.00060979451519 
0.0019837373984 0.0010123520624 0.0015978409792 0.0015952969513 0.0022473650441 -0.00013648861591 0.0022641210652 0.00035351968836 0.0029526710859 
0.0016846240906 0.0042537133413 0.002997405827 0.005878820084 0.0036918011028 0.0071631978499 0.0043643008685 0.0079152993276 0.0052993206773 
0.0085582729662 0.0060521920677 0.009283206542 0.0066858148202 0.0099294628017 0.0069244068582 0.010194528499 0.0067106427159 0.0097463425482 
0.0060408557765 0.0085801284295 0.0051250401884 0.0071895339061 0.0046421186998 0.0060105392477 0.0049887355417 0.00532814709 0.0057445128914 
0.0051414360059 0.0063292989507 0.0049681069213 0.0066901631653 0.0048886922887 0.0059542478994 0.0042794121546 0.003657769179 0.0029390204581 
0.0015819350374 0.0022570587753 0.00055704166152 0.0022347873564 9.295709151e-05 0.0023680600184 -0.00034951588623 0.0026459619053 -0.0011037850054 
0.0028416074929 -0.0015644095838 0.003025890328 -0.0015055792755 0.0035831716668 -0.0011977406102 0.0045153581596 -0.00045660479009 0.0055692979786 
0.00074714162838 0.0064224753132 0.0025756619871 0.0072229488287 0.005452360143 0.0087118484662 0.0090805036016 0.011098197661 0.012181685306 
0.013595560566 0.013884831686 0.014955129707 0.0088232462294 0.0054705620278 0.010318757617 0.012581876246 0.0030225947849 0.0084855665627 
0.0012548084196 0.007254043725 -3.8207508624e-05 0.0064572701231 -0.0008445509302 0.0058717338106 -0.00089183688397 0.005417890352 -0.00051374835311 
0.0052040726441 -7.0716472692e-05 0.0051933178984 0.00060540447885 0.0054652567997 0.0019742285367 0.0062324831961 0.004552413011 0.0068786843913 
0.0070732010063 0.0070196172455 0.0079808323644 0.0068166772835 0.0075877546333 0.0061287020799 0.006722397171 0.0050886233221 0.0063707053196 
0.0044139368692 0.0068912887946 0.0044401939376 0.0077156729531 0.0045824485715 0.0084069324657 0.0047035132593 0.008221195545 0.0047527507704 
0.0068331812508 0.0049430640065 0.0049541553017 0.0054947496392 0.003015209455 0.0054952962091 0.0012475995463 0.0057614493417 -3.3260148484e-05 
0.004953479016 0.00036285602255 0.005798874743 0.0026198651758 0.0083546912356 0.0058853658848 0.011686527869 0.0097485950682 0.014458648511 
0.013460943941 0.016381140565 0.017000019085 0.017991208704 0.020324749872 0.019389220513 0.022789926268 0.020636314061 0.021143818274 
0.019755018409 0.015289613977 0.015424242243 0.0090551057365 0.010360506014 0.0037429713411 0.0066185956239 -0.0018815604271 0.0034769812482 
-0.0045091530774 0.0020760124316 -0.0038631642237 0.0026917739306 -0.0037426416529 0.0031245363061 -0.0031966043171 0.0029992848868 -0.0024567883229 
0.0027171123656 -0.00049249024596 0.0028595610638 0.0022740976419 0.0029195416719 0.0036684215302 0.0029585026787 0.0039915358648 0.0032492898754 
0.0041012864094 0.0032974541537 0.0040655881166 0.0033479987178 0.0043787807226 0.0039667704841 0.0055542830378 0.0051877665101 0.0074138466734 
0.0067082861206 0.0099168727174 0.0089089517714 0.012213081587 0.011319684796 0.01400844194 0.013488221448 0.014642516151 0.014875418507 
0.012571849395 0.014459329424 0.0094544239109 0.013842685032 0.006010394427 0.0036063517444 0.0022302162834 0.0025510730338 0.0037420071894 
0.0050600551767 0.00689977 0.0094272908755 0.011718224036 0.012616739841 0.012786196545 0.013375362847 0.014085137052 0.014458945021 
0.014103280613 0.012730727904 0.010605361778 0.0081912551541 0.0059746396728 0.0042962020962 0.0032401133212 0.0031362257432 0.0028992272564 
0.0021678179037 0.0025123431697 0.0033449231996 0.0042143164901 0.0054426657734 0.0069254293339 0.0082578398287 0.0097531292122 0.011531169293 
0.012981700245 0.013499470428 0.013136337511 0.012588024838 0.012858940521 0.014258655254 0.015845933231 0.016248936998 0.016362620983 
0.016695932485 0.01621568203 0.016019503586 0.015198966023 0.013560958439 0.012125045061 0.011408228194 0.010993415955 0.010762668448 
0.0097248235252 0.007832317031 0.0062477062456 0.0048614954576 0.0034096688614 0.0024523419561 0.0022066469537 0.0019901087508 0.0017720769101 
0.0021380670078 0.0035889106221 0.0057561510475 0.0073292047018 0.0083743352443 0.010917278007 0.0096993303547 0.013736410299 0.016649221769 
0.01834277669 0.018684744835 0.018178012688 0.017324179877 0.015998786502 0.016607876634 0.014597613132 0.011692534201 0.0099259642884 
0.009259239072 0.00926141534 0.0097886952572 0.009843805572 0.0085747496923 0.0069353253348 0.0053041086649 0.0033634707797 0.002353252843 
0.0023819828057 0.0024132787366 0.0027220912161 0.0036003952846 0.0048848869046 0.006399716367 0.0084702692693 0.010931710014 0.013499365654 
0.015678565018 0.016780634876 0.016981214751 0.0093174590729 0.0097434862982 0.0022867307416 0.0027692972217 0.002499504888 0.0036824520212 
0.0057759670308 0.0083883394254 0.01153473719 0.014357914915 0.015331586357 0.015067710541 0.015132623492 0.015567482216 0.016045018565 
0.016172660049 0.015254894737 0.013109657448 0.010359289707 0.0075857053744 0.0049818048719 0.0031305804732 0.0024508197093 0.0019819338049 
0.0028819877189 0.0019544714305 0.0027352741454 0.0039579381119 0.0056356524583 0.0077014724957 0.0098330192268 0.011930367909 0.013965583639 
0.015474864747 0.015981081175 0.015339794569 0.013592812605 0.011920422548 0.012169981841 0.01367797819 0.016518990044 0.017461377196 
0.013733860105 0.0033580799936 0.0029911838355 0.010498196818 0.010547691258 0.012310147285 0.014093938749 0.015383986756 0.015792085091 
0.015328047797 0.014251593733 0.012571803527 0.012691091048 0.013181686634 0.011441892711 0.010349919554 0.0095681769308 0.0095506596845 
0.010205452796 0.0096223535948 0.0075538326055 0.00579229102 0.0044922109228 0.0030972847599 0.002254758816 0.0021972018003 0.0024154537241 
0.0028123535449 0.0035344173084 0.0048351551523 0.0066609518835 0.0087544451235 0.010956460377 0.013445181074 0.015590802999 0.016693374142 
0.017515429296 0.01862120023 0.019985923078 0.021165530197 0.021316703875 0.019775359891 0.016913536005 0.014340332011 0.012936127139 
0.012010436971 0.011156001827 0.010236255359 0.0087996338261 0.0070339394733 0.005241607083 0.0036541518639 0.0025953139644 0.0023614316597 
0.0024798121303 0.002673155861 0.003192724078 0.0042853956111 0.0055961222388 0.0069667823846 0.0086731358897 0.0099501647055 0.010210522218 
0.010193051212 0.0096176480874 0.012221232522 0.010853253305 0.0030370223685 0.0036725459504 0.0022555129253 0.0016737604747 0.0017971791676 
0.0027469727793 0.0042964707827 0.006384622422 0.0088305693353 0.011233692057 0.013436857378 0.015483069466 0.016977962106 0.017713221256 
0.017518882407 0.016427261988 0.010149386479 0.010997275822 0.010211196961 0.011897161836 0.013767673401 0.012979805702 0.0019745009777 
0.0023454821785 0.0025645591959 0.004325268208 0.0070080051664 0.010433955118 0.014306995785 0.017417544965 0.018195353914 0.017334032338 
0.016824505106 0.016858064104 0.017340326682 0.017556392588 0.01685650181 0.015224731062 0.012845395831 0.0101256466 0.0073401981499 
0.0047093046014 0.0032341081533 0.0036127460771 0.0044478611671 0.003375787288 0.0041497367783 0.0024661050993 0.0039291578578 0.0030524127651 
0.0048543057637 0.0037058846404 0.01274263463 0.015156920999 0.011012239149 0.011840695282 0.012192922877 0.012050485238 0.011468819343 
0.010760142701 0.010059519205 0.0099275491666 0.0093774355482 0.010524943471 0.011112052947 0.011252449593 0.010720251827 0.0099073839374 
0.0089116439922 0.008334834245 0.0085949496133 0.0080181142548 0.0062363302568 0.0052446685731 0.0046496833093 0.0031547522522 0.0020609425555 
0.0022246060253 0.0026497459039 0.0028858884471 0.0034056734876 0.0045339488424 0.0061504539335 0.0079575834097 0.0098042041063 0.011941497447 
0.013766206801 0.014760640264 0.017043959582 0.019095885567 0.021600195672 0.023797400761 0.024303462356 0.022606546991 0.019570094999 
0.016807119129 0.014871120686 0.013281085761 0.011719724862 0.010192840593 0.0086297227535 0.0069990996271 0.005363711156 0.0040189471911 
0.0031568136183 0.0023649288341 0.0022161366069 0.0029079674277 0.0036818353692 0.0048232219415 0.0061661186628 0.0072594815865 0.0081490847515 
0.0086318550166 0.0088831649628 0.0090664310846 0.0090955838095 0.0087552288314 0.0088832057081 0.0091859833337 0.01007325016 0.010778742842 
0.010823150864 0.010496716248 0.0072906620335 0.0069307350786 0.0076859002002 0.0071470157709 0.0076051491778 0.0064352765912 0.0084973901976 
0.0084442659281 0.0083516479935 0.009068719577 0.0101278855 0.010507396422 0.010169829475 0.0023258444853 0.0026919888915 0.0017272178666 
0.0015186012897 0.0019642801781 0.0030796142528 0.004828935198 0.0071656731889 0.009752916405 0.012203953229 0.014448848786 0.016365788644 
0.017811524682 0.018928308971 0.019391635433 0.018631591927 0.017287642229 0.013981537893 0.01610874827 0.011979460483 0.010372587014 
0.0092317340896 0.0085146646015 0.0087252778467 0.0095930693205 0.0096881738864 0.010049878852 0.0084980315296 0.0070806532167 0.0065620203968 
0.0047260727733 0.0034750251216 0.002565006871 0.0018348580343 0.0017025106936 0.0024611076515 0.0042169732042 0.0071120396024 0.011314456817 
0.016215491109 0.019454691559 0.019564843737 0.018079726491 0.016648950754 0.019125045277 0.018743228633 0.019206997473 0.018505329266 
0.016910446575 0.014674268663 0.012177941389 0.0095820460701 0.0068527680123 0.0051948075416 0.0049498049775 0.0049273417098 0.0045025116415 
0.0028319852718 0.0032454392349 0.0027456783573 0.001999916276 0.017650373746 0.015463660704 0.0092196578626 0.0098248340655 0.0086613900494 
0.0083278642269 0.0092900332529 0.009947209619 0.010253933957 0.010146192508 0.0095773786306 0.0086525103543 0.00744464132 0.006427017157 
0.0060213274555 0.0053691599169 0.0044955690391 0.0045593585237 0.0047553419136 0.0034782881849 0.0021157803712 0.0021464934689 0.0026994965738 
0.0029562932905 0.0032057276112 0.0039840259124 0.005281136604 0.0067668635165 0.0082277323818 0.0097753205337 0.011030284688 0.011631899513 
0.018953453284 0.016385305207 0.021765501238 0.024157330394 0.024931822438 0.023948381189 0.022045131773 0.020076999906 0.0179459434 
0.015398564748 0.012718605576 0.01026495616 0.0082511478104 0.0066095589427 0.0051900683902 0.0040806300822 0.0034852949902 0.0032780364272 
0.0024140664609 0.0029974466306 0.0018887171755 0.0020037157228 0.0025232930202 0.0031040795147 0.0041040785727 0.0053773213876 0.0067268592538 
0.014004277298 0.01193549647 0.0094132050872 0.0082238515606 0.0073400734691 0.0070699605858 0.0079208563548 0.0085934915114 0.0092153713728 
0.0092508660164 0.0090295958798 0.0082438824465 0.0071500648046 0.0059009053512 0.0048918136163 0.0045582364546 0.0041721188463 0.0038254035753 
0.0045513479505 0.0047406159574 0.0035841412027 0.002196092275 0.0020997965476 0.0026041258243 0.00277413812 0.0027582127368 0.0032560238033 
0.0041927816928 0.0052406977629 0.0063392079901 0.0075119546382 0.0086675832281 0.0096155274659 0.010430183727 0.012429393595 0.011346073821 
0.013977731578 0.015975110931 0.018349164631 0.02089069644 0.023143511731 0.024327028543 0.024446871597 0.023806457873 0.022358689923 
0.020127658732 0.017462313175 0.013754544547 0.010537273949 0.008153433213 0.0063557412941 0.0049991281703 0.0040096204611 0.0037752502831 
0.0026855954784 0.0034705020371 0.0022084432421 0.0017982322024 0.0019550688254 0.0025842355681 0.0031164946849 0.00410626753 0.0054973754101 
0.0015409624903 0.0017253847909 0.0024381181574 0.0036844493006 0.0055121959886 0.0078312479891 0.010388922878 0.013132883934 0.015738293063 
0.017572340555 0.018828440458 0.019968802109 0.020508565474 0.019771087449 0.018584255129 0.018302497454 0.014991620788 0.017623965861 
0.012936450075 0.011257836828 0.0098298161756 0.0087352702394 0.0077887126245 0.007008514367 0.0067672057776 0.0066885250853 0.0062505340902 
0.0053091202863 0.0040286802105 0.0028710232 0.0020559818076 0.0016767803172 0.0019024892244 0.0029555346118 0.0047575921053 0.0072894754121 
0.011261806823 0.016146953218 0.018964841031 0.018377684522 0.016509772744 0.014673060272 0.01291368925 0.014285789104 0.011581226718 
0.017296882113 0.019777609035 0.020819426049 0.02051268192 0.01927081123 0.017317695543 0.014769851696 0.011933487374 0.0094343029195 
0.0073865716113 0.0059943081578 0.0053162674885 0.0047796808649 0.004476402537 0.004052479344 0.0023402300722 0.0033469151822 0.002031531767 
0.0021293845784 0.001625860401 0.0083321724087 0.0080691318726 0.0071895367 0.00607391831 0.0051424459089 0.0044561183313 0.0042394844349 
0.0042889384204 0.0045263700304 0.0052386064781 0.0036223423667 0.0048963561421 0.0023978623212 0.0022485674126 0.0024622313795 0.0024211872369 
0.0024009104236 0.0027527442435 0.0033841259428 0.0041626401944 0.005115252221 0.0063117498066 0.0076475498499 0.0087663205341 0.0097277909517 
0.010507616214 0.011984852375 0.010758104967 0.013065036153 0.014323855052 0.01580270147 0.017589273397 0.019722627476 0.021792412736 
0.023141072597 0.023636032362 0.023363174405 0.022191633005 0.020573580638 0.019428620581 0.010906328447 0.014257875504 0.0082029780606 
0.0061927806819 0.0047897328623 0.0053715173854 0.0058234054595 0.0045879022218 0.0033301548683 0.0045009009191 0.0025042137713 0.0025284636766 
0.002496543515 0.0015851282224 0.0021460301941 0.0030352915637 0.0042915134109 0.006020512199 0.0081327238586 0.010564268334 0.013652083697 
0.016847893363 0.01901931176 0.020401102491 0.021527830511 0.021774034016 0.020483265165 0.020663503557 0.016719229519 0.019314119127 
0.014056229731 0.01210807357 0.010798758827 0.0097187869251 0.0085006549489 0.0070811551996 0.0058128815144 0.0049472427927 0.0041895844974 
0.004248120531 0.0039839810925 0.0032499511726 0.0023093035561 0.0017035104102 0.0018716596242 0.0026978388487 0.0039409975871 0.0054321591742 
0.0072854227619 0.010297827655 0.014034105465 0.01613051584 0.015431311214 0.013593153795 0.012080401648 0.010690527502 0.0093827126548 
0.010377441067 0.0082567777717 0.013013963588 0.015474380692 0.017660530051 0.019122459926 0.018787037581 0.017015442019 0.015003419714 
0.01253709686 0.0092023056 0.0077438518638 0.0067779491656 0.0060303639621 0.0055772310589 0.0050767648499 0.0047382554039 0.0043633942259 
0.0038077310892 0.0028200162342 0.0033302111551 0.0020701473404 0.0061893461971 0.0062894272851 0.0058596765157 0.0064975739224 0.0075810271082 
0.0074764516903 0.0081044610124 0.0083457354922 0.0085793929175 0.0084095539059 0.0087485034019 0.0094555034302 0.0079294540919 0.0072700597811 
0.0065596206114 0.007556517492 0.0066270056413 0.0074234867934 0.002654522541 0.0018025659956 0.0036729179556 0.0048283476499 0.0062994277105 
0.0080674410565 0.010276567191 0.013442049734 0.017096893862 0.019901303109 0.021605106443 0.022814064752 0.022642438766 0.018544234335 
0.020813228562 0.021425251383 0.015862008557 0.013507729862 0.01164444536 0.010382066481 0.009520665044 0.0084056342021 0.0069047035649 
0.0054429048905 0.0043459072476 0.0036108223139 0.0029640391003 0.0030271218275 0.0025207131403 0.0018721855013 0.0016961282818 0.0024777264334 
0.0038722081808 0.0049826827599 0.0057962537976 0.0068016512319 0.011192279402 0.0089080964681 0.012537767878 0.012028371217 0.010653673206 
0.009669772815 0.0087929383153 0.0077715727966 0.0069102029083 0.0030814579804 0.0033684319351 0.017227828037 0.018831198104 0.0032090529567 
0.003958082234 0.0048077831743 0.0054345597746 0.0056152333273 0.0058261733502 0.0065407518996 0.0071376943961 0.0064605455846 0.0056279514683 
0.0051990379579 0.0049729479942 0.0049037683057 0.0051237961743 0.0056274557719 0.0063244317425 0.0058420177083 0.0057220642144 0.00532409281 
0.0040841707378 0.0028058764292 0.0021464768797 0.0019379590231 0.0020554933872 0.0022765609319 0.0025826418423 0.0031694383943 0.0039551178343 
0.0048479727702 0.005951529718 0.0072436245391 0.0083915146533 0.0090370564722 0.0092424394097 0.0092065415811 0.011927641695 0.010542266537 
0.013387754327 0.014756590594 0.015713475024 0.016692445613 0.008265062701 0.0086861515883 0.0092284583952 0.011523296591 0.013663156889 
0.013743085554 0.014119873056 0.014026407385 0.011507166922 0.010579535738 0.009939719302 0.022157374769 0.02261378197 0.022288491018 
0.021275300998 0.020349714905 0.020240781363 0.017503562849 0.019041829742 0.016594932725 0.014218232362 0.011156504042 0.0083403418539 
0.006135720876 0.0063048122451 0.0042453210335 0.0053982994286 0.0031236578361 0.0022397613211 0.0093727859979 0.010231097229 0.010038622096 
0.0065116778016 0.0054713084828 0.0044067962444 0.0029587309109 0.001903194061 0.0016272410576 0.0020298148447 0.0024075413239 0.0026228026836 
0.0030515269609 0.0036969365319 0.0044628034229 0.0054075602675 0.0079539917642 0.0082362947675 0.01337300404 0.011636487208 0.015229455661 
0.0063162808074 0.0060866338899 0.0061421490973 0.006366786547 0.0065966873663 0.0066872216994 0.0066051835505 0.0075610892382 0.0087147642625 
0.0092186167603 0.0088274187874 0.0080788197229 0.007557512261 0.007186613162 0.0069119025332 0.014766643988 0.011585720815 0.0087620065315 
0.010255207773 0.0094470499704 0.0092521659099 0.0055173941655 0.0068249651231 0.0044071341399 0.0037759299545 0.0039296909235 0.016151427757 
0.0063678162793 0.0075026387349 0.0095522996271 0.010820300085 0.012553610839 0.005887479987 0.0069994188379 0.0047830339754 0.0089356051758 
0.005791695381 0.010242753973 0.0016228271124 0.002243398776 0.0077378056012 0.0066230596276 0.00792230363 
Stress_Y_Pt 1 1114 double
0.01839733962 0.016286007129 0.015765266959 0.017581005581 0.005331566721 0.0072788357156 0.00056042794677 0.0019868821782 -0.001478764927 
-0.00024744318216 -0.0012348999735 -0.00093378609745 -0.0018085390329 -0.0020921518444 -0.0052811931819 -0.0044085384579 -0.0044247867772 -0.0038914055331 
-0.0025330202188 -0.0017953962015 -0.0011397096678 7.6507196354e-05 -0.00075655779801 0.00088231626432 -0.00033681213245 0.0010714121054 0.00057143634331 
0.0014996569262 0.0015281763044 0.0024165408977 0.0028087649262 0.0036010029726 0.0037368701305 0.00458077027 0.0043339238036 0.0050134955673 
0.0031290366896 0.0037793618685 0.00076995275413 0.0016993195923 0.00023448339743 0.00092798332025 0.00087505139527 0.0012683521636 0.0023051798926 
0.0025653232005 0.0043959135655 0.0043275353382 0.0061583379284 0.0056919221533 0.0061431140639 0.0055390599882 0.0031545727688 0.0027887208998 
-0.00058993222774 -0.00061259586073 -0.0028106158134 -0.0026734709973 -0.0036729896674 -0.0035373159917 -0.0041219943669 -0.0037327901809 -0.004450277891 
-0.0036274424056 -0.0042610117234 -0.0034228126751 -0.0040607159026 -0.0032634924864 -0.0041272107046 -0.0032131437329 -0.004465241218 -0.0035117319785 
-0.0053493992891 -0.0044323485927 -0.0059044372756 -0.0051573833916 -0.0046716138022 -0.0042824251577 -0.00084784388309 -0.00073289501597 0.0053978240467 
0.0055393931398 0.011895446572 0.01230747439 0.0044310929952 0.0024283307139 0.0026397930633 0.0047337934957 0.0020837491611 0.002227409248 
0.0026742932387 0.0028807167546 0.0024009715416 0.002776926005 0.00073968811193 0.00133932881 -0.00048616316053 -0.00021044246387 -0.0011116448732 
-0.00096978116198 -0.0011339866323 -0.00074317310282 1.7873710021e-05 0.00067095618942 0.002777841175 0.0038150868495 0.0063316309825 0.0071249643806 
0.0084948670119 0.0086347779725 0.0081971394829 0.0082845287398 0.007117227884 0.0071276129456 0.0070024842862 0.0066798005719 0.0080611635931 
0.0075715620769 0.010195338167 0.0093588151503 0.012217052281 0.010765588842 0.012866299134 0.011324428953 0.011613328476 0.010891501792 
0.0093512120657 0.0098601537757 0.0064854340162 0.0080227433937 0.0018273240421 0.0037964621442 -0.0024330294691 -0.00088030828047 -0.0045557750855 
-0.0035153535428 -0.0044585614232 -0.0029678836763 -0.0009187948308 0.0009297640172 0.0043655593763 0.0061067641655 0.0080996509641 0.0089799263515 
0.0089281159453 0.0088854464702 0.0089774266817 0.0082156035351 0.0099935373291 0.0083813481033 0.012416148558 0.01024472469 0.01369781699 
0.011629550019 0.0086005849298 0.0078986990266 0.0014054967905 0.0021130588575 -0.0011151235085 -0.00038582366324 0.00026131951017 0.00052486736604 
0.0038306779461 0.0037642426032 0.0059256693348 0.0068697332172 0.0057626559865 0.007996947621 0.0057220091112 0.0078297101427 0.006109982729 
0.0079245283268 0.0066347520333 0.008503784542 0.0069742272608 0.0084549265448 0.0073690589052 0.0085122237215 0.0075561751146 0.008556905319 
0.0077194657642 0.0080924307695 0.0075554696377 0.0074889543466 0.0070678773336 0.0069596184185 0.0072278247681 0.0071170311421 0.0081774219871 
0.0078483186662 0.0092770690098 0.008777487441 0.0094725005329 0.0090790693648 0.0097270347178 0.0093799738679 0.0099216019735 0.0094817371573 
0.0077879864257 0.0076309177093 0.0081275195116 0.012528385269 0.0039284968225 0.0021171187982 0.0004509233986 -0.0010202242265 -0.0020533880597 
-0.0018743245673 -0.00012670534488 0.0020270930618 0.0033190007671 0.0031912661507 0.0027704079985 0.0033370297169 0.0043147453107 0.0051774625899 
0.005407374003 0.004567513708 0.0033651878766 0.0026041178498 0.0025636671344 0.0031706025766 0.0037545444793 0.0041274680756 0.0041346282233 
0.0020613723027 -0.00038196791138 -0.0019151759188 -0.0025210721069 -0.0022444247588 -0.0015618731975 -0.0012381906943 -0.0010826898251 -0.00090312048997 
-0.0010082429071 -0.0016398495427 -0.0022052810655 -0.001931495708 0.00041974101623 0.005086123303 0.0099194943905 0.013086121297 0.0030502375739 
0.0033894956287 0.0037757550017 0.0040070120594 0.0029504302802 0.0010414534336 6.3205821789e-05 0.00076258123227 0.0025830989216 0.0056396982982 
0.0082010442857 0.0087669349741 0.0081999049289 0.0070807401789 0.0063661006279 0.0068276774837 0.0078119310783 0.0083715687506 0.0087757026777 
0.0093648505863 0.0099757115822 0.0097905478906 0.0070381694823 0.0033353166436 -0.00047961176097 -0.00207278179 0.0037062061419 0.0080968816765 
0.0097901909612 0.0087531224126 0.0071640298702 0.0063673575642 0.006806709338 0.0081826563692 0.0064290850423 0.0032924306142 0.0014062039518 
0.0015289138064 0.0040585355891 0.0082912232028 0.010981784901 0.010814368725 0.010111811804 0.010261889081 0.010185010964 0.01000121166 
0.0093954720069 0.0081440826179 0.0072607473703 0.006729220855 0.0067516989075 0.0070458715782 0.0074278106913 0.0076272014994 0.0079075520625 
0.0080246503931 0.0069108313182 0.0050439581973 -0.00067482745362 0.0020139248591 0.0020650330116 0.0029997610545 0.00090195755183 0.00023856000917 
0.00043364312296 0.0014900735769 0.0032611565257 0.0045539714047 0.0042366930866 0.0032922775135 0.003362829797 0.0042001531692 0.00493072276 
0.0051133140223 0.0048541977303 0.0045707782847 0.0043452010141 0.0042750040302 0.0039825054118 0.0031867436483 0.0028359650751 0.0016118503554 
0.0030897974502 0.00010946584734 -0.00074582577872 -0.00090199638493 -0.00035650218473 0.00052077206988 0.0010614030091 0.0012898530367 0.0015407792016 
0.0016729247145 0.0016027599559 0.0015093830752 0.0016970226265 0.0019645254215 0.0036905235611 0.0049409255153 0.0061957815778 0.0071240737452 
0.0060058413073 0.0037182508968 0.003550397465 0.0011924313148 0.0026131870691 0.0047839416657 0.0084895994514 0.0097040776163 0.0084529037122 
0.0066926542204 0.0057642353931 0.0053957534255 0.0055033921963 0.0062305143801 0.0041712460807 0.0032785489457 0.0030126266647 0.0047698345734 
0.0089891173411 0.011994834989 0.011911940295 0.010850431863 0.010513907066 0.010699154809 0.010454117786 0.009139648173 0.0076692001894 
0.0069225616753 0.0064563699998 0.0062712064246 0.0061620919732 0.0059538292699 0.005762765184 0.0059238548856 0.006127281813 0.0057098859688 
0.0049525600625 0.0043431462254 0.0045461240225 0.0054691194091 0.0059940889478 0.0052482395549 0.0035145987058 0.0025711253111 0.0034369209025 
0.0051634076517 0.0070588006638 0.0083537895698 0.0083267356968 0.0075980320107 0.0067980483873 0.0063309931429 0.0061786040664 0.0063571901992 
0.0065343949245 0.0069374807645 0.007792290533 0.0090596167138 0.010001272662 0.0091498485999 0.0069294681307 0.0050721397274 0.0041549654561 
0.0049545256887 0.0039458146202 0.005678849644 0.0051349671558 0.003727171279 0.0041301784804 0.002797954483 0.0017131018249 0.00077881876132 
0.00032883697349 0.00039105423508 0.00097475549279 0.0018629937695 0.0025510386331 0.0029824117082 0.0033991769888 0.0036290456192 0.0039147045463 
0.0042342580855 0.0043695915956 0.0026225360925 0.0029139969265 0.0017587357142 0.0016763415479 0.0029838857008 0.0039769435534 0.002894932346 
0.0039121934096 0.001800218568 0.0013650662149 0.0016328233178 0.0026923653495 0.0043435908156 0.0053566482384 0.0047569595044 0.0035128484014 
0.0032041201368 0.0042821109528 0.0051219526213 0.0052486072527 0.0051341211656 0.0052552541019 0.0053630652837 0.0053080704529 0.0047710859799 
0.0034808086348 0.0027896372485 0.0034914792632 0.0041089992737 0.0038032014272 0.0039304264938 0.0034151503933 0.0038424133672 0.0043356303941 
0.0045679229079 0.0045893786786 0.0034955106676 0.0049316628138 0.008509032079 0.0094157266431 0.0080959771294 0.0063706712099 0.0054258088348 
0.0052135420265 0.0050105705159 0.0050261538709 0.0048121736618 0.0052899462171 0.0056174744386 0.0054796274053 0.0049878294813 0.0046946951188 
0.0045157152927 0.0056214820361 0.0089386813343 0.011841221945 0.012195140356 0.011529361829 0.011397135211 0.01137123676 0.010637540836 
0.0090534412302 0.0075348099926 0.0066799557535 0.0061899810098 0.005793860415 0.0053545847768 0.0048428511946 0.0043760249391 0.0043548383401 
0.0045231157565 0.0045179735869 0.0049161968054 0.0052312260959 0.0060547626344 0.0072765370132 0.0080524886725 0.0076813641936 0.0065203823615 
0.0060185431503 0.0066882711835 0.0076119324658 0.0080718053505 0.0079997382127 0.0074864209164 0.0068822246976 0.006479987409 0.0062750013312 
0.0060792891309 0.0049742243718 0.0049258871004 0.0055716708302 0.0067261951044 0.0083987669786 0.009914035676 0.010157860195 0.0092488626251 
0.0074974256568 0.0057631523814 0.0045779257198 0.0041945014382 0.0036839286331 0.0061347711599 0.0083022481995 0.0088937578257 0.0076768574072 
0.0059452938149 0.0050708309282 0.0073822088307 0.0089325511362 0.0057026913855 0.0042044001748 0.0030601739418 0.0030121405725 0.0045562131563 
0.0066353492439 0.0083069258835 0.0084670039359 0.0069094854407 0.0053669939516 0.0047272557858 0.0052558142925 0.0056399466703 0.0027656508028 
0.0021695832838 0.0016384704359 0.0013339728903 0.0014316051384 0.0019501331844 0.002705721301 0.0035456505138 0.0044149148162 0.0050401262706 
0.005411329912 0.0059563040268 0.0064994811546 0.0066227754578 0.0067403778667 0.0056783370674 0.0072400496574 0.0044391721021 0.0033604555647 
0.0021783939446 0.0007922753648 0.00035704847687 0.0012723007821 0.0026062037214 0.0043567195535 0.0039777857601 0.0045514875092 0.0048748120898 
0.005161940353 0.0052049036603 0.0050943804672 0.0046398571576 0.0038008982083 0.0028468890232 0.0023363973596 0.0025503399665 0.0036798259243 
0.0053283566376 0.0058897136478 0.0048961393768 0.0036256128224 0.0028741377755 0.005665659206 0.0047989707091 0.0057340860367 0.0054810050642 
0.0054185540648 0.0054982538568 0.005423681112 0.0050807968946 0.0040742430137 0.0035793157294 0.0043134613661 0.0047163764248 0.0045374759939 
0.0031912515406 0.0036639475147 0.0033639631001 0.0031269426108 0.0034139860654 0.0026814413141 0.0045937909745 0.0047367496882 0.0048380843364 
0.0046454917174 0.0050479265628 0.0053037401522 0.0055186265381 0.0056130535668 0.0056543914834 0.0057524906006 0.0058039736468 0.0065121034859 
0.0086001870222 0.010879732203 0.011776903644 0.011681433767 0.011925068218 0.01193373045 0.010788506363 0.0090274510439 0.0075995976804 
0.0066635959083 0.0059474130394 0.0053208908066 0.0046999751357 0.0040318285464 0.0034347224864 0.0031937203603 0.0032324562781 0.0034247041913 
0.0061775300419 0.0053178890375 0.0073175878497 0.0086965038208 0.0096887235995 0.0098518216982 0.0095549752004 0.0095807621256 0.0097944771405 
0.0094563530292 0.0084833434084 0.0075234225951 0.006876172265 0.0065036641899 0.0063696596771 0.0062675636727 0.0061598381338 0.0059989178553 
0.0048667273368 0.0055907530477 0.0039477664977 0.0036858157837 0.0039866549778 0.0045776866027 0.0062274428783 0.0083292311756 0.0096816562582 
0.0044913789025 0.0036434402573 0.0044760257006 0.0044314812403 0.0048470363254 0.0045948360348 0.0049471374368 0.0051078855759 0.0053003571617 
0.0053343130276 0.0054382302333 0.0057743494399 0.0061659587082 0.0063525859732 0.0067791364854 0.0081598220859 0.009855929995 0.010775657604 
0.01086447034 0.011690419866 0.011923542712 0.01076697954 0.0090907379054 0.0077609872678 0.0066632870585 0.0057620777516 0.0050407857634 
0.0042824650882 0.0034912165138 0.0028788984055 0.0025311325444 0.0023710017558 0.0025183149264 0.0028244526475 0.0039142034948 0.0030161962495 
0.0049630879657 0.0059346582275 0.0070135631831 0.0083055261057 0.009720291011 0.010919980239 0.011770533165 0.012323079864 0.012515396578 
0.012054085732 0.010241878964 0.0080958523322 0.0069728087401 0.0065435383003 0.006347890594 0.0063384160167 0.0062619850505 0.0061260017101 
0.0048191688838 0.0057743982179 0.0036799870431 0.0028922695783 0.0030616514074 0.0033033430227 0.0037607463892 0.0057126592728 0.008265778143 
0.0027775892522 0.0025930796983 0.0023959757818 0.0022672997438 0.0024206621747 0.0028316822136 0.0033888720209 0.004381672421 0.005731667392 
0.0067581548356 0.0075862592785 0.0084445329849 0.008884648676 0.0086288504535 0.0081355020714 0.0089736159425 0.0077262952691 0.0095104959328 
0.0060553180519 0.0046253064647 0.0032162652933 0.0017831893783 0.00062531458207 0.00018804767933 0.0007344072983 0.0018360658578 0.0033756166813 
0.0049867314519 0.0058399124537 0.0060096526286 0.0058899095748 0.0056135631166 0.0051456746878 0.0045360215008 0.0040975337615 0.0039712289581 
0.0045551935909 0.0057079240214 0.0058203380322 0.0046145360102 0.0035879547358 0.0030658100732 0.00282492314 0.0027644513757 0.0028986609541 
0.0036064762971 0.005345502519 0.0065508511616 0.0065677340608 0.0059395162389 0.0053023447981 0.0050096941413 0.0048759276979 0.0047402896453 
0.0043995568994 0.0045692634303 0.0055545707 0.0059708829504 0.0057235119166 0.0048508201726 0.0029777637683 0.0035779093741 0.0028304924878 
0.0031381200533 0.0029045377742 0.0050772780087 0.005110045895 0.0054505974986 0.0059225924779 0.0062440373003 0.0065838231239 0.0075071938336 
0.0088182942709 0.0095850366633 0.0095902665053 0.011492869817 0.011251159478 0.010592295788 0.0092938255984 0.007985632401 0.0067025254248 
0.0057744408259 0.0049084371421 0.0039179911255 0.0030699620838 0.0024833146599 0.0021649220726 0.0019234756764 0.0017908370355 0.0021194730361 
0.0024684202508 0.0033703959198 0.0027529101935 0.0043564597727 0.0053721762961 0.0063278648304 0.0074447536608 0.0087695093825 0.010134419659 
0.011461496819 0.0128082952 0.013903980609 0.014166200068 0.013411296997 0.011833020719 0.0066153319785 0.0074232998304 0.0064161162591 
0.0063694322016 0.0063510906184 0.010264312616 0.009260738967 0.0063270997489 0.0051911247429 0.0060036256909 0.0038504560362 0.0025416565128 
0.0025932716671 0.0027793336776 0.0029678032734 0.003145119641 0.0032380850753 0.0034475188004 0.0037560868659 0.0041004436789 0.0050283566816 
0.0066427907441 0.008421667153 0.010210668901 0.011458595516 0.011581625091 0.01059967163 0.011632318795 0.0089732925408 0.010134929093 
0.0076061354484 0.0060628557112 0.0045184518094 0.0030515441904 0.0016071837745 0.00046062651745 0.00011189252837 0.00044892190999 0.0014703684952 
0.0032816983876 0.0051450405736 0.0064347545849 0.0068365406478 0.0068339124555 0.0069010902662 0.0068458797177 0.0066586633911 0.006381348474 
0.0057717264863 0.0054547662148 0.0056697907858 0.0053381730104 0.0042554519605 0.0034424744663 0.0032141868724 0.0032180004637 0.0034051244729 
0.0030579775339 0.0036954184761 0.003014028538 0.0036483455915 0.005155998515 0.0070919292048 0.0076055335812 0.0064301739912 0.0049881185405 
0.0041158800595 0.0038721045014 0.0043342299759 0.004412317959 0.005028940388 0.0064900552388 0.0072855327744 0.0070257737534 0.0059582997346 
0.0042428623419 0.0027068880736 0.0027397713275 0.0029219355201 0.0084075711202 0.0070871452335 0.0053226624732 0.0040593866142 0.0027636946761 
0.0031815256807 0.0049816545215 0.0069826975232 0.0085109591018 0.0077920829644 0.0058689065045 0.0048407653812 0.0043196252664 0.0039970243233 
0.0046830076026 0.0038926681154 0.0049916314892 0.0049633833114 0.0035917162895 0.0028944531805 0.0041340020834 0.0043179584318 0.0044634187943 
0.0046664756956 0.0048531799112 0.0054990568897 0.006977837882 0.0093591259792 0.012432199717 0.013908452354 0.013547775801 0.0087926209904 
0.01007437023 0.011073113652 0.0077738432446 0.0068342563463 0.0056431035046 0.0042332335142 0.0030625421205 0.0018716886058 0.00073519324178 
0.00037930656072 0.00052454761317 0.00087489795987 0.0054949868936 0.0037797269179 0.006878125947 0.0075429808348 0.0079206289956 0.0084092133911 
0.0087980484823 0.008680867264 0.0082256839378 0.0077045356855 0.0057956270175 0.0064499953296 0.0050984821282 0.0042171727982 0.0035747323418 
0.0034223897965 0.003512469877 0.0038886948605 0.0044367309893 0.0023772268323 0.0015104335762 0.0085933754453 0.0098014676478 0.0031283276039 
0.0050193321658 0.0071001868928 0.0081449361751 0.0078874878818 0.006443812279 0.0049012878444 0.0049781432608 0.0051237487933 0.0054644604679 
0.0058337305672 0.0062132289167 0.006863238872 0.0076738399221 0.008298401488 0.0083787766052 0.009336240124 0.010096958218 0.010771138361 
0.010977446334 0.010355054168 0.0093472194858 0.0081386165693 0.0069874346955 0.0059238539543 0.004690709 0.0035095845815 0.0026522628032 
0.0020771385462 0.0017979682016 0.0016991626471 0.0013561314845 0.0013594900665 0.0018642983341 0.0021988169465 0.0040414092946 0.0032733791159 
0.0049737814115 0.0058403145522 0.00646742216 0.0072746594669 0.0048061991693 0.003732252575 0.0031446996145 0.0032585206209 0.0037423920973 
0.0046533488785 0.0068587223068 0.0083110959968 0.0065647493117 0.0041172001511 0.0032580517388 0.012673576362 0.014197354903 0.014674813021 
0.013907380868 0.012746551385 0.011337149888 0.0080385478213 0.008955498226 0.0076589623156 0.0071022533812 0.0066088510212 0.006494636531 
0.0065123533132 0.0061834437773 0.0052165825618 0.0053786451463 0.0044153551571 0.0031836330309 0.007777922942 0.0085492955986 0.0065629117191 
0.004736031685 0.0100212947 0.010257772868 0.0097032564227 0.0088891456835 0.0080221199896 0.0071276867529 0.0058567400556 0.0043232832104 
0.0030564906774 0.0021611664561 0.0016175750643 0.0014147018956 0.0012990184186 0.00095873818888 0.0058307804866 0.0048737871693 0.0066470085876 
0.0045935894595 0.004756593029 0.0050305966288 0.0053893490694 0.0059905280359 0.0067567636725 0.0074393171817 0.0072181811556 0.0061810369371 
0.0052929752273 0.0045834627235 0.004126136133 0.0039356903289 0.0039011951303 0.0041095428169 0.0069815408206 0.0064796295483 0.0063316192245 
0.0037824431784 0.0031002610922 0.0026552175405 0.000817491411 0.001085695083 0.00076448134496 0.0008300463863 0.0011473582272 0.0069583447184 
0.0052188773019 0.0054931886261 0.0056649961043 0.0041788516683 0.0059993541799 0.0012440624705 0.001254323055 0.0010829798703 0.0044245253666 
0.0038374037831 0.0049749432753 0.0026699449518 0.002432311594 0.0012639495835 0.0015231104044 0.0015571178519 
Stress_Z_Pt 1 1114 double
0.012428871356 0.016401045024 0.013200789806 0.0093311155215 0.015841633547 0.014513170579 0.013011995237 0.01361628389 0.010011256207 
0.012677499792 0.0068085801322 0.011155696702 0.0013318051351 0.0084121417603 -0.0012096660612 0.0071301571825 0.00066698361843 0.0072658740482 
0.0018250183202 0.006769732805 0.0022472268902 0.0056566097774 0.0020429213182 0.0044171511254 0.0016863987548 0.0033693335135 0.0012658356573 
0.0026104763674 0.00091875312501 0.0022081665957 0.00087544412236 0.0019463373901 0.00096859323094 0.0018953105609 0.001157209801 0.0021018968255 
0.0010638505337 0.0023343210632 0.0014261695324 0.0029350561672 0.0021123075858 0.0036176542053 0.0033606450306 0.0045925025479 0.0060616037808 
0.0067690627184 0.0092324856669 0.0097126057371 0.012606168631 0.012733238749 0.013617807068 0.013889736496 0.010098857339 0.011809580727 
0.005372315296 0.0087155548972 0.0022247072193 0.0065923357324 0.00026072276523 0.0052226001571 -0.00116545317 0.0042113939708 -0.0019515406457 
0.0034264261776 -0.0019311167998 0.002775508503 -0.0017576029059 0.0022001209436 -0.0015690047294 0.001788248308 -0.0014567525941 0.0014878922666 
-0.0015769765596 0.001220922888 -0.0014405032271 0.001116091822 -0.00073389153113 0.0012353857601 0.0010252081847 0.0020359564951 0.0042485193117 
0.003955515509 0.0076737557538 0.0060893244809 0.0010738298224 -0.00103610714 0.0014007092359 0.0027102419372 -0.0022212365293 0.00063940623659 
-0.0025694125798 0.00055867165793 -0.0031823413447 0.00047175819054 -0.0045779116917 -5.6841992773e-05 -0.005848783534 -0.00069077964872 -0.006703983061 
-0.0010039699264 -0.006815064 -0.00078842986841 -0.0058714933693 0.00015984708443 -0.0038049845025 0.0020907503786 -0.0010211673798 0.004217546375 
0.0018068258651 0.0061421380378 0.0041325577768 0.0079149958328 0.0064705752302 0.0094800934894 0.0095387701876 0.011599974474 0.013666267041 
0.014752808493 0.018871148117 0.018376443535 0.022914487869 0.020870267414 0.022996298969 0.021225332748 0.018477708567 0.019209787482 
0.011906530242 0.015509176766 0.0062429975951 0.011558434751 0.0027472943766 0.0083354494418 0.00081548015851 0.0068615884158 -0.0010475263439 
0.0043226632536 -0.001921605377 0.0037581228826 -0.00047060058569 0.0043114090658 0.0020256442076 0.0047744292096 0.0036678175675 0.0040855649277 
0.0040698675439 0.0030093003588 0.0043451851234 0.0027329582081 0.0048821228556 0.0030862903805 0.0073146084324 0.0053501409129 0.0098360534757 
0.0075330453692 0.0070817340165 0.0059919904452 0.0041681816801 0.004413383198 0.005306834355 0.0049735928187 0.0066232020035 0.0054236137075 
0.0051552879158 0.0047217275715 0.0028543771477 0.004515187873 0.002454964444 0.0057256192667 0.0030915364623 0.0073070561048 0.0043540816987 
0.0094791527954 0.0048501375131 0.011037517106 0.0054918080568 0.011604521424 0.0078906801064 0.012882224401 0.011074330192 0.01450346061 
0.013724854682 0.015234056627 0.014814136084 0.01498846407 0.014606903773 0.014262166806 0.01402038103 0.013548520627 0.01298420364 
0.012542175362 0.011314825621 0.011066798121 0.0090641693678 0.0091444378486 0.0069477329962 0.0072017755592 0.0053191548213 0.0055437288247 
0.0034271210898 0.0040537548484 0.014611787628 0.01273657626 0.015027276473 0.016322470084 0.017471698113 0.017590245698 0.016932547092 
0.015149248997 0.012574381661 0.0095891936217 0.0069541988196 0.004812919884 0.003364781558 0.0027956166305 0.0024279342615 0.002250835445 
0.0024510373769 0.0029840334901 0.0039098920533 0.0049355912488 0.0061569362879 0.0081787719391 0.011015370255 0.014289614931 0.014854777837 
0.013773569372 0.01245320728 0.011675378308 0.011143175187 0.010550939478 0.009505428141 0.0078336786246 0.0061016076943 0.0046331762569 
0.0035136340884 0.0028571189323 0.002694607334 0.0025932501303 0.0026879243087 0.0036541714799 0.0055550734978 0.0088852483314 0.0028561361833 
0.0032071790774 0.0029675296973 0.0033654965227 0.0038307007053 0.0040514947614 0.0045080368873 0.0054634015542 0.0066229786025 0.0082587210927 
0.0099479169585 0.011155327782 0.011991439154 0.012490342837 0.013510372955 0.015447419835 0.01738237543 0.018430483062 0.019022717606 
0.019413230009 0.018648424186 0.016553084832 0.013828323223 0.011640429031 0.0089136555325 0.0092743389929 0.0086505548097 0.0074238335947 
0.0051495871739 0.0029318918532 0.0017331992567 0.0017875749036 0.0036919795442 0.0050787022337 0.0043628141866 0.004077752179 0.0043927046936 
0.0046239190269 0.0055394222727 0.0079533099197 0.010705713765 0.012983831111 0.015329563525 0.017379980534 0.018274814356 0.018489852548 
0.018051080406 0.016896336339 0.01565149799 0.014354202198 0.013271503383 0.012325467542 0.011128398823 0.0095358062536 0.0078276278218 
0.0062432379927 0.0048143273452 0.003877793788 0.0094325086102 0.010149069596 0.018844871782 0.017126032617 0.019231776707 0.018535494339 
0.016886440106 0.014060147339 0.010859763948 0.0080967978574 0.005542214727 0.0033385207062 0.0022402292234 0.0019099627389 0.0018318454677 
0.0019579067884 0.0024080967996 0.0035407174728 0.005244023283 0.0072293556295 0.0093737822026 0.011984268203 0.014674193226 0.014520450728 
0.015697696479 0.013532773359 0.013273378834 0.013233848615 0.012866012054 0.011749838479 0.0097244350472 0.0072810532292 0.0050402843626 
0.0032683091122 0.0023008674907 0.0023109351459 0.0025434114505 0.002808721445 0.0045609438093 0.0073105245829 0.011245398317 0.014690400334 
0.015253967606 0.016235087998 0.016457044519 0.0083949670661 0.0083858334692 0.0077233462362 0.0069833737798 0.0058669855352 0.0041828276007 
0.002713516471 0.0023210988147 0.0027767472202 0.003617756418 0.0042563763564 0.0035791753908 0.0044518744107 0.0057217408903 0.0080936031882 
0.011592458701 0.013953560498 0.014974429505 0.016164096305 0.017636309378 0.018809191417 0.018957058433 0.01802897919 0.017011481337 
0.016169330571 0.014887778321 0.013588563073 0.012552189874 0.011287599569 0.0097015101928 0.0082295613829 0.0067750652088 0.0048614357365 
0.0032421012875 0.0024178609601 0.0021831214544 0.0023319047177 0.0027660622727 0.0034906090004 0.0041072005406 0.0048393151956 0.0060481393011 
0.0072457815986 0.0085234396392 0.010073244339 0.011241397588 0.011727878824 0.011967606144 0.012714105891 0.014042855054 0.01616777014 
0.017267475836 0.017802369781 0.017863265239 0.017194989137 0.01582281664 0.013902040897 0.012164918706 0.010634577367 0.0085478898836 
0.0061921047978 0.0063941902481 0.0040233752807 0.0031016334542 0.016219821293 0.016758659389 0.015830387361 0.015242965426 0.014694903512 
0.014644709881 0.014877880691 0.014865803067 0.014068934834 0.012096562656 0.009391236119 0.006803112803 0.0046710140887 0.0035489453003 
0.0035547041334 0.0037141856155 0.0054412053432 0.0036878710962 0.0073672380531 0.010088093695 0.012897712644 0.013603986241 0.016471519833 
0.015581494896 0.01675233175 0.016782626044 0.016202088678 0.014662068337 0.012376839062 0.0099556837231 0.0073538775323 0.0046622023801 
0.0027396221645 0.0021041277214 0.0021801756229 0.0022795328405 0.0027547724894 0.004239410744 0.0063802336808 0.0084199043922 0.010117660509 
0.012016484514 0.014361656271 0.016706098104 0.01701508835 0.015347534092 0.014700666536 0.015367856249 0.014777716948 0.013902744977 
0.01271642535 0.012634572573 0.003091167775 0.0035460835788 0.0058139971225 0.005509678158 0.0044597942033 0.0031771112117 0.0024105341872 
0.0024232406868 0.0025267573656 0.0029977740487 0.0024607225205 0.0034127052058 0.0034717650851 0.0033976525301 0.0038090942544 0.0050461917417 
0.0069070738973 0.0098732392071 0.013320564525 0.014920215821 0.015092786402 0.016038199421 0.017803624738 0.01911438955 0.019156785216 
0.018249299377 0.017289146315 0.016453219578 0.015279252781 0.013904372463 0.012591752457 0.011102602817 0.0094753045123 0.0081357820891 
0.0067619285546 0.0043945193291 0.0028482208145 0.0022112904699 0.0021212068968 0.0023568114266 0.0028815453988 0.0037091723643 0.0045131858205 
0.0054357131012 0.0064751937753 0.0073204735527 0.0081348970998 0.0090507061686 0.0099231353961 0.010549100116 0.010922149988 0.01144792675 
0.011975283036 0.015628934372 0.014828940155 0.016287135193 0.016342193354 0.015594772995 0.014720955398 0.013980458801 0.012527667917 
0.010726297973 0.009037344018 0.0074345202884 0.0049269164447 0.005809567403 0.0042965186294 0.0042892026249 0.0045112294611 0.0042648948147 
0.0033386659925 0.0025370065705 0.0099411788397 0.011682939483 0.0081678002607 0.0061638510088 0.003577307798 0.0042771475273 0.0033422512352 
0.0031130071729 0.0031389073119 0.003514638287 0.003632634005 0.0032049086294 0.0025798983406 0.013578108046 0.012050398393 0.015364523511 
0.015302452492 0.015096215997 0.01500037103 0.015191779472 0.015324242879 0.014808719512 0.013321919134 0.011112882057 0.0086200707592 
0.0063604501775 0.0050117758801 0.0046790684573 0.0046253602486 0.0042836410576 0.0033867600141 0.0039063848089 0.0033711763681 0.0039900972624 
0.0051960967248 0.006888689124 0.0093532170868 0.0115513294 0.012182954699 0.013220963301 0.01185998111 0.012964174617 0.011498411652 
0.011585180648 0.012252693297 0.013208659133 0.013903778745 0.014043274801 0.013770267833 0.013608004199 0.013827850809 0.013965460472 
0.013172623236 0.01117613283 0.0085936507676 0.0060638303403 0.0040870829835 0.0030048152548 0.0028038828168 0.0031989499112 0.003793245065 
0.0053400891484 0.0074566070689 0.0091340057552 0.01033619768 0.011591524817 0.013563180808 0.015557304723 0.015363449696 0.013064640341 
0.011706290068 0.010644522728 0.013001366286 0.013627067441 0.0026518283994 0.0031431890675 0.0022495012381 0.0022997132037 0.0023572346545 
0.0022026004153 0.0027262686635 0.003074704262 0.0031701530679 0.0033300014911 0.0040840636357 0.0055572182173 0.0076010379707 0.010328456294 
0.012874393491 0.013711342355 0.013822603272 0.015149027808 0.017727950588 0.019765192177 0.019742726814 0.018571458757 0.017602595501 
0.016732562799 0.015395417809 0.013830541866 0.012421267107 0.010871706763 0.0091283433139 0.007564747124 0.0061317625223 0.0045056490926 
0.002194613684 0.002481316682 0.0021873106598 0.002420001314 0.002905706584 0.0036832817714 0.0046319715912 0.0057018247899 0.006443108432 
0.0067759287776 0.0072659489233 0.0080595583422 0.0089218714274 0.0096001853235 0.010060044471 0.010519942269 0.011015190432 0.01088190265 
0.011759304907 0.010672994191 0.013000517152 0.013985271798 0.014539588243 0.015003872104 0.015113803791 0.014377988176 0.013211675221 
0.0028998170746 0.0031603038078 0.0024112574174 0.0022740793647 0.0022775171674 0.0024010658381 0.002323422872 0.0024966878118 0.0027127428136 
0.0028413113323 0.0033158095903 0.0043206394766 0.005900193355 0.0078079332598 0.010018077679 0.012084026588 0.012763090897 0.012758948375 
0.014235538803 0.017279934371 0.019828727003 0.019868012518 0.018536986783 0.017402829602 0.016184402863 0.014546657912 0.012982319342 
0.011678620009 0.010185555089 0.0084466547705 0.0067542535253 0.0053588737501 0.0042032547644 0.0032857423066 0.0025530906278 0.0027619207394 
0.0024217346217 0.0022634422639 0.0022254246869 0.0023396706674 0.0026261463063 0.0031156262849 0.0039480130654 0.0049278703518 0.0056302609155 
0.0057470969623 0.0060180447996 0.0070735431509 0.0078430956928 0.0086947288364 0.0091786538251 0.009559527738 0.010093994904 0.0098452714738 
0.010507467436 0.0096609944012 0.011664174497 0.012657391839 0.013464449594 0.013624608982 0.013740795664 0.014026624849 0.013283422217 
0.014109679963 0.014439659659 0.01440364169 0.014247699408 0.014345070347 0.014480223414 0.014198924415 0.013461268041 0.012223033234 
0.010143573163 0.0079091645312 0.0063666345086 0.0054791764123 0.0050322632305 0.0047440848624 0.0046440790175 0.003666531411 0.0042220634059 
0.0033021246199 0.003303503152 0.0037236044882 0.0048803378595 0.00680559373 0.0088471423369 0.010179563193 0.010426793713 0.010376451537 
0.01072966191 0.011407844024 0.012365036411 0.013374426635 0.013921699254 0.013776373118 0.013104385696 0.012291204184 0.011975438101 
0.012288573897 0.012327317847 0.011120868381 0.0089604210807 0.0069074777421 0.0052681411617 0.0041324995109 0.0030499111162 0.0036269403063 
0.0030199235771 0.0038609926705 0.0045923762373 0.00473054545 0.0049623503583 0.0059259885456 0.0073137130821 0.0084516368806 0.0093954615295 
0.010474425275 0.011806666851 0.012744347798 0.012523236452 0.011679657502 0.010973459342 0.0095668924041 0.010710657109 0.0098740179092 
0.010645620059 0.0115196181 0.0026562883868 0.0033111795783 0.0043599854689 0.0057894954225 0.0074630270246 0.0091711478308 0.010763738304 
0.011795176892 0.01230478799 0.013226331444 0.019497801084 0.017380389152 0.019388194196 0.017973617651 0.016395136015 0.014750029892 
0.013241817243 0.011982202064 0.010837227339 0.0095458889846 0.0080662042601 0.0066180732101 0.005393905798 0.0044143385603 0.0038117357763 
0.0033067233744 0.0025409568334 0.0028007439687 0.0023560843547 0.0021974270348 0.0021471016225 0.0022247968591 0.0024446065072 0.0028082349454 
0.0033546392224 0.0040580412606 0.0047458487097 0.0050583825214 0.0048776944168 0.0048580471193 0.0082859124523 0.0076957558049 0.0088702666108 
0.0091410486493 0.0093666664325 0.015470284037 0.01454524952 0.0093577289954 0.0097246554215 0.009570201626 0.010561869014 0.011866691522 
0.012663112022 0.012288089609 0.012772591086 0.012871082639 0.012834782479 0.012984192697 0.013123183278 0.012919915607 0.01259300462 
0.012056959327 0.01060220669 0.0086963439826 0.0072489916347 0.0060991549399 0.0052733930061 0.0046673977748 0.003412061953 0.0033851346234 
0.0032898798236 0.0030922248843 0.0030559174484 0.0034213265753 0.004481885524 0.0060202056775 0.0074731179047 0.0082009119214 0.0086488035508 
0.0096635059454 0.010734137613 0.0118567748 0.013106705621 0.014411131386 0.015446080593 0.015664859442 0.014859348768 0.013250140939 
0.011631787755 0.010863370495 0.010737854289 0.010224490892 0.0087752593681 0.0071141662775 0.0058203606168 0.0047830727417 0.0040205428959 
0.0034023995395 0.0035044679535 0.0033244026708 0.0034166790429 0.0042721095961 0.0054758950137 0.0054282707861 0.0048647013027 0.0052150060656 
0.0059437843738 0.0064632785507 0.0079875392839 0.0091294158871 0.0096577506047 0.010493239388 0.010980454972 0.011586684035 0.012171876384 
0.012288071914 0.010951749049 0.0122399549 0.0097794511821 0.011180076981 0.0088907979662 0.0068531256402 0.0059643089771 0.0038382516941 
0.0021437706891 0.0018612432759 0.0021127653308 0.0028112796717 0.0031961407512 0.0030704948585 0.0028138513444 0.0024620159529 0.0025858013541 
0.0028229519958 0.0030702743679 0.0025849104277 0.0025396114215 0.011074723909 0.010805547936 0.011243367335 0.011427695164 0.011693881592 
0.011786066229 0.011541992892 0.011240704916 0.010830877814 0.0097743335646 0.0078855959699 0.007131232298 0.005944366334 0.0026345659513 
0.0029377051784 0.0034036441357 0.0026502561523 0.0027275433531 0.0027499938733 0.0027689067647 0.0029935751227 0.0037095486186 0.0051745843375 
0.0062077153707 0.0068169942824 0.0075027031126 0.011155964574 0.010122732958 0.012262345059 0.013669402339 0.015470973449 0.017426982522 
0.018412720878 0.017398118041 0.015039158752 0.012688339502 0.009969757637 0.010702774394 0.0094891365152 0.0084402557695 0.0070388086606 
0.005848463974 0.0048593289685 0.0040361172287 0.0033944327733 0.009174218867 0.0083242338151 0.0067106974311 0.0057550040074 0.012811027467 
0.013376821065 0.013213534839 0.011841132538 0.010054301471 0.008689311333 0.0078913178295 0.0032180671697 0.0041726111085 0.0053403332131 
0.0067882318981 0.0082692267606 0.0096756324638 0.010895544197 0.011745750438 0.012319897069 0.016236891039 0.016591782992 0.018217540812 
0.019646571018 0.018787673209 0.016687296564 0.01469878736 0.0132253177 0.012137131998 0.011192514561 0.010335386032 0.009367512539 
0.0081927599385 0.0069750384428 0.0058766653528 0.0048765494721 0.0041936168564 0.0037129753036 0.003152198391 0.0023838870693 0.0025318901171 
0.0022219926468 0.0021409839974 0.0021426976503 0.002261493355 0.003110074671 0.0031465371721 0.0031447840738 0.0033096304978 0.0035489168949 
0.0040969944093 0.0048777234042 0.0043940123287 0.0028825300746 0.0032690447988 0.0043179561229 0.0041237643454 0.004973434261 0.0057064180728 
0.005626318627 0.0051444672669 0.0063929683529 0.0070324654225 0.0080299407709 0.0072474575912 0.0079541909508 0.0086917320732 0.0091664753854 
0.0093306978233 0.0098265333101 0.010145225562 0.010457052849 0.010096547427 0.01049830392 0.0021550879659 0.0032154337387 0.0039430852048 
0.0033605976962 0.018561431672 0.019761599135 0.018440940417 0.015911285533 0.013790575555 0.012452096213 0.011512811994 0.010669578332 
0.0098678022623 0.0089898298029 0.0079955918482 0.0069372184807 0.0040158309275 0.0042289128372 0.002284396498 0.0024187467061 0.0022692836937 
0.0042201924371 0.0052387301112 0.0065072696889 0.0078771113185 0.0092875498813 0.010559509043 0.011324189603 0.011187125696 0.010193031514 
0.0091993815731 0.0080446515931 0.0067571246764 0.0055598171894 0.0045728604309 0.0039518751049 0.008114613127 0.0090314457193 0.0095802475698 
0.0025249416358 0.0026172249733 0.0027427179157 0.0055745872669 0.0047120299423 0.0063746791566 0.0070459960649 0.0074599920772 0.0091885856818 
0.010875618706 0.010675260099 0.010347451083 0.0037978824694 0.0098966285586 0.0056790717645 0.0047545376001 0.0065715491073 0.014855145244 
0.015029281843 0.0023424499668 0.010346182622 0.011019312544 0.0049988896353 0.0060000917874 0.0037897113361 
Stress_XY_Pt 1 1114 double
0.0044096229831 0.0029059240478 0.0010530716445 0.0031998276008 0.00061497966817 -0.0003432210724 -0.00034881940519 -0.00055417048134 -0.0014602673473 
-0.00080532544962 -0.00060824595857 5.1911410992e-06 0.0002588823786 0.00098447870982 -0.00047167862658 0.0010177485208 -0.00054723128414 0.00087184564109 
-3.1568848499e-05 0.0010258838684 5.2733169923e-05 0.00096841834488 -0.00049995210293 0.00019989650241 -0.0013575004996 -0.00094582896418 -0.0017708332161 
-0.0015514592815 -0.0019149646978 -0.0017659809964 -0.0018893823726 -0.0018245214887 -0.0017805554089 -0.0017182756274 -0.0018652523286 -0.0015402651916 
-0.0011721284973 -0.00091494243679 -0.0007032010617 -0.00073709640856 -0.00077044995851 -0.0010180467361 -0.00055293779587 -0.0010875853477 -0.0010016375163 
-0.0014843936224 -0.0019200512907 -0.001925178105 -0.0025861004833 -0.0019090851565 -0.0024453229271 -0.0016798143188 -0.0012828634499 -0.0013049010668 
0.00025319204724 -0.00065012057166 0.0011073987407 -0.00022015509603 0.0011135495151 -0.00025320009445 0.00091868237359 -0.00038786692312 0.0011001828243 
-0.00012724613771 0.0015116920113 0.00051684351183 0.0020505329012 0.001364394494 0.0029063522816 0.002476043097 0.0039795279736 0.0038040645304 
0.0048559419811 0.0050544453552 0.0049327218439 0.0057141047437 0.0041105616838 0.0055830286583 0.0029951289762 0.0049021996092 0.0022573472233 
0.0040898151346 0.0029069811571 0.0037708252785 -0.0030771512538 -0.0021652923897 -0.0037283370038 -0.0044564225245 -0.0021603099303 -0.0034273230121 
-0.0023584101582 -0.0032778703026 -0.0025085295783 -0.0029436887125 -0.0017126713064 -0.0018575152208 -0.00092840509024 -0.0007397330719 -0.00078449677676 
-0.0001624032684 -0.00048178529687 0.00052548294843 0.00023804786179 0.0016411391298 0.0016050419363 0.0029967965238 0.0029423367232 0.0039873035857 
0.0033729204442 0.0039614140987 0.00319513469 0.0033430282492 0.0029673725367 0.0028463553754 0.0027119349688 0.0023637572594 0.002409787965 
0.0016832406181 0.0025611323072 0.0011064013306 0.0030151039828 0.0009039886354 0.0032175820088 0.0011474526764 0.0030440412229 0.0017733771747 
0.0024791139876 0.0023401262297 0.0012395450904 0.0021853576909 -0.00038969461457 0.0012870629871 -0.001546016254 2.3625879112e-05 -0.0019416223513 
-0.0011301626282 -0.0020675251726 -0.0015494550898 -0.0023628176423 -0.0023752838315 -0.003356804722 -0.0037474546698 -0.0040175172035 -0.0044440866914 
-0.0030407703016 -0.0035826273961 -0.0012706287234 -0.0019302054498 0.00098572012212 0.00019215103384 0.0028699531686 0.0024082152377 0.0020831842849 
0.003190604024 0.0014567390026 0.0032243516034 0.0019392910181 0.0030572491232 0.002415909199 0.0028008446679 0.0033864259021 0.0030548466602 
0.0051590859657 0.0039884080179 0.0060509170871 0.0045017697266 0.0044566077413 0.0033287402184 0.0028227338335 0.0018299422591 0.0021756659262 
0.00090951956372 0.0016360836453 0.00027705437969 0.00025597115746 -0.00062917897594 -0.00082910776837 -0.0013101152726 -0.0011748950346 -0.001380443282 
-0.001107118791 -0.0010405390203 -0.00070647934626 -0.00049507467247 -0.00030345849518 -4.7902692131e-05 6.5096333856e-05 0.00026127929596 -0.00015065219486 
0.00011062106933 -0.0012519651209 -0.00081483794202 -0.0025891493424 -0.0021564210183 -0.0037780448329 -0.0034858979634 -0.0044462291989 -0.00459239888 
-0.0043206198607 -0.0050565564306 -0.0022167048446 -0.001435194552 -0.001682516915 -0.00094395377673 0.00055964535568 0.0017200193106 0.0024175939034 
0.0023318246822 0.0019749433559 0.0014262827317 0.00035494841723 -0.00079872397328 -0.0013294546807 -0.0014211268863 -0.0014147680195 -0.0012829490006 
-0.00088321555813 -0.00041933374723 -0.00043489311338 -0.0007984730255 -0.0012065206538 -0.0016043190262 -0.0016301932919 -0.00072227988858 -0.00040399973659 
-0.00097094233206 -0.0014635906846 -0.0016548598942 -0.0017489244638 -0.0017359927297 -0.0014221175225 -0.00066151514056 0.00043904897302 0.001734418096 
0.0031770487549 0.0046599138877 0.0058856254909 0.0065352306701 0.0064812683268 0.0056245306041 0.0040029684315 0.0013341627982 -0.0051049552858 
-0.0055869200733 -0.0045182291651 -0.0036081610597 -0.0021424488514 -0.00045014073294 0.00097778041345 0.0023403740197 0.0038526136195 0.0049237718922 
0.0050438527251 0.0042794951587 0.0031639555818 0.0022837299621 0.0015861241554 0.00068805226419 -0.00035196667068 -0.00097217682924 -0.00071057422974 
0.00039100883805 0.0017379519995 0.0026379057672 0.0027578214067 0.0018921380542 -0.0012696958147 -0.00049988835114 -0.0027382680855 -0.0043332502246 
-0.0049537959276 -0.004285871808 -0.0027926850307 -0.00096324285551 0.0013386208157 0.0039717163309 0.0047038737684 0.0040957162855 0.0031374425162 
0.0025892200065 0.0026710292441 0.0028723552241 0.0023966285808 0.0012944527625 4.040155909e-05 -0.00090677460685 -0.0013824786874 -0.0015153218119 
-0.0012426731846 -0.00073690358113 -0.00018734413152 0.00023418151704 0.00042157578719 0.00034255473292 -0.00021498594288 -0.0012913186001 -0.0026324428036 
-0.0041306235944 -0.0053155776113 -0.0057596990373 -0.00022578164408 0.00055362653802 0.00038247315388 -0.0010708181217 0.0015866065223 0.0022174873448 
0.002290214994 0.0017301630578 0.00063736648735 -0.00059007909294 -0.0012226827967 -0.0010797434516 -0.00069464701483 -0.00046124624532 -0.00038075128032 
-0.00020676426357 3.0378226256e-05 4.7429014558e-05 -0.00019317930492 -0.00053204387223 -0.00086873440887 -0.0010535048496 -0.00081433512241 -0.0006337739178 
0.00010856692097 -0.0013241435809 -0.0016838134034 -0.0017831906443 -0.0016796804848 -0.0014088252501 -0.00085574905097 3.1354917155e-05 0.0011417013375 
0.0023371043208 0.0035568610765 0.0046440873994 0.0050588610582 0.0052857567789 0.0044369169627 0.0027773232723 0.00052403063455 -0.0023128422181 
-0.0038814368309 0.00022307145991 -0.00037941701885 -0.0012714903569 -0.00044342210094 -0.0025085803645 -0.0038022902445 -0.0045331605943 -0.0042178896256 
-0.002997733769 -0.001505983033 -0.00035958521039 0.0037926048972 0.003106777207 0.0035421069479 0.0029136428493 0.0024197248858 0.0024514661054 
0.0028542053769 0.0028009233065 0.0019147158309 0.00053203232528 -0.00075211650983 -0.0013275656383 -0.0011910680187 -0.00072191907384 -0.00028606970227 
9.5767303719e-05 0.00042257942914 0.00056487294205 0.00054329069098 0.00025207088038 -0.00045397106442 -0.0015518901346 -0.0029376680905 -0.0043233723845 
-0.0052805945743 -0.0055947996443 -0.0054153554374 -0.0049414939713 -0.0040743383579 -0.0025659168605 -0.000523387047 0.0016257416573 0.0035253106616 
0.0049391099019 0.0054356507026 0.0047748203506 0.0035393033759 0.0023331819393 0.0014562065917 0.00089120474149 0.00026681569361 -0.00031435234177 
-0.00062455493753 -0.00048705411245 0.00013612361727 0.0010220806216 0.0019021239714 0.0023627054761 0.002123008715 0.0013564343972 0.00063213851899 
-0.00095975933655 0.00048791638619 0.0014679062806 0.00014893055504 0.00016368898468 -0.00019711254754 -9.701687668e-05 -0.00067317983485 -0.00111881466 
-0.0013281015272 -0.0013533901074 -0.0012473298557 -0.0010560561495 -0.00072100161924 -8.7425672973e-05 0.00083452594845 0.0018568385567 0.0029275822453 
0.003846204374 0.004246051074 0.0029960902757 0.0039147746284 0.0018653612642 0.00037680710375 -0.0020903824916 -0.0039765793481 -8.4398961917e-06 
-0.0011884488267 0.00095751219851 0.0014689666714 0.0014796990581 0.00085164220945 -0.00037160424836 -0.0014114693549 -0.0014264477941 -0.00061309929879 
0.00054463817069 0.00085026912529 0.00077279842299 0.00057027910952 0.00038288379437 0.0002189415718 5.5978372984e-05 9.7616029962e-06 -4.3206069677e-05 
-0.0002121199941 -0.00041085579505 -0.00055717119176 -0.00038975502412 -0.00024946684607 -9.3932217169e-05 -0.00018795864344 -0.0023721182952 -0.0021808474266 
-0.0031125064124 -0.002727126237 0.0041924106772 0.0042388563743 -0.0022223686683 -0.0030226026138 -0.0031726977904 -0.002585952665 -0.0016105808318 
-0.00081211551151 -0.00037328226153 0.00019444882037 -0.00015487013388 0.00092331752239 0.0018285918777 0.0024956316047 0.0027370574535 0.002627600159 
0.0023777860333 0.0024239660124 0.0029235602706 0.0029811129789 0.0019665702421 0.00038316097198 -0.00091863380658 -0.0014564312587 -0.0012368794851 
-0.00058187331524 3.9710714191e-05 0.00048487998356 0.00078192094952 0.00091518064437 0.00094619794982 0.00077633863111 0.00025481298508 -0.00064672358712 
-0.0018709944561 -0.003220479656 -0.0045333167072 -0.0050145164132 -0.0051539853448 -0.005005390849 -0.0042911814526 -0.0028137979098 -0.00064395478694 
0.0018695236067 0.0041193705983 0.0053259464912 0.0051746717654 0.0040283551789 0.0026083700359 0.0015023491287 0.00087311661628 0.00053610964824 
0.00032473650936 -0.00039553724127 -0.00019674797301 -0.00035751659379 -1.9507722754e-05 0.00057187699349 0.0013227955205 0.001888163737 0.0016601417738 
0.0013712429209 0.0011605097097 0.001133530488 0.00091337526828 0.0014087116288 0.00020873155881 -0.00060124340234 -0.0012953452242 -0.0017169034545 
-0.0016656636144 -0.0012996931036 0.00098524571513 0.00081478392531 0.0012328495504 0.0016296046379 0.0019993999158 0.0021186628728 0.001812866336 
0.0014232058165 0.00072824240488 -0.0001790511742 -0.00067616943852 -0.00077581180085 -0.00080125387467 4.6990226053e-05 0.00022696917222 -0.00034574620076 
-0.00059082348162 -0.00073016710667 -0.00073002532008 -0.00063167975895 -0.00050190387356 -0.00044061279641 -0.00037202474778 1.5269361029e-06 0.00071924318036 
0.0016703783767 0.0028363830643 0.0038636597455 0.0043889314402 0.0044462869409 0.0039183206973 0.0040983339422 0.0036389009329 0.0031069018296 
0.0022700488335 0.0014911146427 0.00048769374359 -0.0011458832761 -0.0025941653876 -0.0041636499809 -0.0032834301819 -0.0036677175667 -0.0033786541317 
-0.0031213095062 -0.0027310763835 -0.0022410922975 -0.0014839146606 -0.00059359841907 9.0530484158e-06 0.00013389089872 -0.00017610717623 -0.00095190368302 
-0.0019966926484 -0.0023699422891 -0.0016030116676 -0.00038172911445 0.00062994804466 0.0020310318796 0.0022126047697 0.0014281062031 0.00072075179924 
0.00034416439303 0.00038979005694 0.00068345415275 0.0010580117741 0.0011156248074 0.0007002351449 0.00024630748158 0.00027085963211 0.00052909249189 
-3.4383729144e-05 0.00041438343942 -0.00030704250094 -0.00034073068673 0.0018130011158 0.0012204152299 -0.00025466263997 -0.00067641983333 1.1224472473e-05 
9.6214606117e-05 9.9692106232e-05 0.00037654466723 0.00086615663895 0.0015825827722 0.0021544234769 0.0022734777885 0.0021467574406 0.0022642218973 
0.0024949379731 0.0021416222298 0.0010682074899 -0.00033023047217 -0.0013762910967 -0.0017055552453 -0.0013846476504 -0.00065188060762 0.00012329938545 
0.00072103935963 0.0010384194611 0.001145236165 0.0011989998166 0.0011102223798 0.00071613482578 -5.2174709708e-06 -0.0009623116548 -0.0017821516376 
-0.0044732909882 -0.003932017542 -0.0047306311317 -0.0046012039529 -0.0038320210297 -0.0023518128728 -0.00021856467356 0.0022558729979 0.0043516049627 
0.0051981909201 0.004576348816 0.0031962781795 0.0019246908196 0.0011043204286 0.00064936051785 0.00043005750922 0.00034608696781 0.00033488008194 
0.00014073918214 0.00029942297624 7.8945456323e-05 -2.269696148e-05 -0.00018931835166 -0.00016938594217 -0.0001166986558 0.00021195938098 0.00089496532746 
-0.0030934197712 -0.0020659960574 -0.00025845262809 0.00024459014293 0.00036532037848 0.00054665155767 0.00021286136689 0.00015115537099 0.00020105192865 
0.00054510530026 0.0011419275106 0.0015686491097 0.0016071882274 0.0014721347397 0.0014591673826 0.0012769656278 0.00051973874724 -0.00046390347779 
-0.0013899934856 -0.0017232424289 -0.0019929964037 -0.0015677407209 -0.00071879068128 8.3531587734e-05 0.00065582450043 0.00097442803963 0.0010754044488 
0.001126377756 0.0010725386383 0.00080664106645 0.00031491005757 -0.00027533536377 -0.00081283390318 -0.0010615561041 -0.0018114204868 -0.00091243263887 
-0.0026541270781 -0.0032959592063 -0.0037507940433 -0.0038968122099 -0.0035885015968 -0.0027068234922 -0.0012480756341 0.00060897424555 0.0024777298968 
0.0038882842055 0.0042204203084 0.0037107780227 0.0025962614454 0.0015999447496 0.00098604524101 0.00061672463198 0.00042664778448 0.0004438599135 
0.00026978595633 0.00049275220954 0.00012013105083 0.00011384526192 7.693031633e-05 -6.840356491e-05 -0.00018452015229 -0.00020616054189 0.00014473597985 
-0.00036395904317 -0.00036370885937 -0.00028693244576 -0.0001274957981 8.8998509455e-05 0.00026830897605 0.00026091627933 0.00010985102199 9.1385534688e-05 
0.000465074163 0.0014134326047 0.0028016894939 0.0040569262928 0.0046540504554 0.0046534601909 0.0042436199146 0.0033946315525 0.0032008633134 
0.0033007551683 0.0030002546264 0.0025410614326 0.0019767591439 0.001360856375 0.00057024063597 -0.00053089695405 -0.0016361296148 -0.0024727797136 
-0.0028470065445 -0.002773981716 -0.0025695451768 -0.0023129287874 -0.0018797190569 -0.0013017436431 -0.0010065303723 -0.0012058585198 -0.0017845165276 
-0.0027669742121 -0.0036667267559 -0.0034456859576 -0.0021142902697 -0.00071428038791 0.00024252333242 0.00077384999895 0.0015563790221 0.0010265792662 
0.0023499980452 0.00319490314 0.0032762401388 0.0024019438424 0.0012753011688 0.00071140825457 0.0009701532399 0.0015696619957 0.0020834307361 
0.0021299296641 0.0016259631811 0.0010813529225 0.00094323817757 0.00091671770497 0.00058249117137 -8.2777931311e-05 -8.7790707767e-05 -0.00010689886646 
-0.00028556883262 -0.0003575150331 0.00045562301966 0.00080396837438 0.00088484343723 0.0006942029288 0.00043760643189 0.00020862471138 -0.00023274393243 
-0.0010272095715 -0.0018440432905 -0.0023440629593 -0.0022104011732 -0.001869428932 -0.0018742242537 -0.00092791370116 -5.9332312958e-05 0.0004300258297 
0.00061822624411 0.00064917776035 0.00067293510074 0.00067251332803 0.00057570720674 0.00033462274223 5.1675168379e-05 -0.00023692817149 -0.00038575209328 
-0.00027815368685 -0.00050411355551 7.4002668953e-05 -0.0012763291743 -0.0020173207449 -0.0024931564112 -0.0026395300811 -0.0025345805334 -0.0021367179288 
-0.0012863131979 -9.0597217422e-05 0.0011845489862 0.0022790690127 0.0030268239207 0.0032375826268 0.0020955950313 0.0027773973998 0.001411378762 
0.00092347204918 0.00062476450694 -0.0018333951884 -0.002335653815 0.00073080250877 0.00052646819677 0.00085549293726 0.00015294376863 -0.00016137320781 
-5.8856816395e-05 -0.00028044861938 -9.8973812783e-05 0.00012890248354 0.00039024206444 0.00065720495331 0.00085102896264 0.00084669639182 0.00058506278947 
0.00022541114413 0.00029212481058 0.0011546187452 0.0025319998967 0.0036784869735 0.0041926894337 0.0025100157131 0.0018010593049 0.00094178539803 
0.0023769438267 0.0025538245682 0.0023942344123 0.0020275979186 0.0016155174817 0.001148179872 0.00053363784536 -0.00025217229995 -0.0010751206311 
-0.0018567965308 -0.0021827531164 -0.0021898460109 -0.0021737925126 -0.0022034761496 -0.0021791274194 -0.0019600239175 -0.001821192127 -0.0020696467254 
-0.0027732457384 -0.0038159634569 -0.0045457760571 -0.0041536351782 -0.0027841987612 -0.001382384733 -0.00033330638689 0.00035837005998 0.00065345175972 
0.0011545928282 0.00078099560051 0.0017457682989 0.0024547416833 0.0033786117565 0.0040470254607 0.0034970225533 0.0021300617955 0.0012861511059 
0.0015552505065 0.0023308048723 0.0025531628635 0.0023777772828 0.0021035897953 0.0016785206681 0.0012413434742 0.00081035216135 0.00042587461212 
-7.5376563473e-05 -0.00058887495834 -0.00042793926696 -0.00046934050988 0.00064007392939 0.0012243171659 0.0018483755121 0.0024388051825 0.0021647617104 
0.0023112269118 0.0027083782479 0.0025699521066 0.0018852828798 0.00089222997485 0.00018342255498 -0.00011128399274 0.00032538058804 0.00062883423379 
0.00064704526449 0.00081867423432 0.0005621663222 0.00049100670731 0.00016949286874 -0.00018890442152 0.00050632728744 0.00079746905249 0.0010395944555 
0.0012035458349 0.0012202727667 0.00097089850169 0.000495982953 0.00042143922474 0.0013675246271 0.0022329802159 0.00263187784 -0.00071985175891 
-0.0009403933315 -2.8634052796e-05 0.0004580187815 0.0012152223644 0.001695348561 0.0018402537098 0.0016184065316 0.0010638754466 0.00076671820716 
0.00041861945647 -6.5407755756e-05 -0.00046075439968 -0.0013970788423 -0.0011449273443 -0.0014601830044 -0.0016133998579 -0.0019129544089 -0.0022460868931 
-0.0022904404905 -0.0021507829661 -0.0023194216774 -0.0029846569989 -0.0044662038563 -0.0040014904807 -0.0041142249247 -0.0030473164516 -0.0018449766212 
-0.00082739820937 -4.2248964746e-05 0.00037858747601 0.000577386847 -0.00073350888852 -0.00037935059663 0.0032251395169 0.0027898399276 -0.00030988592698 
-0.0001535425763 0.00017601354193 0.0006072796532 0.0013374030386 0.0020246102649 0.0024759455118 0.00059034240985 0.00028425758501 -0.00024558487326 
-0.00074226569245 -0.001098633511 -0.0015483961179 -0.0022167962161 -0.002808268182 -0.0030753746396 -0.0021874603117 -0.0019367961213 -0.0021044414025 
-0.002377722878 -0.0021505900077 -0.001298360512 -0.00046403420129 -1.8448547053e-05 4.7974899644e-05 5.9678779508e-05 0.00018100115631 0.00030901957871 
0.00033500607242 0.00025816675043 0.00016819236453 0.00012318384006 0.00010241517884 0.00019569097913 0.0004801022651 1.8424704649e-05 0.00060687663427 
-0.00063884871906 -0.0013304922904 -0.0018440986363 -0.0014922987466 0.00078017800843 0.0011899329329 0.0013338683493 0.0021078067366 0.0025595517363 
0.0030575743876 0.003678133653 0.0036899011466 0.0029122480424 0.0019425995415 0.0018214293523 0.00094863226877 0.0016388440708 0.0021359423117 
0.002323350287 0.0023692760151 0.0017354699085 0.0020554295043 0.0011117417453 0.0025078330655 0.0020808400586 0.001676945074 0.0013204170973 
0.0010054584563 0.0012105463073 0.00078323423804 0.0010774810653 0.00040644873479 -6.0697295339e-05 0.003145671372 0.002908256487 0.0021806199569 
0.0004218060436 -0.0022235550568 -0.0023880862282 -0.0022427937656 -0.0016187645379 -0.0010229652107 -0.00071128946001 -0.00064374727663 -0.0005051619446 
-0.00020189637507 2.5961937354e-05 0.00012588507161 0.00017002280947 0.00039289744018 0.00034926995674 0.0001718558824 0.00076227344562 -0.00056861600024 
-0.00013064768791 -0.00090093721519 -0.0016278314288 -0.0021993791161 -0.0026627332554 -0.0030302194646 -0.0032279393636 -0.0036182202748 -0.0038103329134 
-0.0035471554729 -0.0028315370437 -0.0019508950645 -0.0010710067727 -0.00026570446789 0.00018872664077 0.001622890617 0.001507401641 0.00141240019 
0.0012237405026 0.0013662692315 0.00093867677788 0.0002114020208 0.00038204758312 5.4417787396e-06 -0.00018951190214 -9.7110606475e-05 0.0010580720991 
0.0012334595279 0.0013662633719 0.0014375945611 0.0023107766756 0.0013247622701 0.00015196707682 0.000255740586 7.3287340456e-05 -0.0035549028544 
-0.0028750657802 -0.00098894016507 -0.00046178951015 -0.00048769272325 0.00029589590486 0.00020884452533 0.00056138587388 
Stress_YZ_Pt 1 1114 double
0.0037276069634 0.0049906866625 0.0033927035038 0.0018220818311 0.0034390994406 0.0037557768665 0.002149888227 0.0035680150177 0.002822372131 
0.0042293803999 0.0026295873104 0.0044836605084 0.0043253471376 0.0054341832292 0.0053673225921 0.0053409074899 0.0045208011288 0.0040879023727 
0.0035403120564 0.0031032272382 0.0028080497868 0.0022361186566 0.0022235569777 0.0013686532293 0.0018258660566 0.00073105301635 0.0017896621139 
0.00052449469513 0.0017119829427 0.00042116679833 0.001415480685 0.00027499046701 0.0010747729684 0.00017803758965 0.00094220941537 0.0001427828829 
0.00084421384963 9.4742936199e-05 0.000981561956 0.00034333567783 0.0011853831238 0.00074087997382 0.00055305793103 0.00060276497697 -0.00058274966977 
5.7993366681e-05 -0.0013263064902 -0.0005193289162 -0.0014065415598 -0.0011375514496 -0.00099742421298 -0.0015941889578 -0.00090582473786 -0.0018077592395 
-0.001783791522 -0.0022279401019 -0.0030041985447 -0.0028731374186 -0.0038684724132 -0.003394206753 -0.0041279760189 -0.0034311697818 -0.0036340546794 
-0.0027067143819 -0.00274553278 -0.0016443709646 -0.0020831128932 -0.00084005072495 -0.0017262093024 -0.00034315916128 -0.0017806154792 -0.00026780131157 
-0.0023992222268 -0.00075367582031 -0.0030681099743 -0.0013909166033 -0.0030112860259 -0.0015731956397 -0.0017217599961 -0.00094186601746 0.00058569185785 
0.00036094537973 0.0026419682545 0.0013237210223 0.00049299729289 0.001098231849 0.00066789496123 0.00036965308755 0.0015562179033 0.00093006051611 
0.0015549791278 0.00093733708491 0.0016388189979 0.0010702974105 0.0022492030985 0.0017528735189 0.0029331953265 0.0027073019301 0.0034121604403 
0.003469019779 0.0037119323388 0.0038992682239 0.0038102971157 0.0040408025379 0.0041385507211 0.0041650779312 0.0044338796288 0.0043860918377 
0.0044734494295 0.0044911716832 0.0045734480955 0.0044875681633 0.004834033316 0.0046228918945 0.0045331020374 0.004522142699 0.0032132068882 
0.0037813188392 0.0018326444551 0.0025935657904 0.00074397114076 0.00099836320078 -0.00042213610868 -0.00099963629691 -0.001579191885 -0.0028517412138 
-0.0024882334983 -0.0039447051822 -0.0030837365193 -0.0041749140364 -0.0036949041532 -0.0040263253031 -0.004727151012 -0.0036932154093 -0.0055268004071 
-0.0038857312175 -0.0048875545617 -0.0030920673526 -0.0030351890018 -0.0013261092608 -0.0011607703054 3.0185532523e-05 -2.6019057259e-05 0.00034740151023 
0.00028441747418 7.1384885814e-05 0.00047040122445 -0.00021354256023 0.0010371633398 -0.00027481497091 0.0021043430315 0.00018448059564 0.0023851629812 
0.000995907787 0.0019284662558 0.0019137709169 0.0013819816231 0.0022661348776 0.0010901783535 0.0020574232767 0.0008060267719 0.0018308684375 
0.001412331505 0.002333943572 0.0023974301293 0.0029816706083 0.0015520879242 0.0021991848917 3.5482313251e-05 0.00059704764863 -0.0014483588748 
-0.0010853990825 -0.0027970211813 -0.002484750119 -0.0031480912585 -0.0032336385339 -0.0030089124339 -0.0036641823244 -0.0037877151044 -0.0043236237834 
-0.0046911824029 -0.0047225842718 -0.0045857508667 -0.0043395149987 -0.0036056245444 -0.0034873344703 -0.0029073270271 -0.0028290054761 -0.0022823404288 
-0.0021469989151 -0.001150588505 -0.0010467627071 -0.00037884833728 -0.00015919282669 -0.00019246053853 0.00018128018928 -0.00025163592363 0.0002142271187 
-3.2111289329e-05 0.00022586264822 0.0041233341326 0.0019722159996 0.0052973240381 0.0058664126322 0.0061439181445 0.0059812617255 0.0050147199072 
0.0036562543246 0.002600265143 0.0015676453913 0.00043114032087 -0.00043539194667 -0.00085728759586 -0.00092101571499 -0.00072010001895 -0.00044108469342 
-0.00032755083521 -0.00033859624432 -0.0001085643371 0.0004061288073 0.00087809601973 0.0010106686386 0.00047900110621 -0.00054246825894 -0.0016559617361 
-0.0020880734664 -0.0021703238017 -0.002292376128 -0.0024231835851 -0.0022465250513 -0.0014936888183 -0.00045681537449 0.00038847003452 0.0009169492987 
0.0010464091465 0.00073530866212 0.00024673847557 -0.00016797048838 -0.00044615967454 -0.00059223249809 -0.00057754557929 8.0350233475e-05 -2.2047643142e-05 
8.3885874119e-05 -4.9242364184e-05 0.00011812816592 0.0007299997269 0.0018008478801 0.0028630339075 0.0036048229085 0.0041105117416 0.0043657693313 
0.0045203194022 0.0045022696722 0.0042168793734 0.0039831126924 0.0039415964275 0.0037693872582 0.0027805849677 0.00084898376372 -0.0015982476762 
-0.0039834557101 -0.0054200727027 -0.0054874399211 -0.0046794898226 -0.0035308955703 -0.00087065468324 -0.0018462382723 0.00032893737443 0.00068168382859 
0.00026164918381 -0.00029434396856 -0.0008687099762 -0.0014353651786 -0.0016328451457 -0.00045152395978 0.0014816199218 0.0027818539529 0.0029654336977 
0.002921129344 0.0031373699894 0.0031862168689 0.0026179371634 0.0013792049867 -0.00020596516697 -0.0017544121874 -0.0032080136589 -0.0043960224139 
-0.004812125233 -0.0045270487899 -0.0039705088129 -0.0033771154121 -0.0027982329484 -0.0020856327319 -0.0010994245604 -9.6728308563e-05 0.00054188098511 
0.0007789596566 0.00060375658359 0.00028032585942 -0.0017982820136 -0.0019703787257 0.0051805971889 0.005436287378 0.004723728518 0.0041526494315 
0.0033375643543 0.0023695314885 0.001334896122 0.00029947641815 -0.00049009417489 -0.00092413400125 -0.00087039984646 -0.0004248339684 -1.2206602491e-05 
0.00012328540834 9.9336903304e-05 0.00020697780474 0.00060083645076 0.0011468759039 0.0013358763827 0.00084372995116 0.00040280453322 -0.00098269763839 
-0.00064039261269 -0.0011236883001 -0.0012596349407 -0.0013740035065 -0.0013484211231 -0.0010386975046 -0.0004574818995 0.00010043539169 0.00042053060224 
0.00044624245311 0.00014664267292 -0.00030674076561 -0.00085458209396 -0.0011899227466 -0.0015639838821 -0.0009675492729 0.00054929923863 0.0023842460942 
0.0044402226922 7.3216378951e-05 0.001200673345 -0.00030182065893 -0.00036224283076 0.0002758277933 -0.00012177553617 -0.00046960217878 -0.00061694814212 
-0.00085081317229 -0.0012168231042 -0.0015724368277 0.00078089052113 -0.00063053754275 0.0019941822684 0.0026103606797 0.0028425164637 0.0029365547816 
0.0030179402092 0.002861586865 0.002172510518 0.00096638000832 -0.0008036628642 -0.0027232128487 -0.0040275334031 -0.0043657607166 -0.0041943945689 
-0.0038727584761 -0.0034514685976 -0.0030141493771 -0.002360203187 -0.0014219044097 -0.00038561015185 0.00047010717594 0.0009129960672 0.00078159222903 
0.00033387493386 -5.2699841035e-05 -0.00031937039967 -0.00043516380538 -0.00032803634167 9.7965927125e-05 0.00092736790975 0.0019998845237 0.0030181307229 
0.0038618856343 0.0044194024522 0.0045522347791 0.0042226788355 0.0036141414312 0.0030902699218 0.0028707736637 0.0024401713163 0.0016799938458 
4.9587295507e-05 -0.0018732247263 -0.003720542707 -0.0050358194858 -0.0053444993682 -0.0047190223122 -0.0034309733892 -0.0018263278471 -0.00052707518489 
0.0001012919598 2.2479022391e-05 -0.0016288824554 -0.0016987586569 0.00099090392541 0.0022569871508 0.00018488346541 -0.0001879461297 -0.00027841609926 
-0.00035558022273 -0.00052773883544 -0.00075708606164 -0.00091927609174 -0.00088957219123 -0.00071193324675 -0.00058928907765 -0.0006646547572 -0.0009834074408 
-0.0014169847564 -0.0017205191543 -0.0014501508194 -0.0017357320758 -0.00015987256847 0.0013531117329 0.0026989903126 0.0042906045564 0.0039644200006 
0.004430431989 0.0034032858675 0.0028993557207 0.0023965971777 0.0017277846346 0.00093789648963 0.00026455081024 -0.0002139813223 -0.00051291618001 
-0.00036251085257 -3.1428868283e-05 0.00030076012615 0.0003680697082 0.0003507184847 0.00047803818597 0.00079372438631 0.0012077367428 0.0013363555772 
0.0010279281851 0.0010707353358 0.0022966046381 0.0034200322116 0.0022814808763 0.0033606694196 0.0012587163947 0.005323920399 0.0045973316301 
0.0048024492571 0.0045061193717 -0.0016816215357 -0.0019720678392 -0.00048674284881 -0.00090588456078 -0.0008799178031 -0.00079920473217 -0.00093680343707 
-0.0011243830086 -0.0011347253894 -0.0013967513805 -0.00094283297949 -0.0013500192872 -0.00064507951538 0.00038265025432 0.0013695419038 0.002126097359 
0.0025713237119 0.0027526612394 0.0030794092454 0.003306033439 0.0029134960496 0.0019421533216 0.00020137419051 -0.0018201329949 -0.0030701913056 
-0.00350803521 -0.0037048729137 -0.003744027752 -0.0035674446262 -0.0032305212226 -0.0026071022148 -0.0016905688681 -0.000671502459 0.00024464089643 
0.0008505168953 0.00085256495513 0.00041410352605 8.2074317106e-05 -0.00012245569928 -0.00028011862128 -0.0002887748451 1.4258221199e-05 0.00073556338248 
0.0018468024209 0.0029415715835 0.0036205427605 0.003874347487 0.0038324366906 0.0034604897373 0.0028689619503 0.0023747672385 0.0020986452582 
0.0018457331171 -0.00055948731097 0.00068753475716 -0.0021221637726 -0.0034572920995 -0.0041841762722 -0.0043041661265 -0.0041293216248 -0.0028619140503 
-0.0013473691361 -0.00030954999056 0.00021773986282 0.0001372832694 0.00041249301012 -6.210673746e-06 -0.00047076301234 -0.00084576597146 -0.00074192385364 
-0.00056192612828 -0.00060558669065 -0.00014158904014 -0.0011506551964 0.00054597287453 0.00079268861737 0.00035002535515 0.00051360633734 0.00017631395167 
2.3494809739e-05 -0.00014123964093 -0.00023043686451 -0.00022104148434 -0.00021941601176 -0.0003470804204 0.0013501358335 0.0014803876111 0.00056695551393 
0.00015265039883 1.8072760213e-06 -6.1135918713e-05 -0.00022036848713 -0.00053670632769 -0.0009790740005 -0.001399605535 -0.0016580898082 -0.0018219630874 
-0.0020120119734 -0.0022542224324 -0.0025035746803 -0.0026061761309 -0.002546978998 -0.0021322088432 -0.0024450494675 -0.0019519464113 -0.0016610122111 
-0.00078807327736 0.00068955971437 0.0018717492931 0.0025561842485 0.0033672424033 0.0051906742156 0.0040192873566 0.0051156331319 0.0041379531613 
0.0040469528176 0.004037236271 0.0040882527828 0.0039149523363 0.0033041342394 0.0023777325114 0.0014394540913 0.00070401689936 0.00022543917294 
3.427122283e-05 0.00010617947919 0.00022027968953 0.00018984222697 0.00017512633713 0.00055570530094 0.00027746899832 0.00066098601383 0.00073877333489 
0.00096099016082 0.0011891122704 0.001305658021 0.0012662216905 0.00095776128001 0.0012574065477 0.002560317429 0.0035276077106 0.0035629995982 
0.0029241912416 0.0031482595368 0.0018958773289 0.0010666462622 8.0125186287e-05 0.00033147206705 -0.00042526212746 -0.00064301327075 -0.00056524407773 
-7.2770535553e-05 -0.00089552994177 -0.00082050477795 -0.00035139913598 0.00035404642767 0.0011543392466 0.001872946159 0.0023579766857 0.0026055528433 
0.0027088784263 0.002727183979 0.0025278813846 0.0019615381898 0.00078340079926 -0.00080633776088 -0.0020094220235 -0.0026596017415 -0.0030628736131 
-0.0033267066465 -0.0032906323322 -0.0029944928829 -0.0025214381749 -0.0017781435745 -0.00087156233349 -2.2608001018e-06 0.00065058057226 0.00087274027464 
0.00025855179047 0.00043607458065 0.00011246608551 -9.5823848142e-05 -0.00025442293918 -6.3483612394e-05 0.00069573761175 0.0017924901913 0.0025930571137 
0.0028611973976 0.0027299318463 0.002562582813 0.0024886309693 0.0023019266082 0.0020043157565 0.0017432763998 0.0016187515963 0.0014834533504 
0.0010696699028 0.0012578187161 0.00065774974064 -1.4452049072e-05 -0.00085657577802 -0.0019642515399 -0.0028650119784 -0.002953203395 -0.0026937048533 
0.00060283375205 0.00061324882699 -3.5067725548e-05 0.0003821787268 0.00039710719648 0.00088237359159 -8.3112504853e-05 -0.00039658049491 -0.00047511130106 
-7.2215942055e-05 0.00049904660045 0.0011188954086 0.0017000055523 0.0020774359 0.0021693137824 0.0020107595192 0.0017235181294 0.0014156440739 
0.0010996549157 0.00088570521621 3.2821411878e-05 -0.00093315494814 -0.0018224921805 -0.002423718106 -0.0025739574921 -0.0024542653991 -0.0023127908353 
-0.0020442488312 -0.0014664642367 -0.00074432624388 -7.2973209171e-05 0.00036669232577 0.00051450438332 0.00041170907207 0.00027736923585 0.00020311304797 
0.00033160201565 0.00032860557258 0.00024351603133 5.7257990193e-05 -0.00027268768645 -0.00054790359718 -0.00042306851719 0.00022292121503 0.0011169352056 
0.001656405133 0.0011874871678 0.0013584810513 0.0015306562127 0.0016790597874 0.0018007767212 0.0017431228189 0.0015894606477 0.0013561805536 
0.00097185584309 0.00098008327768 0.00072979134711 0.00027562434752 -0.00017552742429 -0.00074802101244 -0.0015594169381 -0.0017453520559 -0.0012297424837 
0.00044118017286 -2.8626864605e-05 -0.0002538370577 -0.0002835770938 -0.00032514122722 -0.0005325584425 -0.00096428587858 -0.0015894638782 -0.0023435618787 
-0.0029714855482 -0.003250154492 -0.0033278726623 -0.0033328171703 -0.0031883988413 -0.0029627207356 -0.0028938679607 -0.0022532757139 -0.0025322689326 
-0.0020111689228 -0.0017463598924 -0.0013007436792 -0.00044219834172 0.00068270213296 0.0014280358009 0.0017848226707 0.0022966804099 0.002833743114 
0.0031217340147 0.0032880375511 0.0035490382579 0.003879353404 0.0037958438625 0.0030398978852 0.0017745941295 0.00026660956701 -0.00096906289491 
-0.0014562817232 -0.0011322157734 -0.00034239224397 0.00035975318542 0.00066100562981 0.000739078474 0.00083750022168 0.00058059371077 0.00096348249645 
0.00034739139301 0.00044052271915 0.00082735749311 0.0012133081909 0.001425074166 0.0015679880744 0.0014994788216 0.0012504601327 0.001033051929 
0.00079712750448 0.0011015879718 0.0019766436599 0.0024793061311 0.0025219124509 0.0022564367973 0.0025717158569 0.001866408129 0.0025962022288 
0.0018144965288 0.00090137113875 0.00010342156611 0.00054557083058 0.0010177593067 0.001460758358 0.0016638783854 0.001528038003 0.0011756541935 
0.00072292014738 0.00023229988074 -5.2873423556e-05 0.00082760074656 0.0011066140287 0.00012529561354 -0.00077435851927 -0.001328897386 -0.0014818650816 
-0.0015697536001 -0.0015856140817 -0.0013405556383 -0.00090146213188 -0.00043896508942 -5.0679791457e-05 0.00014455405835 0.00019983423044 0.00021325313355 
0.00014562965043 3.1352837141e-05 1.901199812e-05 7.5318022027e-05 0.00013804406353 0.00012901027094 -1.2766468899e-05 -0.0002990027242 -0.00069487612927 
-0.0010456271702 -0.0011602987361 -0.00095488343686 -0.00046717301484 4.6331624617e-05 -0.0001974057086 0.00087879697094 0.00043663136785 0.0010772569367 
0.001268533335 0.0013706402096 0.00088868677267 0.00016469661568 0.00088153764955 0.00056607872466 0.00037157422798 0.00075149656914 0.00062408926169 
-0.00020076651981 8.9649185611e-05 -0.00043825797002 -0.00063281619077 -0.0005745653616 -0.00049541431508 -0.00056915557798 -0.00087970421009 -0.0015184672666 
-0.0025724362931 -0.0036737227347 -0.0040293122875 -0.0038926367997 -0.0036384162377 -0.0032757500885 -0.002720012283 -0.0018815080111 -0.0017724672798 
-0.0018695606559 -0.0017170896172 -0.001400483452 -0.00093654313241 -0.00037353004382 0.00021241272179 0.00059115228578 0.00084455747128 0.0011188225006 
0.001720997534 0.0021025369933 0.0025047480012 0.0030701184878 0.003691139631 0.003828048124 0.0030413051718 0.0015263694368 -0.00010679734987 
-0.0014698119339 -0.0021584220231 -0.0018128893862 -0.00079105954637 0.00018802672139 0.00076259345224 0.001021529737 0.0011737426976 0.0012926732306 
0.0011129191698 0.0013919271296 0.00081764505012 0.0006978116071 0.00084746242646 0.0013386712671 0.0019140597724 0.0019582748937 0.0015942008176 
0.0012060047447 0.00074053371791 0.00070808470628 0.00069987787477 0.00085149245569 0.0010708117406 0.0010539198483 0.0010698057595 0.0010647857634 
0.00085579972438 0.0015327512228 0.0006327064857 0.0018790010363 -0.00018952573009 0.00048569688806 0.00067455219687 0.00048733536096 0.00037657362191 
0.00032554816789 0.00041242400221 0.00047441070319 0.00053216464448 0.00054358576381 0.00042580888635 0.00020645309974 0.00074563137605 0.0011817566847 
0.0012827562896 0.0013906691747 0.00087505597185 0.0003975120112 -0.00044960766536 9.8635733593e-05 -0.00061001533322 -0.00056004962244 -0.0004797244037 
-0.00049977695016 -0.00071650191239 -0.0012470351212 -0.002207003301 -0.0033659971086 -0.0035830616485 -0.0036332132295 -0.0033040750423 -0.00092324647121 
-0.0010663523184 -0.0015068836219 -0.0011979407573 -0.0013241424167 -0.0012972907571 -0.0010835979192 -0.00071448800009 -0.00029364965521 1.108625753e-06 
0.00013251405281 0.000319491357 0.00039966690019 0.0010018970243 0.00061192731664 0.001565453349 0.0024160031753 0.0033035622328 0.0036858160747 
0.0030795714702 0.0016357086279 0.0002600596963 -0.001002476408 -0.0018521891325 -0.0020468586299 -0.00092340587435 6.0760277847e-05 0.00073510746006 
0.0010769976798 0.0012867042096 0.0014244164631 0.0014453097247 0.00029936559804 6.5292359068e-05 -7.6008725955e-05 -0.00088019952818 -0.00063158102239 
-0.00038650126589 -8.2989157818e-05 8.5966159531e-05 0.00034975088784 0.00051073166105 0.00056653882348 0.00071854765702 0.0010347427306 0.0012955341081 
0.0012939086591 0.0010648666939 0.00054955789346 -0.00016048419457 -0.00078588528777 -0.0011254701531 0.00087961991449 0.0012018320461 0.0016308866907 
0.0018221242353 0.0014675977691 0.00072747729064 8.9913140982e-05 -0.00049792659411 -0.00095152010908 -0.0010208074091 -0.00082789435692 -0.00054959581757 
-0.00025275258758 1.3547100934e-05 0.00017043207481 0.0001825632462 0.00014628768986 8.0956071542e-05 -9.1091420472e-05 -0.00024290346209 -0.0002299843336 
-0.000221601872 -0.00015069225901 -9.0607057549e-05 -0.00035802195362 0.00093407514214 0.0011977672693 0.001257728698 0.0010540455842 0.00094735311965 
0.0012314038613 0.001744419802 0.0021237032488 0.0014736041194 0.0008900187604 0.0006775726118 -0.0020551211783 -0.0023519513197 -0.0023935336794 
-0.0020200819854 -0.001505494564 -0.0022538937046 -0.001019601681 -0.0021860993875 -0.00040830830646 -0.00019423209415 0.00017848439302 0.00048360745996 
0.00071408674557 0.00010567040899 -0.00016171578295 -0.00027287707394 5.101336501e-05 0.0004849394827 0.0012442239095 0.0015040163853 0.0012923375354 
0.0012107301271 0.0018589516985 0.0027212458081 0.0028945708764 0.0023268137884 0.0014101121196 0.00045930962369 -0.00014905204807 -0.00036473936052 
-0.00041969951053 -0.00034882664477 -0.0001401366726 9.223592042e-05 0.00015932620772 0.0002058212073 -0.00072472095053 -0.00074091640272 -0.00060177496925 
0.0012450912473 0.0012309371377 0.0010333416576 0.00060586689915 -6.8259379532e-05 -0.0008128393838 -0.0012668697163 -0.0016693282232 -0.0014322467468 
-0.00065035261241 0.00021438661179 0.00082971462689 0.0011429112201 0.0013345344923 0.0014320556074 -0.0008170044166 -0.00045628516682 -5.9353961205e-05 
-0.00066403903475 -0.0005655673934 -0.00031572782063 0.00012126433822 0.0001250415834 0.00015868371884 0.00018912828818 3.1878695154e-05 -0.001485045359 
-0.00034298013391 -0.00030118852374 -0.00044835685185 0.00121911522 -0.00089114256843 0.00021730266963 0.00027862961724 0.00012532855544 0.005672298139 
0.005760211614 -0.00075221742736 0.00099278222478 0.0010517801711 0.00027021991991 0.00023799615883 -3.5907180973e-05 
Stress_XZ_Pt 1 1114 double
-0.0041894745082 -0.004955010023 -0.0072520007379 -0.0066833035089 -0.0051346116234 -0.0067947065691 -0.003381704737 -0.0050847023085 -0.0023642398301 
-0.0036281523935 -0.0018935876724 -0.0022806748602 0.00042656806181 0.00012957931904 0.002008569194 0.0018279741344 0.0023795207962 0.0027467206237 
0.0026750562247 0.0035689019132 0.0028289658949 0.0038846874377 0.0027983940672 0.0035415621242 0.0024065112229 0.0027981350431 0.0018895144458 
0.0021199361945 0.0014890991733 0.0016183224798 0.0011484235874 0.00099951637094 0.00070522424357 4.6920358727e-05 4.0265382268e-05 -0.0010972770106 
-0.00041360298928 -0.0020407889169 -0.0014982161811 -0.0029008871061 -0.0025990717113 -0.0034438864095 -0.0027301160153 -0.0035978467204 -0.0026469022268 
-0.0037677373621 -0.0024769450538 -0.0037064916687 -0.0018268136773 -0.0028337612748 -0.00066565549423 -0.0011953411104 0.0006065038433 0.00061617707797 
0.0015301050735 0.0018034500245 0.0017862461391 0.0021223645017 0.0016643095296 0.0021639417391 0.0014273650595 0.0021908955241 0.0011174883693 
0.0021317030769 0.00068334751995 0.0018987749645 0.00044416707533 0.0016206375512 0.00054434030608 0.001318238712 0.0007470396522 0.00080979897575 
0.0010478385084 0.00021755139278 0.0011118130351 -0.00035414328158 0.00051125556638 -0.00098011230148 -0.00057722358906 -0.0018907912236 -0.0017854057951 
-0.0032423434313 -0.0031140228966 -0.0050536908093 0.0011869970185 0.0020636796835 0.00032082080725 -0.00076048357005 0.0026818874758 0.0010641891568 
0.0029082129477 0.0015883166925 0.0025858209701 0.0019834901614 0.0020666933269 0.0022084427474 0.0015596671728 0.0022543730447 0.001268223743 
0.0022903322242 0.0013129181461 0.0024447652977 0.0015225014649 0.0027625545627 0.0016245045699 0.0031261994736 0.0019815392443 0.0036766280246 
0.0027954181423 0.0042818299844 0.0037521203049 0.0046021783492 0.0045667970553 0.0048079233384 0.0050222452264 0.0048725897213 0.0047776272986 
0.0043194383616 0.0033573861001 0.0028612891329 0.00069622826413 0.00071814736748 -0.0023449107248 -0.0016309422599 -0.0043271107133 -0.0036709090637 
-0.0047432298306 -0.0049511848483 -0.0041826619999 -0.0051726935781 -0.003658845555 -0.0048902099952 -0.0032178638503 -0.0047502025031 -0.0028174635954 
-0.0037476717262 -0.0028094556183 -0.0038609092589 -0.002964702202 -0.0042299678316 -0.00305290299 -0.0041573568597 -0.002997484291 -0.0034863370238 
-0.0027897390537 -0.0025191723253 -0.0020120886038 -0.0013439463455 -0.00027214648435 0.00028364672289 0.0026324925711 0.0024566245847 0.0049632976297 
0.0041256951517 0.0053008610848 0.0048719655606 0.004476650618 0.0047941685189 0.0029498270014 0.0037930281251 0.0018045215402 0.0029540079413 
0.0014256868162 0.0026592521172 0.0009290248272 0.0025636666396 0.00048730446724 0.0027768768778 0.00077025906648 0.0033543526079 0.0020100861439 
0.0040504511271 0.0038075861521 0.0044275991386 0.0041193109937 0.0036782317911 0.0030097393319 0.002078614757 0.0022831450915 0.00071693596601 
0.0014891930914 -0.0004827259836 5.0252536312e-05 -0.0019038668252 -0.0016214013158 -0.0033342589886 -0.0032560316613 -0.0046357549145 -0.0047874976881 
-0.0059307570336 -0.0056152455509 -0.0068253761856 -0.0054532994982 -0.0069690659875 -0.0043338715332 -0.0062165338895 -0.0023982871207 -0.004528188816 
-0.00033192316187 -0.0024507653579 -0.0095359920524 -0.010733424919 -0.0076134953415 -0.0047969028354 -0.0016304460878 0.0011947870371 0.003390215832 
0.0050869912957 0.0062681478448 0.0064862481086 0.0055783839198 0.0042088086484 0.0031638402143 0.0024130919483 0.0013860621548 -0.00018651891151 
-0.0019848595839 -0.0036273843143 -0.0045810953015 -0.0048118238337 -0.0049181808718 -0.0051330688875 -0.0049377469113 -0.0031299579656 -0.0010409341776 
0.0010761682352 0.0025507680257 0.0032708323561 0.0038593999343 0.0044676216785 0.0048951271456 0.0049502867623 0.0045465110452 0.0036058939877 
0.0020354896387 2.7510815926e-05 -0.0019963532395 -0.0034727540915 -0.0045713452273 -0.0060756424791 -0.0083261573454 -0.010406718589 -0.00092128555843 
-0.0021268012933 0.00033204019564 0.0017846924893 0.0030973465764 0.0039707286633 0.0044813778368 0.0048632321996 0.0053445517551 0.0059056968894 
0.0064868219197 0.0066421348602 0.0061008742778 0.0054553501541 0.0047842373606 0.0036306817201 0.0020957511733 0.00053616761306 -0.0011762643726 
-0.0032884871762 -0.0053937499179 -0.0065867285011 -0.0069034171756 -0.0070971653331 -0.0059868582757 -0.0054135355167 -0.0062778468709 -0.0057758751791 
-0.0045169584919 -0.0029176940443 -0.0012489649471 0.00040496350812 0.0018681210233 0.0030420660623 0.0041280423175 0.005036865361 0.0051489704056 
0.005243877531 0.0055899519357 0.0060718985624 0.0066725169308 0.0070979024749 0.0069074550411 0.0058016731637 0.0040246518329 0.0018871211569 
-0.0002218204545 -0.0019771572552 -0.0035784476204 -0.0049848676426 -0.0061105934437 -0.0072069527814 -0.0081259264844 -0.0085299205966 -0.0082154135453 
-0.0070400643162 -0.0052774529904 -0.0035333629348 -0.0063411628362 -0.0073384508723 -2.7974543627e-05 -0.002741907374 0.002969037625 0.0056094697211 
0.007739977329 0.0089602483204 0.0089500965551 0.0077233184129 0.0060343928635 0.0046783838188 0.0035765040666 0.0022620848322 0.00054937134155 
-0.001427775931 -0.0033416978549 -0.0047918972559 -0.0055088949157 -0.005569056957 -0.0054340000497 -0.0049500714522 -0.0034274090431 0.001714979313 
0.00013736115034 0.0031183469109 0.0042690149276 0.0054153790697 0.0065303647425 0.0073715677718 0.0076455778908 0.007139217807 0.0057934971992 
0.0036788380239 0.00094619695301 -0.00199088519 -0.0044911586214 -0.0064199172193 -0.0079827598529 -0.0097758874763 -0.010886638425 -0.010799937882 
-0.0098827609327 -0.0010559774328 -0.001783614076 -0.0071028402308 -0.007143510622 -0.0068506378448 -0.005993543542 -0.00489429757 -0.0036194868153 
-0.0021092091338 -0.00058309457381 0.00048949845223 0.0037575510214 0.0026313835115 0.0049790634075 0.0058421781287 0.0067149907118 0.0076594274724 
0.0082181922626 0.0082578333095 0.007941956399 0.007379793562 0.0063483325066 0.0048008827143 0.002842253889 0.00076773865294 -0.0010798087969 
-0.0028651925095 -0.0045610896777 -0.0059828431113 -0.0071677877568 -0.0079960614676 -0.0083289486356 -0.0081527929287 -0.0073591977125 -0.0060295732692 
-0.0045034809737 -0.0030007309397 -0.0013796728526 0.00049933286937 0.0025204743433 0.0043263785774 0.0055448376806 0.0062641183613 0.0068091594148 
0.007332755602 0.0077249688329 0.007831094088 0.0074808748905 0.0066682364559 0.0057305101072 0.0046598160407 0.0029805962462 0.0014139007762 
4.1907915147e-05 -0.0016181213941 -0.0036195296561 -0.0055473127868 -0.006953208358 -0.0077947083628 -0.0081202657893 -0.0078757174779 -0.0070659463527 
-0.006039281562 -0.0059755450347 0.001811085298 0.00085462880088 -0.00019155071823 -0.0010617861844 0.00080832984349 0.0020214909164 0.003319507523 
0.0046208153362 0.0060352229048 0.0074826092459 0.0086279554525 0.0090813087299 0.0085681461496 0.0070808657911 0.0047925665858 0.0019226707154 
-0.0009051786692 -0.0026103491255 -0.0077515831217 -0.006389006041 -0.0087355913129 -0.0086099796463 -0.0079095318215 -0.0074346604524 0.00061952151009 
-0.0017236525018 0.0033202960039 0.0059751908993 0.0084009689745 0.010183444014 0.010567572666 0.0093155758223 0.0074789812788 0.005960670067 
0.0043974664994 0.0026289148955 0.00091372019233 -0.0010516842376 -0.0031105992966 -0.004845475778 -0.0058889844222 -0.006037242827 -0.0057275390718 
-0.0052272204775 -0.0040803301963 -0.0028544877423 -0.0022055452573 -0.00089031638345 -0.0016525366227 -5.0291935622e-05 -0.0042259838083 -0.003206274705 
-0.0044871059945 -0.0038299524846 -0.0047351837275 -0.0027434901567 -0.0052190639544 -0.0045364310499 -0.003664079064 -0.0025608414144 -0.0014324535441 
-0.0005293072536 -7.1673130151e-05 0.00085525251052 7.7351116488e-05 0.0016494664887 0.0025385023037 0.0036937121185 0.0048852879554 0.0058962199837 
0.0068168774014 0.0075068590231 0.0076483091107 0.007301391568 0.0068314664531 0.0065108661074 0.0059019338805 0.0047518034698 0.0031551223365 
0.0013044074367 -0.00042637439765 -0.0020968171011 -0.0037787362817 -0.0053068336565 -0.0065187737346 -0.0072908069706 -0.0075891219312 -0.0074782741722 
-0.0068433494307 -0.0052357670851 -0.004096266639 -0.0027536037669 -0.0010673312281 0.0010681257772 0.0033441228152 0.0052104875213 0.0064286985435 
0.0072494882625 0.0079352977918 0.0084011594299 0.0084532883484 0.0079778152285 0.007171637495 0.0062568553258 0.0052885498153 0.0042778811185 
0.0032932743779 -0.00052674032486 0.00065157941572 -0.0020385252865 -0.003807541565 -0.005563642364 -0.0070129232481 -0.007858071321 -0.0080305687152 
-0.0077642485267 -0.0070256710751 -0.0060278601013 -0.0048887960147 -0.0049257974606 -0.0046309680911 -0.0043050217791 -0.0040339931729 -0.003541138547 
-0.0027524115867 -0.0018075428961 -0.0069382145302 -0.0072898881044 -0.0061439668061 -0.0050068132114 -0.0038768551894 -0.004325161688 -0.0038239610731 
-0.003683973744 -0.0034587382688 -0.003314734844 -0.0031145885587 -0.0025538767804 -0.0017087389424 0.0016231816408 0.0023823225638 0.00097108714544 
0.0021398002573 0.0034329937189 0.0047983990517 0.0063136166427 0.0079349088483 0.0093160066754 0.0099990258459 0.0096515589394 0.0082796314964 
0.0060983501608 0.0034604321991 0.0010294328385 -0.00043269919115 -0.00065846803773 -0.0019677137607 -7.3260147474e-05 -0.0037006306229 -0.0051293722354 
-0.0062710840721 -0.0069318960886 -0.0064647694817 -0.005437759799 -0.0048586741323 -0.0065929343691 -0.0045632304973 -0.0054749691626 -0.004291980702 
-0.0039160302258 -0.0034288470633 -0.0027244008379 -0.0014410737931 0.00065210838511 0.0031940683839 0.005745248287 0.0081846037647 0.010358208092 
0.011291145114 0.010212392546 0.0082755052717 0.006666945992 0.0052144090878 0.00070869355659 0.0023051397875 -0.001287627465 -0.0034613892785 
-0.0052866501501 -0.0064099279698 -0.0066812636796 -0.0063305768417 -0.0059072142467 -0.0052890923107 -0.0043882544851 -0.0036013370263 -0.0027613835118 
-0.001305554877 -0.0021515703993 -0.00078915371705 -3.5623961594e-05 0.0032953630434 0.0035767277586 -0.00059484481972 -0.00083931736299 0.00018152728899 
-0.00032010171253 0.00079220892803 0.0015530714591 0.0024314658367 0.003425303672 0.0044484998798 0.0053246972384 0.0059379047016 0.0061288101133 
0.0059096872574 0.005561787053 0.0053898448823 0.0054802069208 0.0052853671368 0.0045735194581 0.0032972097979 0.001576502953 -3.4681259422e-05 
-0.0014793984592 -0.0028946232051 -0.0042489584885 -0.0053677483229 -0.0061089530354 -0.0063792200526 -0.0062187671429 -0.005629629246 -0.0044949485455 
-0.0015383006667 -0.0026533903438 6.6445596531e-05 0.0021201627605 0.0042094735545 0.0058184815571 0.0068826066563 0.0076504104072 0.0083080579061 
0.0086070992984 0.0083673547488 0.0076539409347 0.0066632794915 0.0056838975288 0.0047503055539 0.0039120242582 0.003355703239 0.0029498283984 
0.001578962183 0.0024683027586 0.00075527907939 4.7025403546e-05 -0.0010075552418 -0.0025185940322 -0.0041908074636 -0.0058773653582 -0.0072430206928 
-0.0031726373709 -0.0031248938758 -0.0013034510193 -0.00082604574709 1.6377719476e-05 -0.00030164654527 0.0003679308511 0.00086432298849 0.0013887813936 
0.0019824919582 0.002899470448 0.0037976449239 0.0044554044143 0.0047716315603 0.0047947729472 0.0046963271452 0.0045671889093 0.0045637917938 
0.0048675425351 0.0047727853525 0.0042352421442 0.0032835107995 0.0017453804612 0.00028953259243 -0.00092551740454 -0.0020547106396 -0.0031384421163 
-0.0040631567826 -0.0047212483478 -0.0050123884575 -0.0049089001259 -0.0045157709392 -0.003870293207 -0.0030428299215 -0.0019804326002 -0.0022548003471 
-0.0016357411077 -0.0010196524381 -1.0045156159e-05 0.0014352157468 0.0031468970119 0.0048142038868 0.0061597962631 0.007018014905 0.0074563019443 
0.0077531923307 0.0079450435005 0.0080057906453 0.0072938649682 0.0063424770487 0.0053490649443 0.0044084026595 0.0035926343407 0.0032958287047 
0.0019997633062 0.0030232606223 0.00088066237504 3.9292640849e-05 -0.00033881854567 -0.0012607430108 -0.0027796599315 -0.0043939997558 -0.0061194756068 
0.00095418774436 0.0021027274779 0.0033610160463 0.0046921588364 0.0061778707895 0.0077983201481 0.0093374215066 0.010411351454 0.010487311985 
0.009341130266 0.0073601705953 0.0050759259029 0.0029858429625 0.0015352805203 0.00082231264484 0.0016726230824 0.0006046585313 0.0024131598766 
-0.0011162998289 -0.0025935469021 -0.0038170032785 -0.0049234501203 -0.0055626042886 -0.0050863838987 -0.0039946208708 -0.0032356659067 -0.0030216901796 
-0.0030524144531 -0.0029453372699 -0.0026981595438 -0.002228618454 -0.001178592247 0.00075751658733 0.0032767620869 0.0057927203598 0.0079697597539 
0.0098050804809 0.010721282801 0.0098214664031 0.0079734466271 0.0063788676634 0.0049531827681 0.003450520162 0.0018545038911 0.0019420781755 
0.0017012083408 0.0012073283469 1.5001605789e-06 -0.0019651040202 -0.0041646518512 -0.0058403750882 -0.0067777411314 -0.0070095777046 -0.0067031495273 
-0.0063690971583 -0.0059924017405 -0.0053520464571 -0.0047044274397 -0.0040787569014 -0.0034195788903 -0.0017614728422 -0.0026655353722 -0.0012239981831 
-0.00070591556141 5.8723329857e-05 0.0014093283535 0.0023286142095 0.0031608817517 0.0036574173137 0.0039006509469 0.0040754493093 0.0042575284606 
0.0044349989621 0.0046426855261 0.0050358877052 0.0039746341063 0.0046207593987 0.0031958395266 0.0018891642685 0.00054940104269 -0.0005378217877 
-0.0014598263078 -0.0023345865193 -0.0031283355202 -0.0037642518291 -0.0041614696966 -0.0042545045726 -0.0041105294367 -0.0038026891416 -0.0032696929993 
-0.0026056104689 -0.0015570433898 -0.0019517912588 -0.0010784202677 -0.0005194064106 0.00013936150572 0.0010816358699 0.0023440782388 0.0037019847077 
0.0050108728465 0.0061522304313 0.0068631542381 0.0070577963488 0.0070037613623 0.0070597801823 0.0072687425418 0.0079445666634 0.0062762408052 
0.0052109545795 0.0041986250435 0.005055329646 0.0054129566997 0.0040098229074 0.0028234711499 0.0038358840975 0.0016428407253 -0.00021903722554 
-0.0011113794521 0.001003335412 0.0020975983352 0.0032679312862 0.0044917461346 0.005859812838 0.0073554114206 0.0088707527611 0.01022646483 
0.010803391691 0.0099637713283 0.0082446219167 0.0064107566141 0.0047295739059 0.0032325965294 0.0044617402367 0.0023995988886 0.0036873266799 
0.00095619130116 -0.00049673546346 -0.0018191184936 -0.002873846679 -0.003743731475 -0.004220193252 -0.0038296461571 -0.0029664539616 -0.0021284871502 
-0.0018524469633 -0.0018931245722 -0.001896681264 -0.0017489175661 -0.0013474551233 -0.00042913226207 0.0013436350055 0.0037271496258 0.0059680322884 
0.0076218509348 0.0088209810201 0.0092811293434 0.0084001995856 0.0068008843809 0.0054097862449 0.0042907402385 0.0031660036184 0.0019567317213 
0.00060796710022 0.00088685773517 0.000355535376 0.00010642111738 -0.00016482741557 -0.0008025927782 -0.0023604972521 -0.0042603110196 -0.0056772390381 
-0.0063624728937 -0.0061827527359 -0.006351320073 -0.0062888151345 -0.0059684854932 -0.0056045192759 -0.00536083919 -0.0051087153843 -0.0044842553325 
-0.0034645069391 -0.0015870532079 -0.0021862455469 -0.0010012335624 -0.0065407812363 -0.0060264378553 -0.0052928860532 -0.00523486163 -0.0047465668758 
-0.0036599160521 -0.0032211014768 -0.0029998187674 -0.0027431209455 -0.002646578534 -0.002543486713 -0.0020374560263 -0.0014095577353 -0.00073936331319 
0.00030307810448 9.7897354863e-06 0.00052015103211 0.00087934461772 0.0023044334957 0.001230591879 0.0033561527962 0.0044306955533 0.0055893274257 
0.0068300400162 0.0081331016263 0.0094839266967 0.010343788657 0.0098032988608 0.0081177727319 0.0070317895152 0.005967425881 0.0026697232854 
0.0037767066776 0.0046227936982 0.0017991241475 0.0009001491344 -0.00016657042579 -0.0013223481365 -0.0021949316724 -0.0028302012011 -0.0033981831511 
-0.0031904355856 -0.0027310852311 -0.0023557592358 -0.00096163767012 -0.0011893699848 -0.00088579223666 -0.0006869222334 -0.00015579964293 0.00081748451339 
0.002347376605 0.0042028744938 0.0057170857908 0.0065844107419 0.0077375018736 0.0076362243854 0.0068424167112 0.0055066120112 0.0043734816718 
0.0035502645769 0.0027855343651 0.0019162774552 0.0010416258301 -0.0017055797507 -0.002378021105 0.0079982363386 0.0076298497152 -0.0026476242638 
-0.0040671956958 -0.0053139466327 -0.0058958230074 -0.0057292260462 -0.005570556852 -0.005795820849 0.0017367691325 0.0025201493117 0.0029492703034 
0.0032541363616 0.0036745817633 0.0042067922186 0.0047851181589 0.0052505253116 0.0058374498039 0.0052591821877 0.0050630786767 0.004555689171 
0.00380257098 0.0029612124199 0.0017873246688 0.0005804127029 -0.00031596254507 -0.00099388803937 -0.0017569929769 -0.0025959265477 -0.0033264852827 
-0.0038273803075 -0.0040525233489 -0.0040017712163 -0.0039092141087 -0.003621198819 -0.0030355414492 -0.0024338658841 -0.00082341530288 -0.0013530567958 
-0.000258692442 0.00029100715255 0.00066487112296 0.001373607709 -0.0019233468629 -0.0012049734214 -0.00040937348967 -0.00068440462928 -0.00076717474925 
-0.0010891386482 -0.0014251442917 -0.0022248903697 -0.0033321111463 -0.0045994576067 -0.0054169339128 0.0056892043212 0.006541361101 0.0069882564712 
0.0070267867995 0.0069676386192 0.0077656828798 0.0082598901354 0.0089166262187 0.0081541584805 0.0079643547069 0.0074033427518 0.0063584441086 
0.0051445657155 0.0052185216919 0.0036074990639 0.0046216797782 0.0026141108829 0.0014668484946 -0.0026153190993 -0.0022521420906 -0.0019930927781 
0.0013919184217 0.004441985162 0.0033067366458 0.0021498481074 0.0010499400823 0.00018537950928 -0.0003092802317 -0.00066848991992 -0.0012358970562 
-0.0020591114881 -0.0028605973348 -0.0034181954688 -0.0037361635477 -0.0033549968502 -0.0037387208237 0.00045344458704 -0.00026152634018 0.0010338578577 
0.0021768607548 0.0026274446282 0.0030648073298 0.0037547321408 0.0046608241973 0.0055253647733 0.0058519821614 0.0065496845637 0.0065070231212 
0.005601626588 0.0044608486933 0.003530142596 0.0029113540659 0.0023710049281 0.0018883731294 0.0082634736318 0.0076821077382 0.0066393481102 
-0.0011003260151 -0.0017321872292 -0.0019490689738 -0.0031247255392 -0.0032133704517 -0.0029235073016 -0.0027144983566 -0.0029391524731 0.0092382158618 
0.0054193646647 0.0061694104224 0.0072914903285 -0.0013938199263 0.0084586027078 -0.003394505824 -0.0034076258889 -0.0032902069506 -0.0081108004088 
-0.0059716866817 -0.0010549811608 6.9918423833e-05 -7.3136136052e-05 -0.0037700047833 -0.0037662319373 -0.0029719349695 
Disp_X 1 1114 double
0 0 0.0020202037413 -0.00091734336456 0.0033217677847 0.0013460373739 0 -0.0062032323331 0 
-0.01826682128 -0.0085598994046 -0.028137296438 -0.0061589451507 -0.029949324206 0 -0.025993863121 0 -0.021042689681 
0 -0.016081074253 0 -0.011807696894 0 -0.0095827495679 0 -0.008367523551 0 
-0.0067623578943 0 -0.0047150612809 0 -0.0027935728431 0 -0.0012437105179 0 -5.0298782298e-05 
0 0.00088758766651 0.00018690664729 0.0025963727385 0 0.0042070848867 0 0.0051017673686 0 
0.0052276086062 0 0.0039534713142 0 0.0025586260017 0 0.0030124764889 0 0.0075976992957 
0 0.012165636756 0 0.014554754831 0 0.015388975851 0 0.015162091702 0 
0.014741705731 0 0.014103892259 0 0.01312718913 0 0.011754300445 0 0.0100306971 
0 0.0082143479958 0 0.0055030197836 0 0.0018183471402 0 -0.0017211791128 0 
-0.0035142530687 0 -0.0030983337201 0 0 -0.002143131569 -0.0046743159182 0 0.00092816445976 
0 0.0038825494703 0 0.0060397866182 0 0.0082779545337 0 0.010968830436 0 
0.01363058202 0 0.015927940607 0 0.017546815798 0 0.018032940105 0 0.017173781991 
0 0.015702726319 0 0.014740621671 0 0.014193350449 0 0.01415193174 0 
0.012881489471 0 0.0099677359685 0 0.0074369297363 0 0.0079703647643 0 0.011571465991 
0 0.016915796325 0 0.022521328181 0 0.028912309557 0 0.035583417863 0 
0.022898076102 0 0.017726451159 0 0.013334782794 0 0.0094414707273 0 0.0068833632395 
0 0.0041454220191 0 0.00061549915699 0 -0.0028525157832 0 -0.0055089066736 0 
-0.0027818982489 0 -0.0041170874611 -0.0086820274591 -0.010885718279 -0.012280067429 -0.018063563854 -0.011300926097 -0.022662892938 
0 -0.02651713416 0 -0.027438675985 0 -0.029070837423 0 -0.031419835985 0 
-0.034027691931 0 -0.034805193543 0 -0.03106369637 0 -0.02570091933 0 -0.01978068985 
0 -0.01550014969 0 -0.013208982535 0 -0.012227228843 0 -0.010897928849 0 
-0.0099334241822 0 -0.0083628036082 0 -0.006865857169 0 -0.0053719179705 0 -0.0050833793357 
0 -0.0053241350688 0.0034414648544 0.0046620680951 -0.0077067553066 -0.030114902183 -0.045983139426 -0.050640087575 -0.047646142542 
-0.039530251175 -0.028814723715 -0.019290115684 -0.014647892676 -0.013067287393 -0.010345566086 -0.0066111744381 -0.0035037952475 -0.0011894375784 
0.0001448696712 0.0014498998644 0.0037182639353 0.0065487418324 0.0089067723602 0.0093246577308 0.006758057978 0.0027152679395 0.005831529852 
0.013209534809 0.019258579239 0.022922780365 0.024674428627 0.025006519631 0.024877453223 0.024499310181 0.023143464699 0.020783420652 
0.017630187795 0.013952564448 0.009549099952 0.0047048330307 0.00020106731972 -0.0031882198527 -0.0042341686785 -0.00059064634843 -0.00073124584742 
-0.0053042974323 0.0039418186061 0.0087547758594 0.013708777726 0.019153004512 0.024836428463 0.028917685151 0.030809568241 0.030940501019 
0.028978260234 0.026494013146 0.02441813983 0.023141622543 0.022264776751 0.019886016846 0.015503354371 0.012807309628 0.014022127725 
0.019047675654 0.026965480298 0.036642290652 0.046549119055 0.055831808597 0.030492413789 0.034363213927 0.022313928232 0.012608997524 
0.0063477321528 0.0024560610764 -0.00072367343819 -0.0041632461362 -0.0060922699049 -0.0042386548594 -0.0069152484648 -0.013976954855 -0.021992990747 
-0.028994178399 -0.034833788872 -0.038421820849 -0.041045509279 -0.046279035509 -0.053174186498 -0.056538861245 -0.052679307759 -0.043283525854 
-0.032185301185 -0.023702809587 -0.019637394696 -0.017851047218 -0.016190329567 -0.014344808646 -0.012009868398 -0.0099871177226 -0.0085631152615 
-0.0089622717351 -0.0095892073587 -0.0086162434891 0.047603756189 0.06270159781 -0.06345243752 -0.052361525595 -0.068309053779 -0.064601197839 
-0.053936503828 -0.039540041238 -0.02588534914 -0.018315270543 -0.01598329097 -0.01268975623 -0.007581230253 -0.003361845389 -0.0010205289582 
-8.9290369942e-05 0.0010202933336 0.0042377691716 0.0084892949089 0.011922762729 0.012848676182 0.010588597506 0.0062361182645 0.017491998151 
0.010174154304 0.023780398071 0.027936760336 0.030233092606 0.031238609925 0.031719971448 0.031907498837 0.030927216634 0.028310030699 
0.024244625121 0.019160691649 0.013590447605 0.0070798778906 0.00054704654031 -0.0042540249415 -0.0038695267867 0.0014810776338 0.0081481710076 
0.0059376046993 0.0047495840117 0.0045799384825 0.045359104872 0.061147026718 0.033627644181 0.016668733209 0.0046409559436 -0.0013553967001 
-0.0033225782681 -0.004964791704 -0.0058708866127 -0.0093576963991 -0.0055730831809 -0.016071837395 -0.023668725044 -0.031511679292 -0.038317240775 
-0.042363755405 -0.046876221895 -0.056441981345 -0.068332873285 -0.074096940458 -0.069675177336 -0.057075891644 -0.042550057173 -0.029522100464 
-0.022634569556 -0.019603433087 -0.017240317538 -0.014674486592 -0.012209644541 -0.01017591171 -0.0088956467807 -0.010241525248 -0.011940320022 
-0.011079489253 -0.0071688140742 -0.0017365257954 0.0040515204892 0.010261887684 0.017609482631 0.025825612247 0.033904772252 0.039439924061 
0.041671130806 0.041113249958 0.037998668849 0.033667258918 0.030300036073 0.02811999619 0.026346374303 0.022522633895 0.01635096781 
0.013702275231 0.015511364676 0.022200459614 0.033062789589 0.045683994889 0.056355044246 0.066562980413 0.073508948088 0.07421977073 
0.047914694995 0.067826278508 -0.0053714411333 -0.0058314632624 0.0088906623423 0.0061859991401 0.014410340227 0.020781183615 0.02647510916 
0.030631862581 0.033218193799 0.034707721323 0.035734642297 0.036646250635 0.03621789813 0.033855460584 0.029402922839 0.022960072383 
0.016491478309 0.0099477246404 -0.0064953337424 -0.003398321569 -0.0045863715932 0.0022365802433 0.0085603808984 0.0065201222897 -0.079081051052 
-0.069212131202 -0.082786276937 -0.077705644071 -0.065208494663 -0.048677690327 -0.03281050548 -0.022619299591 -0.01809778437 -0.013984294608 
-0.0071527310647 -0.0024663556833 -0.0010264427401 -0.0011645297054 0.00015617764439 0.0047271852382 0.010839683004 0.015732452273 0.017841968685 
0.016786178574 0.013253941201 0.0097883250564 0.0084606530145 0.0086086457595 0.0091481013224 0.012020257302 -0.043258171529 -0.058849301189 
-0.038907758892 -0.051441587508 -0.0001287595951 0.0029252346139 0.020655008033 0.0039529316127 -0.0045769871213 -0.0063181673177 -0.0062928129919 
-0.0060667097569 -0.0059107183479 -0.0054506310262 -0.0055227540433 -0.0052698748186 -0.0066647608764 -0.010204672813 -0.016312025487 -0.023335821927 
-0.03078061156 -0.037381958216 -0.041594475508 -0.049789249897 -0.064708031714 -0.07990411669 -0.087203659117 -0.082976073027 -0.068617813289 
-0.051407538354 -0.035138782114 -0.025212831795 -0.020207466558 -0.016749393195 -0.013676336035 -0.011288153008 -0.0096557801589 -0.0088012441993 
-0.010573938489 -0.013856602833 -0.01237158943 -0.008585345 -0.0030824528076 0.0030546372291 0.010475542396 0.019754821435 0.030412148684 
0.040267515928 0.046776439995 0.049433387816 0.048074666411 0.044052388519 0.038731556386 0.034208837897 0.031048381701 0.02868818678 
0.025821493939 0.013434562832 0.0149015598 0.016364870593 0.025205301121 0.039093017578 0.052559010684 0.060338228941 0.069038979709 
0.077052161098 0.080415181816 0.077056474984 0.056828547269 0.067973263562 0.039411064237 0.017763424665 0.0019645991269 -0.0062652523629 
-0.0079571362585 -0.0073022553697 0.079016566277 0.072787053883 0.07866691798 0.072224289179 0.055363602936 0.060750778764 0.043660301715 
0.027825653553 0.010608730838 -0.0037365953904 -0.0088114636019 -0.009161493741 -0.0071295285597 0.019216002896 0.023377519101 0.017289116979 
0.023125128821 0.028480753303 0.032621797174 0.035352084786 0.037204168737 0.038673222065 0.039863679558 0.040074829012 0.038452062756 
0.033880203962 0.026475712657 0.018491672352 0.011252271011 0.0049076518044 -0.0035858289339 -0.00031037800363 -0.0069593256339 -0.0094848824665 
-0.0086181340739 -0.0048583340831 0.0024384122808 0.0068122050725 0.0036689520348 -0.0043881665915 -0.0069191707298 -0.021834505722 -0.022849889472 
-0.040117174387 -0.055753093213 -0.069025181234 -0.081852994859 -0.091495037079 -0.094582274556 -0.088940188289 -0.075515165925 -0.057697262615 
-0.039879087359 -0.027470143512 -0.020186826587 -0.014997603372 -0.0095525598153 -0.0020463524852 -0.0015549421078 -0.0027769408189 -0.00027511373628 
0.006511005573 0.015033463016 0.021743394434 0.024960711598 0.025413881987 0.024025158957 0.020799512044 0.017621293664 0.015011277981 
0.0107243862 0.013632084243 0.011069383472 0.01425858587 -0.0029879799113 -0.0051081790589 -0.0056942915544 -0.0061214589514 -0.0050945570692 
-0.0050679827109 -0.0053693517111 -0.0058814445511 -0.0071705533192 -0.0095964577049 -0.014459433965 -0.020701695234 -0.027539268136 -0.033793479204 
-0.039860345423 -0.052314899862 -0.071017876267 -0.08933737129 -0.097764968872 -0.093404561281 -0.078289546072 -0.059835001826 -0.041246414185 
-0.028453012928 -0.021545810625 -0.016521003097 -0.012838657014 -0.010343755595 -0.0091014709324 -0.0088799828663 -0.010762190446 -0.014047430828 
-0.0098600508645 -0.013416887261 -0.0043480703607 0.0018051287625 0.0098769515753 0.02084284462 0.033052787185 0.044256664813 0.051942061633 
0.055033538491 0.052822969854 0.047482483089 0.041670035571 0.036882989109 0.032934755087 0.030128050596 0.02768394351 0.026926180348 
0.020810237154 0.025666670874 0.016576081514 0.013593541458 0.013006856665 0.016842154786 0.028020408005 0.046150185168 0.062692344189 
-0.016144290566 -0.016717115417 -0.0064588435926 -0.0056734872051 -0.0045805429108 -0.0047310451046 -0.0049194009043 -0.0054875258356 -0.0059050712734 
-0.0065523413941 -0.0078828465194 -0.011626460589 -0.016997650266 -0.023402489722 -0.030076382682 -0.039046891034 -0.053601033986 -0.073958873749 
-0.097169555724 -0.10555585474 -0.10051109642 -0.085437200963 -0.06612123549 -0.04729154706 -0.032820049673 -0.023953201249 -0.017520599067 
-0.012817245908 -0.0099131623283 -0.0087824380025 -0.0090871462598 -0.011015171185 -0.013926375657 -0.016477942467 -0.018505537882 -0.018381146714 
-0.016910994425 -0.014061404392 -0.010523579083 -0.0049797184765 0.0010670201154 0.009469313547 0.020532900468 0.032785542309 0.044462643564 
0.053627174348 0.057981789112 0.05365402624 0.047653172165 0.042298484594 0.037905953825 0.033994045109 0.030455436558 0.030227001756 
0.024029122666 0.029673503712 0.018059918657 0.014280730858 0.01300788112 0.012610817328 0.016597911716 0.028176190332 0.053000982851 
0.019263384864 0.024910829961 0.030202770606 0.034399926662 0.037211358547 0.0392899625 0.040879175067 0.042011976242 0.043099362403 
0.042419534177 0.03793560341 0.02985211648 0.020623870194 0.012401991524 0.0068144518882 0.0033324470278 -0.005618553143 -0.0012534135021 
-0.0087793748826 -0.010998748243 -0.012840742245 -0.010776841082 -0.0052114161663 0.0012930443045 0.0042430749163 0.00071432121331 -0.0097305886447 
-0.025574551895 -0.043061804026 -0.06039045006 -0.076207138598 -0.090407937765 -0.10050497204 -0.10330459476 -0.09716001153 -0.083038896322 
-0.06415668875 -0.044944431633 -0.030863814056 -0.021551366895 -0.014964412898 -0.0100450553 -0.0063095232472 -0.0029983294662 -0.0040048398077 
-0.0021821293049 -0.002695863368 -0.0042886277661 -0.0045546372421 0.00080257433001 0.010802687146 0.02191908285 0.030875006691 0.034695785493 
0.035367265344 0.035944972187 0.034815020859 0.031171631068 0.025801965967 0.019600236788 0.013104530983 0.015243599191 0.012018932961 
0.012657186016 0.015557089821 -0.0059003964998 -0.0061690933071 -0.0089986920357 -0.013797484338 -0.020030448213 -0.02708931081 -0.037196721882 
-0.051736876369 -0.069846756756 -0.087758108974 -0.10436720401 -0.11015705764 -0.090432435274 -0.071671910584 -0.053099561483 -0.037580076605 
-0.027127692476 -0.019252890721 -0.013481061906 -0.0099572045729 -0.0087157189846 -0.0089939702302 -0.010563560762 -0.013235424645 -0.015030846 
-0.01670829393 -0.018798019737 -0.018065020442 -0.017876086757 -0.016095722094 -0.014405944385 -0.010941300541 -0.0056863785721 -4.1245443754e-06 
0.0075242142193 0.017549101263 0.030045120046 0.041931901127 0.05086613819 0.055515762419 0.045895796269 0.050020884722 0.041700579226 
0.03810460493 0.034265305847 -0.10712987185 -0.10115813464 0.034398466349 0.029069965705 0.034562867135 0.022134978324 0.014115661383 
0.012290606275 0.020613588393 0.026512557641 0.031755369157 0.035905063152 0.0386233069 0.040797829628 0.042410165071 0.04338414222 
0.045042928308 0.045864451677 0.041718106717 0.032743100077 0.021278409287 0.010928698815 0.0084804939106 -0.0049414215609 0.000198570473 
-0.010011893697 -0.013295179233 -0.014412079938 -0.014949741773 -0.012167092413 -0.0068184081465 -0.0014224065235 0.00083519145846 -0.0028955971356 
-0.013243691996 -0.028568701819 -0.045756623149 -0.06363568455 -0.080674223602 -0.095621719956 -0.10594728589 -0.10879386216 -0.10278659314 
-0.088305614889 -0.068251505494 -0.048277787864 -0.032322075218 -0.022171791643 -0.014774819836 -0.0097357910126 -0.0065798242576 -0.0046851988882 
-0.0035096528009 -0.003803235013 -0.0033218325116 -0.0037319005933 -0.0054857935756 -0.0070807184093 -0.0054533979855 0.0039231176488 0.01712141186 
0.029831686988 0.044557441026 0.045658189803 0.043283343315 0.047043554485 0.049355071038 0.046391278505 0.03871133551 0.028355432674 
0.018955027685 0.013045969419 0.013074901886 0.013216172345 0.069406211376 0.07305431366 0.069306448102 0.060037881136 0.047113381326 
0.041274741292 0.029434831813 0.017117703333 0.0028895458672 -0.0087266368791 -0.011005030945 -0.0088582886383 -0.0072329565883 -0.0056499005295 
-0.004068155773 -0.0041466094553 -0.0043368386105 -0.0050996104255 0.027746453881 0.021525826305 0.03291419521 0.036884795874 0.039321355522 
0.041432563215 0.042994037271 0.043960288167 0.045861069113 0.048892971128 0.047174308449 0.035671714693 0.022448033094 -0.0047227349132 
-7.5692179962e-05 0.0056637004018 -0.0089635085315 -0.013047053479 -0.015500656329 -0.016820400953 -0.016403576359 -0.013828889467 -0.0088762436062 
-0.0046051498502 -0.0029825596139 -0.0041976869106 -0.031092034653 -0.018069978803 -0.046889908612 -0.064834885299 -0.082161344588 -0.097705163062 
-0.10831254721 -0.11179829389 -0.1065575704 -0.090816661716 -0.049443874508 -0.068659253418 -0.033536367118 -0.022699343041 -0.014721428044 
-0.0095721576363 -0.0061867330223 -0.0048477835953 -0.0040189931169 -0.0098396278918 -0.0067969188094 0.054982725531 0.055460691452 0.014652498998 
0.02380133979 0.039353709668 0.053448654711 0.061180572957 0.06096964702 0.05538694188 -0.0050239749253 -0.0066793626174 -0.010735891759 
-0.016947261989 -0.024552406743 -0.035176284611 -0.048228055239 -0.063315182924 -0.077047750354 -0.10957259685 -0.11056476086 -0.11177843064 
-0.10670418292 -0.094483017921 -0.077235974371 -0.059073507786 -0.042238868773 -0.029959775507 -0.020534930751 -0.01388879586 -0.0099764633924 
-0.0085986349732 -0.0086085340008 -0.0098086306825 -0.01205871813 -0.013751000166 -0.014961991459 -0.016024144366 -0.018149537966 -0.018889967352 
-0.016643879935 -0.01489384193 -0.013543407433 -0.010564039461 -0.01014382951 -0.0068272431381 -0.0046099582687 -0.0050309118815 -0.0055605084635 
-0.0079932482913 -0.0092583177611 -0.0045120031573 0.01195021905 0.026813458651 0.034982930869 0.01446223259 0.026424264535 0.038562241942 
0.04760780558 0.052606210113 0.053236488253 0.051584549248 0.050794407725 0.050886414945 0.047454115003 0.044323440641 0.041305664927 
0.038134306669 0.03906776011 0.033801514655 0.037515435368 0.028420781717 0.021740861237 0.0082953525707 -0.0028950362466 -0.010534264147 
-0.0043957214803 -0.11251129955 -0.10821084678 -0.097126558423 -0.081155464053 -0.063500098884 -0.045741926879 -0.031407102942 -0.020375257358 
-0.01286615245 -0.0090519506484 -0.0079650012776 -0.0080901216716 -0.013273287565 -0.013111215085 -0.015086432919 -0.017053546384 -0.012715659104 
-0.0057215564884 -0.0094278026372 -0.015253884718 -0.022926261649 -0.034232914448 -0.046650536358 -0.057419545949 -0.063385866582 -0.048181589693 
-0.033873144537 -0.022715575993 -0.014780938625 -0.0092742610723 -0.0059733907692 -0.0045825783163 0.046644162387 0.044071611017 0.041842617095 
-0.017922021449 -0.017879186198 -0.017134906724 -0.0071339430287 -0.010127946734 -0.0056266440079 -0.0054735369049 -0.0066919731908 0.046248085797 
0.039439886808 0.041192337871 0.042799204588 -0.008339125663 0.044126663357 -0.0084397634491 -0.010809714906 -0.0071756741963 -0.0049908258952 
-0.023820763454 -0.0064907809719 0.016245696694 0.015536994673 -0.011240131222 -0.0091110765934 -0.013719090261 
Disp_Y 1 1114 double
0 0 0.012854336761 0.01199019514 0.012584711425 0.0083953188732 0 0.001767628477 0 
-0.0075516169891 -0.0082716466859 -0.010787005536 -0.0090826712549 -0.013191435486 0 -0.011964437552 0 -0.0093937749043 
0 -0.0075332135893 0 -0.0046647605486 0 -0.0026885175612 0 -0.0014741745545 0 
-0.00055732514011 0 0.00093788740924 0 0.0024310436565 0 0.003467890434 0 0.0037403556053 
0 0.0041728229262 0.0044105355628 0.0038825201336 0 0.0022902525961 0 0.0016861887416 0 
0.0020669798832 0 0.0032524571288 0 0.004235076718 0 0.0031005756464 0 0.0013829651289 
0 -0.00020629372739 0 -0.0014106379822 0 -0.0023575732484 0 -0.0031230608001 0 
-0.0040993643925 0 -0.0047864308581 0 -0.005851267837 0 -0.005976238288 0 -0.0066085481085 
0 -0.0064467391931 0 -0.0052970848046 0 -0.0039608580992 0 -0.00079821358668 0 
0.0034379877616 0 0.0080561600626 0 0 -0.0099077671766 -0.0082598151639 0 -0.0098363421857 
0 -0.010610771365 0 -0.0099163195118 0 -0.0081957317889 0 -0.0079123992473 0 
-0.0071562421508 0 -0.0066212350503 0 -0.0073353894986 0 -0.0070569897071 0 -0.0083832293749 
0 -0.0070845652372 0 -0.0059880376793 0 -0.0042645847425 0 -0.0044933725148 0 
-0.0044142915867 0 -0.0045796115883 0 -0.0047203130089 0 -0.0047058933415 0 -0.0041121821851 
0 -0.0036631484982 0 -0.0017460847739 0 0.0016486479435 0 0.0068122651428 0 
0.0066118407995 0 0.0076099545695 0 0.0049825971946 0 0.0015370473266 0 -0.0013487951364 
0 -0.0025641242974 0 -0.0026565401349 0 -0.0028964164667 0 -0.0038683663588 0 
-0.0026306204963 0 -0.0041615385562 -0.011915352196 -0.0074443640187 -0.013945659623 -0.010871942155 -0.014305402525 -0.011395118199 
0 -0.010495011695 0 -0.0095054870471 0 -0.0095815528184 0 -0.0084481555969 0 
-0.0070611312985 0 -0.0053520263173 0 -0.0049709146842 0 -0.0046790512279 0 -0.0047906418331 
0 -0.0056580668315 0 -0.0058447476476 0 -0.0060193864629 0 -0.0053110634908 0 
-0.0063213878311 0 -0.0069580650888 0 -0.0078117744997 0 -0.0087326690555 0 -0.0088643906638 
0 -0.0090622501448 0.011271802709 0.018584122881 -0.00052240357036 -0.014261209406 -0.020919417962 -0.023280316964 -0.02177682519 
-0.01817423664 -0.013346704654 -0.0082407686859 -0.0035980804823 -0.00070945499465 0.0012620524503 0.0031150842551 0.004808370024 0.0057728728279 
0.0057277139276 0.0045172362588 0.0021914571989 0.00011639589502 -0.00072393001756 -0.00031097844476 0.0014132387005 0.0039647636004 0.0032466570847 
0.00089465786004 -0.0009404430748 -0.0023613104131 -0.0034823089372 -0.004604769405 -0.0062310290523 -0.0074889380485 -0.0089703025296 -0.0103233587 
-0.011230411008 -0.01060918346 -0.0084993094206 -0.005762740504 -0.0010053541046 0.0046473382972 0.010987883434 0.017691252753 -0.014708463103 
-0.014065933414 -0.015406338498 -0.015730293468 -0.015262072906 -0.014140225016 -0.012923670933 -0.012011779472 -0.012468841858 -0.011584853753 
-0.010750836693 -0.0098841218278 -0.0079598976299 -0.0061621665955 -0.0054525784217 -0.0054895081557 -0.0061320359819 -0.006723290775 -0.0068322857842 
-0.0061567039229 -0.0041542910039 -0.00021825984004 0.0034001891036 0.0065105753019 0.011016477831 0.0097398040816 0.0090264016762 0.0057669272646 
0.0010246626334 -0.0019930342678 -0.0026784557849 -0.0025883428752 -0.0026066971477 -0.0025196380448 -0.0034198702779 -0.0051722163334 -0.0078302780166 
-0.010024666786 -0.01263510529 -0.013770535588 -0.013101561926 -0.010777599178 -0.0088114999235 -0.0078196087852 -0.0066040442325 -0.0065257013775 
-0.0061338199303 -0.0071758418344 -0.0083726067096 -0.0091064469889 -0.0093332482502 -0.010265077464 -0.011161231436 -0.012147680856 -0.013225313276 
-0.013711864129 -0.013649744913 -0.013173068874 0.010042480193 0.0085755642503 -0.029716797173 -0.025758618489 -0.031106928363 -0.029041487724 
-0.02349938266 -0.016571186483 -0.010128196329 -0.0042643006891 -0.00021641944477 0.002366324421 0.0045477258973 0.0061354418285 0.0068048117682 
0.0058221463114 0.0028515965678 -0.0010919397464 -0.0044753667898 -0.0061759720556 -0.0060258912854 -0.0045058359392 -0.0018287482671 -0.00031247970765 
0.001398537308 -0.0020939568058 -0.0035051275045 -0.0046023107134 -0.0057941060513 -0.0073878020048 -0.0093467887491 -0.011620056815 -0.01367304381 
-0.014971234836 -0.014857773669 -0.013369299471 -0.011496208608 -0.0048456210643 0.0022349867504 0.010478178039 0.017601970583 0.018076878041 
0.010233439505 0.001850696397 -0.00090902636293 0.011065253057 0.0080673396587 0.01108258497 0.0090728476644 0.0043202452362 -0.00020739843603 
-0.0022766897455 -0.0023334051948 -0.0017697425792 -0.0029665890615 -0.0021801716648 -0.0042230528779 -0.0062593738548 -0.0091030495241 -0.01251485385 
-0.014729259536 -0.013322995044 -0.010574996471 -0.010908978991 -0.010920792818 -0.0092513542622 -0.0075404308736 -0.0058534299023 -0.0070607960224 
-0.0088645657524 -0.010374963284 -0.011264405213 -0.012144220993 -0.012950143777 -0.013810472563 -0.014899016358 -0.015667261556 -0.016007814556 
-0.016088752076 -0.016959832981 -0.018024278805 -0.018826466054 -0.018951097503 -0.018562078476 -0.017372855917 -0.016124542803 -0.01526723709 
-0.014249960892 -0.013064549305 -0.011766467243 -0.010725851171 -0.0090329200029 -0.0072564738803 -0.0062924269587 -0.006383553613 -0.0072223348543 
-0.0080021880567 -0.0079456539825 -0.0064791752957 -0.0034698874224 0.00068971415749 0.0032063925173 0.0050030075945 0.0050826966763 0.0028048676904 
0.0059177274816 -0.00093442673096 -0.0018950391095 -0.0015528459335 0.00016063805379 -0.0013732161606 -0.00044590301695 -0.0018482862506 -0.003500493709 
-0.0050345375203 -0.0062909200788 -0.0073981680907 -0.0089219082147 -0.011062349193 -0.013562871143 -0.016482049599 -0.018516635522 -0.019132087007 
-0.018525609747 -0.017887860537 -0.00070287258131 -0.0080177010968 0.0073750857264 0.013597151265 0.013787597418 0.0067981430329 -0.034300621599 
-0.031175078824 -0.03489023447 -0.032599713653 -0.026955470443 -0.019177760929 -0.011501954868 -0.0053123659454 -0.00072946678847 0.0020707834046 
0.004647555761 0.0067989812233 0.0068111233413 0.0041075642221 -0.0010187396547 -0.0067962124012 -0.011386515573 -0.014002779499 -0.013799481094 
-0.012163483538 -0.0098087163642 -0.0072239246219 -0.0062234816141 -0.0025679953396 -0.0058026090264 -0.0014110638294 -0.022481016815 -0.026857156307 
-0.020417297259 -0.024065673351 -0.014035350643 -0.018304910511 0.0066103986464 0.0041589415632 0.00066752411658 -0.0017606634647 -0.0022726573516 
-0.0020014580805 -0.001773558557 -0.0017338575562 -0.0020556033123 -0.0018824579893 -0.002558052307 -0.0035668872297 -0.0047622639686 -0.0065169697627 
-0.0090351328254 -0.012022506446 -0.013158492744 -0.011489757337 -0.010682924651 -0.012671285309 -0.014141064137 -0.012585375458 -0.0097729759291 
-0.0067221075296 -0.0068313055672 -0.0081313289702 -0.0099692465737 -0.011146791279 -0.012149337679 -0.013099401258 -0.013967246749 -0.014921125025 
-0.01592333056 -0.017037019134 -0.017968839034 -0.019025657326 -0.020052703097 -0.020783534274 -0.020786873996 -0.020143406466 -0.019309801981 
-0.018485285342 -0.017664438114 -0.01616550982 -0.014555281028 -0.012684410438 -0.011052262969 -0.0093572335318 -0.007990906015 -0.0069413240999 
-0.0066091874614 -0.0082278884947 -0.0077676000074 -0.0078458469361 -0.0059669613838 -0.00268645701 0.00075275782729 0.0025323515292 0.0025352791417 
0.00094745960087 -0.0020773792639 -0.005977738183 -0.0065116751939 -0.010222159326 -0.0022481479682 0.00011726649973 -2.3349110052e-05 -0.0011072653579 
-0.0022603368852 -0.0025070791598 -0.0059353732504 -0.0022865426727 -0.0098716327921 -0.013520659879 -0.013994770125 -0.016536386684 -0.011525787413 
-0.0088331736624 -0.0065285442397 -0.0052904421464 -0.0039206026122 -0.0033796711359 -0.002975980984 -0.0070371543989 -0.0064942263998 -0.0018571511609 
-0.0031749722548 -0.0048678619787 -0.0065527199768 -0.0079480223358 -0.0091429827735 -0.0105278017 -0.012417557649 -0.015063462779 -0.018551807851 
-0.021473191679 -0.022729238495 -0.02246340178 -0.021604586393 -0.021230800077 -0.019114445895 -0.021495856345 -0.015770427883 -0.010818411596 
-0.0038049628492 0.0033172448166 0.0077713173814 0.007160723675 0.0019633995835 -0.0036708333064 -0.0061081401072 -0.013124479912 -0.013878084719 
-0.020087366924 -0.02489997074 -0.028885221109 -0.03298240155 -0.03599371016 -0.03649744764 -0.034252293408 -0.029234623536 -0.021674556658 
-0.013522049412 -0.0069053312764 -0.0025809132494 0.00014010081941 0.0016446564114 0.0050934813917 0.0064426069148 0.00023044749105 -0.0068560647778 
-0.013961789198 -0.019047202542 -0.021928906441 -0.021240441129 -0.019610542804 -0.017298940569 -0.014500522986 -0.012932498008 -0.010653831065 
-0.0059054847807 -0.0081253899261 -0.0036158196162 -0.0025055676233 0.0047026979737 0.0017508441815 -0.0027889867779 -0.0024057198316 -0.0028037333395 
-0.0034717249218 -0.0024492347147 -0.0026608703192 -0.0035402604844 -0.0046924906783 -0.0059128352441 -0.0074682547711 -0.0092886220664 -0.011046661995 
-0.010992562398 -0.0097384816036 -0.011351240799 -0.015578756109 -0.017727950588 -0.016011454165 -0.012058475055 -0.007668659091 -0.0069430815056 
-0.0071304105222 -0.0085288891569 -0.0096923802048 -0.010961789638 -0.012138793245 -0.013148289174 -0.014186533168 -0.01534010563 -0.016554843634 
-0.020430969074 -0.019382592291 -0.021308787167 -0.022074945271 -0.022426091135 -0.022583423182 -0.022306388244 -0.021190548316 -0.019605457783 
-0.017954580486 -0.015986140817 -0.01365948841 -0.011242914945 -0.0093530369923 -0.0080778012052 -0.0071332654916 -0.0067153922282 -0.0064304638654 
-0.0061249136925 -0.0058400328271 -0.0067459749989 -0.0074961101636 -0.0078837713227 -0.0073731178418 -0.0056435186416 -0.002849121578 0.00033927781624 
-0.018504699692 -0.017601177096 -0.003529334208 -0.0042905420996 -0.0044044167735 -0.0048426683061 -0.0038179587573 -0.0034663318656 -0.0034404578619 
-0.0043321321718 -0.0055520520546 -0.0066421250813 -0.0079723279923 -0.0091522587463 -0.0098599866033 -0.009985787794 -0.010647292249 -0.014215745032 
-0.020635472611 -0.021494518965 -0.019673157483 -0.014521610923 -0.0090529564768 -0.0070063169114 -0.0062598315999 -0.0071185035631 -0.0082221692428 
-0.00950403139 -0.010845683515 -0.012127811089 -0.013380895369 -0.014707858674 -0.015887666494 -0.016826493666 -0.018517689779 -0.017605869099 
-0.019235331565 -0.020133582875 -0.021106857806 -0.022066660225 -0.023218268529 -0.024354159832 -0.025315683335 -0.025152292103 -0.023796036839 
-0.021666424349 -0.019496547058 -0.01665381901 -0.013834724203 -0.011007274501 -0.0088545652106 -0.0076108388603 -0.0067844460718 -0.006205025129 
-0.00505334232 -0.0056164325215 -0.0053985053673 -0.0062650684267 -0.0069058444351 -0.0069659845904 -0.0068029495887 -0.0061595430598 -0.0058445138857 
-0.0028126488905 -0.0039569465443 -0.0056885033846 -0.0074538779445 -0.0089564463124 -0.01020402927 -0.011519830674 -0.013034651987 -0.015515614301 
-0.019445443526 -0.023248249665 -0.025231782347 -0.025087945163 -0.023940298706 -0.022951265797 -0.023768663406 -0.02205869928 -0.024846471846 
-0.019630555063 -0.016578108072 -0.012749079615 -0.0072065205313 -0.0017234385014 0.0011182728922 0.00039720418863 -0.0035834216978 -0.0086282473058 
-0.014442464337 -0.01941832155 -0.024149484932 -0.028474222869 -0.032806646079 -0.036161143333 -0.037087380886 -0.035521768034 -0.031325589865 
-0.024635847658 -0.016454875469 -0.0092887468636 -0.0048790308647 -0.0022445246577 -0.00094102398725 -0.00074891844997 0.00094955106033 -0.0012864968739 
0.0031594897155 0.0038007032126 0.0011435033521 -0.0054644816555 -0.013026228175 -0.019489519298 -0.023685825989 -0.025933861732 -0.02515020594 
-0.023452986032 -0.021549077705 -0.019629275426 -0.017343631014 -0.014276172966 -0.010184854269 -0.0062650772743 -0.0071273716167 -0.0056212279014 
-0.004054795485 -0.0030410687905 -0.0045959493145 -0.0058088414371 -0.0067118462175 -0.0078387316316 -0.0087757706642 -0.0092832436785 -0.0099380984902 
-0.011822142638 -0.016390409321 -0.022732594982 -0.023432208225 -0.026106089354 -0.017828943208 -0.012197447009 -0.0084566548467 -0.0064347577281 
-0.006847019773 -0.0077515663579 -0.0088430019096 -0.010143673979 -0.011428857222 -0.012796730734 -0.013957766816 -0.015134037472 -0.015791306272 
-0.016267053783 -0.018120272085 -0.016923997551 -0.018883384764 -0.019601583481 -0.020548392087 -0.021428881213 -0.022698683664 -0.024179305881 
-0.025822408497 -0.027350688353 -0.027633657679 -0.026563066989 -0.024550536647 -0.022093879059 -0.013061499223 -0.015821531415 -0.010420463048 
-0.0083445785567 -0.0070671136491 -0.026988273486 -0.028698630631 -0.006667573005 -0.0050331610255 -0.0061954273842 -0.0041604135185 -0.0043594799936 
-0.0059624933638 -0.0032306564972 -0.0042821499519 -0.0059855985455 -0.0076720351353 -0.0090949041769 -0.010251710191 -0.011457044631 -0.012658442371 
-0.014932822436 -0.019314887002 -0.024081191048 -0.026811799034 -0.027244227007 -0.025878032669 -0.028168477118 -0.024581085891 -0.026361245662 
-0.022507457063 -0.02018645592 -0.017359871417 -0.014224614948 -0.010428413749 -0.0070055960678 -0.0051274965517 -0.0055552180856 -0.0082346526906 
-0.010418991558 -0.013965803199 -0.01769172214 -0.021879119799 -0.026425717399 -0.031013984233 -0.034709088504 -0.036470830441 -0.035546910018 
-0.031659591943 -0.025612685829 -0.018395947292 -0.011490732431 -0.0070130629465 -0.0044642332941 -0.0030036277603 -0.0026633222587 -0.0030911802314 
-0.0024570301175 -0.0038654434029 -0.00069773534779 0.00061802717391 -0.00040642428212 -0.0043760137632 -0.011524943635 -0.018186878413 -0.021986687556 
-0.023780241609 -0.024187745526 -0.024485293776 -0.024226179346 -0.022700535133 -0.021594855934 -0.018744692206 -0.014769694768 -0.010780476034 
-0.0075436257757 -0.0045338887721 -0.0054614208639 -0.0041905976832 -0.0098775839433 -0.013637651689 -0.017115008086 -0.020776784047 -0.020395573229 
-0.017334518954 -0.015730768442 -0.013221569359 -0.011475618929 -0.0091859288514 -0.0060479743406 -0.0044649075717 -0.0050358795561 -0.0052973162383 
-0.005103086587 -0.0046874131076 -0.0051894886419 -0.0048921946436 -0.0043458533473 -0.0032379147597 -0.005936073605 -0.0074286418967 -0.0086614247411 
-0.0095862764865 -0.010703081265 -0.011837584898 -0.013881699182 -0.018470576033 -0.025411903858 -0.029105117545 -0.029840229079 -0.023510368541 
-0.024644251913 -0.026437412947 -0.023228868842 -0.022093914449 -0.020157987252 -0.018081635237 -0.015645733103 -0.013481455855 -0.010769734159 
-0.009241069667 -0.0091492440552 -0.0093453256413 -0.012244522572 -0.010759877972 -0.014531279914 -0.018334923312 -0.022871198133 -0.027907999232 
-0.032389890403 -0.034859530628 -0.034254040569 -0.029604488984 -0.018102202564 -0.023996820673 -0.012568072416 -0.0085906367749 -0.0061946753412 
-0.004717990756 -0.0041371588595 -0.004263529554 -0.004805997014 -0.010147998109 -0.010001688264 -0.018258811906 -0.019832609221 -0.006359659601 
-0.0071950219572 -0.0094792647287 -0.012975532562 -0.017004031688 -0.020166404545 -0.023091662675 -0.0057310410775 -0.0064313928597 -0.0074393586256 
-0.0083920005709 -0.0091707026586 -0.010404523462 -0.012839994393 -0.017337111756 -0.02276445739 -0.032241430134 -0.029917724431 -0.029513329268 
-0.026725005358 -0.021150516346 -0.01511453744 -0.010711831972 -0.008016038686 -0.0078310081735 -0.0083034094423 -0.009023014456 -0.0098852198571 
-0.010863089003 -0.011972066946 -0.013005528599 -0.014087086543 -0.014745548368 -0.01504740864 -0.015408718958 -0.018703715876 -0.017791150138 
-0.019528416917 -0.02024554275 -0.020744137466 -0.021587764844 -0.0066838376224 -0.0055229328573 -0.0039795772173 -0.0028664420824 -0.0018212810392 
-0.0039744162932 -0.008853925392 -0.014860977419 -0.018681081012 -0.020382056013 -0.021712856367 -0.028871569782 -0.030060028657 -0.029344640672 
-0.027122233063 -0.02414049767 -0.022185828537 -0.016696339473 -0.017314093187 -0.016598792747 -0.014550242573 -0.01205033157 -0.009854898788 
-0.0079817185178 -0.0076807872392 -0.0058863889426 -0.0071713244542 -0.0045365509577 -0.0034179692157 -0.015849966556 -0.014220488258 -0.009495517239 
-0.0053683202714 -0.032533988357 -0.029721792787 -0.024520745501 -0.01883873716 -0.01431132108 -0.010955872945 -0.0098122535273 -0.0096112312749 
-0.0096781533211 -0.0099468585104 -0.010526780039 -0.011433790438 -0.014154923148 -0.014222001657 -0.020827090368 -0.01959679462 -0.021517112851 
-0.0057791774161 -0.0066901766695 -0.007848023437 -0.0091920057312 -0.011316140182 -0.014114030637 -0.017182242125 -0.020266968757 -0.016166351736 
-0.012285223231 -0.0092204622924 -0.0072580231354 -0.0058911517262 -0.0051964437589 -0.004961210303 -0.013671978377 -0.011201454327 -0.0093393074349 
-0.018216339871 -0.017000986263 -0.016145547852 -0.01125350967 -0.012553711422 -0.010660922155 -0.010196289048 -0.010419369675 -0.013276102021 
-0.0081385746598 -0.0086788358167 -0.009817417711 -0.0053437328897 -0.011126484722 -0.011839827523 -0.012996383943 -0.011167011224 -0.0020686034113 
-0.013647042215 -0.0023105414584 -0.0029229247011 -0.0030427877791 -0.013272250071 -0.012253808789 -0.01411415264 
Disp_Z 1 1114 double
0 0 0.0008414562908 0.0011281794868 0.00026180857094 -0.0014913061168 0 -0.0024734872859 0 
0.00019483547658 0.0045388666913 0.0069598071277 0.0086855096743 0.011832786724 0 0.015868347138 0 0.01663264446 
0 0.017018349841 0 0.016037736088 0 0.014915700071 0 0.014754127711 0 
0.015569593757 0 0.015753410757 0 0.015175301582 0 0.014068674296 0 0.012935669161 
0 0.012410674244 0.0034106278326 0.010479761288 0 0.0085356766358 0 0.0054865619168 0 
0.001798545476 0 -0.0011433070758 0 -0.002313694451 0 -0.00013776037667 0 0.00041644374141 
0 -0.0033976796549 0 -0.0075728115626 0 -0.011018038727 0 -0.013455797918 0 
-0.015400310978 0 -0.017173910514 0 -0.019059043378 0 -0.020756948739 0 -0.021722165868 
0 -0.022589500993 0 -0.022179013118 0 -0.019697953016 0 -0.014402105473 0 
-0.0078731365502 0 -0.0022089758422 0 0 -0.023244092241 -0.019014803693 0 -0.026483975351 
0 -0.029259709641 0 -0.031213391572 0 -0.032638460398 0 -0.033044949174 0 
-0.032252129167 0 -0.030094793066 0 -0.026840418577 0 -0.023102099076 0 -0.020507063717 
0 -0.017737869173 0 -0.01540480461 0 -0.012268017046 0 -0.0092974184081 0 
-0.0051528294571 0 -0.0015085679479 0 -0.00015802768758 0 0.00027350126766 0 0.0017643807223 
0 0.0057781515643 0 0.011033619754 0 0.018653878942 0 0.032795000821 0 
0.029043240473 0 0.029693722725 0 0.030494377017 0 0.027722073719 0 0.023631567135 
0 0.020435370505 0 0.017048805952 0 0.013506380841 0 0.010234030895 0 
0.0089160837233 0 0.014928645454 0.0069521591067 0.018586756662 0.0084036281332 0.019994454458 0.0071586701088 0.019442168996 
0 0.019254909828 0 0.018741773441 0 0.018907917663 0 0.018655823544 0 
0.017014721408 0 0.014304861426 0 0.0094071263447 0 0.0039369557053 0 0.0010786652565 
0 0.00070056272671 0 0.00059526925907 0 -0.00066735508153 0 -0.0025912886485 0 
-0.0047009671107 0 -0.0069181318395 0 -0.0086906719953 0 -0.010541328229 0 -0.012133643031 
0 -0.015142130665 -0.00072122691199 0.0045940037817 -0.0044411993586 -0.00050606735749 0.0093988031149 0.018936499953 0.026072880253 
0.030439963564 0.031049285084 0.028138954192 0.024074731395 0.022457083687 0.022721275687 0.022309510037 0.020637996495 0.018632756546 
0.017075460404 0.016275426373 0.015320425853 0.013027028181 0.0088820653036 0.0028949670959 -0.0026738182642 -0.0029767516535 0.001259772107 
-1.2234228961e-05 -0.0054247686639 -0.011546251364 -0.017105638981 -0.021790938452 -0.025295522064 -0.029009021819 -0.03291875124 -0.036147933453 
-0.038268215954 -0.039095010608 -0.037489939481 -0.031902462244 -0.02215689607 -0.010287539102 5.8106892538e-05 0.0057676020078 -0.042813032866 
-0.03640127182 -0.047900822014 -0.052229695022 -0.055664993823 -0.057242255658 -0.055640257895 -0.050964590162 -0.044261731207 -0.036466415972 
-0.029698137194 -0.024706138298 -0.020464662462 -0.016531614587 -0.011809509248 -0.0060736527666 -0.0016272019129 -0.00059967220295 -0.00038213128573 
0.0010118575301 0.005236543715 0.012341822498 0.025432899594 0.043907739222 0.051091648638 0.045676425099 0.052121154964 0.046929333359 
0.038676254451 0.031501401216 0.025989981368 0.021316498518 0.017951155081 0.017692698166 0.023043505847 0.027312472463 0.029579140246 
0.030250540003 0.029904890805 0.02955920808 0.030906425789 0.032130144536 0.029400419444 0.022038582712 0.011774951592 0.0024429194164 
-0.0024755687919 -0.0024991231039 -0.0014547758037 -0.0018991476391 -0.0039735687897 -0.0064507448114 -0.0088602257892 -0.010802296922 -0.012988986447 
-0.01591527462 -0.021685080603 -0.028951272368 0.05426312983 0.062552310526 0.015220702626 0.0061470149085 0.026283396408 0.036052126437 
0.041129596531 0.040985051543 0.036375328898 0.029720317572 0.025995699689 0.025226633996 0.024145742878 0.021813502535 0.019486645237 
0.018008900806 0.018074031919 0.018264988437 0.016392180696 0.011657509953 0.0046595712192 -0.0022311389912 -0.0047374828719 -0.0023237138521 
0.00073908478953 -0.0084671843797 -0.015385979787 -0.021931087598 -0.027712181211 -0.032650560141 -0.037615142763 -0.042974792421 -0.047835770994 
-0.050993721932 -0.051720030606 -0.049216661602 -0.041391067207 -0.024750117213 -0.0083086388186 0.0048829694279 0.012188417837 0.010035991669 
0.0031852482352 -6.8084264058e-05 -0.0029396042228 0.067509785295 0.078312292695 0.072145819664 0.06464343518 0.051545742899 0.039025131613 
0.030674094334 0.025433380157 0.022765424103 0.029217464849 0.024409851059 0.033484395593 0.036176227033 0.037206109613 0.036550182849 
0.037103492767 0.040912985802 0.043438866735 0.03965625912 0.029507588595 0.015301015228 0.0021375427023 -0.005831815768 -0.0055554816499 
-0.0031647651922 -0.0021466652397 -0.0036607806105 -0.005514443852 -0.0073395073414 -0.0092473411933 -0.011629790068 -0.014987899922 -0.02319954522 
-0.034062404186 -0.044150505215 -0.053059332073 -0.060864631087 -0.067951723933 -0.074074238539 -0.076789759099 -0.074417062104 -0.067148059607 
-0.056652598083 -0.044984158128 -0.034344725311 -0.026789357886 -0.021535631269 -0.017331337556 -0.012035602704 -0.0052534071729 -0.00097575207474 
-0.00094331696164 -0.0013574732002 -0.0010481236968 0.003731624689 0.011908842251 0.02618646808 0.04355372861 0.061697404832 0.078640781343 
0.088521316648 0.089748740196 0.021881008521 0.023099578917 0.00030923841405 -0.0007984896074 -0.00093102228129 -0.004965424072 -0.010937406681 
-0.017751084641 -0.024463757873 -0.030930098146 -0.036768771708 -0.042712364346 -0.049524411559 -0.055594284087 -0.05994123593 -0.061054989696 
-0.058596506715 -0.053403109312 -0.0040776152164 -0.0208204519 0.0095922211185 0.015483047813 0.013130461797 0.0058392458595 0.02217027545 
0.012655048631 0.033660024405 0.04353236407 0.048505213112 0.047243271023 0.041027545929 0.033127281815 0.027520935982 0.025210343301 
0.022722322494 0.02026742883 0.018242187798 0.017974924296 0.019871883094 0.021700406447 0.020633019507 0.015966562554 0.0090309958905 
0.0012891863007 -0.0042251977138 -0.0052918577567 -0.0038893942256 -0.00023110749316 -0.0021027796902 -6.7924767791e-05 0.001283456455 0.0070064328611 
-0.00038591853809 0.0028466924559 -0.036014728248 -0.048196099699 0.077642172575 0.061028815806 0.045407731086 0.034281559289 0.02810228616 
0.025363339111 0.024890016764 0.025093881413 0.025564739481 0.025816440582 0.028944425285 0.033494647592 0.037695098668 0.040806483477 
0.042161922902 0.042046334594 0.044287264347 0.050177644938 0.052639089525 0.047416016459 0.035371124744 0.018966581672 0.0033805486746 
-0.0067299883813 -0.0071709435433 -0.0049187475815 -0.0025934104342 -0.0030102019664 -0.0040131914429 -0.0050533390604 -0.0065490179695 -0.0086632510647 
-0.01202429086 -0.021601140499 -0.036307476461 -0.047920681536 -0.05813954398 -0.068004243076 -0.077812314034 -0.086073487997 -0.089529454708 
-0.086226120591 -0.076687276363 -0.063004285097 -0.048443149775 -0.035649482161 -0.02652409859 -0.020428720862 -0.016684025526 -0.011806964874 
-0.0074358689599 -0.0013333545066 -0.00041284377221 -0.0023722941987 -0.0021452319343 0.0036462724674 0.01326719299 0.024158123881 0.035218007863 
0.051752969623 0.068748556077 0.081240348518 0.092663764954 0.086312688887 0.091072455049 0.080881141126 0.065052442253 0.047863241285 
0.035792842507 0.029454411939 0.050948724151 0.032629322261 0.065325081348 0.072972044349 0.084276989102 0.073587648571 0.0885482952 
0.086133413017 0.076391786337 0.062279820442 0.045568205416 0.034482523799 0.02863608487 -0.0014558004914 -0.0037882199977 -0.0017773431027 
-0.005870340392 -0.011412532069 -0.018029062077 -0.025072300807 -0.031870726496 -0.038640715182 -0.045788362622 -0.053453218192 -0.060715831816 
-0.066616259515 -0.068832188845 -0.066684536636 -0.061821594834 -0.056998051703 -0.043546866626 -0.053895607591 -0.03068010509 -0.015822926536 
-0.00099460198544 0.011312047951 0.015423401259 0.013357292861 0.0067773559131 -0.0012753652409 -0.00028516404564 -0.0022804278415 -0.0032608197071 
-0.0019589327276 0.0018969671801 0.0086590293795 0.017508596182 0.027910511941 0.039387810975 0.04883447662 0.053464006633 0.051671799272 
0.044653669 0.035877093673 0.029492752627 0.025650097057 0.022660659626 0.017140625045 0.017511993647 0.019461125135 0.02440350689 
0.028463931754 0.028531137854 0.024241598323 0.01709687151 0.0086617413908 0.0017291342374 -0.0026177370455 -0.0047912802547 -0.0040023131296 
-0.0014691010583 -0.0024140905589 -0.00038369485992 -0.00017860876687 0.018841482699 0.019958956167 0.026138622314 0.026390071958 0.026662247255 
0.026073902845 0.027240326628 0.028425522149 0.031342726201 0.035811860114 0.040031012148 0.043706811965 0.045775618404 0.047358579934 
0.051807835698 0.059096395969 0.060948397964 0.053763099015 0.039668865502 0.02163415961 0.0041130958125 -0.0076281540096 -0.0079872589558 
-0.0065104113892 -0.0035696986597 -0.0032071266323 -0.0030290384311 -0.0031275320798 -0.0038838207256 -0.0054548266344 -0.0077472524717 -0.012685442343 
-0.050014205277 -0.038888193667 -0.060610938817 -0.071714214981 -0.083127751946 -0.092500470579 -0.096146345139 -0.091992586851 -0.080586232245 
-0.063949108124 -0.046930391341 -0.034432519227 -0.025290274993 -0.019200740382 -0.015272163786 -0.011133170687 -0.0083781341091 -0.0063928356394 
-0.0011980038835 -0.0039923032746 -6.7913853854e-05 -0.00027546359343 -0.0017152354121 -0.0033583214972 -0.0024500025902 0.0063772946596 0.020027814433 
-0.027758004144 -0.018104910851 0.027195595205 0.025589248165 0.026231195778 0.024374576285 0.027820436284 0.028981858864 0.029833566397 
0.032088872045 0.035978991538 0.040154889226 0.0443806611 0.047713402659 0.0516763255 0.057075172663 0.064839303493 0.067309774458 
0.060116000473 0.04213431105 0.023215308785 0.0045331330039 -0.0081703783944 -0.0099138766527 -0.0085391579196 -0.0054326453246 -0.00417379383 
-0.0031395715196 -0.0022420829628 -0.0020464675035 -0.0027291984297 -0.0041382666677 -0.0071789566427 -0.011124055833 -0.022927604616 -0.015115564689 
-0.03169510141 -0.041446723044 -0.051616515964 -0.062094312161 -0.073213517666 -0.084595769644 -0.093948580325 -0.098026007414 -0.09460747242 
-0.082757428288 -0.06178804487 -0.042663883418 -0.031856063753 -0.024006135762 -0.017961276695 -0.013793716207 -0.0095393201336 -0.0081740170717 
-0.0018496245611 -0.0066239386797 0.00063856341876 0.00078778230818 -6.6532054916e-05 -0.0017588608898 -0.0037785570603 -0.0027059081476 0.010933659971 
-0.0018204500666 -0.0053063002415 -0.010644766502 -0.017113199458 -0.024253875017 -0.031156446785 -0.03842035681 -0.046217225492 -0.054161347449 
-0.063065893948 -0.071266658604 -0.075111880898 -0.073505021632 -0.068225644529 -0.062960714102 -0.062819182873 -0.050389915705 -0.061186283827 
-0.039331045002 -0.026645192876 -0.012684019282 0.00087097316282 0.011214461178 0.014447591268 0.012298244983 0.0057313991711 -0.0011005478445 
-0.0051761274226 -0.0042620408349 0.00029588348116 0.0085621941835 0.018929662183 0.030827933922 0.043041478842 0.052710786462 0.057731814682 
0.056514885277 0.049662288278 0.040162783116 0.03278131783 0.0278148707 0.024143183604 0.021485500038 0.017620690167 0.019603686407 
0.016215588897 0.015957484022 0.018338125199 0.024538185447 0.033267896622 0.039736162871 0.041098061949 0.037675131112 0.028653960675 
0.019166933373 0.012146988884 0.0059104957618 0.00082017440582 -0.0022114249878 -0.0026706033386 -0.0018457853002 -0.0025648637675 -0.0015505048214 
-0.00037535827141 0.0003738628875 0.031011773273 0.034443341196 0.038454353809 0.043084118515 0.047643508762 0.05368758738 0.060220275074 
0.0685300529 0.071224465966 0.069029726088 0.02312964201 0.039997603744 0.0056070266291 -0.0055975303985 -0.010118386708 -0.010794405825 
-0.0072766854428 -0.0051999059506 -0.0035415380262 -0.0018656789325 -0.00084696669364 -0.00078001251677 -0.0015245034592 -0.0033964116592 -0.0063308109529 
-0.0093414997682 -0.019465398043 -0.012495576404 -0.027181098238 -0.035328906029 -0.043437816203 -0.052318632603 -0.062514744699 -0.072780184448 
-0.082525022328 -0.091538161039 -0.096713244915 -0.094894148409 -0.085276924074 -0.070834346116 -0.030146526173 -0.038882493973 -0.023464271799 
-0.01759651117 -0.012909145094 0.053826611489 0.062312725931 -0.012220866047 -0.0050747431815 -0.010828800499 -0.00019896008598 0.001238912344 
-0.00087166728918 -0.0010312964441 -0.0041867317632 -0.0095533290878 -0.016065971926 -0.022952698171 -0.029500484467 -0.036533795297 -0.044238779694 
-0.052240308374 -0.062417596579 -0.073824897408 -0.080322518945 -0.078919321299 -0.07176823169 -0.075319468975 -0.056869123131 -0.068227879703 
-0.046283856034 -0.03507488966 -0.023349829018 -0.010897430591 0.00073451350909 0.0097871441394 0.012316130102 0.010315462947 0.0034885730129 
-0.0033733271994 -0.0075469147414 -0.0075974049978 -0.0034337684046 0.0053539522924 0.016879722476 0.030602302402 0.04410513863 0.054870035499 
0.060887396336 0.060602426529 0.05480767414 0.045984074473 0.037509743124 0.031712532043 0.027258560061 0.023980878294 0.022079089656 
0.018556198105 0.021233933046 0.016552232206 0.015815550461 0.016968861222 0.022769663483 0.034072645009 0.046292986721 0.053030472249 
0.054538890719 0.054197926074 0.03885165602 0.02771509625 0.025079244748 0.018626749516 0.011413191445 0.0045460835099 -0.00064292771276 
-0.0028393692337 -0.0011358604534 -0.0021958746947 -0.00049756211229 0.029839674011 0.045430481434 0.055252276361 0.058147821575 0.069189928472 
0.076288826764 0.07807546854 0.075629480183 0.066396683455 0.051941748708 0.038493283093 0.030456580222 0.026138246059 0.0228747949 
0.023939343169 0.021250952035 0.026741111651 0.029189653695 -0.0033310493454 -4.0557013563e-05 -0.0091378390789 -0.015566231683 -0.021617811173 
-0.027052512392 -0.033447604626 -0.040580730885 -0.047810625285 -0.058244068176 -0.074720725417 -0.085324712098 -0.084810338914 -0.061285737902 
-0.070742927492 -0.077571585774 -0.051619485021 -0.041789736599 -0.031517077237 -0.021009005606 -0.010705824941 -0.0016897643218 0.0067658224143 
0.0089753046632 0.0080039044842 0.0049857841805 -0.0095507586375 -0.0058261016384 -0.010621294379 -0.0073002465069 0.0012861228315 0.012919873931 
0.02782487683 0.042438730597 0.055484298617 0.06560331583 0.059249732643 0.06486145407 0.051147896796 0.04249868542 0.036350283772 
0.031112218276 0.027262914926 0.025016434491 0.0243231114 -0.0018505436601 0.0016551699955 -0.048464853317 -0.056638486683 -0.0035183203872 
-0.002623729175 0.0038029595744 0.015039398335 0.026530599222 0.036063410342 0.040349982679 0.031548600644 0.03596848622 0.041164837778 
0.046606764197 0.053241558373 0.06041303277 0.068063557148 0.070989049971 0.070679917932 0.052446871996 0.048116710037 0.037771381438 
0.022563099861 0.0059469928965 -0.0060618831776 -0.011617006734 -0.013010608032 -0.0090425657108 -0.006114336662 -0.0034797599073 -0.0011637710268 
0.00034092739224 0.00078498054063 0.00035362050403 -0.00080198887736 -0.0031209059525 -0.004673469346 -0.0064367959276 -0.023593753576 -0.016070816666 
-0.031563017517 -0.039094250649 -0.044550053775 -0.051034677774 0.028857506812 0.021808603778 0.018893782049 0.017514169216 0.017161607742 
0.019979551435 0.029824482277 0.045157015324 0.061910361052 0.06543109566 0.063840538263 -0.085580833256 -0.091795325279 -0.091223798692 
-0.083135224879 -0.07361408323 -0.06363466382 -0.045349106193 -0.050949901342 -0.043351288885 -0.037178244442 -0.030208949 -0.024193674326 
-0.018002182245 -0.018684972078 -0.0095885796472 -0.015865076333 -0.0037120671477 0.00030971856904 0.064811311662 0.054717242718 0.035864334553 
0.02811553888 0.039597321302 0.024365507066 0.0087353801355 -0.003301656805 -0.010783812962 -0.013352288865 -0.010325544514 -0.0066336970776 
-0.0032594266813 -0.00015001141583 0.00167299842 0.0022358051501 -0.00081470631994 -0.00079534784891 -0.03687845543 -0.02786189504 -0.045008193702 
0.033051136881 0.038335062563 0.044272173196 0.051328517497 0.05859651044 0.065325170755 0.06934466958 0.068123526871 0.062989920378 
0.05562883988 0.047572590411 0.040716733783 0.035057298839 0.030709899962 0.027864828706 -0.03854207322 -0.032086707652 -0.025960113853 
-0.01926798746 -0.01256212499 -0.0090148197487 0.0060036275536 0.0042201755568 0.0059934346937 0.0049408478662 0.0032623868901 -0.042548652738 
-0.020462581888 -0.023892115802 -0.029806634411 0.021109083667 -0.036067012697 0.0036899319384 0.0022682475392 0.0039654076099 -0.003488040762 
-0.0031259448733 0.026892064139 0.0010779252043 0.0012678827625 0.0009127445519 0.0019288796466 -0.00055127730593 
Disp_FEB 3 1114 double
0 0 0 0 0 0 0.0020202037413 0.012854336761 0.0008414562908 
-0.00091734336456 0.01199019514 0.0011281794868 0.0033217677847 0.012584711425 0.00026180857094 0.0013460373739 0.0083953188732 -0.0014913061168 
0 0 0 -0.0062032323331 0.001767628477 -0.0024734872859 0 0 0 
-0.01826682128 -0.0075516169891 0.00019483547658 -0.0085598994046 -0.0082716466859 0.0045388666913 -0.028137296438 -0.010787005536 0.0069598071277 
-0.0061589451507 -0.0090826712549 0.0086855096743 -0.029949324206 -0.013191435486 0.011832786724 0 0 0 
-0.025993863121 -0.011964437552 0.015868347138 0 0 0 -0.021042689681 -0.0093937749043 0.01663264446 
0 0 0 -0.016081074253 -0.0075332135893 0.017018349841 0 0 0 
-0.011807696894 -0.0046647605486 0.016037736088 0 0 0 -0.0095827495679 -0.0026885175612 0.014915700071 
0 0 0 -0.008367523551 -0.0014741745545 0.014754127711 0 0 0 
-0.0067623578943 -0.00055732514011 0.015569593757 0 0 0 -0.0047150612809 0.00093788740924 0.015753410757 
0 0 0 -0.0027935728431 0.0024310436565 0.015175301582 0 0 0 
-0.0012437105179 0.003467890434 0.014068674296 0 0 0 -5.0298782298e-05 0.0037403556053 0.012935669161 
0 0 0 0.00088758766651 0.0041728229262 0.012410674244 0.00018690664729 0.0044105355628 0.0034106278326 
0.0025963727385 0.0038825201336 0.010479761288 0 0 0 0.0042070848867 0.0022902525961 0.0085356766358 
0 0 0 0.0051017673686 0.0016861887416 0.0054865619168 0 0 0 
0.0052276086062 0.0020669798832 0.001798545476 0 0 0 0.0039534713142 0.0032524571288 -0.0011433070758 
0 0 0 0.0025586260017 0.004235076718 -0.002313694451 0 0 0 
0.0030124764889 0.0031005756464 -0.00013776037667 0 0 0 0.0075976992957 0.0013829651289 0.00041644374141 
0 0 0 0.012165636756 -0.00020629372739 -0.0033976796549 0 0 0 
0.014554754831 -0.0014106379822 -0.0075728115626 0 0 0 0.015388975851 -0.0023575732484 -0.011018038727 
0 0 0 0.015162091702 -0.0031230608001 -0.013455797918 0 0 0 
0.014741705731 -0.0040993643925 -0.015400310978 0 0 0 0.014103892259 -0.0047864308581 -0.017173910514 
0 0 0 0.01312718913 -0.005851267837 -0.019059043378 0 0 0 
0.011754300445 -0.005976238288 -0.020756948739 0 0 0 0.0100306971 -0.0066085481085 -0.021722165868 
0 0 0 0.0082143479958 -0.0064467391931 -0.022589500993 0 0 0 
0.0055030197836 -0.0052970848046 -0.022179013118 0 0 0 0.0018183471402 -0.0039608580992 -0.019697953016 
0 0 0 -0.0017211791128 -0.00079821358668 -0.014402105473 0 0 0 
-0.0035142530687 0.0034379877616 -0.0078731365502 0 0 0 -0.0030983337201 0.0080561600626 -0.0022089758422 
0 0 0 0 0 0 -0.002143131569 -0.0099077671766 -0.023244092241 
-0.0046743159182 -0.0082598151639 -0.019014803693 0 0 0 0.00092816445976 -0.0098363421857 -0.026483975351 
0 0 0 0.0038825494703 -0.010610771365 -0.029259709641 0 0 0 
0.0060397866182 -0.0099163195118 -0.031213391572 0 0 0 0.0082779545337 -0.0081957317889 -0.032638460398 
0 0 0 0.010968830436 -0.0079123992473 -0.033044949174 0 0 0 
0.01363058202 -0.0071562421508 -0.032252129167 0 0 0 0.015927940607 -0.0066212350503 -0.030094793066 
0 0 0 0.017546815798 -0.0073353894986 -0.026840418577 0 0 0 
0.018032940105 -0.0070569897071 -0.023102099076 0 0 0 0.017173781991 -0.0083832293749 -0.020507063717 
0 0 0 0.015702726319 -0.0070845652372 -0.017737869173 0 0 0 
0.014740621671 -0.0059880376793 -0.01540480461 0 0 0 0.014193350449 -0.0042645847425 -0.012268017046 
0 0 0 0.01415193174 -0.0044933725148 -0.0092974184081 0 0 0 
0.012881489471 -0.0044142915867 -0.0051528294571 0 0 0 0.0099677359685 -0.0045796115883 -0.0015085679479 
0 0 0 0.0074369297363 -0.0047203130089 -0.00015802768758 0 0 0 
0.0079703647643 -0.0047058933415 0.00027350126766 0 0 0 0.011571465991 -0.0041121821851 0.0017643807223 
0 0 0 0.016915796325 -0.0036631484982 0.0057781515643 0 0 0 
0.022521328181 -0.0017460847739 0.011033619754 0 0 0 0.028912309557 0.0016486479435 0.018653878942 
0 0 0 0.035583417863 0.0068122651428 0.032795000821 0 0 0 
0.022898076102 0.0066118407995 0.029043240473 0 0 0 0.017726451159 0.0076099545695 0.029693722725 
0 0 0 0.013334782794 0.0049825971946 0.030494377017 0 0 0 
0.0094414707273 0.0015370473266 0.027722073719 0 0 0 0.0068833632395 -0.0013487951364 0.023631567135 
0 0 0 0.0041454220191 -0.0025641242974 0.020435370505 0 0 0 
0.00061549915699 -0.0026565401349 0.017048805952 0 0 0 -0.0028525157832 -0.0028964164667 0.013506380841 
0 0 0 -0.0055089066736 -0.0038683663588 0.010234030895 0 0 0 
-0.0027818982489 -0.0026306204963 0.0089160837233 0 0 0 -0.0041170874611 -0.0041615385562 0.014928645454 
-0.0086820274591 -0.011915352196 0.0069521591067 -0.010885718279 -0.0074443640187 0.018586756662 -0.012280067429 -0.013945659623 0.0084036281332 
-0.018063563854 -0.010871942155 0.019994454458 -0.011300926097 -0.014305402525 0.0071586701088 -0.022662892938 -0.011395118199 0.019442168996 
0 0 0 -0.02651713416 -0.010495011695 0.019254909828 0 0 0 
-0.027438675985 -0.0095054870471 0.018741773441 0 0 0 -0.029070837423 -0.0095815528184 0.018907917663 
0 0 0 -0.031419835985 -0.0084481555969 0.018655823544 0 0 0 
-0.034027691931 -0.0070611312985 0.017014721408 0 0 0 -0.034805193543 -0.0053520263173 0.014304861426 
0 0 0 -0.03106369637 -0.0049709146842 0.0094071263447 0 0 0 
-0.02570091933 -0.0046790512279 0.0039369557053 0 0 0 -0.01978068985 -0.0047906418331 0.0010786652565 
0 0 0 -0.01550014969 -0.0056580668315 0.00070056272671 0 0 0 
-0.013208982535 -0.0058447476476 0.00059526925907 0 0 0 -0.012227228843 -0.0060193864629 -0.00066735508153 
0 0 0 -0.010897928849 -0.0053110634908 -0.0025912886485 0 0 0 
-0.0099334241822 -0.0063213878311 -0.0047009671107 0 0 0 -0.0083628036082 -0.0069580650888 -0.0069181318395 
0 0 0 -0.006865857169 -0.0078117744997 -0.0086906719953 0 0 0 
-0.0053719179705 -0.0087326690555 -0.010541328229 0 0 0 -0.0050833793357 -0.0088643906638 -0.012133643031 
0 0 0 -0.0053241350688 -0.0090622501448 -0.015142130665 0.0034414648544 0.011271802709 -0.00072122691199 
0.0046620680951 0.018584122881 0.0045940037817 -0.0077067553066 -0.00052240357036 -0.0044411993586 -0.030114902183 -0.014261209406 -0.00050606735749 
-0.045983139426 -0.020919417962 0.0093988031149 -0.050640087575 -0.023280316964 0.018936499953 -0.047646142542 -0.02177682519 0.026072880253 
-0.039530251175 -0.01817423664 0.030439963564 -0.028814723715 -0.013346704654 0.031049285084 -0.019290115684 -0.0082407686859 0.028138954192 
-0.014647892676 -0.0035980804823 0.024074731395 -0.013067287393 -0.00070945499465 0.022457083687 -0.010345566086 0.0012620524503 0.022721275687 
-0.0066111744381 0.0031150842551 0.022309510037 -0.0035037952475 0.004808370024 0.020637996495 -0.0011894375784 0.0057728728279 0.018632756546 
0.0001448696712 0.0057277139276 0.017075460404 0.0014498998644 0.0045172362588 0.016275426373 0.0037182639353 0.0021914571989 0.015320425853 
0.0065487418324 0.00011639589502 0.013027028181 0.0089067723602 -0.00072393001756 0.0088820653036 0.0093246577308 -0.00031097844476 0.0028949670959 
0.006758057978 0.0014132387005 -0.0026738182642 0.0027152679395 0.0039647636004 -0.0029767516535 0.005831529852 0.0032466570847 0.001259772107 
0.013209534809 0.00089465786004 -1.2234228961e-05 0.019258579239 -0.0009404430748 -0.0054247686639 0.022922780365 -0.0023613104131 -0.011546251364 
0.024674428627 -0.0034823089372 -0.017105638981 0.025006519631 -0.004604769405 -0.021790938452 0.024877453223 -0.0062310290523 -0.025295522064 
0.024499310181 -0.0074889380485 -0.029009021819 0.023143464699 -0.0089703025296 -0.03291875124 0.020783420652 -0.0103233587 -0.036147933453 
0.017630187795 -0.011230411008 -0.038268215954 0.013952564448 -0.01060918346 -0.039095010608 0.009549099952 -0.0084993094206 -0.037489939481 
0.0047048330307 -0.005762740504 -0.031902462244 0.00020106731972 -0.0010053541046 -0.02215689607 -0.0031882198527 0.0046473382972 -0.010287539102 
-0.0042341686785 0.010987883434 5.8106892538e-05 -0.00059064634843 0.017691252753 0.0057676020078 -0.00073124584742 -0.014708463103 -0.042813032866 
-0.0053042974323 -0.014065933414 -0.03640127182 0.0039418186061 -0.015406338498 -0.047900822014 0.0087547758594 -0.015730293468 -0.052229695022 
0.013708777726 -0.015262072906 -0.055664993823 0.019153004512 -0.014140225016 -0.057242255658 0.024836428463 -0.012923670933 -0.055640257895 
0.028917685151 -0.012011779472 -0.050964590162 0.030809568241 -0.012468841858 -0.044261731207 0.030940501019 -0.011584853753 -0.036466415972 
0.028978260234 -0.010750836693 -0.029698137194 0.026494013146 -0.0098841218278 -0.024706138298 0.02441813983 -0.0079598976299 -0.020464662462 
0.023141622543 -0.0061621665955 -0.016531614587 0.022264776751 -0.0054525784217 -0.011809509248 0.019886016846 -0.0054895081557 -0.0060736527666 
0.015503354371 -0.0061320359819 -0.0016272019129 0.012807309628 -0.006723290775 -0.00059967220295 0.014022127725 -0.0068322857842 -0.00038213128573 
0.019047675654 -0.0061567039229 0.0010118575301 0.026965480298 -0.0041542910039 0.005236543715 0.036642290652 -0.00021825984004 0.012341822498 
0.046549119055 0.0034001891036 0.025432899594 0.055831808597 0.0065105753019 0.043907739222 0.030492413789 0.011016477831 0.051091648638 
0.034363213927 0.0097398040816 0.045676425099 0.022313928232 0.0090264016762 0.052121154964 0.012608997524 0.0057669272646 0.046929333359 
0.0063477321528 0.0010246626334 0.038676254451 0.0024560610764 -0.0019930342678 0.031501401216 -0.00072367343819 -0.0026784557849 0.025989981368 
-0.0041632461362 -0.0025883428752 0.021316498518 -0.0060922699049 -0.0026066971477 0.017951155081 -0.0042386548594 -0.0025196380448 0.017692698166 
-0.0069152484648 -0.0034198702779 0.023043505847 -0.013976954855 -0.0051722163334 0.027312472463 -0.021992990747 -0.0078302780166 0.029579140246 
-0.028994178399 -0.010024666786 0.030250540003 -0.034833788872 -0.01263510529 0.029904890805 -0.038421820849 -0.013770535588 0.02955920808 
-0.041045509279 -0.013101561926 0.030906425789 -0.046279035509 -0.010777599178 0.032130144536 -0.053174186498 -0.0088114999235 0.029400419444 
-0.056538861245 -0.0078196087852 0.022038582712 -0.052679307759 -0.0066040442325 0.011774951592 -0.043283525854 -0.0065257013775 0.0024429194164 
-0.032185301185 -0.0061338199303 -0.0024755687919 -0.023702809587 -0.0071758418344 -0.0024991231039 -0.019637394696 -0.0083726067096 -0.0014547758037 
-0.017851047218 -0.0091064469889 -0.0018991476391 -0.016190329567 -0.0093332482502 -0.0039735687897 -0.014344808646 -0.010265077464 -0.0064507448114 
-0.012009868398 -0.011161231436 -0.0088602257892 -0.0099871177226 -0.012147680856 -0.010802296922 -0.0085631152615 -0.013225313276 -0.012988986447 
-0.0089622717351 -0.013711864129 -0.01591527462 -0.0095892073587 -0.013649744913 -0.021685080603 -0.0086162434891 -0.013173068874 -0.028951272368 
0.047603756189 0.010042480193 0.05426312983 0.06270159781 0.0085755642503 0.062552310526 -0.06345243752 -0.029716797173 0.015220702626 
-0.052361525595 -0.025758618489 0.0061470149085 -0.068309053779 -0.031106928363 0.026283396408 -0.064601197839 -0.029041487724 0.036052126437 
-0.053936503828 -0.02349938266 0.041129596531 -0.039540041238 -0.016571186483 0.040985051543 -0.02588534914 -0.010128196329 0.036375328898 
-0.018315270543 -0.0042643006891 0.029720317572 -0.01598329097 -0.00021641944477 0.025995699689 -0.01268975623 0.002366324421 0.025226633996 
-0.007581230253 0.0045477258973 0.024145742878 -0.003361845389 0.0061354418285 0.021813502535 -0.0010205289582 0.0068048117682 0.019486645237 
-8.9290369942e-05 0.0058221463114 0.018008900806 0.0010202933336 0.0028515965678 0.018074031919 0.0042377691716 -0.0010919397464 0.018264988437 
0.0084892949089 -0.0044753667898 0.016392180696 0.011922762729 -0.0061759720556 0.011657509953 0.012848676182 -0.0060258912854 0.0046595712192 
0.010588597506 -0.0045058359392 -0.0022311389912 0.0062361182645 -0.0018287482671 -0.0047374828719 0.017491998151 -0.00031247970765 -0.0023237138521 
0.010174154304 0.001398537308 0.00073908478953 0.023780398071 -0.0020939568058 -0.0084671843797 0.027936760336 -0.0035051275045 -0.015385979787 
0.030233092606 -0.0046023107134 -0.021931087598 0.031238609925 -0.0057941060513 -0.027712181211 0.031719971448 -0.0073878020048 -0.032650560141 
0.031907498837 -0.0093467887491 -0.037615142763 0.030927216634 -0.011620056815 -0.042974792421 0.028310030699 -0.01367304381 -0.047835770994 
0.024244625121 -0.014971234836 -0.050993721932 0.019160691649 -0.014857773669 -0.051720030606 0.013590447605 -0.013369299471 -0.049216661602 
0.0070798778906 -0.011496208608 -0.041391067207 0.00054704654031 -0.0048456210643 -0.024750117213 -0.0042540249415 0.0022349867504 -0.0083086388186 
-0.0038695267867 0.010478178039 0.0048829694279 0.0014810776338 0.017601970583 0.012188417837 0.0081481710076 0.018076878041 0.010035991669 
0.0059376046993 0.010233439505 0.0031852482352 0.0047495840117 0.001850696397 -6.8084264058e-05 0.0045799384825 -0.00090902636293 -0.0029396042228 
0.045359104872 0.011065253057 0.067509785295 0.061147026718 0.0080673396587 0.078312292695 0.033627644181 0.01108258497 0.072145819664 
0.016668733209 0.0090728476644 0.06464343518 0.0046409559436 0.0043202452362 0.051545742899 -0.0013553967001 -0.00020739843603 0.039025131613 
-0.0033225782681 -0.0022766897455 0.030674094334 -0.004964791704 -0.0023334051948 0.025433380157 -0.0058708866127 -0.0017697425792 0.022765424103 
-0.0093576963991 -0.0029665890615 0.029217464849 -0.0055730831809 -0.0021801716648 0.024409851059 -0.016071837395 -0.0042230528779 0.033484395593 
-0.023668725044 -0.0062593738548 0.036176227033 -0.031511679292 -0.0091030495241 0.037206109613 -0.038317240775 -0.01251485385 0.036550182849 
-0.042363755405 -0.014729259536 0.037103492767 -0.046876221895 -0.013322995044 0.040912985802 -0.056441981345 -0.010574996471 0.043438866735 
-0.068332873285 -0.010908978991 0.03965625912 -0.074096940458 -0.010920792818 0.029507588595 -0.069675177336 -0.0092513542622 0.015301015228 
-0.057075891644 -0.0075404308736 0.0021375427023 -0.042550057173 -0.0058534299023 -0.005831815768 -0.029522100464 -0.0070607960224 -0.0055554816499 
-0.022634569556 -0.0088645657524 -0.0031647651922 -0.019603433087 -0.010374963284 -0.0021466652397 -0.017240317538 -0.011264405213 -0.0036607806105 
-0.014674486592 -0.012144220993 -0.005514443852 -0.012209644541 -0.012950143777 -0.0073395073414 -0.01017591171 -0.013810472563 -0.0092473411933 
-0.0088956467807 -0.014899016358 -0.011629790068 -0.010241525248 -0.015667261556 -0.014987899922 -0.011940320022 -0.016007814556 -0.02319954522 
-0.011079489253 -0.016088752076 -0.034062404186 -0.0071688140742 -0.016959832981 -0.044150505215 -0.0017365257954 -0.018024278805 -0.053059332073 
0.0040515204892 -0.018826466054 -0.060864631087 0.010261887684 -0.018951097503 -0.067951723933 0.017609482631 -0.018562078476 -0.074074238539 
0.025825612247 -0.017372855917 -0.076789759099 0.033904772252 -0.016124542803 -0.074417062104 0.039439924061 -0.01526723709 -0.067148059607 
0.041671130806 -0.014249960892 -0.056652598083 0.041113249958 -0.013064549305 -0.044984158128 0.037998668849 -0.011766467243 -0.034344725311 
0.033667258918 -0.010725851171 -0.026789357886 0.030300036073 -0.0090329200029 -0.021535631269 0.02811999619 -0.0072564738803 -0.017331337556 
0.026346374303 -0.0062924269587 -0.012035602704 0.022522633895 -0.006383553613 -0.0052534071729 0.01635096781 -0.0072223348543 -0.00097575207474 
0.013702275231 -0.0080021880567 -0.00094331696164 0.015511364676 -0.0079456539825 -0.0013574732002 0.022200459614 -0.0064791752957 -0.0010481236968 
0.033062789589 -0.0034698874224 0.003731624689 0.045683994889 0.00068971415749 0.011908842251 0.056355044246 0.0032063925173 0.02618646808 
0.066562980413 0.0050030075945 0.04355372861 0.073508948088 0.0050826966763 0.061697404832 0.07421977073 0.0028048676904 0.078640781343 
0.047914694995 0.0059177274816 0.088521316648 0.067826278508 -0.00093442673096 0.089748740196 -0.0053714411333 -0.0018950391095 0.021881008521 
-0.0058314632624 -0.0015528459335 0.023099578917 0.0088906623423 0.00016063805379 0.00030923841405 0.0061859991401 -0.0013732161606 -0.0007984896074 
0.014410340227 -0.00044590301695 -0.00093102228129 0.020781183615 -0.0018482862506 -0.004965424072 0.02647510916 -0.003500493709 -0.010937406681 
0.030631862581 -0.0050345375203 -0.017751084641 0.033218193799 -0.0062909200788 -0.024463757873 0.034707721323 -0.0073981680907 -0.030930098146 
0.035734642297 -0.0089219082147 -0.036768771708 0.036646250635 -0.011062349193 -0.042712364346 0.03621789813 -0.013562871143 -0.049524411559 
0.033855460584 -0.016482049599 -0.055594284087 0.029402922839 -0.018516635522 -0.05994123593 0.022960072383 -0.019132087007 -0.061054989696 
0.016491478309 -0.018525609747 -0.058596506715 0.0099477246404 -0.017887860537 -0.053403109312 -0.0064953337424 -0.00070287258131 -0.0040776152164 
-0.003398321569 -0.0080177010968 -0.0208204519 -0.0045863715932 0.0073750857264 0.0095922211185 0.0022365802433 0.013597151265 0.015483047813 
0.0085603808984 0.013787597418 0.013130461797 0.0065201222897 0.0067981430329 0.0058392458595 -0.079081051052 -0.034300621599 0.02217027545 
-0.069212131202 -0.031175078824 0.012655048631 -0.082786276937 -0.03489023447 0.033660024405 -0.077705644071 -0.032599713653 0.04353236407 
-0.065208494663 -0.026955470443 0.048505213112 -0.048677690327 -0.019177760929 0.047243271023 -0.03281050548 -0.011501954868 0.041027545929 
-0.022619299591 -0.0053123659454 0.033127281815 -0.01809778437 -0.00072946678847 0.027520935982 -0.013984294608 0.0020707834046 0.025210343301 
-0.0071527310647 0.004647555761 0.022722322494 -0.0024663556833 0.0067989812233 0.02026742883 -0.0010264427401 0.0068111233413 0.018242187798 
-0.0011645297054 0.0041075642221 0.017974924296 0.00015617764439 -0.0010187396547 0.019871883094 0.0047271852382 -0.0067962124012 0.021700406447 
0.010839683004 -0.011386515573 0.020633019507 0.015732452273 -0.014002779499 0.015966562554 0.017841968685 -0.013799481094 0.0090309958905 
0.016786178574 -0.012163483538 0.0012891863007 0.013253941201 -0.0098087163642 -0.0042251977138 0.0097883250564 -0.0072239246219 -0.0052918577567 
0.0084606530145 -0.0062234816141 -0.0038893942256 0.0086086457595 -0.0025679953396 -0.00023110749316 0.0091481013224 -0.0058026090264 -0.0021027796902 
0.012020257302 -0.0014110638294 -6.7924767791e-05 -0.043258171529 -0.022481016815 0.001283456455 -0.058849301189 -0.026857156307 0.0070064328611 
-0.038907758892 -0.020417297259 -0.00038591853809 -0.051441587508 -0.024065673351 0.0028466924559 -0.0001287595951 -0.014035350643 -0.036014728248 
0.0029252346139 -0.018304910511 -0.048196099699 0.020655008033 0.0066103986464 0.077642172575 0.0039529316127 0.0041589415632 0.061028815806 
-0.0045769871213 0.00066752411658 0.045407731086 -0.0063181673177 -0.0017606634647 0.034281559289 -0.0062928129919 -0.0022726573516 0.02810228616 
-0.0060667097569 -0.0020014580805 0.025363339111 -0.0059107183479 -0.001773558557 0.024890016764 -0.0054506310262 -0.0017338575562 0.025093881413 
-0.0055227540433 -0.0020556033123 0.025564739481 -0.0052698748186 -0.0018824579893 0.025816440582 -0.0066647608764 -0.002558052307 0.028944425285 
-0.010204672813 -0.0035668872297 0.033494647592 -0.016312025487 -0.0047622639686 0.037695098668 -0.023335821927 -0.0065169697627 0.040806483477 
-0.03078061156 -0.0090351328254 0.042161922902 -0.037381958216 -0.012022506446 0.042046334594 -0.041594475508 -0.013158492744 0.044287264347 
-0.049789249897 -0.011489757337 0.050177644938 -0.064708031714 -0.010682924651 0.052639089525 -0.07990411669 -0.012671285309 0.047416016459 
-0.087203659117 -0.014141064137 0.035371124744 -0.082976073027 -0.012585375458 0.018966581672 -0.068617813289 -0.0097729759291 0.0033805486746 
-0.051407538354 -0.0067221075296 -0.0067299883813 -0.035138782114 -0.0068313055672 -0.0071709435433 -0.025212831795 -0.0081313289702 -0.0049187475815 
-0.020207466558 -0.0099692465737 -0.0025934104342 -0.016749393195 -0.011146791279 -0.0030102019664 -0.013676336035 -0.012149337679 -0.0040131914429 
-0.011288153008 -0.013099401258 -0.0050533390604 -0.0096557801589 -0.013967246749 -0.0065490179695 -0.0088012441993 -0.014921125025 -0.0086632510647 
-0.010573938489 -0.01592333056 -0.01202429086 -0.013856602833 -0.017037019134 -0.021601140499 -0.01237158943 -0.017968839034 -0.036307476461 
-0.008585345 -0.019025657326 -0.047920681536 -0.0030824528076 -0.020052703097 -0.05813954398 0.0030546372291 -0.020783534274 -0.068004243076 
0.010475542396 -0.020786873996 -0.077812314034 0.019754821435 -0.020143406466 -0.086073487997 0.030412148684 -0.019309801981 -0.089529454708 
0.040267515928 -0.018485285342 -0.086226120591 0.046776439995 -0.017664438114 -0.076687276363 0.049433387816 -0.01616550982 -0.063004285097 
0.048074666411 -0.014555281028 -0.048443149775 0.044052388519 -0.012684410438 -0.035649482161 0.038731556386 -0.011052262969 -0.02652409859 
0.034208837897 -0.0093572335318 -0.020428720862 0.031048381701 -0.007990906015 -0.016684025526 0.02868818678 -0.0069413240999 -0.011806964874 
0.025821493939 -0.0066091874614 -0.0074358689599 0.013434562832 -0.0082278884947 -0.0013333545066 0.0149015598 -0.0077676000074 -0.00041284377221 
0.016364870593 -0.0078458469361 -0.0023722941987 0.025205301121 -0.0059669613838 -0.0021452319343 0.039093017578 -0.00268645701 0.0036462724674 
0.052559010684 0.00075275782729 0.01326719299 0.060338228941 0.0025323515292 0.024158123881 0.069038979709 0.0025352791417 0.035218007863 
0.077052161098 0.00094745960087 0.051752969623 0.080415181816 -0.0020773792639 0.068748556077 0.077056474984 -0.005977738183 0.081240348518 
0.056828547269 -0.0065116751939 0.092663764954 0.067973263562 -0.010222159326 0.086312688887 0.039411064237 -0.0022481479682 0.091072455049 
0.017763424665 0.00011726649973 0.080881141126 0.0019645991269 -2.3349110052e-05 0.065052442253 -0.0062652523629 -0.0011072653579 0.047863241285 
-0.0079571362585 -0.0022603368852 0.035792842507 -0.0073022553697 -0.0025070791598 0.029454411939 0.079016566277 -0.0059353732504 0.050948724151 
0.072787053883 -0.0022865426727 0.032629322261 0.07866691798 -0.0098716327921 0.065325081348 0.072224289179 -0.013520659879 0.072972044349 
0.055363602936 -0.013994770125 0.084276989102 0.060750778764 -0.016536386684 0.073587648571 0.043660301715 -0.011525787413 0.0885482952 
0.027825653553 -0.0088331736624 0.086133413017 0.010608730838 -0.0065285442397 0.076391786337 -0.0037365953904 -0.0052904421464 0.062279820442 
-0.0088114636019 -0.0039206026122 0.045568205416 -0.009161493741 -0.0033796711359 0.034482523799 -0.0071295285597 -0.002975980984 0.02863608487 
0.019216002896 -0.0070371543989 -0.0014558004914 0.023377519101 -0.0064942263998 -0.0037882199977 0.017289116979 -0.0018571511609 -0.0017773431027 
0.023125128821 -0.0031749722548 -0.005870340392 0.028480753303 -0.0048678619787 -0.011412532069 0.032621797174 -0.0065527199768 -0.018029062077 
0.035352084786 -0.0079480223358 -0.025072300807 0.037204168737 -0.0091429827735 -0.031870726496 0.038673222065 -0.0105278017 -0.038640715182 
0.039863679558 -0.012417557649 -0.045788362622 0.040074829012 -0.015063462779 -0.053453218192 0.038452062756 -0.018551807851 -0.060715831816 
0.033880203962 -0.021473191679 -0.066616259515 0.026475712657 -0.022729238495 -0.068832188845 0.018491672352 -0.02246340178 -0.066684536636 
0.011252271011 -0.021604586393 -0.061821594834 0.0049076518044 -0.021230800077 -0.056998051703 -0.0035858289339 -0.019114445895 -0.043546866626 
-0.00031037800363 -0.021495856345 -0.053895607591 -0.0069593256339 -0.015770427883 -0.03068010509 -0.0094848824665 -0.010818411596 -0.015822926536 
-0.0086181340739 -0.0038049628492 -0.00099460198544 -0.0048583340831 0.0033172448166 0.011312047951 0.0024384122808 0.0077713173814 0.015423401259 
0.0068122050725 0.007160723675 0.013357292861 0.0036689520348 0.0019633995835 0.0067773559131 -0.0043881665915 -0.0036708333064 -0.0012753652409 
-0.0069191707298 -0.0061081401072 -0.00028516404564 -0.021834505722 -0.013124479912 -0.0022804278415 -0.022849889472 -0.013878084719 -0.0032608197071 
-0.040117174387 -0.020087366924 -0.0019589327276 -0.055753093213 -0.02489997074 0.0018969671801 -0.069025181234 -0.028885221109 0.0086590293795 
-0.081852994859 -0.03298240155 0.017508596182 -0.091495037079 -0.03599371016 0.027910511941 -0.094582274556 -0.03649744764 0.039387810975 
-0.088940188289 -0.034252293408 0.04883447662 -0.075515165925 -0.029234623536 0.053464006633 -0.057697262615 -0.021674556658 0.051671799272 
-0.039879087359 -0.013522049412 0.044653669 -0.027470143512 -0.0069053312764 0.035877093673 -0.020186826587 -0.0025809132494 0.029492752627 
-0.014997603372 0.00014010081941 0.025650097057 -0.0095525598153 0.0016446564114 0.022660659626 -0.0020463524852 0.0050934813917 0.017140625045 
-0.0015549421078 0.0064426069148 0.017511993647 -0.0027769408189 0.00023044749105 0.019461125135 -0.00027511373628 -0.0068560647778 0.02440350689 
0.006511005573 -0.013961789198 0.028463931754 0.015033463016 -0.019047202542 0.028531137854 0.021743394434 -0.021928906441 0.024241598323 
0.024960711598 -0.021240441129 0.01709687151 0.025413881987 -0.019610542804 0.0086617413908 0.024025158957 -0.017298940569 0.0017291342374 
0.020799512044 -0.014500522986 -0.0026177370455 0.017621293664 -0.012932498008 -0.0047912802547 0.015011277981 -0.010653831065 -0.0040023131296 
0.0107243862 -0.0059054847807 -0.0014691010583 0.013632084243 -0.0081253899261 -0.0024140905589 0.011069383472 -0.0036158196162 -0.00038369485992 
0.01425858587 -0.0025055676233 -0.00017860876687 -0.0029879799113 0.0047026979737 0.018841482699 -0.0051081790589 0.0017508441815 0.019958956167 
-0.0056942915544 -0.0027889867779 0.026138622314 -0.0061214589514 -0.0024057198316 0.026390071958 -0.0050945570692 -0.0028037333395 0.026662247255 
-0.0050679827109 -0.0034717249218 0.026073902845 -0.0053693517111 -0.0024492347147 0.027240326628 -0.0058814445511 -0.0026608703192 0.028425522149 
-0.0071705533192 -0.0035402604844 0.031342726201 -0.0095964577049 -0.0046924906783 0.035811860114 -0.014459433965 -0.0059128352441 0.040031012148 
-0.020701695234 -0.0074682547711 0.043706811965 -0.027539268136 -0.0092886220664 0.045775618404 -0.033793479204 -0.011046661995 0.047358579934 
-0.039860345423 -0.010992562398 0.051807835698 -0.052314899862 -0.0097384816036 0.059096395969 -0.071017876267 -0.011351240799 0.060948397964 
-0.08933737129 -0.015578756109 0.053763099015 -0.097764968872 -0.017727950588 0.039668865502 -0.093404561281 -0.016011454165 0.02163415961 
-0.078289546072 -0.012058475055 0.0041130958125 -0.059835001826 -0.007668659091 -0.0076281540096 -0.041246414185 -0.0069430815056 -0.0079872589558 
-0.028453012928 -0.0071304105222 -0.0065104113892 -0.021545810625 -0.0085288891569 -0.0035696986597 -0.016521003097 -0.0096923802048 -0.0032071266323 
-0.012838657014 -0.010961789638 -0.0030290384311 -0.010343755595 -0.012138793245 -0.0031275320798 -0.0091014709324 -0.013148289174 -0.0038838207256 
-0.0088799828663 -0.014186533168 -0.0054548266344 -0.010762190446 -0.01534010563 -0.0077472524717 -0.014047430828 -0.016554843634 -0.012685442343 
-0.0098600508645 -0.020430969074 -0.050014205277 -0.013416887261 -0.019382592291 -0.038888193667 -0.0043480703607 -0.021308787167 -0.060610938817 
0.0018051287625 -0.022074945271 -0.071714214981 0.0098769515753 -0.022426091135 -0.083127751946 0.02084284462 -0.022583423182 -0.092500470579 
0.033052787185 -0.022306388244 -0.096146345139 0.044256664813 -0.021190548316 -0.091992586851 0.051942061633 -0.019605457783 -0.080586232245 
0.055033538491 -0.017954580486 -0.063949108124 0.052822969854 -0.015986140817 -0.046930391341 0.047482483089 -0.01365948841 -0.034432519227 
0.041670035571 -0.011242914945 -0.025290274993 0.036882989109 -0.0093530369923 -0.019200740382 0.032934755087 -0.0080778012052 -0.015272163786 
0.030128050596 -0.0071332654916 -0.011133170687 0.02768394351 -0.0067153922282 -0.0083781341091 0.026926180348 -0.0064304638654 -0.0063928356394 
0.020810237154 -0.0061249136925 -0.0011980038835 0.025666670874 -0.0058400328271 -0.0039923032746 0.016576081514 -0.0067459749989 -6.7913853854e-05 
0.013593541458 -0.0074961101636 -0.00027546359343 0.013006856665 -0.0078837713227 -0.0017152354121 0.016842154786 -0.0073731178418 -0.0033583214972 
0.028020408005 -0.0056435186416 -0.0024500025902 0.046150185168 -0.002849121578 0.0063772946596 0.062692344189 0.00033927781624 0.020027814433 
-0.016144290566 -0.018504699692 -0.027758004144 -0.016717115417 -0.017601177096 -0.018104910851 -0.0064588435926 -0.003529334208 0.027195595205 
-0.0056734872051 -0.0042905420996 0.025589248165 -0.0045805429108 -0.0044044167735 0.026231195778 -0.0047310451046 -0.0048426683061 0.024374576285 
-0.0049194009043 -0.0038179587573 0.027820436284 -0.0054875258356 -0.0034663318656 0.028981858864 -0.0059050712734 -0.0034404578619 0.029833566397 
-0.0065523413941 -0.0043321321718 0.032088872045 -0.0078828465194 -0.0055520520546 0.035978991538 -0.011626460589 -0.0066421250813 0.040154889226 
-0.016997650266 -0.0079723279923 0.0443806611 -0.023402489722 -0.0091522587463 0.047713402659 -0.030076382682 -0.0098599866033 0.0516763255 
-0.039046891034 -0.009985787794 0.057075172663 -0.053601033986 -0.010647292249 0.064839303493 -0.073958873749 -0.014215745032 0.067309774458 
-0.097169555724 -0.020635472611 0.060116000473 -0.10555585474 -0.021494518965 0.04213431105 -0.10051109642 -0.019673157483 0.023215308785 
-0.085437200963 -0.014521610923 0.0045331330039 -0.06612123549 -0.0090529564768 -0.0081703783944 -0.04729154706 -0.0070063169114 -0.0099138766527 
-0.032820049673 -0.0062598315999 -0.0085391579196 -0.023953201249 -0.0071185035631 -0.0054326453246 -0.017520599067 -0.0082221692428 -0.00417379383 
-0.012817245908 -0.00950403139 -0.0031395715196 -0.0099131623283 -0.010845683515 -0.0022420829628 -0.0087824380025 -0.012127811089 -0.0020464675035 
-0.0090871462598 -0.013380895369 -0.0027291984297 -0.011015171185 -0.014707858674 -0.0041382666677 -0.013926375657 -0.015887666494 -0.0071789566427 
-0.016477942467 -0.016826493666 -0.011124055833 -0.018505537882 -0.018517689779 -0.022927604616 -0.018381146714 -0.017605869099 -0.015115564689 
-0.016910994425 -0.019235331565 -0.03169510141 -0.014061404392 -0.020133582875 -0.041446723044 -0.010523579083 -0.021106857806 -0.051616515964 
-0.0049797184765 -0.022066660225 -0.062094312161 0.0010670201154 -0.023218268529 -0.073213517666 0.009469313547 -0.024354159832 -0.084595769644 
0.020532900468 -0.025315683335 -0.093948580325 0.032785542309 -0.025152292103 -0.098026007414 0.044462643564 -0.023796036839 -0.09460747242 
0.053627174348 -0.021666424349 -0.082757428288 0.057981789112 -0.019496547058 -0.06178804487 0.05365402624 -0.01665381901 -0.042663883418 
0.047653172165 -0.013834724203 -0.031856063753 0.042298484594 -0.011007274501 -0.024006135762 0.037905953825 -0.0088545652106 -0.017961276695 
0.033994045109 -0.0076108388603 -0.013793716207 0.030455436558 -0.0067844460718 -0.0095393201336 0.030227001756 -0.006205025129 -0.0081740170717 
0.024029122666 -0.00505334232 -0.0018496245611 0.029673503712 -0.0056164325215 -0.0066239386797 0.018059918657 -0.0053985053673 0.00063856341876 
0.014280730858 -0.0062650684267 0.00078778230818 0.01300788112 -0.0069058444351 -6.6532054916e-05 0.012610817328 -0.0069659845904 -0.0017588608898 
0.016597911716 -0.0068029495887 -0.0037785570603 0.028176190332 -0.0061595430598 -0.0027059081476 0.053000982851 -0.0058445138857 0.010933659971 
0.019263384864 -0.0028126488905 -0.0018204500666 0.024910829961 -0.0039569465443 -0.0053063002415 0.030202770606 -0.0056885033846 -0.010644766502 
0.034399926662 -0.0074538779445 -0.017113199458 0.037211358547 -0.0089564463124 -0.024253875017 0.0392899625 -0.01020402927 -0.031156446785 
0.040879175067 -0.011519830674 -0.03842035681 0.042011976242 -0.013034651987 -0.046217225492 0.043099362403 -0.015515614301 -0.054161347449 
0.042419534177 -0.019445443526 -0.063065893948 0.03793560341 -0.023248249665 -0.071266658604 0.02985211648 -0.025231782347 -0.075111880898 
0.020623870194 -0.025087945163 -0.073505021632 0.012401991524 -0.023940298706 -0.068225644529 0.0068144518882 -0.022951265797 -0.062960714102 
0.0033324470278 -0.023768663406 -0.062819182873 -0.005618553143 -0.02205869928 -0.050389915705 -0.0012534135021 -0.024846471846 -0.061186283827 
-0.0087793748826 -0.019630555063 -0.039331045002 -0.010998748243 -0.016578108072 -0.026645192876 -0.012840742245 -0.012749079615 -0.012684019282 
-0.010776841082 -0.0072065205313 0.00087097316282 -0.0052114161663 -0.0017234385014 0.011214461178 0.0012930443045 0.0011182728922 0.014447591268 
0.0042430749163 0.00039720418863 0.012298244983 0.00071432121331 -0.0035834216978 0.0057313991711 -0.0097305886447 -0.0086282473058 -0.0011005478445 
-0.025574551895 -0.014442464337 -0.0051761274226 -0.043061804026 -0.01941832155 -0.0042620408349 -0.06039045006 -0.024149484932 0.00029588348116 
-0.076207138598 -0.028474222869 0.0085621941835 -0.090407937765 -0.032806646079 0.018929662183 -0.10050497204 -0.036161143333 0.030827933922 
-0.10330459476 -0.037087380886 0.043041478842 -0.09716001153 -0.035521768034 0.052710786462 -0.083038896322 -0.031325589865 0.057731814682 
-0.06415668875 -0.024635847658 0.056514885277 -0.044944431633 -0.016454875469 0.049662288278 -0.030863814056 -0.0092887468636 0.040162783116 
-0.021551366895 -0.0048790308647 0.03278131783 -0.014964412898 -0.0022445246577 0.0278148707 -0.0100450553 -0.00094102398725 0.024143183604 
-0.0063095232472 -0.00074891844997 0.021485500038 -0.0029983294662 0.00094955106033 0.017620690167 -0.0040048398077 -0.0012864968739 0.019603686407 
-0.0021821293049 0.0031594897155 0.016215588897 -0.002695863368 0.0038007032126 0.015957484022 -0.0042886277661 0.0011435033521 0.018338125199 
-0.0045546372421 -0.0054644816555 0.024538185447 0.00080257433001 -0.013026228175 0.033267896622 0.010802687146 -0.019489519298 0.039736162871 
0.02191908285 -0.023685825989 0.041098061949 0.030875006691 -0.025933861732 0.037675131112 0.034695785493 -0.02515020594 0.028653960675 
0.035367265344 -0.023452986032 0.019166933373 0.035944972187 -0.021549077705 0.012146988884 0.034815020859 -0.019629275426 0.0059104957618 
0.031171631068 -0.017343631014 0.00082017440582 0.025801965967 -0.014276172966 -0.0022114249878 0.019600236788 -0.010184854269 -0.0026706033386 
0.013104530983 -0.0062650772743 -0.0018457853002 0.015243599191 -0.0071273716167 -0.0025648637675 0.012018932961 -0.0056212279014 -0.0015505048214 
0.012657186016 -0.004054795485 -0.00037535827141 0.015557089821 -0.0030410687905 0.0003738628875 -0.0059003964998 -0.0045959493145 0.031011773273 
-0.0061690933071 -0.0058088414371 0.034443341196 -0.0089986920357 -0.0067118462175 0.038454353809 -0.013797484338 -0.0078387316316 0.043084118515 
-0.020030448213 -0.0087757706642 0.047643508762 -0.02708931081 -0.0092832436785 0.05368758738 -0.037196721882 -0.0099380984902 0.060220275074 
-0.051736876369 -0.011822142638 0.0685300529 -0.069846756756 -0.016390409321 0.071224465966 -0.087758108974 -0.022732594982 0.069029726088 
-0.10436720401 -0.023432208225 0.02312964201 -0.11015705764 -0.026106089354 0.039997603744 -0.090432435274 -0.017828943208 0.0056070266291 
-0.071671910584 -0.012197447009 -0.0055975303985 -0.053099561483 -0.0084566548467 -0.010118386708 -0.037580076605 -0.0064347577281 -0.010794405825 
-0.027127692476 -0.006847019773 -0.0072766854428 -0.019252890721 -0.0077515663579 -0.0051999059506 -0.013481061906 -0.0088430019096 -0.0035415380262 
-0.0099572045729 -0.010143673979 -0.0018656789325 -0.0087157189846 -0.011428857222 -0.00084696669364 -0.0089939702302 -0.012796730734 -0.00078001251677 
-0.010563560762 -0.013957766816 -0.0015245034592 -0.013235424645 -0.015134037472 -0.0033964116592 -0.015030846 -0.015791306272 -0.0063308109529 
-0.01670829393 -0.016267053783 -0.0093414997682 -0.018798019737 -0.018120272085 -0.019465398043 -0.018065020442 -0.016923997551 -0.012495576404 
-0.017876086757 -0.018883384764 -0.027181098238 -0.016095722094 -0.019601583481 -0.035328906029 -0.014405944385 -0.020548392087 -0.043437816203 
-0.010941300541 -0.021428881213 -0.052318632603 -0.0056863785721 -0.022698683664 -0.062514744699 -4.1245443754e-06 -0.024179305881 -0.072780184448 
0.0075242142193 -0.025822408497 -0.082525022328 0.017549101263 -0.027350688353 -0.091538161039 0.030045120046 -0.027633657679 -0.096713244915 
0.041931901127 -0.026563066989 -0.094894148409 0.05086613819 -0.024550536647 -0.085276924074 0.055515762419 -0.022093879059 -0.070834346116 
0.045895796269 -0.013061499223 -0.030146526173 0.050020884722 -0.015821531415 -0.038882493973 0.041700579226 -0.010420463048 -0.023464271799 
0.03810460493 -0.0083445785567 -0.01759651117 0.034265305847 -0.0070671136491 -0.012909145094 -0.10712987185 -0.026988273486 0.053826611489 
-0.10115813464 -0.028698630631 0.062312725931 0.034398466349 -0.006667573005 -0.012220866047 0.029069965705 -0.0050331610255 -0.0050747431815 
0.034562867135 -0.0061954273842 -0.010828800499 0.022134978324 -0.0041604135185 -0.00019896008598 0.014115661383 -0.0043594799936 0.001238912344 
0.012290606275 -0.0059624933638 -0.00087166728918 0.020613588393 -0.0032306564972 -0.0010312964441 0.026512557641 -0.0042821499519 -0.0041867317632 
0.031755369157 -0.0059855985455 -0.0095533290878 0.035905063152 -0.0076720351353 -0.016065971926 0.0386233069 -0.0090949041769 -0.022952698171 
0.040797829628 -0.010251710191 -0.029500484467 0.042410165071 -0.011457044631 -0.036533795297 0.04338414222 -0.012658442371 -0.044238779694 
0.045042928308 -0.014932822436 -0.052240308374 0.045864451677 -0.019314887002 -0.062417596579 0.041718106717 -0.024081191048 -0.073824897408 
0.032743100077 -0.026811799034 -0.080322518945 0.021278409287 -0.027244227007 -0.078919321299 0.010928698815 -0.025878032669 -0.07176823169 
0.0084804939106 -0.028168477118 -0.075319468975 -0.0049414215609 -0.024581085891 -0.056869123131 0.000198570473 -0.026361245662 -0.068227879703 
-0.010011893697 -0.022507457063 -0.046283856034 -0.013295179233 -0.02018645592 -0.03507488966 -0.014412079938 -0.017359871417 -0.023349829018 
-0.014949741773 -0.014224614948 -0.010897430591 -0.012167092413 -0.010428413749 0.00073451350909 -0.0068184081465 -0.0070055960678 0.0097871441394 
-0.0014224065235 -0.0051274965517 0.012316130102 0.00083519145846 -0.0055552180856 0.010315462947 -0.0028955971356 -0.0082346526906 0.0034885730129 
-0.013243691996 -0.010418991558 -0.0033733271994 -0.028568701819 -0.013965803199 -0.0075469147414 -0.045756623149 -0.01769172214 -0.0075974049978 
-0.06363568455 -0.021879119799 -0.0034337684046 -0.080674223602 -0.026425717399 0.0053539522924 -0.095621719956 -0.031013984233 0.016879722476 
-0.10594728589 -0.034709088504 0.030602302402 -0.10879386216 -0.036470830441 0.04410513863 -0.10278659314 -0.035546910018 0.054870035499 
-0.088305614889 -0.031659591943 0.060887396336 -0.068251505494 -0.025612685829 0.060602426529 -0.048277787864 -0.018395947292 0.05480767414 
-0.032322075218 -0.011490732431 0.045984074473 -0.022171791643 -0.0070130629465 0.037509743124 -0.014774819836 -0.0044642332941 0.031712532043 
-0.0097357910126 -0.0030036277603 0.027258560061 -0.0065798242576 -0.0026633222587 0.023980878294 -0.0046851988882 -0.0030911802314 0.022079089656 
-0.0035096528009 -0.0024570301175 0.018556198105 -0.003803235013 -0.0038654434029 0.021233933046 -0.0033218325116 -0.00069773534779 0.016552232206 
-0.0037319005933 0.00061802717391 0.015815550461 -0.0054857935756 -0.00040642428212 0.016968861222 -0.0070807184093 -0.0043760137632 0.022769663483 
-0.0054533979855 -0.011524943635 0.034072645009 0.0039231176488 -0.018186878413 0.046292986721 0.01712141186 -0.021986687556 0.053030472249 
0.029831686988 -0.023780241609 0.054538890719 0.044557441026 -0.024187745526 0.054197926074 0.045658189803 -0.024485293776 0.03885165602 
0.043283343315 -0.024226179346 0.02771509625 0.047043554485 -0.022700535133 0.025079244748 0.049355071038 -0.021594855934 0.018626749516 
0.046391278505 -0.018744692206 0.011413191445 0.03871133551 -0.014769694768 0.0045460835099 0.028355432674 -0.010780476034 -0.00064292771276 
0.018955027685 -0.0075436257757 -0.0028393692337 0.013045969419 -0.0045338887721 -0.0011358604534 0.013074901886 -0.0054614208639 -0.0021958746947 
0.013216172345 -0.0041905976832 -0.00049756211229 0.069406211376 -0.0098775839433 0.029839674011 0.07305431366 -0.013637651689 0.045430481434 
0.069306448102 -0.017115008086 0.055252276361 0.060037881136 -0.020776784047 0.058147821575 0.047113381326 -0.020395573229 0.069189928472 
0.041274741292 -0.017334518954 0.076288826764 0.029434831813 -0.015730768442 0.07807546854 0.017117703333 -0.013221569359 0.075629480183 
0.0028895458672 -0.011475618929 0.066396683455 -0.0087266368791 -0.0091859288514 0.051941748708 -0.011005030945 -0.0060479743406 0.038493283093 
-0.0088582886383 -0.0044649075717 0.030456580222 -0.0072329565883 -0.0050358795561 0.026138246059 -0.0056499005295 -0.0052973162383 0.0228747949 
-0.004068155773 -0.005103086587 0.023939343169 -0.0041466094553 -0.0046874131076 0.021250952035 -0.0043368386105 -0.0051894886419 0.026741111651 
-0.0050996104255 -0.0048921946436 0.029189653695 0.027746453881 -0.0043458533473 -0.0033310493454 0.021525826305 -0.0032379147597 -4.0557013563e-05 
0.03291419521 -0.005936073605 -0.0091378390789 0.036884795874 -0.0074286418967 -0.015566231683 0.039321355522 -0.0086614247411 -0.021617811173 
0.041432563215 -0.0095862764865 -0.027052512392 0.042994037271 -0.010703081265 -0.033447604626 0.043960288167 -0.011837584898 -0.040580730885 
0.045861069113 -0.013881699182 -0.047810625285 0.048892971128 -0.018470576033 -0.058244068176 0.047174308449 -0.025411903858 -0.074720725417 
0.035671714693 -0.029105117545 -0.085324712098 0.022448033094 -0.029840229079 -0.084810338914 -0.0047227349132 -0.023510368541 -0.061285737902 
-7.5692179962e-05 -0.024644251913 -0.070742927492 0.0056637004018 -0.026437412947 -0.077571585774 -0.0089635085315 -0.023228868842 -0.051619485021 
-0.013047053479 -0.022093914449 -0.041789736599 -0.015500656329 -0.020157987252 -0.031517077237 -0.016820400953 -0.018081635237 -0.021009005606 
-0.016403576359 -0.015645733103 -0.010705824941 -0.013828889467 -0.013481455855 -0.0016897643218 -0.0088762436062 -0.010769734159 0.0067658224143 
-0.0046051498502 -0.009241069667 0.0089753046632 -0.0029825596139 -0.0091492440552 0.0080039044842 -0.0041976869106 -0.0093453256413 0.0049857841805 
-0.031092034653 -0.012244522572 -0.0095507586375 -0.018069978803 -0.010759877972 -0.0058261016384 -0.046889908612 -0.014531279914 -0.010621294379 
-0.064834885299 -0.018334923312 -0.0073002465069 -0.082161344588 -0.022871198133 0.0012861228315 -0.097705163062 -0.027907999232 0.012919873931 
-0.10831254721 -0.032389890403 0.02782487683 -0.11179829389 -0.034859530628 0.042438730597 -0.1065575704 -0.034254040569 0.055484298617 
-0.090816661716 -0.029604488984 0.06560331583 -0.049443874508 -0.018102202564 0.059249732643 -0.068659253418 -0.023996820673 0.06486145407 
-0.033536367118 -0.012568072416 0.051147896796 -0.022699343041 -0.0085906367749 0.04249868542 -0.014721428044 -0.0061946753412 0.036350283772 
-0.0095721576363 -0.004717990756 0.031112218276 -0.0061867330223 -0.0041371588595 0.027262914926 -0.0048477835953 -0.004263529554 0.025016434491 
-0.0040189931169 -0.004805997014 0.0243231114 -0.0098396278918 -0.010147998109 -0.0018505436601 -0.0067969188094 -0.010001688264 0.0016551699955 
0.054982725531 -0.018258811906 -0.048464853317 0.055460691452 -0.019832609221 -0.056638486683 0.014652498998 -0.006359659601 -0.0035183203872 
0.02380133979 -0.0071950219572 -0.002623729175 0.039353709668 -0.0094792647287 0.0038029595744 0.053448654711 -0.012975532562 0.015039398335 
0.061180572957 -0.017004031688 0.026530599222 0.06096964702 -0.020166404545 0.036063410342 0.05538694188 -0.023091662675 0.040349982679 
-0.0050239749253 -0.0057310410775 0.031548600644 -0.0066793626174 -0.0064313928597 0.03596848622 -0.010735891759 -0.0074393586256 0.041164837778 
-0.016947261989 -0.0083920005709 0.046606764197 -0.024552406743 -0.0091707026586 0.053241558373 -0.035176284611 -0.010404523462 0.06041303277 
-0.048228055239 -0.012839994393 0.068063557148 -0.063315182924 -0.017337111756 0.070989049971 -0.077047750354 -0.02276445739 0.070679917932 
-0.10957259685 -0.032241430134 0.052446871996 -0.11056476086 -0.029917724431 0.048116710037 -0.11177843064 -0.029513329268 0.037771381438 
-0.10670418292 -0.026725005358 0.022563099861 -0.094483017921 -0.021150516346 0.0059469928965 -0.077235974371 -0.01511453744 -0.0060618831776 
-0.059073507786 -0.010711831972 -0.011617006734 -0.042238868773 -0.008016038686 -0.013010608032 -0.029959775507 -0.0078310081735 -0.0090425657108 
-0.020534930751 -0.0083034094423 -0.006114336662 -0.01388879586 -0.009023014456 -0.0034797599073 -0.0099764633924 -0.0098852198571 -0.0011637710268 
-0.0085986349732 -0.010863089003 0.00034092739224 -0.0086085340008 -0.011972066946 0.00078498054063 -0.0098086306825 -0.013005528599 0.00035362050403 
-0.01205871813 -0.014087086543 -0.00080198887736 -0.013751000166 -0.014745548368 -0.0031209059525 -0.014961991459 -0.01504740864 -0.004673469346 
-0.016024144366 -0.015408718958 -0.0064367959276 -0.018149537966 -0.018703715876 -0.023593753576 -0.018889967352 -0.017791150138 -0.016070816666 
-0.016643879935 -0.019528416917 -0.031563017517 -0.01489384193 -0.02024554275 -0.039094250649 -0.013543407433 -0.020744137466 -0.044550053775 
-0.010564039461 -0.021587764844 -0.051034677774 -0.01014382951 -0.0066838376224 0.028857506812 -0.0068272431381 -0.0055229328573 0.021808603778 
-0.0046099582687 -0.0039795772173 0.018893782049 -0.0050309118815 -0.0028664420824 0.017514169216 -0.0055605084635 -0.0018212810392 0.017161607742 
-0.0079932482913 -0.0039744162932 0.019979551435 -0.0092583177611 -0.008853925392 0.029824482277 -0.0045120031573 -0.014860977419 0.045157015324 
0.01195021905 -0.018681081012 0.061910361052 0.026813458651 -0.020382056013 0.06543109566 0.034982930869 -0.021712856367 0.063840538263 
0.01446223259 -0.028871569782 -0.085580833256 0.026424264535 -0.030060028657 -0.091795325279 0.038562241942 -0.029344640672 -0.091223798692 
0.04760780558 -0.027122233063 -0.083135224879 0.052606210113 -0.02414049767 -0.07361408323 0.053236488253 -0.022185828537 -0.06363466382 
0.051584549248 -0.016696339473 -0.045349106193 0.050794407725 -0.017314093187 -0.050949901342 0.050886414945 -0.016598792747 -0.043351288885 
0.047454115003 -0.014550242573 -0.037178244442 0.044323440641 -0.01205033157 -0.030208949 0.041305664927 -0.009854898788 -0.024193674326 
0.038134306669 -0.0079817185178 -0.018002182245 0.03906776011 -0.0076807872392 -0.018684972078 0.033801514655 -0.0058863889426 -0.0095885796472 
0.037515435368 -0.0071713244542 -0.015865076333 0.028420781717 -0.0045365509577 -0.0037120671477 0.021740861237 -0.0034179692157 0.00030971856904 
0.0082953525707 -0.015849966556 0.064811311662 -0.0028950362466 -0.014220488258 0.054717242718 -0.010534264147 -0.009495517239 0.035864334553 
-0.0043957214803 -0.0053683202714 0.02811553888 -0.11251129955 -0.032533988357 0.039597321302 -0.10821084678 -0.029721792787 0.024365507066 
-0.097126558423 -0.024520745501 0.0087353801355 -0.081155464053 -0.01883873716 -0.003301656805 -0.063500098884 -0.01431132108 -0.010783812962 
-0.045741926879 -0.010955872945 -0.013352288865 -0.031407102942 -0.0098122535273 -0.010325544514 -0.020375257358 -0.0096112312749 -0.0066336970776 
-0.01286615245 -0.0096781533211 -0.0032594266813 -0.0090519506484 -0.0099468585104 -0.00015001141583 -0.0079650012776 -0.010526780039 0.00167299842 
-0.0080901216716 -0.011433790438 0.0022358051501 -0.013273287565 -0.014154923148 -0.00081470631994 -0.013111215085 -0.014222001657 -0.00079534784891 
-0.015086432919 -0.020827090368 -0.03687845543 -0.017053546384 -0.01959679462 -0.02786189504 -0.012715659104 -0.021517112851 -0.045008193702 
-0.0057215564884 -0.0057791774161 0.033051136881 -0.0094278026372 -0.0066901766695 0.038335062563 -0.015253884718 -0.007848023437 0.044272173196 
-0.022926261649 -0.0091920057312 0.051328517497 -0.034232914448 -0.011316140182 0.05859651044 -0.046650536358 -0.014114030637 0.065325170755 
-0.057419545949 -0.017182242125 0.06934466958 -0.063385866582 -0.020266968757 0.068123526871 -0.048181589693 -0.016166351736 0.062989920378 
-0.033873144537 -0.012285223231 0.05562883988 -0.022715575993 -0.0092204622924 0.047572590411 -0.014780938625 -0.0072580231354 0.040716733783 
-0.0092742610723 -0.0058911517262 0.035057298839 -0.0059733907692 -0.0051964437589 0.030709899962 -0.0045825783163 -0.004961210303 0.027864828706 
0.046644162387 -0.013671978377 -0.03854207322 0.044071611017 -0.011201454327 -0.032086707652 0.041842617095 -0.0093393074349 -0.025960113853 
-0.017922021449 -0.018216339871 -0.01926798746 -0.017879186198 -0.017000986263 -0.01256212499 -0.017134906724 -0.016145547852 -0.0090148197487 
-0.0071339430287 -0.01125350967 0.0060036275536 -0.010127946734 -0.012553711422 0.0042201755568 -0.0056266440079 -0.010660922155 0.0059934346937 
-0.0054735369049 -0.010196289048 0.0049408478662 -0.0066919731908 -0.010419369675 0.0032623868901 0.046248085797 -0.013276102021 -0.042548652738 
0.039439886808 -0.0081385746598 -0.020462581888 0.041192337871 -0.0086788358167 -0.023892115802 0.042799204588 -0.009817417711 -0.029806634411 
-0.008339125663 -0.0053437328897 0.021109083667 0.044126663357 -0.011126484722 -0.036067012697 -0.0084397634491 -0.011839827523 0.0036899319384 
-0.010809714906 -0.012996383943 0.0022682475392 -0.0071756741963 -0.011167011224 0.0039654076099 -0.0049908258952 -0.0020686034113 -0.003488040762 
-0.023820763454 -0.013647042215 -0.0031259448733 -0.0064907809719 -0.0023105414584 0.026892064139 0.016245696694 -0.0029229247011 0.0010779252043 
0.015536994673 -0.0030427877791 0.0012678827625 -0.011240131222 -0.013272250071 0.0009127445519 -0.0091110765934 -0.012253808789 0.0019288796466 
-0.013719090261 -0.01411415264 -0.00055127730593 
